generated by phonopy                    
   1.00000000000000     
     7.5932337741067286    0.0000000000000000    0.0000000000000000
    -3.7966168870533643    6.5759333452504176    0.0000000000000000
     0.0000000000000000   -0.0000000000000000   13.5835505099986271
   B    N    Ga
    34    36     2
Direct
  0.1136544134556463  0.2294038382548751 -0.0009084174871395
  0.4490827581325645  0.2294038382548751 -0.0009084174871395
  0.7777777777777786  0.2222222222222214 -0.0008535165475957
  0.1136544134556463  0.5509172418674351 -0.0009084174871395
  0.4444444444444429  0.5555555555555571 -0.0216288345806518
  0.7705961617451246  0.5509172418674351 -0.0009084174871395
  0.4490827581325646  0.8863455865443534 -0.0009084174871395
  0.7705961617451246  0.8863455865443534 -0.0009084174871395
  0.1037797858749834  0.2175276891564704  0.5007437115875398
  0.4470812366148230  0.2175276891564704  0.5007437115875398
  0.7777777777777786  0.2222222222222214  0.5217122060802692
  0.1037797858749834  0.5529187633851772  0.5007437115875398
  0.7824723108435293  0.5529187633851772  0.5007437115875398
  0.1111111111111143  0.8888888888888857  0.5004407362836057
  0.4470812366148230  0.8962202141250164  0.5007437115875398
  0.7824723108435293  0.8962202141250164  0.5007437115875398
  0.2239219874612910  0.1145106415892534  0.2478317455585289
  0.5563656616449951  0.1115161641558334  0.2498006847129057
  0.8884838358441666  0.1115161641558334  0.2498006847129057
  0.2188025508834125  0.4427346087750384  0.2527796636822687
  0.5572653912249615  0.4427346087750384  0.2527796636822687
  0.8884838358441666  0.4436343383550047  0.2498006847129057
  0.2239219874612910  0.7760780125387088  0.2478317455585289
  0.5572653912249615  0.7811974491165875  0.2527796636822687
  0.8854893584107471  0.7760780125387088  0.2478317455585289
  0.2222367779116653  0.1111402224900020  0.7499239347537406
  0.5554461261701110  0.1110563964183914  0.7506232253071636
  0.8889436035816090  0.1110563964183914  0.7506232253071636
  0.2221914654592251  0.4444290660629447  0.7495517891703435
  0.5555709339370553  0.4444290660629447  0.7495517891703435
  0.8889436035816090  0.4445538738298887  0.7506232253071636
  0.2222367779116653  0.7777632220883350  0.7499239347537406
  0.5555709339370553  0.7778085345407749  0.7495517891703435
  0.8888597775099979  0.7777632220883350  0.7499239347537406
  0.2403179130654785  0.1473024927976284  0.0219713208112891
  0.5553730842283876  0.1110198754475295  0.0023279239439745
  0.8889801245524704  0.1110198754475295  0.0023279239439745
  0.2219193766853437  0.4442930216760039 -0.0206567475572170
  0.5557069783239960  0.4442930216760039 -0.0206567475572170
  0.8889801245524704  0.4446269157716125  0.0023279239439745
  0.2403179130654785  0.7596820869345213  0.0219713208112891
  0.5557069783239960  0.7780806233146564 -0.0206567475572170
  0.8526975072023715  0.7596820869345213  0.0219713208112891
  0.2222879900016130  0.1112426466698972  0.4971419919279613
  0.5551862356004117  0.1109264511335415  0.5208102222118213
  0.8890735488664584  0.1109264511335414  0.5208102222118213
  0.1858422043580141  0.4262544355123392  0.4778595874075636
  0.5737455644876606  0.4262544355123392  0.4778595874075636
  0.8890735488664584  0.4448137643995885  0.5208102222118213
  0.2222879900016130  0.7777120099983872  0.4971419919279613
  0.5737455644876606  0.8141577956419859  0.4778595874075636
  0.8887573533301024  0.7777120099983872  0.4971419919279613
  0.1108999205385351  0.2222416146195082  0.2501010219051695
  0.4446750274143089  0.2222416146195082  0.2501010219051695
  0.7777777777777786  0.2222222222222214  0.2508462105046539
  0.1108999205385351  0.5553249725856908  0.2501010219051695
  0.4444444444444429  0.5555555555555571  0.2609358469349568
  0.7777583853804917  0.5553249725856908  0.2501010219051695
  0.1111111111111143  0.8888888888888857  0.2386797801255043
  0.4446750274143088  0.8891000794614649  0.2501010219051695
  0.7777583853804917  0.8891000794614649  0.2501010219051695
  0.1111669806056192  0.2222045890129019  0.7500282491325835
  0.4443709417406185  0.2222045890129019  0.7500282491325835
  0.7777777777777786  0.2222222222222214  0.7518455934514300
  0.1111669806056192  0.5556290582593816  0.7500282491325835
  0.4444444444444429  0.5555555555555571  0.7479958379184286
  0.7777954109870983  0.5556290582593816  0.7500282491325835
  0.1111111111111143  0.8888888888888857  0.7501550276676844
  0.4443709417406185  0.8888330193943812  0.7500282491325835
  0.7777954109870983  0.8888330193943812  0.7500282491325835
  0.1111111111111143  0.8888888888888857  0.0677547609781029
  0.4444444444444429  0.5555555555555571  0.4324329345636562
 
  0.00000000E+00  0.00000000E+00  0.00000000E+00
  0.00000000E+00  0.00000000E+00  0.00000000E+00
  0.00000000E+00  0.00000000E+00  0.00000000E+00
  0.00000000E+00  0.00000000E+00  0.00000000E+00
  0.00000000E+00  0.00000000E+00  0.00000000E+00
  0.00000000E+00  0.00000000E+00  0.00000000E+00
  0.00000000E+00  0.00000000E+00  0.00000000E+00
  0.00000000E+00  0.00000000E+00  0.00000000E+00
  0.00000000E+00  0.00000000E+00  0.00000000E+00
  0.00000000E+00  0.00000000E+00  0.00000000E+00
  0.00000000E+00  0.00000000E+00  0.00000000E+00
  0.00000000E+00  0.00000000E+00  0.00000000E+00
  0.00000000E+00  0.00000000E+00  0.00000000E+00
  0.00000000E+00  0.00000000E+00  0.00000000E+00
  0.00000000E+00  0.00000000E+00  0.00000000E+00
  0.00000000E+00  0.00000000E+00  0.00000000E+00
  0.00000000E+00  0.00000000E+00  0.00000000E+00
  0.00000000E+00  0.00000000E+00  0.00000000E+00
  0.00000000E+00  0.00000000E+00  0.00000000E+00
  0.00000000E+00  0.00000000E+00  0.00000000E+00
  0.00000000E+00  0.00000000E+00  0.00000000E+00
  0.00000000E+00  0.00000000E+00  0.00000000E+00
  0.00000000E+00  0.00000000E+00  0.00000000E+00
  0.00000000E+00  0.00000000E+00  0.00000000E+00
  0.00000000E+00  0.00000000E+00  0.00000000E+00
  0.00000000E+00  0.00000000E+00  0.00000000E+00
  0.00000000E+00  0.00000000E+00  0.00000000E+00
  0.00000000E+00  0.00000000E+00  0.00000000E+00
  0.00000000E+00  0.00000000E+00  0.00000000E+00
  0.00000000E+00  0.00000000E+00  0.00000000E+00
  0.00000000E+00  0.00000000E+00  0.00000000E+00
  0.00000000E+00  0.00000000E+00  0.00000000E+00
  0.00000000E+00  0.00000000E+00  0.00000000E+00
  0.00000000E+00  0.00000000E+00  0.00000000E+00
  0.00000000E+00  0.00000000E+00  0.00000000E+00
  0.00000000E+00  0.00000000E+00  0.00000000E+00
  0.00000000E+00  0.00000000E+00  0.00000000E+00
  0.00000000E+00  0.00000000E+00  0.00000000E+00
  0.00000000E+00  0.00000000E+00  0.00000000E+00
  0.00000000E+00  0.00000000E+00  0.00000000E+00
  0.00000000E+00  0.00000000E+00  0.00000000E+00
  0.00000000E+00  0.00000000E+00  0.00000000E+00
  0.00000000E+00  0.00000000E+00  0.00000000E+00
  0.00000000E+00  0.00000000E+00  0.00000000E+00
  0.00000000E+00  0.00000000E+00  0.00000000E+00
  0.00000000E+00  0.00000000E+00  0.00000000E+00
  0.00000000E+00  0.00000000E+00  0.00000000E+00
  0.00000000E+00  0.00000000E+00  0.00000000E+00
  0.00000000E+00  0.00000000E+00  0.00000000E+00
  0.00000000E+00  0.00000000E+00  0.00000000E+00
  0.00000000E+00  0.00000000E+00  0.00000000E+00
  0.00000000E+00  0.00000000E+00  0.00000000E+00
  0.00000000E+00  0.00000000E+00  0.00000000E+00
  0.00000000E+00  0.00000000E+00  0.00000000E+00
  0.00000000E+00  0.00000000E+00  0.00000000E+00
  0.00000000E+00  0.00000000E+00  0.00000000E+00
  0.00000000E+00  0.00000000E+00  0.00000000E+00
  0.00000000E+00  0.00000000E+00  0.00000000E+00
  0.00000000E+00  0.00000000E+00  0.00000000E+00
  0.00000000E+00  0.00000000E+00  0.00000000E+00
  0.00000000E+00  0.00000000E+00  0.00000000E+00
  0.00000000E+00  0.00000000E+00  0.00000000E+00
  0.00000000E+00  0.00000000E+00  0.00000000E+00
  0.00000000E+00  0.00000000E+00  0.00000000E+00
  0.00000000E+00  0.00000000E+00  0.00000000E+00
  0.00000000E+00  0.00000000E+00  0.00000000E+00
  0.00000000E+00  0.00000000E+00  0.00000000E+00
  0.00000000E+00  0.00000000E+00  0.00000000E+00
  0.00000000E+00  0.00000000E+00  0.00000000E+00
  0.00000000E+00  0.00000000E+00  0.00000000E+00
  0.00000000E+00  0.00000000E+00  0.00000000E+00
  0.00000000E+00  0.00000000E+00  0.00000000E+00
