Mo  S Co                                
   1.00000000000000     
    15.9214998300000001    0.0000000000000000    0.0000000000000000
    -7.9622501300000001   13.7910221699999997    0.0000000000000000
     0.0000000000000000    0.0000000000000000   13.5821998300000004
   Mo   S    Co
    25    49     4
Direct
  0.1290270393149555  0.0579817550780604  0.6813044990781023
  0.1320493678313426  0.2608261048976814  0.6751788346665890
  0.1271224287910044  0.4549534823916375  0.6767901736694526
  0.1272550568160540  0.6553849882343172  0.6827772275109822
  0.1273365932588177  0.8559413511512020  0.6850473361797000
  0.3275536856391312  0.0562060957576236  0.6837897746119594
  0.3274942085426034  0.2562386084152379  0.6749105376023863
  0.3183991244887920  0.4499639371540880  0.6734612143708105
  0.3262008713420883  0.6531964239767518  0.6833614718279506
  0.3273444713737348  0.8551381773853421  0.6854433921321359
  0.5278140880177631  0.0554010168130645  0.6845118689265064
  0.5282820210932755  0.2558530861775949  0.6835722432301239
  0.5258682699476651  0.4541931521728984  0.6800930523894237
  0.5260016740287838  0.6529262836101424  0.6817719294085975
  0.5280277996287523  0.8550729777560448  0.6861737054099066
  0.7282567312572468  0.0562560802000363  0.6829610561040269
  0.7282783873703238  0.2549740561000604  0.6819663060994898
  0.7292308088231891  0.4533320043924149  0.6801762938509768
  0.7264399500163847  0.6546633341779682  0.6833581369227204
  0.7295676757965026  0.8590272751481507  0.6826090237907962
  0.9298685041476276  0.0577367119137051  0.6820052292350667
  0.9291578310798769  0.2559655144939725  0.6802661907545655
  0.9280994726833924  0.4553813686285650  0.6805897643480350
  0.9268487948862969  0.6548261875142245  0.6852059775063708
  0.9272321446297127  0.8563010052176097  0.6859800757622381
  0.0619107406658941  0.1234416608114941  0.5646196117501745
  0.0681078365946703  0.1309690954914871  0.7941010024683379
  0.0601186840412922  0.3207353319067749  0.5614681179833312
  0.0667069170947059  0.3242748371971444  0.7934593275484048
  0.0605248867097643  0.5240489027338242  0.5645748278057070
  0.0611965338417377  0.5202853618698455  0.7948879699068669
  0.0601107213837651  0.7230452674861567  0.5696472037637861
  0.0609805362808160  0.7216849149610027  0.7992448478817167
  0.0600280768069936  0.9216986275816978  0.5697285401377172
  0.0623319966642697  0.9255417228838141  0.7987029249200432
  0.2616098986402733  0.1210462576992200  0.5648759780331787
  0.2614850491901777  0.1284192254734648  0.7955217522222142
  0.2611556452025496  0.3201324401137171  0.5588670708879775
  0.2611776759794395  0.5245045986935040  0.5612767734789799
  0.2558150724251433  0.5147528601924378  0.7941404379491175
  0.2615216747221112  0.7229655648493960  0.5691295938726739
  0.2597345947819676  0.7200179790446555  0.7988382406636063
  0.2608123813266658  0.9218538355787658  0.5701616627558579
  0.2608448929485547  0.9232425180533141  0.8000286346296974
  0.4609491295059343  0.1217548240847393  0.5694390841705328
  0.4609069688352605  0.1227418909707509  0.7989205385984164
  0.4626954355290067  0.3219252607620504  0.5652651174477086
  0.4564341597426349  0.3223401606942247  0.7988743703146497
  0.4598842449814313  0.5215356771950255  0.5654306075718338
  0.4411721108076705  0.5077679322110669  0.7980210708827613
  0.4609650486967709  0.7220115972151007  0.5702122124835469
  0.4596839765536203  0.7182822063186052  0.8020405801256132
  0.4608257136986538  0.9212265718422330  0.5707952970642438
  0.4609703356208001  0.9222596204370603  0.8003475139729090
  0.6601718489378001  0.1211547678207907  0.5679001489514093
  0.6622394131128715  0.1230163898469385  0.7984334401568063
  0.6601861960899242  0.3198564584271111  0.5663814618103942
  0.6621531817548600  0.3212263488227975  0.7973670408946489
  0.6609378162450739  0.5222864318777738  0.5678374923693355
  0.6636934892951416  0.5148226728306824  0.7995295746554305
  0.6605867911839738  0.7221301835039284  0.5694007596180768
  0.6634948341495601  0.7304873770730751  0.8019040230695893
  0.6596917115614929  0.9223330156649396  0.5685662750474023
  0.6626811641753534  0.9245533656824065  0.7992314270778991
  0.8610818609497954  0.1216745024167878  0.5669593541631599
  0.8632663762417252  0.1242896550940884  0.7968795547812491
  0.8609161477415910  0.3216473651931153  0.5657887217489943
  0.8630001904223477  0.3222866213904112  0.7959363698151876
  0.8625692235526472  0.5240330187965938  0.5663543983291177
  0.8614993515766400  0.5199024538376804  0.7973111591386655
  0.8605111424527649  0.7225955705271687  0.5710400604048402
  0.8582916896976869  0.7207445282313572  0.8034066346366799
  0.8628963444116948  0.9231762421369183  0.5682379687457910
  0.8631467056874911  0.9262620331807057  0.7989813469591951
  0.5361377899935675  0.4761997557628774  0.8808435638481242
  0.6988893656077551  0.6396511390948731  0.8835317932466680
  0.5846487558423661  0.5831798844379747  0.0101046979380044
  0.5332337569000387  0.6372697540903189  0.8792068361406962
 
  0.00000000E+00  0.00000000E+00  0.00000000E+00
  0.00000000E+00  0.00000000E+00  0.00000000E+00
  0.00000000E+00  0.00000000E+00  0.00000000E+00
  0.00000000E+00  0.00000000E+00  0.00000000E+00
  0.00000000E+00  0.00000000E+00  0.00000000E+00
  0.00000000E+00  0.00000000E+00  0.00000000E+00
  0.00000000E+00  0.00000000E+00  0.00000000E+00
  0.00000000E+00  0.00000000E+00  0.00000000E+00
  0.00000000E+00  0.00000000E+00  0.00000000E+00
  0.00000000E+00  0.00000000E+00  0.00000000E+00
  0.00000000E+00  0.00000000E+00  0.00000000E+00
  0.00000000E+00  0.00000000E+00  0.00000000E+00
  0.00000000E+00  0.00000000E+00  0.00000000E+00
  0.00000000E+00  0.00000000E+00  0.00000000E+00
  0.00000000E+00  0.00000000E+00  0.00000000E+00
  0.00000000E+00  0.00000000E+00  0.00000000E+00
  0.00000000E+00  0.00000000E+00  0.00000000E+00
  0.00000000E+00  0.00000000E+00  0.00000000E+00
  0.00000000E+00  0.00000000E+00  0.00000000E+00
  0.00000000E+00  0.00000000E+00  0.00000000E+00
  0.00000000E+00  0.00000000E+00  0.00000000E+00
  0.00000000E+00  0.00000000E+00  0.00000000E+00
  0.00000000E+00  0.00000000E+00  0.00000000E+00
  0.00000000E+00  0.00000000E+00  0.00000000E+00
  0.00000000E+00  0.00000000E+00  0.00000000E+00
  0.00000000E+00  0.00000000E+00  0.00000000E+00
  0.00000000E+00  0.00000000E+00  0.00000000E+00
  0.00000000E+00  0.00000000E+00  0.00000000E+00
  0.00000000E+00  0.00000000E+00  0.00000000E+00
  0.00000000E+00  0.00000000E+00  0.00000000E+00
  0.00000000E+00  0.00000000E+00  0.00000000E+00
  0.00000000E+00  0.00000000E+00  0.00000000E+00
  0.00000000E+00  0.00000000E+00  0.00000000E+00
  0.00000000E+00  0.00000000E+00  0.00000000E+00
  0.00000000E+00  0.00000000E+00  0.00000000E+00
  0.00000000E+00  0.00000000E+00  0.00000000E+00
  0.00000000E+00  0.00000000E+00  0.00000000E+00
  0.00000000E+00  0.00000000E+00  0.00000000E+00
  0.00000000E+00  0.00000000E+00  0.00000000E+00
  0.00000000E+00  0.00000000E+00  0.00000000E+00
  0.00000000E+00  0.00000000E+00  0.00000000E+00
  0.00000000E+00  0.00000000E+00  0.00000000E+00
  0.00000000E+00  0.00000000E+00  0.00000000E+00
  0.00000000E+00  0.00000000E+00  0.00000000E+00
  0.00000000E+00  0.00000000E+00  0.00000000E+00
  0.00000000E+00  0.00000000E+00  0.00000000E+00
  0.00000000E+00  0.00000000E+00  0.00000000E+00
  0.00000000E+00  0.00000000E+00  0.00000000E+00
  0.00000000E+00  0.00000000E+00  0.00000000E+00
  0.00000000E+00  0.00000000E+00  0.00000000E+00
  0.00000000E+00  0.00000000E+00  0.00000000E+00
  0.00000000E+00  0.00000000E+00  0.00000000E+00
  0.00000000E+00  0.00000000E+00  0.00000000E+00
  0.00000000E+00  0.00000000E+00  0.00000000E+00
  0.00000000E+00  0.00000000E+00  0.00000000E+00
  0.00000000E+00  0.00000000E+00  0.00000000E+00
  0.00000000E+00  0.00000000E+00  0.00000000E+00
  0.00000000E+00  0.00000000E+00  0.00000000E+00
  0.00000000E+00  0.00000000E+00  0.00000000E+00
  0.00000000E+00  0.00000000E+00  0.00000000E+00
  0.00000000E+00  0.00000000E+00  0.00000000E+00
  0.00000000E+00  0.00000000E+00  0.00000000E+00
  0.00000000E+00  0.00000000E+00  0.00000000E+00
  0.00000000E+00  0.00000000E+00  0.00000000E+00
  0.00000000E+00  0.00000000E+00  0.00000000E+00
  0.00000000E+00  0.00000000E+00  0.00000000E+00
  0.00000000E+00  0.00000000E+00  0.00000000E+00
  0.00000000E+00  0.00000000E+00  0.00000000E+00
  0.00000000E+00  0.00000000E+00  0.00000000E+00
  0.00000000E+00  0.00000000E+00  0.00000000E+00
  0.00000000E+00  0.00000000E+00  0.00000000E+00
  0.00000000E+00  0.00000000E+00  0.00000000E+00
  0.00000000E+00  0.00000000E+00  0.00000000E+00
  0.00000000E+00  0.00000000E+00  0.00000000E+00
  0.00000000E+00  0.00000000E+00  0.00000000E+00
  0.00000000E+00  0.00000000E+00  0.00000000E+00
  0.00000000E+00  0.00000000E+00  0.00000000E+00
  0.00000000E+00  0.00000000E+00  0.00000000E+00
