Ta  N Co Cu                             
   1.00000000000000     
    18.1096308199999996    0.0000000000000000    0.0000000000000000
     0.0000000000000000   23.3551997799999995    0.0000000000000000
     0.0000000000000000    0.0000000000000000   30.4818171199999988
   Ta   N    Co   Cu
   228   240    12     1
Direct
  0.9999850255152509  0.0000522428865395  0.1978051243455639
  0.3339454022370845  0.0624627420002142  0.2026650141678985
  0.1658677556369099  0.0624855902089863  0.2030124408498750
  0.2498908804910371  0.1250471101785990  0.2784550731082760
  0.0826121435632032  0.0625980328618283  0.2844252545664077
  0.4169777311046872  0.0625202248410304  0.2840927318279896
  0.9999992352467473  0.1250756707090730  0.3701374430801607
  0.3315973497328812  0.0625868286466229  0.3687952127199878
  0.1678917756027687  0.0626421856695529  0.3687838097868195
  0.2508248716618908  0.1274500264149623  0.4580570446921612
  0.0849337757782607  0.0627532655261120  0.4552866410019902
  0.4170202789275237  0.0621337174582095  0.4534924185381968
  0.9998737230432937  0.1253092363302457  0.5414542746261617
  0.3333398011583100  0.0608255660585044  0.5429752132363532
  0.9999938541259894  0.1250190712550534  0.1978415075532638
  0.3338567108311210  0.1876104050261347  0.2026623744555565
  0.1660121991836476  0.1876352114916884  0.2030626722953102
  0.2499349734590268  0.2500024109850756  0.2783705126380198
  0.0825407144235228  0.1875710103011556  0.2845142073149276
  0.4170928088185377  0.1874957955701433  0.2841152714456143
  0.0000042208102116  0.2501831581377374  0.3701363686520835
  0.3314913724809614  0.1874190386956371  0.3687796189066859
  0.1680016130414543  0.1876066980988185  0.3686464790658732
  0.2502534292687670  0.2483161906369560  0.4575492161244128
  0.0834718110749790  0.1879207046846929  0.4538576462777826
  0.4179928840226097  0.1878447690460661  0.4528974906929832
  0.0000677036925367  0.2491206167615516  0.5418549023277279
  0.3433988791861537  0.1873415031133305  0.5411786968695935
  0.1720341034409927  0.1868986831859658  0.5429737031977950
  0.9999961304412608  0.2500659213319452  0.1978076778985027
  0.3339787830258416  0.3124286683238111  0.2026367786096444
  0.1658233080504843  0.3124481885355337  0.2029836500289974
  0.2498886200636221  0.3750120064090652  0.2783966076439910
  0.0825938903793428  0.3125424788217472  0.2844052339684424
  0.4170033184052997  0.3124777217859105  0.2840735025098766
  0.9999747531642811  0.3750986088251196  0.3701056956311888
  0.3316144414691706  0.3125204226719092  0.3687626820146690
  0.1679024774253577  0.3125427928622173  0.3687671623339526
  0.2507006423495639  0.3773502847645958  0.4578541322439378
  0.0849105254023002  0.3127225936750762  0.4552636594515747
  0.4169409297070317  0.3121694907295094  0.4534939688657005
  0.9997139119264773  0.3753080366260022  0.5414235369110330
  0.3332122839318501  0.3106365333158578  0.5429872580695232
  0.9999722217930369  0.3749972868461526  0.1978106431600466
  0.3338661511884169  0.4376151582444407  0.2026223497002277
  0.1660036916677257  0.4376210307729522  0.2029975364148058
  0.2499360632470626  0.0000280616873738  0.2783751589612251
  0.0824726455512206  0.4375278240449632  0.2843984104447372
  0.4171579854973260  0.4374604715895885  0.2840461322235655
  0.9999908689817403  0.0001586842402972  0.3701362131097454
  0.3315057550134171  0.4373703865760703  0.3686101786196971
  0.1679624386993623  0.4375252562838554  0.3684358903154816
  0.2502474414173861  0.9982886305838150  0.4575531459161937
  0.0834979892038135  0.4378545377970653  0.4537795356603027
  0.4176446184174978  0.4378147454422319  0.4529206524051261
  0.0000695047990789  0.9991242101907645  0.5418043628672891
  0.3429929264390950  0.4371349353229235  0.5413598097719898
  0.1718017984168156  0.4367002157247981  0.5430470490504575
  0.9998829227738639  0.5000679094471678  0.1977480264991414
  0.3340090860444533  0.5623930220200961  0.2025842410648551
  0.1658306732176484  0.5624191869649806  0.2029220556666402
  0.2498856971676986  0.6249852753418850  0.2781814387871151
  0.0825252273350401  0.5625457212557663  0.2842860210545197
  0.4170559896704802  0.5624817737609717  0.2840117783802469
  0.0000977184674227  0.6250863369598747  0.3701425550158675
  0.3315932751218398  0.5624136215733415  0.3685497046328194
  0.1677909181051405  0.5624620540534266  0.3684570671274940
  0.2504784163465672  0.6269590358433064  0.4561940374609179
  0.0853135779748513  0.5626011379414066  0.4550381130113905
  0.4160608331577222  0.5620700487599706  0.4537929709285038
  0.0002510111629590  0.6253041655938389  0.5412927814087212
  0.3332629958707187  0.5601551819710906  0.5444766602809281
  0.9999073118624437  0.6249859027500833  0.1977777025254426
  0.3339944512415798  0.6876238130649028  0.2026040796982045
  0.1659191564149438  0.6876574461734819  0.2029593439122479
  0.2499162587993240  0.7500868948907495  0.2781652017738949
  0.0824273394063226  0.6875899134007923  0.2843474571310551
  0.4171606026215855  0.6874906766626196  0.2840558657550361
  0.0000762179206788  0.7501552146090660  0.3701648986807342
  0.3317004870020597  0.6874503652362876  0.3685181475013763
  0.1677780092581926  0.6876508402361097  0.3683123632102365
  0.2500511469917370  0.7484717419437246  0.4562342456108155
  0.0843936188793322  0.6877865547536643  0.4540801763926083
  0.4158521786298692  0.6877632629170236  0.4533461150136588
  0.0007938021338205  0.7492505348643874  0.5416943524569859
  0.3463281344973339  0.6876959844427546  0.5418410174181147
  0.1693438895471573  0.6868092229166862  0.5429726929283163
  0.9998802309016668  0.7500847246822389  0.1977494953812879
  0.3340036955800585  0.8124703763737671  0.2026234590764204
  0.1658929598313676  0.8125146321584893  0.2029687930518875
  0.2499211136511903  0.8751242334564822  0.2783779648845410
  0.0825447057215385  0.8126103620566809  0.2843109354377020
  0.4170097590199688  0.8125387731520490  0.2840424257648948
  0.9999686635216065  0.8750814565757778  0.3701142876213481
  0.3315785914946900  0.8126739382940187  0.3686402517959380
  0.1678156166191940  0.8127185670368320  0.3685516666244695
  0.2508538373497942  0.8772215022429535  0.4576253577482916
  0.0853247857589210  0.8127354089839542  0.4551587427665993
  0.4161141752476070  0.8121125951005936  0.4537808567607300
  0.9998287805091053  0.8753686062566999  0.5414461926357603
  0.3334214703631488  0.8119568260477195  0.5446085542951735
  0.9999084610042601  0.8750557725481869  0.1978087010556777
  0.3339274952134730  0.9376146754474846  0.2026400049004380
  0.1659276836113648  0.9376639507476909  0.2030159418489390
  0.2499343550922575  0.4999427538907142  0.2782384792954318
  0.0824841384990620  0.9376198324960328  0.2844544981151458
  0.4171074126381384  0.9375279754536834  0.2841126779405627
  0.9999193037191105  0.5001577044546792  0.3700696531298604
  0.3315145745346939  0.9375168507992484  0.3687399285879351
  0.1679203180898838  0.9377141361775045  0.3685154219415949
  0.2503387142456646  0.4983051200947699  0.4570735814764291
  0.0835366182096280  0.9379014090346800  0.4538612718422499
  0.4176822841364825  0.9377836504392150  0.4530740239365727
  0.9999658453254838  0.4991289260322773  0.5417962002052761
  0.3431088978589756  0.9377243687782837  0.5413073829749706
  0.1719036250502626  0.9368655499484930  0.5431028395337520
  0.5000549367265563  0.0000326913825219  0.1974273137967160
  0.8341272503171311  0.0624473837342094  0.2030264171200997
  0.6660837544612974  0.0623933783712403  0.2026624431225983
  0.7501430976832637  0.1250424222171418  0.2784577346903561
  0.5830391018282697  0.0624994045882232  0.2841035208620042
  0.9173512854239050  0.0625680161089264  0.2844408844147566
  0.4999895051829881  0.1250289177231423  0.3691056401385495
  0.8320650645927401  0.0625710503817203  0.3687731425534864
  0.6684011702073178  0.0625405621633206  0.3687461082070556
  0.7492386269799169  0.1274278534822244  0.4578947473937305
  0.5829414161119786  0.0621200262755650  0.4533876918653732
  0.9150267165837249  0.0627158748416008  0.4552170762790340
  0.4998660767741256  0.1121790251287322  0.5434026980911000
  0.6666465723415200  0.0606977088915386  0.5428812888912660
  0.5000509152488846  0.1249784402737930  0.1974597833489469
  0.8340475511029197  0.1876478170750673  0.2030692738914084
  0.6661687487134103  0.1876259293836142  0.2026697565450561
  0.7500936124229298  0.2500193792196725  0.2783879365148252
  0.5829481748845637  0.1875004187145421  0.2841255025916496
  0.9174477449906249  0.1875763164549795  0.2845235475004699
  0.4999764630238772  0.2498754272258736  0.3690534462687012
  0.8319943844278797  0.1876341379220179  0.3686469842366904
  0.6684629488263241  0.1874515521243723  0.3687514293895191
  0.7497370917306654  0.2483092015839787  0.4575261037548302
  0.5821823123980252  0.1878233784969225  0.4528355930673627
  0.9165429592368639  0.1879136531527976  0.4538692690121522
  0.8276825172959832  0.1866331961771053  0.5430175062640714
  0.6565489734136989  0.1873071716676975  0.5411765646813080
  0.5000432383400835  0.2500344764609039  0.1974095964374456
  0.8341587344571550  0.3124894825903013  0.2030088130218815
  0.6660859051850849  0.3124699559538442  0.2026572965303686
  0.7501006001985075  0.3750796564362915  0.2784478685940925
  0.5830396906737505  0.3125077133697758  0.2840983738611627
  0.9173552426886431  0.3125817808022333  0.2844275762005566
  0.4999216549479115  0.3750572586162448  0.3691289599782479
  0.8320553055666764  0.3126220091942855  0.3687669848806365
  0.6683681404103297  0.3125988979953860  0.3687722414752770
  0.7491771346561151  0.3774296122518663  0.4578956925596529
  0.5829169431749150  0.3121573918410832  0.4534358038329387
  0.9150198550371513  0.3127399832718538  0.4552114931648390
  0.5000875038567116  0.3623223488401734  0.5434018525191391
  0.6669169182247430  0.3107457974778924  0.5428834383839884
  0.5000793726989201  0.3749557437437119  0.1974255291855300
  0.8340084215699548  0.4376665851160055  0.2030707902183622
  0.6661588940641181  0.4376477273127222  0.2026825166789621
  0.7500751099430474  0.9999789640903671  0.2783799978796893
  0.5829309805523479  0.4375029908245338  0.2841473186646652
  0.9174176565506400  0.4375757821189339  0.2845138738867448
  0.4998846416914375  0.9998554891415878  0.3690864821360478
  0.8319600770807511  0.4376724267112095  0.3686360853450026
  0.6683624980799721  0.4374771168374707  0.3688070888927228
  0.7496584774639174  0.9982083835985520  0.4575697655650757
  0.5819490528501916  0.4378731564691734  0.4528907671839164
  0.9165477513936935  0.4379630938984747  0.4538371576814129
  0.8278213790446003  0.4366382523919867  0.5430049551993150
  0.6566412789314882  0.4373425371961801  0.5411553170635912
  0.5001346331483916  0.5000218627367730  0.1973831626491531
  0.8341362527446634  0.5624888332075102  0.2030514246372022
  0.6660336331987224  0.5624876971549853  0.2027268908697266
  0.7500273246121054  0.6250262638785458  0.2785442228096642
  0.5829946338315466  0.5625024697659740  0.2841655963226870
  0.9173252812528006  0.5625757672553817  0.2844340871447315
  0.4994868495583233  0.6250236990431546  0.3692752675127196
  0.8319840732315100  0.5626377587078437  0.3688133515441052
  0.6682208158757774  0.5626069142116776  0.3688723829144323
  0.7489400411856693  0.6274268518891830  0.4581484667610880
  0.5824151106676752  0.5620970378177432  0.4534891537796284
  0.9152545762159718  0.5627709750999585  0.4552207193894944
  0.5018921690963580  0.6121246960416258  0.5433445909637200
  0.6675601573331775  0.5606703355888598  0.5429350038178029
  0.5001323278170631  0.6249600026811279  0.1974224973359355
  0.8340217866976971  0.6876455494573790  0.2031231076102600
  0.6660814503478463  0.6875963708382429  0.2027570828472491
  0.7499962720906481  0.7499904950514136  0.2784745519580341
  0.5828635056084082  0.6875019902802677  0.2842524087720264
  0.9174115435036683  0.6875720002905439  0.2845582759796130
  0.4995056453565141  0.7498340515001658  0.3692352991938179
  0.8319349729899130  0.6876167583838324  0.3687102513446092
  0.6681859481856876  0.6874086623222411  0.3689573668943282
  0.7495836597479126  0.7482972669805648  0.4577298569457753
  0.5811033912612444  0.6877866773747883  0.4530751376371072
  0.9170068198260992  0.6878996810744198  0.4538448262793580
  0.8286215196976201  0.6867269202412771  0.5427748968405979
  0.6570317354963322  0.6873557172466960  0.5411165524176909
  0.5001372766267096  0.7500365471659833  0.1974096587537488
  0.8341459693695441  0.8124459581867853  0.2030751732775684
  0.6660396113405440  0.8124050288677225  0.2027421631574100
  0.7500887536961187  0.8750130479155658  0.2785059065816284
  0.5829801564743065  0.8124957248639930  0.2841803057430141
  0.9173363839839510  0.8125602653677078  0.2844625645377690
  0.4997288735534795  0.8750322885661674  0.3691980127032224
  0.8319895201961174  0.8125488268800893  0.3688244344797695
  0.6682202790659773  0.8124970192823397  0.3688704656371513
  0.7490844339541667  0.8773792038747956  0.4579077346160645
  0.5823901910097860  0.8120090090166130  0.4534811851745815
  0.9152414064198524  0.8126868461023307  0.4552291448076673
  0.4996525338100284  0.8625969838479577  0.5432664385443715
  0.6664802088400776  0.8106613544814820  0.5427735629658628
  0.5001197511318551  0.8750026444128807  0.1974577471538481
  0.8340829392226752  0.9376237318815228  0.2030585755975025
  0.6661073255939769  0.9375809251470244  0.2026858723276419
  0.7500370504474105  0.5000430502050719  0.2784231862116187
  0.5829090546685123  0.9374944528667015  0.2841734937622533
  0.9174263874736965  0.9375725576555141  0.2845374012543616
  0.4997190872868273  0.4998545580343858  0.3691358529333399
  0.8319563520254576  0.9375859193053628  0.3686484435833322
  0.6683865370843378  0.9373991557621224  0.3687794081500613
  0.7496863137196002  0.4983631391155043  0.4575152186613707
  0.5819139428144027  0.9377475263150146  0.4528108164286593
  0.9165936538820532  0.9378542479273335  0.4538540847838917
  0.8275804574067749  0.9366157324325854  0.5429440782500734
  0.6563892258309139  0.9372851786625063  0.5410627300511024
  0.4055571036357009  0.9999768879803099  0.2322632504864259
  0.2499235775974142  0.0000609375266194  0.1993600176193198
  0.0942810964841030  0.0000524429265596  0.2326869317097646
  0.1550155741757067  0.1250847098460355  0.3161594958566738
  0.9999895502212652  0.1250459622080768  0.3035031359389038
  0.3449786083449808  0.1250593912359435  0.3161243034416543
  0.4010509466821901  0.1248121545330392  0.4018221955184558
  0.2496897568291772  0.1249385096290894  0.3892133900875479
  0.0993749886762600  0.1250995749881341  0.4022796817476291
  0.1500681608348913  0.1269050853587430  0.4874573962570850
  0.9999606115713320  0.1251509587166026  0.4731307789300843
  0.3526306312116603  0.1251521115011300  0.4874846453632458
  0.4060132268240437  0.1258571280711749  0.5714737418263240
  0.2566248291138464  0.1293752216210464  0.5539538183650023
  0.0975770611542117  0.1274708453854174  0.5695581701235923
  0.4054494333571128  0.1250517140561271  0.2322979703998911
  0.2499053285753234  0.1250287328451023  0.1994925092553572
  0.0943797597852409  0.1251073909602525  0.2327307648041455
  0.1549544327714187  0.2500478808398654  0.3160899406665862
  0.9999870054726330  0.2501050681821084  0.3035171709089610
  0.3450183650117182  0.2499320784669194  0.3160270091436459
  0.4009802765705786  0.2500861018525100  0.4015889815962836
  0.2496758890624804  0.2501371226075335  0.3889182928349868
  0.0994760264823569  0.2502803466267096  0.4023211049659139
  0.1503009487314486  0.2490646862770518  0.4881154754668913
  0.0000073814020212  0.2503564812853654  0.4733374885095927
  0.3511090910108550  0.2503892398537815  0.4870067095335884
  0.4110043692300209  0.2543039483803611  0.5650406346318206
  0.2586779396472139  0.2471505265722911  0.5552851979164188
  0.0975884575671415  0.2478247659043618  0.5699019372479341
  0.4055646984601537  0.2499614595691568  0.2322585443052034
  0.2499143949886502  0.2500626197952016  0.1992960080243122
  0.0942954437085746  0.2500078897733999  0.2326939159918453
  0.1549834915305297  0.3749864042609374  0.3160787248759647
  0.9999796884002450  0.3750214622827031  0.3034785698391289
  0.3450174661558876  0.3749834557490246  0.3160558491538623
  0.4009450942850847  0.3747997521224207  0.4018379140888442
  0.2496626072606674  0.3749304695189721  0.3890806392282968
  0.0994001420857629  0.3750551938115905  0.4022328081295043
  0.1502091368648735  0.3769463925124299  0.4874261397168951
  0.9999507987631162  0.3751474058784581  0.4731012164043733
  0.3521552138454993  0.3751450867140065  0.4875744652317806
  0.4062952865653031  0.3764580914020286  0.5714196779704253
  0.2566347240245506  0.3797763784870227  0.5547709294555432
  0.0974536609458880  0.3776500685780775  0.5695490180540332
  0.4054779965344224  0.3750144780979312  0.2322545811231507
  0.2499096725246446  0.3749905980036843  0.1996020242592991
  0.0943818774209575  0.3750540797282227  0.2326828499425204
  0.1549306327695561  0.0001498501669914  0.3160648696790958
  0.9999789605457323  0.0001294657369613  0.3035214581250827
  0.3450291082591050  0.0000201596022507  0.3160436960839945
  0.4009014014380696  0.0000857000813497  0.4016437728261266
  0.2496212003239151  0.0002209919313998  0.3889451241724728
  0.0994809843075970  0.0003140198851952  0.4023158064742844
  0.1503545734036607  0.9989533038435070  0.4880712231351012
  0.0000281207093238  0.0003446443002133  0.4733133351408014
  0.3509388441516563  0.0004431066252053  0.4870896453798750
  0.4108038669321346  0.0038188656857727  0.5652696019470298
  0.2584974089468801  0.9971722372828538  0.5553842445135686
  0.0976925103263468  0.9975952855163541  0.5698976916921765
  0.4056389601103945  0.4999477005641850  0.2321799435281662
  0.2499149742748301  0.5000351794396209  0.1990662575436986
  0.0942412422703640  0.4999874513046905  0.2325652457316139
  0.1549579956825440  0.6250387341623878  0.3158987145812944
  0.9999860798326381  0.6250391409761988  0.3035026576019959
  0.3450128430715083  0.6250013081741201  0.3159214536616872
  0.4004248282562486  0.6247563170920216  0.4020642787420670
  0.2496423306916427  0.6249073194134880  0.3881431856119093
  0.0995893546315898  0.6251258103087380  0.4021895335452044
  0.1520706263935310  0.6260820327714214  0.4874317330170399
  0.0005592577821574  0.6251170911002006  0.4730873918087468
  0.3493693589212583  0.6244146283472958  0.4884166671147625
  0.4090046140402777  0.6265104989631780  0.5716378909313775
  0.2592930753151492  0.6323581131878271  0.5634576434828986
  0.0982103908735112  0.6268990714214979  0.5692582891367621
  0.4055404360091686  0.6250415126167752  0.2322221144129131
  0.2499235271069722  0.6250202241718625  0.1996314518245796
  0.0943298207918133  0.6251003351656053  0.2325933372243796
  0.1548627564828706  0.7501458452986185  0.3158789910826414
  0.9999947971571999  0.7501133502595181  0.3035380271528183
  0.3450389871106267  0.7500299715203980  0.3158918992010129
  0.4003971602649585  0.7500306216820292  0.4018442787087011
  0.2496138318006942  0.7502514780956844  0.3881131796141091
  0.0996179439414959  0.7501809099000027  0.4022956352437603
  0.1518511881997853  0.7493260260671519  0.4880346369942643
  0.0005570456658006  0.7503099465557810  0.4733292954521531
  0.3486093197959690  0.7510795160841255  0.4879921944078021
  0.4128189403528069  0.7545478535867218  0.5654768853988088
  0.2615194370885590  0.7463519896555937  0.5631662305139713
  0.0986208601384533  0.7479194415045214  0.5697596592610736
  0.4056437555431529  0.7499677035969370  0.2322103107043034
  0.2499461733354309  0.7500549566138446  0.1992452638544862
  0.0942150994215609  0.7500345834224120  0.2325671741691338
  0.1549354306145077  0.8751788674844079  0.3160286678834083
  0.9999812322953190  0.8750423235741565  0.3034801256226132
  0.3450280038924447  0.8751400346456322  0.3160581471577828
  0.4007784720152756  0.8748088692898364  0.4019815835019429
  0.2496277818910499  0.8751450871436646  0.3889153277348782
  0.0993903040670077  0.8751331037390031  0.4022069621226905
  0.1505138797300205  0.8769535200393861  0.4873730632518090
  0.0001772537455409  0.8750802862758462  0.4731170349927822
  0.3520327431111951  0.8748816657639154  0.4879204695430062
  0.4053833379662493  0.8751480868504018  0.5717537511866340
  0.2565926435607935  0.8794659826926576  0.5552302253902326
  0.0974963831118529  0.8768988492993941  0.5694368005857555
  0.4054979717051097  0.8750821515751852  0.2322670213584175
  0.2499199873907685  0.8750614706062478  0.1995285738212189
  0.0943443983741474  0.8751386510127830  0.2326536708025486
  0.1548361101984952  0.4999650204542405  0.3158962695327077
  0.9999693917913248  0.5001016080700609  0.3034530355840275
  0.3450873826974927  0.4998692399181337  0.3158889645563079
  0.4007105120352890  0.5000926163051105  0.4016918460265586
  0.2496288923983627  0.4999469717979608  0.3885209527424323
  0.0994705233906430  0.5001977454946100  0.4021696538718800
  0.1506912126463362  0.4987661969470878  0.4878575139395593
  0.0001792108185512  0.5003747408443360  0.4732643851775009
  0.3505641657935783  0.5003213747396842  0.4872574777608492
  0.4107945568816334  0.5049883587575081  0.5650604305495150
  0.2584390208145280  0.4975491282535316  0.5560405996033211
  0.0974948830586442  0.4982300969056297  0.5696090048998457
  0.9056903866298143  0.0000113734886256  0.2327254332411925
  0.7501098833063082  0.0000208024833128  0.1992525383648527
  0.5944894691650120  0.9999401429256238  0.2323042707185365
  0.6550409893474907  0.1250469634261648  0.3161050814108179
  0.5000110842362844  0.1250128128782819  0.3026713565127466
  0.8449823351340129  0.1250734805017331  0.3161735141383133
  0.9006024624330919  0.1250781157377006  0.4022477683206205
  0.7503195689741347  0.1249276789860190  0.3891269791223309
  0.5989535614659758  0.1247812880764485  0.4017695802405186
  0.6476014919890503  0.1250518547830097  0.4874448959958855
  0.5000535529271133  0.1244475190053365  0.4744339691196657
  0.8498244369950285  0.1268743499005822  0.4873794324775744
  0.9021479731355058  0.1272319455572486  0.5695329712569759
  0.7431452188982703  0.1295573218106867  0.5545022126989920
  0.5936398611730098  0.1259584043507616  0.5713378133522582
  0.9056046446892054  0.1250968173763169  0.2327476887663451
  0.7501123559001144  0.1250283044995939  0.1996119674000454
  0.5946227163024673  0.1250431890447601  0.2323040202112310
  0.6550103414897350  0.2499854159504125  0.3160315249387580
  0.5000192545508924  0.2499894940061580  0.3026330053118187
  0.8450466726744352  0.2500873980565999  0.3161163907983280
  0.9005281109871319  0.2503013907406739  0.4023068283130229
  0.7503236885300666  0.2502033893918707  0.3889144398082607
  0.5989802338662500  0.2501104477164304  0.4015368231455625
  0.6488744396391297  0.2503980320544912  0.4869077852178734
  0.5000277628838603  0.2501938355646089  0.4734830031178845
  0.8497079224798796  0.2490476275275739  0.4881168254817894
  0.9024458284303520  0.2474136381885188  0.5698508433898226
  0.7413257580241961  0.2471960019099626  0.5552364110514247
  0.5889717931250402  0.2542189495753675  0.5649356598439326
  0.9057016529332458  0.2500302733937829  0.2327159136942498
  0.7501193937225068  0.2500726071879740  0.1993072654715391
  0.5944972781349733  0.2499753506303009  0.2322703889378914
  0.6550343284649500  0.3750758979817093  0.3161292257856587
  0.5000129563058877  0.3749966186878382  0.3026764032638809
  0.8449580479269230  0.3751021893143118  0.3161595612397434
  0.9005859232242059  0.3751217905155642  0.4022232913387711
  0.7502665635199364  0.3750020483006722  0.3891378474087688
  0.5988545187857497  0.3748380953760559  0.4018106853709398
  0.6474606419233098  0.3751363339122733  0.4874462852824877
  0.4998904388657266  0.3744772309997941  0.4744774217905103
  0.8498047686003432  0.3769493205139014  0.4872959379388675
  0.9020775733054691  0.3771632941034255  0.5695429296617718
  0.7432818524069233  0.3794534647235466  0.5543273427354265
  0.5938415951665235  0.3760024664843300  0.5713851522773012
  0.9056041820922758  0.3751132790272180  0.2327438646340738
  0.7501234450452898  0.3750409781648116  0.1995786939771520
  0.5946018701818048  0.3750665905821648  0.2323208524957678
  0.6550122938488840  0.9999522385154407  0.3160427313629484
  0.4999957329756199  0.0000161619683041  0.3026576427392769
  0.8450219609772844  0.0000477202147948  0.3161175128266933
  0.9005138850052390  0.0002474445322207  0.4023042190490429
  0.7502951653187822  0.0001308219933804  0.3889367427387072
  0.5989047312706717  0.0000478891911015  0.4015302316854488
  0.6486875327345984  0.0002832932036583  0.4868678007381959
  0.4999336389911733  0.0002102503910564  0.4735132870045646
  0.8497179480781227  0.9989654604846763  0.4880182983622774
  0.9024519376560320  0.9974210459517110  0.5697696666501031
  0.7412973086771615  0.9972445836665003  0.5549528081158783
  0.5888813554117647  0.0041659097154394  0.5649139870105913
  0.9056615373413024  0.5000286213850984  0.2327296414169595
  0.7500848730770286  0.5000836012960335  0.1993139081234929
  0.5945064488733038  0.4999736476056071  0.2323347410912504
  0.6549451592743907  0.6250607206577001  0.3162495902718092
  0.4999296753889411  0.6249935265053068  0.3028009427311105
  0.8449232432888678  0.6250852626420027  0.3162172055431185
  0.9007054289270826  0.6250804768322666  0.4022594322662911
  0.7501636460074366  0.6249937398006224  0.3893098463771238
  0.5984319708859189  0.6248055600865925  0.4019259099262626
  0.6468921381111059  0.6251117319882198  0.4874820761013012
  0.4989780299196127  0.6243681487921293  0.4745639263497310
  0.8500237020491497  0.6269921992850342  0.4872412362549881
  0.9026623577344282  0.6273306479907745  0.5694773726593425
  0.7439737201893308  0.6294233793353214  0.5537071314783049
  0.5953252766882002  0.6258182307936337  0.5718879124559066
  0.9055973853073027  0.6251220160536946  0.2327717796880933
  0.7501076551421306  0.6250318437827715  0.1996692893365264
  0.5945407162188729  0.6250735954865263  0.2324206877553650
  0.6549261150365666  0.7499287933178991  0.3161710252214434
  0.4999168893641013  0.7500088709521080  0.3027746588803453
  0.8449789872520199  0.7500496402563925  0.3161761492536925
  0.9006037738534189  0.7502823955258648  0.4023445190695298
  0.7501870495008731  0.7501019380248906  0.3890775652660921
  0.5985053458720415  0.7500177386447433  0.4016784510288076
  0.6484821333292601  0.7502848203730110  0.4868946558554370
  0.4989990702115961  0.7501445138642779  0.4735969937555637
  0.8499386006231333  0.7489538638591782  0.4879908058245590
  0.9032113165977762  0.7474233678747169  0.5697803632350116
  0.7417408921329312  0.7473428262308843  0.5546575897529777
  0.5895346014082605  0.7541032042937843  0.5652781763994739
  0.9057032185226035  0.7500068556832247  0.2327519505938227
  0.7500769200117290  0.7500355852172618  0.1993947672492311
  0.5944555856124865  0.7499383632446950  0.2323910253077202
  0.6549832184541060  0.8749960225138906  0.3161664565625202
  0.4999513520384582  0.8750066147263666  0.3027406859856754
  0.8449417408199338  0.8750339539441541  0.3162032472462286
  0.9005914935308112  0.8750261296679653  0.4022659952200840
  0.7502144671170043  0.8748820021365091  0.3891550353841851
  0.5987143061082492  0.8747093147670881  0.4018052509559524
  0.6473632943152552  0.8749841768085389  0.4874030958168305
  0.4996012576801476  0.8743369836847421  0.4743544078711963
  0.8497417845234594  0.8768905578609179  0.4873154008898695
  0.9020090685932232  0.8771359967695744  0.5694757158862629
  0.7429508217757288  0.8796481312833961  0.5544578904697559
  0.5932950554710530  0.8760111402096413  0.5712665624365059
  0.9055848049314079  0.8750950483145061  0.2327859899021476
  0.7501155669434070  0.8750074490240110  0.1996879857114706
  0.5946020994379992  0.8750307218205293  0.2323863056693796
  0.6549606002045394  0.5000080080493916  0.3160922760944942
  0.4999777387685143  0.4999853896852713  0.3026736253198479
  0.8450087464317306  0.5001192216525681  0.3161301890980184
  0.9004901946696648  0.5003490655215899  0.4023119971989217
  0.7502310441319295  0.5002455464200466  0.3889377333997359
  0.5987560644456025  0.5001499912061931  0.4015849956964601
  0.6488574196905930  0.5004800518672923  0.4868895965184592
  0.4995320069064491  0.5001729100815382  0.4734310954282961
  0.8496832277119779  0.4990496952130385  0.4880697708320980
  0.9023715285253004  0.4975245551712106  0.5698127561939330
  0.7414425163809071  0.4970067456643292  0.5554396327232425
  0.5892281424875776  0.5042594037238146  0.5648982893177248
  0.1268210785044985  0.0621254094715127  0.5367462290447662
  0.1267895765764280  0.3121411320538883  0.5367108649413552
  0.1290363234000154  0.5615521392784188  0.5358686842640523
  0.1287530360787486  0.8126146049860239  0.5361166835066129
  0.8731227300818745  0.0618361227288702  0.5366869780326837
  0.4999721581399612  0.2609633777054867  0.5363863173962997
  0.8729765381526065  0.3116112298984675  0.5366913386751690
  0.4995979463963209  0.0106855227979352  0.5364003671977287
  0.8734852554499071  0.5618813265675939  0.5366555761497125
  0.5008357683762981  0.7610567916123259  0.5363572685504678
  0.8735525566168647  0.8116230929081851  0.5368138922397350
  0.5003870488760782  0.5108318093707638  0.5363080701259548
  0.2591060213819674  0.6889833698712167  0.6128171830699358
 
  0.00000000E+00  0.00000000E+00  0.00000000E+00
  0.00000000E+00  0.00000000E+00  0.00000000E+00
  0.00000000E+00  0.00000000E+00  0.00000000E+00
  0.00000000E+00  0.00000000E+00  0.00000000E+00
  0.00000000E+00  0.00000000E+00  0.00000000E+00
  0.00000000E+00  0.00000000E+00  0.00000000E+00