Ta N Cu Ru                              
   1.00000000000000     
    18.1096308199999996    0.0000000000000000    0.0000000000000000
     0.0000000000000000   11.6775998899999998    0.0000000000000000
     0.0000000000000000    0.0000000000000000   23.4818170799999990
   Ta   N    Cu   Ru
   119   120     1     1
Direct
  0.9998852671662715  0.0000327648824891  0.2547581339668410
  0.3337187937982469  0.1249416442528348  0.2635335574624700
  0.1666008399828549  0.1249506743452983  0.2636201044029574
  0.2502391010476612  0.2499708488814784  0.3610859394183663
  0.0823489425979370  0.1250202222490986  0.3682148496729791
  0.4177164626695499  0.1250151837041993  0.3683073487048260
  0.9998815207517429  0.2501854770016831  0.4796297125682965
  0.3324253728071455  0.1249714382697375  0.4777211372297464
  0.1675353071277057  0.1250042572428687  0.4774554712802671
  0.2500972323387531  0.2527243845040485  0.5900891693500641
  0.0855549126970045  0.1251476857409028  0.5889113614733943
  0.4156916016164012  0.1249007110681588  0.5901937760566617
  0.9999440705988900  0.2491830610917661  0.7021207145382677
  0.3352292282274906  0.1212347098674440  0.7054065325041422
  0.9999027899772439  0.2499755117353225  0.2547564260082595
  0.3336292726916062  0.3751090201612365  0.2636866974436992
  0.1665520688324281  0.3750741157321901  0.2636311761671741
  0.2501588279137804  0.4999806675433021  0.3611125842557404
  0.0823582404640428  0.3750361669106804  0.3681693322012343
  0.4176912494162049  0.3749852046066417  0.3684500423225631
  0.9999185766919766  0.5000375282266184  0.4796776305971870
  0.3323508883190810  0.3751808508019774  0.4780549930370307
  0.1678200504094587  0.3751551248074539  0.4776128411128154
  0.2498058410499207  0.4995049861519899  0.5908362141275579
  0.0833171609613921  0.3763043518772086  0.5890096554480382
  0.4158405331484655  0.3748396919346804  0.5901757353502288
  0.9992046009566289  0.4993287824412377  0.7022984102312162
  0.3374042987252887  0.3775807438538604  0.7041615067635852
  0.1638840294683350  0.3759641864624467  0.7042020734339581
  0.9999060718208278  0.4999231072462408  0.2546885976102927
  0.3337084947010595  0.6249697702439919  0.2636633382092363
  0.1663420540008228  0.6249272130521493  0.2635675483330402
  0.2501542451432295  0.7500674453662551  0.3611615173255130
  0.0825256896758108  0.6250108340707817  0.3681871558402818
  0.4174506163870916  0.6250157041150166  0.3684710317568959
  0.9999019972942740  0.7500279499218159  0.4796605512830657
  0.3325771858459937  0.6249719678114987  0.4781190283727079
  0.1676171363457089  0.6250437681356694  0.4777642479358445
  0.2496928611064873  0.7506322832561639  0.5908619049137380
  0.0834197408999535  0.6252170526042354  0.5897346031918850
  0.4163038495347109  0.6248566744964196  0.5899486172674805
  0.9999452204400805  0.7510753564161158  0.7025222355751649
  0.3352028855120859  0.6249060787790456  0.7040137343138668
  0.1647610734046178  0.6264989336510027  0.7042345149479652
 -0.0000349565355662  0.7500790628757095  0.2546945447893005
  0.3335803897921228  0.8750101906305311  0.2637012197242928
  0.1665634032371469  0.8750393914326869  0.2636432498156870
  0.2502343541718561  0.0000381144604267  0.3610921506083531
  0.0823912116596978  0.8749869963768525  0.3681897662611201
  0.4176563527867518  0.8750508608101487  0.3684453284895608
  0.9998508422221879  0.9999804272435092  0.4796032229797900
  0.3322517775384341  0.8748748861359604  0.4780919541777402
  0.1677951102022183  0.8749987532714150  0.4776624645932618
  0.2500011840374434  0.9974790171957362  0.5906053199724944
  0.0830034088163631  0.8738771609564132  0.5888850246467626
  0.4163087113885942  0.8749318168896549  0.5897744496787004
  0.3357962720307660  0.8721245656256198  0.7035501650356301
  0.1656440184653116  0.8785723427178870  0.7049248670090716
  0.4999382197553207  0.9997918353743286  0.2548597694497723
  0.8335124589003140  0.1250404484225579  0.2637261057400913
  0.6665450376750408  0.1250334239862889  0.2638310159605488
  0.7499968163249578  0.2500482433049815  0.3612932429734926
  0.5827510523073720  0.1250081158485267  0.3683898519265686
  0.9173151661254990  0.1249965346863958  0.3684138831586736
  0.4996465862695963  0.2501094332962688  0.4800355432249510
  0.8326859143798621  0.1250138341381776  0.4782145675121006
  0.6676909884944920  0.1250261109333080  0.4782205437612471
  0.7501106073511687  0.2501055530848917  0.5909900452306641
  0.5837212221467072  0.1250295029901096  0.5899703601516981
  0.9168854032709817  0.1250440723208908  0.5903994679871561
  0.4996524375758845  0.2496640814267643  0.7023954368176145
  0.8352559688297718  0.1247952887647675  0.7041975205496180
  0.6646617934494662  0.1250574863467835  0.7040105188019964
  0.4999048670499773  0.2502259586469264  0.2548619838205954
  0.8334579424076184  0.3750571560332652  0.2637017804528620
  0.6664996353063802  0.3749242229765888  0.2637849824638727
  0.7500364528038496  0.4999068848183870  0.3612787597252226
  0.5825919862883837  0.3749872835837205  0.3684573680270822
  0.9173706910179592  0.3750685520719643  0.3683807476657145
  0.4999507066204637  0.4999107302492334  0.4798425362587397
  0.8325299215946547  0.3749792930036402  0.4781675429981382
  0.6676108102952990  0.3749555671737494  0.4781595236511550
  0.7499542287876365  0.4998391898581649  0.5907588734222433
  0.5835732688130992  0.3748703374252402  0.5898589288629801
  0.9162799284583082  0.3749571512324962  0.5899074781270296
  0.5006727667627513  0.4999523812561463  0.7019832701966727
  0.8351370344342997  0.3742531066238190  0.7041120938824451
  0.6648565461803640  0.3747083107139780  0.7042550736600978
  0.4999464962861819  0.4999851810359974  0.2547892791183172
  0.8335555125931229  0.6250014922925734  0.2636960691212639
  0.6663996401134734  0.6250164226803212  0.2637654444161008
  0.7500393743047258  0.7501004721220359  0.3612773127991112
  0.5826768302543726  0.6250159297472363  0.3683793933592874
  0.9173688456393797  0.6250072860201874  0.3683402563861883
  0.5000301926394686  0.7500182953901765  0.4798015738647387
  0.8324229144125792  0.6250170729619875  0.4780733491638759
  0.6675759670409548  0.6250176805440752  0.4781143961199235
  0.7499823602250598  0.7501318685775458  0.5907661394636061
  0.5835896777616760  0.6249909023999878  0.5898237467504465
  0.9163786375485338  0.6250377981536478  0.5899342363139922
  0.5002806079956374  0.7497922933925805  0.7020491452610362
  0.8346365883754610  0.6251370296249118  0.7042727094607325
  0.6649628990026365  0.6251626705148429  0.7041465940110855
  0.4999097152007079  0.7500230244406079  0.2547842572892987
  0.8334551348505876  0.8749013826367776  0.2637083453142607
  0.6665102324502750  0.8750713000939392  0.2637862074024876
  0.7499990951592520  0.9999781275662277  0.3612865137288219
  0.5826106860851195  0.8750341255709901  0.3684484894615201
  0.9173821215146447  0.8749507253696043  0.3683785215847953
  0.4998027794397797  0.9999333013658059  0.4799597437720378
  0.8325837154883377  0.8750512014966872  0.4781845623635843
  0.6676491698950234  0.8750569194101978  0.4781428750864458
  0.7501516819706670  0.9999499771592331  0.5909947961481652
  0.5837419292788001  0.8750589237480149  0.5898163550826058
  0.9161604780677025  0.8751126586112077  0.5899246675857529
  0.5000416184733371  0.9998703592502545  0.7021088408514836
  0.8355275420260609  0.8756559987905308  0.7041090550217960
  0.6648409046901493  0.8752598115124319  0.7042541504272243
  0.0004508439291177  0.0009429095032976  0.7023064466775387
  0.4068284986117165  0.0000267620658353  0.3012075285586486
  0.2500989179728095  0.0000550853663057  0.2577236719950698
  0.0931277519018894  0.0000627399220758  0.3009707635976235
  0.1545571074655457  0.2502182755903349  0.4094951374657483
  0.9999350199238234  0.2501022025747934  0.3930267369217195
  0.3456726622035142  0.2500857939969309  0.4098667859634632
  0.4005970823098304  0.2500613030975826  0.5222074604129882
  0.2500015290123115  0.2499506449722216  0.5023242646071464
  0.0990915622330227  0.2501146161312398  0.5215137359158419
  0.1526711173786834  0.2542032088934263  0.6314731937401784
  0.0012085698051407  0.2498983056062126  0.6136425363902183
  0.3469937083967765  0.2495047224126242  0.6342409877744590
  0.4022663804388667  0.2490160610379742  0.7412975012722647
  0.2485160713716612  0.2479832412871577  0.7277160710129654
  0.0982892299443529  0.2476061554373184  0.7394646196128553
  0.4068042923426879  0.2500014305647840  0.3012000608242208
  0.2501138314466890  0.2499650369801197  0.2579637202164835
  0.0931451337969250  0.2499658879072171  0.3009574722935834
  0.1544951514296480  0.4999511921931472  0.4096498320188764
  0.9999606450655100  0.5000843975657066  0.3930020260934712
  0.3455670395263548  0.4999316504435048  0.4099357367110412
  0.4008945105693125  0.4995706016491380  0.5220839038550467
  0.2498962188702856  0.5003501780222792  0.5026840291647728
  0.0990937319108584  0.5002842877710718  0.5216576766967279
  0.1514283729272596  0.5003983928026403  0.6330319747502245
  0.9999681211897403  0.5001221287724043  0.6135203658929509
  0.3481878366168370  0.5002420978618793  0.6332639071512214
  0.4033280908343924  0.5001093192216444  0.7405726669875936
  0.2498822631182805  0.4988459348029980  0.7240785071267374
  0.0972604464491875  0.4991731476566593  0.7401791772051773
  0.4068291274690644  0.4999723728321509  0.3011923287189909
  0.2500553848729897  0.5000990693177075  0.2578094105729073
  0.0931107526705601  0.4999685054148102  0.3010034766006778
  0.1544985237326719  0.7501177463270617  0.4096764438117280
  0.9999757138748846  0.7499290555012161  0.3929923250281979
  0.3455416706042508  0.7501310174850234  0.4099504481405803
  0.4009516947136276  0.7502296644765876  0.5219812066972565
  0.2498802758562472  0.7497346154589655  0.5027299023853821
  0.0991028179904799  0.7498160459804869  0.5216398300909030
  0.1512482871853616  0.7507544596171378  0.6329964575248179
  0.9999403577981373  0.7499861023232682  0.6136290048405885
  0.3482527325645719  0.7496413431978025  0.6330479391553127
  0.4032161173882447  0.7494971890084149  0.7404751591394848
  0.2499978408432119  0.7511807022825288  0.7236751412335214
  0.0977803753316891  0.7518154746230656  0.7403724690180004
  0.4068095056787099  0.7500538954438202  0.3011969977690958
  0.2500362039424678  0.7498932489603424  0.2579868340182762
  0.0931685451444871  0.7500213279958620  0.3010133869954656
  0.1545676003592975  0.9998335337398796  0.4095387864509155
  0.9999360299397601  0.9999370346962896  0.3930086997936132
  0.3456451522319793  0.9998974096440392  0.4098870220806431
  0.4008205312614030  0.9998868243706719  0.5220656925605456
  0.2499982320597030  0.0001208042499613  0.5026838262288155
  0.0990031411826755  0.0001102702616760  0.5215244477528496
  0.1518531571260744  0.9959475695153578  0.6314491111473007
  0.0011704366082603  0.0002584442760575  0.6137098127784660
  0.3479227430094234  0.9994922892077469  0.6334745217418379
  0.4024028790591206  0.9994445250125306  0.7407854829476361
  0.2496751651909074  0.0016361186871489  0.7253614533387712
  0.0982096835740889  0.0014487507432216  0.7403767258206264
  0.9066976807936883  0.9999551705122052  0.3011555590223766
  0.7500426387001631  0.0000183726428638  0.2576456429915219
  0.5931259275810314  0.0000089778361332  0.3012024999826670
  0.6545404338208378  0.2500004170386986  0.4099995965763595
  0.5000742433486606  0.2499837439534297  0.3932905625015629
  0.8455311006847903  0.2499942153129954  0.4099384201143149
  0.9011147777364472  0.2499852563191796  0.5222347518396697
  0.7501601562042326  0.2500197276725664  0.5028934352164656
  0.5988688348429179  0.2499894662966792  0.5220394321108650
  0.6518303361605240  0.2503209538318579  0.6332563445776195
  0.4995972228474335  0.2496652009073430  0.6137539058656438
  0.8485082798554476  0.2502821582136066  0.6335055886130075
  0.9036973402349154  0.2497720918824946  0.7406599118228300
  0.7498187408686182  0.2498535930416904  0.7241034413090274
  0.5963782938614827  0.2499826427753852  0.7403303542716976
  0.9067170731558192  0.2500735099953109  0.3011621404167521
  0.7500246917528722  0.2500007106123281  0.2575967842157167
  0.5931041903716285  0.2500127805903986  0.3012057727201810
  0.6545168384078260  0.4999597782728640  0.4098897249343316
  0.5000524054991138  0.5000711496397527  0.3931538915595738
  0.8455003469621193  0.4999376545382071  0.4098999711113158
  0.9009989579104860  0.5000484689958780  0.5220638711112814
  0.7500196326147743  0.4999974355579343  0.5027166065570624
  0.5990380361675823  0.4997816279577562  0.5220214456301516
  0.6516796740386153  0.4999004120752717  0.6331975647640842
  0.4999876020879315  0.4995462783242483  0.6132152221384506
  0.8481505639445768  0.5001272518397630  0.6330463372716842
  0.9029900508283843  0.5000198316889543  0.7403194633289129
  0.7500834073562586  0.4999603604199602  0.7237685050810131
  0.5968566138392661  0.5001661149301002  0.7404471546603620
  0.9068007379377455  0.5000117795922041  0.3011469746153395
  0.7499298325975960  0.5000583206726019  0.2578134281106481
  0.5931458588100605  0.4999076153245492  0.3011700761143328
  0.6545185165747198  0.7500709435171590  0.4098902823267259
  0.5000449220171747  0.7499638566211826  0.3931313687496357
  0.8455141558409294  0.7500959008777838  0.4099057860672308
  0.9010093848082606  0.7499601165648101  0.5220718569077495
  0.7500466365045564  0.7500160957044153  0.5027155697468605
  0.5990948646554565  0.7501817318721817  0.5220197524591700
  0.6517207943268776  0.7500099875626901  0.6332169881479349
  0.5000231998531446  0.7502548420199922  0.6132141944120164
  0.8481525424760646  0.7497413338224520  0.6330846387964644
  0.9033045919809046  0.7497981510131793  0.7402486832085922
  0.7501408561808530  0.7500488813433616  0.7237948642466142
  0.5968300049909588  0.7498155170078624  0.7404201665862444
  0.9068349789769118  0.7499801852836059  0.3011415853157507
  0.7499325136947349  0.7499389888431253  0.2577496143494690
  0.5931357844835879  0.7501077843422332  0.3011687845263107
  0.6545486825716785  0.0000363962549253  0.4099922626239669
  0.5000925514875115  0.0000335635837003  0.3932443161159222
  0.8455380825533586  0.0000087927512947  0.4099371550119129
  0.9011260633632304  0.0001257516423413  0.5222521806545862
  0.7501841977191668  0.0000291758774874  0.5028909891952393
  0.5989647680219875  0.0000624803501485  0.5220264996257338
  0.6519103279111361  0.9997898143660928  0.6332354501104267
  0.4998253032369162  0.0002383606214853  0.6135823984958465
  0.8485296745207968  0.9998780903836453  0.6335332543891568
  0.9038788316899654  0.0001808697685612  0.7406369891634659
  0.7498852164118531  0.0001167761106484  0.7241295234305061
  0.5964571974814444  0.0000498814519390  0.7403039706772525
  0.2499603942005591  0.2489760519796230  0.8056639038811103
  0.1606906709373516  0.1241254165191737  0.6961051932212194
 
  0.00000000E+00  0.00000000E+00  0.00000000E+00
  0.00000000E+00  0.00000000E+00  0.00000000E+00
  0.00000000E+00  0.00000000E+00  0.00000000E+00
  0.00000000E+00  0.00000000E+00  0.00000000E+00
  0.00000000E+00  0.00000000E+00  0.00000000E+00
  0.00000000E+00  0.00000000E+00  0.00000000E+00
  0.00000000E+00  0.00000000E+00  0.00000000E+00
  0.00000000E+00  0.00000000E+00  0.00000000E+00
  0.00000000E+00  0.00000000E+00  0.00000000E+00
  0.00000000E+00  0.00000000E+00  0.00000000E+00
  0.00000000E+00  0.00000000E+00  0.00000000E+00
  0.00000000E+00  0.00000000E+00  0.00000000E+00
  0.00000000E+00  0.00000000E+00  0.00000000E+00
  0.00000000E+00  0.00000000E+00  0.00000000E+00
  0.00000000E+00  0.00000000E+00  0.00000000E+00
  0.00000000E+00  0.00000000E+00  0.00000000E+00
  0.00000000E+00  0.00000000E+00  0.00000000E+00
  0.00000000E+00  0.00000000E+00  0.00000000E+00
  0.00000000E+00  0.00000000E+00  0.00000000E+00
  0.00000000E+00  0.00000000E+00  0.00000000E+00
  0.00000000E+00  0.00000000E+00  0.00000000E+00
  0.00000000E+00  0.00000000E+00  0.00000000E+00
  0.00000000E+00  0.00000000E+00  0.00000000E+00
  0.00000000E+00  0.00000000E+00  0.00000000E+00
  0.00000000E+00  0.00000000E+00  0.00000000E+00
  0.00000000E+00  0.00000000E+00  0.00000000E+00
  0.00000000E+00  0.00000000E+00  0.00000000E+00
  0.00000000E+00  0.00000000E+00  0.00000000E+00
  0.00000000E+00  0.00000000E+00  0.00000000E+00
  0.00000000E+00  0.00000000E+00  0.00000000E+00
  0.00000000E+00  0.00000000E+00  0.00000000E+00
  0.00000000E+00  0.00000000E+00  0.00000000E+00
  0.00000000E+00  0.00000000E+00  0.00000000E+00
  0.00000000E+00  0.00000000E+00  0.00000000E+00
  0.00000000E+00  0.00000000E+00  0.00000000E+00
  0.00000000E+00  0.00000000E+00  0.00000000E+00
  0.00000000E+00  0.00000000E+00  0.00000000E+00
  0.00000000E+00  0.00000000E+00  0.00000000E+00
  0.00000000E+00  0.00000000E+00  0.00000000E+00
  0.00000000E+00  0.00000000E+00  0.00000000E+00
  0.00000000E+00  0.00000000E+00  0.00000000E+00
  0.00000000E+00  0.00000000E+00  0.00000000E+00
  0.00000000E+00  0.00000000E+00  0.00000000E+00
  0.00000000E+00  0.00000000E+00  0.00000000E+00
  0.00000000E+00  0.00000000E+00  0.00000000E+00
  0.00000000E+00  0.00000000E+00  0.00000000E+00
  0.00000000E+00  0.00000000E+00  0.00000000E+00
  0.00000000E+00  0.00000000E+00  0.00000000E+00
  0.00000000E+00  0.00000000E+00  0.00000000E+00
  0.00000000E+00  0.00000000E+00  0.00000000E+00
  0.00000000E+00  0.00000000E+00  0.00000000E+00
  0.00000000E+00  0.00000000E+00  0.00000000E+00
  0.00000000E+00  0.00000000E+00  0.00000000E+00
  0.00000000E+00  0.00000000E+00  0.00000000E+00
  0.00000000E+00  0.00000000E+00  0.00000000E+00
  0.00000000E+00  0.00000000E+00  0.00000000E+00
  0.00000000E+00  0.00000000E+00  0.00000000E+00
  0.00000000E+00  0.00000000E+00  0.00000000E+00
  0.00000000E+00  0.00000000E+00  0.00000000E+00
  0.00000000E+00  0.00000000E+00  0.00000000E+00
  0.00000000E+00  0.00000000E+00  0.00000000E+00
  0.00000000E+00  0.00000000E+00  0.00000000E+00
  0.00000000E+00  0.00000000E+00  0.00000000E+00
  0.00000000E+00  0.00000000E+00  0.00000000E+00
  0.00000000E+00  0.00000000E+00  0.00000000E+00
  0.00000000E+00  0.00000000E+00  0.00000000E+00
  0.00000000E+00  0.00000000E+00  0.00000000E+00
  0.00000000E+00  0.00000000E+00  0.00000000E+00
  0.00000000E+00  0.00000000E+00  0.00000000E+00
  0.00000000E+00  0.00000000E+00  0.00000000E+00
  0.00000000E+00  0.00000000E+00  0.00000000E+00
  0.00000000E+00  0.00000000E+00  0.00000000E+00
  0.00000000E+00  0.00000000E+00  0.00000000E+00
  0.00000000E+00  0.00000000E+00  0.00000000E+00
  0.00000000E+00  0.00000000E+00  0.00000000E+00
  0.00000000E+00  0.00000000E+00  0.00000000E+00
  0.00000000E+00  0.00000000E+00  0.00000000E+00
  0.00000000E+00  0.00000000E+00  0.00000000E+00
  0.00000000E+00  0.00000000E+00  0.00000000E+00
  0.00000000E+00  0.00000000E+00  0.00000000E+00
  0.00000000E+00  0.00000000E+00  0.00000000E+00
  0.00000000E+00  0.00000000E+00  0.00000000E+00
  0.00000000E+00  0.00000000E+00  0.00000000E+00
  0.00000000E+00  0.00000000E+00  0.00000000E+00
  0.00000000E+00  0.00000000E+00  0.00000000E+00
  0.00000000E+00  0.00000000E+00  0.00000000E+00
  0.00000000E+00  0.00000000E+00  0.00000000E+00
  0.00000000E+00  0.00000000E+00  0.00000000E+00
  0.00000000E+00  0.00000000E+00  0.00000000E+00
  0.00000000E+00  0.00000000E+00  0.00000000E+00
  0.00000000E+00  0.00000000E+00  0.00000000E+00
  0.00000000E+00  0.00000000E+00  0.00000000E+00
  0.00000000E+00  0.00000000E+00  0.00000000E+00
  0.00000000E+00  0.00000000E+00  0.00000000E+00
  0.00000000E+00  0.00000000E+00  0.00000000E+00
  0.00000000E+00  0.00000000E+00  0.00000000E+00
  0.00000000E+00  0.00000000E+00  0.00000000E+00
  0.00000000E+00  0.00000000E+00  0.00000000E+00
  0.00000000E+00  0.00000000E+00  0.00000000E+00
  0.00000000E+00  0.00000000E+00  0.00000000E+00
  0.00000000E+00  0.00000000E+00  0.00000000E+00
  0.00000000E+00  0.00000000E+00  0.00000000E+00
  0.00000000E+00  0.00000000E+00  0.00000000E+00
  0.00000000E+00  0.00000000E+00  0.00000000E+00
  0.00000000E+00  0.00000000E+00  0.00000000E+00
  0.00000000E+00  0.00000000E+00  0.00000000E+00
  0.00000000E+00  0.00000000E+00  0.00000000E+00
  0.00000000E+00  0.00000000E+00  0.00000000E+00
  0.00000000E+00  0.00000000E+00  0.00000000E+00
  0.00000000E+00  0.00000000E+00  0.00000000E+00
  0.00000000E+00  0.00000000E+00  0.00000000E+00
  0.00000000E+00  0.00000000E+00  0.00000000E+00
  0.00000000E+00  0.00000000E+00  0.00000000E+00
  0.00000000E+00  0.00000000E+00  0.00000000E+00
  0.00000000E+00  0.00000000E+00  0.00000000E+00
  0.00000000E+00  0.00000000E+00  0.00000000E+00
  0.00000000E+00  0.00000000E+00  0.00000000E+00
  0.00000000E+00  0.00000000E+00  0.00000000E+00
  0.00000000E+00  0.00000000E+00  0.00000000E+00
  0.00000000E+00  0.00000000E+00  0.00000000E+00
  0.00000000E+00  0.00000000E+00  0.00000000E+00
  0.00000000E+00  0.00000000E+00  0.00000000E+00
  0.00000000E+00  0.00000000E+00  0.00000000E+00
  0.00000000E+00  0.00000000E+00  0.00000000E+00
  0.00000000E+00  0.00000000E+00  0.00000000E+00
  0.00000000E+00  0.00000000E+00  0.00000000E+00
  0.00000000E+00  0.00000000E+00  0.00000000E+00
  0.00000000E+00  0.00000000E+00  0.00000000E+00
  0.00000000E+00  0.00000000E+00  0.00000000E+00
  0.00000000E+00  0.00000000E+00  0.00000000E+00
  0.00000000E+00  0.00000000E+00  0.00000000E+00
  0.00000000E+00  0.00000000E+00  0.00000000E+00
  0.00000000E+00  0.00000000E+00  0.00000000E+00
  0.00000000E+00  0.00000000E+00  0.00000000E+00
  0.00000000E+00  0.00000000E+00  0.00000000E+00
  0.00000000E+00  0.00000000E+00  0.00000000E+00
  0.00000000E+00  0.00000000E+00  0.00000000E+00
  0.00000000E+00  0.00000000E+00  0.00000000E+00
  0.00000000E+00  0.00000000E+00  0.00000000E+00
  0.00000000E+00  0.00000000E+00  0.00000000E+00
  0.00000000E+00  0.00000000E+00  0.00000000E+00
  0.00000000E+00  0.00000000E+00  0.00000000E+00
  0.00000000E+00  0.00000000E+00  0.00000000E+00
  0.00000000E+00  0.00000000E+00  0.00000000E+00
  0.00000000E+00  0.00000000E+00  0.00000000E+00
  0.00000000E+00  0.00000000E+00  0.00000000E+00
  0.00000000E+00  0.00000000E+00  0.00000000E+00
  0.00000000E+00  0.00000000E+00  0.00000000E+00
  0.00000000E+00  0.00000000E+00  0.00000000E+00
  0.00000000E+00  0.00000000E+00  0.00000000E+00
  0.00000000E+00  0.00000000E+00  0.00000000E+00
  0.00000000E+00  0.00000000E+00  0.00000000E+00
  0.00000000E+00  0.00000000E+00  0.00000000E+00
  0.00000000E+00  0.00000000E+00  0.00000000E+00
  0.00000000E+00  0.00000000E+00  0.00000000E+00
  0.00000000E+00  0.00000000E+00  0.00000000E+00
  0.00000000E+00  0.00000000E+00  0.00000000E+00
  0.00000000E+00  0.00000000E+00  0.00000000E+00
  0.00000000E+00  0.00000000E+00  0.00000000E+00
  0.00000000E+00  0.00000000E+00  0.00000000E+00
  0.00000000E+00  0.00000000E+00  0.00000000E+00
  0.00000000E+00  0.00000000E+00  0.00000000E+00
  0.00000000E+00  0.00000000E+00  0.00000000E+00
  0.00000000E+00  0.00000000E+00  0.00000000E+00
  0.00000000E+00  0.00000000E+00  0.00000000E+00
  0.00000000E+00  0.00000000E+00  0.00000000E+00
  0.00000000E+00  0.00000000E+00  0.00000000E+00
  0.00000000E+00  0.00000000E+00  0.00000000E+00
  0.00000000E+00  0.00000000E+00  0.00000000E+00
  0.00000000E+00  0.00000000E+00  0.00000000E+00
  0.00000000E+00  0.00000000E+00  0.00000000E+00
  0.00000000E+00  0.00000000E+00  0.00000000E+00
  0.00000000E+00  0.00000000E+00  0.00000000E+00
  0.00000000E+00  0.00000000E+00  0.00000000E+00
  0.00000000E+00  0.00000000E+00  0.00000000E+00
  0.00000000E+00  0.00000000E+00  0.00000000E+00
  0.00000000E+00  0.00000000E+00  0.00000000E+00
  0.00000000E+00  0.00000000E+00  0.00000000E+00
  0.00000000E+00  0.00000000E+00  0.00000000E+00
  0.00000000E+00  0.00000000E+00  0.00000000E+00
  0.00000000E+00  0.00000000E+00  0.00000000E+00
  0.00000000E+00  0.00000000E+00  0.00000000E+00
  0.00000000E+00  0.00000000E+00  0.00000000E+00
  0.00000000E+00  0.00000000E+00  0.00000000E+00
  0.00000000E+00  0.00000000E+00  0.00000000E+00
  0.00000000E+00  0.00000000E+00  0.00000000E+00
  0.00000000E+00  0.00000000E+00  0.00000000E+00
  0.00000000E+00  0.00000000E+00  0.00000000E+00
  0.00000000E+00  0.00000000E+00  0.00000000E+00
  0.00000000E+00  0.00000000E+00  0.00000000E+00
  0.00000000E+00  0.00000000E+00  0.00000000E+00
  0.00000000E+00  0.00000000E+00  0.00000000E+00
  0.00000000E+00  0.00000000E+00  0.00000000E+00
  0.00000000E+00  0.00000000E+00  0.00000000E+00
  0.00000000E+00  0.00000000E+00  0.00000000E+00
  0.00000000E+00  0.00000000E+00  0.00000000E+00
  0.00000000E+00  0.00000000E+00  0.00000000E+00
  0.00000000E+00  0.00000000E+00  0.00000000E+00
  0.00000000E+00  0.00000000E+00  0.00000000E+00
  0.00000000E+00  0.00000000E+00  0.00000000E+00
  0.00000000E+00  0.00000000E+00  0.00000000E+00
  0.00000000E+00  0.00000000E+00  0.00000000E+00
  0.00000000E+00  0.00000000E+00  0.00000000E+00
  0.00000000E+00  0.00000000E+00  0.00000000E+00
  0.00000000E+00  0.00000000E+00  0.00000000E+00
  0.00000000E+00  0.00000000E+00  0.00000000E+00
  0.00000000E+00  0.00000000E+00  0.00000000E+00
  0.00000000E+00  0.00000000E+00  0.00000000E+00
  0.00000000E+00  0.00000000E+00  0.00000000E+00
  0.00000000E+00  0.00000000E+00  0.00000000E+00
  0.00000000E+00  0.00000000E+00  0.00000000E+00
  0.00000000E+00  0.00000000E+00  0.00000000E+00
  0.00000000E+00  0.00000000E+00  0.00000000E+00
  0.00000000E+00  0.00000000E+00  0.00000000E+00
  0.00000000E+00  0.00000000E+00  0.00000000E+00
  0.00000000E+00  0.00000000E+00  0.00000000E+00
  0.00000000E+00  0.00000000E+00  0.00000000E+00
  0.00000000E+00  0.00000000E+00  0.00000000E+00
  0.00000000E+00  0.00000000E+00  0.00000000E+00
  0.00000000E+00  0.00000000E+00  0.00000000E+00
  0.00000000E+00  0.00000000E+00  0.00000000E+00
  0.00000000E+00  0.00000000E+00  0.00000000E+00
  0.00000000E+00  0.00000000E+00  0.00000000E+00
  0.00000000E+00  0.00000000E+00  0.00000000E+00
  0.00000000E+00  0.00000000E+00  0.00000000E+00
  0.00000000E+00  0.00000000E+00  0.00000000E+00
  0.00000000E+00  0.00000000E+00  0.00000000E+00
  0.00000000E+00  0.00000000E+00  0.00000000E+00
  0.00000000E+00  0.00000000E+00  0.00000000E+00
  0.00000000E+00  0.00000000E+00  0.00000000E+00
  0.00000000E+00  0.00000000E+00  0.00000000E+00
  0.00000000E+00  0.00000000E+00  0.00000000E+00
  0.00000000E+00  0.00000000E+00  0.00000000E+00
  0.00000000E+00  0.00000000E+00  0.00000000E+00
  0.00000000E+00  0.00000000E+00  0.00000000E+00
  0.00000000E+00  0.00000000E+00  0.00000000E+00
  0.00000000E+00  0.00000000E+00  0.00000000E+00
  0.00000000E+00  0.00000000E+00  0.00000000E+00
  0.00000000E+00  0.00000000E+00  0.00000000E+00
  0.00000000E+00  0.00000000E+00  0.00000000E+00
  0.00000000E+00  0.00000000E+00  0.00000000E+00
