Ta N Cu Ru                              
   1.00000000000000     
    18.1096308199999996    0.0000000000000000    0.0000000000000000
     0.0000000000000000   11.6775998899999998    0.0000000000000000
     0.0000000000000000    0.0000000000000000   23.4818170799999990
   Ta   N    Cu   Ru
   119   120     1     1
Direct
  0.9999749197218185  0.0000236955507473  0.2547170103911928
  0.3334568028030347  0.1249506443268724  0.2637665703258240
  0.1665767198186019  0.1251025532370565  0.2636933997453695
  0.2501156349131925  0.2499886628600685  0.3612512449616109
  0.0825422516892859  0.1250638036639904  0.3682472251993457
  0.4175938652477144  0.1249927551864365  0.3683499728377237
  0.0001206981086237  0.2503084241262671  0.4796593310840372
  0.3321258579900295  0.1250662274049103  0.4778974796871153
  0.1677730766252767  0.1251959670367128  0.4777625052524339
  0.2495741926412645  0.2498523674365135  0.5907583198558010
  0.0842980053301483  0.1246839770405758  0.5885979204387053
  0.4160002225580622  0.1251122672740780  0.5899621646873807
  0.9990432407100381  0.2424632002697672  0.7027506070542475
  0.1607359189074275  0.1243225755837725  0.7022279566442055
  0.9999829639368000  0.2501039481209738  0.2547778610987374
  0.3336167764188134  0.3749844914992711  0.2638319804196870
  0.1664327769991784  0.3750580362813575  0.2637455633631022
  0.2499907736860846  0.5000215331440929  0.3613551779746204
  0.0824821154246152  0.3750940819780839  0.3684098748183604
  0.4175386931928688  0.3750081961604720  0.3685142109871245
  0.0000579081965547  0.5000291879541655  0.4799610358472277
  0.3323382112448061  0.3750950599570328  0.4781631726314617
  0.1675654434801349  0.3752044815715538  0.4781002533168547
  0.2495747866129981  0.4999706392312753  0.5911934017166951
  0.0837093619261503  0.3751561273961936  0.5901736511558119
  0.4158721277422680  0.3752447086709241  0.5901056163031790
  0.9994664189969922  0.5000872665812077  0.7025840825764699
  0.3356544655855353  0.3765893887426820  0.7048163674239830
  0.1631088048347543  0.3763472428361376  0.7050675662986442
  0.9999872054697916  0.4999808286735066  0.2548494628678312
  0.3335890270878582  0.6250095607787448  0.2638394378258462
  0.1664472282335668  0.6249400016102165  0.2637486618617521
  0.2501143680989277  0.7500143572764599  0.3612942931549563
  0.0825342919736301  0.6249538121522642  0.3683949488652664
  0.4174894940602342  0.6250081769447026  0.3685002958571402
  0.0000895223571179  0.7499143223361139  0.4796282809060648
  0.3323286841454040  0.6250543327180885  0.4782019966533888
  0.1675952826682852  0.6250021808166598  0.4781770490494011
  0.2496481348523515  0.7507172692220275  0.5911633261994290
  0.0835808024672474  0.6253646463795071  0.5901551581728716
  0.4160758446494965  0.6250966846679332  0.5900550661961380
  0.9995051989299090  0.7583814009571690  0.7028903915731894
  0.3343666382182146  0.6251910006940399  0.7042618260910438
  0.1642563100995624  0.6255101838663898  0.7045479371367500
  0.9999956514406748  0.7499413060184116  0.2547655345792262
  0.3333966738212646  0.8750401190050703  0.2637965839015988
  0.1666367755905830  0.8749054680192730  0.2637212035734789
  0.2502296474297109  0.0000333507395981  0.3611921471570522
  0.0825292173330001  0.8749548150086690  0.3682669701589181
  0.4176281560787277  0.8750254932567415  0.3683599243583054
  0.0001242096737189  0.0000243289030243  0.4792812494072072
  0.3320922414932943  0.8749891502257655  0.4779441621382992
  0.1677728917273049  0.8749005601046583  0.4778301511009173
  0.2499203473415530  0.0000531011696558  0.5906030855690847
  0.0842601648535772  0.8755614612502467  0.5887791853276544
  0.4160054505364925  0.8749198016717868  0.5900586330370625
  0.3355151818844120  0.8736855588430577  0.7047067599150773
  0.1635043013786966  0.8744510940067461  0.7041891733992208
  0.5000177430564176  0.9999873194788520  0.2548564831637906
  0.8333925796325206  0.1251104448205403  0.2637164442284587
  0.6665499681750646  0.1249739101310595  0.2638199453539486
  0.7498764996432867  0.2499784448025487  0.3613403501597224
  0.5823220759128239  0.1249876076189337  0.3683968599217305
  0.9174717485148277  0.1250642809575000  0.3682841725476244
  0.4998921708182411  0.2501134672524400  0.4800338366767372
  0.8322519035449898  0.1251757785786600  0.4778372304120016
  0.6679783008865198  0.1250442215845229  0.4779198931877335
  0.7503319756593609  0.2495967760982419  0.5910899075039034
  0.5835988100891824  0.1250404932204967  0.5898590661597551
  0.9160572478188130  0.1245532581795867  0.5885808513171527
  0.5007179947480315  0.2501954321692051  0.7021808794937405
  0.8358933230524099  0.1240887548657481  0.7032400024771265
  0.6655663711886266  0.1250538208771260  0.7039490871603817
  0.5000083178508381  0.2501229894032280  0.2548886588907295
  0.8335267225457650  0.3750240893076043  0.2637502393864902
  0.6663819608972261  0.3749461530333438  0.2638403138547029
  0.7499996353151498  0.4999933392443487  0.3613901467005824
  0.5824486983660434  0.3749951268105436  0.3685457430155198
  0.9174884059727252  0.3750696794595311  0.3684277412974704
  0.4999115885079681  0.5000046952887475  0.4799767639497219
  0.8324443903640228  0.3751023972693143  0.4781231045669542
  0.6676435542843802  0.3750020844614768  0.4781694780701363
  0.7503706563282521  0.5000006857775692  0.5910775607005102
  0.5837109473238030  0.3750467414802075  0.5898609665638949
  0.9166263500378377  0.3749570667299444  0.5900365934294751
  0.5003101674940750  0.5000167850588330  0.7021773357879593
  0.8357007159900228  0.3744335821231302  0.7043649234812808
  0.6653085666253366  0.3747132762484113  0.7039833195884880
  0.5000076018696005  0.4999472664406206  0.2548883868638926
  0.8334938410165457  0.6249496503654518  0.2637615044639339
  0.6664186811303757  0.6250263429035223  0.2638549465604479
  0.7498848976179159  0.7500410664519919  0.3613168352492901
  0.5824696073627901  0.6250013458655148  0.3685206957931769
  0.9174736669716530  0.6249467041031179  0.3684026053021837
  0.4999402900624984  0.7500136594247869  0.4799909952423885
  0.8324517699795358  0.6249421907909439  0.4781259951898923
  0.6676467062490130  0.6250126902882579  0.4781709722954046
  0.7503438442161091  0.7504506030309508  0.5910585053663112
  0.5837336049263749  0.6250329921926259  0.5898757676280048
  0.9165919493000858  0.6252735020378203  0.5900384128828171
  0.5002219296708410  0.7499358617265879  0.7022546583860784
  0.8357123280581226  0.6253843840532481  0.7044216475974393
  0.6653073328970561  0.6250590726402665  0.7040084976982334
  0.4999992999335572  0.7499028269160667  0.2548657163723294
  0.8333358388359708  0.8749097217359949  0.2637268155712633
  0.6665901507155355  0.8750747520183800  0.2638187826918447
  0.7497937685795806  0.0000252190639350  0.3612896843538650
  0.5823136027638386  0.8750241009331851  0.3683822212869928
  0.9174755503155749  0.8749564112111556  0.3682821548986199
  0.4999219379138015  0.9999748445111808  0.4801124644044123
  0.8322711125382777  0.8748901961082013  0.4778293264294968
  0.6679396824677100  0.8749907374595723  0.4778963460806465
  0.7500345347014539  0.0000357637209500  0.5908671739318430
  0.5836338674302798  0.8749770398224253  0.5897962528193581
  0.9160411407006714  0.8756219575729828  0.5885544480981063
  0.5006836370971561  0.0001150444863420  0.7023144565402768
  0.8358785746190952  0.8760884463006129  0.7032637038699980
  0.6655388420327314  0.8750140949267763  0.7039505777899234
  0.3378383634992653  0.1251975547873268  0.7027766349597169
  0.4068996932052754  0.9999945651272858  0.3011861380527265
  0.2499299976768846  0.0000353507261058  0.2575580499074540
  0.0932322089370082  0.0000078955210069  0.3010057242684922
  0.1544718132939788  0.2501943935281050  0.4098097096947079
  0.0000173796562756  0.2500903181296723  0.3930296929660299
  0.3456074351561811  0.2500864880664699  0.4099702776305701
  0.4008246769830363  0.2499863591163602  0.5221450276664318
  0.2500035903348164  0.2502897547634656  0.5026816322131884
  0.0991325207388759  0.2504720225993234  0.5219639800369987
  0.1514875645009718  0.2508553809785791  0.6336946068986530
  0.0001200621638024  0.2480368073065549  0.6141695914060369
  0.3474362466959157  0.2512196283597550  0.6335524803673135
  0.4038124018053078  0.2503040860497785  0.7404865081007760
  0.2493727589060790  0.2472907685350298  0.7289204920460391
  0.0951753154007212  0.2486388652300812  0.7410689976786534
  0.4068605953138509  0.2499791062894822  0.3012325106882258
  0.2500237977126123  0.2501109513853376  0.2577903418507980
  0.0931909311589376  0.2501473581188272  0.3011211278645014
  0.1544537100252782  0.5000844963239165  0.4100090423455074
  0.0000050078954946  0.5000508345450350  0.3932072152158223
  0.3454762645671028  0.5000530214190424  0.4100381555448246
  0.4008725936042737  0.5000518378058794  0.5222748574395631
  0.2499054860121621  0.5001391596104875  0.5029882631123104
  0.0989765204902870  0.5001200215811979  0.5222571807385554
  0.1516224721341791  0.5002756364364930  0.6337429292988803
  0.0000632027673222  0.5002034911630074  0.6139362292785152
  0.3476248875616159  0.5002059051645582  0.6335094956772147
  0.4029203965157673  0.5002381991868342  0.7403978226329633
  0.2492445399973954  0.4997442737476712  0.7247648909101907
  0.0964583832251879  0.5003238326455219  0.7408823366263277
  0.4068505731551058  0.4999849531830667  0.3012915916293801
  0.2500702419510621  0.4999883167193796  0.2580142622346153
  0.0931727481033634  0.4999869893623867  0.3012439140226897
  0.1544791503714383  0.7499141120817459  0.4098739833267727
  0.0000201544066337  0.7499070229509467  0.3929953819726711
  0.3455830436087476  0.7500154656596176  0.4100231075872117
  0.4009524302777662  0.7502649944810286  0.5221965533448595
  0.2500165908556133  0.7498315282382270  0.5029825778090552
  0.0989994783683054  0.7498646890599027  0.5220703126802075
  0.1512260528736228  0.7506868129707599  0.6336616566135068
  0.0000628336487055  0.7523726994118171  0.6143127510382187
  0.3477705830133325  0.7499804253605536  0.6334462270485248
  0.4028923837527392  0.7504609542660448  0.7404140050066448
  0.2494278723564494  0.7510586425855760  0.7246738528141186
  0.0961688068589137  0.7526329274087787  0.7409812779583433
  0.4068644288388916  0.7500358442217304  0.3012338392703335
  0.2500173350755571  0.7498553374733357  0.2576602250355419
  0.0931947159550435  0.7498880959220853  0.3011247107985177
  0.1544951548806960  0.9999613433850716  0.4096358367565757
  0.0000257772705408  0.0000203950435006  0.3927810633875260
  0.3456978003055511  0.9999485419222335  0.4099137350652447
  0.4008486726314085  0.9999579933444727  0.5221026875722529
  0.2501132118898255  0.0000230289593936  0.5024392987347380
  0.0994089005975784  0.0000497680138875  0.5213622090598687
  0.1519371046857432  0.9990455233460422  0.6331194328745786
  0.0001996198740289  0.0001470282760040  0.6116930219361385
  0.3475383036206750  0.9991087512110107  0.6336172111023133
  0.4038034173375138  0.9996903567081128  0.7405709862694961
  0.2485724153234068  0.0028071107359239  0.7292154908080295
  0.0928602553734632 -0.0000273288162557  0.7382271985084127
  0.9067379330030148  0.0000122830220096  0.3010317531413734
  0.7500559457083117  0.0000326319846884  0.2575655563083428
  0.5931006200448667  0.0000138564512641  0.3012415847935005
  0.6543707303637846  0.2499974650291787  0.4100056851912705
  0.4999544086449735  0.2500091561519542  0.3933067328043276
  0.8455326575986203  0.2501299279956305  0.4098538553428412
  0.9011149551973604  0.2503786949423825  0.5219377486539900
  0.7500045965799511  0.2502638377127321  0.5028838183327150
  0.5989392240616298  0.2497856359710633  0.5220740931205934
  0.6520094471013484  0.2501983916301981  0.6331301808483496
  0.4998874962198263  0.2501267142564546  0.6136282818942416
  0.8490202245862665  0.2497484395661734  0.6333216532693092
  0.9032513858843130  0.2477724883248405  0.7410582467636337
  0.7504706924007819  0.2498002495660384  0.7238836977948613
  0.5973331730677790  0.2494071339646742  0.7403298450447851
  0.9067850877110424  0.2501340531821856  0.3011486121479175
  0.7499632072041735  0.2501147066463351  0.2577186945107848
  0.5931298814372933  0.2499694057870289  0.3012842175072662
  0.6545009838375176  0.5000037048687569  0.4100083315708853
  0.4999666416355866  0.5000355240332778  0.3932855414420063
  0.8455292588954019  0.5000161617802693  0.4099851502585629
  0.9011398071580191  0.5000670370315122  0.5221598643611166
  0.7501072534122839  0.5000073001174707  0.5028994748998553
  0.5989889944156598  0.5000193522124442  0.5221265167029550
  0.6521103099197276  0.5000661052048649  0.6330874008096922
  0.4998885209799427  0.5000525513523704  0.6135554582851900
  0.8485279859897328  0.5001425202745180  0.6333754487438408
  0.9032510136169376  0.5000795882439727  0.7407965106977601
  0.7506599265306103  0.5000774103271521  0.7239029622869593
  0.5970041255470139  0.5000224013627673  0.7401660454100184
  0.9067922598483503  0.4999895725867951  0.3012447227896023
  0.7499037739218698  0.4999739197181687  0.2579763095750537
  0.5931464199194656  0.4999834919051470  0.3013087613502869
  0.6543840984229168  0.7500341098135347  0.4099859365676046
  0.4999580873026615  0.7499584739506069  0.3932629094801741
  0.8455225864074185  0.7499048423156399  0.4098449126198679
  0.9011312542161013  0.7497519529147944  0.5219420139121765
  0.7499977203496606  0.7498161177374203  0.5028732896102446
  0.5989416383964478  0.7502132266218758  0.5220640786162989
  0.6520396386249503  0.7498209154289661  0.6330657161160249
  0.4999228960995717  0.7500767448469382  0.6137103620759847
  0.8489660851005005  0.7503852797114318  0.6332587418948741
  0.9036107466760206  0.7522909064849427  0.7408319514179221
  0.7504863963285743  0.7502059878264955  0.7238659327122271
  0.5969899400335178  0.7505221961536025  0.7400643878147088
  0.9067920535231584  0.7498826494846256  0.3011284718021540
  0.7499533064958167  0.7498862983810345  0.2576071343956752
  0.5931250994255315  0.7500316065014719  0.3012566447240960
  0.6542797366265678  0.9999866094478320  0.4099436082744519
  0.4999498398844107  0.0000112673221282  0.3933204632751308
  0.8455321907184902  0.0000000144634574  0.4096666462631515
  0.9008187467167207  0.0000623204059531  0.5212830272163407
  0.7499039287383309  0.9999772247909046  0.5025761553752613
  0.5989591162933936  0.0000365779602744  0.5220393858217941
  0.6520415393821439  0.9999036670186200  0.6332575995436952
  0.4999339793606947  0.9999941617697137  0.6137432302199580
  0.8485276216279479  0.9999647445293143  0.6327064234619689
  0.9062331392703610  0.0000014826903754  0.7378512531324942
  0.7513466304203250  0.9999413741398052  0.7243579416338922
  0.5973131834433407  0.9999936351099064  0.7403504069567796
  0.2487167944422118  0.1260321652409196  0.7920393096961442
  0.9996446694073675 -0.0000124139414748  0.6975537855827617
 
  0.00000000E+00  0.00000000E+00  0.00000000E+00
  0.00000000E+00  0.00000000E+00  0.00000000E+00
  0.00000000E+00  0.00000000E+00  0.00000000E+00
  0.00000000E+00  0.00000000E+00  0.00000000E+00
  0.00000000E+00  0.00000000E+00  0.00000000E+00
  0.00000000E+00  0.00000000E+00  0.00000000E+00
  0.00000000E+00  0.00000000E+00  0.00000000E+00
  0.00000000E+00  0.00000000E+00  0.00000000E+00
  0.00000000E+00  0.00000000E+00  0.00000000E+00
  0.00000000E+00  0.00000000E+00  0.00000000E+00
  0.00000000E+00  0.00000000E+00  0.00000000E+00
  0.00000000E+00  0.00000000E+00  0.00000000E+00
  0.00000000E+00  0.00000000E+00  0.00000000E+00
  0.00000000E+00  0.00000000E+00  0.00000000E+00
  0.00000000E+00  0.00000000E+00  0.00000000E+00
  0.00000000E+00  0.00000000E+00  0.00000000E+00
  0.00000000E+00  0.00000000E+00  0.00000000E+00
  0.00000000E+00  0.00000000E+00  0.00000000E+00
  0.00000000E+00  0.00000000E+00  0.00000000E+00
  0.00000000E+00  0.00000000E+00  0.00000000E+00
  0.00000000E+00  0.00000000E+00  0.00000000E+00
  0.00000000E+00  0.00000000E+00  0.00000000E+00
  0.00000000E+00  0.00000000E+00  0.00000000E+00
  0.00000000E+00  0.00000000E+00  0.00000000E+00
  0.00000000E+00  0.00000000E+00  0.00000000E+00
  0.00000000E+00  0.00000000E+00  0.00000000E+00
  0.00000000E+00  0.00000000E+00  0.00000000E+00
  0.00000000E+00  0.00000000E+00  0.00000000E+00
  0.00000000E+00  0.00000000E+00  0.00000000E+00
  0.00000000E+00  0.00000000E+00  0.00000000E+00
  0.00000000E+00  0.00000000E+00  0.00000000E+00
  0.00000000E+00  0.00000000E+00  0.00000000E+00
  0.00000000E+00  0.00000000E+00  0.00000000E+00
  0.00000000E+00  0.00000000E+00  0.00000000E+00
  0.00000000E+00  0.00000000E+00  0.00000000E+00
  0.00000000E+00  0.00000000E+00  0.00000000E+00
  0.00000000E+00  0.00000000E+00  0.00000000E+00
  0.00000000E+00  0.00000000E+00  0.00000000E+00
  0.00000000E+00  0.00000000E+00  0.00000000E+00
  0.00000000E+00  0.00000000E+00  0.00000000E+00
  0.00000000E+00  0.00000000E+00  0.00000000E+00
  0.00000000E+00  0.00000000E+00  0.00000000E+00
  0.00000000E+00  0.00000000E+00  0.00000000E+00
  0.00000000E+00  0.00000000E+00  0.00000000E+00
  0.00000000E+00  0.00000000E+00  0.00000000E+00
  0.00000000E+00  0.00000000E+00  0.00000000E+00
  0.00000000E+00  0.00000000E+00  0.00000000E+00
  0.00000000E+00  0.00000000E+00  0.00000000E+00
  0.00000000E+00  0.00000000E+00  0.00000000E+00
  0.00000000E+00  0.00000000E+00  0.00000000E+00
  0.00000000E+00  0.00000000E+00  0.00000000E+00
  0.00000000E+00  0.00000000E+00  0.00000000E+00
  0.00000000E+00  0.00000000E+00  0.00000000E+00
  0.00000000E+00  0.00000000E+00  0.00000000E+00
  0.00000000E+00  0.00000000E+00  0.00000000E+00
  0.00000000E+00  0.00000000E+00  0.00000000E+00
  0.00000000E+00  0.00000000E+00  0.00000000E+00
  0.00000000E+00  0.00000000E+00  0.00000000E+00
  0.00000000E+00  0.00000000E+00  0.00000000E+00
  0.00000000E+00  0.00000000E+00  0.00000000E+00
  0.00000000E+00  0.00000000E+00  0.00000000E+00
  0.00000000E+00  0.00000000E+00  0.00000000E+00
  0.00000000E+00  0.00000000E+00  0.00000000E+00
  0.00000000E+00  0.00000000E+00  0.00000000E+00
  0.00000000E+00  0.00000000E+00  0.00000000E+00
  0.00000000E+00  0.00000000E+00  0.00000000E+00
  0.00000000E+00  0.00000000E+00  0.00000000E+00
  0.00000000E+00  0.00000000E+00  0.00000000E+00
  0.00000000E+00  0.00000000E+00  0.00000000E+00
  0.00000000E+00  0.00000000E+00  0.00000000E+00
  0.00000000E+00  0.00000000E+00  0.00000000E+00
  0.00000000E+00  0.00000000E+00  0.00000000E+00
  0.00000000E+00  0.00000000E+00  0.00000000E+00
  0.00000000E+00  0.00000000E+00  0.00000000E+00
  0.00000000E+00  0.00000000E+00  0.00000000E+00
  0.00000000E+00  0.00000000E+00  0.00000000E+00
  0.00000000E+00  0.00000000E+00  0.00000000E+00
  0.00000000E+00  0.00000000E+00  0.00000000E+00
  0.00000000E+00  0.00000000E+00  0.00000000E+00
  0.00000000E+00  0.00000000E+00  0.00000000E+00
  0.00000000E+00  0.00000000E+00  0.00000000E+00
  0.00000000E+00  0.00000000E+00  0.00000000E+00
  0.00000000E+00  0.00000000E+00  0.00000000E+00
  0.00000000E+00  0.00000000E+00  0.00000000E+00
  0.00000000E+00  0.00000000E+00  0.00000000E+00
  0.00000000E+00  0.00000000E+00  0.00000000E+00
  0.00000000E+00  0.00000000E+00  0.00000000E+00
  0.00000000E+00  0.00000000E+00  0.00000000E+00
  0.00000000E+00  0.00000000E+00  0.00000000E+00
  0.00000000E+00  0.00000000E+00  0.00000000E+00
  0.00000000E+00  0.00000000E+00  0.00000000E+00
  0.00000000E+00  0.00000000E+00  0.00000000E+00
  0.00000000E+00  0.00000000E+00  0.00000000E+00
  0.00000000E+00  0.00000000E+00  0.00000000E+00
  0.00000000E+00  0.00000000E+00  0.00000000E+00
  0.00000000E+00  0.00000000E+00  0.00000000E+00
  0.00000000E+00  0.00000000E+00  0.00000000E+00
  0.00000000E+00  0.00000000E+00  0.00000000E+00
  0.00000000E+00  0.00000000E+00  0.00000000E+00
  0.00000000E+00  0.00000000E+00  0.00000000E+00
  0.00000000E+00  0.00000000E+00  0.00000000E+00
  0.00000000E+00  0.00000000E+00  0.00000000E+00
  0.00000000E+00  0.00000000E+00  0.00000000E+00
  0.00000000E+00  0.00000000E+00  0.00000000E+00
  0.00000000E+00  0.00000000E+00  0.00000000E+00
  0.00000000E+00  0.00000000E+00  0.00000000E+00
  0.00000000E+00  0.00000000E+00  0.00000000E+00
  0.00000000E+00  0.00000000E+00  0.00000000E+00
  0.00000000E+00  0.00000000E+00  0.00000000E+00
  0.00000000E+00  0.00000000E+00  0.00000000E+00
  0.00000000E+00  0.00000000E+00  0.00000000E+00
  0.00000000E+00  0.00000000E+00  0.00000000E+00
  0.00000000E+00  0.00000000E+00  0.00000000E+00
  0.00000000E+00  0.00000000E+00  0.00000000E+00
  0.00000000E+00  0.00000000E+00  0.00000000E+00
  0.00000000E+00  0.00000000E+00  0.00000000E+00
  0.00000000E+00  0.00000000E+00  0.00000000E+00
  0.00000000E+00  0.00000000E+00  0.00000000E+00
  0.00000000E+00  0.00000000E+00  0.00000000E+00
  0.00000000E+00  0.00000000E+00  0.00000000E+00
  0.00000000E+00  0.00000000E+00  0.00000000E+00
  0.00000000E+00  0.00000000E+00  0.00000000E+00
  0.00000000E+00  0.00000000E+00  0.00000000E+00
  0.00000000E+00  0.00000000E+00  0.00000000E+00
  0.00000000E+00  0.00000000E+00  0.00000000E+00
  0.00000000E+00  0.00000000E+00  0.00000000E+00
  0.00000000E+00  0.00000000E+00  0.00000000E+00
  0.00000000E+00  0.00000000E+00  0.00000000E+00
  0.00000000E+00  0.00000000E+00  0.00000000E+00
  0.00000000E+00  0.00000000E+00  0.00000000E+00
  0.00000000E+00  0.00000000E+00  0.00000000E+00
  0.00000000E+00  0.00000000E+00  0.00000000E+00
  0.00000000E+00  0.00000000E+00  0.00000000E+00
  0.00000000E+00  0.00000000E+00  0.00000000E+00
  0.00000000E+00  0.00000000E+00  0.00000000E+00
  0.00000000E+00  0.00000000E+00  0.00000000E+00
  0.00000000E+00  0.00000000E+00  0.00000000E+00
  0.00000000E+00  0.00000000E+00  0.00000000E+00
  0.00000000E+00  0.00000000E+00  0.00000000E+00
  0.00000000E+00  0.00000000E+00  0.00000000E+00
  0.00000000E+00  0.00000000E+00  0.00000000E+00
  0.00000000E+00  0.00000000E+00  0.00000000E+00
  0.00000000E+00  0.00000000E+00  0.00000000E+00
  0.00000000E+00  0.00000000E+00  0.00000000E+00
  0.00000000E+00  0.00000000E+00  0.00000000E+00
  0.00000000E+00  0.00000000E+00  0.00000000E+00
  0.00000000E+00  0.00000000E+00  0.00000000E+00
  0.00000000E+00  0.00000000E+00  0.00000000E+00
  0.00000000E+00  0.00000000E+00  0.00000000E+00
  0.00000000E+00  0.00000000E+00  0.00000000E+00
  0.00000000E+00  0.00000000E+00  0.00000000E+00
  0.00000000E+00  0.00000000E+00  0.00000000E+00
  0.00000000E+00  0.00000000E+00  0.00000000E+00
  0.00000000E+00  0.00000000E+00  0.00000000E+00
  0.00000000E+00  0.00000000E+00  0.00000000E+00
  0.00000000E+00  0.00000000E+00  0.00000000E+00
  0.00000000E+00  0.00000000E+00  0.00000000E+00
  0.00000000E+00  0.00000000E+00  0.00000000E+00
  0.00000000E+00  0.00000000E+00  0.00000000E+00
  0.00000000E+00  0.00000000E+00  0.00000000E+00
  0.00000000E+00  0.00000000E+00  0.00000000E+00
  0.00000000E+00  0.00000000E+00  0.00000000E+00
  0.00000000E+00  0.00000000E+00  0.00000000E+00
  0.00000000E+00  0.00000000E+00  0.00000000E+00
  0.00000000E+00  0.00000000E+00  0.00000000E+00
  0.00000000E+00  0.00000000E+00  0.00000000E+00
  0.00000000E+00  0.00000000E+00  0.00000000E+00
  0.00000000E+00  0.00000000E+00  0.00000000E+00
  0.00000000E+00  0.00000000E+00  0.00000000E+00
  0.00000000E+00  0.00000000E+00  0.00000000E+00
  0.00000000E+00  0.00000000E+00  0.00000000E+00
  0.00000000E+00  0.00000000E+00  0.00000000E+00
  0.00000000E+00  0.00000000E+00  0.00000000E+00
  0.00000000E+00  0.00000000E+00  0.00000000E+00
  0.00000000E+00  0.00000000E+00  0.00000000E+00
  0.00000000E+00  0.00000000E+00  0.00000000E+00
  0.00000000E+00  0.00000000E+00  0.00000000E+00
  0.00000000E+00  0.00000000E+00  0.00000000E+00
  0.00000000E+00  0.00000000E+00  0.00000000E+00
  0.00000000E+00  0.00000000E+00  0.00000000E+00
  0.00000000E+00  0.00000000E+00  0.00000000E+00
  0.00000000E+00  0.00000000E+00  0.00000000E+00
  0.00000000E+00  0.00000000E+00  0.00000000E+00
  0.00000000E+00  0.00000000E+00  0.00000000E+00
  0.00000000E+00  0.00000000E+00  0.00000000E+00
  0.00000000E+00  0.00000000E+00  0.00000000E+00
  0.00000000E+00  0.00000000E+00  0.00000000E+00
  0.00000000E+00  0.00000000E+00  0.00000000E+00
  0.00000000E+00  0.00000000E+00  0.00000000E+00
  0.00000000E+00  0.00000000E+00  0.00000000E+00
  0.00000000E+00  0.00000000E+00  0.00000000E+00
  0.00000000E+00  0.00000000E+00  0.00000000E+00
  0.00000000E+00  0.00000000E+00  0.00000000E+00
  0.00000000E+00  0.00000000E+00  0.00000000E+00
  0.00000000E+00  0.00000000E+00  0.00000000E+00
  0.00000000E+00  0.00000000E+00  0.00000000E+00
  0.00000000E+00  0.00000000E+00  0.00000000E+00
  0.00000000E+00  0.00000000E+00  0.00000000E+00
  0.00000000E+00  0.00000000E+00  0.00000000E+00
  0.00000000E+00  0.00000000E+00  0.00000000E+00
  0.00000000E+00  0.00000000E+00  0.00000000E+00
  0.00000000E+00  0.00000000E+00  0.00000000E+00
  0.00000000E+00  0.00000000E+00  0.00000000E+00
  0.00000000E+00  0.00000000E+00  0.00000000E+00
  0.00000000E+00  0.00000000E+00  0.00000000E+00
  0.00000000E+00  0.00000000E+00  0.00000000E+00
  0.00000000E+00  0.00000000E+00  0.00000000E+00
  0.00000000E+00  0.00000000E+00  0.00000000E+00
  0.00000000E+00  0.00000000E+00  0.00000000E+00
  0.00000000E+00  0.00000000E+00  0.00000000E+00
  0.00000000E+00  0.00000000E+00  0.00000000E+00
  0.00000000E+00  0.00000000E+00  0.00000000E+00
  0.00000000E+00  0.00000000E+00  0.00000000E+00
  0.00000000E+00  0.00000000E+00  0.00000000E+00
  0.00000000E+00  0.00000000E+00  0.00000000E+00
  0.00000000E+00  0.00000000E+00  0.00000000E+00
  0.00000000E+00  0.00000000E+00  0.00000000E+00
  0.00000000E+00  0.00000000E+00  0.00000000E+00
  0.00000000E+00  0.00000000E+00  0.00000000E+00
  0.00000000E+00  0.00000000E+00  0.00000000E+00
  0.00000000E+00  0.00000000E+00  0.00000000E+00
  0.00000000E+00  0.00000000E+00  0.00000000E+00
  0.00000000E+00  0.00000000E+00  0.00000000E+00
  0.00000000E+00  0.00000000E+00  0.00000000E+00
  0.00000000E+00  0.00000000E+00  0.00000000E+00
  0.00000000E+00  0.00000000E+00  0.00000000E+00
  0.00000000E+00  0.00000000E+00  0.00000000E+00
  0.00000000E+00  0.00000000E+00  0.00000000E+00
  0.00000000E+00  0.00000000E+00  0.00000000E+00
  0.00000000E+00  0.00000000E+00  0.00000000E+00
  0.00000000E+00  0.00000000E+00  0.00000000E+00
  0.00000000E+00  0.00000000E+00  0.00000000E+00
  0.00000000E+00  0.00000000E+00  0.00000000E+00
  0.00000000E+00  0.00000000E+00  0.00000000E+00
  0.00000000E+00  0.00000000E+00  0.00000000E+00
  0.00000000E+00  0.00000000E+00  0.00000000E+00
  0.00000000E+00  0.00000000E+00  0.00000000E+00
  0.00000000E+00  0.00000000E+00  0.00000000E+00
  0.00000000E+00  0.00000000E+00  0.00000000E+00
  0.00000000E+00  0.00000000E+00  0.00000000E+00
  0.00000000E+00  0.00000000E+00  0.00000000E+00
