Ta  N  W Cu                             
   1.00000000000000     
    18.1096308199999996    0.0000000000000000    0.0000000000000000
     0.0000000000000000   23.3551997799999995    0.0000000000000000
     0.0000000000000000    0.0000000000000000   30.4818171199999988
   Ta   N    W    Cu
   228   240    12     4
Direct
  0.0003548926985388  0.0000044445212311  0.1976269514446400
  0.3343217105940113  0.0625609668439608  0.2028784739551242
  0.1660023294788218  0.0626143834663750  0.2029385147889045
  0.2503659280281596  0.1250678278757604  0.2781497849124435
  0.0831103294726248  0.0625764566141314  0.2842542641554786
  0.4174726056021711  0.0625723751812686  0.2841287105213937
  0.0004320056457843  0.1250564292285574  0.3700026966756269
  0.3329596709126363  0.0626012865525993  0.3686304612661218
  0.1677847889732860  0.0625805360899676  0.3685755787158129
  0.2508433074446401  0.1254631223484068  0.4553031188532159
  0.0843858703204461  0.0625379179238834  0.4547803792090477
  0.4166698773538897  0.0626093109434720  0.4545738700776454
  0.0004402535459747  0.1252562201904155  0.5410799812440601
  0.3358221300212705  0.0627023612513185  0.5421343267103538
  0.0003979826996101  0.1250197010784930  0.1976083265463657
  0.3343230034537399  0.1875481014136540  0.2028622624957492
  0.1661120534571552  0.1875594729170942  0.2029185592826224
  0.2504305250133712  0.2500657950253995  0.2780757348403213
  0.0831098012082379  0.1875737279098502  0.2841718730144152
  0.4176173158857850  0.1875737750179454  0.2840917520642066
  0.0004172711878141  0.2501202984656388  0.3699334895198092
  0.3329503567924377  0.1875457603172563  0.3685913343840994
  0.1678687301222510  0.1875601065346615  0.3685409613085966
  0.2508768318424970  0.2497288392643000  0.4551587747168568
  0.0840195788478013  0.1875390165872659  0.4547521570439770
  0.4168998115225904  0.1874755675949800  0.4545943118575906
  0.0001425807296087  0.2499237618915799  0.5409525739631675
  0.3357734382451980  0.1864570244818822  0.5423018589207302
  0.1656499246464307  0.1875126508862408  0.5418675150077590
  0.0004363523328053  0.2500622166628190  0.1975357985936057
  0.3344025519443434  0.3125787426341233  0.2027970466304936
  0.1660660311744877  0.3126042864392176  0.2028406281632300
  0.2503841995296838  0.3750980110877009  0.2780067068925050
  0.0831069276283856  0.3125860788749648  0.2841066113086512
  0.4176134434518701  0.3125791246774625  0.2840572563907529
  0.0004170930465293  0.3751104374480150  0.3699310381447702
  0.3330352626471651  0.3125875633225448  0.3685020299832971
  0.1678214066214565  0.3125816428719688  0.3683260437008258
  0.2502456086214693  0.3754311800301764  0.4547289284156264
  0.0842443556601893  0.3125570388506702  0.4545411816577811
  0.4168283885494191  0.3125032646262653  0.4542946409277562
  0.0002148018754085  0.3751869974554438  0.5407475458156341
  0.3316040114279630  0.3122503538345569  0.5402392711195958
  0.0004529360418672  0.3751171425366095  0.1975067326351478
  0.3343732751514779  0.4375451680721198  0.2028278994835162
  0.1660830043527852  0.4375985134877070  0.2028617531427344
  0.2503259431722427  0.0000687525236813  0.2781789631656935
  0.0830883004436771  0.4376354795124655  0.2841076639727618
  0.4176480065090544  0.4375917923303660  0.2840889696652056
  0.0004357479578232  0.0000871147152282  0.3700141918993722
  0.3330200302711006  0.4376617076657894  0.3685212221860894
  0.1678804144927000  0.4376784453808895  0.3684052614849449
  0.2509783720560890  0.9997452362723109  0.4552730409611812
  0.0839277123591771  0.4376653138089210  0.4546170520195574
  0.4169690200433180  0.4376801775990629  0.4542826745358965
  0.0003944655271724  0.0000569932781715  0.5412746732783518
  0.3319929807037241  0.4378034442832970  0.5400295276291516
  0.1645469490485638  0.4377500623815465  0.5417836972338606
  0.0004188903187767  0.5001498298663094  0.1975730675616347
  0.3343271181589387  0.5625882702609744  0.2029094894569710
  0.1660819948525543  0.5626531298942581  0.2029666558786758
  0.2503513633742926  0.6251633187056811  0.2781860007861923
  0.0831334052064747  0.5626656901625893  0.2842197249117859
  0.4175501128372474  0.5626098052654527  0.2841308051348790
  0.0004465135425846  0.6251704970763186  0.3700231601188264
  0.3329794283605807  0.5626795553942330  0.3686438303004564
  0.1678097939934204  0.5626900720172117  0.3685186068617696
  0.2508651540044653  0.6254093554602420  0.4553721617919706
  0.0843465508515848  0.5626853072626048  0.4547196461316929
  0.4167746144608699  0.5627217568619898  0.4547144489539718
  0.0004637013671740  0.6252025759618292  0.5411456804603105
  0.3353698924574005  0.5635855938378782  0.5426461442431858
  0.0003769668546099  0.6252113620551398  0.1976295520574070
  0.3343096384729520  0.6875818637630999  0.2029274307664224
  0.1660157840926075  0.6876358138941399  0.2029514426525054
  0.2503268933709251  0.7501376257677137  0.2782043462271275
  0.0830697003738692  0.6876718311843248  0.2842607758318607
  0.4175144729031643  0.6876212028098436  0.2842007359720782
  0.0004389858335330  0.7501587100780114  0.3700357801730334
  0.3329424118976831  0.6876217693761575  0.3686907653274432
  0.1678545850615336  0.6876554555782093  0.3686717558529153
  0.2509872865041061  0.7497744635316863  0.4553210531091452
  0.0840619457548399  0.6876684443084855  0.4548636460578166
  0.4167966289374831  0.6875894193785967  0.4546309740630576
  0.0004288674752289  0.7499985480146023  0.5412748472378652
  0.3363655504270966  0.6875637316077245  0.5419883659827960
  0.1660793492419401  0.6877736156428895  0.5420821879022029
  0.0003491931827142  0.7501302514560706  0.1976390706221309
  0.3342825065958976  0.8126119643576146  0.2028844079552172
  0.1659571276734013  0.8126614396091156  0.2029357777906071
  0.2502184929169928  0.8751251891865408  0.2781704924049748
  0.0830810079789543  0.8126422328917968  0.2842933503238854
  0.4174130321983895  0.8126104288010296  0.2841620379050056
  0.0004168833738731  0.8751100539927421  0.3700498167263220
  0.3328728877324778  0.8126177191709658  0.3686344290964456
  0.1677258502448211  0.8126405564727008  0.3686248840130020
  0.2507172055505293  0.8754387806625274  0.4552964287883086
  0.0843720604904377  0.8126213272291736  0.4548826346675625
  0.4165440485330407  0.8126545922611541  0.4545163722435461
  0.0004153354966121  0.8752201758455769  0.5412938080800771
  0.3357449441520544  0.8130467066588878  0.5421477880998182
  0.0003277906809345  0.8751089209811482  0.1976195700666494
  0.3342860374318022  0.9375440012847633  0.2028699235761451
  0.1659652252296411  0.9375533073003055  0.2029101137284783
  0.2504293679021004  0.5001178892413591  0.2781056117166045
  0.0830410709454839  0.9376061917131366  0.2842647421619091
  0.4174588684535792  0.9375855944040126  0.2841587841335382
  0.0004288496485430  0.5001414060514264  0.3699585704844068
  0.3328416971924497  0.9375860069070541  0.3686299006035654
  0.1677891286500071  0.9375881584685004  0.3686792286788716
  0.2509477278400922  0.4998614563316934  0.4552369003440617
  0.0840252559304560  0.9375796819141016  0.4549203700826610
  0.4166675333222898  0.9375456186267215  0.4544650039034153
  0.0001364881172208  0.5001232532225615  0.5409397326843433
  0.3362799977908679  0.9371600942201326  0.5419136577572701
  0.1661609885426429  0.9375827741325935  0.5421306660024214
  0.5001157557561768  0.0000232547906478  0.1975810760647789
  0.8344261788742457  0.0625513025734961  0.2028626898446291
  0.6660731477687420  0.0625653796490084  0.2027418572144981
  0.7504753463455529  0.1250628049725648  0.2779775637694542
  0.5831751304621875  0.0625568947057218  0.2840265371772048
  0.9176538412815773  0.0625712399393521  0.2841382618878896
  0.5003814731507887  0.1250701088988606  0.3697970157498816
  0.8330807647155680  0.0625916561229047  0.3684344812837850
  0.6678911211007375  0.0625799920985699  0.3684156165097647
  0.7502209508617312  0.1253793949867514  0.4550361285241777
  0.5842545539905686  0.0625504641163488  0.4544051703498297
  0.9164948058940254  0.0625544579182815  0.4546998672585474
  0.5003386318420127  0.1252046798499364  0.5412629594181979
  0.6652211483827983  0.0627289903045067  0.5419147687332782
  0.5001864973409837  0.1250439530019989  0.1975635619127019
  0.8344140257687371  0.1875310937814447  0.2028640143006655
  0.6661773368505735  0.1875746106452780  0.2027411068344236
  0.7504773133802942  0.2500864435511332  0.2779208407415581
  0.5831864213370892  0.1875727923218733  0.2840002375258521
  0.9177610826896867  0.1875775848451156  0.2840746122885420
  0.5004632428831499  0.2499972652392941  0.3697443265606282
  0.8330297966472884  0.1875780224024055  0.3684044183838679
  0.6679650945760116  0.1875429506465878  0.3683483533297931
  0.7501920382403497  0.2497800081080186  0.4549726393900002
  0.5843364554646726  0.1874687137077018  0.4542798408922692
  0.9169039083094148  0.1875641464707627  0.4547329779428679
  0.8350502199639038  0.1874555153779411  0.5418493790754724
  0.6647674416514207  0.1868338151771738  0.5414056793868127
  0.5002631161324871  0.2500712013862909  0.1975503995792351
  0.8344505386189951  0.3125794964084889  0.2027801873295516
  0.6661584434470313  0.3126365445150512  0.2026843397740947
  0.7505129308205838  0.3751052291614911  0.2778726393369624
  0.5832650542841478  0.3125917906673834  0.2840228086175998
  0.9177618886720964  0.3125864376495286  0.2840099737852952
  0.5005372067775724  0.3751291161929942  0.3697784656374452
  0.8330160316983140  0.3126295780237598  0.3682760851394420
  0.6679497044469827  0.3125967393102158  0.3684479104562186
  0.7499708423019982  0.3754368417214451  0.4551808729138997
  0.5844386055219957  0.3125216705675129  0.4543551706349120
  0.9166024661692376  0.3125960494866789  0.4544639723578925
  0.5016387204952792  0.3747475570656107  0.5394699089227188
  0.6676929452545721  0.3119634898207480  0.5415393254233152
  0.5002692163956297  0.3751162685093092  0.1975424452544985
  0.8344418098185500  0.4375502454882820  0.2028022200969630
  0.6661691297339729  0.4375680047822073  0.2027092785564903
  0.7503904260882592  0.0000519635732914  0.2780077496026223
  0.5832045255049891  0.4375912883532465  0.2840460189513436
  0.9177899126075459  0.4376145691103019  0.2840103824394475
  0.5003474210647809  0.0000159239447939  0.3697550886452134
  0.8329583565812584  0.4376443380760762  0.3683518285330436
  0.6679464293246369  0.4376512625296058  0.3684510572473130
  0.7499079848149037  0.9997106054980662  0.4550722430492797
  0.5843594009530122  0.4376963095469719  0.4543377614878210
  0.9169308678850356  0.4376653682049607  0.4545520041344844
  0.8355679174729289  0.4376088478301767  0.5417475335422637
  0.6672183731186507  0.4383355418388817  0.5413371762529451
  0.5002356837413657  0.5000913244423231  0.1975856994703662
  0.8344138512393044  0.5625786815167686  0.2028937390643577
  0.6661317019622928  0.5626059521304327  0.2027620804786707
  0.7504309449747879  0.6251395696920596  0.2780108610628815
  0.5832207329169634  0.5626037747518993  0.2840278925974857
  0.9177095310490486  0.5626269936176413  0.2841261325806670
  0.5003720629799773  0.6251700147983641  0.3698571459770719
  0.8330988464426810  0.5626857724864180  0.3683605438566389
  0.6679124078920253  0.5626792001586693  0.3683945395255961
  0.7502064642261601  0.6255417093757671  0.4550551290466558
  0.5844249047614625  0.5627362239028955  0.4543611699803805
  0.9165456074750722  0.5627056636555068  0.4546737034408892
  0.5003282274414573  0.6247428018983356  0.5413712871323639
  0.6652297019307767  0.5634177406105394  0.5416615592122085
  0.5001505896553553  0.6251521938299689  0.1976247372334967
  0.8344278834467573  0.6875534051977610  0.2028720294932427
  0.6660698776818066  0.6875804711697029  0.2027780143260358
  0.7503667533182110  0.7501081491271364  0.2780291972146998
  0.5831151644177552  0.6876154857405297  0.2840877652171088
  0.9176760955740662  0.6876284957698999  0.2841439624252473
  0.5003543786284581  0.7501443476845608  0.3697906676218849
  0.8330194086066527  0.6876682788307704  0.3685338893967298
  0.6679016479637880  0.6876500810201875  0.3684802515893821
  0.7499078208068752  0.7498292030228697  0.4550885185254003
  0.5841271063898361  0.6876381767670807  0.4544439578975528
  0.9168603485902835  0.6877087299506499  0.4547791771454044
  0.8347099521920711  0.6877551951027741  0.5419309923819782
  0.6647595323737860  0.6875501043608310  0.5417365934758394
  0.5000856275758849  0.7500956083873191  0.1976234193276696
  0.8343924409137671  0.8125730533215147  0.2028660257386363
  0.6660219577366888  0.8125808505741858  0.2027400990494712
  0.7504128991378991  0.8750937336754205  0.2780012644326106
  0.5831365217261464  0.8125950055576610  0.2840613129186593
  0.9175874804529229  0.8126065168535561  0.2841719800826041
  0.5003485737917757  0.8751151476043759  0.3698089568503136
  0.8330748314138816  0.8126540848373551  0.3684792490175042
  0.6678891260183093  0.8126341429469761  0.3684578882986145
  0.7501329365591047  0.8754705769593087  0.4551154099674548
  0.5843001745769456  0.8126628423833182  0.4544051800486955
  0.9164797978542936  0.8126595204889924  0.4547831229270756
  0.5004410550011400  0.8749724844969933  0.5411983673353262
  0.6651420062401598  0.8130590929622699  0.5419593928358211
  0.5000864924700608  0.8750856809560332  0.1975840417728207
  0.8343892110177435  0.9375154489882007  0.2028484278283713
  0.6660301822323760  0.9375310622703523  0.2027439617343774
  0.7504508772738347  0.5001021081162378  0.2779466371554093
  0.5830937411356487  0.9375564247111186  0.2840715887870644
  0.9176449138881324  0.9375799069021653  0.2841460108746361
  0.5004410103593884  0.5001821624788505  0.3697784216703610
  0.8330185024569658  0.9376053299940992  0.3685458721352219
  0.6679220318033288  0.9375903569696717  0.3684534447125785
  0.7501526427651868  0.4998073736162212  0.4549943370335683
  0.5841924910684426  0.9375341900234844  0.4543550477964331
  0.9168127215592463  0.9376090579827121  0.4548356750480096
  0.8346557767308340  0.9375879259410880  0.5420132004111906
  0.6646346913268530  0.9372123002482908  0.5417472773941867
  0.4057686902135842  0.0000563340789839  0.2324355697179072
  0.2501164747500582  0.0000755791584268  0.1997285517922833
  0.0946043054193240  0.0000775877671657  0.2325574559261412
  0.1553841979819097  0.1250853785473396  0.3159786216420741
  0.0003919383523296  0.1250774103700465  0.3033170155563454
  0.3454628821769816  0.1251128235019223  0.3159865550910084
  0.4014040617400880  0.1251412201780440  0.4024804704035745
  0.2503017898538573  0.1250630610021304  0.3874930460340309
  0.0994596711535038  0.1250689719734694  0.4025468092077205
  0.1528632074748657  0.1249362485338494  0.4877988337857602
  0.0004584497975983  0.1248742155564244  0.4731656183061830
  0.3490217892450005  0.1252124328941093  0.4882506173725787
  0.4029669143370427  0.1257083348975740  0.5709065543576628
  0.2499633626750537  0.1245509413656762  0.5576732860709512
  0.0991974008542158  0.1229084944706855  0.5696489621879763
  0.4058303056948347  0.1250688795279018  0.2323840737062213
  0.2501905318619961  0.1250529526902255  0.1994862477107731
  0.0946268632015190  0.1250667950575348  0.2325266990188979
  0.1553880545032271  0.2500343768306763  0.3158646137919163
  0.0004189270288038  0.2501022861857578  0.3032626348000989
  0.3454913619790076  0.2500372960658765  0.3159183186821934
  0.4014600320262645  0.2499577154053512  0.4022839511304639
  0.2504236481271320  0.2500738019922153  0.3873845238119245
  0.0995353755279638  0.2500518352391126  0.4023995899785291
  0.1527776647348489  0.2501443511975339  0.4877088019769786
  0.0004118111976652  0.2502675617009587  0.4730495814121767
  0.3490483513158509  0.2497467169088523  0.4883305228928165
  0.4068410135071261  0.2523788640398408  0.5719601202130775
  0.2492799527117597  0.2513642503776481  0.5583056101997315
  0.0987003294642790  0.2520323425906597  0.5697250786488013
  0.4058744752637438  0.2500741451940982  0.2323580504433949
  0.2501962553507582  0.2500915297830062  0.1995833655755703
  0.0946543029688414  0.2500856558658597  0.2324659474754256
  0.1554030693678072  0.3751418578822836  0.3158344639349835
  0.0004176935222517  0.3750966215937765  0.3032525025676307
  0.3454667886759495  0.3751214086998402  0.3158486682485844
  0.4013316128384687  0.3751502520435395  0.4021239495633679
  0.2502474867340823  0.3751152758519183  0.3871692397483883
  0.0995571978086147  0.3751362205554685  0.4023100596161058
  0.1522680148379010  0.3750061591742480  0.4875683647123523
  0.0003616992713944  0.3749414256978838  0.4728391046666687
  0.3484226632498704  0.3751512573851059  0.4872561079379238
  0.4003521098841389  0.3749606524290741  0.5682866422109996
  0.2482603616598524  0.3739517013278615  0.5573318681406079
  0.0985049168336047  0.3729682659918439  0.5696482469924504
  0.4059051522659942  0.3750860304146144  0.2323680525209113
  0.2502022636341152  0.3750782075452648  0.1995241520064255
  0.0946462367807399  0.3751096170494819  0.2324639594901825
  0.1553008521833590  0.0000736905740624  0.3160164477150005
  0.0003410794478782  0.0001047715720617  0.3033423215026829
  0.3453598412860401  0.0000931217109397  0.3159982152777943
  0.4013516578756438  0.0000527528807766  0.4023355126895396
  0.2503597046592887  0.0001349010822977  0.3874763448647585
  0.0994727510892801  0.0000727963343721  0.4026287632761409
  0.1530926396790306  0.0001752020677159  0.4879399165404124
  0.0004205727205928  0.0002945553139995  0.4734038781770167
  0.3489525917937897  0.0000887265019571  0.4880864858649900
  0.4076832281096685  0.0000128797815009  0.5699099821130105
  0.2503919291364980  0.0014208642559908  0.5583014205543151
  0.0992721684938971  0.0021568481599346  0.5697609728384947
  0.4058528696252850  0.5000779122665762  0.2323955053048294
  0.2501885698378743  0.5001019004597111  0.1996120001161046
  0.0946431323257571  0.5001399751546387  0.2324897199790286
  0.1553719799741842  0.6252023225175662  0.3160100616379111
  0.0003831885605905  0.6251312452462585  0.3033361824009759
  0.3454411016332273  0.6251217364471913  0.3160321513857127
  0.4013886481233229  0.6251458902836404  0.4025454305800196
  0.2503060635891501  0.6251103489391880  0.3875496143943451
  0.0994829119736380  0.6251723530309050  0.4025794557951414
  0.1528531928212118  0.6250493857988033  0.4878529796849804
  0.0004590906052684  0.6250017721351497  0.4732139580515096
  0.3490167089722647  0.6250375427054351  0.4883560457828509
  0.4028919916311295  0.6246834040243527  0.5710037101623797
  0.2497884356958906  0.6231534670583656  0.5577079243056602
  0.0992067523662641  0.6231697060114030  0.5697258432923960
  0.4058039822444357  0.6251225373628060  0.2324552645299960
  0.2501788901092112  0.6251249392645590  0.1995413463975240
  0.0946213442782096  0.6251750766725337  0.2325509924134366
  0.1553009125389906  0.7501085696857288  0.3160372213851588
  0.0003289644581201  0.7501438080426013  0.3033594188124553
  0.3453617277417820  0.7500968471734737  0.3160351266264314
  0.4013604193442006  0.7500561215028441  0.4023823103113600
  0.2503669216864068  0.7501320208345348  0.3875200074539435
  0.0994879124373327  0.7501349924734626  0.4026472460807540
  0.1530805183997757  0.7502181118931901  0.4879733651150389
  0.0004260865791039  0.7503198910151099  0.4734118864706645
  0.3489638308366594  0.7500646378950933  0.4881432806160859
  0.4077294435240759  0.7497764740632107  0.5699713164958453
  0.2504376907322836  0.7509473405175129  0.5583508385916574
  0.0992608647468600  0.7520766200102571  0.5698144870725557
  0.4057399289061578  0.7500991709562186  0.2324854365002196
  0.2501343967979537  0.7501276108027923  0.1997121089046630
  0.0946008898698167  0.7501551319567241  0.2325764792185296
  0.1552645492892140  0.8751485552403366  0.3160495978367592
  0.0003155093309317  0.8750970192463754  0.3033524725600572
  0.3453366083593536  0.8751182399339257  0.3159959138401476
  0.4012985207757112  0.8751384456077531  0.4024317158473991
  0.2502220176968066  0.8750767262016339  0.3875045029347746
  0.0994286886637283  0.8751120752597288  0.4026617153849372
  0.1528300066283066  0.8749926804918644  0.4879377235777227
  0.0004103884931084  0.8749448284816239  0.4733754365967471
  0.3488948453233078  0.8751475907430546  0.4881409404045627
  0.4031444472210453  0.8752287119281377  0.5705825206027342
  0.2496806930865390  0.8738127771971875  0.5578550103832995
  0.0992188545664305  0.8730667666442642  0.5697718908403431
  0.4057464135752582  0.8751000474626025  0.2324440072343990
  0.2501276433171356  0.8750937933835488  0.1994979889850299
  0.0945454070281855  0.8751129884256770  0.2325759830940086
  0.1553935452798285  0.5001494922017997  0.3158926910586217
  0.0004169170121671  0.5001309976263926  0.3032875804477442
  0.3454743055739087  0.5001469338662332  0.3159554490437060
  0.4014616054844993  0.5001874162326487  0.4023375383664529
  0.2504454981650426  0.5002075056108453  0.3874572688006452
  0.0995452105825123  0.5001611114439939  0.4024236523259859
  0.1528066021179697  0.5002706989084018  0.4877242370299513
  0.0004018987115586  0.5003541488710042  0.4730583841081071
  0.3491844087847795  0.5003206622101288  0.4884255579975019
  0.4071178594188325  0.4972125107852605  0.5721607619340432
  0.2495022354394152  0.5009386095555826  0.5582659273834594
  0.0986424605401126  0.5022718141093776  0.5697604548603934
  0.9059571538933469  0.0000502328196959  0.2324163861702644
  0.7502198413889829  0.0000515840809214  0.1995496983303582
  0.5946021684410070  0.0000369118032495  0.2323183493720364
  0.6553678665251752  0.1250781493437572  0.3157740891264211
  0.5003850572754516  0.1250673505085231  0.3031089012140740
  0.8454785089678154  0.1250990575463788  0.3158352672115541
  0.9013511762068234  0.1251060735677640  0.4024750851993986
  0.7505673256798957  0.1250579520960926  0.3872550570672786
  0.5995103074298740  0.1250828301771776  0.4022454699904827
  0.6520855934127496  0.1249647095589381  0.4878386211520009
  0.5005690348212042  0.1251345953415068  0.4733157671979242
  0.8480779089547781  0.1249394751012574  0.4876891767223910
  0.9017033500805240  0.1230153882530303  0.5695698696028231
  0.7512332052743176  0.1239934979362260  0.5575729114161021
  0.5977994355686320  0.1254766110611101  0.5703356134532811
  0.9060313730225715  0.1250507165514207  0.2323856685841577
  0.7502414018354813  0.1250354162624916  0.1993492948804700
  0.5946535814006779  0.1250702546449887  0.2322719968364950
  0.6554325939559860  0.2500745825849791  0.3157663104164286
  0.5004358803663180  0.2501045801315485  0.3030816250175405
  0.8454993678996772  0.2500841831871128  0.3157589452869374
  0.9013078399687018  0.2500657073368444  0.4023690655718895
  0.7505297587241060  0.2500911821625778  0.3872049478802637
  0.5995936323620370  0.2500034793917294  0.4021454166140757
  0.6523053455292143  0.2499444818963994  0.4877397013144176
  0.5006572621926537  0.2499624811680121  0.4730154655708390
  0.8480938219544925  0.2502428875719716  0.4876681032861754
  0.9016903464843438  0.2520875031841072  0.5696944604818057
  0.7510917572535831  0.2513323130276248  0.5579985795188236
  0.5946594909841281  0.2505899254635935  0.5694949053041469
  0.9060799527089074  0.2500741740742072  0.2323338719106687
  0.7502983193513515  0.2500919802064203  0.1994385787743198
  0.5947358365903526  0.2501025177745362  0.2322864603634329
  0.6554915845780300  0.3751238334439009  0.3157823016051182
  0.5004645515858641  0.3750770726250252  0.3031424297897303
  0.8454453100230666  0.3751438826369053  0.3157725184052751
  0.9013291910661820  0.3751515369005247  0.4022763009534742
  0.7505715633523238  0.3751178689159005  0.3873942120734739
  0.5998182885603072  0.3751516459814681  0.4022231644398744
  0.6516836685607217  0.3752033048241827  0.4884731589230853
  0.5006651481539208  0.3750534971406267  0.4719438566730432
  0.8482755849504926  0.3750150113436703  0.4875192964772452
  0.9020588019829177  0.3730499119087796  0.5696084855346086
  0.7524578097963825  0.3738070908939193  0.5577460340627880
  0.6011217782685563  0.3751161506616398  0.5719089443130514
  0.9060991367635083  0.3750894652105927  0.2323203746029563
  0.7503223797731025  0.3750810224795771  0.1992439086988682
  0.5947221981199746  0.3751020292754816  0.2322980849160459
  0.6553439442543691  0.0000653778511932  0.3158180254963696
  0.5003188307827457  0.0000790268813446  0.3031010510143659
  0.8454426119623051  0.0000685531640201  0.3158710177535653
  0.9013407872779879  0.0000767442699114  0.4025373098265419
  0.7504461829449056  0.0001365159033426  0.3872754065920603
  0.5994633703281806  0.0000388750895510  0.4021826550255483
  0.6519762208245936  0.0000391884593043  0.4879181766924958
  0.5004624505925790  0.0000762732253250  0.4727717501504642
  0.8477561070436792  0.0002089401165506  0.4878112891516508
  0.9015407925602972  0.0021264416765590  0.5696958071203539
  0.7504520233354839  0.0012833488141410  0.5581816688517804
  0.5930382691380345  0.0000379888824042  0.5697121025222813
  0.9060643619337583  0.5001106172019405  0.2323661558747858
  0.7502879131778428  0.5000891120101940  0.1994495520247099
  0.5947162371037606  0.5000736334480393  0.2323134575355397
  0.6553511284783653  0.6251401270384918  0.3158284830251930
  0.5003745991066708  0.6250898574554427  0.3031689577535275
  0.8454456218309616  0.6251864432508611  0.3158619993043743
  0.9013785847408116  0.6251765341348161  0.4024882175770657
  0.7505679457162060  0.6251263738679995  0.3872798973379332
  0.5995098514900477  0.6252146553848590  0.4023050549713432
  0.6520989344463857  0.6253143462369550  0.4878951698381258
  0.5005607042470928  0.6249053892703458  0.4734046063277901
  0.8480762421752175  0.6250924661058548  0.4877036946327138
  0.9016563427467190  0.6231209653889636  0.5695663962041806
  0.7512832700543370  0.6236327592405075  0.5575879219466060
  0.5978568893909753  0.6249957227030478  0.5703926859017940
  0.9060126846619951  0.6251171416910353  0.2324196735777946
  0.7502418006558926  0.6250929304862538  0.1993821345516125
  0.5946308909223248  0.6251145295673908  0.2323196226932396
  0.6553301061749508  0.7500983708726423  0.3158509358552095
  0.5003193259210406  0.7501271905561708  0.3031414718633201
  0.8454183069564110  0.7500940154385844  0.3158886922444282
  0.9013508057488693  0.7501701869590036  0.4025450802542778
  0.7504371399605532  0.7501647748002398  0.3873000643871762
  0.5994628985044201  0.7500806573379677  0.4022283770734845
  0.6519771083437007  0.7501277070514760  0.4879586623563057
  0.5004609104676305  0.7501836990826618  0.4728470302721348
  0.8477640084770925  0.7502598185961702  0.4878007686234866
  0.9015496756901697  0.7521263806088143  0.5696872738076308
  0.7504519296249370  0.7511092196030589  0.5581880272062847
  0.5930872961470541  0.7497553515594362  0.5697829106091987
  0.9059582133155004  0.7501049658869761  0.2324341422332239
  0.7502230467252602  0.7500761499561932  0.1995581668785107
  0.5945877353256890  0.7500782109655901  0.2323453855985633
  0.6553050735996990  0.8751073591894354  0.3158259617781241
  0.5002975479442355  0.8750822861392322  0.3031435372203575
  0.8454065064432399  0.8751459046600374  0.3159007297298331
  0.9013839474017118  0.8751378199857740  0.4025550250579570
  0.7505532617164477  0.8750957601364959  0.3873198152196053
  0.5995045368514198  0.8751427329299872  0.4023027413415363
  0.6519884381059029  0.8751605252188881  0.4879747911193206
  0.5004371562865089  0.8750266108119291  0.4733201343588789
  0.8479984698621550  0.8750143253458660  0.4878054358289532
  0.9015934852507925  0.8730605189864136  0.5696540401157080
  0.7511390959261064  0.8738136245056722  0.5576863892688877
  0.5977997822060672  0.8752324106871328  0.5704542162047588
  0.9059458185916682  0.8750760940611784  0.2324331133925810
  0.7501860261125444  0.8750513441345333  0.1993598810896771
  0.5945590963149527  0.8750758317462797  0.2323152949682381
  0.6554208650830375  0.5001085596751267  0.3158007014422637
  0.5004214368233164  0.5000942887290236  0.3031144998738142
  0.8454779125307681  0.5000979681756235  0.3157804012547274
  0.9013194127779940  0.5001696892614689  0.4023891325079916
  0.7505146536465688  0.5002012234665116  0.3872388313731250
  0.5995713469688582  0.5001388774238151  0.4021813632444164
  0.6522479679551054  0.5002338421461445  0.4877758957621623
  0.5006643291974484  0.5002625255776749  0.4730934382203955
  0.8480498318903358  0.5002429735680778  0.4876595971969309
  0.9016604990332127  0.5022875941128220  0.5696840441788709
  0.7508739625293614  0.5009370820473578  0.5578965438013128
  0.5945492758299125  0.4992043435635907  0.5695468415621505
  0.1650337145989695  0.0624479898670955  0.5405235788573890
  0.1635886193059193  0.3124640434704986  0.5402227957333494
  0.1645795291250565  0.5626453011048866  0.5403949583311558
  0.1651050086960879  0.8126037261626422  0.5406392440096681
  0.8356859995609369  0.0625318714201697  0.5404113171821479
  0.5014066564004409  0.2523660281013775  0.5402111439966077
  0.8364979084650912  0.3126301063650985  0.5402099194243632
  0.5003276163572536  0.0004576780509211  0.5400147942541693
  0.8360166009644772  0.5627666831722280  0.5403186954746175
  0.5003009297837551  0.7495433981447377  0.5401003521906560
  0.8356645886023983  0.8126198221623966  0.5404776048791433
  0.5013488826705981  0.4976632067578848  0.5402920660332100
  0.5497484770296595  0.3735651180580390  0.6259938175952655
  0.4380238465642705  0.4341566984722931  0.6134940626674066
  0.4373368846277401  0.3144694167816482  0.6136202458658175
  0.4554784236806668  0.3736233136249325  0.6786577623322074
 
  0.00000000E+00  0.00000000E+00  0.00000000E+00
  0.00000000E+00  0.00000000E+00  0.00000000E+00
  0.00000000E+00  0.00000000E+00  0.00000000E+00