Mo  S Ru                                
   1.00000000000000     
    15.9215000000000000    0.0000000000000000    0.0000000000000000
    -7.9622500000000000   13.7910219999999999    0.0000000000000000
     0.0000000000000000    0.0000000000000000   13.5822000000000003
   Mo   S    Ru
    25    50     3
Direct
  0.1314544403244327  0.0652198705717808  0.6751560817631059
  0.1317074706034589  0.2658259750791530  0.6802500800478271
  0.1316570025367128  0.4662215036825046  0.6742606891626153
  0.1330023802225924  0.6666245489772322  0.6714803304031349
  0.1329522501642657  0.8661696626990505  0.6718758981673076
  0.3318212842360424  0.0642647325401953  0.6772008264421885
  0.3303027664286091  0.2635568607619945  0.6889007827404683
  0.3302547498540420  0.4674272770758634  0.6828475308102213
  0.3319175915779127  0.6671638853390576  0.6742383310142230
  0.3325936458700909  0.8661692118226938  0.6719159400353689
  0.5331420455302691  0.0652186522811249  0.6752058626795616
  0.5325752064987910  0.2635251212266780  0.6889241843807810
  0.5389389877260200  0.4783312617589175  0.6938507251911119
  0.5321744967859559  0.6681467099218636  0.6814586072890378
  0.5331636942107636  0.8678094907285328  0.6738763240671304
  0.7333173588373114  0.0665157268642176  0.6763110189016146
  0.7334859002218153  0.2658244163462768  0.6802643915279134
  0.7365777087001177  0.4674528355198504  0.6828089244208115
  0.7353726569735741  0.6681634617284189  0.6814048270935800
  0.7332398439102334  0.8671017789464059  0.6789821252750983
  0.9325694099261028  0.0665144969758060  0.6762878986812453
  0.9326642612689469  0.2659591142712969  0.6762511648162004
  0.9339446939682503  0.4662193457720960  0.6742467990750356
  0.9346295363627988  0.6671629088992361  0.6741833654374005
  0.9340242971355082  0.8678105497636182  0.6738184854659082
  0.0666704656402715  0.1350295553495400  0.5617777952561624
  0.0643826440390285  0.1305567516807571  0.7919963209742278
  0.0664682283709581  0.3311419660555117  0.5614564548083436
  0.0647796793294546  0.3342670462194945  0.7916057059258250
  0.0656485860606111  0.5318973961829556  0.5574241039835570
  0.0670603834307855  0.5347510012597283  0.7883554115151625
  0.0656341715141693  0.7328412202308527  0.5565357608818005
  0.0681645461495535  0.7338833538095955  0.7876323596668300
  0.0663841692465184  0.9341865348845744  0.5575842793768899
  0.0663904709934044  0.9315664770583609  0.7886958417798198
  0.2691671245657759  0.1377892884429528  0.5655303298382890
  0.2586729402767602  0.1232064528848085  0.7941126448058995
  0.2685870711420932  0.3321301241876142  0.5702891555621150
  0.2627175566792772  0.3323303985280717  0.8015405535173556
  0.2672941258714587  0.5311372268771990  0.5617102816330828
  0.2606681126281103  0.5355840821866877  0.7916668093730337
  0.2666198332643219  0.7328480025027488  0.5565727497464152
  0.2650757950218363  0.7338772074968318  0.7876681999441786
  0.2670943703323161  0.9347740205807327  0.5576513837301533
  0.2643848373343971  0.9294259550155530  0.7887906341898940
  0.4680094258511645  0.1377790638266276  0.5655525768558647
  0.4638823477032972  0.1231850668967240  0.7941421266782314
  0.4690188357646932  0.3386505890596609  0.5850122433635150
  0.4394590268976231  0.2794292775916460  0.8426460401649294
  0.4671078774541684  0.5323535589329609  0.5724971996699466
  0.4459832585331469  0.5508280082138626  0.8184697858416570
  0.4676998644795844  0.7321348282053819  0.5613510160892332
  0.4646357213899321  0.7382032556563587  0.7906284101869048
  0.4671841546840838  0.9341831860015830  0.5576378623447837
  0.4645481275347620  0.9315646465491625  0.7887536634889898
  0.6677195533640017  0.1350197392615513  0.5618121477170135
  0.6655717728776267  0.1305683378478690  0.7920358999238033
  0.6628892586742339  0.3321042603466537  0.5703048391241055
  0.6689833667536149  0.3323406342177861  0.8015532576551152
  0.6646896932807493  0.5323779953244738  0.5724029688378849
  0.7040960247724968  0.5507602683086148  0.8182112829378241
  0.6657226471881543  0.7321050622850080  0.5667092960665343
  0.6667542599649678  0.7341111570890533  0.7999428868789380
  0.6679741589773727  0.9332434325264884  0.5610565726067662
  0.6651469537140358  0.9337504345039633  0.7911511755844955
  0.8662081022250234  0.1330614348354047  0.5607170226426277
  0.8661836741333389  0.1329753894569805  0.7915868216409976
  0.8640321184284900  0.3311290631855783  0.5614592350374252
  0.8688743300080191  0.3342752309339616  0.7916072850610192
  0.8632407112323435  0.5311231358197688  0.5616659446272294
  0.8743169985831187  0.5356056060075147  0.7916287495049801
  0.8638237472952213  0.7321408091289214  0.5612866267913574
  0.8729611083049278  0.7382067002858719  0.7905688161434128
  0.8646225863864601  0.9332439461232553  0.5610273844842339
  0.8680072583691683  0.9337462268612171  0.7911195100173174
  0.4235543304030571  0.4071840923105512  0.8694630933664698
  0.5838908560535714  0.5684490078677413  0.8730318781069855
  0.5830691267378256  0.4072056434003173  0.8695820124416187
 
  0.00000000E+00  0.00000000E+00  0.00000000E+00
  0.00000000E+00  0.00000000E+00  0.00000000E+00
  0.00000000E+00  0.00000000E+00  0.00000000E+00
  0.00000000E+00  0.00000000E+00  0.00000000E+00
  0.00000000E+00  0.00000000E+00  0.00000000E+00
  0.00000000E+00  0.00000000E+00  0.00000000E+00
  0.00000000E+00  0.00000000E+00  0.00000000E+00
  0.00000000E+00  0.00000000E+00  0.00000000E+00
  0.00000000E+00  0.00000000E+00  0.00000000E+00
  0.00000000E+00  0.00000000E+00  0.00000000E+00
  0.00000000E+00  0.00000000E+00  0.00000000E+00
  0.00000000E+00  0.00000000E+00  0.00000000E+00
  0.00000000E+00  0.00000000E+00  0.00000000E+00
  0.00000000E+00  0.00000000E+00  0.00000000E+00
  0.00000000E+00  0.00000000E+00  0.00000000E+00
  0.00000000E+00  0.00000000E+00  0.00000000E+00
  0.00000000E+00  0.00000000E+00  0.00000000E+00
  0.00000000E+00  0.00000000E+00  0.00000000E+00
  0.00000000E+00  0.00000000E+00  0.00000000E+00
  0.00000000E+00  0.00000000E+00  0.00000000E+00
  0.00000000E+00  0.00000000E+00  0.00000000E+00
  0.00000000E+00  0.00000000E+00  0.00000000E+00
  0.00000000E+00  0.00000000E+00  0.00000000E+00
  0.00000000E+00  0.00000000E+00  0.00000000E+00
  0.00000000E+00  0.00000000E+00  0.00000000E+00
  0.00000000E+00  0.00000000E+00  0.00000000E+00
  0.00000000E+00  0.00000000E+00  0.00000000E+00
  0.00000000E+00  0.00000000E+00  0.00000000E+00
  0.00000000E+00  0.00000000E+00  0.00000000E+00
  0.00000000E+00  0.00000000E+00  0.00000000E+00
  0.00000000E+00  0.00000000E+00  0.00000000E+00
  0.00000000E+00  0.00000000E+00  0.00000000E+00
  0.00000000E+00  0.00000000E+00  0.00000000E+00
  0.00000000E+00  0.00000000E+00  0.00000000E+00
  0.00000000E+00  0.00000000E+00  0.00000000E+00
  0.00000000E+00  0.00000000E+00  0.00000000E+00
  0.00000000E+00  0.00000000E+00  0.00000000E+00
  0.00000000E+00  0.00000000E+00  0.00000000E+00
  0.00000000E+00  0.00000000E+00  0.00000000E+00
  0.00000000E+00  0.00000000E+00  0.00000000E+00
  0.00000000E+00  0.00000000E+00  0.00000000E+00
  0.00000000E+00  0.00000000E+00  0.00000000E+00
  0.00000000E+00  0.00000000E+00  0.00000000E+00
  0.00000000E+00  0.00000000E+00  0.00000000E+00
  0.00000000E+00  0.00000000E+00  0.00000000E+00
  0.00000000E+00  0.00000000E+00  0.00000000E+00
  0.00000000E+00  0.00000000E+00  0.00000000E+00
  0.00000000E+00  0.00000000E+00  0.00000000E+00
  0.00000000E+00  0.00000000E+00  0.00000000E+00
  0.00000000E+00  0.00000000E+00  0.00000000E+00
  0.00000000E+00  0.00000000E+00  0.00000000E+00
  0.00000000E+00  0.00000000E+00  0.00000000E+00
  0.00000000E+00  0.00000000E+00  0.00000000E+00
  0.00000000E+00  0.00000000E+00  0.00000000E+00
  0.00000000E+00  0.00000000E+00  0.00000000E+00
  0.00000000E+00  0.00000000E+00  0.00000000E+00
  0.00000000E+00  0.00000000E+00  0.00000000E+00
  0.00000000E+00  0.00000000E+00  0.00000000E+00
  0.00000000E+00  0.00000000E+00  0.00000000E+00
  0.00000000E+00  0.00000000E+00  0.00000000E+00
  0.00000000E+00  0.00000000E+00  0.00000000E+00
  0.00000000E+00  0.00000000E+00  0.00000000E+00
  0.00000000E+00  0.00000000E+00  0.00000000E+00
  0.00000000E+00  0.00000000E+00  0.00000000E+00
  0.00000000E+00  0.00000000E+00  0.00000000E+00
  0.00000000E+00  0.00000000E+00  0.00000000E+00
  0.00000000E+00  0.00000000E+00  0.00000000E+00
  0.00000000E+00  0.00000000E+00  0.00000000E+00
  0.00000000E+00  0.00000000E+00  0.00000000E+00
  0.00000000E+00  0.00000000E+00  0.00000000E+00
  0.00000000E+00  0.00000000E+00  0.00000000E+00
  0.00000000E+00  0.00000000E+00  0.00000000E+00
  0.00000000E+00  0.00000000E+00  0.00000000E+00
  0.00000000E+00  0.00000000E+00  0.00000000E+00
  0.00000000E+00  0.00000000E+00  0.00000000E+00
  0.00000000E+00  0.00000000E+00  0.00000000E+00
  0.00000000E+00  0.00000000E+00  0.00000000E+00
  0.00000000E+00  0.00000000E+00  0.00000000E+00
