POSCAR                                  
   1.00000000000000     
     6.3621913106733006   -0.0034811494430105   -0.0003756008033404
    -3.1841104191847531    5.5150410229048603    0.0000000000000025
    -0.0005973720574493   -0.0003448929181721   10.1180788447140575
   Al   N    Sc
    14    16     2
Direct
  0.1646235910144571  0.3278157292345156  0.9957612039703558
  0.6648831001594614  0.3324418000801031  0.9985287110696522
  0.1646235910209088  0.8368083617793294  0.9957612039703985
  0.6706145825436083  0.8353075412752849  0.9952712322437182
  0.1656133426664961  0.3335570760637732  0.5010244005823129
  0.6704388844742714  0.3352196922407091  0.4961009838852873
  0.1656133426604351  0.8320567665958719  0.5010244005823342
  0.3339419862742733  0.1669707431367749  0.7474159494345702
  0.8327776276190680  0.1689782432511239  0.7522787151157428
  0.3301640934930349  0.6650817967465396  0.7524458671609826
  0.8327776276191107  0.6637988843684781  0.7522787151157073
  0.3304756955215885  0.1652375977572777  0.2475177821675026
  0.8361209355017482  0.1689216262399352  0.2444194821046453
  0.8361209355026221  0.6671988092690686  0.2444194821046240
  0.1574810831928824  0.3117292911307364  0.1824113445928785
  0.6642876024165443  0.3321440512075929  0.1882782976534148
  0.1574810832947458  0.8457522920629547  0.1824113445930490
  0.6861091923647070  0.8430548462334694  0.1858479955540214
  0.1646044379042008  0.3316612528735178  0.6920903476870824
  0.6670956601208908  0.3335480800599510  0.6879926105309513
  0.1646044379063822  0.8329436850317119  0.6920903476871180
  0.6663241576778794  0.8331623288392375  0.7060861920139124
  0.3349903526290597  0.1674949263151771  0.9361808281323856
  0.8324803023503972  0.1691881376188037  0.9403176134451088
  0.3307945570535664  0.6653970285261480  0.9446013688767491
  0.8324803023475692  0.6632916647301098  0.9403176134450733
  0.3331697302219202  0.1665846151114581  0.4404449367619205
  0.8451835239660686  0.1872976689779262  0.4334607677982986
  0.3176997870414638  0.6588496434710833  0.4477846357469689
  0.8451835238644325  0.6578853549876961  0.4334607677981423
  0.6723744864981105  0.8361874932491469  0.4999555953412363
  0.3288664430780955  0.6644329715345080  0.2420192628338488
 
  0.00000000E+00  0.00000000E+00  0.00000000E+00
  0.00000000E+00  0.00000000E+00  0.00000000E+00
  0.00000000E+00  0.00000000E+00  0.00000000E+00
  0.00000000E+00  0.00000000E+00  0.00000000E+00
  0.00000000E+00  0.00000000E+00  0.00000000E+00
  0.00000000E+00  0.00000000E+00  0.00000000E+00
  0.00000000E+00  0.00000000E+00  0.00000000E+00
  0.00000000E+00  0.00000000E+00  0.00000000E+00
  0.00000000E+00  0.00000000E+00  0.00000000E+00
  0.00000000E+00  0.00000000E+00  0.00000000E+00
  0.00000000E+00  0.00000000E+00  0.00000000E+00
  0.00000000E+00  0.00000000E+00  0.00000000E+00
  0.00000000E+00  0.00000000E+00  0.00000000E+00
  0.00000000E+00  0.00000000E+00  0.00000000E+00
  0.00000000E+00  0.00000000E+00  0.00000000E+00
  0.00000000E+00  0.00000000E+00  0.00000000E+00
  0.00000000E+00  0.00000000E+00  0.00000000E+00
  0.00000000E+00  0.00000000E+00  0.00000000E+00
  0.00000000E+00  0.00000000E+00  0.00000000E+00
  0.00000000E+00  0.00000000E+00  0.00000000E+00
  0.00000000E+00  0.00000000E+00  0.00000000E+00
  0.00000000E+00  0.00000000E+00  0.00000000E+00
  0.00000000E+00  0.00000000E+00  0.00000000E+00
  0.00000000E+00  0.00000000E+00  0.00000000E+00
  0.00000000E+00  0.00000000E+00  0.00000000E+00
  0.00000000E+00  0.00000000E+00  0.00000000E+00
  0.00000000E+00  0.00000000E+00  0.00000000E+00
  0.00000000E+00  0.00000000E+00  0.00000000E+00
  0.00000000E+00  0.00000000E+00  0.00000000E+00
  0.00000000E+00  0.00000000E+00  0.00000000E+00
  0.00000000E+00  0.00000000E+00  0.00000000E+00
  0.00000000E+00  0.00000000E+00  0.00000000E+00
