POSCAR                                  
   1.00000000000000     
     6.3610998201277855    0.0000000000000000    0.0000000000000000
    -3.1805499100600000    5.5088740402000000    0.0000000000000000
     0.0000000000000000    0.0000000000000000   10.1171594710658859
   Al   N    Sc
    14    16     2
Direct
  0.1646140731217273  0.3278097271078454 -0.0042397173794375
  0.6648750849360072  0.3324377924683766 -0.0014714568660519
  0.1646140731281781  0.8368048460132641 -0.0042397173793904
  0.6706013368468891  0.8353009184269204 -0.0047228536878405
  0.1656066476252652  0.3335549476103293  0.5010284028676604
  0.6704165759039593  0.3352085379555522  0.4961088027264699
  0.1656066476192071  0.8320522000080860  0.5010284028676819
  0.3339494042427564  0.1669744521210183  0.7474161164308164
  0.8327878963486404  0.1689818220524626  0.7522769077258391
  0.3301694659907751  0.6650844829954085  0.7524497006019125
  0.8327878963486848  0.6638055742967132  0.7522769077257998
  0.3304949824547797  0.1652472412238722  0.2475249283050414
  0.8361264428625782  0.1689276157321927  0.2444226881030561
  0.8361264428634539  0.6671983271376390  0.2444226881030345
  0.1574938956268843  0.3117305788146505  0.1824042270618458
  0.6642968510264300  0.3321486755125360  0.1882744432337456
  0.1574938957287455  0.8457638168130369  0.1824042270620184
  0.6861104496939268  0.8430554748980771  0.1858455928105399
  0.1646097764122948  0.3316628692546085  0.6920889386657566
  0.6671006928712951  0.3335505964351526  0.6879931989775014
  0.1646097764144702  0.8329474071587163  0.6920889386657875
  0.6663292445080805  0.8331648722543379  0.7060845924102394
  0.3349872307796998  0.1674933653905007  0.9361783949027469
  0.8324701428858917  0.1691822233549363  0.9403167345255912
  0.3307835780076366  0.6653915390031789  0.9446009600864841
  0.8324701428830598  0.6632874195294690  0.9403167345255550
  0.3331569624018464  0.1665782312014178  0.4404476486445554
  0.8451780949752018  0.1873011857927674  0.4334507857498285
  0.3177072849743529  0.6588533924375309  0.4477837263197702
  0.8451780948735660  0.6578764091819894  0.4334507857496723
  0.6723885120823779  0.8361945060412824  0.4999595245665325
  0.3288584035613380  0.6644289517761308  0.2420287458972372
