Ta N W                                  
   1.00000000000000     
    18.1096308199999996    0.0000000000000000    0.0000000000000000
     0.0000000000000000   23.3551997799999995    0.0000000000000000
     0.0000000000000000    0.0000000000000000   30.4818171199999988
   Ta   N    W 
   216   240    24
Direct
  0.0000053656556318  0.0000000000000000  0.1975464106117570
  0.3342338926101291  0.0624085326407808  0.2029754098065908
  0.1658417673565467  0.0624035472346876  0.2029707750622549
  0.2499412305602178  0.1250016859258452  0.2782152404683558
  0.0827418813688823  0.0624935677207077  0.2842491612381295
  0.4172743654398658  0.0624873256818503  0.2842302048192167
  0.9999536815568462  0.1249803329299084  0.3699964063541614
  0.3324365617969178  0.0624825897551062  0.3687087841150571
  0.1673870058100277  0.0624889053812581  0.3687846839054956
  0.2497945284383931  0.1252131179678528  0.4554374091448707
  0.0837692427601624  0.0625154699528281  0.4547575317854111
  0.4163345457823411  0.0625269871711254  0.4546595622645810
  0.3348536737858652  0.0623724643085595  0.5416954856085354
  0.1647606827168886  0.0626652342834646  0.5418642441979244
  0.0000058817426378  0.1249944718466409  0.1975889210989692
  0.3342970444097091  0.1874305455165342  0.2028929632705427
  0.1657234506452667  0.1874484481979479  0.2028847628734241
  0.2500269154856056  0.2499294335719711  0.2780760609833024
  0.0828202365494377  0.1874682969588477  0.2841773176321141
  0.4172600674476428  0.1874507161214041  0.2841613067092723
  0.9999291178062819  0.2501383104764940  0.3698142030717406
  0.3325234411132811  0.1874290020093952  0.3685598495723212
  0.1672898139604158  0.1874977447682298  0.3686561490447531
  0.2501970115566508  0.2503743686874245  0.4550483157761462
  0.0837153815805536  0.1877643305465213  0.4546708236969366
  0.4162281386731266  0.1876090303970557  0.4545777527651680
  0.3357621540862112  0.1873982104996372  0.5414099987559169
  0.1641672373825003  0.1887914942130919  0.5417838059837905
  0.9999805749918949  0.2499033038190461  0.1975082014258120
  0.3340365460873471  0.3124439226955573  0.2028262397266190
  0.1659736958270415  0.3124366245978010  0.2028356780642397
  0.2500976901736536  0.3751237511762540  0.2778998723066621
  0.0826976075382291  0.3124740090081275  0.2840291276753248
  0.4173459493992695  0.3124609463531129  0.2839833057129084
  0.9999290420003888  0.3750481477014418  0.3695597907032848
  0.3325694652272304  0.3124146516327571  0.3684673832259691
  0.1675255658167600  0.3124765194775563  0.3683946271869516
  0.2504742160361673  0.3752440973504960  0.4544131875031923
  0.0837990684952956  0.3126427581308775  0.4542687975816975
  0.4162268186025244  0.3126695205819416  0.4545568452725846
  0.3338879037939719  0.3127529447175093  0.5412385428790358
  0.9999695692568338  0.3750360485585844  0.1973341085111642
  0.3342512646627540  0.4374618540464752  0.2025555338074341
  0.1657804954473505  0.4374535349411559  0.2025867452959744
  0.2499560588339520  0.0000000000000000  0.2781952192821535
  0.0827398175663561  0.4374989528617803  0.2838634823133361
  0.4173413189232562  0.4374845707696906  0.2837864602751168
  0.9999579452282177  0.0000000000000000  0.3699736247421868
  0.3327442634071005  0.4374943904292437  0.3681379892826868
  0.1674730256915282  0.4374994932914262  0.3681962412055242
  0.2498138075524281  0.0000000000000000  0.4554983317618664
  0.0837957713674626  0.4376179726819984  0.4539577855090400
  0.4160587852248270  0.4376627161189646  0.4543570188340169
  0.3345180191843014  0.4375082435626538  0.5407542266527017
  0.9999693009939534  0.5000000000000000  0.1973093491225839
  0.3342512646627540  0.5625381463816908  0.2025555338074341
  0.1657804954473505  0.5625464654870100  0.2025867452959744
  0.2500976901736536  0.6248762488237460  0.2778998723066621
  0.0827398175663561  0.5625010475663856  0.2838634823133361
  0.4173413189232562  0.5625154296584753  0.2837864602751168
  0.9999290420003888  0.6249518522985582  0.3695597907032848
  0.3327442634071005  0.5625056099989223  0.3681379892826868
  0.1674730256915282  0.5625005071367397  0.3681962412055242
  0.2504742160361673  0.6247559026495040  0.4544131875031923
  0.0837957713674626  0.5623820277461675  0.4539577855090400
  0.4160587852248270  0.5623372843092014  0.4543570188340169
  0.3345180191843014  0.5624917568655121  0.5407542266527017
  0.9999695692568338  0.6249639514414156  0.1973341085111642
  0.3340365460873471  0.6875560773044427  0.2028262397266190
  0.1659736958270415  0.6875633754021990  0.2028356780642397
  0.2500269154856056  0.7500705668562020  0.2780760609833024
  0.0826976075382291  0.6875259909918725  0.2840291276753248
  0.4173459493992695  0.6875390536468871  0.2839833057129084
  0.9999291178062819  0.7498616899516790  0.3698142030717406
  0.3325694652272304  0.6875853483672429  0.3684673832259691
  0.1675255658167600  0.6875234805224437  0.3683946271869516
  0.2501970115566508  0.7496256317407486  0.4550483157761462
  0.0837990684952956  0.6873572418691225  0.4542687975816975
  0.4162268186025244  0.6873304794180584  0.4545568452725846
  0.3338879037939719  0.6872470552824907  0.5412385428790358
  0.9999805749918949  0.7500966966091269  0.1975082014258120
  0.3342970444097091  0.8125694544834658  0.2028929632705427
  0.1657234506452667  0.8125515518020521  0.2028847628734241
  0.2499412305602178  0.8749983140741548  0.2782152404683558
  0.0828202365494377  0.8125317030411523  0.2841773176321141
  0.4172600674476428  0.8125492838785959  0.2841613067092723
  0.9999536815568462  0.8750196670700916  0.3699964063541614
  0.3325234411132811  0.8125709979906048  0.3685598495723212
  0.1672898139604158  0.8125022552317702  0.3686561490447531
  0.2497945284383931  0.8747868820321472  0.4554374091448707
  0.0837153815805536  0.8122356694534787  0.4546708236969366
  0.4162281386731266  0.8123909696029443  0.4545777527651680
  0.3357621540862112  0.8126017895003628  0.5414099987559169
  0.1641672373825003  0.8112085057869081  0.5417838059837905
  0.0000058817426378  0.8750055281533591  0.1975889210989692
  0.3342338926101291  0.9375914677873851  0.2029754098065908
  0.1658417673565467  0.9375964531934784  0.2029707750622549
  0.2500621531813607  0.5000000000000000  0.2778531518386345
  0.0827418813688823  0.9375064327074583  0.2842491612381295
  0.4172743654398658  0.9375126747463156  0.2842302048192167
  0.9999222213915431  0.5000000000000000  0.3695316394599786
  0.3324365617969178  0.9375174106730597  0.3687087841150571
  0.1673870058100277  0.9375110950469079  0.3687846839054956
  0.2504752681682660  0.5000000000000000  0.4542459544923716
  0.0837692427601624  0.9374845304753379  0.4547575317854111
  0.4163345457823411  0.9374730132570406  0.4546595622645810
  0.3348536737858652  0.9376275361196065  0.5416954856085354
  0.1647606827168886  0.9373347661447013  0.5418642441979244
  0.5000049042508508  0.0000000000000000  0.1975454575326054
  0.8342315969204535  0.0624086603194556  0.2029750599750670
  0.6658401701863639  0.0624036809085737  0.2029707582191378
  0.7499386913342931  0.1250016993460719  0.2782153914458263
  0.5827409813989917  0.0624933422533687  0.2842489049402204
  0.9172724488966253  0.0624874114822305  0.2842309984645510
  0.4999547616325515  0.1249806894048930  0.3699965170688628
  0.8324349312486987  0.0624826970615686  0.3687093444451222
  0.6673848022626743  0.0624890585355757  0.3687853715648117
  0.7497946515736587  0.1252126781460703  0.4554382101764247
  0.5837671144440577  0.0625156669915299  0.4547570356576500
  0.9163342094127600  0.0625272589236303  0.4546604057226844
  0.8348520030117683  0.0623763309567451  0.5416967084592983
  0.6647580957253325  0.0626675686911327  0.5418630599977234
  0.5000053774077315  0.1249942846081424  0.1975879459009917
  0.8342944354818655  0.1874310481169772  0.2028928887493038
  0.6657243364160550  0.1874479885635481  0.2028836998269341
  0.7500244860033121  0.2499291582000751  0.2780757870281576
  0.5828194859338609  0.1874681111681227  0.2841773104230469
  0.9172585374265338  0.1874507177731246  0.2841618191358180
  0.4999297349570782  0.2501380399285935  0.3698146508242885
  0.8325211506029788  0.1874288793504135  0.3685596017485011
  0.6672872061291102  0.1874975909938996  0.3686567650973771
  0.7501943391123689  0.2503733047964189  0.4550480459400674
  0.5837150070093742  0.1877640598515455  0.4546709376314908
  0.9162268940503111  0.1876093670194976  0.4545775601190485
  0.8357690899647068  0.1873944806554846  0.5414115547398524
  0.6641674639548540  0.1887905803414966  0.5417839090750647
  0.4999801859725821  0.2499040825648322  0.1975077425851453
  0.8340347021968242  0.3124442218447641  0.2028260726320141
  0.6659723035914524  0.3124360429448387  0.2028355255139047
  0.7500954129428763  0.3751237555726377  0.2778998245366040
  0.5826969909649335  0.3124739604962414  0.2840286698734573
  0.9173443802856127  0.3124610539319619  0.2839838386763205
  0.4999298690825000  0.3750481255154909  0.3695599392210625
  0.8325666844946369  0.3124147547581089  0.3684666452049186
  0.6675225602416788  0.3124765723051937  0.3683951123706564
  0.7504732625316919  0.3752437948692631  0.4544126839528957
  0.5837993325444941  0.3126402874999386  0.4542687585637637
  0.9162254237158365  0.3126695855078836  0.4545559595144724
  0.8338872233634689  0.3127540719397217  0.5412384000027615
  0.4999696686825246  0.3750350577481640  0.1973341338248673
  0.8342492890957161  0.4374618237405699  0.2025554464622843
  0.6657790992768327  0.4374536333621677  0.2025864340572738
  0.7499536618710110  0.0000000000000000  0.2781956280473707
  0.5827392140872476  0.4374989108245870  0.2838631355740944
  0.9173398435310531  0.4374845294661966  0.2837868557662020
  0.4999586958983642  0.0000000000000000  0.3699737948576711
  0.8327414534402919  0.4374943057920504  0.3681372055813910
  0.6674730851030262  0.4375015003968628  0.3681964538093609
  0.7498131001427595  0.0000000000000000  0.4554990413757238
  0.5837948223112477  0.4376176745161047  0.4539585500056731
  0.9160573777352496  0.4376623614185533  0.4543560896721672
  0.8345183494323010  0.4375101492836038  0.5407549410532866
  0.4999711159169493  0.5000000000000000  0.1973121023484481
  0.8342492890957161  0.5625381766875961  0.2025554464622843
  0.6657790992768327  0.5625463670659983  0.2025864340572738
  0.7500954129428763  0.6248762444273623  0.2778998245366040
  0.5827392140872476  0.5625010896035789  0.2838631355740944
  0.9173398435310531  0.5625154709619693  0.2837868557662020
  0.4999298690825000  0.6249518744845091  0.3695599392210625
  0.8327414534402919  0.5625056946361155  0.3681372055813910
  0.6674730851030262  0.5624985000313032  0.3681964538093609
  0.7504732625316919  0.6247562051307369  0.4544126839528957
  0.5837948223112477  0.5623823259120613  0.4539585500056731
  0.9160573777352496  0.5623376390096126  0.4543560896721672
  0.8345183494323010  0.5624898511445622  0.5407549410532866
  0.4999696686825246  0.6249649422518360  0.1973341338248673
  0.8340347021968242  0.6875557781552359  0.2028260726320141
  0.6659723035914524  0.6875639570551613  0.2028355255139047
  0.7500244860033121  0.7500708422280979  0.2780757870281576
  0.5826969909649335  0.6875260395037586  0.2840286698734573
  0.9173443802856127  0.6875389460680381  0.2839838386763205
  0.4999297349570782  0.7498619604995795  0.3698146508242885
  0.8325666844946369  0.6875852452418911  0.3684666452049186
  0.6675225602416788  0.6875234276948063  0.3683951123706564
  0.7501943391123689  0.7496266956317541  0.4550480459400674
  0.5837993325444941  0.6873597125000614  0.4542687585637637
  0.9162254237158365  0.6873304144921164  0.4545559595144724
  0.8338872233634689  0.6872459280602783  0.5412384000027615
  0.4999801859725821  0.7500959178633408  0.1975077425851453
  0.8342944354818655  0.8125689518830228  0.2028928887493038
  0.6657243364160550  0.8125520114364519  0.2028836998269341
  0.7499386913342931  0.8749983006539281  0.2782153914458263
  0.5828194859338609  0.8125318888318773  0.2841773104230469
  0.9172585374265338  0.8125492822268754  0.2841618191358180
  0.4999547616325515  0.8750193105951070  0.3699965170688628
  0.8325211506029788  0.8125711206495865  0.3685596017485011
  0.6672872061291102  0.8125024090061004  0.3686567650973771
  0.7497946515736587  0.8747873218539297  0.4554382101764247
  0.5837150070093742  0.8122359401484545  0.4546709376314908
  0.9162268940503111  0.8123906329805024  0.4545775601190485
  0.8357690899647068  0.8126055193445154  0.5414115547398524
  0.6641674639548540  0.8112094196585034  0.5417839090750647
  0.5000053774077315  0.8750057153918576  0.1975879459009917
  0.8342315969204535  0.9375913401087104  0.2029750599750670
  0.6658401701863639  0.9375963195195922  0.2029707582191378
  0.7500601735601222  0.5000000000000000  0.2778532268434475
  0.5827409813989917  0.9375066581747973  0.2842489049402204
  0.9172724488966253  0.9375125889459355  0.2842309984645510
  0.4999233854765990  0.5000000000000000  0.3695322245634927
  0.8324349312486987  0.9375173033665973  0.3687093444451222
  0.6673848022626743  0.9375109418925902  0.3687853715648117
  0.7504744962976844  0.5000000000000000  0.4542457815135776
  0.5837671144440577  0.9374843334366361  0.4547570356576500
  0.9163342094127600  0.9374727415045356  0.4546604057226844
  0.8348520030117683  0.9376236694714208  0.5416967084592983
  0.6647580957253325  0.9373324317370333  0.5418630599977234
  0.4057850721076548  0.0000000000000000  0.2325382934870319
  0.2500328895824637  0.0000000000000000  0.1994328190377033
  0.0942444532934488  0.0000000000000000  0.2325308742670344
  0.1549115319042045  0.1250002789304290  0.3160859823874134
  0.0000238939444088  0.1250117231436505  0.3033281972706376
  0.3450790984252876  0.1249893244245968  0.3160563183232341
  0.4010262522538994  0.1251031448463493  0.4024992830815464
  0.2499248829420182  0.1250804435575432  0.3876000080983673
  0.0988706939699640  0.1251150465967825  0.4025731434600246
  0.1516061699008588  0.1255759853863481  0.4881201605214187
  0.9999409765011222  0.1251951437520162  0.4735408186928467
  0.3480174182647886  0.1251002421514542  0.4879277496637471
  0.4065817542799053  0.1254054754556151  0.5691324019364501
  0.2497656982154624  0.1264617440263294  0.5579869344634787
  0.0935598878649131  0.1261183800785375  0.5695242488553660
  0.4057281316223253  0.1249740452523795  0.2325448627228823
  0.2500114479664362  0.1249723740835904  0.1999820124486789
  0.0942644647516531  0.1249683721158732  0.2325364945479222
  0.1549177058730820  0.2500301730235535  0.3159412663524890
  0.0000045741383019  0.2499773215019871  0.3031685500658554
  0.3451431211682774  0.2500023032758563  0.3159708427338259
  0.4011635721104199  0.2500607409354672  0.4025569551393104
  0.2499997737106128  0.2499338677184113  0.3873644643003971
  0.0988208547101763  0.2501723241775196  0.4025256688964447
  0.1521493519040646  0.2510348253947541  0.4878377088943040
  0.0000568529163374  0.2505133405743649  0.4742931119168077
  0.3479797785424807  0.2502456587188888  0.4879371819408576
  0.4058365114705396  0.2510756013883011  0.5690939108235753
  0.2482867796734638  0.2530743524001053  0.5579619022542133
  0.0966945075607839  0.2547688680797009  0.5693729570241644
  0.4056887126883879  0.2499387977433756  0.2324070379566621
  0.2500112773850844  0.2498479844359807  0.1995342953020440
  0.0942555096449667  0.2499410660758485  0.2323974839897573
  0.1548818903754565  0.3749374197070310  0.3156973411815471
  0.0000018110167801  0.3750261766611089  0.3029624049311295
  0.3452705980796367  0.3748985362683825  0.3157390409357603
  0.4011102324475928  0.3750722253949803  0.4023089002714570
  0.2500819630667124  0.3750172736340147  0.3869609945602406
  0.0988929824148315  0.3750384853158479  0.4021582145013838
  0.1527753995186458  0.3755933814225259  0.4871070370583439
  0.0001595758117503  0.3754420894309192  0.4732945411694303
  0.3478561279439774  0.3751590455002827  0.4876511963269436
  0.4049589110202447  0.3757288228816051  0.5687610363145126
  0.2471682461819000  0.3763416206575556  0.5575433240387397
  0.0987047754510257  0.3761839701457887  0.5682571459175918
  0.4056973416303364  0.3749692871278469  0.2322142219269239
  0.2500001493195114  0.3750235732571383  0.1993630367747841
  0.0942624159815111  0.3749730897133432  0.2322168432674587
  0.1549018858841364  0.0000000000000000  0.3161360080793543
  0.0000092564018956  0.0000000000000000  0.3033078639546929
  0.3450960887003447  0.0000000000000000  0.3160966461910988
  0.4009792934837932  0.0000000000000000  0.4026013836776698
  0.2499289890557748  0.0000000000000000  0.3877448833185113
  0.0989138067958848  0.0000000000000000  0.4026822042209091
  0.1516631816767102  0.0000000000000000  0.4883829197574912
  0.9999980300515148  0.0000000000000000  0.4736637315969858
  0.3481857424323849  0.0000000000000000  0.4881735401085834
  0.4054004887384366  0.0000000000000000  0.5699401512227311
  0.2498543002101314  0.0000000000000000  0.5582186584109650
  0.0945095705575838  0.0000000000000000  0.5700976318280624
  0.4056554211388743  0.5000000000000000  0.2321867552565777
  0.2499976166599609  0.5000000000000000  0.1997448590573256
  0.0943175757053822  0.5000000000000000  0.2321859919534788
  0.1548818903754565  0.6250625802929690  0.3156973411815471
  0.0000018110167801  0.6249738233388911  0.3029624049311295
  0.3452705980796367  0.6251014637316175  0.3157390409357603
  0.4011102324475928  0.6249277746050197  0.4023089002714570
  0.2500819630667124  0.6249827263659853  0.3869609945602406
  0.0988929824148315  0.6249615146841521  0.4021582145013838
  0.1527753995186458  0.6244066185774741  0.4871070370583439
  0.0001595758117503  0.6245579105690808  0.4732945411694303
  0.3478561279439774  0.6248409544997173  0.4876511963269436
  0.4049589110202447  0.6242711771183949  0.5687610363145126
  0.2471682461819000  0.6236583793424444  0.5575433240387397
  0.0987047754510257  0.6238160298542113  0.5682571459175918
  0.4056973416303364  0.6250307128721531  0.2322142219269239
  0.2500001493195114  0.6249764267428617  0.1993630367747841
  0.0942624159815111  0.6250269102866568  0.2322168432674587
  0.1549177058730820  0.7499698274046196  0.3159412663524890
  0.0000045741383019  0.7500226789261859  0.3031685500658554
  0.3451431211682774  0.7499976971523168  0.3159708427338259
  0.4011635721104199  0.7499392594927059  0.4025569551393104
  0.2499997737106128  0.7500661327097617  0.3873644643003971
  0.0988208547101763  0.7498276762506535  0.4025256688964447
  0.1521493519040646  0.7489651750334190  0.4878377088943040
  0.0000568529163374  0.7494866598538081  0.4742931119168077
  0.3479797785424807  0.7497543417092842  0.4879371819408576
  0.4058365114705396  0.7489243990398720  0.5690939108235753
  0.2482867796734638  0.7469256480280677  0.5579619022542133
  0.0966945075607839  0.7452311323484651  0.5693729570241644
  0.4056887126883879  0.7500612026847975  0.2324070379566621
  0.2500112773850844  0.7501520159921924  0.1995342953020440
  0.0942555096449667  0.7500589343523245  0.2323974839897573
  0.1549115319042045  0.8749997210695710  0.3160859823874134
  0.0000238939444088  0.8749882768563495  0.3033281972706376
  0.3450790984252876  0.8750106755754032  0.3160563183232341
  0.4010262522538994  0.8748968551536507  0.4024992830815464
  0.2499248829420182  0.8749195564424568  0.3876000080983673
  0.0988706939699640  0.8748849534032175  0.4025731434600246
  0.1516061699008588  0.8744240146136519  0.4881201605214187
  0.9999409765011222  0.8748048562479838  0.4735408186928467
  0.3480174182647886  0.8748997578485458  0.4879277496637471
  0.4065817542799053  0.8745945245443849  0.5691324019364501
  0.2497656982154624  0.8735382559736706  0.5579869344634787
  0.0935598878649131  0.8738816199214625  0.5695242488553660
  0.4057281316223253  0.8750259547476205  0.2325448627228823
  0.2500114479664362  0.8750276259164096  0.1999820124486789
  0.0942644647516531  0.8750316278841268  0.2325364945479222
  0.1548291179133088  0.5000000000000000  0.3156137995504338
  0.0000008081298972  0.5000000000000000  0.3029408994650780
  0.3452645939760401  0.5000000000000000  0.3156193884005276
  0.4011117045656007  0.5000000000000000  0.4021651777758137
  0.2501243061539498  0.5000000000000000  0.3868327959735822
  0.0988390321950803  0.5000000000000000  0.4020567493391241
  0.1527568879697156  0.5000000000000000  0.4870780877392349
  0.0000967661536393  0.5000000000000000  0.4737119159206955
  0.3477151290368283  0.5000000000000000  0.4875701521982236
  0.4063552486509892  0.5000000000000000  0.5687375085211173
  0.2469416499533992  0.5000000000000000  0.5574938957053490
  0.0974990630226245  0.5000000000000000  0.5682862338826098
  0.9057827756238410  0.0000000000000000  0.2325385447036012
  0.7500337974585847  0.0000000000000000  0.1994329642366068
  0.5942430066464723  0.0000000000000000  0.2325309067792816
  0.6549090727954834  0.1249999273291067  0.3160864198905387
  0.5000242962230104  0.1250117471922394  0.3033284245573498
  0.8450759260848955  0.1249887556459726  0.3160565157445774
  0.9010257298593203  0.1251026625947205  0.4025001768321772
  0.7499237856632490  0.1250798749971054  0.3876006083163901
  0.5988711124245611  0.1251152377131035  0.4025735671311992
  0.6516060502559071  0.1255759364439442  0.4881189935932682
  0.4999400627017607  0.1251943124301746  0.4735389791130800
  0.8480175507589962  0.1250991436021138  0.4879292044316585
  0.9065893536310483  0.1254021381245778  0.5691303546095270
  0.7497635306416868  0.1264594162304036  0.5579864145069848
  0.5935549720492048  0.1261171479028960  0.5695202172591181
  0.9057258415791907  0.1249741028739564  0.2325448847262379
  0.7500120181181060  0.1249726340937301  0.1999824495328113
  0.5942624141071562  0.1249679900346052  0.2325370081653304
  0.6549152731250985  0.2500298099093996  0.3159414226768078
  0.5000049569868636  0.2499772618064497  0.3031687803330811
  0.8451403107268760  0.2500021649828383  0.3159703318212550
  0.9011620880162496  0.2500603248927362  0.4025559309471163
  0.7499976262669179  0.2499336948378499  0.3873640953206490
  0.5988200700855089  0.2501717528640057  0.4025272702201406
  0.6521494582830627  0.2510330704635777  0.4878389401289596
  0.5000580898014135  0.2505133196954930  0.4742932853908854
  0.8479777372913020  0.2502460256371393  0.4879359530118990
  0.9058348485880146  0.2510742758641200  0.5690928407348963
  0.7482893284588386  0.2530725297974215  0.5579619103850533
  0.5966970609981104  0.2547697299873448  0.5693739702539844
  0.9056869754576340  0.2499390821570202  0.2324070642855816
  0.7500113586458284  0.2498470595538080  0.1995341235631187
  0.5942538578110828  0.2499408437911299  0.2323976741626907
  0.6548793863157201  0.3749375004588984  0.3156976065451360
  0.5000022267289452  0.3750260787274087  0.3029623401023045
  0.8452678170298853  0.3748987628931815  0.3157386768381514
  0.9011085451233001  0.3750724567436023  0.4023077948817502
  0.7500795841176000  0.3750171270675580  0.3869608426467508
  0.5988920543058782  0.3750383438987228  0.4021591661943802
  0.6527759031306815  0.3755926133846543  0.4871071723429168
  0.5001599897119391  0.3754425475409207  0.4732937744090790
  0.8478553590592313  0.3751588454632255  0.4876512854782433
  0.9049590433330010  0.3757271497628665  0.5687618337567031
  0.7471671859720388  0.3763407490512165  0.5575431460699249
  0.5987055886413231  0.3761845586530654  0.5682559330138943
  0.9056964999606407  0.3749694828563648  0.2322142924795330
  0.7500007536255211  0.3750233386858497  0.1993632041789013
  0.5942633936651376  0.3749729751418158  0.2322174102537673
  0.6548998683685596  0.0000000000000000  0.3161364965691220
  0.5000096080813847  0.0000000000000000  0.3033078687129489
  0.8450931178797134  0.0000000000000000  0.3160972798069679
  0.9009782722001134  0.0000000000000000  0.4026013748415735
  0.7499270135980538  0.0000000000000000  0.3877462767124769
  0.5989127633247051  0.0000000000000000  0.4026824762856975
  0.6516615573506428  0.0000000000000000  0.4883824971397317
  0.4999990150089104  0.0000000000000000  0.4736663531899552
  0.8481834809929012  0.0000000000000000  0.4881738993362248
  0.9053949788858802  0.0000000000000000  0.5699393307615850
  0.7498507058981332  0.0000000000000000  0.5582197202057486
  0.5945205944607466  0.0000000000000000  0.5701014308338088
  0.9056542894950539  0.5000000000000000  0.2321867151371109
  0.7499987023840475  0.5000000000000000  0.1997447105601395
  0.5943181744859487  0.5000000000000000  0.2321867206149903
  0.6548793863157201  0.6250624995411016  0.3156976065451360
  0.5000022267289452  0.6249739212725913  0.3029623401023045
  0.8452678170298853  0.6251012371068185  0.3157386768381514
  0.9011085451233001  0.6249275432563977  0.4023077948817502
  0.7500795841176000  0.6249828729324420  0.3869608426467508
  0.5988920543058782  0.6249616561012772  0.4021591661943802
  0.6527759031306815  0.6244073866153457  0.4871071723429168
  0.5001599897119391  0.6245574524590793  0.4732937744090790
  0.8478553590592313  0.6248411545367745  0.4876512854782433
  0.9049590433330010  0.6242728502371335  0.5687618337567031
  0.7471671859720388  0.6236592509487835  0.5575431460699249
  0.5987055886413231  0.6238154413469346  0.5682559330138943
  0.9056964999606407  0.6250305171436352  0.2322142924795330
  0.7500007536255211  0.6249766613141503  0.1993632041789013
  0.5942633936651376  0.6250270248581842  0.2322174102537673
  0.6549152731250985  0.7499701905187734  0.3159414226768078
  0.5000049569868636  0.7500227386217233  0.3031687803330811
  0.8451403107268760  0.7499978354453347  0.3159703318212550
  0.9011620880162496  0.7499396755354439  0.4025559309471163
  0.7499976262669179  0.7500663055903232  0.3873640953206490
  0.5988200700855089  0.7498282475641673  0.4025272702201406
  0.6521494582830627  0.7489669299645954  0.4878389401289596
  0.5000580898014135  0.7494866807326801  0.4742932853908854
  0.8479777372913020  0.7497539747910338  0.4879359530118990
  0.9058348485880146  0.7489257245640530  0.5690928407348963
  0.7482893284588386  0.7469274706307516  0.5579619103850533
  0.5966970609981104  0.7452302704408211  0.5693739702539844
  0.9056869754576340  0.7500609182711528  0.2324070642855816
  0.7500113586458284  0.7501529408743650  0.1995341235631187
  0.5942538578110828  0.7500591566370431  0.2323976741626907
  0.6549090727954834  0.8750000726708933  0.3160864198905387
  0.5000242962230104  0.8749882528077606  0.3033284245573498
  0.8450759260848955  0.8750112443540274  0.3160565157445774
  0.9010257298593203  0.8748973374052795  0.4025001768321772
  0.7499237856632490  0.8749201250028946  0.3876006083163901
  0.5988711124245611  0.8748847622868965  0.4025735671311992
  0.6516060502559071  0.8744240635560558  0.4881189935932682
  0.4999400627017607  0.8748056875698254  0.4735389791130800
  0.8480175507589962  0.8749008563978862  0.4879292044316585
  0.9065893536310483  0.8745978618754222  0.5691303546095270
  0.7497635306416868  0.8735405837695964  0.5579864145069848
  0.5935549720492048  0.8738828520971040  0.5695202172591181
  0.9057258415791907  0.8750258971260436  0.2325448847262379
  0.7500120181181060  0.8750273659062699  0.1999824495328113
  0.5942624141071562  0.8750320099653948  0.2325370081653304
  0.6548266068479975  0.5000000000000000  0.3156144424539278
  0.5000011701477902  0.5000000000000000  0.3029412752003751
  0.8452618996037913  0.5000000000000000  0.3156191955949978
  0.9011102264476278  0.5000000000000000  0.4021640417830312
  0.7501222188348251  0.5000000000000000  0.3868324984454787
  0.5988383080425166  0.5000000000000000  0.4020582812424323
  0.6527562287944448  0.5000000000000000  0.4870782704545391
  0.5000971753936767  0.5000000000000000  0.4737129325884126
  0.8477153571454394  0.5000000000000000  0.4875694150461527
  0.9063619656118647  0.5000000000000000  0.5687341162911892
  0.7469413194590260  0.5000000000000000  0.5574932239297112
  0.5974959671091753  0.5000000000000000  0.5682891076725198
  0.0001655698445333  0.1217874935410634  0.5403542606214700
  0.0003049399321569  0.2579066451018619  0.5410938481172209
  0.9998428178167842  0.3727561705419973  0.5400171514801571
  0.1645598060548252  0.3136683428145020  0.5397218310980136
  0.9999799475579323  0.0000000000000000  0.5408111985857147
  0.1639864063601806  0.4379674888711023  0.5392772690292560
  0.9998428178167842  0.6272438294580098  0.5400171514801571
  0.1639864063601806  0.5620325115570637  0.5392772690292560
  0.0003049399321569  0.7420933553263112  0.5410938481172209
  0.1645598060548252  0.6863316571854980  0.5397218310980136
  0.0001655698445333  0.8782125064589366  0.5403542606214700
  0.9999555486233831  0.5000000000000000  0.5402571622968111
  0.5001726059256200  0.1217857164416785  0.5403495066043504
  0.5003064319020254  0.2579077046122933  0.5410949477898441
  0.4998434754297776  0.3727596209086954  0.5400158262506451
  0.6645614713881756  0.3136690844483283  0.5397206688821754
  0.4999809161772077  0.0000000000000000  0.5408158305142905
  0.6639864543965501  0.4379673884759967  0.5392777351743590
  0.4998434754297776  0.6272403790913046  0.5400158262506451
  0.6639864543965501  0.5620326119521692  0.5392777351743590
  0.5003064319020254  0.7420922958158798  0.5410949477898441
  0.6645614713881756  0.6863309155516717  0.5397206688821754
  0.5001726059256200  0.8782142835583215  0.5403495066043504
  0.4999510900829804  0.5000000000000000  0.5402598371592049
 
  0.00000000E+00  0.00000000E+00  0.00000000E+00
  0.00000000E+00  0.00000000E+00  0.00000000E+00
  0.00000000E+00  0.00000000E+00  0.00000000E+00
  0.00000000E+00  0.00000000E+00  0.00000000E+00
  0.00000000E+00  0.00000000E+00  0.00000000E+00
  0.00000000E+00  0.00000000E+00  0.00000000E+00
  0.00000000E+00  0.00000000E+00  0.00000000E+00
  0.00000000E+00  0.00000000E+00  0.00000000E+00