Ta  N Ru Cu                             
   1.00000000000000     
     9.0548154099999998    0.0000000000000000    0.0000000000000000
     0.0000000000000000   11.6775998899999998    0.0000000000000000
     0.0000000000000000    0.0000000000000000   23.4818170799999990
   Ta   N    Ru   Cu
    60    60    16     2
Selective dynamics
Direct
  0.0000000000000000  0.0000000000000000  0.2546926809530987   F   F   F
  0.6670845899906297  0.1250000003211298  0.2638822399803757   F   F   F
  0.3329153514769843  0.1250000003211298  0.2638822399803757   F   F   F
  0.4999999994478088  0.2499999997859135  0.3618861993156202   F   F   F
  0.1650707596845180  0.1250000003211298  0.3684425577811794   F   F   F
  0.8349292403154820  0.1250000003211298  0.3684425577811794   F   F   F
  0.0002634440773420  0.2504315710670301  0.4799486188007329   T   T   T
  0.6645502538447643  0.1253155809653375  0.4780365553257536   T   T   T
  0.3354608367266646  0.1252601317202042  0.4778940871756280   T   T   T
  0.5002579745575808  0.2506369680738487  0.5902668651755066   T   T   T
  0.1689709319931640  0.1253616364905586  0.5899671436367873   T   T   T
  0.8328661450490228  0.1259491333358528  0.5898468960518919   T   T   T
  0.9981610034177238  0.2512765607102299  0.6996440444697080   T   T   T
  0.6668377021926665  0.1259801408264964  0.7022106840344673   T   T   T
  0.3320788982056743  0.1253841868834353  0.7036356878265536   T   T   T
  0.0000000000000000  0.2499999997859135  0.2546926809530987   F   F   F
  0.6670845899906297  0.3750000001070433  0.2638822399803757   F   F   F
  0.3329153514769843  0.3750000001070433  0.2638822399803757   F   F   F
  0.4999999994478088  0.5000000004281731  0.3618861993156202   F   F   F
  0.1650707596845180  0.3750000001070433  0.3684425577811794   F   F   F
  0.8349292403154820  0.3750000001070433  0.3684425577811794   F   F   F
  0.0002506064806676  0.5002110861724237  0.4799545433222227   T   T   T
  0.6646023325884464  0.3753037902551321  0.4780688542066071   T   T   T
  0.3355549167172349  0.3752959372036042  0.4779011235299133   T   T   T
  0.5002193875037149  0.5005840388714737  0.5903017717427554   T   T   T
  0.1684466944007016  0.3756219137027622  0.5896060366032408   T   T   T
  0.8330513789002296  0.3756047231392446  0.5898140545614579   T   T   T
 -0.0019611165399928  0.5000376293839602  0.6995608870882118   T   T   T
  0.6688645025003668  0.3755919059692805  0.7030625395967625   T   T   T
  0.3301051605476844  0.3756611199595291  0.7022217194354096   T   T   T
  0.0000000000000000  0.5000000004281731  0.2546926809530987   F   F   F
  0.6670845899906297  0.6249999998929567  0.2638822399803757   F   F   F
  0.3329153514769843  0.6249999998929567  0.2638822399803757   F   F   F
  0.4999999994478088  0.7500000002140865  0.3618861993156202   F   F   F
  0.1650707596845180  0.6249999998929567  0.3684425577811794   F   F   F
  0.8349292403154820  0.6249999998929567  0.3684425577811794   F   F   F
  0.0004769271494311  0.7503728071025602  0.4799456498849328   T   T   T
  0.6645261942094205  0.6252673452091375  0.4780390831634365   T   T   T
  0.3354528833804704  0.6253290934020542  0.4779044167991066   T   T   T
  0.4998981373602194  0.7508063672782728  0.5903281490260593   T   T   T
  0.1690658818438621  0.6258310382573650  0.5900136196226859   T   T   T
  0.8327627108463794  0.6252682184339522  0.5898447297776090   T   T   T
  0.9959423045968601  0.7514848810053800  0.6994807944769169   T   T   T
  0.6669062425900542  0.6253860408211593  0.7022237194942215   T   T   T
  0.3323936020062977  0.6260380061251898  0.7039873125694238   T   T   T
  0.0000000000000000  0.7500000002140865  0.2546926809530987   F   F   F
  0.6670845899906297  0.8750000005352163  0.2638822399803757   F   F   F
  0.3329153514769843  0.8750000005352163  0.2638822399803757   F   F   F
  0.4999999994478088  0.0000000000000000  0.3618861993156202   F   F   F
  0.1650707596845180  0.8750000005352163  0.3684425577811794   F   F   F
  0.8349292403154820  0.8750000005352163  0.3684425577811794   F   F   F
  0.0004722886261759  0.0002615187410939  0.4799383699726117   T   T   T
  0.6647687722398964  0.8753011594434740  0.4781308858839232   T   T   T
  0.3356421286268099  0.8752794687383321  0.4780000273446097   T   T   T
  0.4999518330130954  0.0004081811879158  0.5902862564673678   T   T   T
  0.1691438042729653  0.8755579582263208  0.5900943111450817   T   T   T
  0.8328927562610369  0.8756211432595424  0.5893805883215216   T   T   T
  0.9959790424182405 -0.0000154897582795  0.6994878007576221   T   T   T
  0.6665603532164551  0.8756727647900777  0.7001581238323239   T   T   T
  0.3305500888322766  0.8757417967601209  0.7051765832196580   T   T   T
  0.8141011533980276  0.0000000000000000  0.3013105672926031   F   F   F
  0.4999999994478088  0.0000000000000000  0.2564174481620327   F   F   F
  0.1858988466019724  0.0000000000000000  0.3013105672926031   F   F   F
  0.3088456122590841  0.2499999997859135  0.4099867722441957   F   F   F
  0.0000000000000000  0.2499999997859135  0.3930971035158137   F   F   F
  0.6911543877409159  0.2499999997859135  0.4099867722441957   F   F   F
  0.8013171784280728  0.2505427741796729  0.5220504578124028   T   T   T
  0.5000039482443698  0.2503564352670260  0.5026349918808882   T   T   T
  0.1990508752437010  0.2503263115022661  0.5219350528604705   T   T   T
  0.3047367562684599  0.2503617248865882  0.6339021513251686   T   T   T
  0.0004538662296598  0.2507375257974004  0.6116029430886876   T   T   T
  0.6955663909098213  0.2514688201331757  0.6341774115700759   T   T   T
  0.8069968778871395  0.2514623244844986  0.7445715489548431   T   T   T
  0.5004785241566404  0.2523066714239525  0.7269038435951105   T   T   T
  0.1961417831526029  0.2504454583810040  0.7390242427155063   T   T   T
  0.8141011533980276  0.2499999997859135  0.3013105672926031   F   F   F
  0.4999999994478088  0.2499999997859135  0.2564174481620327   F   F   F
  0.1858988466019724  0.2499999997859135  0.3013105672926031   F   F   F
  0.3088456122590841  0.5000000004281731  0.4099867722441957   F   F   F
  0.0000000000000000  0.5000000004281731  0.3930971035158137   F   F   F
  0.6911543877409159  0.5000000004281731  0.4099867722441957   F   F   F
  0.8013068935024713  0.5003516239140910  0.5220492822142607   T   T   T
  0.5000124989663880  0.5003567250028379  0.5026526420149107   T   T   T
  0.1990694046490906  0.5005692696156699  0.5219451132643118   T   T   T
  0.3047911424276157  0.5010337340797667  0.6339938238840220   T   T   T
  0.0004332340223162  0.5005644928257424  0.6115496394915780   T   T   T
  0.6955005091440876  0.4997823514759671  0.6341977965973367   T   T   T
  0.8068700411665495  0.4996125364455554  0.7444940787626276   T   T   T
  0.5007273155205065  0.4986255303695058  0.7271270710065878   T   T   T
  0.1959591412763027  0.5008794554896274  0.7389828871907250   T   T   T
  0.8141011533980276  0.5000000004281731  0.3013105672926031   F   F   F
  0.4999999994478088  0.5000000004281731  0.2564174481620327   F   F   F
  0.1858988466019724  0.5000000004281731  0.3013105672926031   F   F   F
  0.3088456122590841  0.7500000002140865  0.4099867722441957   F   F   F
  0.0000000000000000  0.7500000002140865  0.3930971035158137   F   F   F
  0.6911543877409159  0.7500000002140865  0.4099867722441957   F   F   F
  0.8016448370468019  0.7502461254019004  0.5218928602179880   T   T   T
  0.4999709383130333  0.7503245918909562  0.5026594044453656   T   T   T
  0.1991813483247300  0.7505419039162703  0.5221321421222365   T   T   T
  0.3049225584397979  0.7509616545629538  0.6347946379139301   T   T   T
  0.0002208153052340  0.7508114422270349  0.6116872912913331   T   T   T
  0.6961706000088590  0.7493309581523020  0.6333606713493938   T   T   T
  0.8030657451431052  0.7518346215223772  0.7441379740885247   T   T   T
  0.5037404222593862  0.7502862028048342  0.7260259902680687   T   T   T
  0.1929086912267416  0.7498686527991605  0.7387242911596299   T   T   T
  0.8141011533980276  0.7500000002140865  0.3013105672926031   F   F   F
  0.4999999994478088  0.7500000002140865  0.2564174481620327   F   F   F
  0.1858988466019724  0.7500000002140865  0.3013105672926031   F   F   F
  0.3088456122590841  0.0000000000000000  0.4099867722441957   F   F   F
  0.0000000000000000  0.0000000000000000  0.3930971035158137   F   F   F
  0.6911543877409159  0.0000000000000000  0.4099867722441957   F   F   F
  0.8016732663175349  0.0006436979586538  0.5218833558967428   T   T   T
  0.4999665579585539  0.0003888708532885  0.5026364957297228   T   T   T
  0.1991680756047758  0.0003047666778195  0.5221156798197689   T   T   T
  0.3048785826484081  0.0003398630881163  0.6346878907184516   T   T   T
  0.0002178281167465  0.0004416839605088  0.6116984847462500   T   T   T
  0.6962214545058056  0.0020214444727678  0.6333462379402858   T   T   T
  0.8030519535627295 -0.0002157520781066  0.7441079643162126   T   T   T
  0.5035439048766555  0.0013076120771712  0.7260120958024703   T   T   T
  0.1930254009228625  0.0017504718669558  0.7387541835797423   T   T   T
  0.1308058770094412  0.0021307781844519  0.8172232852023091   T   T   T
  0.5703611770288026 -0.0131203966788070  0.8071052282043097   T   T   T
  0.8859957267251806  0.1256250839404772  0.7984713912664505   T   T   T
  0.1349992136517708  0.5288888833090056  0.8164755867626463   T   T   T
  0.4970366169027037  0.4765604170814463  0.8122974525488560   T   T   T
  0.8848180306733806  0.6253401546874308  0.7983796821066447   T   T   T
  0.1364404741503187  0.2228624207304460  0.8167163634684012   T   T   T
  0.4956272234563144  0.2718789630468026  0.8121626379527707   T   T   T
  0.8900430942173926  0.3755423999713973  0.7977892961979335   T   T   T
  0.1299400428758894  0.7493548508076245  0.8171115547797083   T   T   T
  0.5714721655117455  0.7660069146900681  0.8068325197713700   T   T   T
  0.8793056600774636  0.8760078867924667  0.7997701583625118   T   T   T
  0.3494232290921206  0.8744920476505341  0.8390235524620588   T   T   T
  0.3648025243375043  0.6478485152441036  0.8451092121178044   T   T   T
  0.2608313333002545  0.3764501882683092  0.8579197727225026   T   T   T
  0.3649331862850148  0.1016495222975875  0.8462860321041047   T   T   T
  0.6671297772593855  0.5989357494482936  0.8654076823390945   T   T   T
  0.6687515358650905  0.1530179977181607  0.8659292339467834   T   T   T
 
  0.00000000E+00  0.00000000E+00  0.00000000E+00
  0.00000000E+00  0.00000000E+00  0.00000000E+00
  0.00000000E+00  0.00000000E+00  0.00000000E+00
  0.00000000E+00  0.00000000E+00  0.00000000E+00
  0.00000000E+00  0.00000000E+00  0.00000000E+00
  0.00000000E+00  0.00000000E+00  0.00000000E+00
  0.00000000E+00  0.00000000E+00  0.00000000E+00
  0.00000000E+00  0.00000000E+00  0.00000000E+00
  0.00000000E+00  0.00000000E+00  0.00000000E+00
  0.00000000E+00  0.00000000E+00  0.00000000E+00
  0.00000000E+00  0.00000000E+00  0.00000000E+00
  0.00000000E+00  0.00000000E+00  0.00000000E+00
  0.00000000E+00  0.00000000E+00  0.00000000E+00
  0.00000000E+00  0.00000000E+00  0.00000000E+00
  0.00000000E+00  0.00000000E+00  0.00000000E+00
  0.00000000E+00  0.00000000E+00  0.00000000E+00
  0.00000000E+00  0.00000000E+00  0.00000000E+00
  0.00000000E+00  0.00000000E+00  0.00000000E+00
  0.00000000E+00  0.00000000E+00  0.00000000E+00
  0.00000000E+00  0.00000000E+00  0.00000000E+00
  0.00000000E+00  0.00000000E+00  0.00000000E+00
  0.00000000E+00  0.00000000E+00  0.00000000E+00
  0.00000000E+00  0.00000000E+00  0.00000000E+00
  0.00000000E+00  0.00000000E+00  0.00000000E+00
  0.00000000E+00  0.00000000E+00  0.00000000E+00
  0.00000000E+00  0.00000000E+00  0.00000000E+00
  0.00000000E+00  0.00000000E+00  0.00000000E+00
  0.00000000E+00  0.00000000E+00  0.00000000E+00
  0.00000000E+00  0.00000000E+00  0.00000000E+00
  0.00000000E+00  0.00000000E+00  0.00000000E+00
  0.00000000E+00  0.00000000E+00  0.00000000E+00
  0.00000000E+00  0.00000000E+00  0.00000000E+00
  0.00000000E+00  0.00000000E+00  0.00000000E+00
  0.00000000E+00  0.00000000E+00  0.00000000E+00
  0.00000000E+00  0.00000000E+00  0.00000000E+00
  0.00000000E+00  0.00000000E+00  0.00000000E+00
  0.00000000E+00  0.00000000E+00  0.00000000E+00
  0.00000000E+00  0.00000000E+00  0.00000000E+00
  0.00000000E+00  0.00000000E+00  0.00000000E+00
  0.00000000E+00  0.00000000E+00  0.00000000E+00
  0.00000000E+00  0.00000000E+00  0.00000000E+00
  0.00000000E+00  0.00000000E+00  0.00000000E+00
  0.00000000E+00  0.00000000E+00  0.00000000E+00
  0.00000000E+00  0.00000000E+00  0.00000000E+00
  0.00000000E+00  0.00000000E+00  0.00000000E+00
  0.00000000E+00  0.00000000E+00  0.00000000E+00
  0.00000000E+00  0.00000000E+00  0.00000000E+00
  0.00000000E+00  0.00000000E+00  0.00000000E+00
  0.00000000E+00  0.00000000E+00  0.00000000E+00
  0.00000000E+00  0.00000000E+00  0.00000000E+00
  0.00000000E+00  0.00000000E+00  0.00000000E+00
  0.00000000E+00  0.00000000E+00  0.00000000E+00
  0.00000000E+00  0.00000000E+00  0.00000000E+00
  0.00000000E+00  0.00000000E+00  0.00000000E+00
  0.00000000E+00  0.00000000E+00  0.00000000E+00
  0.00000000E+00  0.00000000E+00  0.00000000E+00
  0.00000000E+00  0.00000000E+00  0.00000000E+00
  0.00000000E+00  0.00000000E+00  0.00000000E+00
  0.00000000E+00  0.00000000E+00  0.00000000E+00
  0.00000000E+00  0.00000000E+00  0.00000000E+00
  0.00000000E+00  0.00000000E+00  0.00000000E+00
  0.00000000E+00  0.00000000E+00  0.00000000E+00
  0.00000000E+00  0.00000000E+00  0.00000000E+00
  0.00000000E+00  0.00000000E+00  0.00000000E+00
  0.00000000E+00  0.00000000E+00  0.00000000E+00
  0.00000000E+00  0.00000000E+00  0.00000000E+00
  0.00000000E+00  0.00000000E+00  0.00000000E+00
  0.00000000E+00  0.00000000E+00  0.00000000E+00
  0.00000000E+00  0.00000000E+00  0.00000000E+00
  0.00000000E+00  0.00000000E+00  0.00000000E+00
  0.00000000E+00  0.00000000E+00  0.00000000E+00
  0.00000000E+00  0.00000000E+00  0.00000000E+00
  0.00000000E+00  0.00000000E+00  0.00000000E+00
  0.00000000E+00  0.00000000E+00  0.00000000E+00
  0.00000000E+00  0.00000000E+00  0.00000000E+00
  0.00000000E+00  0.00000000E+00  0.00000000E+00
  0.00000000E+00  0.00000000E+00  0.00000000E+00
  0.00000000E+00  0.00000000E+00  0.00000000E+00
  0.00000000E+00  0.00000000E+00  0.00000000E+00
  0.00000000E+00  0.00000000E+00  0.00000000E+00
  0.00000000E+00  0.00000000E+00  0.00000000E+00
  0.00000000E+00  0.00000000E+00  0.00000000E+00
  0.00000000E+00  0.00000000E+00  0.00000000E+00
  0.00000000E+00  0.00000000E+00  0.00000000E+00
  0.00000000E+00  0.00000000E+00  0.00000000E+00
  0.00000000E+00  0.00000000E+00  0.00000000E+00
  0.00000000E+00  0.00000000E+00  0.00000000E+00
  0.00000000E+00  0.00000000E+00  0.00000000E+00
  0.00000000E+00  0.00000000E+00  0.00000000E+00
  0.00000000E+00  0.00000000E+00  0.00000000E+00
  0.00000000E+00  0.00000000E+00  0.00000000E+00
  0.00000000E+00  0.00000000E+00  0.00000000E+00
  0.00000000E+00  0.00000000E+00  0.00000000E+00
  0.00000000E+00  0.00000000E+00  0.00000000E+00
  0.00000000E+00  0.00000000E+00  0.00000000E+00
  0.00000000E+00  0.00000000E+00  0.00000000E+00
  0.00000000E+00  0.00000000E+00  0.00000000E+00
  0.00000000E+00  0.00000000E+00  0.00000000E+00
  0.00000000E+00  0.00000000E+00  0.00000000E+00
  0.00000000E+00  0.00000000E+00  0.00000000E+00
  0.00000000E+00  0.00000000E+00  0.00000000E+00
  0.00000000E+00  0.00000000E+00  0.00000000E+00
  0.00000000E+00  0.00000000E+00  0.00000000E+00
  0.00000000E+00  0.00000000E+00  0.00000000E+00
  0.00000000E+00  0.00000000E+00  0.00000000E+00
  0.00000000E+00  0.00000000E+00  0.00000000E+00
  0.00000000E+00  0.00000000E+00  0.00000000E+00
  0.00000000E+00  0.00000000E+00  0.00000000E+00
  0.00000000E+00  0.00000000E+00  0.00000000E+00
  0.00000000E+00  0.00000000E+00  0.00000000E+00
  0.00000000E+00  0.00000000E+00  0.00000000E+00
  0.00000000E+00  0.00000000E+00  0.00000000E+00
  0.00000000E+00  0.00000000E+00  0.00000000E+00
  0.00000000E+00  0.00000000E+00  0.00000000E+00
  0.00000000E+00  0.00000000E+00  0.00000000E+00
  0.00000000E+00  0.00000000E+00  0.00000000E+00
  0.00000000E+00  0.00000000E+00  0.00000000E+00
  0.00000000E+00  0.00000000E+00  0.00000000E+00
  0.00000000E+00  0.00000000E+00  0.00000000E+00
  0.00000000E+00  0.00000000E+00  0.00000000E+00
  0.00000000E+00  0.00000000E+00  0.00000000E+00
  0.00000000E+00  0.00000000E+00  0.00000000E+00
  0.00000000E+00  0.00000000E+00  0.00000000E+00
  0.00000000E+00  0.00000000E+00  0.00000000E+00
  0.00000000E+00  0.00000000E+00  0.00000000E+00
  0.00000000E+00  0.00000000E+00  0.00000000E+00
  0.00000000E+00  0.00000000E+00  0.00000000E+00
  0.00000000E+00  0.00000000E+00  0.00000000E+00
  0.00000000E+00  0.00000000E+00  0.00000000E+00
  0.00000000E+00  0.00000000E+00  0.00000000E+00
  0.00000000E+00  0.00000000E+00  0.00000000E+00
  0.00000000E+00  0.00000000E+00  0.00000000E+00
  0.00000000E+00  0.00000000E+00  0.00000000E+00
  0.00000000E+00  0.00000000E+00  0.00000000E+00
  0.00000000E+00  0.00000000E+00  0.00000000E+00
  0.00000000E+00  0.00000000E+00  0.00000000E+00
  0.00000000E+00  0.00000000E+00  0.00000000E+00
  0.00000000E+00  0.00000000E+00  0.00000000E+00
