Ta  N Co Cu                             
   1.00000000000000     
    18.1096308199999996    0.0000000000000000    0.0000000000000000
     0.0000000000000000   23.3551997799999995    0.0000000000000000
     0.0000000000000000    0.0000000000000000   30.4818171199999988
   Ta   N    Co   Cu
   216   240    24     2
Direct
  0.0007270889972020  0.9988605735760459  0.1980992975034681
  0.3342503264738923  0.0613205447739489  0.2034706490574649
  0.1668869164005926  0.0613182035973523  0.2032015323581575
  0.2505485802634411  0.1240301221408160  0.2791147269835506
  0.0835186630633586  0.0613996838171786  0.2844888584085581
  0.4169858561598048  0.0615651107542305  0.2850705670033733
  0.0002201472069743  0.1236030493030356  0.3694733317234693
  0.3314629930174959  0.0618917789205184  0.3702915039905577
  0.1690917220460619  0.0616861259438011  0.3697408444757073
  0.2500280651333071  0.1247021877742114  0.4644555848814989
  0.0844837396209570  0.0612264960032647  0.4555119819748441
  0.4153252743677456  0.0614760993745165  0.4559292947965616
  0.0054324883802437  0.1313033286551288  0.5415532887624863
  0.3338372011490804  0.0736880733259966  0.5587838393008298
  0.1672125572157555  0.0746215864511441  0.5597232343481409
  0.0009068918035169  0.1242111302171551  0.1979691564117232
  0.3351013323386880  0.1866301575550935  0.2033378392473608
  0.1662566990319263  0.1865474428846454  0.2030527046179671
  0.2506647838353118  0.2490149536187971  0.2789368241062249
  0.0835030822785541  0.1863394388136470  0.2844258920889970
  0.4170361078879949  0.1865057691637375  0.2851687769705720
  0.9999341958428616  0.2486512363870688  0.3689405931773564
  0.3317817883342329  0.1864137256882401  0.3702368501893361
  0.1688247817317148  0.1860833260510617  0.3691164176975903
  0.2507742069792087  0.2481121494199172  0.4603118965585011
  0.0823481788093403  0.1859613566051550  0.4523855072854985
  0.4171120355713498  0.1872353012665542  0.4548684408045673
  0.9943724063453061  0.2539554974178984  0.5395459784555356
  0.0009118625136324  0.2487343008171692  0.1980575058734928
  0.3341113654279511  0.3117610018271577  0.2036312033400236
  0.1672468995053009  0.3117312472079590  0.2033771728203888
  0.2506425538834236  0.3741117193546586  0.2792000959094949
  0.0837715822129113  0.3114800768390680  0.2845110484571975
  0.4172087988790665  0.3115755251973269  0.2850805884670180
  0.0006192835468823  0.3738229118808860  0.3694843343737659
  0.3320636560332915  0.3116084360080507  0.3699219782373859
  0.1689142087645976  0.3112448872917639  0.3693509881699271
  0.2479308186959415  0.3746686833705226  0.4629924758435564
  0.0829901343436390  0.3105819955419378  0.4540102894317357
  0.4183020349868301  0.3122998036398741  0.4539025103197503
  0.9542521644836555  0.3867878567640304  0.5393695651012749
  0.0011237795527279  0.3745437303243762  0.1983806460027893
  0.3349493227682885  0.4364825862108077  0.2038044220854900
  0.1666080898023381  0.4364599021529543  0.2035563502551057
  0.2504765060764171  0.9989898154127559  0.2788059785340735
  0.0838508718334054  0.4365632401679846  0.2851654739963152
  0.4176000777126774  0.4365566363038909  0.2856417830444329
  0.0006399684597937  0.9991963993321633  0.3693385637635132
  0.3323857242604404  0.4362521715758589  0.3705006104289197
  0.1692700957397406  0.4362545117300769  0.3704690997322757
  0.2499347255128797  0.0002829415045653  0.4603720878286168
  0.0841987585008397  0.4343119929914110  0.4549939560812888
  0.4174339844022867  0.4357296945081117  0.4552776937153382
  0.0027118755395534  0.0002930318434906  0.5432269105298602
  0.0011989688639318  0.4990521779448329  0.1986062247619103
  0.3351313225272179  0.5616663703394877  0.2039961245521980
  0.1665069933615229  0.5616225051663548  0.2037126508335234
  0.2506027708226242  0.6238185235827274  0.2795429681937520
  0.0838060041912172  0.5614133118223776  0.2852957458095489
  0.4176926811512089  0.5613623651929061  0.2858479499106608
  0.0015261132488504  0.6240178614894418  0.3700462651368355
  0.3321604161695362  0.5611273960430054  0.3702469690338503
  0.1696672943715143  0.5612778142263934  0.3704640477601941
  0.2512185005851109  0.6231312880108177  0.4622521436836919
  0.0848953055697024  0.5617712227531229  0.4553693048541376
  0.4169923195008991  0.5602873404109019  0.4543502189915145
  0.9962723935093081  0.6223109263759525  0.5409157409243548
  0.0009647085108995  0.6236885762573507  0.1986859605808533
  0.3345426742794970  0.6861341867476085  0.2039687226190381
  0.1670833500961137  0.6862573507681944  0.2037306103165477
  0.2506300319279831  0.7488585027886288  0.2792309728349665
  0.0836258536704619  0.6863973432715369  0.2850118648297197
  0.4176078050195073  0.6863549902719583  0.2855845037541016
  0.0004762509407641  0.7493182751141774  0.3697646683045690
  0.3317101665111508  0.6864777338579700  0.3699182848622158
  0.1692839916783200  0.6864560128598995  0.3698980772029472
  0.2511366383568898  0.7513844561809861  0.4614109752930773
  0.0835598284922483  0.6872448462481131  0.4539624566557023
  0.4171050891339974  0.6864830902013210  0.4532931495581209
  0.9986777343363968  0.7467621906342217  0.5412769719662052
  0.0007079419812754  0.7490184805740796  0.1985469970342990
  0.3351111513287677  0.8111735998020464  0.2036294905264029
  0.1663475007999509  0.8112915497312656  0.2033872094417148
  0.2505099448300570  0.8738579826854505  0.2789510840513429
  0.0834037988238734  0.8113751803846796  0.2847955485697611
  0.4174599716178520  0.8113734909556456  0.2853847543573735
  0.9998877920901705  0.8738109112286452  0.3697656197781569
  0.3319989443986415  0.8116114124035292  0.3699404583813433
  0.1688893593946261  0.8114874685555336  0.3694369949348371
  0.2506218428541445  0.8733668574736058  0.4606148230966767
  0.0839005542385252  0.8123216609797907  0.4542223938519854
  0.4166202662294722  0.8122511248620938  0.4555157556380180
  0.0000298452452867  0.8718281411821138  0.5411290788581908
  0.0006827989565679  0.8734616748938748  0.1983017777303218
  0.3342812787415497  0.9364275306576175  0.2035263599524058
  0.1668980247760672  0.9364277657494213  0.2032892009520211
  0.2506644175646215  0.4989867262296031  0.2796863330319042
  0.0836344728080931  0.9363855233022420  0.2844955879944280
  0.4170466538679349  0.9364429242369994  0.2849813236148648
  0.0018816385726055  0.4990354266738635  0.3701666010635378
  0.3316676848165940  0.9366139363586754  0.3695981068342888
  0.1688798981370994  0.9365136235926670  0.3692373596475775
  0.2501829855041606  0.4996363906090409  0.4628672251024213
  0.0827588242192334  0.9367955901278577  0.4525739514533740
  0.4176440199164091  0.9370737421951745  0.4529421190765248
  0.0380998923282476  0.4912716837428519  0.5407975954399333
  0.3458171056075585  0.9369361632798245  0.5450187899935273
  0.1545496187044506  0.9358262405307656  0.5450904659668510
  0.4998574106963360  0.9988907246279624  0.1984171420905270
  0.8337706050567135  0.0613110928881611  0.2029374318355863
  0.6659987702507806  0.0614011291546532  0.2031771810136718
  0.7500031124098925  0.1238738400073132  0.2782201453586595
  0.5827110441427905  0.0614725963439398  0.2845328326422347
  0.9175533102212228  0.0613742406380240  0.2840027752235983
  0.4997055180321723  0.1240707215234806  0.3703123414317204
  0.8314377809850413  0.0611352716181202  0.3684319154810538
  0.6688683039760051  0.0612709306759598  0.3687662234014368
  0.7502931762427991  0.1250261811246887  0.4588233368210339
  0.5831295173889472  0.0610548431874918  0.4533348472479446
  0.9170994863375483  0.0606528799771766  0.4527690763567236
  0.4973979481528019  0.1289922314110612  0.5417821514951839
  0.8403611548511662  0.0652002994020719  0.5458304964168121
  0.6613762700418135  0.0660728072833905  0.5461727663718818
  0.4995972746114603  0.1242547096645268  0.1983443954465187
  0.8343401295526576  0.1864360230107636  0.2026309582666244
  0.6653877035003362  0.1865407853218244  0.2028939474365714
  0.7499904278062033  0.2489578181982495  0.2781640785682313
  0.5827342503188859  0.1864580653372485  0.2845944774631448
  0.9175398997214472  0.1863786723021192  0.2839871952816537
  0.5001964734011182  0.2488414999688047  0.3698852119368183
  0.8315737605066431  0.1861377020392041  0.3684004463500443
  0.6685534952852237  0.1862931645048533  0.3687751841289639
  0.7504941121269795  0.2475432374628497  0.4591152104152698
  0.5847428981245102  0.1861347332398111  0.4543767764412863
  0.9153229415464708  0.1854836555422779  0.4536146839428454
  0.5041645379753064  0.2504077093031256  0.5415550438773380
  0.4997507162907695  0.2487667729069614  0.1984146053531930
  0.8335017837775069  0.3117547733088202  0.2029730263664007
  0.6664439397869941  0.3116668106933105  0.2033151684239201
  0.7498528762647823  0.3741475740858391  0.2785387617566712
  0.5831596464041198  0.3115781406649134  0.2846231188259907
  0.9173860341790174  0.3114987276320917  0.2839725614747195
  0.5010960507147075  0.3744411337742406  0.3704472836629620
  0.8311198700630769  0.3113917335430472  0.3683162899704655
  0.6688032265004438  0.3116510546624411  0.3688349503314399
  0.7530523796280235  0.3745597340494982  0.4615901259114565
  0.5849059032866037  0.3113226480787432  0.4524616718298446
  0.9158457886296887  0.3108264208840055  0.4516385797130269
  0.5178016900002049  0.3727400377580778  0.5416131131248036
  0.4999954245738536  0.3745976361606367  0.1987593107886951
  0.8341313512276045  0.4366248049293660  0.2031468162568899
  0.6657397542154371  0.4365656340918989  0.2035107821829882
  0.7500364637297920  0.9988465737522603  0.2784698851128127
  0.5832379015105076  0.4366788593111224  0.2853523392642856
  0.9177546446574212  0.4365879160380004  0.2843873277904336
  0.4997248004420811  0.9994057524415751  0.3698502817677820
  0.8315299418428097  0.4366496612546413  0.3682993948340894
  0.6687617759931257  0.4367495940885107  0.3700514135622086
  0.7505842417478803  0.9990155113487234  0.4618710036847489
  0.5900931261997258  0.4364332814192053  0.4573093910852180
  0.9159395573603106  0.4361534347171556  0.4518571651157828
  0.4994579413097711  0.0012239936269367  0.5435596853754205
  0.5002356462191386  0.4991863964987004  0.1991933327514701
  0.8340558566351532  0.5616816228193926  0.2034942794554553
  0.6655412514533410  0.5617576737097281  0.2038568466933199
  0.7494704159131516  0.6240807344827317  0.2792646904036644
  0.5832699522632936  0.5615050156451886  0.2859706426315896
  0.9176216952044669  0.5615048496020663  0.2845272951883402
  0.5009334699375074  0.6235888972521835  0.3713299593563022
  0.8317970872311946  0.5618414707406174  0.3689745548871386
  0.6678303494019602  0.5616565667541735  0.3714285949786529
  0.7467689072137915  0.6205804754684081  0.4622667116800443
  0.5869525787667840  0.5625443364868588  0.4600960614606819
  0.9155243563150464  0.5622613940937029  0.4539641195422348
  0.4241679987087537  0.6290301827839642  0.5415696386640505
  0.5003776696123765  0.6236671835118557  0.1993043699456720
  0.8335121770902916  0.6864331390784457  0.2036150843337765
  0.6660133321186521  0.6864374512740170  0.2039764806913098
  0.7496387959849926  0.7490150402149212  0.2791679974578827
  0.5834301918632860  0.6864247042206557  0.2857198016894742
  0.9174580982235483  0.6865054212823836  0.2845080191090901
  0.5004262039836362  0.7492894297909274  0.3708738699202385
  0.8316569184565950  0.6867400001626720  0.3686763994249134
  0.6679721453896406  0.6863596868297037  0.3708815208763667
  0.7494391344531408  0.7500651885565546  0.4609227781768439
  0.5830592198498650  0.6861192437643027  0.4551595918473836
  0.9173294157091192  0.6873901298788212  0.4519111080368532
  0.5000032890450257  0.7497911117497793  0.5457772882228369
  0.5002904472880232  0.7489816868896639  0.1990571382782136
  0.8341258522500183  0.8113466891803398  0.2032296354055632
  0.6655095751425577  0.8113047891827776  0.2034994225874911
  0.7499923771260555  0.8739143099854232  0.2788256069513650
  0.5830921117048575  0.8114018194461536  0.2853546736356947
  0.9174868773382840  0.8114893919434891  0.2845296404169559
  0.5006443817962634  0.8738663674616021  0.3703986898621139
  0.8316074648566811  0.8116032964218505  0.3692242697927171
  0.6683677747446239  0.8114422889593484  0.3701379312144297
  0.7505619932545216  0.8726814612983489  0.4598116130336152
  0.5844421100996868  0.8117900921767855  0.4557706788779967
  0.9156520550775937  0.8119707771035110  0.4547386549118499
  0.5033960681847773  0.8762024993362587  0.5414601871394069
  0.5000847620417446  0.8733749078183948  0.1987167161140135
  0.8337645822969932  0.9363614427498774  0.2031951140444832
  0.6660551091509532  0.9363179751878477  0.2034159921670309
  0.7496117946180831  0.4990330619740320  0.2790739167119085
  0.5829633668742815  0.9364055298847731  0.2848080334426797
  0.9175006065320019  0.9363959569522251  0.2842705142956135
  0.5021989466250716  0.4988005290661235  0.3716036452780926
  0.8315696361909630  0.9366546814227519  0.3690339753731067
  0.6688306504964672  0.9366741892335142  0.3693743444600841
  0.7525549298941883  0.5000346270688922  0.4585945309445734
  0.5829820558936873  0.9378041348991744  0.4539239095671874
  0.9173984603315120  0.9374280375858817  0.4535776210118811
  0.4785177781299410  0.5007250374715539  0.5478468906119360
  0.8413399087695268  0.9331190381784538  0.5467435465042598
  0.6622031407231432  0.9354937819019540  0.5462247167323824
  0.4054798531473551  0.9989756805361480  0.2332432449946751
  0.2505897683171483  0.9988696404205371  0.1983507490985374
  0.0953297480283339  0.9989058935867234  0.2327256219994922
  0.1556822671055826  0.1236995204800451  0.3166500091437356
  0.0003624310552155  0.1238017970968102  0.3028955658855850
  0.3449365514944773  0.1239846425812416  0.3173479978171159
  0.4010028323301569  0.1239102089006181  0.4030743683320139
  0.2500823019642340  0.1243069521901248  0.3922111160717066
  0.0989386444000502  0.1228735330170423  0.4018564167978056
  0.1426991138310996  0.1257588438547188  0.4881781235540714
  0.9988609434780145  0.1236721482809457  0.4730765810326645
  0.3570389639286091  0.1249220425420674  0.4891768537338450
  0.4041582232243286  0.1362076709054492  0.5740580052453481
  0.2510553863130767  0.0794272776272038  0.5975853849172381
  0.0986191635826472  0.1386470959642310  0.5739026051372349
  0.4053718684228613  0.1240201475252931  0.2334828621335561
  0.2506206623656695  0.1242018443816733  0.2012397449337229
  0.0953576682320403  0.1238954111602695  0.2328288226036292
  0.1559776516121474  0.2488605454054920  0.3163415570646393
  0.0003752771447623  0.2488879963370252  0.3025328886868337
  0.3449342217611786  0.2490337553041186  0.3170336838404353
  0.4015680586359949  0.2491500447353800  0.4022764140369048
  0.2503279244327175  0.2488451468674100  0.3906318475607762
  0.0985729916741676  0.2485883230300914  0.4005295657649839
  0.1474626517581825  0.2467615053779184  0.4820042721213085
  0.9981440953461629  0.2488705847698185  0.4727835971083323
  0.3533264204053808  0.2527616936188153  0.4870273829638521
  0.4014405139396260  0.2522883913746767  0.5655050484038355
  0.2496691007345859  0.1894770181830907  0.5141144034911704
  0.0989069640946738  0.2639269994404145  0.5575723153766390
  0.4054934738939124  0.2490700621585304  0.2334093611846413
  0.2506293273115148  0.2488410681583275  0.1999599791515010
  0.0954513496118281  0.2489645026233163  0.2327783534404375
  0.1562034466401414  0.3740943504656897  0.3169918244799419
  0.0005433078560984  0.3739724372812887  0.3029949040173250
  0.3449049606610188  0.3741355405504052  0.3173808783476062
  0.4018536296666753  0.3743743848704071  0.4026827286841126
  0.2502136264377341  0.3739109297522134  0.3924953181086153
  0.0994667608040629  0.3732852636449948  0.4019384307746563
  0.1445331428653844  0.3677423058686458  0.4884699371322228
  0.9962603681587865  0.3742322170149706  0.4713102222387349
  0.3539262052308345  0.3731846556194256  0.4894097872623604
  0.4387852527309448  0.4228947342535463  0.5617357734482553
  0.2487321381984771  0.4365588221783767  0.5128578711513043
  0.0613784725004294  0.4115447376907042  0.5506093696741772
  0.4056820447093656  0.3742681651974635  0.2336351521457587
  0.2507111958421291  0.3743984099737858  0.1991785320141943
  0.0956197180326726  0.3742176167757947  0.2331681253621838
  0.1558590929164225  0.9992015303422122  0.3165546018229719
  0.0004700620298834  0.9988699212082466  0.3027887014508650
  0.3447112043639891  0.9993080103089085  0.3169716427167160
  0.4011513850158579  0.9997968252304048  0.4021498778486219
  0.2501555322209228  0.9991747797304313  0.3909048900518357
  0.0991238339782683  0.9996723134460694  0.4016846133109198
  0.1463438681888505  0.9948128357384007  0.4864095413243987
  0.0004828856525663  0.9997706932581778  0.4745901131306809
  0.3533899342826459  0.9952796338988961  0.4869118290626204
  0.3998971068500765  0.0050481239620410  0.5724451822846959
  0.2494390126487573  0.0617374259856547  0.5133790043384820
  0.1018255248360518  0.0052410665630873  0.5724763803446677
  0.4057345791943447  0.4990617928851577  0.2340919589929413
  0.2507670339454151  0.4991295205219686  0.2021565933180725
  0.0957269881050067  0.4990698643158780  0.2336274285089033
  0.1560053319506878  0.6238711179278909  0.3173641732064567
  0.0005469995582672  0.6239421535412717  0.3034970693774781
  0.3449044066356493  0.6238633142202232  0.3173550455290695
  0.4013094144312177  0.6235347280725492  0.4018424174565993
  0.2507138804564306  0.6238015664616228  0.3922989433765309
  0.1002636500381513  0.6241102037536734  0.4027972621901910
  0.1480838533241950  0.6280949553018758  0.4882591832815848
  0.0002815154733611  0.6233580614278083  0.4736354818425141
  0.3568141178944799  0.6239503301974523  0.4854399113408903
  0.3179199588544819  0.6481196886092988  0.5673299894912915
  0.2441187924872992  0.5641632550132911  0.5194779815294766
  0.0897688159806833  0.6431272960240904  0.5710532201675775
  0.4059452992777040  0.6238046531747159  0.2340121632514993
  0.2507526442008867  0.6237286248273151  0.2000342839545013
  0.0955574284083767  0.6238627045573679  0.2334636167136068
  0.1558491522594636  0.7488964060732854  0.3168846341056977
  0.0003976780062800  0.7490166441733166  0.3032874476704848
  0.3450639448342372  0.7489622407475025  0.3172343634588088
  0.4012146821365761  0.7500465125635287  0.4027376358229873
  0.2503738693909625  0.7493511808632860  0.3911283201524114
  0.0993451490463357  0.7495995086706486  0.4020604391147629
  0.1477148735871978  0.7492855097988453  0.4865611565329786
  0.0001737423021666  0.7501012407771270  0.4735048093679097
  0.3535835512452010  0.7491659718640378  0.4884169527038438
  0.3991800796896428  0.7641922344867922  0.5741447565172422
  0.2489431573397596  0.8129014854186636  0.5136823511901483
  0.1000546132454545  0.7569397875668287  0.5667384204036523
  0.4057587832722191  0.7487582770348880  0.2337937330961637
  0.2507666606633023  0.7489097032718064  0.2005814967042383
  0.0954257115603312  0.7488401242512381  0.2332002055638895
  0.1557907702459076  0.8738285918185511  0.3165480180759062
  0.0004125496235261  0.8739864455976232  0.3032305075461750
  0.3449759411662043  0.8739003861771124  0.3169606047261126
  0.4014561552056222  0.8736977794473546  0.4022363477249584
  0.2502184213237939  0.8738171692673973  0.3906932144017077
  0.0991925670790792  0.8736423706083443  0.4015468563665792
  0.1472693384890533  0.8778357560682437  0.4875159369041100
  0.9994024300980016  0.8743690666875423  0.4729548470314313
  0.3535472123698540  0.8778554879294589  0.4882619138686124
  0.4080681155646531  0.8773381076362128  0.5722113685840142
  0.2501617612820226  0.9377674483848111  0.5709451197785498
  0.0962238838454468  0.8730925087410242  0.5711735192711416
  0.4056148618971065  0.8737419457152669  0.2334887510219588
  0.2506997509193667  0.8735796064344328  0.2006913430574144
  0.0952371307736612  0.8737474363453686  0.2329578669655845
  0.1561036671776819  0.4988527943657317  0.3175335242268247
  0.0007100489822562  0.4990538666703443  0.3035855912271828
  0.3451632396316242  0.4986754098663297  0.3175378053177127
  0.4025505078026441  0.4980850051732162  0.4026313358572366
  0.2509701768704247  0.4987758909304674  0.3919691370543532
  0.1006692947631365  0.4985973493992972  0.4030465447709872
  0.1392041784451905  0.4963871086406471  0.4891073071510164
  0.0023579403029714  0.4985728991315241  0.4727493047851823
  0.3564270249398476  0.4962653809153252  0.4871871222301536
  0.4065819817320175  0.5560737369720385  0.5721866543008289
  0.2920171835912910  0.4911195686083332  0.5733210506565882
  0.1210878936938400  0.5249805932984373  0.5764467388745587
  0.9057549550732844  0.9988429738572293  0.2323045060258409
  0.7498365300531091  0.9988554195219237  0.1990462069026862
  0.5945300569576020  0.9988772951789784  0.2328652075856894
  0.6553184200535611  0.1238593099255141  0.3161714344169582
  0.5000288255066252  0.1239984099404978  0.3036808806088516
  0.8450272860570180  0.1237471666935193  0.3157807843308760
  0.9006083226984245  0.1235174587036170  0.4012506151796273
  0.7501325104622580  0.1237384644953181  0.3891379081503601
  0.5994635684659926  0.1238727712619436  0.4018575132197952
  0.6489836502624868  0.1201930138403711  0.4877677409074721
  0.5009456901782841  0.1240878701377994  0.4734315124487978
  0.8515603538569678  0.1197058866615848  0.4876342939996832
  0.9092263230692126  0.1261743762202485  0.5693352245943473
  0.7513489665947475  0.0889520469004523  0.5757130185077770
  0.5938438285251664  0.1273535850274357  0.5700266316922225
  0.9057830807179457  0.1238819763843466  0.2322233663247957
  0.7498960403684336  0.1241051105349271  0.1999725670234938
  0.5943832929825774  0.1239878279997484  0.2328332353288403
  0.6554553766808127  0.2488495449466797  0.3161018501062856
  0.5001481167440645  0.2490033608261157  0.3034155999166046
  0.8449476280968824  0.2487301667518622  0.3156328572887261
  0.9006490706057733  0.2478921277296848  0.4006480747902756
  0.7499746344903642  0.2485848971178513  0.3893047834116388
  0.5994244229980126  0.2481288874380212  0.4014122296437179
  0.6487620145543502  0.2497772340379001  0.4859150926563984
  0.5016625938558690  0.2489731143842278  0.4738355753059551
  0.8522257627501162  0.2485613428360907  0.4853715996956609
  0.8915093820774658  0.2463666344689344  0.5651417128082841
  0.7502227403517807  0.1866270456705479  0.5110426748478787
  0.6078593304640236  0.2470397654357939  0.5650805651677260
  0.9056212224654416  0.2489648502451161  0.2321391860122048
  0.7499974639418951  0.2487970260127526  0.1994685041885944
  0.5946079132971036  0.2489988478240761  0.2328199790878287
  0.6555367600581832  0.3742561374619910  0.3166651119286641
  0.5004205507131019  0.3740462089420333  0.3039006148836165
  0.8448310673632733  0.3740610677741358  0.3156974761285483
  0.9003653540022682  0.3738869204129358  0.4001328348229833
  0.7504345284877374  0.3741686250153862  0.3912182431075735
  0.6002494846483941  0.3747546600535614  0.4020093256643236
  0.6490100432235906  0.3700896445716779  0.4859397917404777
  0.5038674661263940  0.3753050635001287  0.4743536576102940
  0.8582893796355506  0.3720360828327216  0.4871262616749235
  0.8682373326541679  0.3644970003149126  0.5747952217092092
  0.7577882736866925  0.4276282382416170  0.5231765642926476
  0.6147956308385574  0.3705337522951737  0.5729539190507680
  0.9058046640345552  0.3741977225447854  0.2323080645218525
  0.7499485281808518  0.3743966407384889  0.1988214340324319
  0.5947924017847086  0.3743210488564941  0.2331793658779588
  0.6552294953611053  0.9988480109624831  0.3163282170301471
  0.5000026398859703  0.9989889681669126  0.3033527556689180
  0.8451691560426937  0.9987880389022692  0.3159662348883217
  0.9015375885427801  0.9989079145616415  0.4014045888640894
  0.7502368432058475  0.9990117510871173  0.3899857687612283
  0.5989027914616827  0.9992572474845929  0.4017829320792998
  0.6456693865755696  0.9996196820142487  0.4875420639867230
  0.4997128886767328  0.0000466376000432  0.4747331307210558
  0.8555338431376569  0.9992086054176141  0.4874012770364118
  0.9064157977244207  0.9998092082377710  0.5722586644449166
  0.7511596966191547  0.9998588755923734  0.5350629570766756
  0.5964561130130051  0.0008469297872651  0.5727193137454520
  0.9060280206183293  0.4991089656029857  0.2327300853153957
  0.7498356321855866  0.4991975944282174  0.2012989752023273
  0.5949009190944778  0.4992098682878634  0.2339380083530997
  0.6553419879140563  0.6238800140248344  0.3180722781470706
  0.5005206961994730  0.6239319178610145  0.3046545918335539
  0.8445808474018222  0.6241124407375906  0.3162798017260187
  0.9017427747240703  0.6240557173784680  0.4006527457589399
  0.7501314147415670  0.6241344430983133  0.3922329202134094
  0.5992188155044644  0.6228608897579733  0.4047492606077014
  0.6452227558520889  0.6271443663220495  0.4917218680215925
  0.4948820286481919  0.6231421859799795  0.4765154296784004
  0.8501773443974798  0.6301222523912386  0.4825255492695959
  0.8943938587900035  0.6097149669634021  0.5606433812234926
  0.7640013191491306  0.5558649924106334  0.5182502398540123
  0.5200581833548270  0.6688203433078428  0.5619165763368130
  0.9058584492363266  0.6239848275910163  0.2327722014154077
  0.7498392729823280  0.6238656595065635  0.1998775461718836
  0.5949673096469255  0.6238848990476527  0.2340834349659389
  0.6553286298393033  0.7490079833807570  0.3175212253515198
  0.5003814103223476  0.7489391675923684  0.3042770684386511
  0.8448078857746069  0.7491972720947899  0.3163194461852612
  0.9011692653858745  0.7502068561110775  0.4014993695159035
  0.7502076184753719  0.7490016903310348  0.3908926466873908
  0.5989690834969039  0.7497960882874395  0.4034564103408016
  0.6480084602797689  0.7471197348269172  0.4881703872425476
  0.4994583509809729  0.7491767016711322  0.4765577277359299
  0.8520421180088178  0.7466925702995724  0.4866219007902757
  0.8968115629895692  0.7450694690461077  0.5648494657378293
  0.7502069750136684  0.8111509026419483  0.5121269841966267
  0.6053082506114151  0.7560457458214600  0.5665534800934040
  0.9056738107107734  0.7489493989056371  0.2328126579897756
  0.7498395118222092  0.7490478940037804  0.2002516687921982
  0.5948837746867071  0.7488454421799773  0.2338350871171144
  0.6554639102697095  0.8738812057902337  0.3169843245656381
  0.5002195614367437  0.8740055490660552  0.3038853776635406
  0.8449749783498888  0.8740038355646149  0.3163894194556676
  0.9007754259952279  0.8741340761706695  0.4020422447902590
  0.7502167367471415  0.8739870207655258  0.3900125728613943
  0.5996203062238692  0.8741562822199853  0.4027414127467210
  0.6491720729789563  0.8786392514577344  0.4885236558573283
  0.5012411746026402  0.8747625428469448  0.4733958549813693
  0.8519285706861552  0.8776064779797750  0.4885815798059454
  0.9055169630476598  0.8699441857158519  0.5711040608587226
  0.7514596975634120  0.9109667562554904  0.5760224898934396
  0.5975533991534761  0.8727091076080029  0.5715093926320591
  0.9056795189240248  0.8738346023367143  0.2326735008165173
  0.7498617782653199  0.8736703085366102  0.2002056294904833
  0.5947214027477230  0.8737793734594277  0.2333781323963819
  0.6552794065885550  0.4993424005911677  0.3177002476797881
  0.5006130304448391  0.4989788755828783  0.3047739807609844
  0.8449637988468623  0.4992965929948525  0.3159729116309933
  0.9018687333737390  0.4996989785418435  0.4004226988768878
  0.7507753446454188  0.4992501214264919  0.3893295582759464
  0.6007117850553314  0.4994035661981400  0.4049963997197352
  0.6510869874717358  0.4988694235284186  0.4900630966030377
  0.5022926490187487  0.4991771409480776  0.4786678041099606
  0.8561432299926608  0.4989114553575575  0.4827581166146118
  0.9286658397067242  0.4710921486154547  0.5546856036598982
  0.7443923267660466  0.4577114358863312  0.5956359050023892
  0.5646257540445987  0.5213762710183829  0.5794422528931307
  0.3623368307469477  0.1927701246622320  0.5339864801481014
  0.1365837481594667  0.1977232468689820  0.5318609470355042
  0.3755128253829270  0.3116820676088352  0.5329945198398747
  0.0937498117454609  0.3376636860439604  0.5412791511970667
  0.3407431996274610  0.4404839332872257  0.5383478666013204
  0.2021589302263536  0.4933503624257796  0.5457031563550601
  0.3072470079136949  0.5678451845519916  0.5691824804703316
  0.1478950781160009  0.5866703554480281  0.5458548341308358
  0.3406073217887595  0.7146900517005150  0.5475002756285505
  0.1312120118940854  0.6950228326732386  0.5357280095886239
  0.3655578751823683  0.8164682766693616  0.5349145678232503
  0.1381491433605717  0.8122555715025683  0.5328648730736987
  0.8614487031781195  0.1866113767932447  0.5323670503005360
  0.6391995251036491  0.1870837561103471  0.5324619695687218
  0.8564492065381586  0.3061043909338679  0.5334781386870588
  0.6372670171508403  0.3076403199257811  0.5326469796721085
  0.8287576281858620  0.4370873496550232  0.5676531503021849
  0.7104738470176599  0.3940499289423798  0.5679511935749559
  0.8643090430927600  0.5388083144964213  0.5373921380178288
  0.7169855914758827  0.4942197303973330  0.5427298970719932
  0.8721152745193805  0.6806337002679115  0.5321051009185993
  0.6205152346336575  0.6916642928330248  0.5349767467661479
  0.8629752452556687  0.8071624372245907  0.5331314317688296
  0.6400536765169633  0.8126567265145752  0.5331871656739793
  0.5622048487291451  0.5991768552160934  0.5757884228645764
  0.6079737917773542  0.4518267016448050  0.5866496931362519
 
  0.00000000E+00  0.00000000E+00  0.00000000E+00
  0.00000000E+00  0.00000000E+00  0.00000000E+00
  0.00000000E+00  0.00000000E+00  0.00000000E+00
  0.00000000E+00  0.00000000E+00  0.00000000E+00
  0.00000000E+00  0.00000000E+00  0.00000000E+00