generated by phonopy                    
   1.00000000000000     
     7.6524312353927453    0.0015115591460594    0.0182853978949809
    -3.8246051919335247    6.6114300589657686    0.1452717324921391
     0.0311918076259100    0.2949015398031170   13.1513737661284242
   B    N    Al
    32    36     4
Direct
  0.1150068622010279  0.2435418692986800 -0.0104242948323588
  0.4570603273838606  0.2433705951220056 -0.0098552732803694
  0.7832237289131986  0.2383301810500920  0.0016837407060355
  0.1183735542108092  0.5688270157433057  0.0044243791863547
  0.4496494379930124  0.5707477635606648 -0.0075905344057863
  0.7784347164449095  0.5683603737275333  0.0058292535070922
  0.4521369576957014  0.8998419475213126  0.0013643284694287
  0.7761707226786450  0.8995140488331754  0.0020189631754926
  0.1116147454571387  0.2190993195608599  0.5018884244263185
  0.4490221181286831  0.2197292843171211  0.4982914303281639
  0.7892365792333726  0.2248264271197405  0.4837220742151719
  0.1116351037756924  0.5505945423762715  0.5019221367983566
  0.7842607180478310  0.5501526105229462  0.5026612705238052
  0.1141581053211159  0.8863009983891974  0.5017485623750906
  0.4492493463492034  0.8879565253820942  0.4986785179275822
  0.7842703156303237  0.8922649472499325  0.5029138616301992
  0.2256978821132341  0.1318146870401166  0.2403186832661048
  0.5544094671107194  0.4581665397961823  0.2482878238197138
  0.8956896855652903  0.1254299021971436  0.2453764837500123
  0.2256733821712477  0.4571638642280770  0.2354028663244853
  0.8958728088865197  0.4568517210901886  0.2468459341717656
  0.2260906348440988  0.7816753604137983  0.2410305080027675
  0.5541859143457676  0.7829227941585564  0.2488450162329248
  0.8853307477219520  0.7864258264026899  0.2411388011559716
  0.2067952916137714  0.7494717604927227  0.7569894430739129
  0.5495129379840981  0.0910641523829959  0.7548124590288010
  0.8757936370974985  0.0911067823264075  0.7540171770787616
  0.2022667776494648  0.4203623601384292  0.7471857850656877
  0.5525803361677435  0.4203474297176891  0.7479609754570372
  0.8781631948021440  0.4217918610675728  0.7411933047434618
  0.5476340755941749  0.7610216773435504  0.7486383968257325
  0.8768397389263468  0.7495468677750741  0.7570151377196637
  0.2343985421679271  0.1400353600932346 -0.0229326991547864
  0.5607312128130352  0.1259328120296607  0.0000438112484171
  0.8935848151865760  0.1258609619964159 -0.0003318419139907
  0.2274199530196849  0.4598462883689278 -0.0085596371865840
  0.5606641139452898  0.4594807852516410 -0.0070282608288492
  0.8939647952046773  0.4596503599960117  0.0048956404563927
  0.2396621356741267  0.7809648901461308  0.0172771573153629
  0.5602725595718544  0.7915798956048685 -0.0085653928423272
  0.8690567998655764  0.7803419197848716  0.0194717412988522
  0.2263012720916787  0.1085708868303751  0.5019588557254308
  0.5606784548924438  0.1115378580012649  0.4674387300183986
  0.8946559148611285  0.1109310924386089  0.4883043427359725
  0.2038276781230073  0.4300020596143946  0.5166863730732689
  0.5706875689177208  0.4253054874607750  0.5203926297486081
  0.8947203767330097  0.4437950350384834  0.4882097716352569
  0.2263684990253541  0.7760496436899527  0.5023168060656299
  0.5709130913786750  0.8014259780726846  0.5212325350309645
  0.8918149795605108  0.7749920742346756  0.5034241852733953
  0.1141054691470252  0.2357001145139447  0.2314371131348659
  0.4331807670432153  0.2429526860678738  0.2601179987976761
  0.8029907671751276  0.2434660703031800  0.2606961205562273
  0.1138925800941553  0.5665619630552801  0.2353667417523512
  0.4467077893635065  0.5674355505205555  0.2362089778321696
  0.7798058747667458  0.5664191900965008  0.2491385529892922
  0.1158657785464706  0.9034284320595327  0.2215934941576667
  0.4333030375654042  0.8751292066947419  0.2615258952872845
  0.7797774305266226  0.8995752332031853  0.2484781133224290
  0.0887904041357552  0.2091810509421110  0.7671912484074674
  0.4545851674008124  0.2092956210949333  0.7682924103473933
  0.7670899422808838  0.2000243011939141  0.7405023431035650
  0.0994246774887807  0.5338792274082961  0.7401118682091538
  0.4343396486215509  0.5337241601609989  0.7306535512405881
  0.7689134231577286  0.5337990938583701  0.7405479207199488
  0.0856194365115303  0.8375436539090809  0.7781518462809557
  0.4329190262406186  0.8655095990377737  0.7558927401410078
  0.7666885826313429  0.8655390052097851  0.7556800752103691
  0.1189623625829715  0.9092283771305025  0.0636734009781486
  0.5547998916118251  0.1169116838430090  0.3145216902858937
  0.4446868210885230  0.5465616729477891  0.5734354139750657
  0.2077885069285312  0.0832086817495390  0.8282120991036779
 
  0.00000000E+00  0.00000000E+00  0.00000000E+00
  0.00000000E+00  0.00000000E+00  0.00000000E+00
  0.00000000E+00  0.00000000E+00  0.00000000E+00
  0.00000000E+00  0.00000000E+00  0.00000000E+00
  0.00000000E+00  0.00000000E+00  0.00000000E+00
  0.00000000E+00  0.00000000E+00  0.00000000E+00
  0.00000000E+00  0.00000000E+00  0.00000000E+00
  0.00000000E+00  0.00000000E+00  0.00000000E+00
  0.00000000E+00  0.00000000E+00  0.00000000E+00
  0.00000000E+00  0.00000000E+00  0.00000000E+00
  0.00000000E+00  0.00000000E+00  0.00000000E+00
  0.00000000E+00  0.00000000E+00  0.00000000E+00
  0.00000000E+00  0.00000000E+00  0.00000000E+00
  0.00000000E+00  0.00000000E+00  0.00000000E+00
  0.00000000E+00  0.00000000E+00  0.00000000E+00
  0.00000000E+00  0.00000000E+00  0.00000000E+00
  0.00000000E+00  0.00000000E+00  0.00000000E+00
  0.00000000E+00  0.00000000E+00  0.00000000E+00
  0.00000000E+00  0.00000000E+00  0.00000000E+00
  0.00000000E+00  0.00000000E+00  0.00000000E+00
  0.00000000E+00  0.00000000E+00  0.00000000E+00
  0.00000000E+00  0.00000000E+00  0.00000000E+00
  0.00000000E+00  0.00000000E+00  0.00000000E+00
  0.00000000E+00  0.00000000E+00  0.00000000E+00
  0.00000000E+00  0.00000000E+00  0.00000000E+00
  0.00000000E+00  0.00000000E+00  0.00000000E+00
  0.00000000E+00  0.00000000E+00  0.00000000E+00
  0.00000000E+00  0.00000000E+00  0.00000000E+00
  0.00000000E+00  0.00000000E+00  0.00000000E+00
  0.00000000E+00  0.00000000E+00  0.00000000E+00
  0.00000000E+00  0.00000000E+00  0.00000000E+00
  0.00000000E+00  0.00000000E+00  0.00000000E+00
  0.00000000E+00  0.00000000E+00  0.00000000E+00
  0.00000000E+00  0.00000000E+00  0.00000000E+00
  0.00000000E+00  0.00000000E+00  0.00000000E+00
  0.00000000E+00  0.00000000E+00  0.00000000E+00
  0.00000000E+00  0.00000000E+00  0.00000000E+00
  0.00000000E+00  0.00000000E+00  0.00000000E+00
  0.00000000E+00  0.00000000E+00  0.00000000E+00
  0.00000000E+00  0.00000000E+00  0.00000000E+00
  0.00000000E+00  0.00000000E+00  0.00000000E+00
  0.00000000E+00  0.00000000E+00  0.00000000E+00
  0.00000000E+00  0.00000000E+00  0.00000000E+00
  0.00000000E+00  0.00000000E+00  0.00000000E+00
  0.00000000E+00  0.00000000E+00  0.00000000E+00
  0.00000000E+00  0.00000000E+00  0.00000000E+00
  0.00000000E+00  0.00000000E+00  0.00000000E+00
  0.00000000E+00  0.00000000E+00  0.00000000E+00
  0.00000000E+00  0.00000000E+00  0.00000000E+00
  0.00000000E+00  0.00000000E+00  0.00000000E+00
  0.00000000E+00  0.00000000E+00  0.00000000E+00
  0.00000000E+00  0.00000000E+00  0.00000000E+00
  0.00000000E+00  0.00000000E+00  0.00000000E+00
  0.00000000E+00  0.00000000E+00  0.00000000E+00
  0.00000000E+00  0.00000000E+00  0.00000000E+00
  0.00000000E+00  0.00000000E+00  0.00000000E+00
  0.00000000E+00  0.00000000E+00  0.00000000E+00
  0.00000000E+00  0.00000000E+00  0.00000000E+00
  0.00000000E+00  0.00000000E+00  0.00000000E+00
  0.00000000E+00  0.00000000E+00  0.00000000E+00
  0.00000000E+00  0.00000000E+00  0.00000000E+00
  0.00000000E+00  0.00000000E+00  0.00000000E+00
  0.00000000E+00  0.00000000E+00  0.00000000E+00
  0.00000000E+00  0.00000000E+00  0.00000000E+00
  0.00000000E+00  0.00000000E+00  0.00000000E+00
  0.00000000E+00  0.00000000E+00  0.00000000E+00
  0.00000000E+00  0.00000000E+00  0.00000000E+00
  0.00000000E+00  0.00000000E+00  0.00000000E+00
  0.00000000E+00  0.00000000E+00  0.00000000E+00
  0.00000000E+00  0.00000000E+00  0.00000000E+00
  0.00000000E+00  0.00000000E+00  0.00000000E+00
  0.00000000E+00  0.00000000E+00  0.00000000E+00
