Ta  N Ru Cu                             
   1.00000000000000     
     9.0548154099999998    0.0000000000000000    0.0000000000000000
     0.0000000000000000   11.6775998899999998    0.0000000000000000
     0.0000000000000000    0.0000000000000000   26.4818170799999990
   Ta   N    Ru   Cu
    60    60    32     2
Selective dynamics
Direct
  0.0000000000000000  0.0000000000000000  0.2258397498815228   F   F   F
  0.6670845899906297  0.1250000003211298  0.2339882671631202   F   F   F
  0.3329153514769843  0.1250000003211298  0.2339882671631202   F   F   F
  0.4999999994478088  0.2499999997859135  0.3208898207564346   F   F   F
  0.1650707596845180  0.1250000003211298  0.3267034403329916   F   F   F
  0.8349292403154820  0.1250000003211298  0.3267034403329916   F   F   F
  0.0009531583150548  0.2503981501895597  0.4254870834005493   T   T   T
  0.6649092588512616  0.1253999492783061  0.4239707890830350   T   T   T
  0.3352305750949260  0.1253964339735963  0.4239110658708196   T   T   T
  0.4978341994464145  0.2509210235025271  0.5232635153929641   T   T   T
  0.1673680301609444  0.1258991646600807  0.5234562386924522   T   T   T
  0.8339161700763450  0.1260145412129409  0.5227646952893716   T   T   T
  0.0044048782292091  0.2513460889749951  0.6224097142326159   T   T   T
  0.6647586921085148  0.1268087249297997  0.6206782526831174   T   T   T
  0.3287807346142547  0.1262615147061039  0.6245046019618676   T   T   T
  0.0000000000000000  0.2499999997859135  0.2258397498815228   F   F   F
  0.6670845899906297  0.3750000001070433  0.2339882671631202   F   F   F
  0.3329153514769843  0.3750000001070433  0.2339882671631202   F   F   F
  0.4999999994478088  0.5000000004281731  0.3208898207564346   F   F   F
  0.1650707596845180  0.3750000001070433  0.3267034403329916   F   F   F
  0.8349292403154820  0.3750000001070433  0.3267034403329916   F   F   F
  0.0008997378061907  0.5003779620719399  0.4254793651707323   T   T   T
  0.6650407816122486  0.3753575722020955  0.4239844226291667   T   T   T
  0.3352966133827739  0.3753383267111088  0.4239239955425225   T   T   T
  0.4978094767244532  0.5007677643919186  0.5232969353272474   T   T   T
  0.1672356115366152  0.3758646997503542  0.5234670481423770   T   T   T
  0.8339885281307199  0.3759487010098592  0.5228171606175954   T   T   T
  0.9994528867774447  0.5010084234455613  0.6235477450116477   T   T   T
  0.6651364910756636  0.3767889028731687  0.6205430697076638   T   T   T
  0.3294632491538564  0.3757352045887465  0.6236091708909299   T   T   T
  0.0000000000000000  0.5000000004281731  0.2258397498815228   F   F   F
  0.6670845899906297  0.6249999998929567  0.2339882671631202   F   F   F
  0.3329153514769843  0.6249999998929567  0.2339882671631202   F   F   F
  0.4999999994478088  0.7500000002140865  0.3208898207564346   F   F   F
  0.1650707596845180  0.6249999998929567  0.3267034403329916   F   F   F
  0.8349292403154820  0.6249999998929567  0.3267034403329916   F   F   F
  0.0009835305744947  0.7503097606951299  0.4254658364016756   T   T   T
  0.6649267219807524  0.6252981348820519  0.4239575789789114   T   T   T
  0.3352037663325071  0.6253076716806873  0.4239263294243694   T   T   T
  0.4977907137422744  0.7506356827775159  0.5230830610227865   T   T   T
  0.1672359445174846  0.6257479153903367  0.5234654773136397   T   T   T
  0.8339246805584934  0.6257840355170612  0.5227607410732890   T   T   T
  0.0042059961275698  0.7514685785959970  0.6220685979959847   T   T   T
  0.6646238888387269  0.6265416592931085  0.6206690190151468   T   T   T
  0.3287903983283836  0.6258944023263203  0.6245056934034267   T   T   T
  0.0000000000000000  0.7500000002140865  0.2258397498815228   F   F   F
  0.6670845899906297  0.8750000005352163  0.2339882671631202   F   F   F
  0.3329153514769843  0.8750000005352163  0.2339882671631202   F   F   F
  0.4999999994478088  0.0000000000000000  0.3208898207564346   F   F   F
  0.1650707596845180  0.8750000005352163  0.3267034403329916   F   F   F
  0.8349292403154820  0.8750000005352163  0.3267034403329916   F   F   F
  0.0009278917080764  0.0004936192581612  0.4254645373164693   T   T   T
  0.6649438217973256  0.8753361633419683  0.4239166916534759   T   T   T
  0.3352807006850814  0.8753296380243202  0.4238846703237702   T   T   T
  0.4976557672362088  0.0009655921553250  0.5231483249419482   T   T   T
  0.1671128721676457  0.8758325518065976  0.5232798158474041   T   T   T
  0.8339683969897543  0.8759327097759992  0.5225257638646159   T   T   T
  0.0005199652962845  0.0014081614211295  0.6230410257318987   T   T   T
  0.6652096995660284  0.8769236125819277  0.6196303110469513   T   T   T
  0.3299886043964063  0.8759007003603726  0.6231549640490123   T   T   T
  0.8141011533980276  0.0000000000000000  0.2671765160246267   F   F   F
  0.4999999994478088  0.0000000000000000  0.2273691263583544   F   F   F
  0.1858988466019724  0.0000000000000000  0.2671765160246267   F   F   F
  0.3088456122590841  0.2499999997859135  0.3635413069267344   F   F   F
  0.0000000000000000  0.2499999997859135  0.3485649890092901   F   F   F
  0.6911543877409159  0.2499999997859135  0.3635413069267344   F   F   F
  0.8026389815169244  0.2506325142922999  0.4626946974548645   T   T   T
  0.4999327476558985  0.2505183998214037  0.4456850527163441   T   T   T
  0.1988769723131699  0.2506709784175970  0.4632467235896756   T   T   T
  0.3023057325555712  0.2507335039570238  0.5630139075006749   T   T   T
  0.0007025615657440  0.2510270443018945  0.5439151868772782   T   T   T
  0.6955684222343372  0.2510371088345172  0.5604483547592460   T   T   T
  0.8054700060135702  0.2523874367198080  0.6554689983261588   T   T   T
  0.5025545241103937  0.2515874981187850  0.6436206818392488   T   T   T
  0.1982146810549344  0.2518398795731470  0.6606931553773119   T   T   T
  0.8141011533980276  0.2499999997859135  0.2671765160246267   F   F   F
  0.4999999994478088  0.2499999997859135  0.2273691263583544   F   F   F
  0.1858988466019724  0.2499999997859135  0.2671765160246267   F   F   F
  0.3088456122590841  0.5000000004281731  0.3635413069267344   F   F   F
  0.0000000000000000  0.5000000004281731  0.3485649890092901   F   F   F
  0.6911543877409159  0.5000000004281731  0.3635413069267344   F   F   F
  0.8026931583806635  0.5005418316458971  0.4627128002733852   T   T   T
  0.4999437406162937  0.5003998914221852  0.4457148457282396   T   T   T
  0.1986963797393293  0.5004551891298760  0.4632534028536812   T   T   T
  0.3019020785875847  0.5010573066750952  0.5626193682022693   T   T   T
  0.0002207116028494  0.5008988409098630  0.5445271091055204   T   T   T
  0.6959327242392974  0.5012626003049191  0.5605197158197430   T   T   T
  0.7997383921123392  0.5013521869536083  0.6585125615525591   T   T   T
  0.5002420148350352  0.5007192098230698  0.6404411949776233   T   T   T
  0.1978002074827496  0.5000803447039250  0.6596826839050682   T   T   T
  0.8141011533980276  0.5000000004281731  0.2671765160246267   F   F   F
  0.4999999994478088  0.5000000004281731  0.2273691263583544   F   F   F
  0.1858988466019724  0.5000000004281731  0.2671765160246267   F   F   F
  0.3088456122590841  0.7500000002140865  0.3635413069267344   F   F   F
  0.0000000000000000  0.7500000002140865  0.3485649890092901   F   F   F
  0.6911543877409159  0.7500000002140865  0.3635413069267344   F   F   F
  0.8026227990537144  0.7504817851700534  0.4625789516224471   T   T   T
  0.4998802803870479  0.7503774182445997  0.4455781775443039   T   T   T
  0.1988588747856779  0.7505044018311254  0.4631972595499462   T   T   T
  0.3021637871337045  0.7504788644904316  0.5628344463025560   T   T   T
  0.0005565432104872  0.7508866520976256  0.5436727735481520   T   T   T
  0.6955202060376716  0.7506044778769457  0.5599900708662050   T   T   T
  0.8043852725872397  0.7536179972467856  0.6545830310854088   T   T   T
  0.5021915524339526  0.7511494203196889  0.6426471780608251   T   T   T
  0.1983022159101826  0.7515632867930720  0.6601278781878429   T   T   T
  0.8141011533980276  0.7500000002140865  0.2671765160246267   F   F   F
  0.4999999994478088  0.7500000002140865  0.2273691263583544   F   F   F
  0.1858988466019724  0.7500000002140865  0.2671765160246267   F   F   F
  0.3088456122590841  0.0000000000000000  0.3635413069267344   F   F   F
  0.0000000000000000  0.0000000000000000  0.3485649890092901   F   F   F
  0.6911543877409159  0.0000000000000000  0.3635413069267344   F   F   F
  0.8027134948749040  0.0007353473674562  0.4625940584781244   T   T   T
  0.4998932764752343  0.0004413612084195  0.4456298191753343   T   T   T
  0.1987374477281386  0.0006271521307182  0.4631957471152943   T   T   T
  0.3018593485458033  0.0011013711508127  0.5624877972769212   T   T   T
  0.0002432223679031  0.0010357824817896  0.5441840328596735   T   T   T
  0.6958561353247723  0.0017512932081581  0.5601984828398978   T   T   T
  0.8004176056375685  0.0015884628798822  0.6574892231768694   T   T   T
  0.5006549756527285  0.0012313763217699  0.6399947102154778   T   T   T
  0.1985695856850593  0.9998738976084505  0.6596672707967441   T   T   T
  0.0943970649362032  0.0095702671257477  0.7311633324453827   T   T   T
  0.5687767855633278  0.9851632763404969  0.7134829196504759   T   T   T
  0.8495274281303204  0.1332751104539901  0.7120227063102299   T   T   T
  0.0961207044055701  0.5099457226430006  0.7315167257478513   T   T   T
  0.5691280554187695  0.4940045530251989  0.7145907195823803   T   T   T
  0.8508174290219372  0.6358465316333610  0.7115689676636601   T   T   T
  0.1051886922079882  0.2444928934239200  0.7333886606487241   T   T   T
  0.5548117380624971  0.2617270546266003  0.7212937529092091   T   T   T
  0.8448965227692420  0.3676167213809939  0.7143633822089827   T   T   T
  0.1075673046891159  0.7435345335526486  0.7324396746527803   T   T   T
  0.5520945104775372  0.7552477526599610  0.7200576804897038   T   T   T
  0.8476830517594588  0.8699743812290005  0.7128927421099684   T   T   T
  0.3286990568871817  0.8903469074280115  0.7374229198431717   T   T   T
  0.3478169186665831  0.6127346697737420  0.7448767309859432   T   T   T
  0.3289960935675176  0.3893444573185677  0.7387392394496086   T   T   T
  0.3478121558762738  0.1134728412063724  0.7426963600324422   T   T   T
  0.1424254885305663  0.8799035277390380  0.8062122694230344   T   T   T
  0.6598719141264017  0.8815486782091378  0.7935722330089472   T   T   T
  0.8937263368185336  0.0148270468178666  0.7964953198159140   T   T   T
  0.1387278650491847  0.3818863892001206  0.8074736091685569   T   T   T
  0.6602534888082201  0.3907408592629202  0.7958331748229096   T   T   T
  0.8943374146106483  0.5236723297270834  0.7961507874982311   T   T   T
  0.1492060362973952  0.1185374478304825  0.8103130127469479   T   T   T
  0.6383064351649249  0.1082767596839638  0.7888233366502222   T   T   T
  0.8912415612282535  0.2342093417388326  0.7967174871429027   T   T   T
  0.1460890329360041  0.6234056664485129  0.8108236166846984   T   T   T
  0.6379412883222029  0.6154064504542783  0.7909464717089705   T   T   T
  0.8907129507541869  0.7442026027570174  0.7944219653475389   T   T   T
  0.4198934271098381  0.7673619779239811  0.8078390993431322   T   T   T
  0.3983672348543455  0.4797047450950407  0.8196512298623211   T   T   T
  0.4202925270595960  0.2599064044713834  0.8083081047628956   T   T   T
  0.3978417816829791  0.9840141139987080  0.8186298705935563   T   T   T
  0.6615217739140934  0.2380903835675401  0.8644656553803710   T   T   T
  0.8709673858711215  0.3796560976120825  0.8667424210123325   T   T   T
 
  0.00000000E+00  0.00000000E+00  0.00000000E+00
  0.00000000E+00  0.00000000E+00  0.00000000E+00
  0.00000000E+00  0.00000000E+00  0.00000000E+00
  0.00000000E+00  0.00000000E+00  0.00000000E+00
  0.00000000E+00  0.00000000E+00  0.00000000E+00
  0.00000000E+00  0.00000000E+00  0.00000000E+00
  0.00000000E+00  0.00000000E+00  0.00000000E+00
  0.00000000E+00  0.00000000E+00  0.00000000E+00
  0.00000000E+00  0.00000000E+00  0.00000000E+00
  0.00000000E+00  0.00000000E+00  0.00000000E+00
  0.00000000E+00  0.00000000E+00  0.00000000E+00
  0.00000000E+00  0.00000000E+00  0.00000000E+00
  0.00000000E+00  0.00000000E+00  0.00000000E+00
  0.00000000E+00  0.00000000E+00  0.00000000E+00
  0.00000000E+00  0.00000000E+00  0.00000000E+00
  0.00000000E+00  0.00000000E+00  0.00000000E+00
  0.00000000E+00  0.00000000E+00  0.00000000E+00
  0.00000000E+00  0.00000000E+00  0.00000000E+00
  0.00000000E+00  0.00000000E+00  0.00000000E+00
  0.00000000E+00  0.00000000E+00  0.00000000E+00
  0.00000000E+00  0.00000000E+00  0.00000000E+00
  0.00000000E+00  0.00000000E+00  0.00000000E+00
  0.00000000E+00  0.00000000E+00  0.00000000E+00
  0.00000000E+00  0.00000000E+00  0.00000000E+00
  0.00000000E+00  0.00000000E+00  0.00000000E+00
  0.00000000E+00  0.00000000E+00  0.00000000E+00
  0.00000000E+00  0.00000000E+00  0.00000000E+00
  0.00000000E+00  0.00000000E+00  0.00000000E+00
  0.00000000E+00  0.00000000E+00  0.00000000E+00
  0.00000000E+00  0.00000000E+00  0.00000000E+00
  0.00000000E+00  0.00000000E+00  0.00000000E+00
  0.00000000E+00  0.00000000E+00  0.00000000E+00
  0.00000000E+00  0.00000000E+00  0.00000000E+00
  0.00000000E+00  0.00000000E+00  0.00000000E+00
  0.00000000E+00  0.00000000E+00  0.00000000E+00
  0.00000000E+00  0.00000000E+00  0.00000000E+00
  0.00000000E+00  0.00000000E+00  0.00000000E+00
  0.00000000E+00  0.00000000E+00  0.00000000E+00
  0.00000000E+00  0.00000000E+00  0.00000000E+00
  0.00000000E+00  0.00000000E+00  0.00000000E+00
  0.00000000E+00  0.00000000E+00  0.00000000E+00
  0.00000000E+00  0.00000000E+00  0.00000000E+00
  0.00000000E+00  0.00000000E+00  0.00000000E+00
  0.00000000E+00  0.00000000E+00  0.00000000E+00
  0.00000000E+00  0.00000000E+00  0.00000000E+00
  0.00000000E+00  0.00000000E+00  0.00000000E+00
  0.00000000E+00  0.00000000E+00  0.00000000E+00
  0.00000000E+00  0.00000000E+00  0.00000000E+00
  0.00000000E+00  0.00000000E+00  0.00000000E+00
  0.00000000E+00  0.00000000E+00  0.00000000E+00
  0.00000000E+00  0.00000000E+00  0.00000000E+00
  0.00000000E+00  0.00000000E+00  0.00000000E+00
  0.00000000E+00  0.00000000E+00  0.00000000E+00
  0.00000000E+00  0.00000000E+00  0.00000000E+00
  0.00000000E+00  0.00000000E+00  0.00000000E+00
  0.00000000E+00  0.00000000E+00  0.00000000E+00
  0.00000000E+00  0.00000000E+00  0.00000000E+00
  0.00000000E+00  0.00000000E+00  0.00000000E+00
  0.00000000E+00  0.00000000E+00  0.00000000E+00
  0.00000000E+00  0.00000000E+00  0.00000000E+00
  0.00000000E+00  0.00000000E+00  0.00000000E+00
  0.00000000E+00  0.00000000E+00  0.00000000E+00
  0.00000000E+00  0.00000000E+00  0.00000000E+00
  0.00000000E+00  0.00000000E+00  0.00000000E+00
  0.00000000E+00  0.00000000E+00  0.00000000E+00
  0.00000000E+00  0.00000000E+00  0.00000000E+00
  0.00000000E+00  0.00000000E+00  0.00000000E+00
  0.00000000E+00  0.00000000E+00  0.00000000E+00
  0.00000000E+00  0.00000000E+00  0.00000000E+00
  0.00000000E+00  0.00000000E+00  0.00000000E+00
  0.00000000E+00  0.00000000E+00  0.00000000E+00
  0.00000000E+00  0.00000000E+00  0.00000000E+00
  0.00000000E+00  0.00000000E+00  0.00000000E+00
  0.00000000E+00  0.00000000E+00  0.00000000E+00
  0.00000000E+00  0.00000000E+00  0.00000000E+00
  0.00000000E+00  0.00000000E+00  0.00000000E+00
  0.00000000E+00  0.00000000E+00  0.00000000E+00
  0.00000000E+00  0.00000000E+00  0.00000000E+00
  0.00000000E+00  0.00000000E+00  0.00000000E+00
  0.00000000E+00  0.00000000E+00  0.00000000E+00
  0.00000000E+00  0.00000000E+00  0.00000000E+00
  0.00000000E+00  0.00000000E+00  0.00000000E+00
  0.00000000E+00  0.00000000E+00  0.00000000E+00
  0.00000000E+00  0.00000000E+00  0.00000000E+00
  0.00000000E+00  0.00000000E+00  0.00000000E+00
  0.00000000E+00  0.00000000E+00  0.00000000E+00
  0.00000000E+00  0.00000000E+00  0.00000000E+00
  0.00000000E+00  0.00000000E+00  0.00000000E+00
  0.00000000E+00  0.00000000E+00  0.00000000E+00
  0.00000000E+00  0.00000000E+00  0.00000000E+00
  0.00000000E+00  0.00000000E+00  0.00000000E+00
  0.00000000E+00  0.00000000E+00  0.00000000E+00
  0.00000000E+00  0.00000000E+00  0.00000000E+00
  0.00000000E+00  0.00000000E+00  0.00000000E+00
  0.00000000E+00  0.00000000E+00  0.00000000E+00
  0.00000000E+00  0.00000000E+00  0.00000000E+00
  0.00000000E+00  0.00000000E+00  0.00000000E+00
  0.00000000E+00  0.00000000E+00  0.00000000E+00
  0.00000000E+00  0.00000000E+00  0.00000000E+00
  0.00000000E+00  0.00000000E+00  0.00000000E+00
  0.00000000E+00  0.00000000E+00  0.00000000E+00
  0.00000000E+00  0.00000000E+00  0.00000000E+00
  0.00000000E+00  0.00000000E+00  0.00000000E+00
  0.00000000E+00  0.00000000E+00  0.00000000E+00
  0.00000000E+00  0.00000000E+00  0.00000000E+00
  0.00000000E+00  0.00000000E+00  0.00000000E+00
  0.00000000E+00  0.00000000E+00  0.00000000E+00
  0.00000000E+00  0.00000000E+00  0.00000000E+00
  0.00000000E+00  0.00000000E+00  0.00000000E+00
  0.00000000E+00  0.00000000E+00  0.00000000E+00
  0.00000000E+00  0.00000000E+00  0.00000000E+00
  0.00000000E+00  0.00000000E+00  0.00000000E+00
  0.00000000E+00  0.00000000E+00  0.00000000E+00
  0.00000000E+00  0.00000000E+00  0.00000000E+00
  0.00000000E+00  0.00000000E+00  0.00000000E+00
  0.00000000E+00  0.00000000E+00  0.00000000E+00
  0.00000000E+00  0.00000000E+00  0.00000000E+00
  0.00000000E+00  0.00000000E+00  0.00000000E+00
  0.00000000E+00  0.00000000E+00  0.00000000E+00
  0.00000000E+00  0.00000000E+00  0.00000000E+00
  0.00000000E+00  0.00000000E+00  0.00000000E+00
  0.00000000E+00  0.00000000E+00  0.00000000E+00
  0.00000000E+00  0.00000000E+00  0.00000000E+00
  0.00000000E+00  0.00000000E+00  0.00000000E+00
  0.00000000E+00  0.00000000E+00  0.00000000E+00
  0.00000000E+00  0.00000000E+00  0.00000000E+00
  0.00000000E+00  0.00000000E+00  0.00000000E+00
  0.00000000E+00  0.00000000E+00  0.00000000E+00
  0.00000000E+00  0.00000000E+00  0.00000000E+00
  0.00000000E+00  0.00000000E+00  0.00000000E+00
  0.00000000E+00  0.00000000E+00  0.00000000E+00
  0.00000000E+00  0.00000000E+00  0.00000000E+00
  0.00000000E+00  0.00000000E+00  0.00000000E+00
  0.00000000E+00  0.00000000E+00  0.00000000E+00
  0.00000000E+00  0.00000000E+00  0.00000000E+00
  0.00000000E+00  0.00000000E+00  0.00000000E+00
  0.00000000E+00  0.00000000E+00  0.00000000E+00
  0.00000000E+00  0.00000000E+00  0.00000000E+00
  0.00000000E+00  0.00000000E+00  0.00000000E+00
  0.00000000E+00  0.00000000E+00  0.00000000E+00
  0.00000000E+00  0.00000000E+00  0.00000000E+00
  0.00000000E+00  0.00000000E+00  0.00000000E+00
  0.00000000E+00  0.00000000E+00  0.00000000E+00
  0.00000000E+00  0.00000000E+00  0.00000000E+00
  0.00000000E+00  0.00000000E+00  0.00000000E+00
  0.00000000E+00  0.00000000E+00  0.00000000E+00
  0.00000000E+00  0.00000000E+00  0.00000000E+00
  0.00000000E+00  0.00000000E+00  0.00000000E+00
  0.00000000E+00  0.00000000E+00  0.00000000E+00
  0.00000000E+00  0.00000000E+00  0.00000000E+00
  0.00000000E+00  0.00000000E+00  0.00000000E+00
  0.00000000E+00  0.00000000E+00  0.00000000E+00
  0.00000000E+00  0.00000000E+00  0.00000000E+00
  0.00000000E+00  0.00000000E+00  0.00000000E+00
