Ta N Cu Ru                              
   1.00000000000000     
    18.1096308199999996    0.0000000000000000    0.0000000000000000
     0.0000000000000000   11.6775998899999998    0.0000000000000000
     0.0000000000000000    0.0000000000000000   23.4818170799999990
   Ta   N    Cu   Ru
   119   120     1     1
Direct
  0.9997746676703467  0.0001405339504209  0.2547339743099117
  0.3335776159285780  0.1250633790799606  0.2637536135386454
  0.1664814496729254  0.1250872537277764  0.2637902364921186
  0.2498106036608293  0.2500436414507717  0.3614489527000641
  0.0821952061311128  0.1250596952502469  0.3684419154499931
  0.4175683247646827  0.1250478175278021  0.3684608267418245
  0.9999421395427925  0.2499959071551061  0.4799454153442742
  0.3323498049947071  0.1250513283911428  0.4778690941742282
  0.1678275102121779  0.1250511108881084  0.4782343185608172
  0.2496570695840044  0.2535197506014720  0.5909012387065147
  0.0866599255034967  0.1250428700651470  0.5911695946162847
  0.4150320775430538  0.1250563212424952  0.5907984316619715
  0.9957475729222813  0.2532591464197146  0.7042316441927552
  0.3394340966963846  0.1250644630917131  0.7076592545464373
  0.9997793990748339  0.2499621168675957  0.2547325640235767
  0.3334086468309898  0.3749934376659816  0.2637825245235782
  0.1665560100400575  0.3751243133225632  0.2637312360071956
  0.2498942774865561  0.5002216483773109  0.3614384608642259
  0.0821989384846236  0.3749837472734882  0.3682002861538106
  0.4174724683080300  0.3750281717033428  0.3684750451705621
  0.9996614378022998  0.5000510095847657  0.4796439044720286
  0.3322080062596475  0.3751625660186080  0.4781097557243044
  0.1678940940392722  0.3749554719651402  0.4779327804427823
  0.2500348678522559  0.5013400811018471  0.5907239187169999
  0.0827433765417633  0.3764171971495756  0.5894076616725012
  0.4158674105333379  0.3753644513054642  0.5894853022713953
  0.9994959009022300  0.4996444591161636  0.7030852168358119
  0.3359790843056676  0.3762687759631357  0.7040447189304568
  0.1643738895946747  0.3716985721423459  0.7067994405943393
  0.9996827974126242  0.4998455088488331  0.2545927977490019
  0.3333855791034206  0.6250756838149959  0.2636859435435685
  0.1666925514925735  0.6250873182466141  0.2637995626445943
  0.2498846128106739  0.7498963412917304  0.3614414814779819
  0.0820997098741393  0.6250596249812236  0.3681506012303815
  0.4174318692695415  0.6250438961610852  0.3682722335230049
  0.9996602217875180  0.7500495357575637  0.4796467276649095
  0.3322189936378007  0.6250571924805045  0.4777532396184273
  0.1675552187685226  0.6250548731335428  0.4775302686957966
  0.2500311258395481  0.7487467939784334  0.5907326306926987
  0.0834629107996073  0.6250367014112891  0.5891562874438322
  0.4166038279513103  0.6250833785594263  0.5897271183749982
  0.9994987671474507  0.7504123169227395  0.7030828178826510
  0.3354882371034951  0.6250470011653982  0.7041963927469826
  0.1656552466540611  0.6249856725352628  0.7028049065313903
  0.9996806695226566  0.7502352760133579  0.2545946722271129
  0.3333912994808358  0.8751681238942587  0.2637888358113285
  0.1665559853217902  0.8750462798229798  0.2637336990138451
  0.2498092535929043  0.0000751706847627  0.3614485009672684
  0.0821951399455631  0.8751469461973929  0.3682037356643643
  0.4174692910620562  0.8750596320220994  0.3684722614152974
  0.9999421295031754  0.0000738522939868  0.4799509953382234
  0.3321915534510597  0.8749453607324998  0.4781063958938592
  0.1678911994141089  0.8751591688430950  0.4779380233913986
  0.2496538617139285  0.9965659605097894  0.5909180723031899
  0.0827253182328227  0.8736615387460072  0.5894107819065065
  0.4158662208667830  0.8747620110213596  0.5894730140445991
  0.9957219795914001  0.9967806237582443  0.7042483166655380
  0.3359779456921719  0.8738348468333569  0.7040524250839039
  0.1643547959104795  0.8782417519260158  0.7068212647018257
  0.4998452623798256  0.0000390901892804  0.2548313699086002
  0.8332018415846703  0.1250383748590553  0.2639000991271421
  0.6664229896394466  0.1250551677911264  0.2640556487889025
  0.7499946590300244  0.2500916382889100  0.3617770535422817
  0.5824232743169618  0.1250272864640296  0.3686523445088013
  0.9172562040520583  0.1250535312334217  0.3685024981068308
  0.4996522644913864  0.2498879933766287  0.4799949060259230
  0.8325793745968403  0.1250455123275025  0.4785241971374503
  0.6677294111489641  0.1250539376410875  0.4784004566481298
  0.7498656332041439  0.2501833874083732  0.5912588982315503
  0.5835882381438080  0.1251010416461575  0.5899172713800249
  0.9169908924810387  0.1250434972691129  0.5904965978477190
  0.5008054044736028  0.2503126392658286  0.7018165746351938
  0.8327466467208327  0.1250555776863320  0.7042083041913308
  0.6636745886306799  0.1251511071460620  0.7043362457499479
  0.4998424845336653  0.2500837884639999  0.2548273068122455
  0.8331595080933062  0.3750070110151375  0.2638928933219046
  0.6665155553047261  0.3749549100753958  0.2640031936761111
  0.7499668341815295  0.4999304334299700  0.3617699516974413
  0.5824333837528607  0.3750110194085097  0.3685836450465269
  0.9173059310898084  0.3750162637326899  0.3684712361201001
  0.4999483347922151  0.5001135427390622  0.4797561649263207
  0.8325113649664326  0.3750061089001815  0.4784335551911451
  0.6677095663476951  0.3750920293484489  0.4782058854100759
  0.7496574703303466  0.5000649122877704  0.5910339868441097
  0.5835190785782003  0.3751627340380356  0.5898106153572995
  0.9161115628560333  0.3748062619764276  0.5904827783194532
  0.5000400851339345  0.5003157011695397  0.7021016092738958
  0.8340078813405235  0.3756132693255688  0.7044019243396572
  0.6639532615662496  0.3751747619076117  0.7043015600677566
  0.4999708646606970  0.5001275592037311  0.2547373016695976
  0.8331218085710407  0.6250166860369215  0.2638349763458315
  0.6665531112798888  0.6250566405027878  0.2639503276299490
  0.7499583854159038  0.7501476227660031  0.3617659786978382
  0.5824054853207330  0.6250374666894291  0.3685189637090306
  0.9172981281437959  0.6250475985799732  0.3683464624273379
  0.4999426026949824  0.7500066235362950  0.4797572076761055
  0.8324649177370899  0.6250439210027255  0.4783019646108550
  0.6676805852295988  0.6250527491128604  0.4781959211320037
  0.7496580895805878  0.7500683987239710  0.5910325861726266
  0.5837728189405754  0.6250806408863305  0.5896948271574010
  0.9160716483785881  0.6250587900243497  0.5902357410262981
  0.5000244802486006  0.7498647511463825  0.7020976720726206
  0.8347534031821213  0.6250766078625175  0.7044285040305203
  0.6642091360983964  0.6251628021143149  0.7045541589601689
  0.4999686783548101  0.7499978366186963  0.2547409177311133
  0.8331632094304299  0.8750456645413400  0.2638933757785877
  0.6665379210486491  0.8751345368345673  0.2640035128831298
  0.7499925443808411  0.9999781789495800  0.3617820657318897
  0.5824303404574473  0.8750625383024646  0.3685802271354124
  0.9172987280400007  0.8750784064110186  0.3684750297875871
  0.4996448690742731  0.0002367001434559  0.4799913287904720
  0.8325087657017516  0.8750831759234963  0.4784344248442679
  0.6677004402819897  0.8750189513204287  0.4782072267447378
  0.7498647192999190  0.9999706562157779  0.5912650141142902
  0.5835159170951123  0.8750571073842869  0.5898082304836536
  0.9161055387936690  0.8753036756459249  0.5904752298380751
  0.5008061850428709  0.9998675280846487  0.7018180876651500
  0.8340082372904298  0.8745393910083461  0.7044010411403497
  0.6639430533806051  0.8751269731263567  0.7042970802584574
  0.4067944493413457  0.0000876243374878  0.3012739778112438
  0.2499746056046805  0.0001680512293524  0.2577294664777582
  0.0929429401980167  0.0002919540868088  0.3010802813596010
  0.1542059144445846  0.2499540314766388  0.4099215258844905
  0.9998374723997929  0.2500793016881797  0.3931951328402429
  0.3454273634700754  0.2499048373189913  0.4099099201894538
  0.4005735656217728  0.2497287781207674  0.5221521364707008
  0.2500102057365911  0.2498329591033384  0.5027266333814495
  0.0986805214836286  0.2489897705820642  0.5222364221372862
  0.1515785804934560  0.2596153277863129  0.6326878807902363
  0.0010849737063661  0.2500860270701518  0.6147799747757267
  0.3481663187143439  0.2518890670058856  0.6335872796922574
  0.4045468219150214  0.2517447996107915  0.7412374379081579
  0.2516040364970380  0.2526295013916477  0.7252798648923772
  0.0841568982829113  0.2802630430980497  0.7505296275492911
  0.4067928720994614  0.2500302143271615  0.3012724138921982
  0.2499841353742655  0.2499904596390109  0.2577444333790428
  0.0929441737464591  0.2498497923345026  0.3010806726875140
  0.1540619830462121  0.4998591786442463  0.4096819699241703
  0.9997977752140336  0.5000060380144136  0.3929297286219697
  0.3456334902059427  0.5001438186276120  0.4097736581339029
  0.4009122392951717  0.5002875530940398  0.5217946447455862
  0.2498581730501392  0.5006397282888996  0.5025263091883928
  0.0987832387772039  0.5001174067929086  0.5216148552900586
  0.1516990409815826  0.5000105133051824  0.6324801758648737
  0.9998764563823220  0.5004757704586565  0.6142870538105927
  0.3484899809420851  0.5005426090804629  0.6332009454554631
  0.4035818605388036  0.5010975441392691  0.7406853503016184
  0.2499766115855596  0.4977546380453088  0.7229336092425657
  0.0979321342209952  0.5040554143711862  0.7387384067304221
  0.4068062010647700  0.4999742727670216  0.3011112611489152
  0.2500456784031752  0.4999798270447072  0.2573973664059824
  0.0929293281101140  0.4999885639418599  0.3009060818105844
  0.1540581531353508  0.7502483049855309  0.4096862239553111
  0.9997953401357318  0.7501029610429810  0.3929295933344094
  0.3456258193733470  0.7499601064796829  0.4097729822538748
  0.4009039131426779  0.7498425446888120  0.5217935972952350
  0.2498493004704475  0.7494516645264100  0.5025323249067187
  0.0987874506449919  0.7499734622447344  0.5216198965139699
  0.1516924433817248  0.7500423965330990  0.6324942056218210
  0.9998741658554318  0.7496165977907470  0.6142840416668564
  0.3484804651050566  0.7495862492651898  0.6331996048947709
  0.4035746489413700  0.7490197474943386  0.7406874824243374
  0.2499644710631689  0.7523220637612538  0.7229374792337391
  0.0979151571404730  0.7458886847956712  0.7387619263931816
  0.4068015053164680  0.7501510626680851  0.3011092580160016
  0.2500436366667066  0.7501670248212177  0.2573814730533457
  0.0929267155509124  0.7501503996251530  0.3009052411949316
  0.1542015508976354  0.0001629415761164  0.4099247088684507
  0.9998340625737663  0.0000249053753068  0.3931960137528497
  0.3454227039273098  0.0001928675005863  0.4099081978676904
  0.4005649250209987  0.0003860072181877  0.5221504052727272
  0.2500028946479386  0.0002706157393914  0.5027347358260469
  0.0986779409975928  0.0010992416901650  0.5222470635136960
  0.1515745653439691  0.9904466539640281  0.6326958417400742
  0.0010845615111397  0.9999940504962038  0.6147827491941091
  0.3481560395556580  0.9982153617922334  0.6335899247875748
  0.4045345937056879  0.9983611339977733  0.7412418889525145
  0.2515684688466098  0.9974244939505417  0.7252804575040629
  0.0840423778686592  0.9695793934836731  0.7505841773840313
  0.9066772118818862  0.0000578335209262  0.3012165060643450
  0.7498473362618978  0.0001116896159345  0.2575322290703605
  0.5928955334647660  0.0001248361372461  0.3013416194317203
  0.6543198563439822  0.2500324086140552  0.4101076416272367
  0.4998821490284616  0.2500824902249170  0.3932933663951068
  0.8456474394302012  0.2499782016463955  0.4101988887386034
  0.9012997445924653  0.2498246094245800  0.5224817408697462
  0.7500827311963976  0.2501011812573914  0.5031146367472143
  0.5988321254275659  0.2501147066862689  0.5219883574746647
  0.6513348426479181  0.2502011333136018  0.6332497710476787
  0.4995173573005912  0.2498622500434711  0.6133048588536593
  0.8480927278389585  0.2499053209111675  0.6336048840763013
  0.8995575933430828  0.2504629717564754  0.7417430756160589
  0.7484527435465864  0.2500834999720956  0.7237818553284783
  0.5963812696434516  0.2502909740694083  0.7409437805292305
  0.9066789505152535  0.2500259348053686  0.3012139705004719
  0.7498465517371934  0.2499764942307575  0.2575353536035715
  0.5928894955364695  0.2499667930004864  0.3013425164620374
  0.6542824473695298  0.4999931759904504  0.4100247177232914
  0.4998836086425958  0.5000247792205821  0.3930830613891425
  0.8456247529474791  0.4999865441880895  0.4100721124059247
  0.9010147199709105  0.4999289953422763  0.5223777015689466
  0.7500841797091864  0.5000427751371381  0.5028994835222639
  0.5989805712056192  0.5000131903449399  0.5219615509825171
  0.6513847977391778  0.5002534987445226  0.6332449812952319
  0.4999304152448667  0.5001078906114910  0.6132875316492138
  0.8477979433259891  0.5001771025286477  0.6332996892641899
  0.9020793118297908  0.5005444677486560  0.7407563024076484
  0.7491668259673512  0.5000970242882561  0.7239582871834430
  0.5964377430589973  0.5002900003544783  0.7407693275069113
  0.9066746809834071  0.4999459397650258  0.3011556286674123
  0.7497938057913687  0.4999959337886812  0.2574136798277265
  0.5929938906279915  0.5000167543136059  0.3012989865033580
  0.6542778292591770  0.7501040418355234  0.4100262821379555
  0.4998813471875523  0.7500643319877233  0.3930840389837554
  0.8456179010319074  0.7500958627014459  0.4100714598862315
  0.9010150546741175  0.7501652323822587  0.5223756626642131
  0.7500839738721267  0.7500660923642413  0.5028983068426558
  0.5989756930415785  0.7501375520212294  0.5219629598739262
  0.6513817936222830  0.7499664071650683  0.6332465840916345
  0.4999261464061125  0.7500541628748884  0.6132915422317097
  0.8477934537887597  0.7499504784065322  0.6332960135971866
  0.9020795753158861  0.7495950631792615  0.7407537775453342
  0.7491652915717990  0.7501215343703779  0.7239655897021393
  0.5964298740368298  0.7500025292553520  0.7407708249258713
  0.9066695908334086  0.7501349837976160  0.3011548308065592
  0.7498088466507361  0.7500745751633423  0.2574107001276271
  0.5929958117234587  0.7500799623202026  0.3012958305145395
  0.6543159008282861  0.0000647465990370  0.4101067848506038
  0.4998843584563754  0.0000066777895978  0.3932920702897397
  0.8456415959214271  0.0001206311500745  0.4101999229643243
  0.9013028081196213  0.0002704084750200  0.5224818018616058
  0.7500833620404019  0.0000108732640888  0.5031112845550132
  0.5988260612039270  0.0000489661730731  0.5219884024075427
  0.6513348972511320  0.0000345168346125  0.6332463135946468
  0.4995096576085740  0.0003066687740414  0.6133088390657990
  0.8480922025150153  0.0002198145167053  0.6336043207192488
  0.8995330460914019  0.9996539197258830  0.7417489384190562
  0.7484450608123741  0.0001410056502978  0.7237785143650264
  0.5963708676877999  0.0000142634720237  0.7409425306754553
  0.0931315688630596  0.1249366755670964  0.7640311711997532
  0.1925867879713760  0.1250426562768743  0.6834658942528322
 
  0.00000000E+00  0.00000000E+00  0.00000000E+00
  0.00000000E+00  0.00000000E+00  0.00000000E+00
  0.00000000E+00  0.00000000E+00  0.00000000E+00
  0.00000000E+00  0.00000000E+00  0.00000000E+00
  0.00000000E+00  0.00000000E+00  0.00000000E+00
  0.00000000E+00  0.00000000E+00  0.00000000E+00
  0.00000000E+00  0.00000000E+00  0.00000000E+00
  0.00000000E+00  0.00000000E+00  0.00000000E+00
  0.00000000E+00  0.00000000E+00  0.00000000E+00
  0.00000000E+00  0.00000000E+00  0.00000000E+00
  0.00000000E+00  0.00000000E+00  0.00000000E+00
  0.00000000E+00  0.00000000E+00  0.00000000E+00
  0.00000000E+00  0.00000000E+00  0.00000000E+00
  0.00000000E+00  0.00000000E+00  0.00000000E+00
  0.00000000E+00  0.00000000E+00  0.00000000E+00
  0.00000000E+00  0.00000000E+00  0.00000000E+00
  0.00000000E+00  0.00000000E+00  0.00000000E+00
  0.00000000E+00  0.00000000E+00  0.00000000E+00
  0.00000000E+00  0.00000000E+00  0.00000000E+00
  0.00000000E+00  0.00000000E+00  0.00000000E+00
  0.00000000E+00  0.00000000E+00  0.00000000E+00
  0.00000000E+00  0.00000000E+00  0.00000000E+00
  0.00000000E+00  0.00000000E+00  0.00000000E+00
  0.00000000E+00  0.00000000E+00  0.00000000E+00
  0.00000000E+00  0.00000000E+00  0.00000000E+00
  0.00000000E+00  0.00000000E+00  0.00000000E+00
  0.00000000E+00  0.00000000E+00  0.00000000E+00
  0.00000000E+00  0.00000000E+00  0.00000000E+00
  0.00000000E+00  0.00000000E+00  0.00000000E+00
  0.00000000E+00  0.00000000E+00  0.00000000E+00
  0.00000000E+00  0.00000000E+00  0.00000000E+00
  0.00000000E+00  0.00000000E+00  0.00000000E+00
  0.00000000E+00  0.00000000E+00  0.00000000E+00
  0.00000000E+00  0.00000000E+00  0.00000000E+00
  0.00000000E+00  0.00000000E+00  0.00000000E+00
  0.00000000E+00  0.00000000E+00  0.00000000E+00
  0.00000000E+00  0.00000000E+00  0.00000000E+00
  0.00000000E+00  0.00000000E+00  0.00000000E+00
  0.00000000E+00  0.00000000E+00  0.00000000E+00
  0.00000000E+00  0.00000000E+00  0.00000000E+00
  0.00000000E+00  0.00000000E+00  0.00000000E+00
  0.00000000E+00  0.00000000E+00  0.00000000E+00
  0.00000000E+00  0.00000000E+00  0.00000000E+00
  0.00000000E+00  0.00000000E+00  0.00000000E+00
  0.00000000E+00  0.00000000E+00  0.00000000E+00
  0.00000000E+00  0.00000000E+00  0.00000000E+00
  0.00000000E+00  0.00000000E+00  0.00000000E+00
  0.00000000E+00  0.00000000E+00  0.00000000E+00
  0.00000000E+00  0.00000000E+00  0.00000000E+00
  0.00000000E+00  0.00000000E+00  0.00000000E+00
  0.00000000E+00  0.00000000E+00  0.00000000E+00
  0.00000000E+00  0.00000000E+00  0.00000000E+00
  0.00000000E+00  0.00000000E+00  0.00000000E+00
  0.00000000E+00  0.00000000E+00  0.00000000E+00
  0.00000000E+00  0.00000000E+00  0.00000000E+00
  0.00000000E+00  0.00000000E+00  0.00000000E+00
  0.00000000E+00  0.00000000E+00  0.00000000E+00
  0.00000000E+00  0.00000000E+00  0.00000000E+00
  0.00000000E+00  0.00000000E+00  0.00000000E+00
  0.00000000E+00  0.00000000E+00  0.00000000E+00
  0.00000000E+00  0.00000000E+00  0.00000000E+00
  0.00000000E+00  0.00000000E+00  0.00000000E+00
  0.00000000E+00  0.00000000E+00  0.00000000E+00
  0.00000000E+00  0.00000000E+00  0.00000000E+00
  0.00000000E+00  0.00000000E+00  0.00000000E+00
  0.00000000E+00  0.00000000E+00  0.00000000E+00
  0.00000000E+00  0.00000000E+00  0.00000000E+00
  0.00000000E+00  0.00000000E+00  0.00000000E+00
  0.00000000E+00  0.00000000E+00  0.00000000E+00
  0.00000000E+00  0.00000000E+00  0.00000000E+00
  0.00000000E+00  0.00000000E+00  0.00000000E+00
  0.00000000E+00  0.00000000E+00  0.00000000E+00
  0.00000000E+00  0.00000000E+00  0.00000000E+00
  0.00000000E+00  0.00000000E+00  0.00000000E+00
  0.00000000E+00  0.00000000E+00  0.00000000E+00
  0.00000000E+00  0.00000000E+00  0.00000000E+00
  0.00000000E+00  0.00000000E+00  0.00000000E+00
  0.00000000E+00  0.00000000E+00  0.00000000E+00
  0.00000000E+00  0.00000000E+00  0.00000000E+00
  0.00000000E+00  0.00000000E+00  0.00000000E+00
  0.00000000E+00  0.00000000E+00  0.00000000E+00
  0.00000000E+00  0.00000000E+00  0.00000000E+00
  0.00000000E+00  0.00000000E+00  0.00000000E+00
  0.00000000E+00  0.00000000E+00  0.00000000E+00
  0.00000000E+00  0.00000000E+00  0.00000000E+00
  0.00000000E+00  0.00000000E+00  0.00000000E+00
  0.00000000E+00  0.00000000E+00  0.00000000E+00
  0.00000000E+00  0.00000000E+00  0.00000000E+00
  0.00000000E+00  0.00000000E+00  0.00000000E+00
  0.00000000E+00  0.00000000E+00  0.00000000E+00
  0.00000000E+00  0.00000000E+00  0.00000000E+00
  0.00000000E+00  0.00000000E+00  0.00000000E+00
  0.00000000E+00  0.00000000E+00  0.00000000E+00
  0.00000000E+00  0.00000000E+00  0.00000000E+00
  0.00000000E+00  0.00000000E+00  0.00000000E+00
  0.00000000E+00  0.00000000E+00  0.00000000E+00
  0.00000000E+00  0.00000000E+00  0.00000000E+00
  0.00000000E+00  0.00000000E+00  0.00000000E+00
  0.00000000E+00  0.00000000E+00  0.00000000E+00
  0.00000000E+00  0.00000000E+00  0.00000000E+00
  0.00000000E+00  0.00000000E+00  0.00000000E+00
  0.00000000E+00  0.00000000E+00  0.00000000E+00
  0.00000000E+00  0.00000000E+00  0.00000000E+00
  0.00000000E+00  0.00000000E+00  0.00000000E+00
  0.00000000E+00  0.00000000E+00  0.00000000E+00
  0.00000000E+00  0.00000000E+00  0.00000000E+00
  0.00000000E+00  0.00000000E+00  0.00000000E+00
  0.00000000E+00  0.00000000E+00  0.00000000E+00
  0.00000000E+00  0.00000000E+00  0.00000000E+00
  0.00000000E+00  0.00000000E+00  0.00000000E+00
  0.00000000E+00  0.00000000E+00  0.00000000E+00
  0.00000000E+00  0.00000000E+00  0.00000000E+00
  0.00000000E+00  0.00000000E+00  0.00000000E+00
  0.00000000E+00  0.00000000E+00  0.00000000E+00
  0.00000000E+00  0.00000000E+00  0.00000000E+00
  0.00000000E+00  0.00000000E+00  0.00000000E+00
  0.00000000E+00  0.00000000E+00  0.00000000E+00
  0.00000000E+00  0.00000000E+00  0.00000000E+00
  0.00000000E+00  0.00000000E+00  0.00000000E+00
  0.00000000E+00  0.00000000E+00  0.00000000E+00
  0.00000000E+00  0.00000000E+00  0.00000000E+00
  0.00000000E+00  0.00000000E+00  0.00000000E+00
  0.00000000E+00  0.00000000E+00  0.00000000E+00
  0.00000000E+00  0.00000000E+00  0.00000000E+00
  0.00000000E+00  0.00000000E+00  0.00000000E+00
  0.00000000E+00  0.00000000E+00  0.00000000E+00
  0.00000000E+00  0.00000000E+00  0.00000000E+00
  0.00000000E+00  0.00000000E+00  0.00000000E+00
  0.00000000E+00  0.00000000E+00  0.00000000E+00
  0.00000000E+00  0.00000000E+00  0.00000000E+00
  0.00000000E+00  0.00000000E+00  0.00000000E+00
  0.00000000E+00  0.00000000E+00  0.00000000E+00
  0.00000000E+00  0.00000000E+00  0.00000000E+00
  0.00000000E+00  0.00000000E+00  0.00000000E+00
  0.00000000E+00  0.00000000E+00  0.00000000E+00
  0.00000000E+00  0.00000000E+00  0.00000000E+00
  0.00000000E+00  0.00000000E+00  0.00000000E+00
  0.00000000E+00  0.00000000E+00  0.00000000E+00
  0.00000000E+00  0.00000000E+00  0.00000000E+00
  0.00000000E+00  0.00000000E+00  0.00000000E+00
  0.00000000E+00  0.00000000E+00  0.00000000E+00
  0.00000000E+00  0.00000000E+00  0.00000000E+00
  0.00000000E+00  0.00000000E+00  0.00000000E+00
  0.00000000E+00  0.00000000E+00  0.00000000E+00
  0.00000000E+00  0.00000000E+00  0.00000000E+00
  0.00000000E+00  0.00000000E+00  0.00000000E+00
  0.00000000E+00  0.00000000E+00  0.00000000E+00
  0.00000000E+00  0.00000000E+00  0.00000000E+00
  0.00000000E+00  0.00000000E+00  0.00000000E+00
  0.00000000E+00  0.00000000E+00  0.00000000E+00
  0.00000000E+00  0.00000000E+00  0.00000000E+00
  0.00000000E+00  0.00000000E+00  0.00000000E+00
  0.00000000E+00  0.00000000E+00  0.00000000E+00
  0.00000000E+00  0.00000000E+00  0.00000000E+00
  0.00000000E+00  0.00000000E+00  0.00000000E+00
  0.00000000E+00  0.00000000E+00  0.00000000E+00
  0.00000000E+00  0.00000000E+00  0.00000000E+00
  0.00000000E+00  0.00000000E+00  0.00000000E+00
  0.00000000E+00  0.00000000E+00  0.00000000E+00
  0.00000000E+00  0.00000000E+00  0.00000000E+00
  0.00000000E+00  0.00000000E+00  0.00000000E+00
  0.00000000E+00  0.00000000E+00  0.00000000E+00
  0.00000000E+00  0.00000000E+00  0.00000000E+00
  0.00000000E+00  0.00000000E+00  0.00000000E+00
  0.00000000E+00  0.00000000E+00  0.00000000E+00
  0.00000000E+00  0.00000000E+00  0.00000000E+00
  0.00000000E+00  0.00000000E+00  0.00000000E+00
  0.00000000E+00  0.00000000E+00  0.00000000E+00
  0.00000000E+00  0.00000000E+00  0.00000000E+00
  0.00000000E+00  0.00000000E+00  0.00000000E+00
  0.00000000E+00  0.00000000E+00  0.00000000E+00
  0.00000000E+00  0.00000000E+00  0.00000000E+00
  0.00000000E+00  0.00000000E+00  0.00000000E+00
  0.00000000E+00  0.00000000E+00  0.00000000E+00
  0.00000000E+00  0.00000000E+00  0.00000000E+00
  0.00000000E+00  0.00000000E+00  0.00000000E+00
  0.00000000E+00  0.00000000E+00  0.00000000E+00
  0.00000000E+00  0.00000000E+00  0.00000000E+00
  0.00000000E+00  0.00000000E+00  0.00000000E+00
  0.00000000E+00  0.00000000E+00  0.00000000E+00
  0.00000000E+00  0.00000000E+00  0.00000000E+00
  0.00000000E+00  0.00000000E+00  0.00000000E+00
  0.00000000E+00  0.00000000E+00  0.00000000E+00
  0.00000000E+00  0.00000000E+00  0.00000000E+00
  0.00000000E+00  0.00000000E+00  0.00000000E+00
  0.00000000E+00  0.00000000E+00  0.00000000E+00
  0.00000000E+00  0.00000000E+00  0.00000000E+00
  0.00000000E+00  0.00000000E+00  0.00000000E+00
  0.00000000E+00  0.00000000E+00  0.00000000E+00
  0.00000000E+00  0.00000000E+00  0.00000000E+00
  0.00000000E+00  0.00000000E+00  0.00000000E+00
  0.00000000E+00  0.00000000E+00  0.00000000E+00
  0.00000000E+00  0.00000000E+00  0.00000000E+00
  0.00000000E+00  0.00000000E+00  0.00000000E+00
  0.00000000E+00  0.00000000E+00  0.00000000E+00
  0.00000000E+00  0.00000000E+00  0.00000000E+00
  0.00000000E+00  0.00000000E+00  0.00000000E+00
  0.00000000E+00  0.00000000E+00  0.00000000E+00
  0.00000000E+00  0.00000000E+00  0.00000000E+00
  0.00000000E+00  0.00000000E+00  0.00000000E+00
  0.00000000E+00  0.00000000E+00  0.00000000E+00
  0.00000000E+00  0.00000000E+00  0.00000000E+00
  0.00000000E+00  0.00000000E+00  0.00000000E+00
  0.00000000E+00  0.00000000E+00  0.00000000E+00
  0.00000000E+00  0.00000000E+00  0.00000000E+00
  0.00000000E+00  0.00000000E+00  0.00000000E+00
  0.00000000E+00  0.00000000E+00  0.00000000E+00
  0.00000000E+00  0.00000000E+00  0.00000000E+00
  0.00000000E+00  0.00000000E+00  0.00000000E+00
  0.00000000E+00  0.00000000E+00  0.00000000E+00
  0.00000000E+00  0.00000000E+00  0.00000000E+00
  0.00000000E+00  0.00000000E+00  0.00000000E+00
  0.00000000E+00  0.00000000E+00  0.00000000E+00
  0.00000000E+00  0.00000000E+00  0.00000000E+00
  0.00000000E+00  0.00000000E+00  0.00000000E+00
  0.00000000E+00  0.00000000E+00  0.00000000E+00
  0.00000000E+00  0.00000000E+00  0.00000000E+00
  0.00000000E+00  0.00000000E+00  0.00000000E+00
  0.00000000E+00  0.00000000E+00  0.00000000E+00
  0.00000000E+00  0.00000000E+00  0.00000000E+00
  0.00000000E+00  0.00000000E+00  0.00000000E+00
  0.00000000E+00  0.00000000E+00  0.00000000E+00
  0.00000000E+00  0.00000000E+00  0.00000000E+00
  0.00000000E+00  0.00000000E+00  0.00000000E+00
  0.00000000E+00  0.00000000E+00  0.00000000E+00
  0.00000000E+00  0.00000000E+00  0.00000000E+00
  0.00000000E+00  0.00000000E+00  0.00000000E+00
  0.00000000E+00  0.00000000E+00  0.00000000E+00
  0.00000000E+00  0.00000000E+00  0.00000000E+00
  0.00000000E+00  0.00000000E+00  0.00000000E+00
  0.00000000E+00  0.00000000E+00  0.00000000E+00
  0.00000000E+00  0.00000000E+00  0.00000000E+00
  0.00000000E+00  0.00000000E+00  0.00000000E+00
  0.00000000E+00  0.00000000E+00  0.00000000E+00
  0.00000000E+00  0.00000000E+00  0.00000000E+00
  0.00000000E+00  0.00000000E+00  0.00000000E+00
  0.00000000E+00  0.00000000E+00  0.00000000E+00
  0.00000000E+00  0.00000000E+00  0.00000000E+00
  0.00000000E+00  0.00000000E+00  0.00000000E+00
  0.00000000E+00  0.00000000E+00  0.00000000E+00
  0.00000000E+00  0.00000000E+00  0.00000000E+00
