POSCAR                                  
   1.00000000000000     
     5.1360312144188658    0.0000000000000000    0.0000000000000000
    -2.5680156072094329    4.4482010455380170   -0.0080356599044738
     0.0000000000000000   -0.0447993454245307   24.7467433676581017
   B    N    Al
    28    32     4
Direct
  0.1714525450688298  0.3295680518842314  0.0026308249125290
  0.6697001711398736  0.3239077668211663  0.0021277252621784
  0.1777227407294064  0.8323583304202308  0.0016182842328081
  0.6693151590487244  0.8331213842079388  0.0016377847702293
  0.1638057341092049  0.3331213841603679  0.2516377847693553
  0.6546350986894657  0.3323583304643696  0.2516182842319342
  0.1581150008135693  0.8295680518796911  0.2526308249117261
  0.6542071197278437  0.8239077668222964  0.2521277252612548
  0.1697001561398760  0.3239077668211663  0.5021277252621783
  0.6714525600688274  0.3295680518842314  0.5026308249125290
  0.1693151440487266  0.8331213842079388  0.5016377847702294
  0.6777227557294040  0.8323583304202308  0.5016182842328152
  0.1546350836894679  0.3323583304643696  0.7516182842319341
  0.1542071047278459  0.8239077668222964  0.7521277252612546
  0.3497060195291127  0.1773966748985644  0.1270507521648312
  0.8413312647174424  0.6679113403485131  0.1243179977487935
  0.3496953689476042  0.6666998105590459  0.1271118829591174
  0.8265785256311771  0.1679113253173865  0.3743179977473795
  0.3170029516398326  0.1666997955842938  0.3771118829577034
  0.8276891503424723  0.6773966898954784  0.3770507521635948
  0.8496953389476016  0.6666998105590459  0.6271118829591176
  0.3413312947174449  0.6679113403485131  0.6243179977487935
  0.8170029216398299  0.1666997955842938  0.8771118829576965
  0.3265785556311794  0.1679113253173865  0.8743179977473795
  0.3276891803424747  0.6773966898954784  0.8770507521635948
  0.6638057491092025  0.3331213841603679  0.7516377847693554
  0.8497059895291103  0.1773966748985644  0.6270507521648312
  0.6581150158135671  0.8295680518796911  0.7526308249117261
  0.3386649325632915  0.1628286518589876  0.0024975324559123
  0.8388385458649958  0.1632679396885301  0.0027369094133572
  0.3383786552833200  0.6629933526219376  0.0029404024815738
  0.8388576398219308  0.6625850024827847  0.9937450177848730
  0.3246151733399006  0.1629933376198937  0.2529404024807709
  0.8237278386587690  0.1625849874802434  0.2437450177838570
  0.3244298848222570  0.6632679546894018  0.2527369094124548
  0.8241642102913209  0.6628286668539054  0.2524975324550738
  0.3388385458649957  0.1632679396885301  0.5027369094133571
  0.8386649325632916  0.1628286518589876  0.5024975324559122
  0.3388576398219307  0.6625850024827847  0.4937450177848731
  0.8383786552833199  0.6629933526219376  0.5029404024815739
  0.3237278386587689  0.1625849874802434  0.7437450177838569
  0.8246151733399005  0.1629933376198937  0.7529404024807710
  0.3241642102913206  0.6628286668539054  0.7524975324550738
  0.8244298848222568  0.6632679546894018  0.7527369094124547
  0.2074802047799311  0.3509985412288927  0.1348288873391559
  0.6696449565401872  0.3483276301600834  0.1224386140047391
  0.1806277430756781  0.8375280136431961  0.1273792869111577
  0.6695382982797194  0.8155022194455014  0.1227155816414146
  0.1459634301851141  0.3155022194426520  0.3727155816400431
  0.6568997795665003  0.3375280136402474  0.3773792869097651
  0.1435178304471079  0.8509985412452422  0.3848288873370172
  0.6786821975962453  0.8483276301354703  0.3724386140030905
  0.1696449415401897  0.3483276301600834  0.6224386140047389
  0.7074802197799287  0.3509985412288927  0.6348288873391560
  0.1695382832797219  0.8155022194455014  0.6227155816414147
  0.6806277580756757  0.8375280136431961  0.6273792869111579
  0.1568997645665027  0.3375280136402474  0.8773792869097652
  0.6459634451851117  0.3155022194426520  0.8727155816400434
  0.1786821825962477  0.8483276301354703  0.8724386140030904
  0.6435178454471054  0.8509985412452422  0.8848288873370173
  0.8342916527949514  0.1650052297493192  0.1542225159257963
  0.3307120719542185  0.6650052447501340  0.4042225159265211
  0.3342916827949538  0.1650052297493192  0.6542225159257964
  0.8307120419542161  0.6650052447501340  0.9042225159265211
 
  0.00000000E+00  0.00000000E+00  0.00000000E+00
  0.00000000E+00  0.00000000E+00  0.00000000E+00
  0.00000000E+00  0.00000000E+00  0.00000000E+00
  0.00000000E+00  0.00000000E+00  0.00000000E+00
  0.00000000E+00  0.00000000E+00  0.00000000E+00
  0.00000000E+00  0.00000000E+00  0.00000000E+00
  0.00000000E+00  0.00000000E+00  0.00000000E+00
  0.00000000E+00  0.00000000E+00  0.00000000E+00
  0.00000000E+00  0.00000000E+00  0.00000000E+00
  0.00000000E+00  0.00000000E+00  0.00000000E+00
  0.00000000E+00  0.00000000E+00  0.00000000E+00
  0.00000000E+00  0.00000000E+00  0.00000000E+00
  0.00000000E+00  0.00000000E+00  0.00000000E+00
  0.00000000E+00  0.00000000E+00  0.00000000E+00
  0.00000000E+00  0.00000000E+00  0.00000000E+00
  0.00000000E+00  0.00000000E+00  0.00000000E+00
  0.00000000E+00  0.00000000E+00  0.00000000E+00
  0.00000000E+00  0.00000000E+00  0.00000000E+00
  0.00000000E+00  0.00000000E+00  0.00000000E+00
  0.00000000E+00  0.00000000E+00  0.00000000E+00
  0.00000000E+00  0.00000000E+00  0.00000000E+00
  0.00000000E+00  0.00000000E+00  0.00000000E+00
  0.00000000E+00  0.00000000E+00  0.00000000E+00
  0.00000000E+00  0.00000000E+00  0.00000000E+00
  0.00000000E+00  0.00000000E+00  0.00000000E+00
  0.00000000E+00  0.00000000E+00  0.00000000E+00
  0.00000000E+00  0.00000000E+00  0.00000000E+00
  0.00000000E+00  0.00000000E+00  0.00000000E+00
  0.00000000E+00  0.00000000E+00  0.00000000E+00
  0.00000000E+00  0.00000000E+00  0.00000000E+00
  0.00000000E+00  0.00000000E+00  0.00000000E+00
  0.00000000E+00  0.00000000E+00  0.00000000E+00
  0.00000000E+00  0.00000000E+00  0.00000000E+00
  0.00000000E+00  0.00000000E+00  0.00000000E+00
  0.00000000E+00  0.00000000E+00  0.00000000E+00
  0.00000000E+00  0.00000000E+00  0.00000000E+00
  0.00000000E+00  0.00000000E+00  0.00000000E+00
  0.00000000E+00  0.00000000E+00  0.00000000E+00
  0.00000000E+00  0.00000000E+00  0.00000000E+00
  0.00000000E+00  0.00000000E+00  0.00000000E+00
  0.00000000E+00  0.00000000E+00  0.00000000E+00
  0.00000000E+00  0.00000000E+00  0.00000000E+00
  0.00000000E+00  0.00000000E+00  0.00000000E+00
  0.00000000E+00  0.00000000E+00  0.00000000E+00
  0.00000000E+00  0.00000000E+00  0.00000000E+00
  0.00000000E+00  0.00000000E+00  0.00000000E+00
  0.00000000E+00  0.00000000E+00  0.00000000E+00
  0.00000000E+00  0.00000000E+00  0.00000000E+00
  0.00000000E+00  0.00000000E+00  0.00000000E+00
  0.00000000E+00  0.00000000E+00  0.00000000E+00
  0.00000000E+00  0.00000000E+00  0.00000000E+00
  0.00000000E+00  0.00000000E+00  0.00000000E+00
  0.00000000E+00  0.00000000E+00  0.00000000E+00
  0.00000000E+00  0.00000000E+00  0.00000000E+00
  0.00000000E+00  0.00000000E+00  0.00000000E+00
  0.00000000E+00  0.00000000E+00  0.00000000E+00
  0.00000000E+00  0.00000000E+00  0.00000000E+00
  0.00000000E+00  0.00000000E+00  0.00000000E+00
  0.00000000E+00  0.00000000E+00  0.00000000E+00
  0.00000000E+00  0.00000000E+00  0.00000000E+00
  0.00000000E+00  0.00000000E+00  0.00000000E+00
  0.00000000E+00  0.00000000E+00  0.00000000E+00
  0.00000000E+00  0.00000000E+00  0.00000000E+00
  0.00000000E+00  0.00000000E+00  0.00000000E+00
