POSCAR                                  
   1.00000000000000     
     5.1359059240932012    0.0000000000000000    0.0000000000000000
    -2.5679529620466006    4.4478250017117051    0.0000000000000000
     0.0000000000000000    0.0000000000000000   24.7977043695106865
   B    N    Al
    28    32     4
Direct
  0.1716953350084487  0.3297156953339301  0.0026106429775949
  0.6699171716752917  0.3240531256266854  0.0020660803356848
  0.1778725696597633  0.8324445443636944  0.0015606349398175
  0.6695327226659140  0.8332301053466171  0.0016448169345694
  0.1636968916306943  0.3332301052990427  0.2516448169336963
  0.6545714837025772  0.3324445444078343  0.2515606349389369
  0.1580198543236467  0.8297156953293915  0.2526106429767919
  0.6541354779979398  0.8240531256278130  0.2520660803347614
  0.1699171566752940  0.3240531256266854  0.5020660803356849
  0.6716953500084465  0.3297156953339301  0.5026106429775954
  0.1695327076659162  0.8332301053466171  0.5016448169345695
  0.6778725846597614  0.8324445443636944  0.5015606349398178
  0.1545714687025791  0.3324445444078343  0.7515606349389365
  0.1541354629979419  0.8240531256278130  0.7520660803347619
  0.3496924534524925  0.1772573726692185  0.1271352063112083
  0.8412829017865192  0.6677093190949250  0.1243593988452381
  0.3497216952406794  0.6666686742289373  0.1270989789834681
  0.8264248673085094  0.1677093040637977  0.3743593988438202
  0.3169454890166470  0.1666686592541878  0.3770989789820513
  0.8275634141897455  0.6772573876661333  0.3771352063099747
  0.8497216652406769  0.6666686742289373  0.6270989789834671
  0.3412829317865215  0.6677093190949250  0.6243593988452383
  0.8169454590166446  0.1666686592541878  0.8770989789820507
  0.3264248973085121  0.1677093040637977  0.8743593988438202
  0.3275634441897479  0.6772573876661333  0.8771352063099751
  0.6636969066306909  0.3332301052990427  0.7516448169336966
  0.8496924234524894  0.1772573726692185  0.6271352063112074
  0.6580198693236439  0.8297156953293915  0.7526106429767917
  0.3388839570988821  0.1629589463649181  0.0024615015520756
  0.8390681277295219  0.1634199493578483  0.0027209623178102
  0.3385860840027854  0.6631189461107626  0.0029304117615399
  0.8389731412937309  0.6626439632703721 -0.0062663549163227
  0.3245333381092649  0.1631189311087185  0.2529304117607364
  0.8236712979745574  0.1626439482678279  0.2437336450826606
  0.3243523126270523  0.6634199643587141  0.2527209623169089
  0.8240754802616622  0.6629589613598352  0.2524615015512394
  0.3390681277295217  0.1634199493578483  0.5027209623178102
  0.8388839570988816  0.1629589463649181  0.5024615015520769
  0.3389731412937298  0.6626439632703721  0.4937336450836773
  0.8385860840027848  0.6631189461107626  0.5029304117615402
  0.3236712979745577  0.1626439482678279  0.7437336450826604
  0.8245333381092643  0.1631189311087185  0.7529304117607359
  0.3240754802616627  0.6629589613598352  0.7524615015512387
  0.8243523126270523  0.6634199643587141  0.7527209623169090
  0.2075588327405184  0.3510441800512251  0.1348251852888372
  0.6696084321782979  0.3481554323807783  0.1226729178079037
  0.1805997754889813  0.8374423020704351  0.1274362784308090
  0.6695866935299676  0.8154405595417735  0.1225569644377756
  0.1458533750311369  0.3154405595389193  0.3725569644364083
  0.6568420355804380  0.3374423020674895  0.3774362784294122
  0.1434848413088556  0.8510441800675783  0.3848251852867009
  0.6785465241788281  0.8481554323561686  0.3726729178062559
  0.1696084171783005  0.3481554323807783  0.6226729178079035
  0.7075588477405165  0.3510441800512251  0.6348251852888374
  0.1695866785299702  0.8154405595417735  0.6225569644377753
  0.6805997904889792  0.8374423020704351  0.6274362784308088
  0.1568420205804397  0.3374423020674895  0.8774362784294116
  0.6458533900311353  0.3154405595389193  0.8725569644364086
  0.1785465091788304  0.8481554323561686  0.8726729178062563
  0.6434848563088539  0.8510441800675783  0.8848251852867011
  0.8344784391200889  0.1646968242068143  0.1541863740004528
  0.3302168800865738  0.6646968392076313  0.4041863740011755
  0.3344784691200912  0.1646968242068143  0.6541863740004528
  0.8302168500865714  0.6646968392076313  0.9041863740011755
