Ta  N  W Cu                             
   1.00000000000000     
    18.1096308199999996    0.0000000000000000    0.0000000000000000
     0.0000000000000000   23.3551997799999995    0.0000000000000000
     0.0000000000000000    0.0000000000000000   30.4818171199999988
   Ta   N    W    Cu
   228   240    12     2
Direct
  0.0000170990231112  0.0000417068870462  0.1975246542926925
  0.3341337156207302  0.0625744869009495  0.2026495094555969
  0.1657495269773150  0.0625907604281082  0.2027533975755347
  0.2498758915512127  0.1250991020570638  0.2779268642351838
  0.0827603829246755  0.0626132182639054  0.2841081366554050
  0.4171240425383047  0.0626095005879748  0.2839574400739195
  0.0000109167186295  0.1251205304758543  0.3699277783582531
  0.3324616796557862  0.0626463398955011  0.3683567408136526
  0.1673191934717551  0.0626575106293217  0.3684190232703557
  0.2503047349204337  0.1254653941613526  0.4550458666148600
  0.0839411334970208  0.0626392213750080  0.4546939518539261
  0.4161504047119209  0.0626516577566747  0.4542777327977916
  0.9999367971524222  0.1252707510112998  0.5411274651395885
  0.3352514904194948  0.0628866745581504  0.5418834494223432
  0.0000299828991075  0.1250678428480612  0.1975328620113856
  0.3340908003806717  0.1875710013427678  0.2027068640118728
  0.1657939512813513  0.1875715424210895  0.2028117511372898
  0.2499645491912474  0.2501031000242406  0.2779768335624908
  0.0827081535581513  0.1876035618807776  0.2841183407337695
  0.4171696825093676  0.1875972434188711  0.2839896477439439
  0.0000022469248364  0.2501036082647516  0.3699275101869048
  0.3324629117438320  0.1876083048484887  0.3684109987460857
  0.1673864260823947  0.1876085818058257  0.3685031183268066
  0.2505712287490951  0.2497399543952241  0.4550920881243457
  0.0836251004939896  0.1875996095028256  0.4547556490273053
  0.4163216511386025  0.1875242810726974  0.4542747005355636
  0.9998811320819101  0.2500064938994768  0.5411599486983292
  0.3359982655716394  0.1868030621441719  0.5417125681206443
  0.1656131986313625  0.1874984444980541  0.5418967999734861
  0.0000339400600708  0.2500312930245627  0.1975494854974897
  0.3341488232246803  0.3126076681918519  0.2027419125364389
  0.1657947678544645  0.3126338412000820  0.2028528749723932
  0.2499545500983018  0.3751349881348460  0.2780123535003654
  0.0827747955749842  0.3126096758576011  0.2841599748253145
  0.4171188479021737  0.3126020655328077  0.2840351896285469
  0.9999742624001442  0.3750900483026314  0.3699752719602003
  0.3325517046109994  0.3126173084054926  0.3685555776650773
  0.1673697732948085  0.3126168589825085  0.3684811595920507
  0.2504709494142361  0.3753866143106777  0.4552668635482959
  0.0839314609558528  0.3125382928067495  0.4546634465208257
  0.4163986511936386  0.3125487524682811  0.4545423670402755
  0.9995257541186504  0.3751022278470089  0.5409242691497980
  0.3346430966488612  0.3117518636693077  0.5423080750836533
  0.0000786120948888  0.3750994944884525  0.1975643652640997
  0.3341498348055509  0.4376038202811756  0.2027545889935709
  0.1657930230611626  0.4375882546550756  0.2028451725033023
  0.2499266279062553  0.0001104649543322  0.2779250266659474
  0.0827448321237938  0.4376203612196932  0.2841321682460176
  0.4171842870915725  0.4376124427855643  0.2840793615823074
  0.0000154356082476  0.0001640117960306  0.3698958632922711
  0.3326567141355881  0.4376154019159699  0.3686438270263537
  0.1674974364364843  0.4376245750304690  0.3685149467811684
  0.2504956143237536  0.9998320433114287  0.4550303171018157
  0.0834582570771190  0.4376108863607158  0.4546396209735164
  0.4166918750252222  0.4376538640043037  0.4546485621966241
  0.9999608487603737  0.0001136420539538  0.5411482259069018
  0.3312685897209064  0.4367639560031975  0.5405487519430352
  0.1637623176184917  0.4376074233250904  0.5417134412294331
  0.0000963411558459  0.5000675029581814  0.1975208637279167
  0.3341698624701408  0.5625842181405432  0.2027553212147097
  0.1657810733780920  0.5625781586194165  0.2028521209456713
  0.2499489670355715  0.6251294198696442  0.2780148914674996
  0.0827696362341115  0.5626232676746525  0.2841496352840167
  0.4171427659395874  0.5626201656361403  0.2840776864190317
  0.9999657489073854  0.6251786432174171  0.3699581040551934
  0.3326352113189657  0.5626737846211469  0.3686222446607488
  0.1674237040271009  0.5626780027745966  0.3684373722404857
  0.2503547041556402  0.6256372226143228  0.4552095694826050
  0.0837344012889929  0.5627279983919991  0.4545696881276911
  0.4165245042634353  0.5627803860672458  0.4546476498003074
  0.9994217826789153  0.6253828801919141  0.5409534451149014
  0.3308432420737830  0.5637212130979634  0.5407943260244679
  0.0000872096921043  0.6250647039148589  0.1975569884588779
  0.3341249600954939  0.6875697566889016  0.2027577355683050
  0.1657876213270271  0.6875730968105600  0.2028478482049110
  0.2499664730122220  0.7501410786442761  0.2779798794222117
  0.0827359290569660  0.6876452583966142  0.2841409830496602
  0.4171934225496869  0.6876327413162500  0.2840538651330036
  0.0000050278932662  0.7502140634886914  0.3699190637314018
  0.3324913179278255  0.6877145312028148  0.3685047436590381
  0.1673990040859721  0.6877031286800559  0.3685267929097833
  0.2504221738729200  0.7499587239052730  0.4550480152295293
  0.0835212547840314  0.6877931838761597  0.4546942779770831
  0.4164660132425411  0.6878693245165408  0.4544359406056628
  0.9998389035136483  0.7501635503166071  0.5411088856135109
  0.3351367826655292  0.6888920324099104  0.5420122339926010
  0.1649660962321207  0.6878691612062866  0.5418125555144186
  0.0000505741956118  0.7500807837568360  0.1975510655102255
  0.3341165880903176  0.8125709816698787  0.2027171225218822
  0.1658012245840581  0.8125952981378148  0.2028377197694269
  0.2498834272630077  0.8751670149131314  0.2779482978387691
  0.0827556274075718  0.8126530375710956  0.2841488673428714
  0.4171338948619550  0.8126335479452464  0.2839814960267475
  0.0000180326395167  0.8751939956027286  0.3699271216687805
  0.3324638492974401  0.8127298215619447  0.3683806011841781
  0.1673204055945234  0.8127292949430824  0.3684255338058122
  0.2502708985175914  0.8755811370441222  0.4550325836238898
  0.0839239089262662  0.8127483684208485  0.4546861872743975
  0.4161807765379706  0.8128841924020733  0.4542298584719617
  0.9999045406868419  0.8752683651174635  0.5411239911074404
  0.3354136082261476  0.8136462687155301  0.5418408700645898
  0.0000455856690920  0.8751097432918300  0.1975390192391302
  0.3341386427718476  0.9375723702755536  0.2026569150679762
  0.1657435580272022  0.9375691804699500  0.2027465143653231
  0.2500207457296710  0.5001169269789756  0.2780283648454116
  0.0827150096303555  0.9376402823041019  0.2840974837316637
  0.4171748367068844  0.9376251332164074  0.2839812475654924
  0.9999366520755117  0.5001546456233967  0.3699528471461946
  0.3324261083402362  0.9376908667550907  0.3683733337246053
  0.1673706427124486  0.9376787524549286  0.3684899113625235
  0.2504607837971520  0.4998803377398815  0.4551904914304430
  0.0836198186461132  0.9377190420077142  0.4547442470087475
  0.4162867873360554  0.9377204379672506  0.4542543896333058
  0.9992304363146403  0.5001215101949015  0.5408622895596977
  0.3357672255750117  0.9376370296709098  0.5416813949755834
  0.1656785536981147  0.9377826380238616  0.5419844193798511
  0.5000005021357055  0.0000525831516143  0.1974735095650217
  0.8342322969629947  0.0626054071807758  0.2027483240928447
  0.6658679719834950  0.0625941409366391  0.2026384040967528
  0.7501387223553095  0.1250934779743318  0.2778975404096258
  0.5829099640237700  0.0626056363207041  0.2839453566918024
  0.9172604268121205  0.0626194899462078  0.2840936489383381
  0.5000244084376959  0.1251038223615453  0.3696295438656421
  0.8327021732421329  0.0626565860362334  0.3683912127825337
  0.6675828847993444  0.0626401839351871  0.3683552316188496
  0.7497307566113918  0.1254736218481440  0.4550354361027829
  0.5839264587594855  0.0626543486132718  0.4542848819803353
  0.9160575617593665  0.0626442168547996  0.4546764444174656
  0.5000626251176783  0.1249739476831735  0.5410309903379584
  0.6647464450481522  0.0629474211507173  0.5418693725537480
  0.4999812629993698  0.1250648007496409  0.1974759641737336
  0.8342405589439750  0.1875574973284699  0.2027885956401150
  0.6658864789470158  0.1875549067959241  0.2026783638871095
  0.7500920674158564  0.2501087457647273  0.2779453711276858
  0.5828443900960494  0.1875922113616895  0.2839757098360707
  0.9173408892795649  0.1876091725940583  0.2841042880428972
  0.4999814056182501  0.2499943775767406  0.3696441074373809
  0.8326703993568572  0.1876131497727016  0.3684854499968537
  0.6675790183874213  0.1875925072361682  0.3683916038562600
  0.7495747905230772  0.2496877128626238  0.4549982678506552
  0.5837770993306037  0.1875117765944765  0.4542273488112514
  0.9164075426565361  0.1876143735301312  0.4547769353207585
  0.8342679039167606  0.1876052175538021  0.5419430791223832
  0.6642497040001061  0.1871015733039556  0.5416229291283017
  0.4999813402265545  0.2500610037383737  0.1975182141150640
  0.8342487113619157  0.3126225903622455  0.2028209675935315
  0.6658577297060049  0.3125983987048286  0.2027014556827282
  0.7501480851728246  0.3751017973860087  0.2779294274734099
  0.5828694341103358  0.3125896396174142  0.2839761897869835
  0.9173251822090833  0.3126125540262805  0.2841071176090395
  0.4999531799695944  0.3750947718712112  0.3697573121006954
  0.8326628476542055  0.3126027355023808  0.3683646914297611
  0.6675244258267696  0.3125900438136213  0.3683471566401124
  0.7497960324037791  0.3754309259235384  0.4549995064304468
  0.5839271900726857  0.3125359388176889  0.4542914113760048
  0.9161020778509652  0.3125678655886901  0.4546573810294419
  0.5011692203998521  0.3751709361047517  0.5409659722962061
  0.6649650494208359  0.3126882083178089  0.5417296984298829
  0.4999581921835841  0.3750916737157084  0.1975223273822451
  0.8342210531170906  0.4375787123047843  0.2028065651885456
  0.6659038533373973  0.4375814376851395  0.2027185841362709
  0.7500853650169361  0.0001083527897165  0.2778989288073461
  0.5827925468736765  0.4376124354138682  0.2840249625269138
  0.9174163444810546  0.4376252748551721  0.2840657108785152
  0.5000317839216848  0.0001262075222854  0.3695782545825921
  0.8324778626274210  0.4376210055904295  0.3683692871874058
  0.6674098906123405  0.4376094490740954  0.3683989937925531
  0.7495195718555507  0.9998081369018408  0.4550152495725257
  0.5839215875918384  0.4376143684209666  0.4542736777634175
  0.9164473490583163  0.4376218160654233  0.4546126451084902
  0.8345571912818102  0.4376140184083610  0.5418258618252025
  0.6653562976934140  0.4373742187760712  0.5411943444219602
  0.4999631507922402  0.5000625487448431  0.1975351452186018
  0.8342495802187742  0.5625773941442134  0.2027985377225932
  0.6658703312829104  0.5625827177599447  0.2027050215173674
  0.7501587203838582  0.6251489774525965  0.2779258266635125
  0.5828532392866421  0.5626159805102091  0.2840163554040274
  0.9173873301060098  0.5626259874064417  0.2840844211427722
  0.4999673809548426  0.6252324698403271  0.3697445147041805
  0.8325666863535091  0.5626758358373394  0.3683114232124538
  0.6674292422608588  0.5626928133519158  0.3684088511757437
  0.7498332412305615  0.6255595042679474  0.4549800910747237
  0.5839778912279030  0.5627338064459479  0.4542820037469184
  0.9161460526582772  0.5626995183248766  0.4545329773251723
  0.5010958323328651  0.6251068070826165  0.5408838224262169
  0.6657614238466678  0.5631279646892651  0.5413671591190905
  0.4999542670289401  0.6250732613515240  0.1975296838155600
  0.8342694305119736  0.6875320368591957  0.2027972042122670
  0.6658760275754290  0.6875412245582453  0.2027065638122636
  0.7501051574916673  0.7501179885286291  0.2779391001794025
  0.5828277091585008  0.6876342134252624  0.2839989535167788
  0.9173740671201642  0.6876395419654600  0.2840847422348247
  0.5000127422907497  0.7502746320712532  0.3696179908706512
  0.8326147603537919  0.6877063174821458  0.3684175180967273
  0.6675908194789102  0.6877224660638888  0.3683471893236714
  0.7496018466128334  0.7499380415577548  0.4549763543744589
  0.5838129559663798  0.6878330202995073  0.4542155861854837
  0.9164259427778774  0.6877636901125754  0.4547066936468696
  0.8343469632242559  0.6878101393467944  0.5419045859658027
  0.6644595062768559  0.6877315201026732  0.5414432587085969
  0.4999854512253918  0.7500445771100317  0.1975286057148438
  0.8342379386750807  0.8125871010742927  0.2028029365420565
  0.6658751520589945  0.8125813273280400  0.2026787305255340
  0.7501418011511305  0.8751612730800673  0.2779008578520816
  0.5829012719964197  0.8126326858242479  0.2839582146044037
  0.9173093791066336  0.8126391655994567  0.2841159919030503
  0.5000238997447468  0.8752371116488504  0.3696382055465506
  0.8327405009912212  0.8127136856272585  0.3683970768780895
  0.6675927094040119  0.8127264040490232  0.3683575631890079
  0.7497576997769428  0.8755637433558050  0.4550246905605704
  0.5839395394273552  0.8128449957716484  0.4542174881357681
  0.9160750090119052  0.8127301630943506  0.4546774222271424
  0.5000349709977883  0.8752468935509796  0.5410153523485377
  0.6647300181740690  0.8132854875497983  0.5418204606696193
  0.4999791050388893  0.8751142291658525  0.1974821640833540
  0.8342594608872389  0.9375458530828027  0.2027347647433899
  0.6658689969261928  0.9375485348888475  0.2026472415288083
  0.7501099551354358  0.5001098124571826  0.2779053525226303
  0.5828640368736373  0.9376239383224885  0.2839656497652712
  0.9173156868891610  0.9376386771771266  0.2840778986828241
  0.4999906095011468  0.5001369278120293  0.3697479191729229
  0.8326556581808902  0.9376694939675758  0.3684615240676266
  0.6676231264646333  0.9376791889225728  0.3683661277981116
  0.7497271687488549  0.4998528876140895  0.4549050729195514
  0.5838149321752013  0.9376860138655303  0.4542448950299303
  0.9163908448093423  0.9377072064203773  0.4547260952661460
  0.8342813018762669  0.9377219161820207  0.5419538908863331
  0.6643313293183866  0.9374603868977971  0.5416521765219926
  0.4055506746697404  0.0000772196314003  0.2322524201140368
  0.2499370948768131  0.0000767928641068  0.1994328172280291
  0.0943384917800145  0.0000939152667669  0.2323853289539386
  0.1549539816191725  0.1251571621522274  0.3158566446319639
  0.0000105614980583  0.1250925705743811  0.3032401806124838
  0.3449858732640720  0.1251422595273155  0.3157509404141763
  0.4009068906330597  0.1251306501684226  0.4021895801008384
  0.2498361230720860  0.1251121011890319  0.3872629526269620
  0.0990366906026026  0.1251477667548073  0.4024832303383050
  0.1524412380447302  0.1250094180485277  0.4877239281935957
  0.0000044683655958  0.1249393540027626  0.4732048895726066
  0.3484928474443407  0.1251362746058788  0.4878864132385985
  0.4026277403891925  0.1252091964866722  0.5703767834676157
  0.2493184479501096  0.1240731984278227  0.5576406582879230
  0.0988114728686114  0.1230993232546709  0.5695628446873187
  0.4055547407903290  0.1250906895286903  0.2322372546782105
  0.2499521283679513  0.1250674398559681  0.1993219690263928
  0.0943256124880989  0.1250883659758912  0.2324043389899373
  0.1549878862225782  0.2500971190319703  0.3158622850799304
  0.0000343165165191  0.2501288688264864  0.3032638027839454
  0.3449685862384868  0.2501204904876886  0.3158402187637179
  0.4009787735203645  0.2500705858319492  0.4022004305669284
  0.2499684819263592  0.2501212403511559  0.3873197055927804
  0.0990649433355131  0.2500821187182893  0.4024818181352430
  0.1526583103854691  0.2501639348301978  0.4877656143183913
  0.0000162166668289  0.2502886039628152  0.4732716610575025
  0.3485000266011298  0.2500515820664475  0.4879636052646745
  0.4069664332152456  0.2501903616934769  0.5697768273989823
  0.2499801398353299  0.2518376263891611  0.5580969249130945
  0.0987813025226671  0.2519566060774920  0.5696548902610132
  0.4055464833634304  0.2500851694780550  0.2322975299641783
  0.2499400135350811  0.2501103883869931  0.1994589070481823
  0.0943327277748409  0.2501064185732318  0.2324215083867500
  0.1550583843253506  0.3751511392539300  0.3159208346068070
  0.0000465886002132  0.3751111428612646  0.3032892292618783
  0.3449992018639847  0.3751419896484762  0.3159092219238531
  0.4009880938170980  0.3751544655664318  0.4024261145927852
  0.2499545111131312  0.3750996482037294  0.3875042396712445
  0.0990472396236015  0.3751052353297979  0.4024153364082039
  0.1522099475821790  0.3749275965902399  0.4876334856926121
  0.9999527192184843  0.3749110746804334  0.4729968501323825
  0.3488864782433510  0.3748321111981170  0.4884001050886226
  0.4015760748935122  0.3752248955950037  0.5721584830688968
  0.2482919763298170  0.3744199315234056  0.5576808002273665
  0.0980766277596530  0.3727310362627421  0.5696425181883598
  0.4055685079085762  0.3751153580573643  0.2323275583032824
  0.2499871303134782  0.3751018824180932  0.1994374238788978
  0.0943326923959020  0.3751032599687605  0.2324648263206868
  0.1549257862957276  0.0001139720639216  0.3158268159836553
  0.0000070306525402  0.0001461641826452  0.3032248894246408
  0.3449728513446502  0.0001281520773659  0.3157453574909255
  0.4009460700837977  0.0001289053469620  0.4020774940680312
  0.2499317899089348  0.0001912155917978  0.3872404897229700
  0.0990689885228946  0.0001684999302114  0.4024803128152854
  0.1526385083813011  0.0002734224222323  0.4877859691980149
  0.9999967610104150  0.0003528211486170  0.4732961211185938
  0.3484622863750957  0.0001800041903834  0.4878278959166238
  0.4073275924242736  0.0000156010382213  0.5696496306320853
  0.2498769058010453  0.0013003202608530  0.5581686850820020
  0.0988010182272134  0.0022077010901072  0.5696616764771107
  0.4055688080131361  0.5000996253718029  0.2323594628101162
  0.2499602232059601  0.5000995208211094  0.1995531126377941
  0.0943346498581263  0.5001008146491657  0.2324595492962729
  0.1550323657769255  0.6251781153858360  0.3159086524495507
  0.0000487681092949  0.6251218708465913  0.3032811842344785
  0.3449997208068609  0.6251514247469458  0.3158905375379035
  0.4009427483198564  0.6252695588286059  0.4023577312508451
  0.2499140006488147  0.6251660829994137  0.3874489391565561
  0.0990297940890059  0.6252120373167429  0.4024048655921675
  0.1520967725777922  0.6252078403230570  0.4876413468696086
  0.9999021440558877  0.6250641340508309  0.4729911248361987
  0.3487459990257449  0.6257659948675922  0.4883448098211787
  0.4014140397369772  0.6253350228071710  0.5721118598938872
  0.2479295754329343  0.6236520912393146  0.5577515226258356
  0.0979879000987438  0.6233874343445578  0.5696524468554216
  0.4055735335455566  0.6250929556609748  0.2323434392530075
  0.2499608664959325  0.6250676349931013  0.1995180922681357
  0.0943418396384601  0.6250966551298944  0.2324682728757210
  0.1549867399381952  0.7501382293618448  0.3158589346879523
  0.0000396333878570  0.7501519767374845  0.3032596230876976
  0.3449762166088277  0.7501416066800388  0.3158268380665845
  0.4009625340212466  0.7502153588796432  0.4021406785537494
  0.2499391182349555  0.7502568108704040  0.3872768889491169
  0.0990550848327842  0.7502349072842875  0.4024716566976991
  0.1525514950261169  0.7503742487555698  0.4877540936404543
  0.9999844924506860  0.7504366564097964  0.4732245438500655
  0.3484224720240903  0.7503565966095991  0.4878455800490258
  0.4070161761089679  0.7498486579879398  0.5696321746376682
  0.2501233081603544  0.7506603993699059  0.5579873208986399
  0.0986950990327173  0.7524531089648576  0.5696667082152516
  0.4055555700700779  0.7500826092852435  0.2323097212230394
  0.2499427062417610  0.7500705694330136  0.1994130075838711
  0.0943352015857073  0.7501059368379330  0.2324307135847263
  0.1549534071212904  0.8751992009002336  0.3158647031943502
  0.0000154391721736  0.8751411609302693  0.3032409678541725
  0.3449917036647037  0.8751677058185834  0.3157576614967752
  0.4009068876330133  0.8753156350861033  0.4021648075209754
  0.2498235635670483  0.8751725447870129  0.3872557148265727
  0.0990398624786835  0.8752014697525112  0.4024851242870255
  0.1524154482981430  0.8751407137385598  0.4877392804632592
  0.9999983631015539  0.8750760240902054  0.4731946744818671
  0.3484603979529410  0.8753740097815523  0.4878599607668050
  0.4025728411774736  0.8754583806685403  0.5703339413314623
  0.2492218707313967  0.8737884457164284  0.5576513255783766
  0.0987367595254440  0.8731934482024641  0.5695709344320150
  0.4055619822584546  0.8751150079225312  0.2322542921579540
  0.2499656889240569  0.8750857630674815  0.1993816740288850
  0.0943374590265833  0.8751094056831903  0.2324202494836953
  0.1550245503454448  0.5000989816789811  0.3158899398461230
  0.0000454866295243  0.5001326875840775  0.3032810397515391
  0.3450140970771756  0.5001044732136108  0.3159362094837093
  0.4010545681680000  0.5001276562783303  0.4023666089937734
  0.2500728664871446  0.5001545945253767  0.3874702445005980
  0.0990746864351379  0.5001382909846370  0.4023623372152372
  0.1520017290326194  0.5002716041810302  0.4875670973201878
  0.9998629497716749  0.5003264823777869  0.4729676430709944
  0.3486267991812468  0.5001555883707027  0.4882970700833056
  0.4015497592857713  0.5003308883685946  0.5715250020020690
  0.2476800388764033  0.5013223660217250  0.5578738644212393
  0.0976547646247852  0.5022637140272224  0.5696892067238934
  0.9056727662522519  0.0000950124063195  0.2323656865097519
  0.7500641953815474  0.0000752426969228  0.1994586689643683
  0.5944672489170344  0.0000734577413795  0.2322361687790462
  0.6550429506365347  0.1251366210705882  0.3157357665969869
  0.5000087708745795  0.1250907671735391  0.3029738111025253
  0.8450620670938989  0.1251648568346937  0.3158320170304947
  0.9009914525190652  0.1251459848109349  0.4024726908221794
  0.7502138335656525  0.1251048975994209  0.3872343896302155
  0.5991507795144457  0.1251228183219979  0.4021758232101078
  0.6515815437227985  0.1251585913535180  0.4878778786404467
  0.5000239068129133  0.1250559320924935  0.4730710882735210
  0.8475989656427103  0.1250238412817026  0.4877129611066096
  0.9011979146608695  0.1230633052151120  0.5695746264524999
  0.7507073498345136  0.1239205389610021  0.5576165579026338
  0.5973173677355987  0.1252950838495579  0.5703126446090536
  0.9057068638801766  0.1250911116857765  0.2323878753484436
  0.7500444713461434  0.1250780685810469  0.1992508938150124
  0.5944329247849822  0.1250920347906614  0.2322228576231211
  0.6550486457018891  0.2500762648988442  0.3157568028913076
  0.5000007237743986  0.2501134982798590  0.3029932048471764
  0.8451109358893092  0.2500734872109547  0.3158156973820567
  0.9009378879321162  0.2500868762602479  0.4024771709450619
  0.7500941450787835  0.2501260120862838  0.3872153493345962
  0.5990854139000561  0.2500328151303108  0.4020750187085937
  0.6516658344266730  0.2500104634706020  0.4877636944698196
  0.5000652938080208  0.2499545370781533  0.4725593766823764
  0.8474287737858006  0.2502397111282733  0.4877548902989517
  0.9011004682577877  0.2521173970952333  0.5697135396590909
  0.7500726803041999  0.2512678100486809  0.5580806032190040
  0.5926875207672566  0.2502402482972172  0.5694468090529199
  0.9057187463537133  0.2500983948355398  0.2323925965648428
  0.7500640851503348  0.2500985146660710  0.1995325338150096
  0.5944329513819966  0.2500750037012338  0.2322599103714111
  0.6550328339340012  0.3751238468055575  0.3157431522657248
  0.4999928374091454  0.3750860981488060  0.3030870934401335
  0.8450901897296035  0.3751532630717449  0.3158195980141585
  0.9008884065069225  0.3751151053377981  0.4023941358977865
  0.7501610997721926  0.3750654662531829  0.3872411672045999
  0.5991305443985837  0.3751068806513231  0.4021698517267538
  0.6516937421040154  0.3750620409249805  0.4877003755198714
  0.5003264623329287  0.3750043835169734  0.4729831922960059
  0.8477333232174971  0.3749913433046927  0.4876350813280936
  0.9011482152282824  0.3730285576549335  0.5696296322050287
  0.7511145300048696  0.3737868119145844  0.5574745743456404
  0.5982487633171303  0.3758028356959500  0.5701664313025816
  0.9057636710201038  0.3751086536243662  0.2324025925864888
  0.7500405812255693  0.3750790380835127  0.1993310369618015
  0.5943997765616231  0.3751119787273609  0.2322694312446174
  0.6550573068653947  0.0001223076961949  0.3157341511881810
  0.5000196472787479  0.0001293448429891  0.3029457890821803
  0.8450881311824006  0.0001097763396842  0.3158022710319486
  0.9009606792098239  0.0001607955115048  0.4024559757468822
  0.7501041186858046  0.0001846944970012  0.3872183383331702
  0.5991262073776653  0.0001174406044555  0.4020784254843974
  0.6515675181784815  0.0001345468779590  0.4878330586968289
  0.5000260695111436  0.0002217720568467  0.4726366202015058
  0.8473717337056144  0.0002642319337127  0.4877584221925702
  0.9011732337164347  0.0021813416306173  0.5696319640719878
  0.7501008525561161  0.0012699250623314  0.5581471231695332
  0.5926794780430740  0.9999593528983439  0.5696273819546676
  0.9057945898559439  0.5001003342651984  0.2323897364103757
  0.7500648868112947  0.5000943910740503  0.1994339289342761
  0.5944128341935340  0.5000903883528878  0.2322999369149557
  0.6550555746624056  0.6251635441355958  0.3157418962538259
  0.5000058450154228  0.6251170183898438  0.3030850858677212
  0.8451025448482099  0.6251737562088522  0.3158138284247372
  0.9008925580352170  0.6252164655139296  0.4023822391065295
  0.7501999792223373  0.6251809383473912  0.3872287262107648
  0.5991716262788600  0.6252858135689863  0.4021412853320570
  0.6516797390604339  0.6254076611910975  0.4876562337042358
  0.5002641903413405  0.6252902691212441  0.4728736629647798
  0.8477611170121691  0.6250680016986365  0.4876354530549278
  0.9010265608908483  0.6231605903865685  0.5696374617645645
  0.7511157708181244  0.6239848950058402  0.5574838101952793
  0.5982150393483963  0.6249152945209815  0.5700988576234067
  0.9057765039683190  0.6250821382358964  0.2324028578116071
  0.7500639624927388  0.6250686268301564  0.1993726109331888
  0.5943967414623472  0.6250877331617346  0.2322830377290899
  0.6550647162190941  0.7501661039014138  0.3157473050791353
  0.5000137455516978  0.7501455986754095  0.3029922714623936
  0.8451175285843178  0.7501434249377326  0.3158044981953694
  0.9009375583659036  0.7502145620099228  0.4024550266100775
  0.7501156943670253  0.7502396148759374  0.3871935028159044
  0.5991254898315006  0.7502192184371168  0.4020455450173088
  0.6516907873205966  0.7503075361373348  0.4877196230152308
  0.5000637685295644  0.7505356931086880  0.4724778107839285
  0.8474356093141182  0.7503160452238831  0.4877182179691104
  0.9011145709123554  0.7522463348984374  0.5696812521489321
  0.7500776253185037  0.7512831341060533  0.5580565377969577
  0.5926788908489939  0.7497236781710725  0.5693999526590190
  0.9057373131413158  0.7500959517705539  0.2323859097780456
  0.7500716845737898  0.7500554046060941  0.1995088896908115
  0.5944454533724439  0.7500764781085891  0.2322622317908909
  0.6550555962157105  0.8751636064228094  0.3157319664222484
  0.5000173168016246  0.8751212043088472  0.3029739642520397
  0.8450774416842677  0.8751861340976248  0.3158264874825463
  0.9009935774512314  0.8752044032199535  0.4024620297835213
  0.7502348396547447  0.8751592140756372  0.3872226645578394
  0.5991791565135074  0.8752902557416178  0.4021585228943323
  0.6516272500108258  0.8752950958988137  0.4878562672024529
  0.5000450567959902  0.8751705906338003  0.4730516998047136
  0.8476202935588475  0.8750870073580117  0.4877125967988789
  0.9011853470850966  0.8731574974830494  0.5695826789628171
  0.7507327279187592  0.8738554405007477  0.5576096880036445
  0.5973360429221160  0.8753193128537404  0.5702874419618738
  0.9057110162694570  0.8751018389219993  0.2323870029815680
  0.7500507225936701  0.8750633852121368  0.1992743035614879
  0.5944295509154429  0.8751082778649817  0.2322265378214539
  0.6550411842022257  0.5001154416393305  0.3157555846938607
  0.5000002098874461  0.5001296387020986  0.3030861830969656
  0.8450999072900416  0.5001049711333181  0.3157857148950498
  0.9008273246055012  0.5001286100057527  0.4023511320265669
  0.7500382682963220  0.5001613366812805  0.3871740460864146
  0.5990893022814348  0.5001147718926546  0.4021421053441259
  0.6518843115376569  0.5001413172661771  0.4875606081766648
  0.5003482642245416  0.5002202164109093  0.4730520864948744
  0.8476524374929397  0.5002831845799776  0.4876234779044140
  0.9009917291663996  0.5021908709986818  0.5697044618235978
  0.7508105548603297  0.5013234603013501  0.5578474186813835
  0.5954774857402967  0.5000761207876039  0.5691306599374499
  0.1646432162627676  0.0625856947815038  0.5404507156412706
  0.1639914465171088  0.3125039890432575  0.5403060016926560
  0.1627295490781009  0.5627708954883133  0.5401921603931612
  0.1644648232203991  0.8128333672876877  0.5403802506718236
  0.8352948811312686  0.0626049753461189  0.5404122495019266
  0.4999360266650470  0.2505910726900851  0.5397712179232599
  0.8353555221753126  0.3125504098059366  0.5403914341264127
  0.4999641736344529  0.0000635982083494  0.5398364553887305
  0.8353787710295748  0.5627029653856397  0.5402590407776415
  0.4999314130553287  0.7495218846826432  0.5396821758634971
  0.8352794431554358  0.8126794361788896  0.5403887685198967
  0.5021720526134530  0.5003235559104127  0.5401645702801972
  0.4388359286597492  0.5620907043152314  0.6085285010353303
  0.4385809064737813  0.4386523376666602  0.6083372511953797
 
  0.00000000E+00  0.00000000E+00  0.00000000E+00
  0.00000000E+00  0.00000000E+00  0.00000000E+00
  0.00000000E+00  0.00000000E+00  0.00000000E+00
  0.00000000E+00  0.00000000E+00  0.00000000E+00
  0.00000000E+00  0.00000000E+00  0.00000000E+00