Mo  S Cu                                
   1.00000000000000     
    15.9214998300000001    0.0000000000000000    0.0000000000000000
    -7.9622501300000001   13.7910221699999997    0.0000000000000000
     0.0000000000000000    0.0000000000000000   13.5821998300000004
   Mo   S    Cu
    25    50     3
Direct
  0.1330348641773966  0.0655269658999629  0.6774904200605363
  0.1328797601416341  0.2656902142026638  0.6772111775779379
  0.1334250277791540  0.4657443189929822  0.6782127643253588
  0.1335715797930987  0.6659501647975006  0.6783867868193454
  0.1335483801186399  0.8659692259152791  0.6781543031626285
  0.3335639273025492  0.0660092770674936  0.6792168197831430
  0.3321466723580713  0.2652217264604531  0.6773676724857012
  0.3331326264500589  0.4657009076363039  0.6783647654198504
  0.3335816912125651  0.6661348092615640  0.6782740032226968
  0.3335576956537096  0.8660382082116342  0.6787081771692129
  0.5339009793628549  0.0661734720452856  0.6795358690380553
  0.5337434658798088  0.2663057041917654  0.6828222725577149
  0.5330954626886921  0.4657955330796142  0.6804977981211309
  0.5334794900075934  0.6662319396936027  0.6785798319686833
  0.5335096204910172  0.8660005558007029  0.6783270267141859
  0.7334001219860156  0.0654193731007666  0.6778888253177158
  0.7341046820203303  0.2652977779695007  0.6782022825560574
  0.7336651851545852  0.4661034507516320  0.6807095404030150
  0.7335379917284754  0.6661402666515670  0.6784520545259909
  0.7333595126408810  0.8657294403742881  0.6777893292273163
  0.9330642850297082  0.0655868067925454  0.6772183908611566
  0.9333549454695103  0.2656333233166919  0.6775450408799983
  0.9334035568179999  0.4656841539276471  0.6786686702867684
  0.9335545763922468  0.6660353195064275  0.6787047725374080
  0.9333762792148121  0.8657307273334851  0.6777287849492595
  0.0664901470421668  0.1322577890611427  0.5620995888883300
  0.0660690992482884  0.1319486701207637  0.7925287102306200
  0.0665937067535651  0.3326933771138556  0.5623791882116222
  0.0666825853266317  0.3322861063371363  0.7932796515620311
  0.0666243888430103  0.5325403222199512  0.5633514354872275
  0.0669558833815245  0.5325446778243972  0.7933975862759937
  0.0667214021965066  0.7324273432245150  0.5633062610973241
  0.0671158537115346  0.7328656390457766  0.7934299923755361
  0.0667420949983750  0.9321805586031786  0.5625596227832190
  0.0665422929222856  0.9325349692107920  0.7928712875427664
  0.2670751060905445  0.1321738434401993  0.5629506561296296
  0.2653678976183613  0.1316560346510869  0.7935759657070633
  0.2666294552081112  0.3326145939568548  0.5622330252992711
  0.2649278973296560  0.3323727407127137  0.7927588152758034
  0.2670222190530609  0.5327250740202985  0.5631842063326644
  0.2664640046355800  0.5323950485616393  0.7937743196054328
  0.2669956202278954  0.7328767744645717  0.5633431159743196
  0.2668089070736812  0.7325581660833791  0.7936004199157196
  0.2674269103891120  0.9331497166829692  0.5635906589022710
  0.2665097830960903  0.9323047909689990  0.7937614798621979
  0.4678763907300052  0.1342774973745193  0.5657734438353401
  0.4662718023799286  0.1314553509238223  0.7961767458368314
  0.4674983229529914  0.3321063404180222  0.5656524890380652
  0.4642221004070635  0.3326442669870175  0.7964400119878050
  0.4671701292957806  0.5322668208060577  0.5641014363720558
  0.4662806327393483  0.5333928932751490  0.7946376752348172
  0.4668357154031497  0.7326671583429345  0.5632667340694439
  0.4668073828978265  0.7329217384639151  0.7935546389294217
  0.4670126513432749  0.9333118543131249  0.5638076669247880
  0.4668780274107505  0.9323358218865039  0.7939082107429414
  0.6664004429846884  0.1322594980744256  0.5634216973328847
  0.6676964785000479  0.1320121913785073  0.7939910467685252
  0.6659276246950796  0.3324447614418489  0.5660609824673131
  0.6694585375031465  0.3328456972497378  0.7967711429137125
  0.6662394765412358  0.5316588282140202  0.5649706858120851
  0.6672535560561244  0.5337804105097348  0.7951602077091167
  0.6665019698466708  0.7320930186807857  0.5631110942336406
  0.6670587588166015  0.7330513393452662  0.7934665051318106
  0.6664630109330005  0.9322421364271989  0.5627487970414009
  0.6669917991708587  0.9323754708972771  0.7931680300601585
  0.8663637476030743  0.1323301940168875  0.5623680204673320
  0.8668077324602805  0.1321900568509733  0.7926192904267992
  0.8666489099382702  0.3325551051096340  0.5628944791326447
  0.8675590599413638  0.3322277669102931  0.7935525297229589
  0.8659595391217536  0.5321602196192501  0.5643093123165031
  0.8681135819353472  0.5333130439948945  0.7945772394752098
  0.8665477041646028  0.7320191102850799  0.5631196923704280
  0.8669885432092315  0.7330699240021303  0.7935007153906852
  0.8664942746806261  0.9320808290336018  0.5623799375417491
  0.8668020338642890  0.9325761423053578  0.7925892723476338
  0.2441176230274991  0.3511595215242309  0.9478610164574519
  0.4924491019468178  0.3370453175633656  0.9577576249496502
  0.6353242264988523  0.3370171654012637  0.9543246550628979
 
  0.00000000E+00  0.00000000E+00  0.00000000E+00
  0.00000000E+00  0.00000000E+00  0.00000000E+00
  0.00000000E+00  0.00000000E+00  0.00000000E+00
  0.00000000E+00  0.00000000E+00  0.00000000E+00
  0.00000000E+00  0.00000000E+00  0.00000000E+00
  0.00000000E+00  0.00000000E+00  0.00000000E+00
  0.00000000E+00  0.00000000E+00  0.00000000E+00
  0.00000000E+00  0.00000000E+00  0.00000000E+00
  0.00000000E+00  0.00000000E+00  0.00000000E+00
  0.00000000E+00  0.00000000E+00  0.00000000E+00
  0.00000000E+00  0.00000000E+00  0.00000000E+00
  0.00000000E+00  0.00000000E+00  0.00000000E+00
  0.00000000E+00  0.00000000E+00  0.00000000E+00
  0.00000000E+00  0.00000000E+00  0.00000000E+00
  0.00000000E+00  0.00000000E+00  0.00000000E+00
  0.00000000E+00  0.00000000E+00  0.00000000E+00
  0.00000000E+00  0.00000000E+00  0.00000000E+00
  0.00000000E+00  0.00000000E+00  0.00000000E+00
  0.00000000E+00  0.00000000E+00  0.00000000E+00
  0.00000000E+00  0.00000000E+00  0.00000000E+00
  0.00000000E+00  0.00000000E+00  0.00000000E+00
  0.00000000E+00  0.00000000E+00  0.00000000E+00
  0.00000000E+00  0.00000000E+00  0.00000000E+00
  0.00000000E+00  0.00000000E+00  0.00000000E+00
  0.00000000E+00  0.00000000E+00  0.00000000E+00
  0.00000000E+00  0.00000000E+00  0.00000000E+00
  0.00000000E+00  0.00000000E+00  0.00000000E+00
  0.00000000E+00  0.00000000E+00  0.00000000E+00
  0.00000000E+00  0.00000000E+00  0.00000000E+00
  0.00000000E+00  0.00000000E+00  0.00000000E+00
  0.00000000E+00  0.00000000E+00  0.00000000E+00
  0.00000000E+00  0.00000000E+00  0.00000000E+00
  0.00000000E+00  0.00000000E+00  0.00000000E+00
  0.00000000E+00  0.00000000E+00  0.00000000E+00
  0.00000000E+00  0.00000000E+00  0.00000000E+00
  0.00000000E+00  0.00000000E+00  0.00000000E+00
  0.00000000E+00  0.00000000E+00  0.00000000E+00
  0.00000000E+00  0.00000000E+00  0.00000000E+00
  0.00000000E+00  0.00000000E+00  0.00000000E+00
  0.00000000E+00  0.00000000E+00  0.00000000E+00
  0.00000000E+00  0.00000000E+00  0.00000000E+00
  0.00000000E+00  0.00000000E+00  0.00000000E+00
  0.00000000E+00  0.00000000E+00  0.00000000E+00
  0.00000000E+00  0.00000000E+00  0.00000000E+00
  0.00000000E+00  0.00000000E+00  0.00000000E+00
  0.00000000E+00  0.00000000E+00  0.00000000E+00
  0.00000000E+00  0.00000000E+00  0.00000000E+00
  0.00000000E+00  0.00000000E+00  0.00000000E+00
  0.00000000E+00  0.00000000E+00  0.00000000E+00
  0.00000000E+00  0.00000000E+00  0.00000000E+00
  0.00000000E+00  0.00000000E+00  0.00000000E+00
  0.00000000E+00  0.00000000E+00  0.00000000E+00
  0.00000000E+00  0.00000000E+00  0.00000000E+00
  0.00000000E+00  0.00000000E+00  0.00000000E+00
  0.00000000E+00  0.00000000E+00  0.00000000E+00
  0.00000000E+00  0.00000000E+00  0.00000000E+00
  0.00000000E+00  0.00000000E+00  0.00000000E+00
  0.00000000E+00  0.00000000E+00  0.00000000E+00
  0.00000000E+00  0.00000000E+00  0.00000000E+00
  0.00000000E+00  0.00000000E+00  0.00000000E+00
  0.00000000E+00  0.00000000E+00  0.00000000E+00
  0.00000000E+00  0.00000000E+00  0.00000000E+00
  0.00000000E+00  0.00000000E+00  0.00000000E+00
  0.00000000E+00  0.00000000E+00  0.00000000E+00
  0.00000000E+00  0.00000000E+00  0.00000000E+00
  0.00000000E+00  0.00000000E+00  0.00000000E+00
  0.00000000E+00  0.00000000E+00  0.00000000E+00
  0.00000000E+00  0.00000000E+00  0.00000000E+00
  0.00000000E+00  0.00000000E+00  0.00000000E+00
  0.00000000E+00  0.00000000E+00  0.00000000E+00
  0.00000000E+00  0.00000000E+00  0.00000000E+00
  0.00000000E+00  0.00000000E+00  0.00000000E+00
  0.00000000E+00  0.00000000E+00  0.00000000E+00
  0.00000000E+00  0.00000000E+00  0.00000000E+00
  0.00000000E+00  0.00000000E+00  0.00000000E+00
  0.00000000E+00  0.00000000E+00  0.00000000E+00
  0.00000000E+00  0.00000000E+00  0.00000000E+00
  0.00000000E+00  0.00000000E+00  0.00000000E+00
