Ta  N Ru Cu                             
   1.00000000000000     
     9.0548154099999998    0.0000000000000000    0.0000000000000000
     0.0000000000000000   11.6775998899999998    0.0000000000000000
     0.0000000000000000    0.0000000000000000   26.4818170799999990
   Ta   N    Ru   Cu
    60    60    32     2
Selective dynamics
Direct
  0.0000000000000000  0.0000000000000000  0.2258397498815228   F   F   F
  0.6670845899906297  0.1250000003211298  0.2339882671631202   F   F   F
  0.3329153514769843  0.1250000003211298  0.2339882671631202   F   F   F
  0.4999999994478088  0.2499999997859135  0.3208898207564346   F   F   F
  0.1650707596845180  0.1250000003211298  0.3267034403329916   F   F   F
  0.8349292403154820  0.1250000003211298  0.3267034403329916   F   F   F
  0.0008847140913719  0.2502090039568350  0.4254762519182675   T   T   T
  0.6648924183075562  0.1252291763645703  0.4239668550310534   T   T   T
  0.3351057960951064  0.1252318862216438  0.4239303696386489   T   T   T
  0.4977389581192935  0.2505717893870509  0.5231762440889591   T   T   T
  0.1673334540786657  0.1255091110355888  0.5234907686979033   T   T   T
  0.8338669470590853  0.1255951254811823  0.5227907194960238   T   T   T
  0.0038303022432787  0.2510055826883010  0.6223610133324560   T   T   T
  0.6644281889119876  0.1262884931453019  0.6207702164255267   T   T   T
  0.3286133369782464  0.1259638347867686  0.6245154036467967   T   T   T
  0.0000000000000000  0.2499999997859135  0.2258397498815228   F   F   F
  0.6670845899906297  0.3750000001070433  0.2339882671631202   F   F   F
  0.3329153514769843  0.3750000001070433  0.2339882671631202   F   F   F
  0.4999999994478088  0.5000000004281731  0.3208898207564346   F   F   F
  0.1650707596845180  0.3750000001070433  0.3267034403329916   F   F   F
  0.8349292403154820  0.3750000001070433  0.3267034403329916   F   F   F
  0.0008423365139863  0.5002282868668642  0.4254675703295840   T   T   T
  0.6650429248676922  0.3751908239359713  0.4239746250074235   T   T   T
  0.3352131399053482  0.3751861413507246  0.4238998352416299   T   T   T
  0.4978443476656272  0.5005161714105519  0.5231703225102295   T   T   T
  0.1669020345145383  0.3755113942689952  0.5233622008693616   T   T   T
  0.8338146364451364  0.3756411805200312  0.5227615080878177   T   T   T
  0.9977737429840158  0.5006354303231630  0.6235422153684019   T   T   T
  0.6648603173950248  0.3762063486550038  0.6202072500947866   T   T   T
  0.3292633176804157  0.3755345250773334  0.6232626284753623   T   T   T
  0.0000000000000000  0.5000000004281731  0.2258397498815228   F   F   F
  0.6670845899906297  0.6249999998929567  0.2339882671631202   F   F   F
  0.3329153514769843  0.6249999998929567  0.2339882671631202   F   F   F
  0.4999999994478088  0.7500000002140865  0.3208898207564346   F   F   F
  0.1650707596845180  0.6249999998929567  0.3267034403329916   F   F   F
  0.8349292403154820  0.6249999998929567  0.3267034403329916   F   F   F
  0.0008408297820018  0.7502297508798512  0.4254638731138199   T   T   T
  0.6648705163782856  0.6251725692594500  0.4239681537903086   T   T   T
  0.3350892580675837  0.6251956703694781  0.4239214308751866   T   T   T
  0.4978751505766573  0.7505506524705140  0.5230799607878769   T   T   T
  0.1670829440077731  0.6254727249949793  0.5233705424003550   T   T   T
  0.8338573521392931  0.6255438018984348  0.5227886239741040   T   T   T
  0.0032370973839484  0.7511683551888648  0.6222397203697450   T   T   T
  0.6637489576461154  0.6262485237768070  0.6205615421801070   T   T   T
  0.3278457850802534  0.6257057291361271  0.6242315641641316   T   T   T
  0.0000000000000000  0.7500000002140865  0.2258397498815228   F   F   F
  0.6670845899906297  0.8750000005352163  0.2339882671631202   F   F   F
  0.3329153514769843  0.8750000005352163  0.2339882671631202   F   F   F
  0.4999999994478088  0.0000000000000000  0.3208898207564346   F   F   F
  0.1650707596845180  0.8750000005352163  0.3267034403329916   F   F   F
  0.8349292403154820  0.8750000005352163  0.3267034403329916   F   F   F
  0.0009066957988154  0.0003115370415030  0.4254669684098921   T   T   T
  0.6650361513338068  0.8752172386520850  0.4239449726460937   T   T   T
  0.3352665994975974  0.8752103780935060  0.4238990889300447   T   T   T
  0.4977377906143538  0.0006044554120986  0.5232137919288711   T   T   T
  0.1669812618923918  0.8755448798039941  0.5233129139930137   T   T   T
  0.8340006067727276  0.8757433073689341  0.5226478824140006   T   T   T
  0.0000223115443014  0.0006944291771562  0.6233792518260722   T   T   T
  0.6653008628548769  0.8766335663521364  0.6199073775328913   T   T   T
  0.3297945265818738  0.8754732856490191  0.6231363837603130   T   T   T
  0.8141011533980276  0.0000000000000000  0.2671765160246267   F   F   F
  0.4999999994478088  0.0000000000000000  0.2273691263583544   F   F   F
  0.1858988466019724  0.0000000000000000  0.2671765160246267   F   F   F
  0.3088456122590841  0.2499999997859135  0.3635413069267344   F   F   F
  0.0000000000000000  0.2499999997859135  0.3485649890092901   F   F   F
  0.6911543877409159  0.2499999997859135  0.3635413069267344   F   F   F
  0.8025973116059920  0.2503236069792659  0.4626620337069214   T   T   T
  0.4998748125289052  0.2502863524772296  0.4456193881670271   T   T   T
  0.1987806243447588  0.2503917469139383  0.4632416386559325   T   T   T
  0.3022539456689567  0.2503434136627022  0.5629297004287950   T   T   T
  0.0005102245250497  0.2505916462857625  0.5438724971967878   T   T   T
  0.6953888549493039  0.2503805871984786  0.5602540508772563   T   T   T
  0.8043020445677489  0.2511972421611406  0.6549593669395153   T   T   T
  0.5022767204387363  0.2512317557134707  0.6436914872882138   T   T   T
  0.1982969167449478  0.2519054452886262  0.6603717498500832   T   T   T
  0.8141011533980276  0.2499999997859135  0.2671765160246267   F   F   F
  0.4999999994478088  0.2499999997859135  0.2273691263583544   F   F   F
  0.1858988466019724  0.2499999997859135  0.2671765160246267   F   F   F
  0.3088456122590841  0.5000000004281731  0.3635413069267344   F   F   F
  0.0000000000000000  0.5000000004281731  0.3485649890092901   F   F   F
  0.6911543877409159  0.5000000004281731  0.3635413069267344   F   F   F
  0.8026651008088093  0.5004008768968941  0.4626862636081385   T   T   T
  0.4998717362788154  0.5002211533832005  0.4456382933055253   T   T   T
  0.1985388849084714  0.5002548008017735  0.4631839430499626   T   T   T
  0.3017189285660996  0.5007552099435576  0.5623136927979283   T   T   T
 -0.0000304981269885  0.5005805205744741  0.5444969189761513   T   T   T
  0.6958912456462042  0.5010694513614801  0.5604005904415132   T   T   T
  0.7977802448904471  0.5020152255566838  0.6588926126723336   T   T   T
  0.4993919056201649  0.5005903002044649  0.6397202905893100   T   T   T
  0.1966782918071760  0.4997403588302435  0.6587720771341702   T   T   T
  0.8141011533980276  0.5000000004281731  0.2671765160246267   F   F   F
  0.4999999994478088  0.5000000004281731  0.2273691263583544   F   F   F
  0.1858988466019724  0.5000000004281731  0.2671765160246267   F   F   F
  0.3088456122590841  0.7500000002140865  0.3635413069267344   F   F   F
  0.0000000000000000  0.7500000002140865  0.3485649890092901   F   F   F
  0.6911543877409159  0.7500000002140865  0.3635413069267344   F   F   F
  0.8026243480902947  0.7503253016213072  0.4626230447744004   T   T   T
  0.4998868703399267  0.7502846654875597  0.4455849804585250   T   T   T
  0.1987253776221726  0.7503978504112890  0.4631775246921643   T   T   T
  0.3020903542824774  0.7502348291151385  0.5626435593099819   T   T   T
  0.0004553531209385  0.7506358013197520  0.5437727629323085   T   T   T
  0.6957137962998168  0.7504981641973406  0.5601135173581127   T   T   T
  0.8040280621372546  0.7526131142797509  0.6552867432734201   T   T   T
  0.5016473061912321  0.7509921986310805  0.6422103930513158   T   T   T
  0.1978253618398338  0.7511930582633493  0.6597726546572356   T   T   T
  0.8141011533980276  0.7500000002140865  0.2671765160246267   F   F   F
  0.4999999994478088  0.7500000002140865  0.2273691263583544   F   F   F
  0.1858988466019724  0.7500000002140865  0.2671765160246267   F   F   F
  0.3088456122590841  0.0000000000000000  0.3635413069267344   F   F   F
  0.0000000000000000  0.0000000000000000  0.3485649890092901   F   F   F
  0.6911543877409159  0.0000000000000000  0.3635413069267344   F   F   F
  0.8026812005172678  0.0004767097155026  0.4626469018798386   T   T   T
  0.4998691321356716  0.0002622052695952  0.4456638966685211   T   T   T
  0.1986637453698941  0.0003477570997219  0.4632166332078140   T   T   T
  0.3019064438117360  0.0007345336237036  0.5625316495326019   T   T   T
  0.0002651601630036  0.0006879587247348  0.5443925022308022   T   T   T
  0.6959145254737868  0.0013457831452496  0.5603803481695446   T   T   T
  0.8003368123740812  0.0016207687889304  0.6582261922339070   T   T   T
  0.5006154860488294  0.0006833960440963  0.6403388832808108   T   T   T
  0.1984542487766932  0.9994857349748619  0.6598438515821807   T   T   T
  0.0948255206168211  0.0104515912147652  0.7312640913715084   T   T   T
  0.5708308894942532  0.9860801011816688  0.7140012628960890   T   T   T
  0.8504829603839074  0.1346772733298001  0.7131197525867973   T   T   T
  0.1001082119006315  0.5093474965210331  0.7308064778352698   T   T   T
  0.5721241303307469  0.4925226857811775  0.7130567989860737   T   T   T
  0.8537371251476528  0.6352228348109333  0.7128182451540204   T   T   T
  0.1071526300277051  0.2463560591192061  0.7329289450617655   T   T   T
  0.5577972635424068  0.2622086391601967  0.7213421965445705   T   T   T
  0.8502068255274252  0.3678491590466157  0.7129706708686694   T   T   T
  0.1114383958481910  0.7414229636003344  0.7324671195217319   T   T   T
  0.5503775169248678  0.7587080366160435  0.7192673690920390   T   T   T
  0.8490349816654845  0.8684761216091339  0.7135052930532771   T   T   T
  0.3290141987232354  0.8924056346516183  0.7373347214247967   T   T   T
  0.3524304759523058  0.6125573698089222  0.7459164540483666   T   T   T
  0.3339840843208052  0.3900193057008156  0.7394259294008261   T   T   T
  0.3485890924361610  0.1152403434115909  0.7431500228985966   T   T   T
  0.1414181644926954  0.8810501465224633  0.8059949919042192   T   T   T
  0.6625063226605507  0.8771793522466234  0.7945061782584940   T   T   T
  0.8935274080885705  0.0189665508892535  0.7966213374399703   T   T   T
  0.1441686964096037  0.3816298612569612  0.8067651711743439   T   T   T
  0.6602716228613518  0.3932162002994175  0.7957317476344354   T   T   T
  0.8948423132375476  0.5150334343819196  0.7945051109322601   T   T   T
  0.1471242967937475  0.1210869784956292  0.8100717053820398   T   T   T
  0.6390455626309446  0.1080023417263328  0.7891861767794964   T   T   T
  0.8892761377622771  0.2428615204071677  0.7954671371165836   T   T   T
  0.1468194977619787  0.6200920609306033  0.8112950876677320   T   T   T
  0.6328823073251950  0.6177775648074647  0.7896820944939700   T   T   T
  0.8953352724077581  0.7429081430950818  0.7952310154845470   T   T   T
  0.4199754426505068  0.7702094891785747  0.8079531315877148   T   T   T
  0.4041293745051245  0.4783519845454266  0.8213704330760929   T   T   T
  0.4249910855812930  0.2600790984068398  0.8090767857263256   T   T   T
  0.3962821672825014  0.9856522973926511  0.8188382399194967   T   T   T
  0.6647514370850496  0.2393665247862506  0.8640553573595529   T   T   T
  0.7798655296680167  0.6234973754741174  0.8685929297951858   T   T   T
 
  0.00000000E+00  0.00000000E+00  0.00000000E+00
  0.00000000E+00  0.00000000E+00  0.00000000E+00
  0.00000000E+00  0.00000000E+00  0.00000000E+00
  0.00000000E+00  0.00000000E+00  0.00000000E+00
  0.00000000E+00  0.00000000E+00  0.00000000E+00
  0.00000000E+00  0.00000000E+00  0.00000000E+00
  0.00000000E+00  0.00000000E+00  0.00000000E+00
  0.00000000E+00  0.00000000E+00  0.00000000E+00
  0.00000000E+00  0.00000000E+00  0.00000000E+00
  0.00000000E+00  0.00000000E+00  0.00000000E+00
  0.00000000E+00  0.00000000E+00  0.00000000E+00
  0.00000000E+00  0.00000000E+00  0.00000000E+00
  0.00000000E+00  0.00000000E+00  0.00000000E+00
  0.00000000E+00  0.00000000E+00  0.00000000E+00
  0.00000000E+00  0.00000000E+00  0.00000000E+00
  0.00000000E+00  0.00000000E+00  0.00000000E+00
  0.00000000E+00  0.00000000E+00  0.00000000E+00
  0.00000000E+00  0.00000000E+00  0.00000000E+00
  0.00000000E+00  0.00000000E+00  0.00000000E+00
  0.00000000E+00  0.00000000E+00  0.00000000E+00
  0.00000000E+00  0.00000000E+00  0.00000000E+00
  0.00000000E+00  0.00000000E+00  0.00000000E+00
  0.00000000E+00  0.00000000E+00  0.00000000E+00
  0.00000000E+00  0.00000000E+00  0.00000000E+00
  0.00000000E+00  0.00000000E+00  0.00000000E+00
  0.00000000E+00  0.00000000E+00  0.00000000E+00
  0.00000000E+00  0.00000000E+00  0.00000000E+00
  0.00000000E+00  0.00000000E+00  0.00000000E+00
  0.00000000E+00  0.00000000E+00  0.00000000E+00
  0.00000000E+00  0.00000000E+00  0.00000000E+00
  0.00000000E+00  0.00000000E+00  0.00000000E+00
  0.00000000E+00  0.00000000E+00  0.00000000E+00
  0.00000000E+00  0.00000000E+00  0.00000000E+00
  0.00000000E+00  0.00000000E+00  0.00000000E+00
  0.00000000E+00  0.00000000E+00  0.00000000E+00
  0.00000000E+00  0.00000000E+00  0.00000000E+00
  0.00000000E+00  0.00000000E+00  0.00000000E+00
  0.00000000E+00  0.00000000E+00  0.00000000E+00
  0.00000000E+00  0.00000000E+00  0.00000000E+00
  0.00000000E+00  0.00000000E+00  0.00000000E+00
  0.00000000E+00  0.00000000E+00  0.00000000E+00
  0.00000000E+00  0.00000000E+00  0.00000000E+00
  0.00000000E+00  0.00000000E+00  0.00000000E+00
  0.00000000E+00  0.00000000E+00  0.00000000E+00
  0.00000000E+00  0.00000000E+00  0.00000000E+00
  0.00000000E+00  0.00000000E+00  0.00000000E+00
  0.00000000E+00  0.00000000E+00  0.00000000E+00
  0.00000000E+00  0.00000000E+00  0.00000000E+00
  0.00000000E+00  0.00000000E+00  0.00000000E+00
  0.00000000E+00  0.00000000E+00  0.00000000E+00
  0.00000000E+00  0.00000000E+00  0.00000000E+00
  0.00000000E+00  0.00000000E+00  0.00000000E+00
  0.00000000E+00  0.00000000E+00  0.00000000E+00
  0.00000000E+00  0.00000000E+00  0.00000000E+00
  0.00000000E+00  0.00000000E+00  0.00000000E+00
  0.00000000E+00  0.00000000E+00  0.00000000E+00
  0.00000000E+00  0.00000000E+00  0.00000000E+00
  0.00000000E+00  0.00000000E+00  0.00000000E+00
  0.00000000E+00  0.00000000E+00  0.00000000E+00
  0.00000000E+00  0.00000000E+00  0.00000000E+00
  0.00000000E+00  0.00000000E+00  0.00000000E+00
  0.00000000E+00  0.00000000E+00  0.00000000E+00
  0.00000000E+00  0.00000000E+00  0.00000000E+00
  0.00000000E+00  0.00000000E+00  0.00000000E+00
  0.00000000E+00  0.00000000E+00  0.00000000E+00
  0.00000000E+00  0.00000000E+00  0.00000000E+00
  0.00000000E+00  0.00000000E+00  0.00000000E+00
  0.00000000E+00  0.00000000E+00  0.00000000E+00
  0.00000000E+00  0.00000000E+00  0.00000000E+00
  0.00000000E+00  0.00000000E+00  0.00000000E+00
  0.00000000E+00  0.00000000E+00  0.00000000E+00
  0.00000000E+00  0.00000000E+00  0.00000000E+00
  0.00000000E+00  0.00000000E+00  0.00000000E+00
  0.00000000E+00  0.00000000E+00  0.00000000E+00
  0.00000000E+00  0.00000000E+00  0.00000000E+00
  0.00000000E+00  0.00000000E+00  0.00000000E+00
  0.00000000E+00  0.00000000E+00  0.00000000E+00
  0.00000000E+00  0.00000000E+00  0.00000000E+00
  0.00000000E+00  0.00000000E+00  0.00000000E+00
  0.00000000E+00  0.00000000E+00  0.00000000E+00
  0.00000000E+00  0.00000000E+00  0.00000000E+00
  0.00000000E+00  0.00000000E+00  0.00000000E+00
  0.00000000E+00  0.00000000E+00  0.00000000E+00
  0.00000000E+00  0.00000000E+00  0.00000000E+00
  0.00000000E+00  0.00000000E+00  0.00000000E+00
  0.00000000E+00  0.00000000E+00  0.00000000E+00
  0.00000000E+00  0.00000000E+00  0.00000000E+00
  0.00000000E+00  0.00000000E+00  0.00000000E+00
  0.00000000E+00  0.00000000E+00  0.00000000E+00
  0.00000000E+00  0.00000000E+00  0.00000000E+00
  0.00000000E+00  0.00000000E+00  0.00000000E+00
  0.00000000E+00  0.00000000E+00  0.00000000E+00
  0.00000000E+00  0.00000000E+00  0.00000000E+00
  0.00000000E+00  0.00000000E+00  0.00000000E+00
  0.00000000E+00  0.00000000E+00  0.00000000E+00
  0.00000000E+00  0.00000000E+00  0.00000000E+00
  0.00000000E+00  0.00000000E+00  0.00000000E+00
  0.00000000E+00  0.00000000E+00  0.00000000E+00
  0.00000000E+00  0.00000000E+00  0.00000000E+00
  0.00000000E+00  0.00000000E+00  0.00000000E+00
  0.00000000E+00  0.00000000E+00  0.00000000E+00
  0.00000000E+00  0.00000000E+00  0.00000000E+00
  0.00000000E+00  0.00000000E+00  0.00000000E+00
  0.00000000E+00  0.00000000E+00  0.00000000E+00
  0.00000000E+00  0.00000000E+00  0.00000000E+00
  0.00000000E+00  0.00000000E+00  0.00000000E+00
  0.00000000E+00  0.00000000E+00  0.00000000E+00
  0.00000000E+00  0.00000000E+00  0.00000000E+00
  0.00000000E+00  0.00000000E+00  0.00000000E+00
  0.00000000E+00  0.00000000E+00  0.00000000E+00
  0.00000000E+00  0.00000000E+00  0.00000000E+00
  0.00000000E+00  0.00000000E+00  0.00000000E+00
  0.00000000E+00  0.00000000E+00  0.00000000E+00
  0.00000000E+00  0.00000000E+00  0.00000000E+00
  0.00000000E+00  0.00000000E+00  0.00000000E+00
  0.00000000E+00  0.00000000E+00  0.00000000E+00
  0.00000000E+00  0.00000000E+00  0.00000000E+00
  0.00000000E+00  0.00000000E+00  0.00000000E+00
  0.00000000E+00  0.00000000E+00  0.00000000E+00
  0.00000000E+00  0.00000000E+00  0.00000000E+00
  0.00000000E+00  0.00000000E+00  0.00000000E+00
  0.00000000E+00  0.00000000E+00  0.00000000E+00
  0.00000000E+00  0.00000000E+00  0.00000000E+00
  0.00000000E+00  0.00000000E+00  0.00000000E+00
  0.00000000E+00  0.00000000E+00  0.00000000E+00
  0.00000000E+00  0.00000000E+00  0.00000000E+00
  0.00000000E+00  0.00000000E+00  0.00000000E+00
  0.00000000E+00  0.00000000E+00  0.00000000E+00
  0.00000000E+00  0.00000000E+00  0.00000000E+00
  0.00000000E+00  0.00000000E+00  0.00000000E+00
  0.00000000E+00  0.00000000E+00  0.00000000E+00
  0.00000000E+00  0.00000000E+00  0.00000000E+00
  0.00000000E+00  0.00000000E+00  0.00000000E+00
  0.00000000E+00  0.00000000E+00  0.00000000E+00
  0.00000000E+00  0.00000000E+00  0.00000000E+00
  0.00000000E+00  0.00000000E+00  0.00000000E+00
  0.00000000E+00  0.00000000E+00  0.00000000E+00
  0.00000000E+00  0.00000000E+00  0.00000000E+00
  0.00000000E+00  0.00000000E+00  0.00000000E+00
  0.00000000E+00  0.00000000E+00  0.00000000E+00
  0.00000000E+00  0.00000000E+00  0.00000000E+00
  0.00000000E+00  0.00000000E+00  0.00000000E+00
  0.00000000E+00  0.00000000E+00  0.00000000E+00
  0.00000000E+00  0.00000000E+00  0.00000000E+00
  0.00000000E+00  0.00000000E+00  0.00000000E+00
  0.00000000E+00  0.00000000E+00  0.00000000E+00
  0.00000000E+00  0.00000000E+00  0.00000000E+00
  0.00000000E+00  0.00000000E+00  0.00000000E+00
  0.00000000E+00  0.00000000E+00  0.00000000E+00
  0.00000000E+00  0.00000000E+00  0.00000000E+00
  0.00000000E+00  0.00000000E+00  0.00000000E+00
  0.00000000E+00  0.00000000E+00  0.00000000E+00
  0.00000000E+00  0.00000000E+00  0.00000000E+00
  0.00000000E+00  0.00000000E+00  0.00000000E+00
