Ta  N Cu                                
   1.00000000000000     
    18.1096308199999996    0.0000000000000000    0.0000000000000000
     0.0000000000000000   23.3551997799999995    0.0000000000000000
     0.0000000000000000    0.0000000000000000   30.4818170799999990
   Ta   N    Cu
   240   240    29
Direct
 -0.0000498764057193  0.0000171530535057  0.1971266520660907
  0.3341021031100068  0.0624580408613108  0.2024240567728475
  0.1657210331890714  0.0625142082147453  0.2024212075017579
  0.2498676664345718  0.1248994196406854  0.2776812822485396
  0.0827027010375700  0.0624750494527680  0.2837263233942551
  0.4171201079629042  0.0624175377185378  0.2837658669641860
 -0.0001639338348530  0.1250120687834350  0.3695811632216389
  0.3322088552188562  0.0623320228959951  0.3681700830867483
  0.1677469136136690  0.0624111878837070  0.3681421206390336
  0.2498638747663620  0.1249055408534987  0.4552595832229164
  0.0837265195776197  0.0623612475307327  0.4541797995094264
  0.4161033994598418  0.0621318705800208  0.4542125028111024
 -0.0001190218423523  0.1249615341195606  0.5405047610509314
  0.3353145521720505  0.0613397201030419  0.5422902336441919
  0.1650455500567756  0.0617639214740951  0.5421394820288384
 -0.0001587977470728  0.1249177999255411  0.1971868712746872
  0.3340478284263390  0.1873769779379818  0.2023853233681285
  0.1656893813069776  0.1874667852073535  0.2024518521905298
  0.2497529966780661  0.2498438201482525  0.2775895896406547
  0.0825436883856455  0.1874215858843825  0.2837472951545406
  0.4171167925889133  0.1873877191971388  0.2837008703518616
 -0.0003613539686594  0.2499328457346158  0.3697302996691932
  0.3320819539186417  0.1872610669302929  0.3681016017598860
  0.1674433284784810  0.1873415037943117  0.3681492155976664
  0.2496432993411417  0.2496606837181970  0.4547712533029983
  0.0836655777407799  0.1872075054216663  0.4544381223466838
  0.4159069793993566  0.1870365219946646  0.4542390389028697
 -0.0004482222105312  0.2502521675658564  0.5409874624769780
  0.3348668755790166  0.1848942551474985  0.5422760074566947
  0.1632388072198046  0.1860555432576549  0.5425472359226451
 -0.0002070654545025  0.2498559381569016  0.1971583860903138
  0.3340282311196427  0.3123799979632092  0.2022749962933933
  0.1656952203311379  0.3124188998125506  0.2023760152333397
  0.2497128342960198  0.3748587852051888  0.2774246046171241
  0.0824528292609742  0.3123977731623386  0.2836122462690375
  0.4170825973005559  0.3123750218425370  0.2835621219695997
 -0.0003756135723925  0.3748215416276956  0.3695549282914672
  0.3320665659571580  0.3122683987551401  0.3679120712224017
  0.1670928497746291  0.3122990459766809  0.3680010353757542
  0.2489972720319591  0.3745942053115726  0.4543601658430478
  0.0830903287590856  0.3121592328446356  0.4544845789135400
  0.4157789510525649  0.3120475371121982  0.4538965194742071
  0.0002786953617744  0.3754043907940527  0.5422253118971296
  0.3325594388544489  0.3118334089946310  0.5399619091546984
  0.1623274766860834  0.3113130618097457  0.5413933594866227
 -0.0002183056368671  0.3748550712908315  0.1970094714936391
  0.3340296144951050  0.4374009610433839  0.2021898499615024
  0.1657835952553430  0.4374308768027667  0.2022878139091884
  0.2500053077810953 -0.0000308255954231  0.2777116135301804
  0.0825018143878170  0.4374527598696789  0.2834449679610117
  0.4170935569998790  0.4374413507483882  0.2833987897695660
  0.0000084832651594  0.0000259011963450  0.3694414339629544
  0.3321261314979237  0.4373654503689968  0.3676876732924522
  0.1669946929260999  0.4373992594514840  0.3677249460147927
  0.2501216777563871 -0.0002294566495714  0.4553293048762848
  0.0828305615416492  0.4374215169132304  0.4540135250931769
  0.4160667128682785  0.4372585521383600  0.4533713987067773
  0.0000239473582609 -0.0000383178203535  0.5404387712625313
  0.3318139238357560  0.4372182423276877  0.5393329117214706
  0.1623323645182324  0.4379638349933722  0.5396445967173361
 -0.0000980672332441  0.4999457924367118  0.1968980933548736
  0.3340354999550565  0.5625512939559119  0.2021946529941472
  0.1658398914562373  0.5625215362092824  0.2022311474108379
  0.2500134303216247  0.6250977802443310  0.2773589025080854
  0.0825891386422000  0.5625580600060787  0.2833688862708614
  0.4171852095051040  0.5625120631823379  0.2834428196585865
  0.0001472845126154  0.6251736217703319  0.3693042933915093
  0.3324086601955766  0.5625202884522240  0.3677808927103409
  0.1674082761852852  0.5625488033611844  0.3676310071187163
  0.2495607835136946  0.6250334821904894  0.4543124526055387
  0.0838552350395707  0.5628329267202888  0.4539624002944691
  0.4162066026908975  0.5624793076342091  0.4537043019906692
  0.0004802370387176  0.6253526656717515  0.5399367859586379
  0.3326711394712673  0.5623051007894064  0.5388221189846698
  0.1613441023962576  0.5633105206361420  0.5416551558027359
 -0.0000726262007576  0.6251844125043807  0.1968877294960742
  0.3341341426494302  0.6875168610364533  0.2022506496360232
  0.1658427929699183  0.6875545585422312  0.2022405071177516
  0.2501063695226624  0.7501100337593428  0.2775831414946192
  0.0827265697703065  0.6876288999633480  0.2834394251844960
  0.4172522153948309  0.6875468156750719  0.2835987252112560
  0.0002080466516335  0.7500910934007757  0.3692774692995182
  0.3324696367568899  0.6875601276876877  0.3680718782848905
  0.1677002462439373  0.6876419799479978  0.3677644905163914
  0.2502292657463006  0.7498408316913592  0.4552882072371442
  0.0841500471342349  0.6878154630828426  0.4541410198859845
  0.4161672757641550  0.6875409857937967  0.4543338474824310
  0.0003092880358349  0.7500920107942314  0.5400053941935226
  0.3329064545409468  0.6880890386408257  0.5409356434486763
  0.1630490245097626  0.6888062497559235  0.5424859986546908
  0.0000424672952283  0.7501972307979198  0.1969447986388070
  0.3342006685166855  0.8125692773621476  0.2023424431723980
  0.1658492281858232  0.8126069116863553  0.2022957561041260
  0.2500870141782784  0.8750085939668872  0.2776804661713766
  0.0828463448984894  0.8126013121692234  0.2835604465973920
  0.4172186316836252  0.8125123399888150  0.2837115609730012
  0.0001082099164266  0.8750885384999086  0.3693341696627205
  0.3323658062387597  0.8124368556756948  0.3682202038941103
  0.1679961424635799  0.8125458323970949  0.3680180611606753
  0.2502833274821996  0.8748071719946179  0.4553617104049167
  0.0840419384183745  0.8126999381503117  0.4539820352025496
  0.4162861820413334  0.8123646387413722  0.4544362099201387
  0.0002088747673398  0.8750152065969962  0.5403603245047935
  0.3349342966573203  0.8125737802603997  0.5428526706481240
  0.1650117818427669  0.8127557757424931  0.5420205808440455
 -0.0000325837401277  0.8751670780627547  0.1970220126866675
  0.3341830182033304  0.9375112747467484  0.2023830714450496
  0.1658029864615462  0.9375396714987061  0.2023494227292279
  0.2498590593800490  0.4999726248687760  0.2773328047142017
  0.0827941907860394  0.9375301878069986  0.2836870949074825
  0.4171922420828943  0.9374714766433770  0.2837688579888058
 -0.0002114023724458  0.5000365231205453  0.3693452411357627
  0.3323204094576313  0.9373664172838743  0.3682169615914559
  0.1679225603439552  0.9374839112404009  0.3681036322352388
  0.2491666843734838  0.5000732433473191  0.4539207330923808
  0.0839075425009578  0.9375146923331014  0.4540969275825862
  0.4162539290626505  0.9372188298863341  0.4542960827716722
 -0.0001459623081157  0.5000235952687070  0.5401753222398372
  0.3355214176005502  0.9368912078853071  0.5424204378553111
  0.1650169209814407  0.9373119240034379  0.5421654864340953
  0.4999339485341884 -0.0000106246496286  0.1971840287259156
  0.8341282098231638  0.0625311737703105  0.2024210837599371
  0.6657443620273031  0.0624922334958471  0.2024264033701317
  0.7499834496334321  0.1249739039595279  0.2777135241880830
  0.5827173144170168  0.0624452391250322  0.2837549456244733
  0.9171104585031019  0.0624965228542542  0.2837586014300623
  0.4999052140793028  0.1248631238090299  0.3694939263979360
  0.8321731217538381  0.0625174806790124  0.3681965702296415
  0.6677347897278874  0.0624185327708690  0.3681466281813621
  0.7500032637330536  0.1250784572263236  0.4553238017200045
  0.5836946272035273  0.0622145707315343  0.4541502396132241
  0.9161301265301204  0.0624507599479229  0.4542382458966208
  0.4999372661243229  0.1251221170570271  0.5403251683722871
  0.8349377439361543  0.0620684738673567  0.5422167525482621
  0.6645819261405324  0.0616087968680457  0.5422535831264146
  0.4999147853656030  0.1249301412792845  0.1971827995757118
  0.8341475175379388  0.1874577057189238  0.2024588443822400
  0.6657975061783102  0.1874441868866377  0.2024139578921617
  0.7500370910323142  0.2499139122689243  0.2776416089956562
  0.5826803832206024  0.1874114992705358  0.2836974708688931
  0.9170846419118763  0.1874489178711076  0.2838099771465712
  0.4997686902644649  0.2496995811258654  0.3694174174207362
  0.8322963827691066  0.1874579902738626  0.3683063044741542
  0.6677041506567550  0.1873326338249344  0.3681006355574344
  0.7499559806932481  0.2499057049695082  0.4550448716666476
  0.5836781105342761  0.1870847625314868  0.4541580720820326
  0.9157620194077833  0.1874212745352130  0.4547135609869396
  0.4995457880797577  0.2507505172467331  0.5399780231168900
  0.8363290313817024  0.1863518458139434  0.5428361013169634
  0.6648981206379995  0.1851170475942755  0.5420499273572728
  0.4998877472986439  0.2498941032516968  0.1971176728238619
  0.8341585957123465  0.3124351935248589  0.2023968875670177
  0.6658111747017217  0.3124095532927038  0.2023325495099937
  0.7501058502781686  0.3748957549314626  0.2774918056334456
  0.5826841181860085  0.3124064803823498  0.2835774645535971
  0.9171592342186979  0.3124240717882301  0.2837354531427936
  0.4996913893635376  0.3747612528804891  0.3691637409806232
  0.8324322928892465  0.3124318518002891  0.3682489999988871
  0.6675449881509186  0.3123428169129380  0.3679197870889394
  0.7505762164412382  0.3749342733959761  0.4545469755553773
  0.5834011951631336  0.3121039036848761  0.4536496559159534
  0.9159041948318210  0.3124243053618293  0.4550665752980645
  0.4978755976148545  0.3745521590861225  0.5389211187150463
  0.8370462103364824  0.3114760995471426  0.5429860939959500
  0.6659606701436784  0.3120427682002348  0.5394195696257971
  0.4999359738561046  0.3748736946467242  0.1970067892295917
  0.8340969401759443  0.4374817296467900  0.2023195721522054
  0.6658625784121466  0.4374689284267017  0.2022237209253282
  0.7499423739448484  0.0000029396728990  0.2776998394161428
  0.5826819653356169  0.4374601983667822  0.2834256875121363
  0.9172500547108304  0.4374758776900136  0.2835470584957100
  0.4999641928899805 -0.0001102003689339  0.3695004956815374
  0.8325964255512895  0.4374869882395414  0.3679606681403883
  0.6675492588040101  0.4374825381036140  0.3677143422757416
  0.7500062000144344 -0.0000471735054929  0.4552922811375618
  0.5834557722077902  0.4375192699270692  0.4530980598963086
  0.9163570065520927  0.4374958640092232  0.4544617687337146
  0.4999902381905413 -0.0002684955653022  0.5404974817633480
  0.8365472002771210  0.4388629798728537  0.5404633002546836
  0.6666000537991688  0.4379770297642735  0.5387063647783249
  0.4999030705591339  0.4999688096097477  0.1969498227573311
  0.8340983787366990  0.5624847995692754  0.2022759205435049
  0.6658594852994625  0.5624978191608986  0.2022214106135378
  0.7499966819294729  0.6250933831503253  0.2774061969545892
  0.5826915784187007  0.5625502373220501  0.2834585410531683
  0.9173065525127495  0.5625780606129290  0.2834143759119178
  0.4999209665017727  0.6251500737418617  0.3692731279305582
  0.8324939244827204  0.5626296004018035  0.3676885027020262
  0.6676692486211138  0.5626470932592834  0.3678014089211113
  0.7506271559781168  0.6252934154044092  0.4545755277876802
  0.5836955270541723  0.5627808946381057  0.4536552489503425
  0.9165081231679442  0.5628645963330613  0.4539355640371735
  0.5022281233892101  0.6239821348480563  0.5404425629482261
  0.8386518268773882  0.5645174413300185  0.5416250742752496
  0.6688681984532980  0.5636187823574486  0.5394236149546031
  0.4999925102971755  0.6251176178859459  0.1969935194315193
  0.8341458012332081  0.6876042129641319  0.2022369687779613
  0.6658336905929767  0.6876065190144608  0.2022535005495890
  0.7499403928568321  0.7501426256288177  0.2774986562980682
  0.5827267118077537  0.6875697155656249  0.2835736484471915
  0.9173215949141015  0.6876364630574477  0.2834523929440011
  0.4999736238167907  0.7500332926808493  0.3694319495008077
  0.8323079173600084  0.6876884451792318  0.3677514986764495
  0.6675085606766497  0.6876599552305132  0.3679687439360824
  0.7503161714651769  0.7502536289124115  0.4550008732574142
  0.5836921940373528  0.6876944903583290  0.4541054111263713
  0.9166377501707469  0.6878854163770466  0.4538441733133596
  0.5002011682569717  0.7478479859985538  0.5411031615354595
  0.8373369556892838  0.6886475412207161  0.5416506411022612
  0.6694437719873553  0.6888310476820584  0.5401417832346247
  0.4999336281593745  0.7501084015026861  0.1970597728372439
  0.8341281489201560  0.8125878950631292  0.2022650389868526
  0.6658082849396808  0.8125476158271472  0.2023059819312744
  0.7499389515878800  0.8750466464675564  0.2776630704599220
  0.5827391618449925  0.8125421967242764  0.2836634346313066
  0.9172249393323512  0.8126211439790582  0.2835390128971990
  0.4999650843522193  0.8749042660808120  0.3694876869211410
  0.8322308880035519  0.8126306661311853  0.3679597939070078
  0.6677434230645256  0.8125566784345044  0.3680960415572252
  0.7501137374465234  0.8750448239172914  0.4552008614920611
  0.5837685119516600  0.8125642790563886  0.4542549200318626
  0.9164201552584690  0.8128175488354211  0.4538640995567623
  0.5000797207817669  0.8740726934051495  0.5406709479880036
  0.8359852673156661  0.8129395027717008  0.5418780226852298
  0.6658217298277634  0.8135768167645233  0.5423171400018392
  0.4999641147472110  0.8750701583530531  0.1971283444260694
  0.8341566069780856  0.9375816880713224  0.2023416018867228
  0.6657521342591093  0.9375413621587723  0.2023831025473046
  0.7500611862524860  0.5000256710401604  0.2773555405244755
  0.5827287946374563  0.9374897936477944  0.2837386679953907
  0.9171734284458748  0.9375548224755749  0.2836784339497362
  0.4998003234323473  0.4999977320992940  0.3691025795196112
  0.8321454506813269  0.9375727269756668  0.3680795524536047
  0.6677276103932496  0.9374686091783107  0.3681284285943485
  0.7504888972140069  0.5002447740108658  0.4542015795621189
  0.5837854965856077  0.9373523466377687  0.4542000748652444
  0.9163052727903743  0.9375872384885726  0.4540470019061366
  0.4999807057624427  0.4995170437614079  0.5393784033544349
  0.8352204352677186  0.9375352095403897  0.5421220263195334
  0.6646756090944882  0.9374515510091079  0.5422268459486188
  0.4055851024886301 -0.0000314426431271  0.2320313572393068
  0.2499600364299503  0.0000040434078815  0.1991431544206937
  0.0943140706723320  0.0000138311933309  0.2319865663064238
  0.1547566886828397  0.1249193410141826  0.3155328157064060
 -0.0001241548339296  0.1249550832497101  0.3028726164636141
  0.3449640564012698  0.1248692737355859  0.3155124146703724
  0.4007529331684864  0.1247876609600912  0.4019307954451886
  0.2498852908870771  0.1248223943593049  0.3872481795172610
  0.0989635831006107  0.1249292221175519  0.4019783482841662
  0.1515482152314935  0.1245881616669087  0.4876518249925160
 -0.0001508982306846  0.1249996705071892  0.4723383123984493
  0.3483332491882670  0.1245236691892981  0.4876367845159029
  0.4029944468817743  0.1247487557969311  0.5702846684315163
  0.2500641605140989  0.1251725172277550  0.5579201978059406
  0.0967359766868638  0.1243645493216530  0.5701594851074546
  0.4055460305379434  0.1249194549169119  0.2320070703739510
  0.2498978020433875  0.1249408926404620  0.1990207587909778
  0.0942155254384168  0.1249848305077070  0.2320162565812836
  0.1546603523272468  0.2498599908678146  0.3154760597914857
 -0.0001950882583044  0.2499457242368992  0.3029588832086421
  0.3448639180823373  0.2498041073981239  0.3153840553262521
  0.4004824041767882  0.2496604719973198  0.4017915344146945
  0.2497245093817680  0.2498502254055393  0.3869318573942440
  0.0988567917054946  0.2498004125972075  0.4020307618914502
  0.1517892785367343  0.2492585579382889  0.4879314449525311
 -0.0003356578244931  0.2499542443363911  0.4727081990513730
  0.3476615585115161  0.2492306025242279  0.4879925432869416
  0.4020759386209797  0.2496119520240689  0.5708335417504483
  0.2496122014932491  0.2506823199112428  0.5616269098292772
  0.0961210413437409  0.2492095681154847  0.5707212566231568
  0.4055238932273772  0.2498822961859273  0.2319088543765902
  0.2498956887166657  0.2499014365019718  0.1990983296662086
  0.0941381751842604  0.2499101467568552  0.2319790256734992
  0.1546311690311850  0.3748455403379199  0.3152847289027412
 -0.0001630464431719  0.3749513352605232  0.3027884146807956
  0.3447832524250030  0.3748539532339990  0.3152105145914703
  0.4004004453675233  0.3746715989501150  0.4013975181057290
  0.2494757117677532  0.3748401118769610  0.3867076130702780
  0.0986111326919472  0.3747655157531243  0.4018352561908148
  0.1505715993288990  0.3745376899797878  0.4872961431343822
 -0.0003449304977391  0.3748122271267662  0.4734826991667015
  0.3475859485216089  0.3746810056842896  0.4868159470944502
  0.3989720857799842  0.3757688547697484  0.5701481360086121
  0.2473123603155439  0.3749583058360393  0.5576124131775564
  0.0979125799160348  0.3750714465802889  0.5726610573352235
  0.4055190738965394  0.3748768519140619  0.2317629581017018
  0.2498921976180392  0.3748874229156179  0.1988304864096913
  0.0941086032014393  0.3749005271308494  0.2318093826624666
  0.1548816370163186 -0.0000186041311308  0.3154997835591380
 -0.0000512964570017  0.0000148517367179  0.3027559544097102
  0.3450484998953443 -0.0001104679348534  0.3155569705573576
  0.4009031781966189 -0.0002095720426778  0.4019702094018180
  0.2500505255966234 -0.0001042374713064  0.3873093666492863
  0.0991078538531387 -0.0000252345572328  0.4018557322227557
  0.1516687567416332 -0.0001706996155299  0.4874643965342038
  0.0000100069179005  0.0000055081307041  0.4721878582650317
  0.3485869004314256 -0.0004737305429151  0.4876192930605254
  0.4032199731521809 -0.0005067252935612  0.5702337052750394
  0.2502138035625169 -0.0004315342461385  0.5576798733465271
  0.0970641735639203 -0.0002556047431251  0.5698694869378632
  0.4055412179626919  0.4999892910386907  0.2317052594426402
  0.2499311702182966  0.4999654875622553  0.1988586478082551
  0.0941722882998579  0.4999817492768773  0.2317186055060148
  0.1548966271350215  0.6251121383061191  0.3151530767938520
  0.0000082697507004  0.6250781054051154  0.3025882800630525
  0.3450130440832124  0.6250682570455443  0.3152638255605965
  0.4008661156143529  0.6251007377787450  0.4017145995468299
  0.2499451765027079  0.6250643172698312  0.3865563092257825
  0.0994257579602923  0.6251829411803508  0.4016080683058008
  0.1519775827688750  0.6254872513438952  0.4878484356206462
  0.0003167774059111  0.6252424802394462  0.4716598937239547
  0.3474463611640913  0.6251210182654232  0.4871668697810294
  0.4025965607681642  0.6234868285476733  0.5687877039269905
  0.2500294809159377  0.6238141409873890  0.5618553853863510
  0.0962941240708235  0.6256272237813878  0.5705501192607348
  0.4056182447214485  0.6250660988864227  0.2317857688649274
  0.2499486250260374  0.6250653938357675  0.1986469589147564
  0.0942510848399874  0.6250721606827868  0.2317046581173556
  0.1549469084039454  0.7501212921911057  0.3153261749989965
  0.0000462254906065  0.7501285411473390  0.3025814181583547
  0.3451406073880465  0.7500040456185390  0.3154763332954690
  0.4009930938642410  0.7498904862829697  0.4020815314854255
  0.2501632014740277  0.7499708861621813  0.3872331748524728
  0.0993469013135847  0.7501413894072095  0.4016946678034265
  0.1517599276383146  0.7503135941974381  0.4875267335553238
  0.0002875690931725  0.7502749358873032  0.4717669945093104
  0.3487622611411407  0.7501650816172720  0.4882103805938191
  0.4024942133387893  0.7468146349602821  0.5725209763317337
  0.2494014433664520  0.7493280079495527  0.5582547213714842
  0.0968024284658919  0.7504099925634853  0.5701205841259466
  0.4055957242919354  0.7500428045847789  0.2319095871511594
  0.2500198180043998  0.7500849774828529  0.1991212707270461
  0.0943733897239756  0.7501274698741959  0.2317946201368177
  0.1549408064659935  0.8750561006382972  0.3154287283277072
  0.0000155381013871  0.8750443412241101  0.3026484057791713
  0.3451275693874793  0.8749451102573278  0.3155510296200291
  0.4009679562887990  0.8747913185223428  0.4020423369494429
  0.2501482738847086  0.8749565724539826  0.3873059874514636
  0.0992339137864109  0.8750683429977436  0.4017556595144960
  0.1518043079728902  0.8751029497106433  0.4874153517890316
  0.0001870968735887  0.8751128051826224  0.4720744336933742
  0.3487076264763521  0.8745805920458102  0.4878183666868466
  0.4032183868344322  0.8739952836186654  0.5705751612432948
  0.2504941080541773  0.8741532216222179  0.5576091181022257
  0.0971076005072762  0.8750045733680520  0.5698932450270801
  0.4056231802362468  0.8750142088744500  0.2319922157480032
  0.2500163934481062  0.8750638686857746  0.1990009351229715
  0.0943472875458052  0.8750937364051881  0.2318762976584220
  0.1547523157481450  0.4999837237464737  0.3151287780210318
 -0.0000718381837611  0.5000237371450698  0.3026339085789151
  0.3448828464420453  0.4999712579771473  0.3151279745072273
  0.4006537641346551  0.4999557024133460  0.4013275725151169
  0.2496805210151763  0.4999034556036610  0.3863626276997251
  0.0989191396223255  0.5000658667959462  0.4015339800159664
  0.1509420375235467  0.5004527404979198  0.4867622017475988
 -0.0001387252562967  0.5001659744388329  0.4719254294500546
  0.3475975030749697  0.4995375905988971  0.4863209650828199
  0.3999133059499655  0.4989805583276780  0.5686660732003663
  0.2477583838335427  0.4996687892966902  0.5565603355916854
  0.0965018380142837  0.5002741131517183  0.5702440487445954
  0.9055823310343101  0.0000466455850315  0.2319822484751173
  0.7499316964307340  0.0000317285185074  0.1990715028550069
  0.5943030095364592 -0.0000223391083958  0.2320211478087254
  0.6548829070582474  0.1249314379827053  0.3155122189009973
  0.4999206631932459  0.1249488081350551  0.3028024293009045
  0.8450290499051548  0.1249909026432463  0.3156143929442128
  0.9007441329600114  0.1250647206038481  0.4021099816601513
  0.7499183837541118  0.1249353442970541  0.3873066270213446
  0.5990313446393718  0.1248570553331177  0.4018957132028843
  0.6514769916671693  0.1245674650766966  0.4875606114720838
  0.4999003877247302  0.1247953076287895  0.4722173826297169
  0.8482451562518223  0.1247414890070007  0.4878446614290902
  0.9030541670435105  0.1246409845274682  0.5703357947249638
  0.7497818807964410  0.1254019442102504  0.5580010795564783
  0.5967888985108656  0.1248873801668495  0.5702653167320958
  0.9055462227182405  0.1249814145934410  0.2320696441627416
  0.7499194553887070  0.1249688394809658  0.1991285001115040
  0.5942790969669804  0.1249547588548186  0.2320039372306361
  0.6549382480008669  0.2498651149740595  0.3154172670980745
  0.4998862053582288  0.2499488165517288  0.3027344147902706
  0.8450298469935168  0.2499519466840748  0.3156357553101566
  0.9005274472845880  0.2500358225884393  0.4023579300991462
  0.7499006644776335  0.2499557300278548  0.3871619810166327
  0.5990605639108375  0.2496685054203019  0.4016941401746460
  0.6515430076579979  0.2493341018198909  0.4878739829012645
  0.4997378359526455  0.2497882560555373  0.4720034137078316
  0.8475747946342806  0.2499799557929528  0.4887484923328808
  0.9029390269573557  0.2499768717560457  0.5714653561316717
  0.7494739200223355  0.2506351335016613  0.5619158283132286
  0.5973279805509901  0.2494874987075697  0.5714480818120314
  0.9055451675365470  0.2499549308056598  0.2320690571659001
  0.7499667889969838  0.2499301985242947  0.1990375885423825
  0.5942966793470185  0.2499174134234834  0.2319079257981083
  0.6550123183215590  0.3749529668568417  0.3152324089275855
  0.4998623006133907  0.3749523545054567  0.3025369889910263
  0.8450559071254479  0.3749457767695504  0.3154889986004634
  0.9007100986213882  0.3748897959374751  0.4022473108058801
  0.7500680306223226  0.3749742566797887  0.3868808354879723
  0.5989166181034467  0.3747978258234899  0.4012506051042139
  0.6516155839698449  0.3748629859560777  0.4860895062891222
  0.4996002519664225  0.3748779956580070  0.4713225075457295
  0.8485525461494522  0.3747920445756636  0.4884962934403368
  0.9027360786302211  0.3767270276360766  0.5739110368689405
  0.7494294051185147  0.3754677920768747  0.5571092186436608
  0.5982729675434778  0.3760930884074681  0.5668727669177446
  0.9055812291221542  0.3749156452712348  0.2319486714544759
  0.7499746982418787  0.3749135167202818  0.1990506065280185
  0.5942971369106979  0.3749198769913039  0.2317939159596902
  0.6548697972136894 -0.0000306338186651  0.3155189598991122
  0.4999460767522377 -0.0000376904519572  0.3028018502425852
  0.8450418664597625  0.0000549980306688  0.3155071662202408
  0.9008625467070306  0.0000649684895164  0.4018594419036678
  0.7499397808313890  0.0000034038889648  0.3872877971215535
  0.5990618853874772 -0.0001275039498276  0.4019087055322180
  0.6514418857774800 -0.0001893271183939  0.4875223633712484
  0.4999649002749524 -0.0002763460976122  0.4723003579571847
  0.8484308293866208 -0.0000773099638339  0.4874577980039322
  0.9030410706398209  0.0000044040369348  0.5698903929716082
  0.7498882289744735 -0.0000944085654214  0.5576275249432133
  0.5968612672768006 -0.0002673559793388  0.5701754815682031
  0.9056765348710469  0.4999713322657906  0.2317785446011197
  0.7499760152473685  0.4999907130333482  0.1986416067604510
  0.5943079573294320  0.5000087419004161  0.2317179758643309
  0.6549404164022496  0.6251124991093634  0.3152503263339288
  0.4999796897871809  0.6249891424282336  0.3026056939341572
  0.8451021195581683  0.6251518708875444  0.3152041778619396
  0.9009326783726024  0.6252630694505106  0.4015018811851154
  0.7500463606627673  0.6251906914953436  0.3867668833721002
  0.5990797720096847  0.6251372252855593  0.4016144873385290
  0.6520921039113807  0.6254173560084682  0.4870632855120868
  0.5001313584186267  0.6248172379228764  0.4726110071732608
  0.8491771029126912  0.6255745010996131  0.4871592052797673
  0.9043475904104198  0.6258457356278669  0.5701892071177076
  0.7523342764007994  0.6248617193952887  0.5576782418183225
  0.6030627108399953  0.6255154426569862  0.5706978358097378
  0.9056671707833640  0.6250996459597536  0.2317414516998690
  0.7499828664414008  0.6250733460038914  0.1989995631668109
  0.5943587565116624  0.6250670194297731  0.2317769053700241
  0.6549077171658499  0.7500814018049090  0.3153890705466085
  0.4999935487769482  0.7500195559285012  0.3027201559525230
  0.8451025568264539  0.7501462757168439  0.3152641156096103
  0.9010085672697549  0.7501888471110438  0.4015426921357359
  0.7499578251457129  0.7500719922666184  0.3870384003004497
  0.5990433409387896  0.7501162548645759  0.4018763868984249
  0.6515715016925545  0.7506095769338016  0.4876267665718976
  0.5000303917297074  0.7497202954206699  0.4729781668266742
  0.8488773942609804  0.7505614251446218  0.4872149011466179
  0.9041198919054765  0.7505814165735253  0.5699093363037704
  0.7515205031603224  0.7499592146363041  0.5576309754742856
  0.5990624717465723  0.7492692248717567  0.5716408672688763
  0.9056738953765093  0.7501249434701106  0.2317716083279137
  0.7499884701077683  0.7501048326706612  0.1987830175906568
  0.5943156235122370  0.7500683132733954  0.2318585073670618
  0.6548585916080795  0.8750131112442017  0.3154774122083199
  0.4999781689280394  0.8749824282500294  0.3027759368704893
  0.8451225224863388  0.8751111597422030  0.3153885644582015
  0.9009529415093428  0.8751685652104075  0.4016945090590014
  0.7499665489494023  0.8750714178935918  0.3871871358828496
  0.5990423339016362  0.8749019804799769  0.4019294619131232
  0.6515950387588350  0.8749892257891821  0.4875072315562391
  0.5000550323971380  0.8746921995515682  0.4725241369781524
  0.8486076391322925  0.8752394420232038  0.4873414499556326
  0.9032994735154214  0.8753145262770571  0.5698617197086164
  0.7500623346842560  0.8745757686028982  0.5574076374263626
  0.5971396848528810  0.8744892944964732  0.5702444266636834
  0.9056281702863749  0.8751156899059200  0.2318765705568314
  0.7499571897176128  0.8750881591074241  0.1991210400697087
  0.5943357098721621  0.8750152454864381  0.2319608807990675
  0.6549947344012500  0.5000099243998675  0.3151476715323565
  0.4999000912379319  0.4999435296227747  0.3024778655994396
  0.8450871268508070  0.4999983841999872  0.3152440962373608
  0.9007506633650305  0.4999860190769349  0.4017313105014954
  0.7501171301301216  0.5000532718667215  0.3865290727904213
  0.5990877981602881  0.5002030902630347  0.4012651148397879
  0.6518572883827605  0.5004340990899588  0.4865847677398383
  0.4998836646738176  0.4998365352233219  0.4715733702379951
  0.8485961359044605  0.5008072831929853  0.4874090909828821
  0.9037148707665051  0.5004096217751874  0.5708972616299375
  0.7511696571420365  0.5007118887520389  0.5584606559427965
  0.5990783858646542  0.5002534045172573  0.5691025161463393
  0.3937145198070436  0.4176951056568894  0.6268580418757520
  0.5706913696711005  0.4064292177840967  0.6223704733220908
  0.4667488636477361  0.4775297096804249  0.6742843470899362
  0.5910464945607393  0.4417663520424628  0.6943936303798166
  0.6420497809551451  0.3454299060117088  0.6755290952231321
  0.2774872926260485  0.4210829304748067  0.6712777295354294