Mo S Cu                                 
   1.00000000000000     
    15.9214998300000001    0.0000000000000000    0.0000000000000000
    -7.9622501300000001   13.7910221699999997    0.0000000000000000
     0.0000000000000000    0.0000000000000000   13.5821998300000004
   Mo   S    Cu
    25    50     2
Direct
  0.1316788221763616  0.0656492455136402  0.6775468041807358
  0.1326987160593234  0.2654232400999490  0.6805470284075952
  0.1328598615852883  0.4659404467027528  0.6795240018110746
  0.1327022775403961  0.6659191773711584  0.6783911256247919
  0.1326245349592057  0.8661115752303914  0.6780980606091802
  0.3325791907565403  0.0656954570977035  0.6813188071198724
  0.3341937297570610  0.2667068348080335  0.6809817321191147
  0.3336654566366164  0.4665955357707006  0.6787761064679785
  0.3329004622322103  0.6662216130496503  0.6776241559978402
  0.3329709227833817  0.8661144861450012  0.6781176276892751
  0.5334579602602503  0.0656362814159763  0.6775622036227418
  0.5319483581646622  0.2666848965056161  0.6810357416553927
  0.5343287791173523  0.4691743741023870  0.6724631731644735
  0.5331323773577026  0.6673663550279301  0.6754217701659258
  0.5328230777000655  0.8662395776858105  0.6769375505518127
  0.7330601917046025  0.0662067664982260  0.6782628990407815
  0.7321892710108102  0.2654076020501890  0.6806045017018576
  0.7323960690688054  0.4665917670376132  0.6788197279855268
  0.7337216044114854  0.6673652100619876  0.6754122217256651
  0.7330526273606139  0.8666139053867852  0.6763418902046041
  0.9326386157059261  0.0662074568687174  0.6782455047297731
  0.9327459518767398  0.2660089378658341  0.6797401041352344
  0.9325587575448679  0.4659365669407407  0.6795309357433865
  0.9328047824424601  0.6662196288175650  0.6776102679406080
  0.9329068766676940  0.8662412262989108  0.6769113497919932
  0.0663372911035580  0.1336590010671870  0.5636721300936998
  0.0648739390715178  0.1312866865997506  0.7943858332099509
  0.0664068780808194  0.3322786430817857  0.5650902664797854
  0.0660965296844367  0.3327533503606901  0.7949733777809058
  0.0657028291526984  0.5319213958030815  0.5641728287317989
  0.0662930173710876  0.5330954462713535  0.7943037779703346
  0.0664271884871326  0.7326920652232687  0.5629306602664599
  0.0657863435519204  0.7326951329854481  0.7930104511175671
  0.0665896838427855  0.9331737639861757  0.5622671306808869
  0.0651477810211887  0.9321297862737481  0.7929582918727291
  0.2671583648907898  0.1334651513202303  0.5654217982668754
  0.2638227738195695  0.1299943612329741  0.7969682555783635
  0.2663043267176093  0.3317859465781581  0.5658585979128077
  0.2668271428001745  0.3337464295318213  0.7974265564370810
  0.2655895512397777  0.5318919884682032  0.5637262140000132
  0.2670803039491858  0.5335407884917203  0.7935523228829311
  0.2657651124221232  0.7327004706168481  0.5629455700936177
  0.2663938631500855  0.7326926783543612  0.7930237381435745
  0.2666704732357985  0.9338380297555631  0.5639262348616683
  0.2649832321805121  0.9305015456265266  0.7943863199126611
  0.4657987663877989  0.1334678747457261  0.5654432245116965
  0.4656037503267711  0.1298655181426369  0.7969538803222420
  0.4656317026906152  0.3317601209515004  0.5629651825655273
  0.4696545931611524  0.3399440202933803  0.7942548787425849
  0.4648941703486358  0.5338812884092263  0.5601569990810731
  0.4685731231601480  0.5352366969804834  0.7910711702492392
  0.4654507803474246  0.7334536734434138  0.5612870251048321
  0.4667753387154505  0.7330792705645237  0.7919166911440527
  0.4660716044369124  0.9331643053661764  0.5622870637276449
  0.4664677707744715  0.9321192786032100  0.7929848151478538
  0.6668213622466155  0.1336715032707900  0.5637012077199870
  0.6659071842981632  0.1312687237991597  0.7944197168670755
  0.6649441145456834  0.3317674589556532  0.5659345036064991
  0.6663665974147079  0.3337262227672468  0.7975641970933935
  0.6684741549075781  0.5338632976769162  0.5601663195987996
  0.6661489839092667  0.5352507949937788  0.7910822342667174
  0.6667161685288008  0.7339441139639646  0.5604478647633400
  0.6663824489182346  0.7332601761614939  0.7906206019183983
  0.6664275609044665  0.9338157703682697  0.5619943550264708
  0.6660747749362841  0.9321646422145662  0.7922100481352103
  0.8665487120527615  0.1336170629702949  0.5635291229734420
  0.8658064472647951  0.1321062005200417  0.7940321435944000
  0.8653265710886160  0.3322638913154137  0.5651129110912834
  0.8661594716678280  0.3327552219528016  0.7949887861639411
  0.8657632454332145  0.5318689579318558  0.5637374120227534
  0.8659617164816282  0.5335534201644307  0.7935549385127985
  0.8674904320181724  0.7334468089027411  0.5612646396696022
  0.8657987070433251  0.7330872504737727  0.7918960559716481
  0.8668734722230909  0.9338133751184401  0.5619761781494148
  0.8655958472401508  0.9321646267375669  0.7921928644114402
  0.3486320102870124  0.2465834071346436  0.9119639876038406
  0.4988236572747979  0.2472146696847730  0.9113210131137137
 
  0.00000000E+00  0.00000000E+00  0.00000000E+00
  0.00000000E+00  0.00000000E+00  0.00000000E+00
  0.00000000E+00  0.00000000E+00  0.00000000E+00
  0.00000000E+00  0.00000000E+00  0.00000000E+00
  0.00000000E+00  0.00000000E+00  0.00000000E+00
  0.00000000E+00  0.00000000E+00  0.00000000E+00
  0.00000000E+00  0.00000000E+00  0.00000000E+00
  0.00000000E+00  0.00000000E+00  0.00000000E+00
  0.00000000E+00  0.00000000E+00  0.00000000E+00
  0.00000000E+00  0.00000000E+00  0.00000000E+00
  0.00000000E+00  0.00000000E+00  0.00000000E+00
  0.00000000E+00  0.00000000E+00  0.00000000E+00
  0.00000000E+00  0.00000000E+00  0.00000000E+00
  0.00000000E+00  0.00000000E+00  0.00000000E+00
  0.00000000E+00  0.00000000E+00  0.00000000E+00
  0.00000000E+00  0.00000000E+00  0.00000000E+00
  0.00000000E+00  0.00000000E+00  0.00000000E+00
  0.00000000E+00  0.00000000E+00  0.00000000E+00
  0.00000000E+00  0.00000000E+00  0.00000000E+00
  0.00000000E+00  0.00000000E+00  0.00000000E+00
  0.00000000E+00  0.00000000E+00  0.00000000E+00
  0.00000000E+00  0.00000000E+00  0.00000000E+00
  0.00000000E+00  0.00000000E+00  0.00000000E+00
  0.00000000E+00  0.00000000E+00  0.00000000E+00
  0.00000000E+00  0.00000000E+00  0.00000000E+00
  0.00000000E+00  0.00000000E+00  0.00000000E+00
  0.00000000E+00  0.00000000E+00  0.00000000E+00
  0.00000000E+00  0.00000000E+00  0.00000000E+00
  0.00000000E+00  0.00000000E+00  0.00000000E+00
  0.00000000E+00  0.00000000E+00  0.00000000E+00
  0.00000000E+00  0.00000000E+00  0.00000000E+00
  0.00000000E+00  0.00000000E+00  0.00000000E+00
  0.00000000E+00  0.00000000E+00  0.00000000E+00
  0.00000000E+00  0.00000000E+00  0.00000000E+00
  0.00000000E+00  0.00000000E+00  0.00000000E+00
  0.00000000E+00  0.00000000E+00  0.00000000E+00
  0.00000000E+00  0.00000000E+00  0.00000000E+00
  0.00000000E+00  0.00000000E+00  0.00000000E+00
  0.00000000E+00  0.00000000E+00  0.00000000E+00
  0.00000000E+00  0.00000000E+00  0.00000000E+00
  0.00000000E+00  0.00000000E+00  0.00000000E+00
  0.00000000E+00  0.00000000E+00  0.00000000E+00
  0.00000000E+00  0.00000000E+00  0.00000000E+00
  0.00000000E+00  0.00000000E+00  0.00000000E+00
  0.00000000E+00  0.00000000E+00  0.00000000E+00
  0.00000000E+00  0.00000000E+00  0.00000000E+00
  0.00000000E+00  0.00000000E+00  0.00000000E+00
  0.00000000E+00  0.00000000E+00  0.00000000E+00
  0.00000000E+00  0.00000000E+00  0.00000000E+00
  0.00000000E+00  0.00000000E+00  0.00000000E+00
  0.00000000E+00  0.00000000E+00  0.00000000E+00
  0.00000000E+00  0.00000000E+00  0.00000000E+00
  0.00000000E+00  0.00000000E+00  0.00000000E+00
  0.00000000E+00  0.00000000E+00  0.00000000E+00
  0.00000000E+00  0.00000000E+00  0.00000000E+00
  0.00000000E+00  0.00000000E+00  0.00000000E+00
  0.00000000E+00  0.00000000E+00  0.00000000E+00
  0.00000000E+00  0.00000000E+00  0.00000000E+00
  0.00000000E+00  0.00000000E+00  0.00000000E+00
  0.00000000E+00  0.00000000E+00  0.00000000E+00
  0.00000000E+00  0.00000000E+00  0.00000000E+00
  0.00000000E+00  0.00000000E+00  0.00000000E+00
  0.00000000E+00  0.00000000E+00  0.00000000E+00
  0.00000000E+00  0.00000000E+00  0.00000000E+00
  0.00000000E+00  0.00000000E+00  0.00000000E+00
  0.00000000E+00  0.00000000E+00  0.00000000E+00
  0.00000000E+00  0.00000000E+00  0.00000000E+00
  0.00000000E+00  0.00000000E+00  0.00000000E+00
  0.00000000E+00  0.00000000E+00  0.00000000E+00
  0.00000000E+00  0.00000000E+00  0.00000000E+00
  0.00000000E+00  0.00000000E+00  0.00000000E+00
  0.00000000E+00  0.00000000E+00  0.00000000E+00
  0.00000000E+00  0.00000000E+00  0.00000000E+00
  0.00000000E+00  0.00000000E+00  0.00000000E+00
  0.00000000E+00  0.00000000E+00  0.00000000E+00
  0.00000000E+00  0.00000000E+00  0.00000000E+00
  0.00000000E+00  0.00000000E+00  0.00000000E+00
