Mo  S Cu                                
   1.00000000000000     
    15.9215000000000000    0.0000000000000000    0.0000000000000000
    -7.9622500000000000   13.7910219999999999    0.0000000000000000
     0.0000000000000000    0.0000000000000000   13.5822000000000003
   Mo   S    Cu
    25    49     1
Direct
  0.1323561232486909  0.0674133468400981  0.6774743687781282
  0.1315630607524483  0.2658820970656635  0.6716384174499268
  0.1322609281749791  0.4638001959171731  0.6773825939944587
  0.1321914520626208  0.6651287584342782  0.6788563706287718
  0.1322147740915511  0.8659984042454312  0.6788390320137410
  0.3322180724751433  0.0668396989289093  0.6793002647290223
  0.3331145679791661  0.2705383114795552  0.6757375690625551
  0.3315553670005045  0.4600716470593156  0.6767573141372054
  0.3321036026840716  0.6639796671254459  0.6797226036037216
  0.3318859708827944  0.8653178063944154  0.6795269902828664
  0.5321425551606325  0.0653671637757256  0.6795278971948093
  0.5323408350977843  0.2649444002275985  0.6805951351377431
  0.5314622844626484  0.4649481816258074  0.6787095350838896
  0.5320996164478800  0.6659729319497814  0.6810207468538323
  0.5320457032057035  0.8654173665093197  0.6797832832173327
  0.7322725914786474  0.0655321394684307  0.6790789033071150
  0.7324469881734785  0.2655622013438048  0.6794193911237869
  0.7319777815596282  0.4653040389994914  0.6790466221161182
  0.7319190785253511  0.6654509837160845  0.6792501171550498
  0.7323443335188742  0.8655954061341120  0.6797381254625918
  0.9326425139603742  0.0660271703420676  0.6781897751844852
  0.9326543420805891  0.2656148842327539  0.6781134539515250
  0.9323049866456827  0.4652514025458032  0.6784748913485856
  0.9321471622429698  0.6655434510852700  0.6784006954716588
  0.9323028639859956  0.8659678624509226  0.6786624491428555
  0.0643187905961042  0.1313229654447881  0.5605270267247491
  0.0693466272727221  0.1372718689039090  0.7916343672873012
  0.0641327647716068  0.3318779149850499  0.5601950811253502
  0.0691945820452986  0.3313708986358819  0.7919748768464174
  0.0658501108041847  0.5320280742258134  0.5634622510803453
  0.0660641962426283  0.5311787748824131  0.7930076510088426
  0.0659157406543187  0.7324484064392323  0.5637396771301226
  0.0654115444456735  0.7321958415909648  0.7935541006451245
  0.0657805769205595  0.9328072273619057  0.5635801430694158
  0.0661609364294051  0.9338943272858202  0.7930920498013876
  0.2666515291338314  0.1345308977910733  0.5631507641808327
  0.2651890550003202  0.1378809044514142  0.7918940626633741
  0.2647389364303550  0.3315986134921118  0.5600287387548022
  0.2669039476836730  0.5307752047173864  0.5635172545440810
  0.2645425906215024  0.5258135368072061  0.7925082707634061
  0.2660053852375981  0.7315349145922738  0.5645794951192755
  0.2650395024633880  0.7310956586282344  0.7943670199100978
  0.2659522620838715  0.9330791140446664  0.5644163637269699
  0.2651480644138715  0.9329123801937200  0.7942328157312630
  0.4654811443588258  0.1324554841462628  0.5649538496570869
  0.4650146704084221  0.1311074492092743  0.7948494222957549
  0.4653066453384724  0.3309149058581866  0.5636363192320388
  0.4616977722824203  0.3313422303711278  0.7951156394223631
  0.4645575355662501  0.5326526845423700  0.5644117269703202
  0.4613275900662259  0.5286355852846754  0.7952929513837930
  0.4653437260412616  0.7315380424817377  0.5653873745159714
  0.4648997591862383  0.7325858668632037  0.7952773574105763
  0.4652908298525205  0.9319073751095459  0.5644826986762794
  0.4651246329795597  0.9320132747388783  0.7944737913239024
  0.6654038850553334  0.1321488306325236  0.5641742490104491
  0.6658412701121676  0.1321532387703925  0.7943355350952928
  0.6648134091442941  0.3313790866502870  0.5645421243562936
  0.6663803463345559  0.3324453285758793  0.7947140220598286
  0.6650630157480677  0.5320118768178261  0.5641080980507169
  0.6654446268533718  0.5320369830326968  0.7938176636561707
  0.6645068577948479  0.7320480329359711  0.5649279603724437
  0.6662725859300451  0.7325823871468060  0.7950683953373598
  0.6652860708155686  0.9318257534289103  0.5644148504557833
  0.6658116511493120  0.9325520291803642  0.7945339621486340
  0.8652598032665324  0.1320274571417599  0.5636140375977021
  0.8662874331706405  0.1326355160965278  0.7935702686073469
  0.8651741866724478  0.3318836086860628  0.5636076494664835
  0.8666362837051480  0.3323325220484250  0.7938616761732931
  0.8652917909407591  0.5318876051269470  0.5635529717865921
  0.8659374336660974  0.5322763564187838  0.7934495838470639
  0.8651993147798365  0.7323745913225252  0.5637107008342284
  0.8659523529060067  0.7325260124838238  0.7936049731304635
  0.8650542316446845  0.9321315571580442  0.5638537706412876
  0.8666766922042797  0.9332733995996136  0.7940561431214164
  0.4330615951779748  0.4156156700936933  0.9019482641999801
 
  0.00000000E+00  0.00000000E+00  0.00000000E+00
  0.00000000E+00  0.00000000E+00  0.00000000E+00
  0.00000000E+00  0.00000000E+00  0.00000000E+00
  0.00000000E+00  0.00000000E+00  0.00000000E+00
  0.00000000E+00  0.00000000E+00  0.00000000E+00
  0.00000000E+00  0.00000000E+00  0.00000000E+00
  0.00000000E+00  0.00000000E+00  0.00000000E+00
  0.00000000E+00  0.00000000E+00  0.00000000E+00
  0.00000000E+00  0.00000000E+00  0.00000000E+00
  0.00000000E+00  0.00000000E+00  0.00000000E+00
  0.00000000E+00  0.00000000E+00  0.00000000E+00
  0.00000000E+00  0.00000000E+00  0.00000000E+00
  0.00000000E+00  0.00000000E+00  0.00000000E+00
  0.00000000E+00  0.00000000E+00  0.00000000E+00
  0.00000000E+00  0.00000000E+00  0.00000000E+00
  0.00000000E+00  0.00000000E+00  0.00000000E+00
  0.00000000E+00  0.00000000E+00  0.00000000E+00
  0.00000000E+00  0.00000000E+00  0.00000000E+00
  0.00000000E+00  0.00000000E+00  0.00000000E+00
  0.00000000E+00  0.00000000E+00  0.00000000E+00
  0.00000000E+00  0.00000000E+00  0.00000000E+00
  0.00000000E+00  0.00000000E+00  0.00000000E+00
  0.00000000E+00  0.00000000E+00  0.00000000E+00
  0.00000000E+00  0.00000000E+00  0.00000000E+00
  0.00000000E+00  0.00000000E+00  0.00000000E+00
  0.00000000E+00  0.00000000E+00  0.00000000E+00
  0.00000000E+00  0.00000000E+00  0.00000000E+00
  0.00000000E+00  0.00000000E+00  0.00000000E+00
  0.00000000E+00  0.00000000E+00  0.00000000E+00
  0.00000000E+00  0.00000000E+00  0.00000000E+00
  0.00000000E+00  0.00000000E+00  0.00000000E+00
  0.00000000E+00  0.00000000E+00  0.00000000E+00
  0.00000000E+00  0.00000000E+00  0.00000000E+00
  0.00000000E+00  0.00000000E+00  0.00000000E+00
  0.00000000E+00  0.00000000E+00  0.00000000E+00
  0.00000000E+00  0.00000000E+00  0.00000000E+00
  0.00000000E+00  0.00000000E+00  0.00000000E+00
  0.00000000E+00  0.00000000E+00  0.00000000E+00
  0.00000000E+00  0.00000000E+00  0.00000000E+00
  0.00000000E+00  0.00000000E+00  0.00000000E+00
  0.00000000E+00  0.00000000E+00  0.00000000E+00
  0.00000000E+00  0.00000000E+00  0.00000000E+00
  0.00000000E+00  0.00000000E+00  0.00000000E+00
  0.00000000E+00  0.00000000E+00  0.00000000E+00
  0.00000000E+00  0.00000000E+00  0.00000000E+00
  0.00000000E+00  0.00000000E+00  0.00000000E+00
  0.00000000E+00  0.00000000E+00  0.00000000E+00
  0.00000000E+00  0.00000000E+00  0.00000000E+00
  0.00000000E+00  0.00000000E+00  0.00000000E+00
  0.00000000E+00  0.00000000E+00  0.00000000E+00
  0.00000000E+00  0.00000000E+00  0.00000000E+00
  0.00000000E+00  0.00000000E+00  0.00000000E+00
  0.00000000E+00  0.00000000E+00  0.00000000E+00
  0.00000000E+00  0.00000000E+00  0.00000000E+00
  0.00000000E+00  0.00000000E+00  0.00000000E+00
  0.00000000E+00  0.00000000E+00  0.00000000E+00
  0.00000000E+00  0.00000000E+00  0.00000000E+00
  0.00000000E+00  0.00000000E+00  0.00000000E+00
  0.00000000E+00  0.00000000E+00  0.00000000E+00
  0.00000000E+00  0.00000000E+00  0.00000000E+00
  0.00000000E+00  0.00000000E+00  0.00000000E+00
  0.00000000E+00  0.00000000E+00  0.00000000E+00
  0.00000000E+00  0.00000000E+00  0.00000000E+00
  0.00000000E+00  0.00000000E+00  0.00000000E+00
  0.00000000E+00  0.00000000E+00  0.00000000E+00
  0.00000000E+00  0.00000000E+00  0.00000000E+00
  0.00000000E+00  0.00000000E+00  0.00000000E+00
  0.00000000E+00  0.00000000E+00  0.00000000E+00
  0.00000000E+00  0.00000000E+00  0.00000000E+00
  0.00000000E+00  0.00000000E+00  0.00000000E+00
  0.00000000E+00  0.00000000E+00  0.00000000E+00
  0.00000000E+00  0.00000000E+00  0.00000000E+00
  0.00000000E+00  0.00000000E+00  0.00000000E+00
  0.00000000E+00  0.00000000E+00  0.00000000E+00
  0.00000000E+00  0.00000000E+00  0.00000000E+00
