Ta  N Ru Cu 
 1.0000000000000000
    18.1096308199999996    0.0000000000000000    0.0000000000000000
     0.0000000000000000   23.3551997799999995    0.0000000000000000
     0.0000000000000000    0.0000000000000000   30.4818171199999988
 228 240  12  29
Selective dynamics
Cartesian
   0.000000    0.001679   6.009014  F  F  F
   6.053917    1.457674   6.178475  F  F  F
   3.012006    1.461299   6.178298  F  F  F
   4.531153    2.921544   8.472142  F  F  F
   1.495909    1.464206   8.645480  F  F  F
   7.557842    1.453803   8.658006  F  F  F
   0.002885    2.914585  11.261577  F  F  F
   6.002932    1.453719  11.222486  F  F  F
   3.036709    1.459478  11.230680  F  F  F
   4.514355    2.938157  13.892011  F  F  F
   1.584664    1.438344  13.880217  F  F  F
   7.510772    1.437866  13.844240  F  F  F
   0.062438    2.722428  16.621860  F  F  F
   6.115305    1.414694  16.562089  F  F  F
   0.000000    2.924065   6.008802  F  F  F
   6.054719    4.378062   6.179304  F  F  F
   3.010915    4.382166   6.179341  F  F  F
   4.531029    5.836202   8.470972  F  F  F
   1.495362    4.383375   8.647985  F  F  F
   7.557100    4.373273   8.659481  F  F  F
   0.003347    5.843692  11.261550  F  F  F
   6.002301    4.372783  11.224730  F  F  F
   3.037517    4.380596  11.228573  F  F  F
   4.525602    5.816677  13.876283  F  F  F
   1.511532    4.392045  13.832340  F  F  F
   7.512934    4.376312  13.831835  F  F  F
  17.985377    5.610977  16.719828  F  F  F
   6.144683    4.334766  16.529832  F  F  F
   3.201104    4.414667  16.501886  F  F  F
   0.000000    5.840479   6.009014  F  F  F
   6.053917    7.296474   6.178475  F  F  F
   3.012006    7.300098   6.178298  F  F  F
   4.531153    8.760344   8.472142  F  F  F
   1.495909    7.303006   8.645480  F  F  F
   7.557842    7.292603   8.658006  F  F  F
   0.003510    8.755635  11.259433  F  F  F
   6.001929    7.295514  11.220227  F  F  F
   3.027504    7.302055  11.229437  F  F  F
   4.534541    8.800990  13.866318  F  F  F
   1.561097    7.321187  13.904142  F  F  F
   7.526427    7.280112  13.834816  F  F  F
   0.081848    8.656177  16.738889  F  F  F
   6.091543    7.274243  16.535605  F  F  F
   0.000000    8.762865   6.008802  F  F  F
   6.054719   10.216862   6.179304  F  F  F
   3.010915   10.220965   6.179341  F  F  F
   4.531029   23.352602   8.470972  F  F  F
   1.495362   10.222175   8.647985  F  F  F
   7.557100   10.212073   8.659481  F  F  F
   0.000659    0.012455  11.259355  F  F  F
   6.004464   10.217255  11.225816  F  F  F
   3.034185   10.222191  11.219460  F  F  F
   4.501123   -0.050694  13.888724  F  F  F
   1.499009   10.248041  13.829578  F  F  F
   7.542568   10.226851  13.818999  F  F  F
  -0.022636   -0.116435  16.588902  F  F  F
   6.116494   10.241527  16.463109  F  F  F
   3.026740   10.364978  16.545132  F  F  F
   0.000000   11.679279   6.009014  F  F  F
   6.053917   13.135274   6.178475  F  F  F
   3.012006   13.138898   6.178298  F  F  F
   4.531153   14.599144   8.472142  F  F  F
   1.495909   13.141806   8.645480  F  F  F
   7.557842   13.131403   8.658006  F  F  F
  -0.006665   14.593923  11.252026  F  F  F
   6.005247   13.133569  11.230439  F  F  F
   3.030036   13.139655  11.222799  F  F  F
   4.524429   14.608452  13.908109  F  F  F
   1.508667   13.164620  13.866060  F  F  F
   7.545638   13.126726  13.843559  F  F  F
  17.923563   14.754981  16.598427  F  F  F
   5.876665   13.184190  16.549832  F  F  F
   0.000000   14.601665   6.008802  F  F  F
   6.054719   16.055662   6.179304  F  F  F
   3.010915   16.059765   6.179341  F  F  F
   4.531029   17.513802   8.470972  F  F  F
   1.495362   16.060975   8.647985  F  F  F
   7.557100   16.050873   8.659481  F  F  F
  -0.007346   17.527038  11.257393  F  F  F
   6.013184   16.046052  11.226101  F  F  F
   3.049459   16.055323  11.206360  F  F  F
   4.515472   17.480036  13.842016  F  F  F
   1.493327   16.083693  13.765867  F  F  F
   7.554482   16.057782  13.829145  F  F  F
   0.060844   17.768314  17.794710  T  T  T
   6.069823   16.070913  16.452668  F  F  F
   3.035290   16.088864  16.527537  F  F  F
   0.000000   17.518079   6.009014  F  F  F
   6.053917   18.974074   6.178475  F  F  F
   3.012006   18.977698   6.178298  F  F  F
   4.531153   20.437944   8.472142  F  F  F
   1.495909   18.980606   8.645480  F  F  F
   7.557842   18.970203   8.658006  F  F  F
  -0.004023   20.436023  11.260308  F  F  F
   6.015068   18.970480  11.218371  F  F  F
   3.057375   18.974888  11.205036  F  F  F
   4.523635   20.440559  13.878025  F  F  F
   1.519699   18.966084  13.815251  F  F  F
   7.541154   18.961640  13.840266  F  F  F
  17.847444   20.529740  17.872652  T  T  T
   6.049974   18.947086  16.509530  F  F  F
   0.000000   20.440465   6.008802  F  F  F
   6.054719   21.894462   6.179304  F  F  F
   3.010915   21.898565   6.179341  F  F  F
   4.531029   11.675002   8.470972  F  F  F
   1.495362   21.899774   8.647985  F  F  F
   7.557100   21.889673   8.659481  F  F  F
  -0.000024   11.684272  11.256889  F  F  F
   6.012534   21.889421  11.228293  F  F  F
   3.054696   21.895624  11.215939  F  F  F
   4.522220   11.685063  13.882567  F  F  F
   1.501244   21.842135  13.781411  F  F  F
   7.524717   21.892023  13.841001  F  F  F
  18.010319   11.776145  16.614742  F  F  F
   6.134149   21.890790  16.534689  F  F  F
   3.143519   21.798532  16.505884  F  F  F
   9.054815   23.349334   6.012908  F  F  F
  15.097625    1.461299   6.178298  F  F  F
  12.055713    1.457674   6.178475  F  F  F
  13.578478    2.921544   8.472142  F  F  F
  10.551789    1.453803   8.658006  F  F  F
  16.613722    1.464206   8.645480  F  F  F
   9.045055    2.909006  11.265921  F  F  F
  15.082698    1.458369  11.237871  F  F  F
  12.098126    1.453020  11.215059  F  F  F
  13.551708    2.931821  13.866264  F  F  F
  10.558439    1.439721  13.828735  F  F  F
  16.553457    1.435536  13.932114  F  F  F
   9.010219    2.975503  16.489806  F  F  F
  11.906762    1.419816  16.549871  F  F  F
   9.054815    2.917798   6.013242  F  F  F
  15.098716    4.382166   6.179341  F  F  F
  12.054912    4.378062   6.179304  F  F  F
  13.578602    5.836202   8.470972  F  F  F
  10.552531    4.373273   8.659481  F  F  F
  16.614269    4.383375   8.647985  F  F  F
   9.048523    5.831294  11.263015  F  F  F
  15.073631    4.374506  11.229920  F  F  F
  12.101947    4.371748  11.220048  F  F  F
  13.588270    5.798274  13.869315  F  F  F
  10.563710    4.372872  13.815456  F  F  F
  16.602922    4.376379  13.827779  F  F  F
  14.838346    4.312690  16.447046  F  F  F
  11.884035    4.320142  16.492720  F  F  F
   9.054815    5.832934   6.012908  F  F  F
  15.097625    7.300098   6.178298  F  F  F
  12.055713    7.296474   6.178475  F  F  F
  13.578478    8.760344   8.472142  F  F  F
  10.551789    7.292603   8.658006  F  F  F
  16.613722    7.303006   8.645480  F  F  F
   9.052960    8.751702  11.265959  F  F  F
  15.081714    7.295104  11.230452  F  F  F
  12.106220    7.291989  11.218151  F  F  F
  13.592477    8.775783  13.877955  F  F  F
  10.571161    7.280654  13.824341  F  F  F
  16.580839    7.290658  13.898415  F  F  F
   9.022114    8.869891  16.454777  F  F  F
  11.951826    7.257568  16.514028  F  F  F
   9.054815    8.756598   6.013242  F  F  F
  15.098716   10.220965   6.179341  F  F  F
  12.054912   10.216862   6.179304  F  F  F
  13.578602   23.352602   8.470972  F  F  F
  10.552531   10.212073   8.659481  F  F  F
  16.614269   10.222175   8.647985  F  F  F
   9.046962   -0.005733  11.264516  F  F  F
  15.070216   10.215875  11.226694  F  F  F
  12.106707   10.212781  11.224094  F  F  F
  13.569156   23.312275  13.867002  F  F  F
  10.591410   10.223862  13.821550  F  F  F
  16.620614   10.206256  13.820421  F  F  F
  14.942517   10.196486  16.480880  F  F  F
  11.982265   10.257490  16.475850  F  F  F
   9.054815   11.671734   6.012908  F  F  F
  15.097625   13.138898   6.178298  F  F  F
  12.055713   13.135274   6.178475  F  F  F
  13.578478   14.599144   8.472142  F  F  F
  10.551789   13.131403   8.658006  F  F  F
  16.613722   13.141806   8.645480  F  F  F
   9.060688   14.588388  11.266909  F  F  F
  15.070681   13.137578  11.224870  F  F  F
  12.107054   13.132765  11.222109  F  F  F
  13.615707   14.631317  13.890972  F  F  F
  10.585359   13.126424  13.847570  F  F  F
  16.541663   13.159384  13.845572  F  F  F
   9.076167   14.707117  16.515064  F  F  F
  12.043727   13.166739  16.552426  F  F  F
   9.054815   14.595398   6.013242  F  F  F
  15.098716   16.059765   6.179341  F  F  F
  12.054912   16.055662   6.179304  F  F  F
  13.578602   17.513802   8.470972  F  F  F
  10.552531   16.050873   8.659481  F  F  F
  16.614269   16.060975   8.647985  F  F  F
   9.060167   17.508897  11.264790  F  F  F
  15.056461   16.064382  11.221975  F  F  F
  12.100860   16.051634  11.230590  F  F  F
  13.607654   17.494323  13.876624  F  F  F
  10.590435   16.062163  13.837750  F  F  F
  16.617059   16.106778  13.779892  F  F  F
  14.942617   16.138989  16.515054  F  F  F
  11.985636   16.067657  16.498126  F  F  F
   9.054815   17.510534   6.012908  F  F  F
  15.097625   18.977698   6.178298  F  F  F
  12.055713   18.974074   6.178475  F  F  F
  13.578478   20.437944   8.472142  F  F  F
  10.551789   18.970203   8.658006  F  F  F
  16.613722   18.980606   8.645480  F  F  F
   9.053978   20.428264  11.266723  F  F  F
  15.065821   18.979737  11.228233  F  F  F
  12.095975   18.972893  11.219897  F  F  F
  13.593097   20.462520  13.870079  F  F  F
  10.580288   18.965914  13.852443  F  F  F
  16.633531   18.986442  13.925065  F  F  F
   9.028841   20.493221  16.519149  F  F  F
  11.973036   18.985243  16.572457  F  F  F
   9.054815   20.434198   6.013242  F  F  F
  15.098716   21.898565   6.179341  F  F  F
  12.054912   21.894462   6.179304  F  F  F
  13.578602   11.675002   8.470972  F  F  F
  10.552531   21.889673   8.659481  F  F  F
  16.614269   21.899774   8.647985  F  F  F
   9.058222   11.672467  11.264905  F  F  F
  15.060795   21.896891  11.228671  F  F  F
  12.096560   21.889920  11.223550  F  F  F
  13.613449   11.649692  13.888570  F  F  F
  10.563659   21.893980  13.826084  F  F  F
  16.605486   21.855057  13.790368  F  F  F
  14.857541   21.894167  16.515498  F  F  F
  11.892521   21.905071  16.512033  F  F  F
   7.351617   23.350771   7.082145  F  F  F
   4.532511    0.000234   6.074116  F  F  F
   1.706746    0.003278   7.072370  F  F  F
   2.804278    2.923829   9.618451  F  F  F
   0.000000    2.924231   9.229069  F  F  F
   6.252124    2.911903   9.631240  F  F  F
   7.247697    2.910092  12.259474  F  F  F
   4.520031    2.916008  11.817961  F  F  F
   1.779335    2.909694  12.280611  F  F  F
   2.727225    3.038839  14.868677  F  F  F
   0.033541    2.907998  14.557469  F  F  F
   6.323373    2.906076  14.888487  F  F  F
   7.305731    2.886449  17.437683  F  F  F
   4.542022    2.988049  17.033834  F  F  F
   1.312315    1.277996  17.007574  F  F  F
   7.350637    2.915768   7.082412  F  F  F
   4.532223    2.920083   6.075700  F  F  F
   1.707441    2.922941   7.071920  F  F  F
   2.803719    5.843329   9.617047  F  F  F
   0.000000    5.845008   9.229303  F  F  F
   6.252538    5.831988   9.629520  F  F  F
   7.243895    5.832366  12.247967  F  F  F
   4.517213    5.841888  11.806507  F  F  F
   1.776528    5.855634  12.282420  F  F  F
   2.753408    5.789821  14.870919  F  F  F
  -0.005255    5.818361  14.600866  F  F  F
   6.302941    5.832696  14.901466  F  F  F
   7.307903    5.804653  17.433148  F  F  F
   4.558368    5.852362  17.191591  F  F  F
   1.340952    4.398800  17.244577  F  F  F
   7.351617    5.834371   7.082145  F  F  F
   4.532511    5.839034   6.074116  F  F  F
   1.706746    5.842078   7.072370  F  F  F
   2.804278    8.762629   9.618451  F  F  F
   0.000000    8.763031   9.229069  F  F  F
   6.252124    8.750703   9.631240  F  F  F
   7.252819    8.751413  12.253425  F  F  F
   4.518232    8.759405  11.803582  F  F  F
   1.777787    8.756345  12.269443  F  F  F
   2.764542    8.898493  14.797715  F  F  F
   0.016827    8.735652  14.582093  F  F  F
   6.343196    8.750555  14.882328  F  F  F
   7.309465    8.740170  17.451644  F  F  F
   4.583379    8.805143  17.007119  F  F  F
   1.884444    8.817747  17.307438  F  F  F
   7.350637    8.754568   7.082412  F  F  F
   4.532223    8.758883   6.075700  F  F  F
   1.707441    8.761741   7.071920  F  F  F
   2.803719    0.004529   9.617047  F  F  F
   0.000000    0.006208   9.229303  F  F  F
   6.252538   23.348388   9.629520  F  F  F
   7.248846   -0.006773  12.258288  F  F  F
   4.524010   -0.000022  11.812949  F  F  F
   1.785838    0.012605  12.265600  F  F  F
   2.711588   23.205746  14.867912  F  F  F
   0.009668   -0.054368  14.513372  F  F  F
   6.299462   -0.024935  14.888790  F  F  F
   7.333810   -0.039916  17.384841  F  F  F
   4.537941   -0.107365  17.018953  F  F  F
   1.269280   21.699163  17.292683  F  F  F
   7.351617   11.673171   7.082145  F  F  F
   4.532511   11.677834   6.074116  F  F  F
   1.706746   11.680878   7.072370  F  F  F
   2.804278   14.601429   9.618451  F  F  F
   0.000000   14.601830   9.229069  F  F  F
   6.252124   14.589503   9.631240  F  F  F
   7.269210   14.583565  12.264226  F  F  F
   4.525096   14.589802  11.828415  F  F  F
   1.786079   14.598843  12.240617  F  F  F
   2.701443   14.677808  14.838255  F  F  F
  -0.044285   14.652193  14.476875  F  F  F
   6.350014   14.585296  14.892519  F  F  F
   7.330315   14.608358  17.522409  T  T  T
   4.584170   14.687439  16.998354  F  F  F
   1.579134   14.875995  17.376129  F  F  F
   7.350637   14.593367   7.082412  F  F  F
   4.532223   14.597683   6.075700  F  F  F
   1.707441   14.600541   7.071920  F  F  F
   2.803719   17.520929   9.617047  F  F  F
   0.000000   17.522608   9.229303  F  F  F
   6.252538   17.509588   9.629520  F  F  F
   7.263018   17.512287  12.247782  F  F  F
   4.534663   17.508929  11.783413  F  F  F
   1.806083   17.531156  12.204288  F  F  F
   2.729149   17.424741  14.784008  F  F  F
   0.018443   17.516735  14.302744  F  F  F
   6.311667   17.511742  14.845984  F  F  F
   7.283759   17.491686  17.359208  F  F  F
   4.603099   17.459936  17.035071  F  F  F
   1.916834   17.642693  17.288172  F  F  F
   7.351617   17.511971   7.082145  F  F  F
   4.532511   17.516634   6.074116  F  F  F
   1.706746   17.519678   7.072370  F  F  F
   2.804278   20.440229   9.618451  F  F  F
   0.000000   20.440630   9.229069  F  F  F
   6.252124   20.428303   9.631240  F  F  F
   7.262866   20.423765  12.262726  F  F  F
   4.534800   20.430407  11.805854  F  F  F
   1.810806   20.417051  12.213547  F  F  F
   2.715974   20.464965  14.855916  F  F  F
   0.022530   20.452978  14.283666  F  F  F
   6.336208   20.418995  14.895452  F  F  F
   7.312123   20.357508  17.512642  T  T  T
   4.529186   20.436877  17.006111  F  F  F
  17.465020   19.150644  16.586729  F  F  F
   7.350637   20.432167   7.082412  F  F  F
   4.532223   20.436483   6.075700  F  F  F
   1.707441   20.439341   7.071920  F  F  F
   2.803719   11.682129   9.617047  F  F  F
   0.000000   11.683808   9.229303  F  F  F
   6.252538   11.670788   9.629520  F  F  F
   7.258129   11.679461  12.252681  F  F  F
   4.516897   11.679673  11.812664  F  F  F
   1.785793   11.684146  12.260493  F  F  F
   2.720311   11.684721  14.872048  F  F  F
  -0.036233   11.673227  14.504458  F  F  F
   6.302185   11.705682  14.874676  F  F  F
   7.340107   11.739563  17.285615  F  F  F
   4.655115   11.599121  17.155205  F  F  F
   1.656723   11.582490  17.445962  F  F  F
  16.402885    0.003278   7.072370  F  F  F
  13.577120    0.000234   6.074116  F  F  F
  10.758014   23.350771   7.082145  F  F  F
  11.857507    2.911903   9.631240  F  F  F
   9.054815    2.913211   9.239478  F  F  F
  15.305353    2.923829   9.618451  F  F  F
  16.340471    2.899244  12.286400  F  F  F
  13.583559    2.910643  11.803606  F  F  F
  10.843640    2.909886  12.247306  F  F  F
  11.741806    2.899653  14.867929  F  F  F
   9.033764    2.903308  14.406454  F  F  F
  15.346999    3.005822  14.820275  F  F  F
  16.741212    1.403006  16.678603  F  F  F
  13.476095    2.959632  17.023598  F  F  F
  10.716786    2.894949  17.423866  F  F  F
  16.402190    2.922941   7.071920  F  F  F
  13.577408    2.920083   6.075700  F  F  F
  10.758994    2.915768   7.082412  F  F  F
  11.857093    5.831988   9.629520  F  F  F
   9.054815    5.830323   9.239646  F  F  F
  15.305912    5.843329   9.617047  F  F  F
  16.339309    5.841005  12.280090  F  F  F
  13.591947    5.836263  11.804043  F  F  F
  10.853386    5.831947  12.240768  F  F  F
  11.779949    5.824375  14.874098  F  F  F
   9.044052    5.825396  14.325912  F  F  F
  15.375385    5.752551  14.857321  F  F  F
  16.703349    4.242827  17.196873  F  F  F
  13.473702    5.764250  17.075910  F  F  F
  10.708210    5.779532  17.377118  F  F  F
  16.402885    5.842078   7.072370  F  F  F
  13.577120    5.839034   6.074116  F  F  F
  10.758014    5.834371   7.082145  F  F  F
  11.857507    8.750703   9.631240  F  F  F
   9.054815    8.752011   9.239478  F  F  F
  15.305353    8.762629   9.618451  F  F  F
  16.338299    8.740733  12.275137  F  F  F
  13.591801    8.749203  11.811367  F  F  F
  10.852308    8.750555  12.249413  F  F  F
  11.778811    8.742394  14.871074  F  F  F
   9.054847    8.753297  14.389199  F  F  F
  15.386933    8.824421  14.858295  F  F  F
  17.561029    7.135291  17.831076  T  T  T
  13.486708    8.819388  17.026440  F  F  F
  10.761513    8.745927  17.339466  F  F  F
  16.402190    8.761741   7.071920  F  F  F
  13.577408    8.758883   6.075700  F  F  F
  10.758994    8.754568   7.082412  F  F  F
  11.857093   23.348388   9.629520  F  F  F
   9.054815   23.346723   9.239646  F  F  F
  15.305912    0.004529   9.617047  F  F  F
  16.330579    0.020384  12.278597  F  F  F
  13.581528    0.004874  11.801119  F  F  F
  10.845172   -0.006428  12.247359  F  F  F
  11.762608   -0.013264  14.869483  F  F  F
   9.037232   -0.010262  14.381097  F  F  F
  15.359486   23.241842  14.839841  F  F  F
  16.563395   22.049729  17.539261  T  T  T
  13.466593   -0.055600  17.016116  F  F  F
  10.685479   23.324822  17.372619  F  F  F
  16.402885   11.680878   7.072370  F  F  F
  13.577120   11.677834   6.074116  F  F  F
  10.758014   11.673171   7.082145  F  F  F
  11.857507   14.589503   9.631240  F  F  F
   9.054815   14.590811   9.239478  F  F  F
  15.305353   14.601429   9.618451  F  F  F
  16.316469   14.596611  12.252103  F  F  F
  13.584461   14.590887  11.816451  F  F  F
  10.853002   14.585178  12.263626  F  F  F
  11.799736   14.595106  14.878101  F  F  F
   9.068108   14.580847  14.438016  F  F  F
  15.414211   14.728198  14.866181  F  F  F
  16.878424   13.232892  17.209053  F  F  F
  13.575215   14.682646  17.023335  F  F  F
  10.791933   14.582555  17.404931  F  F  F
  16.402190   14.600541   7.071920  F  F  F
  13.577408   14.597683   6.075700  F  F  F
  10.758994   14.593367   7.082412  F  F  F
  11.857093   17.509588   9.629520  F  F  F
   9.054815   17.507923   9.239646  F  F  F
  15.305912   17.520929   9.617047  F  F  F
  16.304160   17.553247  12.242793  F  F  F
  13.577698   17.522119  11.806726  F  F  F
  10.855931   17.515612  12.257081  F  F  F
  11.803155   17.521739  14.890700  F  F  F
   9.064459   17.506952  14.369672  F  F  F
  15.404665   17.452911  14.871878  F  F  F
  16.792730   16.244133  17.366614  F  F  F
  13.541633   17.483213  17.052826  F  F  F
  10.845858   17.506318  17.453103  F  F  F
  16.402885   17.519678   7.072370  F  F  F
  13.577120   17.516634   6.074116  F  F  F
  10.758014   17.511971   7.082145  F  F  F
  11.857507   20.428303   9.631240  F  F  F
   9.054815   20.429611   9.239478  F  F  F
  15.305353   20.440229   9.618451  F  F  F
  16.304506   20.414511  12.246452  F  F  F
  13.576598   20.430182  11.803486  F  F  F
  10.845713   20.425126  12.257453  F  F  F
  11.771429   20.436556  14.876932  F  F  F
   9.050834   20.428011  14.426013  F  F  F
  15.388035   20.534498  14.868907  F  F  F
  -0.020699   19.127551  19.153308  T  T  T
  13.489503   20.494809  17.038372  F  F  F
  10.735241   20.410239  17.428748  F  F  F
  16.402190   20.439341   7.071920  F  F  F
  13.577408   20.436483   6.075700  F  F  F
  10.758994   20.432167   7.082412  F  F  F
  11.857093   11.670788   9.629520  F  F  F
   9.054815   11.669123   9.239646  F  F  F
  15.305912   11.682129   9.617047  F  F  F
  16.327486   11.678543  12.261612  F  F  F
  13.589653   11.675161  11.814765  F  F  F
  10.860181   11.677308  12.251622  F  F  F
  11.808345   11.689932  14.883081  F  F  F
   9.067272   11.658031  14.368543  F  F  F
  15.409078   11.565319  14.861410  F  F  F
  16.923206   10.153104  17.167356  F  F  F
  13.590240   11.612711  17.037725  F  F  F
  10.838013   11.698210  17.422479  F  F  F
   3.433411    1.430132  16.052895  F  F  F
   3.295140    7.423313  16.119059  F  F  F
   2.203001   13.212905  16.338793  F  F  F
   3.381189   18.863955  16.094612  F  F  F
  14.611255    1.443102  16.040902  F  F  F
   9.018655    5.732633  16.316205  F  F  F
  14.640721    7.291284  16.115024  F  F  F
   9.013356   23.270539  16.393457  F  F  F
  14.726506   13.148761  16.071098  F  F  F
   9.049188   17.406070  16.365574  F  F  F
  14.615243   19.002464  16.060787  F  F  F
   9.092359   11.517810  16.371939  F  F  F
   7.998681   10.909667  18.869958  T  T  T
  10.553239    8.742342  19.212062  T  T  T
   8.506898    6.007809  18.894582  T  T  T
   9.260458    9.887192  20.840082  T  T  T
  10.580493   11.594997  21.847283  T  T  T
   5.457921    8.224837  20.851280  T  T  T
  10.458653   11.414352  19.266891  T  T  T
   7.647130    8.506285  21.992576  T  T  T
   9.460922    7.251035  20.811256  T  T  T
  12.231790    7.659703  20.626245  T  T  T
  10.973687    6.238299  19.186640  T  T  T
   4.264291   10.343091  20.877256  T  T  T
   7.050015    6.476914  20.731956  T  T  T
  13.615633    8.867362  19.001787  T  T  T
   4.402083    8.971774  18.900249  T  T  T
   5.344744   11.443089  19.008535  T  T  T
   8.458276   12.252062  20.872586  T  T  T
   7.716805    8.467595  19.377613  T  T  T
   5.103523    6.526693  19.048986  T  T  T
  15.830850    7.604915  18.502126  T  T  T
  13.594371    6.476253  18.888255  T  T  T
   7.742341   16.111033  18.813579  T  T  T
  12.064912   10.084754  20.622928  T  T  T
   6.674334   10.525089  20.923000  T  T  T
   8.233899   17.495222  20.732442  T  T  T
   7.313990   13.321569  18.999664  T  T  T
   8.353941   10.777151  22.843950  T  T  T
   7.758256   18.842418  18.760069  T  T  T
   9.797110   17.470599  18.980304  T  T  T
