Ta  N Ru Cu                             
   1.00000000000000     
     9.0548154099999998    0.0000000000000000    0.0000000000000000
     0.0000000000000000   11.6775998899999998    0.0000000000000000
     0.0000000000000000    0.0000000000000000   23.4818170799999990
   Ta   N    Ru   Cu
    60    60    16     1
Selective dynamics
Direct
  0.0000000000000000  0.0000000000000000  0.2546926809530987   F   F   F
  0.6670845899906297  0.1250000003211298  0.2638822399803757   F   F   F
  0.3329153514769843  0.1250000003211298  0.2638822399803757   F   F   F
  0.4999999994478088  0.2499999997859135  0.3618861993156202   F   F   F
  0.1650707596845180  0.1250000003211298  0.3684425577811794   F   F   F
  0.8349292403154820  0.1250000003211298  0.3684425577811794   F   F   F
  0.0004594134541492  0.2500279435914145  0.4799412148695790   T   T   T
  0.6645085849619895  0.1250018775592019  0.4780808960027640   T   T   T
  0.3353563658783058  0.1249795070631447  0.4779809599994072   T   T   T
  0.4988190008787975  0.2500290595330275  0.5904062645240410   T   T   T
  0.1684215251764299  0.1249140077492707  0.5901360871430725   T   T   T
  0.8325014034693032  0.1251143483687106  0.5897782922701740   T   T   T
  0.9933207907076630  0.2507861180714794  0.6998566649037457   T   T   T
  0.6642700461059492  0.1254179496471723  0.7010868512275399   T   T   T
  0.3306870501657934  0.1247356682883358  0.7045036319191145   T   T   T
  0.0000000000000000  0.2499999997859135  0.2546926809530987   F   F   F
  0.6670845899906297  0.3750000001070433  0.2638822399803757   F   F   F
  0.3329153514769843  0.3750000001070433  0.2638822399803757   F   F   F
  0.4999999994478088  0.5000000004281731  0.3618861993156202   F   F   F
  0.1650707596845180  0.3750000001070433  0.3684425577811794   F   F   F
  0.8349292403154820  0.3750000001070433  0.3684425577811794   F   F   F
  0.0004201197002076  0.4998886889020917  0.4798886402746249   T   T   T
  0.6644252062082531  0.3749810866663053  0.4780464137870297   T   T   T
  0.3353866798168744  0.3749615257649317  0.4779345282543030   T   T   T
  0.4991089515769029  0.4999288155911020  0.5902796535450148   T   T   T
  0.1680576317776715  0.3748659531532498  0.5901792247928822   T   T   T
  0.8325310439820651  0.3751411049957004  0.5895232251400173   T   T   T
  0.9954765731560803  0.4996798765349582  0.7002581396349811   T   T   T
  0.6648041329899593  0.3755031525061902  0.7011876697712632   T   T   T
  0.3281594294996375  0.3748333275241266  0.7048182946575083   T   T   T
  0.0000000000000000  0.5000000004281731  0.2546926809530987   F   F   F
  0.6670845899906297  0.6249999998929567  0.2638822399803757   F   F   F
  0.3329153514769843  0.6249999998929567  0.2638822399803757   F   F   F
  0.4999999994478088  0.7500000002140865  0.3618861993156202   F   F   F
  0.1650707596845180  0.6249999998929567  0.3684425577811794   F   F   F
  0.8349292403154820  0.6249999998929567  0.3684425577811794   F   F   F
  0.0003493894322806  0.7499946140271450  0.4799071778520420   T   T   T
  0.6644694855248274  0.6249702259116413  0.4780204475962318   T   T   T
  0.3353133839989662  0.6249596083385835  0.4779043097401620   T   T   T
  0.4992505178439257  0.7498857764632149  0.5902464875402036   T   T   T
  0.1679913059842943  0.6249464103313296  0.5898791212018709   T   T   T
  0.8325584947239134  0.6248275703981826  0.5897333530594097   T   T   T
  0.9903178908416277  0.7502301883237027  0.7001933941703046   T   T   T
  0.6642992096682592  0.6238590428534604  0.7019526356200859   T   T   T
  0.3306220737199698  0.6247845722943435  0.7028604739390739   T   T   T
  0.0000000000000000  0.7500000002140865  0.2546926809530987   F   F   F
  0.6670845899906297  0.8750000005352163  0.2638822399803757   F   F   F
  0.3329153514769843  0.8750000005352163  0.2638822399803757   F   F   F
  0.4999999994478088  0.0000000000000000  0.3618861993156202   F   F   F
  0.1650707596845180  0.8750000005352163  0.3684425577811794   F   F   F
  0.8349292403154820  0.8750000005352163  0.3684425577811794   F   F   F
  0.0003780351306938  0.0000089767030780  0.4799270599447223   T   T   T
  0.6645469546853773  0.8749955794933195  0.4780946385260932   T   T   T
  0.3353130886175253  0.8750110535141088  0.4779927515882098   T   T   T
  0.4987915816154693  0.0000607543215781  0.5903101105607599   T   T   T
  0.1679411540931642  0.8750199127999906  0.5902260772096849   T   T   T
  0.8323668152746020  0.8749334432874945  0.5896333308457931   T   T   T
  0.9879310969674261  0.9996693276858620  0.7008768666467342   T   T   T
  0.6638032460801943  0.8743243393556432  0.7000160500362268   T   T   T
  0.3287534461848691  0.8749166369334435  0.7047268412694488   T   T   T
  0.8141011533980276  0.0000000000000000  0.3013105672926031   F   F   F
  0.4999999994478088  0.0000000000000000  0.2564174481620327   F   F   F
  0.1858988466019724  0.0000000000000000  0.3013105672926031   F   F   F
  0.3088456122590841  0.2499999997859135  0.4099867722441957   F   F   F
  0.0000000000000000  0.2499999997859135  0.3930971035158137   F   F   F
  0.6911543877409159  0.2499999997859135  0.4099867722441957   F   F   F
  0.8015623979931122  0.2499989711462113  0.5218334775186593   T   T   T
  0.4996976721656838  0.2499973535843473  0.5027093639191440   T   T   T
  0.1988923160395008  0.2499580679503011  0.5222411458681020   T   T   T
  0.3038445682857865  0.2502252310205119  0.6349150166250511   T   T   T
  0.9997741310654475  0.2499798994905184  0.6119091366064611   T   T   T
  0.6954333944082112  0.2506814426917440  0.6332110941572354   T   T   T
  0.8012425481343994  0.2537940238816392  0.7451566780934584   T   T   T
  0.5015463656063542  0.2513990343756367  0.7256640484404133   T   T   T
  0.1906061436181383  0.2484464033875166  0.7384868454227815   T   T   T
  0.8141011533980276  0.2499999997859135  0.3013105672926031   F   F   F
  0.4999999994478088  0.2499999997859135  0.2564174481620327   F   F   F
  0.1858988466019724  0.2499999997859135  0.3013105672926031   F   F   F
  0.3088456122590841  0.5000000004281731  0.4099867722441957   F   F   F
  0.0000000000000000  0.5000000004281731  0.3930971035158137   F   F   F
  0.6911543877409159  0.5000000004281731  0.4099867722441957   F   F   F
  0.8015077341242118  0.5000119379427400  0.5217995212332744   T   T   T
  0.4997393745046522  0.4999587920480615  0.5026202552317955   T   T   T
  0.1988182186166359  0.4998279522319858  0.5221258662530285   T   T   T
  0.3037987575812387  0.4995944551148783  0.6344363946732796   T   T   T
  0.9997750122115123  0.4999245338122542  0.6120941522242768   T   T   T
  0.6956420352205481  0.5000630104137131  0.6332697964791761   T   T   T
  0.8031887995333230  0.4990104807422963  0.7456090274473791   T   T   T
  0.4994401791536023  0.4995212437945126  0.7257837535664075   T   T   T
  0.1931478012168643  0.5019053133711316  0.7389345173936396   T   T   T
  0.8141011533980276  0.5000000004281731  0.3013105672926031   F   F   F
  0.4999999994478088  0.5000000004281731  0.2564174481620327   F   F   F
  0.1858988466019724  0.5000000004281731  0.3013105672926031   F   F   F
  0.3088456122590841  0.7500000002140865  0.4099867722441957   F   F   F
  0.0000000000000000  0.7500000002140865  0.3930971035158137   F   F   F
  0.6911543877409159  0.7500000002140865  0.4099867722441957   F   F   F
  0.8015451859824050  0.7498929741470287  0.5218354756204403   T   T   T
  0.4997332514452578  0.7499389637828581  0.5026311403914641   T   T   T
  0.1986561711216555  0.7501000648502839  0.5221579635691788   T   T   T
  0.3039314535094336  0.7500436167824353  0.6343267005679588   T   T   T
  0.9995084751034542  0.7500871291588335  0.6121828350749673   T   T   T
  0.6958965836519789  0.7487571900685090  0.6332377089709624   T   T   T
  0.7966863322117559  0.7506398079724326  0.7468395574400497   T   T   T
  0.5009096842634490  0.7492830405215239  0.7251085573132834   T   T   T
  0.1901627585103436  0.7481045513804792  0.7371759724906142   T   T   T
  0.8141011533980276  0.7500000002140865  0.3013105672926031   F   F   F
  0.4999999994478088  0.7500000002140865  0.2564174481620327   F   F   F
  0.1858988466019724  0.7500000002140865  0.3013105672926031   F   F   F
  0.3088456122590841  0.0000000000000000  0.4099867722441957   F   F   F
  0.0000000000000000  0.0000000000000000  0.3930971035158137   F   F   F
  0.6911543877409159  0.0000000000000000  0.4099867722441957   F   F   F
  0.8016954527008103  0.0000626841030545  0.5218737010281641   T   T   T
  0.4997246708513547  0.0000025242882378  0.5026643170301992   T   T   T
  0.1986022263678312  0.9999329079107265  0.5222993435106861   T   T   T
  0.3038660417349254  0.9997913323251867  0.6346098214241876   T   T   T
  0.9995858653874112  0.9999827216716353  0.6127116038577785   T   T   T
  0.6958765680991288  0.0005807654657930  0.6330436270730263   T   T   T
  0.7930017939868798  0.9971546025670270  0.7479899182269120   T   T   T
  0.5011956620504383  0.9997142311580904  0.7240712910491542   T   T   T
  0.1883108002215696  0.0006912567043770  0.7370012830018358   T   T   T
  0.1333957669575548  0.0065130239002158  0.8153885615662111   T   T   T
  0.5784808727867140  0.9983017999156221  0.8032109095365222   T   T   T
  0.8790890232574275  0.1286730381436030  0.7980053337993064   T   T   T
  0.1469892027986367  0.5169337685796583  0.8184903000668028   T   T   T
  0.5442001543301649  0.4994470386536115  0.8084195136147665   T   T   T
  0.8889733945263550  0.6241709603151122  0.7980236766999951   T   T   T
  0.1315918707314985  0.2300408125133972  0.8164104238889682   T   T   T
  0.5686304356661768  0.2593760506743288  0.8060914404009437   T   T   T
  0.8854613669029742  0.3743744890471401  0.7998257441798724   T   T   T
  0.1367217704460482  0.7394790222975574  0.8156211170849763   T   T   T
  0.5779445636150170  0.7564238909955049  0.8047894533193293   T   T   T
  0.8931507717006028  0.8716801136366344  0.8005023432896459   T   T   T
  0.3598296526608070  0.8833475489734482  0.8342696924302437   T   T   T
  0.3693376591558130  0.6545752488325609  0.8451571426320942   T   T   T
  0.3413298685533920  0.3531168115355089  0.8401369957939022   T   T   T
  0.3715230328769827  0.1190238969152779  0.8374381218308935   T   T   T
  0.3427220864666511  0.4997806831480799  0.9132188051200042   T   T   T
 
  0.00000000E+00  0.00000000E+00  0.00000000E+00
  0.00000000E+00  0.00000000E+00  0.00000000E+00
  0.00000000E+00  0.00000000E+00  0.00000000E+00
  0.00000000E+00  0.00000000E+00  0.00000000E+00
  0.00000000E+00  0.00000000E+00  0.00000000E+00
  0.00000000E+00  0.00000000E+00  0.00000000E+00
  0.00000000E+00  0.00000000E+00  0.00000000E+00
  0.00000000E+00  0.00000000E+00  0.00000000E+00
  0.00000000E+00  0.00000000E+00  0.00000000E+00
  0.00000000E+00  0.00000000E+00  0.00000000E+00
  0.00000000E+00  0.00000000E+00  0.00000000E+00
  0.00000000E+00  0.00000000E+00  0.00000000E+00
  0.00000000E+00  0.00000000E+00  0.00000000E+00
  0.00000000E+00  0.00000000E+00  0.00000000E+00
  0.00000000E+00  0.00000000E+00  0.00000000E+00
  0.00000000E+00  0.00000000E+00  0.00000000E+00
  0.00000000E+00  0.00000000E+00  0.00000000E+00
  0.00000000E+00  0.00000000E+00  0.00000000E+00
  0.00000000E+00  0.00000000E+00  0.00000000E+00
  0.00000000E+00  0.00000000E+00  0.00000000E+00
  0.00000000E+00  0.00000000E+00  0.00000000E+00
  0.00000000E+00  0.00000000E+00  0.00000000E+00
  0.00000000E+00  0.00000000E+00  0.00000000E+00
  0.00000000E+00  0.00000000E+00  0.00000000E+00
  0.00000000E+00  0.00000000E+00  0.00000000E+00
  0.00000000E+00  0.00000000E+00  0.00000000E+00
  0.00000000E+00  0.00000000E+00  0.00000000E+00
  0.00000000E+00  0.00000000E+00  0.00000000E+00
  0.00000000E+00  0.00000000E+00  0.00000000E+00
  0.00000000E+00  0.00000000E+00  0.00000000E+00
  0.00000000E+00  0.00000000E+00  0.00000000E+00
  0.00000000E+00  0.00000000E+00  0.00000000E+00
  0.00000000E+00  0.00000000E+00  0.00000000E+00
  0.00000000E+00  0.00000000E+00  0.00000000E+00
  0.00000000E+00  0.00000000E+00  0.00000000E+00
  0.00000000E+00  0.00000000E+00  0.00000000E+00
  0.00000000E+00  0.00000000E+00  0.00000000E+00
  0.00000000E+00  0.00000000E+00  0.00000000E+00
  0.00000000E+00  0.00000000E+00  0.00000000E+00
  0.00000000E+00  0.00000000E+00  0.00000000E+00
  0.00000000E+00  0.00000000E+00  0.00000000E+00
  0.00000000E+00  0.00000000E+00  0.00000000E+00
  0.00000000E+00  0.00000000E+00  0.00000000E+00
  0.00000000E+00  0.00000000E+00  0.00000000E+00
  0.00000000E+00  0.00000000E+00  0.00000000E+00
  0.00000000E+00  0.00000000E+00  0.00000000E+00
  0.00000000E+00  0.00000000E+00  0.00000000E+00
  0.00000000E+00  0.00000000E+00  0.00000000E+00
  0.00000000E+00  0.00000000E+00  0.00000000E+00
  0.00000000E+00  0.00000000E+00  0.00000000E+00
  0.00000000E+00  0.00000000E+00  0.00000000E+00
  0.00000000E+00  0.00000000E+00  0.00000000E+00
  0.00000000E+00  0.00000000E+00  0.00000000E+00
  0.00000000E+00  0.00000000E+00  0.00000000E+00
  0.00000000E+00  0.00000000E+00  0.00000000E+00
  0.00000000E+00  0.00000000E+00  0.00000000E+00
  0.00000000E+00  0.00000000E+00  0.00000000E+00
  0.00000000E+00  0.00000000E+00  0.00000000E+00
  0.00000000E+00  0.00000000E+00  0.00000000E+00
  0.00000000E+00  0.00000000E+00  0.00000000E+00
  0.00000000E+00  0.00000000E+00  0.00000000E+00
  0.00000000E+00  0.00000000E+00  0.00000000E+00
  0.00000000E+00  0.00000000E+00  0.00000000E+00
  0.00000000E+00  0.00000000E+00  0.00000000E+00
  0.00000000E+00  0.00000000E+00  0.00000000E+00
  0.00000000E+00  0.00000000E+00  0.00000000E+00
  0.00000000E+00  0.00000000E+00  0.00000000E+00
  0.00000000E+00  0.00000000E+00  0.00000000E+00
  0.00000000E+00  0.00000000E+00  0.00000000E+00
  0.00000000E+00  0.00000000E+00  0.00000000E+00
  0.00000000E+00  0.00000000E+00  0.00000000E+00
  0.00000000E+00  0.00000000E+00  0.00000000E+00
  0.00000000E+00  0.00000000E+00  0.00000000E+00
  0.00000000E+00  0.00000000E+00  0.00000000E+00
  0.00000000E+00  0.00000000E+00  0.00000000E+00
  0.00000000E+00  0.00000000E+00  0.00000000E+00
  0.00000000E+00  0.00000000E+00  0.00000000E+00
  0.00000000E+00  0.00000000E+00  0.00000000E+00
  0.00000000E+00  0.00000000E+00  0.00000000E+00
  0.00000000E+00  0.00000000E+00  0.00000000E+00
  0.00000000E+00  0.00000000E+00  0.00000000E+00
  0.00000000E+00  0.00000000E+00  0.00000000E+00
  0.00000000E+00  0.00000000E+00  0.00000000E+00
  0.00000000E+00  0.00000000E+00  0.00000000E+00
  0.00000000E+00  0.00000000E+00  0.00000000E+00
  0.00000000E+00  0.00000000E+00  0.00000000E+00
  0.00000000E+00  0.00000000E+00  0.00000000E+00
  0.00000000E+00  0.00000000E+00  0.00000000E+00
  0.00000000E+00  0.00000000E+00  0.00000000E+00
  0.00000000E+00  0.00000000E+00  0.00000000E+00
  0.00000000E+00  0.00000000E+00  0.00000000E+00
  0.00000000E+00  0.00000000E+00  0.00000000E+00
  0.00000000E+00  0.00000000E+00  0.00000000E+00
  0.00000000E+00  0.00000000E+00  0.00000000E+00
  0.00000000E+00  0.00000000E+00  0.00000000E+00
  0.00000000E+00  0.00000000E+00  0.00000000E+00
  0.00000000E+00  0.00000000E+00  0.00000000E+00
  0.00000000E+00  0.00000000E+00  0.00000000E+00
  0.00000000E+00  0.00000000E+00  0.00000000E+00
  0.00000000E+00  0.00000000E+00  0.00000000E+00
  0.00000000E+00  0.00000000E+00  0.00000000E+00
  0.00000000E+00  0.00000000E+00  0.00000000E+00
  0.00000000E+00  0.00000000E+00  0.00000000E+00
  0.00000000E+00  0.00000000E+00  0.00000000E+00
  0.00000000E+00  0.00000000E+00  0.00000000E+00
  0.00000000E+00  0.00000000E+00  0.00000000E+00
  0.00000000E+00  0.00000000E+00  0.00000000E+00
  0.00000000E+00  0.00000000E+00  0.00000000E+00
  0.00000000E+00  0.00000000E+00  0.00000000E+00
  0.00000000E+00  0.00000000E+00  0.00000000E+00
  0.00000000E+00  0.00000000E+00  0.00000000E+00
  0.00000000E+00  0.00000000E+00  0.00000000E+00
  0.00000000E+00  0.00000000E+00  0.00000000E+00
  0.00000000E+00  0.00000000E+00  0.00000000E+00
  0.00000000E+00  0.00000000E+00  0.00000000E+00
  0.00000000E+00  0.00000000E+00  0.00000000E+00
  0.00000000E+00  0.00000000E+00  0.00000000E+00
  0.00000000E+00  0.00000000E+00  0.00000000E+00
  0.00000000E+00  0.00000000E+00  0.00000000E+00
  0.00000000E+00  0.00000000E+00  0.00000000E+00
  0.00000000E+00  0.00000000E+00  0.00000000E+00
  0.00000000E+00  0.00000000E+00  0.00000000E+00
  0.00000000E+00  0.00000000E+00  0.00000000E+00
  0.00000000E+00  0.00000000E+00  0.00000000E+00
  0.00000000E+00  0.00000000E+00  0.00000000E+00
  0.00000000E+00  0.00000000E+00  0.00000000E+00
  0.00000000E+00  0.00000000E+00  0.00000000E+00
  0.00000000E+00  0.00000000E+00  0.00000000E+00
  0.00000000E+00  0.00000000E+00  0.00000000E+00
  0.00000000E+00  0.00000000E+00  0.00000000E+00
  0.00000000E+00  0.00000000E+00  0.00000000E+00
  0.00000000E+00  0.00000000E+00  0.00000000E+00
  0.00000000E+00  0.00000000E+00  0.00000000E+00
  0.00000000E+00  0.00000000E+00  0.00000000E+00
  0.00000000E+00  0.00000000E+00  0.00000000E+00
  0.00000000E+00  0.00000000E+00  0.00000000E+00
  0.00000000E+00  0.00000000E+00  0.00000000E+00
