POSCAR                                  
   1.00000000000000     
     6.3390729013754701   -0.0025921422114463   -0.0017817318460848
    -3.1717813116930689    5.4936863823498543    0.0000000000000000
    -0.0028306351410808   -0.0016342679606806   10.0069254443308271
   Al   N    Li   Ta
    14    16     1     1
Direct
  0.1638403727570492  0.3283686518418677  0.9900138489388549
  0.6680161599367346  0.3340080799683708  0.9967518434683013
  0.1638403727570492  0.8354717209151886  0.9900138489388975
  0.6720466062388601  0.8360233031194337  0.9801591043940271
  0.1568462525166184  0.3245829626016863  0.5002659180165424
  0.6739797097386115  0.3369898548693093  0.4977297780552609
  0.1568462525166184  0.8322632899149391  0.5002659180165637
  0.3356040632584130  0.1678020316292030  0.7448674146716876
  0.8298264335546033  0.1641604755250733  0.7451211325062385
  0.3355029134441914  0.6677514567220925  0.7476892200957586
  0.8298264335546033  0.6656659580295226  0.7451211325062029
  0.3391028600513978  0.1695514300256953  0.2529971825800613
  0.8311438910474205  0.1676958002148890  0.2561495872476253
  0.8311438910474205  0.6634480908325238  0.2561495872476039
  0.1628157264430737  0.3205627641713432  0.1855968919989845
  0.6654948585112079  0.3327474292556075  0.1886697717878016
  0.1628157264430737  0.8422529622717375  0.1855968919991550
  0.6818204917390112  0.8409102458695095  0.1830931102657082
  0.1670658467239070  0.3343951179553778  0.6917067952594580
  0.6663020095736305  0.3331510047868188  0.6903339575109613
  0.1670658467239070  0.8326707287685364  0.6917067952594935
  0.6647131211812126  0.8323565605906097  0.7128024044938054
  0.3344453264412405  0.1672226632206167  0.9381066341639216
  0.8354182749507792  0.1723582589755758  0.9401584606646471
  0.3289627641823720  0.6644813820911825  0.9472684808359156
  0.8354182749507792  0.6630600159751961  0.9401584606646116
  0.3329272391115841  0.1664636195557885  0.4409412982432590
  0.8400422133357041  0.1806547507620430  0.4384370557014300
  0.3162418476901823  0.6581209238450877  0.4337638221119816
  0.8400422133357041  0.6593874625736537  0.4384370557012737
  0.6754309975852578  0.8377154987926327  0.5059763202966815
  0.3354110086577831  0.6677055043288881  0.2439502763572777
 
  0.00000000E+00  0.00000000E+00  0.00000000E+00
  0.00000000E+00  0.00000000E+00  0.00000000E+00
  0.00000000E+00  0.00000000E+00  0.00000000E+00
  0.00000000E+00  0.00000000E+00  0.00000000E+00
  0.00000000E+00  0.00000000E+00  0.00000000E+00
  0.00000000E+00  0.00000000E+00  0.00000000E+00
  0.00000000E+00  0.00000000E+00  0.00000000E+00
  0.00000000E+00  0.00000000E+00  0.00000000E+00
  0.00000000E+00  0.00000000E+00  0.00000000E+00
  0.00000000E+00  0.00000000E+00  0.00000000E+00
  0.00000000E+00  0.00000000E+00  0.00000000E+00
  0.00000000E+00  0.00000000E+00  0.00000000E+00
  0.00000000E+00  0.00000000E+00  0.00000000E+00
  0.00000000E+00  0.00000000E+00  0.00000000E+00
  0.00000000E+00  0.00000000E+00  0.00000000E+00
  0.00000000E+00  0.00000000E+00  0.00000000E+00
  0.00000000E+00  0.00000000E+00  0.00000000E+00
  0.00000000E+00  0.00000000E+00  0.00000000E+00
  0.00000000E+00  0.00000000E+00  0.00000000E+00
  0.00000000E+00  0.00000000E+00  0.00000000E+00
  0.00000000E+00  0.00000000E+00  0.00000000E+00
  0.00000000E+00  0.00000000E+00  0.00000000E+00
  0.00000000E+00  0.00000000E+00  0.00000000E+00
  0.00000000E+00  0.00000000E+00  0.00000000E+00
  0.00000000E+00  0.00000000E+00  0.00000000E+00
  0.00000000E+00  0.00000000E+00  0.00000000E+00
  0.00000000E+00  0.00000000E+00  0.00000000E+00
  0.00000000E+00  0.00000000E+00  0.00000000E+00
  0.00000000E+00  0.00000000E+00  0.00000000E+00
  0.00000000E+00  0.00000000E+00  0.00000000E+00
  0.00000000E+00  0.00000000E+00  0.00000000E+00
  0.00000000E+00  0.00000000E+00  0.00000000E+00
