Ta  N Cu                                
   1.00000000000000     
    18.1096308199999996    0.0000000000000000    0.0000000000000000
     0.0000000000000000   23.3551997799999995    0.0000000000000000
     0.0000000000000000    0.0000000000000000   30.4818170799999990
   Ta   N    Cu
   240   240     4
Selective dynamics
Direct
  0.0000000000000000  0.0000000000000000  0.1962037549895328   F   F   F
  0.3335422814544131  0.0625000001605613  0.2032829710819826   F   F   F
  0.1664576892793903  0.0625000001605613  0.2032829710819826   F   F   F
  0.2499999997239044  0.1249999998929567  0.2787808134173062   F   F   F
  0.0825353920715628  0.0625000001605613  0.2838315333135668   F   F   F
  0.4174646079284372  0.0625000001605613  0.2838315333135668   F   F   F
  0.0000971835418687  0.1249834220696597  0.3695644192128729   T   T   T
  0.3323435594741929  0.0624941448590613  0.3684134179291791   T   T   T
  0.1678910955366649  0.0624895801907618  0.3683905691960410   T   T   T
  0.2501896841159849  0.1249686864452004  0.4556531959707264   T   T   T
  0.0840632684530332  0.0624472534431965  0.4543383262763190   T   T   T
  0.4162958262153248  0.0624777186009818  0.4543811775638111   T   T   T
  0.0001187086751902  0.1251104354655588  0.5406257895484089   T   T   T
  0.3353653869354044  0.0622360913397126  0.5426235614593347   T   T   T
  0.1650133653941676  0.0624166337537434  0.5425861617924191   T   T   T
  0.0000000000000000  0.1249999998929567  0.1962037549895328   F   F   F
  0.3335422814544131  0.1875000000535181  0.2032829710819826   F   F   F
  0.1664576892793903  0.1875000000535181  0.2032829710819826   F   F   F
  0.2499999997239044  0.2500000002140865  0.2787808134173062   F   F   F
  0.0825353920715628  0.1875000000535181  0.2838315333135668   F   F   F
  0.4174646079284372  0.1875000000535181  0.2838315333135668   F   F   F
  0.0000882518570570  0.2499595475725511  0.3695683238531576   T   T   T
  0.3323553308786536  0.1874989126258375  0.3684021248679836   T   T   T
  0.1679115084604370  0.1874708043943680  0.3683532372633774   T   T   T
  0.2500827474756865  0.2500387350897971  0.4556520291742053   T   T   T
  0.0840171290239198  0.1873728341964455  0.4543040174341419   T   T   T
  0.4162270925672112  0.1873779504296579  0.4543973014956195   T   T   T
  0.9998471113321057  0.2501088981854078  0.5404845090137343   T   T   T
  0.3352872854552155  0.1866494867059156  0.5425889602949900   T   T   T
  0.1650514062035264  0.1872300745175411  0.5424728623904544   T   T   T
  0.0000000000000000  0.2500000002140865  0.1962037549895328   F   F   F
  0.3335422814544131  0.3124999999464819  0.2032829710819826   F   F   F
  0.1664576892793903  0.3124999999464819  0.2032829710819826   F   F   F
  0.2499999997239044  0.3750000001070433  0.2787808134173062   F   F   F
  0.0825353920715628  0.3124999999464819  0.2838315333135668   F   F   F
  0.4174646079284372  0.3124999999464819  0.2838315333135668   F   F   F
  0.0001217190785618  0.3749856330781829  0.3695977890303632   T   T   T
  0.3324100761747013  0.3124833171489722  0.3684314421672746   T   T   T
  0.1678688486709315  0.3124545874102322  0.3683228488485349   T   T   T
  0.2499624348187272  0.3748991334811012  0.4553083081064449   T   T   T
  0.0841174894012794  0.3122782104656456  0.4543046857908266   T   T   T
  0.4161691567938773  0.3122521386911384  0.4545653686273783   T   T   T
  0.9994115171610309  0.3750397303381886  0.5402054626777507   T   T   T
  0.3350967769054426  0.3104498883448034  0.5430830002205315   T   T   T
  0.1632868814545708  0.3118443597923721  0.5427251474149689   T   T   T
  0.0000000000000000  0.3750000001070433  0.1962037549895328   F   F   F
  0.3335422814544131  0.4375000002676046  0.2032829710819826   F   F   F
  0.1664576892793903  0.4375000002676046  0.2032829710819826   F   F   F
  0.2499999997239044  0.0000000000000000  0.2787808134173062   F   F   F
  0.0825353920715628  0.4375000002676046  0.2838315333135668   F   F   F
  0.4174646079284372  0.4375000002676046  0.2838315333135668   F   F   F
  0.0000917140944319 -0.0000012116783830  0.3695681825572367   T   T   T
  0.3326863851371640  0.4375250918478257  0.3685634283195062   T   T   T
  0.1678588044331304  0.4375140072145157  0.3682740236887316   T   T   T
  0.2502079798553268  0.0000037831820382  0.4556952951865849   T   T   T
  0.0839272463314427  0.4374865802264139  0.4541688685378902   T   T   T
  0.4162599459362861  0.4374271258034412  0.4547161300587663   T   T   T
  0.0001458347325683  0.0000388398593611  0.5407175275954847   T   T   T
  0.3337156521667985  0.4367942908407770  0.5397886173266404   T   T   T
  0.1600663904474246  0.4374915465797023  0.5410211619199601   T   T   T
  0.0000000000000000  0.5000000000000000  0.1962037549895328   F   F   F
  0.3335422814544131  0.5625000001605613  0.2032829710819826   F   F   F
  0.1664576892793903  0.5625000001605613  0.2032829710819826   F   F   F
  0.2499999997239044  0.6249999998929567  0.2787808134173062   F   F   F
  0.0825353920715628  0.5625000001605613  0.2838315333135668   F   F   F
  0.4174646079284372  0.5625000001605613  0.2838315333135668   F   F   F
  0.0000649318838947  0.6250436201863834  0.3695723914406877   T   T   T
  0.3326064122674697  0.5625269695994674  0.3685140990126239   T   T   T
  0.1678074746793893  0.5625892492910909  0.3682666582026765   T   T   T
  0.2502852809563246  0.6251889987175111  0.4557056831292022   T   T   T
  0.0840394548458878  0.5627665176401597  0.4543299551109750   T   T   T
  0.4164509032700491  0.5627004027423556  0.4547475390650206   T   T   T
 -0.0004810745234180  0.6249579299496683  0.5404022917596046   T   T   T
  0.3310670419477419  0.5640462701482939  0.5411710136378742   T   T   T
  0.1620543068127572  0.5631503115178329  0.5426615368062135   T   T   T
  0.0000000000000000  0.6249999998929567  0.1962037549895328   F   F   F
  0.3335422814544131  0.6875000000535181  0.2032829710819826   F   F   F
  0.1664576892793903  0.6875000000535181  0.2032829710819826   F   F   F
  0.2499999997239044  0.7500000002140865  0.2787808134173062   F   F   F
  0.0825353920715628  0.6875000000535181  0.2838315333135668   F   F   F
  0.4174646079284372  0.6875000000535181  0.2838315333135668   F   F   F
  0.0000770436964296  0.7500609762708601  0.3695603505286703   T   T   T
  0.3323226067049048  0.6875322742896071  0.3685108358178911   T   T   T
  0.1679006019785405  0.6875556054644690  0.3683867109065008   T   T   T
  0.2503289025524547  0.7500014560001247  0.4557103459316659   T   T   T
  0.0840603836197737  0.6876941130549493  0.4542391248246218   T   T   T
  0.4163535676110911  0.6877445583580855  0.4544933514973186   T   T   T
  0.0000589511783963  0.7500460477451451  0.5406194947654707   T   T   T
  0.3346018928936845  0.6890102624118669  0.5432669416438001   T   T   T
  0.1644969571286043  0.6877604187649800  0.5423560535529750   T   T   T
  0.0000000000000000  0.7500000002140865  0.1962037549895328   F   F   F
  0.3335422814544131  0.8124999999464819  0.2032829710819826   F   F   F
  0.1664576892793903  0.8124999999464819  0.2032829710819826   F   F   F
  0.2499999997239044  0.8750000001070433  0.2787808134173062   F   F   F
  0.0825353920715628  0.8124999999464819  0.2838315333135668   F   F   F
  0.4174646079284372  0.8124999999464819  0.2838315333135668   F   F   F
  0.0000812786336699  0.8750192714615889  0.3695680777195871   T   T   T
  0.3323782607380433  0.8125319577653182  0.3684295492035859   T   T   T
  0.1678913485153654  0.8125438973318032  0.3683706514258321   T   T   T
  0.2502802968143401  0.8750298350429314  0.4557101258748139   T   T   T
  0.0840387309949676  0.8126249624435098  0.4543418433296721   T   T   T
  0.4162459949566160  0.8126291060016624  0.4544783349643157   T   T   T
  0.0001656820443395  0.8750368770195802  0.5406760774098183   T   T   T
  0.3357052033325047  0.8131042405223338  0.5426799886067100   T   T   T
  0.1649273366773327  0.8127458755744013  0.5424957885951657   T   T   T
  0.0000000000000000  0.8750000001070433  0.1962037549895328   F   F   F
  0.3335422814544131  0.9375000002676046  0.2032829710819826   F   F   F
  0.1664576892793903  0.9375000002676046  0.2032829710819826   F   F   F
  0.2499999997239044  0.5000000000000000  0.2787808134173062   F   F   F
  0.0825353920715628  0.9375000002676046  0.2838315333135668   F   F   F
  0.4174646079284372  0.9375000002676046  0.2838315333135668   F   F   F
  0.0001229703148706  0.5000594619893335  0.3696077565825445   T   T   T
  0.3323403471180028  0.9375125333729979  0.3684036770475236   T   T   T
  0.1679004443061363  0.9375070866230381  0.3683783307112637   T   T   T
  0.2499872560784562  0.4999744116951269  0.4552870082143801   T   T   T
  0.0840434775835530  0.9375375743933360  0.4543478983596049   T   T   T
  0.4163253419178187  0.9375629481095186  0.4543920788440317   T   T   T
 -0.0007372664187751  0.5001063452912946  0.5401437604281295   T   T   T
  0.3353679287665866  0.9376229653345035  0.5426314801023689   T   T   T
  0.1651389356559000  0.9375858234544050  0.5425705487247448   T   T   T
  0.5000000000000000  0.0000000000000000  0.1962037549895328   F   F   F
  0.8335422809022219  0.0625000001605613  0.2032829710819826   F   F   F
  0.6664576892793903  0.0625000001605613  0.2032829710819826   F   F   F
  0.7499999997239044  0.1249999998929567  0.2787808134173062   F   F   F
  0.5825353920715628  0.0625000001605613  0.2838315333135668   F   F   F
  0.9174646079284372  0.0625000001605613  0.2838315333135668   F   F   F
  0.5000676314574736  0.1249651145834602  0.3695792884568616   T   T   T
  0.8322810903727708  0.0624940980380805  0.3684028795272208   T   T   T
  0.6678281438076328  0.0625106074498655  0.3683941101105318   T   T   T
  0.7501632200728259  0.1249975137209328  0.4556930874197457   T   T   T
  0.5839907577173100  0.0625077310629466  0.4543865242129512   T   T   T
  0.9163280831260908  0.0624743935563625  0.4543160771834526   T   T   T
  0.5002938458855232  0.1251466758030680  0.5407418964765931   T   T   T
  0.8352786071179666  0.0626024397187825  0.5425535581589076   T   T   T
  0.6651090178830422  0.0624652727240159  0.5425580951645262   T   T   T
  0.5000000000000000  0.1249999998929567  0.1962037549895328   F   F   F
  0.8335422809022219  0.1875000000535181  0.2032829710819826   F   F   F
  0.6664576892793903  0.1875000000535181  0.2032829710819826   F   F   F
  0.7499999997239044  0.2500000002140865  0.2787808134173062   F   F   F
  0.5825353920715628  0.1875000000535181  0.2838315333135668   F   F   F
  0.9174646079284372  0.1875000000535181  0.2838315333135668   F   F   F
  0.5000336194563132  0.2500352135116602  0.3695964229580225   T   T   T
  0.8322394453198247  0.1874793588352468  0.3683815892125418   T   T   T
  0.6677682103240739  0.1875223531618476  0.3683981564046177   T   T   T
  0.7501804774118606  0.2500027280618649  0.4556611876883576   T   T   T
  0.5839155972286174  0.1874514038269681  0.4543789208260059   T   T   T
  0.9163901178016732  0.1873932719394945  0.4542480660336516   T   T   T
  0.5005695556002216  0.2501939566084107  0.5406832734721215   T   T   T
  0.8353413192732243  0.1876865663388098  0.5424011562493802   T   T   T
  0.6651784863892671  0.1872781203757577  0.5425060503515500   T   T   T
  0.5000000000000000  0.2500000002140865  0.1962037549895328   F   F   F
  0.8335422809022219  0.3124999999464819  0.2032829710819826   F   F   F
  0.6664576892793903  0.3124999999464819  0.2032829710819826   F   F   F
  0.7499999997239044  0.3750000001070433  0.2787808134173062   F   F   F
  0.5825353920715628  0.3124999999464819  0.2838315333135668   F   F   F
  0.9174646079284372  0.3124999999464819  0.2838315333135668   F   F   F
  0.4999225807037127  0.3749556659745296  0.3696309351659057   T   T   T
  0.8321934292018087  0.3124915685756858  0.3683488905958194   T   T   T
  0.6677211123548167  0.3125187751976758  0.3684402756005748   T   T   T
  0.7501753101514714  0.3750288674693485  0.4556655743253553   T   T   T
  0.5837963833413705  0.3124545301377888  0.4544383149757881   T   T   T
  0.9164138371747054  0.3123748730999317  0.4541752436396393   T   T   T
  0.5009014938589281  0.3762386724012547  0.5413153070805452   T   T   T
  0.8358999226062389  0.3128994267304072  0.5421893635938713   T   T   T
  0.6662039415709203  0.3119344079880806  0.5425061699066692   T   T   T
  0.5000000000000000  0.3750000001070433  0.1962037549895328   F   F   F
  0.8335422809022219  0.4375000002676046  0.2032829710819826   F   F   F
  0.6664576892793903  0.4375000002676046  0.2032829710819826   F   F   F
  0.7499999997239044  0.0000000000000000  0.2787808134173062   F   F   F
  0.5825353920715628  0.4375000002676046  0.2838315333135668   F   F   F
  0.9174646079284372  0.4375000002676046  0.2838315333135668   F   F   F
  0.5000820994924906  0.0000057226748831  0.3695718274367855   T   T   T
  0.8321372849438237  0.4374905281093016  0.3683120054701838   T   T   T
  0.6673921172801015  0.4375181859429815  0.3685345519506374   T   T   T
  0.7501583366729669  0.0000213062811889  0.4557239237700856   T   T   T
  0.5836825593381954  0.4375056267354324  0.4545499529099629   T   T   T
  0.9165994780237842  0.4374890712996445  0.4541869693851802   T   T   T
  0.5002754967320659  0.0000525199034814  0.5407308510804872   T   T   T
  0.8366307776446958  0.4375865197727638  0.5420529952735521   T   T   T
  0.6689851501949459  0.4377473507046415  0.5406911697761140   T   T   T
  0.5000000000000000  0.5000000000000000  0.1962037549895328   F   F   F
  0.8335422809022219  0.5625000001605613  0.2032829710819826   F   F   F
  0.6664576892793903  0.5625000001605613  0.2032829710819826   F   F   F
  0.7499999997239044  0.6249999998929567  0.2787808134173062   F   F   F
  0.5825353920715628  0.5625000001605613  0.2838315333135668   F   F   F
  0.9174646079284372  0.5625000001605613  0.2838315333135668   F   F   F
  0.4999594200195569  0.6250922782598214  0.3696031042833053   T   T   T
  0.8322343850344111  0.5625400670232618  0.3682902528924496   T   T   T
  0.6675520165975030  0.5625030668041830  0.3684244243382495   T   T   T
  0.7503757314030358  0.6252072599024895  0.4555256527326507   T   T   T
  0.5838038567151659  0.5626565469066744  0.4544296415035460   T   T   T
  0.9165529047103169  0.5626612597266075  0.4541931570580648   T   T   T
  0.5013808135654526  0.6242350422808159  0.5404545683105756   T   T   T
  0.8362593193598917  0.5622827850545149  0.5421007706521931   T   T   T
  0.6668816070743340  0.5634194369778986  0.5418538454900228   T   T   T
  0.5000000000000000  0.6249999998929567  0.1962037549895328   F   F   F
  0.8335422809022219  0.6875000000535181  0.2032829710819826   F   F   F
  0.6664576892793903  0.6875000000535181  0.2032829710819826   F   F   F
  0.7499999997239044  0.7500000002140865  0.2787808134173062   F   F   F
  0.5825353920715628  0.6875000000535181  0.2838315333135668   F   F   F
  0.9174646079284372  0.6875000000535181  0.2838315333135668   F   F   F
  0.5000238956319907  0.7500507976277898  0.3695841248046803   T   T   T
  0.8322255883523397  0.6875485444573225  0.3683605821363183   T   T   T
  0.6678116369392041  0.6875300329134602  0.3683641151941630   T   T   T
  0.7503009579577424  0.7500502637927435  0.4556244751330649   T   T   T
  0.5840632828210834  0.6877132095959712  0.4541399223372333   T   T   T
  0.9164121803732046  0.6876873582792363  0.4542169328553443   T   T   T
  0.5001578334796576  0.7498411580108661  0.5407718264445549   T   T   T
  0.8353277273328827  0.6874702483378992  0.5424152575546152   T   T   T
  0.6653029178410589  0.6879438271700040  0.5422290365015454   T   T   T
  0.5000000000000000  0.7500000002140865  0.1962037549895328   F   F   F
  0.8335422809022219  0.8124999999464819  0.2032829710819826   F   F   F
  0.6664576892793903  0.8124999999464819  0.2032829710819826   F   F   F
  0.7499999997239044  0.8750000001070433  0.2787808134173062   F   F   F
  0.5825353920715628  0.8124999999464819  0.2838315333135668   F   F   F
  0.9174646079284372  0.8124999999464819  0.2838315333135668   F   F   F
  0.5000578730677593  0.8750462525809117  0.3695675385019377   T   T   T
  0.8322657994281119  0.8125453974208152  0.3683805057656320   T   T   T
  0.6678256867531190  0.8125501762251126  0.3683604750941626   T   T   T
  0.7501558356273790  0.8750450479473530  0.4557057276766098   T   T   T
  0.5840035729939743  0.8126007192249707  0.4543462333614421   T   T   T
  0.9163673280952623  0.8126146871945391  0.4543005285964508   T   T   T
  0.5003025623875502  0.8749885315728116  0.5407188759921554   T   T   T
  0.8352231969043568  0.8125986821897156  0.5425027934039097   T   T   T
  0.6650987702516536  0.8126392137049647  0.5425218011517521   T   T   T
  0.5000000000000000  0.8750000001070433  0.1962037549895328   F   F   F
  0.8335422809022219  0.9375000002676046  0.2032829710819826   F   F   F
  0.6664576892793903  0.9375000002676046  0.2032829710819826   F   F   F
  0.7499999997239044  0.5000000000000000  0.2787808134173062   F   F   F
  0.5825353920715628  0.9375000002676046  0.2838315333135668   F   F   F
  0.9174646079284372  0.9375000002676046  0.2838315333135668   F   F   F
  0.4999270714227892  0.4999927256119129  0.3696297341578259   T   T   T
  0.8322866709312596  0.9375237901040916  0.3684041980940098   T   T   T
  0.6678629057534112  0.9375269260655800  0.3683797243163872   T   T   T
  0.7502838670898837  0.4999896615234853  0.4555394547259971   T   T   T
  0.5839636555853180  0.9375585488942564  0.4543619427101416   T   T   T
  0.9163556785422662  0.9375510416647362  0.4543500434533137   T   T   T
  0.5018849179155571  0.4999126758159503  0.5408734249203552   T   T   T
  0.8352821878490386  0.9375778477986626  0.5425352326313968   T   T   T
  0.6651722760574319  0.9375748221145372  0.5425765757412850   T   T   T
  0.4070505905542277  0.0000000000000000  0.2321160648471405   F   F   F
  0.2499999997239044  0.0000000000000000  0.1975324349659786   F   F   F
  0.0929494094457723  0.0000000000000000  0.2321160648471405   F   F   F
  0.1544227962345630  0.1249999998929567  0.3158353176496362   F   F   F
  0.0000000000000000  0.1249999998929567  0.3028242704748862   F   F   F
  0.3455772037654370  0.1249999998929567  0.3158353176496362   F   F   F
  0.4011249340883239  0.1249933271004459  0.4021279593920222   T   T   T
  0.2501210788224685  0.1249962002535773  0.3875820787608719   T   T   T
  0.0991488722048075  0.1249613518076386  0.4020637975488296   T   T   T
  0.1516648541788756  0.1249173415922605  0.4877021244475592   T   T   T
  0.0002025030790879  0.1249207927230589  0.4724506153771572   T   T   T
  0.3487144556632998  0.1248673527092905  0.4878108017355178   T   T   T
  0.4032741358080543  0.1249356403944173  0.5703421523467826   T   T   T
  0.2502101754470706  0.1250696784778280  0.5578423998756485   T   T   T
  0.0971453313403163  0.1250747242620563  0.5701488110034718   T   T   T
  0.4070505905542277  0.1249999998929567  0.2321160648471405   F   F   F
  0.2499999997239044  0.1249999998929567  0.1975324349659786   F   F   F
  0.0929494094457723  0.1249999998929567  0.2321160648471405   F   F   F
  0.1544227962345630  0.2500000002140865  0.3158353176496362   F   F   F
  0.0000000000000000  0.2500000002140865  0.3028242704748862   F   F   F
  0.3455772037654370  0.2500000002140865  0.3158353176496362   F   F   F
  0.4011143383428851  0.2500096847279216  0.4022078154706734   T   T   T
  0.2501439005706315  0.2499403279193453  0.3875616758572970   T   T   T
  0.0991693181526410  0.2499091618070174  0.4020527904329264   T   T   T
  0.1516998853531457  0.2497459985183286  0.4878057351558028   T   T   T
  0.0001935366918696  0.2498765302541196  0.4723195228416660   T   T   T
  0.3485306905308992  0.2497641984693311  0.4879173440689071   T   T   T
  0.4031747088837226  0.2499836758936194  0.5704386747030795   T   T   T
  0.2501756507842107  0.2506409105825795  0.5581526971349845   T   T   T
  0.0969446468627960  0.2498465335277177  0.5702520456047020   T   T   T
  0.4070505905542277  0.2500000002140865  0.2321160648471405   F   F   F
  0.2499999997239044  0.2500000002140865  0.1975324349659786   F   F   F
  0.0929494094457723  0.2500000002140865  0.2321160648471405   F   F   F
  0.1544227962345630  0.3750000001070433  0.3158353176496362   F   F   F
  0.0000000000000000  0.3750000001070433  0.3028242704748862   F   F   F
  0.3455772037654370  0.3750000001070433  0.3158353176496362   F   F   F
  0.4010439471392389  0.3749222319685528  0.4023222700227669   T   T   T
  0.2501890238404735  0.3749978239517683  0.3874057516172060   T   T   T
  0.0993060504379109  0.3749149529862447  0.4019413701996576   T   T   T
  0.1517280464184387  0.3743690402399404  0.4878310042668193   T   T   T
  0.0002017209676494  0.3748528843842741  0.4720125259006631   T   T   T
  0.3482798700531476  0.3739559939379731  0.4882062891126090   T   T   T
  0.4012815351560334  0.3746415822989680  0.5717343934957331   T   T   T
  0.2484767133139314  0.3765440825133328  0.5614484697022504   T   T   T
  0.0955641257704123  0.3745754019098886  0.5704631393559012   T   T   T
  0.4070505905542277  0.3750000001070433  0.2321160648471405   F   F   F
  0.2499999997239044  0.3750000001070433  0.1975324349659786   F   F   F
  0.0929494094457723  0.3750000001070433  0.2321160648471405   F   F   F
  0.1544227962345630  0.0000000000000000  0.3158353176496362   F   F   F
  0.0000000000000000  0.0000000000000000  0.3028242704748862   F   F   F
  0.3455772037654370  0.0000000000000000  0.3158353176496362   F   F   F
  0.4011201795027369  0.0000075781065011  0.4021198585261185   T   T   T
  0.2501096017914725 -0.0000077335742073  0.3876122301619244   T   T   T
  0.0991295751777685 -0.0000092416739349  0.4020788562118950   T   T   T
  0.1516536612600350  0.0000089181550103  0.4877647980951001   T   T   T
  0.0002008780738075  0.0000106381041978  0.4725188518909008   T   T   T
  0.3487485318503376  0.0000124846600141  0.4877909912784049   T   T   T
  0.4033216864473650  0.0000254365519373  0.5703037188836433   T   T   T
  0.2502121074788904  0.0000133269927446  0.5578525286153179   T   T   T
  0.0971520554785191  0.0000104766280633  0.5702229526723355   T   T   T
  0.4070505905542277  0.5000000000000000  0.2321160648471405   F   F   F
  0.2499999997239044  0.5000000000000000  0.1975324349659786   F   F   F
  0.0929494094457723  0.5000000000000000  0.2321160648471405   F   F   F
  0.1544227962345630  0.6249999998929567  0.3158353176496362   F   F   F
  0.0000000000000000  0.6249999998929567  0.3028242704748862   F   F   F
  0.3455772037654370  0.6249999998929567  0.3158353176496362   F   F   F
  0.4010784271127732  0.6250648383019513  0.4022889096550991   T   T   T
  0.2502096607338306  0.6250142611131442  0.3876280536799644   T   T   T
  0.0991729636383723  0.6251495939352882  0.4019950900591406   T   T   T
  0.1516730298092080  0.6253948680861667  0.4877576119375762   T   T   T
  0.0001881407313626  0.6252221268331276  0.4722003172592687   T   T   T
  0.3488893414354023  0.6256855313191803  0.4884634734737138   T   T   T
  0.4030279825513055  0.6242649959603496  0.5725856641982568   T   T   T
  0.2492350206898164  0.6244651617261615  0.5585085917777557   T   T   T
  0.0963571583174701  0.6253808481931803  0.5703562176272640   T   T   T
  0.4070505905542277  0.6249999998929567  0.2321160648471405   F   F   F
  0.2499999997239044  0.6249999998929567  0.1975324349659786   F   F   F
  0.0929494094457723  0.6249999998929567  0.2321160648471405   F   F   F
  0.1544227962345630  0.7500000002140865  0.3158353176496362   F   F   F
  0.0000000000000000  0.7500000002140865  0.3028242704748862   F   F   F
  0.3455772037654370  0.7500000002140865  0.3158353176496362   F   F   F
  0.4011020694269217  0.7500564732666731  0.4022267842093532   T   T   T
  0.2501306849424219  0.7500708843551155  0.3876025537907027   T   T   T
  0.0991385910859912  0.7500817224735528  0.4020432647937759   T   T   T
  0.1517298913257752  0.7501569089258453  0.4876603046853127   T   T   T
  0.0001981772739719  0.7501661325730520  0.4724288479114274   T   T   T
  0.3488213650033002  0.7500715906645532  0.4880501227380600   T   T   T
  0.4031676311601199  0.7498495361362361  0.5707726503518709   T   T   T
  0.2504922309313578  0.7494790427700357  0.5577267724177549   T   T   T
  0.0972254677036295  0.7501325833458922  0.5701271178115463   T   T   T
  0.4070505905542277  0.7500000002140865  0.2321160648471405   F   F   F
  0.2499999997239044  0.7500000002140865  0.1975324349659786   F   F   F
  0.0929494094457723  0.7500000002140865  0.2321160648471405   F   F   F
  0.1544227962345630  0.8750000001070433  0.3158353176496362   F   F   F
  0.0000000000000000  0.8750000001070433  0.3028242704748862   F   F   F
  0.3455772037654370  0.8750000001070433  0.3158353176496362   F   F   F
  0.4011143885833366  0.8750452692850738  0.4021482619295382   T   T   T
  0.2501399560069318  0.8750131226117346  0.3876234824837814   T   T   T
  0.0991422377182827  0.8750479082323361  0.4020740458058197   T   T   T
  0.1517028736760201  0.8750714238382601  0.4877262252552602   T   T   T
  0.0002082669461409  0.8750835497151964  0.4724973378325548   T   T   T
  0.3488140350965227  0.8751336138343095  0.4878372307527333   T   T   T
  0.4033287293070074  0.8751463505481812  0.5703980300551996   T   T   T
  0.2503007871670665  0.8748473826452047  0.5578499078426270   T   T   T
  0.0972552560967701  0.8750141537423648  0.5701567749604233   T   T   T
  0.4070505905542277  0.8750000001070433  0.2321160648471405   F   F   F
  0.2499999997239044  0.8750000001070433  0.1975324349659786   F   F   F
  0.0929494094457723  0.8750000001070433  0.2321160648471405   F   F   F
  0.1544227962345630  0.5000000000000000  0.3158353176496362   F   F   F
  0.0000000000000000  0.5000000000000000  0.3028242704748862   F   F   F
  0.3455772037654370  0.5000000000000000  0.3158353176496362   F   F   F
  0.4010372485542499  0.5000623252492482  0.4023313496784135   T   T   T
  0.2502074242928666  0.5000881798198966  0.3874558985743828   T   T   T
  0.0993447681364350  0.5001031237417941  0.4019125592916478   T   T   T
  0.1515285367668451  0.5005368884630231  0.4877514264013135   T   T   T
  0.0001861078134548  0.5001242400996976  0.4719265041293702   T   T   T
  0.3483449187676023  0.5004914729339255  0.4881474015166251   T   T   T
  0.3982039735670770  0.5010325695231937  0.5711923315771782   T   T   T
  0.2476565148064130  0.4988557423593990  0.5609982547439171   T   T   T
  0.0952688254323192  0.5002419448650267  0.5705097440226459   T   T   T
  0.9070505905542277  0.0000000000000000  0.2321160648471405   F   F   F
  0.7499999997239044  0.0000000000000000  0.1975324349659786   F   F   F
  0.5929494094457723  0.0000000000000000  0.2321160648471405   F   F   F
  0.6544227962345630  0.1249999998929567  0.3158353176496362   F   F   F
  0.5000000000000000  0.1249999998929567  0.3028242704748862   F   F   F
  0.8455772037654370  0.1249999998929567  0.3158353176496362   F   F   F
  0.9010933537642042  0.1249660599000553  0.4020509058105991   T   T   T
  0.7500407934292564  0.1250063827546798  0.3876129708434855   T   T   T
  0.5990408083507586  0.1250064137895349  0.4021114969786729   T   T   T
  0.6515517024048174  0.1250331526496597  0.4877450769316645   T   T   T
  0.5001375206957941  0.1250456333704545  0.4725787964148231   T   T   T
  0.8487699674207853  0.1249970609841898  0.4876517779083779   T   T   T
  0.9032257872191953  0.1251817963684340  0.5701082499066468   T   T   T
  0.7501577938596984  0.1252282191411596  0.5576846995009974   T   T   T
  0.5971808238340304  0.1251090830359894  0.5702889887779019   T   T   T
  0.9070505905542277  0.1249999998929567  0.2321160648471405   F   F   F
  0.7499999997239044  0.1249999998929567  0.1975324349659786   F   F   F
  0.5929494094457723  0.1249999998929567  0.2321160648471405   F   F   F
  0.6544227962345630  0.2500000002140865  0.3158353176496362   F   F   F
  0.5000000000000000  0.2500000002140865  0.3028242704748862   F   F   F
  0.8455772037654370  0.2500000002140865  0.3158353176496362   F   F   F
  0.9010502174715492  0.2499353591589001  0.4019970371518130   T   T   T
  0.7499794849862491  0.2499839463320121  0.3875668833525597   T   T   T
  0.5989608686151429  0.2500425785307472  0.4021531163552015   T   T   T
  0.6515809073242137  0.2499773300326677  0.4876802825762255   T   T   T
  0.5000865960925035  0.2500220433467023  0.4726415112000458   T   T   T
  0.8487579182390592  0.2498364270525506  0.4875895088491571   T   T   T
  0.9034150515889533  0.2500310388122209  0.5701226420090368   T   T   T
  0.7501429581866009  0.2505423203397618  0.5576203918826772   T   T   T
  0.5972490439682250  0.2503725074149319  0.5702877483139651   T   T   T
  0.9070505905542277  0.2500000002140865  0.2321160648471405   F   F   F
  0.7499999997239044  0.2500000002140865  0.1975324349659786   F   F   F
  0.5929494094457723  0.2500000002140865  0.2321160648471405   F   F   F
  0.6544227962345630  0.3750000001070433  0.3158353176496362   F   F   F
  0.5000000000000000  0.3750000001070433  0.3028242704748862   F   F   F
  0.8455772037654370  0.3750000001070433  0.3158353176496362   F   F   F
  0.9010304569598598  0.3749779144305547  0.4019258029842150   T   T   T
  0.7498617519184860  0.3750174536271370  0.3876214627869076   T   T   T
  0.5988578424006271  0.3749586839127412  0.4022206686526245   T   T   T
  0.6512797232378814  0.3746996340170505  0.4879507885547028   T   T   T
  0.4999798569586825  0.3748348519352425  0.4733138547358774   T   T   T
  0.8489942044166735  0.3748579999431038  0.4875815955050664   T   T   T
  0.9036647063922041  0.3749906089017687  0.5703991156594926   T   T   T
  0.7516253633054452  0.3751837155780834  0.5577867467052982   T   T   T
  0.6002111448054795  0.3754326637065519  0.5717559731989617   T   T   T
  0.9070505905542277  0.3750000001070433  0.2321160648471405   F   F   F