Ta  N Co Cu                             
   1.00000000000000     
    18.1096308199999996    0.0000000000000000    0.0000000000000000
     0.0000000000000000   23.3551997799999995    0.0000000000000000
     0.0000000000000000    0.0000000000000000   30.4818171199999988
   Ta   N    Co   Cu
   228   240    12    29
Selective dynamics
Direct
  0.0001501876400000  0.9992690800000000  0.1979353000000000   F   F   F
  0.3342204600000000  0.0615438910000000  0.2029176300000000   F   F   F
  0.1660938000000000  0.0615682990000000  0.2030977800000000   F   F   F
  0.2500926500000000  0.1241242400000000  0.2785979200000000   F   F   F
  0.0828314790000000  0.0616516620000000  0.2844705900000000   F   F   F
  0.4173624200000000  0.0615912300000000  0.2843871200000000   F   F   F
  0.9964357564602456  0.1239818638856124  0.3688273942606832   T   T   T
  0.3331789411900380  0.0616459487885908  0.3702002930401325   T   T   T
  0.1642069422497242  0.0625937990062004  0.3710994799429205   T   T   T
  0.2474958642682860  0.1234157799581335  0.4623158588746657   T   T   T
  0.0845279435111224  0.0600648081828553  0.4540182554952634   T   T   T
  0.4160662439017695  0.0567002779998893  0.4542854877378205   T   T   T
  0.0002355978806539  0.1242305548325204  0.5422866820188239   T   T   T
  0.3420322274322679  0.0634553617512680  0.5460011108368669   T   T   T
  0.0001746649100000  0.1239736600000000  0.1978564700000000   F   F   F
  0.3339604600000000  0.1865595300000000  0.2027434900000000   F   F   F
  0.1663186000000000  0.1865708800000000  0.2029891900000000   F   F   F
  0.2499295800000000  0.2489591400000000  0.2781329100000000   F   F   F
  0.0826369500000000  0.1865388000000000  0.2843747500000000   F   F   F
  0.4173950500000000  0.1865140400000000  0.2841348700000000   F   F   F
  0.9921264160503367  0.2475332635138179  0.3709213214352826   T   T   T
  0.3345513606315081  0.1855248376972773  0.3718246283524452   T   T   T
  0.1671677176868685  0.1871539622854829  0.3682952957805629   T   T   T
  0.2518225265730700  0.2449359513313701  0.4577912462951048   T   T   T
  0.0806798364735886  0.1881493842669412  0.4530117385968189   T   T   T
  0.4176525170288811  0.1819269535510614  0.4558231782603025   T   T   T
  0.9961447525965468  0.2477714221767099  0.5418252229434668   T   T   T
  0.3416448672479261  0.1849609603382735  0.5427938019458961   T   T   T
  0.1661715668531650  0.1841913968886435  0.5442507825833700   T   T   T
  0.0001699803900000  0.2489859500000000  0.1974931100000000   F   F   F
  0.3337711300000000  0.3114156600000000  0.2024590900000000   F   F   F
  0.1661822000000000  0.3113581300000000  0.2026450900000000   F   F   F
  0.2497623900000000  0.3740561600000000  0.2778470400000000   F   F   F
  0.0825761130000000  0.3114939300000000  0.2839970600000000   F   F   F
  0.4173158600000000  0.3115222600000000  0.2837193000000000   F   F   F
  0.0011815001328399  0.3732173332934335  0.3685953653130674   T   T   T
  0.3334581940530281  0.3100971518399127  0.3715257071487653   T   T   T
  0.1666932444647684  0.3122380426183925  0.3683882674677085   T   T   T
  0.2554154311535418  0.3695429411480941  0.4547852192440991   T   T   T
  0.0822744641535016  0.3111524383229174  0.4537177672938766   T   T   T
  0.4222353861627829  0.3085220721272458  0.4579222239639448   T   T   T
  0.9988076614218028  0.3742370573900151  0.5426381714111498   T   T   T
  0.3405575482216331  0.3062114420421815  0.5424325826408788   T   T   T
  0.0001890674400000  0.3740248700000000  0.1971922600000000   F   F   F
  0.3339528400000000  0.4365886600000000  0.2022036900000000   F   F   F
  0.1658350600000000  0.4364977700000000  0.2024373900000000   F   F   F
  0.2501674100000000  0.9991818500000000  0.2785323300000000   F   F   F
  0.0825116020000000  0.4365114600000000  0.2837965100000000   F   F   F
  0.4172405900000000  0.4365741200000000  0.2834680400000000   F   F   F
  0.9945317194173563  0.9941570182163585  0.3702785608984558   T   T   T
  0.3359081177995289  0.4359150730144224  0.3663326914457133   T   T   T
  0.1676783932218439  0.4368032961306443  0.3704437345540901   T   T   T
  0.2492948530029706  0.0047700641078732  0.4530378133513386   T   T   T
  0.0867730726477886  0.4368360569944763  0.4526246184825661   T   T   T
  0.4222727376146944  0.4377869023144140  0.4552581877250513   T   T   T
  0.0008154657255208  0.0003627880814670  0.5425168653514941   T   T   T
  0.3449342340399223  0.4344921944731709  0.5385320032920243   T   T   T
  0.1721341907741022  0.4355837005314717  0.5398927833565862   T   T   T
  0.0002442609300000  0.4989395400000000  0.1971064300000000   F   F   F
  0.3334797100000000  0.5616790000000000  0.2023510400000000   F   F   F
  0.1664812500000000  0.5616201600000000  0.2026245800000000   F   F   F
  0.2497083300000000  0.6243738100000000  0.2777520100000000   F   F   F
  0.0824885560000000  0.5616453600000000  0.2836994000000000   F   F   F
  0.4170289700000000  0.5616482300000000  0.2834650500000000   F   F   F
  0.0005456269972006  0.6296102363492503  0.3686563417682354   T   T   T
  0.3332724370248535  0.5577613776782278  0.3694763637493178   T   T   T
  0.1667214715481570  0.5631507720491946  0.3697443593794165   T   T   T
  0.2440725913978768  0.6154692149752685  0.4570462256617709   T   T   T
  0.0852315554017644  0.5625649017937708  0.4530716388778540   T   T   T
  0.4229180463351399  0.5605056682996403  0.4549919655433395   T   T   T
  0.9891181129477536  0.6276447790678362  0.5453066740122977   T   T   T
  0.3283166879379212  0.5611181011051399  0.5397606881921406   T   T   T
  0.0003071914500000  0.6244327000000000  0.1972504400000000   F   F   F
  0.3338681200000000  0.6869224200000000  0.2024380200000000   F   F   F
  0.1662169300000000  0.6868568800000000  0.2027438400000000   F   F   F
  0.2498607500000000  0.7492555500000000  0.2781419000000000   F   F   F
  0.0825350070000000  0.6867472800000000  0.2840683900000000   F   F   F
  0.4171357600000000  0.6867760300000000  0.2837499400000000   F   F   F
  0.9944606792458504  0.7472028986951059  0.3701556269847663   T   T   T
  0.3341797978983897  0.6843603634751214  0.3694730411107418   T   T   T
  0.1681531770080580  0.6872697092200355  0.3661415182525672   T   T   T
  0.2507061501116763  0.7474295910167131  0.4616955098323038   T   T   T
  0.0861515641821711  0.6860546307599288  0.4519490305977801   T   T   T
  0.4202593895413018  0.6844756057033933  0.4540454785648284   T   T   T
  0.9946624891683093  0.7486717238565879  0.5450408517806763   T   T   T
  0.3373624130415843  0.6834845719312825  0.5385416387303080   T   T   T
  0.1672986552973802  0.6893822033975611  0.5421575967969215   T   T   T
  0.0003541538400000  0.7494450900000000  0.1975123000000000   F   F   F
  0.3341261700000000  0.8118746400000000  0.2026408300000000   F   F   F
  0.1660289900000000  0.8118339600000000  0.2028769700000000   F   F   F
  0.2501094200000000  0.8742027200000000  0.2784125500000000   F   F   F
  0.0827024180000000  0.8117415700000000  0.2842721800000000   F   F   F
  0.4171759700000000  0.8117314799999999  0.2840979500000000   F   F   F
  0.9976673537256313  0.8732206992740936  0.3691619398419874   T   T   T
  0.3352530717401886  0.8061525659586275  0.3708677253992697   T   T   T
  0.1699624628425290  0.8110182733293299  0.3676153393044997   T   T   T
  0.2559546052771196  0.8784257842565174  0.4590881921662213   T   T   T
  0.0920317070758481  0.8127692731926069  0.4547378472211742   T   T   T
  0.4215090492182554  0.8065944773716714  0.4514599456423817   T   T   T
  0.9977194135231739  0.8753241644076024  0.5442757750959223   T   T   T
  0.3316213307092182  0.8096754339424866  0.5458390561869157   T   T   T
  0.0002665528400000  0.8741146200000000  0.1977518000000000   F   F   F
  0.3338685200000000  0.9368141900000000  0.2029582200000000   F   F   F
  0.1665043100000000  0.9368143100000000  0.2031919600000000   F   F   F
  0.2496629600000000  0.4989364800000000  0.2776504700000000   F   F   F
  0.0827631810000000  0.9367181999999999  0.2844727300000000   F   F   F
  0.4173070900000000  0.9366716400000000  0.2843534700000000   F   F   F
  0.9990756873689738  0.5009691981836857  0.3698926375455900   T   T   T
  0.3314298192072053  0.9288069602868958  0.3674451885293877   T   T   T
  0.1701687078054730  0.9361500196493610  0.3690635979202684   T   T   T
  0.2508832449330357  0.4993228175740157  0.4599371218115076   T   T   T
  0.0891717231676163  0.9361867515509349  0.4522296232426787   T   T   T
  0.4137886055419397  0.9340936787136189  0.4527191596268151   T   T   T
  0.0083340091824679  0.5049070756299151  0.5427001540777007   T   T   T
  0.3438708390620521  0.9371636517694418  0.5423284188406766   T   T   T
  0.1730669672241009  0.9441672035025412  0.5479496946252985   T   T   T
  0.5003964000000000  0.9992216300000000  0.1977957200000000   F   F   F
  0.8343746300000000  0.0615283490000000  0.2031811500000000   F   F   F
  0.6662764400000000  0.0615908000000000  0.2030194400000000   F   F   F
  0.7503566900000000  0.1240864700000000  0.2786567800000000   F   F   F
  0.5832280700000000  0.0615394220000000  0.2844527300000000   F   F   F
  0.9176144200000000  0.0615824950000000  0.2845322100000000   F   F   F
  0.4986755607576568  0.1242600956900492  0.3698599848161543   T   T   T
  0.8371652629031662  0.0601667834987920  0.3700604307719378   T   T   T
  0.6706563143674997  0.0604619041716176  0.3689631939691447   T   T   T
  0.7502440108058418  0.1223626930670084  0.4543013094693368   T   T   T
  0.5853551360586842  0.0576517281601164  0.4505249315918026   T   T   T
  0.9144718296495061  0.0560555492001422  0.4512935393266975   T   T   T
  0.5070427148840360  0.0850829274788003  0.5535376146156625   T   T   T
  0.6704205200026468  0.0624086527214772  0.5384095976189998   T   T   T
  0.5002835100000000  0.1239520100000000  0.1976945000000000   F   F   F
  0.8340462100000000  0.1865732900000000  0.2030124300000000   F   F   F
  0.6665217300000000  0.1866206800000000  0.2028086900000000   F   F   F
  0.7503794000000000  0.2489768700000000  0.2781155100000000   F   F   F
  0.5830893800000000  0.1865414100000000  0.2841566500000000   F   F   F
  0.9177305600000000  0.1865309000000000  0.2843632300000000   F   F   F
  0.4987773057424095  0.2465740531960695  0.3699214772417193   T   T   T
  0.8259593369263515  0.1888918969915740  0.3677800788399758   T   T   T
  0.6652184880786829  0.1886110174016866  0.3669541881494282   T   T   T
  0.7503869099013465  0.2521836466851597  0.4531109045474320   T   T   T
  0.5815909078374406  0.1844474971244410  0.4534616499541104   T   T   T
  0.9137125576162258  0.1818163838740131  0.4532960283550904   T   T   T
  0.8256401738504406  0.1787587928300722  0.5453499200707748   T   T   T
  0.6530173795088571  0.1859582031828013  0.5431814263208281   T   T   T
  0.5001236000000000  0.2488425000000000  0.1972734500000000   F   F   F
  0.8340673199999999  0.3113797400000000  0.2026205300000000   F   F   F
  0.6665573000000000  0.3114756100000000  0.2024484500000000   F   F   F
  0.7503929900000000  0.3740544800000000  0.2778331200000000   F   F   F
  0.5829775000000000  0.3115503400000000  0.2836894300000000   F   F   F
  0.9177463900000000  0.3115011700000000  0.2839246300000000   F   F   F
  0.4905723694908125  0.3716202734729068  0.3670765704167873   T   T   T
  0.8326915364053846  0.3125217144866174  0.3662841327393521   T   T   T
  0.6663971106875439  0.3066913525568087  0.3707659727128119   T   T   T
  0.7533982131065425  0.3777437139224469  0.4538488751611964   T   T   T
  0.5828189871869707  0.3096031859272294  0.4501201007512308   T   T   T
  0.9112508200471577  0.3119669449007980  0.4521286599393748   T   T   T
  0.5011375179923112  0.3625113387630198  0.5368855213286104   T   T   T
  0.6724464700358126  0.3112141754266355  0.5393337500337291   T   T   T
  0.4999943200000000  0.3739895300000000  0.1970215800000000   F   F   F
  0.8343803900000000  0.4366032000000000  0.2023810400000000   F   F   F
  0.6662979800000000  0.4366734300000000  0.2021467900000000   F   F   F
  0.7502735800000000  0.9991012000000000  0.2787107000000000   F   F   F
  0.5829132800000000  0.4365671800000000  0.2834097600000000   F   F   F
  0.9176443600000000  0.4364964800000000  0.2837274400000000   F   F   F
  0.4943144910857809  0.9995403280850128  0.3697270788818979   T   T   T
  0.8285461199822491  0.4383956834528191  0.3656095467470007   T   T   T
  0.6685111235435400  0.4377618208002814  0.3638602759042857   T   T   T
  0.7500387934594535  0.9991452412729470  0.4595725489536470   T   T   T
  0.5828959430518710  0.4359586728266718  0.4521765912671636   T   T   T
  0.9162809290594789  0.4378071536229762  0.4525678954409919   T   T   T
  0.8290543920824560  0.4332997690624066  0.5436005224926438   T   T   T
  0.6570207099293985  0.4358040229053372  0.5407219367208976   T   T   T
  0.4999535600000000  0.4989294100000000  0.1969533000000000   F   F   F
  0.8337335000000000  0.5616381499999999  0.2025586100000000   F   F   F
  0.6667459600000000  0.5616714000000000  0.2023155600000000   F   F   F
  0.7503504600000001  0.6242726199999999  0.2776165000000000   F   F   F
  0.5830068500000000  0.5615796600000000  0.2833907300000000   F   F   F
  0.9176725200000000  0.5616249900000000  0.2835987500000000   F   F   F
  0.5057275881760064  0.6222742739957117  0.3715893140300204   T   T   T
  0.8333720158317311  0.5602996223038051  0.3698507356305221   T   T   T
  0.6692110472716372  0.5623283327907144  0.3638678663965356   T   T   T
  0.7541536873742566  0.6233513366484117  0.4534996605624305   T   T   T
  0.5898831332157158  0.5614823237087043  0.4514754637500112   T   T   T
  0.9175311049293866  0.5611903195671861  0.4541680006585600   T   T   T
  0.4941202999458046  0.5737853180781534  0.5782114153387240   T   T   T
  0.6699060380723608  0.5582757746203936  0.5425536987066371   T   T   T
  0.4999717600000000  0.6245601800000000  0.1970535700000000   F   F   F
  0.8341444900000000  0.6868519700000000  0.2027027000000000   F   F   F
  0.6663652500000000  0.6869038800000000  0.2024455200000000   F   F   F
  0.7503782200000000  0.7492448700000000  0.2780326100000000   F   F   F
  0.5829461200000000  0.6867088500000000  0.2836983800000000   F   F   F
  0.9176973400000000  0.6867226600000000  0.2840089000000000   F   F   F
  0.5053675347735146  0.7445052135319025  0.3674551901433112   T   T   T
  0.8346343804938827  0.6875433145220499  0.3702259246106570   T   T   T
  0.6682381216393163  0.6867374608579879  0.3706080549562403   T   T   T
  0.7524920840453387  0.7472409133942303  0.4539825289618429   T   T   T
  0.5845919530692297  0.6823265376080447  0.4543936940463575   T   T   T
  0.9197477793151108  0.6816007499551834  0.4565280326650302   T   T   T
  0.8286159711625446  0.6930050864526291  0.5434222391146352   T   T   T
  0.6600006360391070  0.6874179624401877  0.5445943227817776   T   T   T
  0.5001090500000001  0.7494631800000000  0.1973092300000000   F   F   F
  0.8344342800000000  0.8118308200000000  0.2028777100000000   F   F   F
  0.6662654500000000  0.8118528900000000  0.2026757800000000   F   F   F
  0.7502874100000000  0.8742270700000000  0.2784661700000000   F   F   F
  0.5830532500000000  0.8116780900000000  0.2840880200000000   F   F   F
  0.9176788200000000  0.8116925100000000  0.2842645500000000   F   F   F
  0.5013645057208063  0.8726183956853643  0.3713519376861925   T   T   T
  0.8305000126154023  0.8115970568045688  0.3693742383835331   T   T   T
  0.6698306373859479  0.8080746295346111  0.3684479401035359   T   T   T
  0.7465716109352715  0.8768680847154208  0.4541869245218999   T   T   T
  0.5839034915131308  0.8091695983342649  0.4577249620313586   T   T   T
  0.9175298370521996  0.8108636682763184  0.4538814392635088   T   T   T
  0.4999037513184171  0.8687487832575724  0.5427732169579933   T   T   T
  0.6701637234567925  0.8089701013014615  0.5449088382306404   T   T   T
  0.5002824500000000  0.8742568500000000  0.1976042000000000   F   F   F
  0.8339827200000000  0.9367503600000000  0.2032541000000000   F   F   F
  0.6666084000000000  0.9367471800000000  0.2030192200000000   F   F   F
  0.7503686100000000  0.4988701900000000  0.2775980100000000   F   F   F
  0.5831020700000000  0.9366360700000000  0.2844399600000000   F   F   F
  0.9177044400000000  0.9366495400000000  0.2845087500000000   F   F   F
  0.5034208335960103  0.5005369106709449  0.3701978976518627   T   T   T
  0.8304168476766850  0.9351581169008097  0.3706150701379264   T   T   T
  0.6706999064631451  0.9357322886865684  0.3690501548889443   T   T   T
  0.7472446239495748  0.4989927220192288  0.4549303178350348   T   T   T
  0.5813936896219360  0.9338111489250539  0.4546355980852247   T   T   T
  0.9175489645254774  0.9322304812518831  0.4532186129540357   T   T   T
  0.8247312950392982  0.9273926247454064  0.5423926570200960   T   T   T
  0.6617633772804318  0.9380956786619784  0.5412760718929446   T   T   T
  0.4058572200000000  0.9991117800000000  0.2325265100000000   F   F   F
  0.2501493900000000  0.9992942800000000  0.1993343800000000   F   F   F
  0.0945251550000000  0.9991752000000000  0.2327231100000000   F   F   F
  0.1550395100000000  0.1240452700000000  0.3161648800000000   F   F   F
  0.0002167179300000  0.1240609400000000  0.3035982200000000   F   F   F
  0.3452883700000000  0.1240405500000000  0.3162348600000000   F   F   F
  0.3960528067920419  0.1261050480423620  0.4036027781880661   T   T   T
  0.2462297177632881  0.1207532684860133  0.3888045287155920   T   T   T
  0.0920314834700075  0.1247264977343650  0.4023769574810503   T   T   T
  0.1498384910266552  0.1196260377604855  0.4870538846142485   T   T   T
  0.9967022040617064  0.1188025751944486  0.4737326285687002   T   T   T
  0.3545821497356246  0.1219737443942621  0.4893016480623482   T   T   T
  0.4103062801151375  0.1178825289375004  0.5733298830512973   T   T   T
  0.2538225968653193  0.1250403357026498  0.5568675213117027   T   T   T
  0.0962049449399122  0.1186700678553495  0.5713471429349730   T   T   T
  0.4057487700000000  0.1240167500000000  0.2325013000000000   F   F   F
  0.2501868000000000  0.1239956200000000  0.1998799800000000   F   F   F
  0.0944959720000000  0.1241085100000000  0.2327073500000000   F   F   F
  0.1549048000000000  0.2489788600000000  0.3158404800000000   F   F   F
  0.0001730087500000  0.2490461300000000  0.3033619700000000   F   F   F
  0.3452656900000000  0.2488575600000000  0.3157398300000000   F   F   F
  0.3994901338247558  0.2466534675988354  0.4021914154792226   T   T   T
  0.2471526891636974  0.2488121657377525  0.3877159463134781   T   T   T
  0.0993912384005302  0.2497554577641567  0.4021872126939842   T   T   T
  0.1464025896742492  0.2412065699315578  0.4888084603852958   T   T   T
  0.9994817883334498  0.2468986179968576  0.4697793296545729   T   T   T
  0.3528414591335132  0.2448506221723965  0.4889358387644436   T   T   T
  0.4125915111829876  0.2420809994118494  0.5694295171898786   T   T   T
  0.2590925757785952  0.2438025109430705  0.5595053429129659   T   T   T
  0.0940647261406943  0.2458337419124453  0.5684172553683770   T   T   T
  0.4057536100000000  0.2489050300000000  0.2321450600000000   F   F   F
  0.2500901800000000  0.2488949200000000  0.1986798200000000   F   F   F
  0.0944274820000000  0.2489020600000000  0.2324466400000000   F   F   F
  0.1547129600000000  0.3739288500000000  0.3155026200000000   F   F   F
  0.0000911480260000  0.3740556900000000  0.3030117900000000   F   F   F
  0.3450989900000000  0.3739750100000000  0.3153650600000000   F   F   F
  0.3979429829401602  0.3759384046682272  0.4049356201535916   T   T   T
  0.2515000763450144  0.3720028934190363  0.3864687608079294   T   T   T
  0.1012905600633809  0.3773999692756461  0.4020801685316631   T   T   T
  0.1562974573676354  0.3764451283350293  0.4868122560146676   T   T   T
  0.9960352061564747  0.3753079033977337  0.4719895267723233   T   T   T
  0.3573539520913108  0.3756281439039047  0.4853966421706735   T   T   T
  0.4152500393663628  0.3765214589139897  0.5710671245367648   T   T   T
  0.2625063712235650  0.3748835772936717  0.5574724147935327   T   T   T
  0.1011694575540517  0.3794596721689933  0.5683865590181906   T   T   T
  0.4055739900000000  0.3740234600000000  0.2318722400000000   F   F   F
  0.2499750000000000  0.3739999800000000  0.1992994000000000   F   F   F
  0.0943876250000000  0.3739174800000000  0.2321658100000000   F   F   F
  0.1551183500000000  0.9992185700000000  0.3161272200000000   F   F   F
  0.0002641663600000  0.9992304700000000  0.3035641200000000   F   F   F
  0.3452154200000000  0.9990925899999999  0.3162364400000000   F   F   F
  0.3881588616005794  0.9969014569337404  0.4023772454832151   T   T   T
  0.2500391298687498  0.0011032886734530  0.3846536930116367   T   T   T
  0.0969114413825614  0.9992111938798169  0.3998098116595489   T   T   T
  0.1559358765675315  0.9993935396149335  0.4866126235196845   T   T   T
  0.0071160698476680  0.9917213011567656  0.4710047422198999   T   T   T
  0.3502280780325843  0.9940280538136445  0.4868499561204116   T   T   T
  0.4254941309395483  0.0017794571477391  0.5605538915010612   T   T   T
  0.2668151002608637  0.9971602822123519  0.5631524440508506   T   T   T
  0.0986067290471149  0.9978014261426515  0.5744465269805180   T   T   T
  0.4055231700000000  0.4990872700000000  0.2317236400000000   F   F   F
  0.2499497500000000  0.4989170400000000  0.1986847000000000   F   F   F
  0.0944459740000000  0.4990353200000000  0.2320213100000000   F   F   F
  0.1547300100000000  0.6241417900000000  0.3155191600000000   F   F   F
  0.0000340450230000  0.6241524300000000  0.3030243000000000   F   F   F
  0.3448484400000000  0.6242345100000000  0.3154074400000000   F   F   F
  0.3983598117420247  0.6206280115031906  0.4026148931450494   T   T   T
  0.2508667412828728  0.6222534492444639  0.3880732935231164   T   T   T
  0.0966649541283130  0.6289205027068659  0.4000067876376034   T   T   T
  0.1472023080325375  0.6202933170015259  0.4920749774498406   T   T   T
  0.9989423364397332  0.6240543633863934  0.4728987384922826   T   T   T
  0.3488946382425929  0.6239555488427916  0.4887606216966920   T   T   T
  0.4129787176575579  0.6246513430501728  0.5639946242133212   T   T   T
  0.2601723944462502  0.6290060570534068  0.5641688103576155   T   T   T
  0.0896767461490455  0.6326384746030447  0.5699274595676891   T   T   T
  0.4055395600000000  0.6243770900000000  0.2318509800000000   F   F   F
  0.2500202000000000  0.6243803300000000  0.1986005800000000   F   F   F
  0.0944718880000000  0.6243084500000000  0.2321608900000000   F   F   F
  0.1547526700000000  0.7492889000000000  0.3157747900000000   F   F   F
  0.0001306911800000  0.7491894700000000  0.3033189700000000   F   F   F
  0.3450260100000000  0.7491785800000000  0.3157193800000000   F   F   F
  0.4081534457010007  0.7437103096300351  0.4006373321301018   T   T   T
  0.2455351262905744  0.7453828821296852  0.3935007388825651   T   T   T
  0.1018793189626400  0.7509431244822949  0.4020910904978792   T   T   T
  0.1528556185013432  0.7466467891250580  0.4879491522442178   T   T   T
  0.9976102905909393  0.7479613973984099  0.4746999204314829   T   T   T
  0.3539644381953409  0.7537865750864045  0.4867874184485897   T   T   T
  0.4015210857003480  0.7467427174842789  0.5686985692982294   T   T   T
  0.2572217293845292  0.7455587861737043  0.5492085403813987   T   T   T
  0.0956122690670793  0.7454851184676122  0.5738588748536365   T   T   T
  0.4056321400000000  0.7493845800000000  0.2321558300000000   F   F   F
  0.2500380300000000  0.7494288700000000  0.1996898500000000   F   F   F
  0.0945269710000000  0.7493258000000000  0.2324765600000000   F   F   F
  0.1550615000000000  0.8742631100000000  0.3160497600000000   F   F   F
  0.0002296681600000  0.8741677000000000  0.3034420000000000   F   F   F
  0.3451238000000000  0.8742829700000000  0.3161354300000000   F   F   F
  0.3989039692166005  0.8692179834056244  0.4011822164306305   T   T   T
  0.2550840372966188  0.8760147232057678  0.3930831401366499   T   T   T
  0.1001646984861522  0.8739679775600301  0.4038190186143159   T   T   T
  0.1560637518810866  0.8783877069178667  0.4933638039687764   T   T   T
  0.0036812769178574  0.8725954191311974  0.4746662357941229   T   T   T
  0.3565596848122002  0.8716029936191011  0.4903552852045236   T   T   T
  0.4065183190371640  0.8694405523907498  0.5735047904395499   T   T   T
  0.2558326024155071  0.8811898994607542  0.5599529731579396   T   T   T
  0.0967390307124208  0.8808802698137157  0.5717439889421078   T   T   T
  0.4057030000000000  0.8743155900000000  0.2324324500000000   F   F   F
  0.2501348500000000  0.8742509600000000  0.1994966200000000   F   F   F
  0.0946071780000000  0.8742929699999999  0.2326758000000000   F   F   F
  0.1546159400000000  0.4992075200000000  0.3153287500000000   F   F   F
  0.0000565532050000  0.4990480000000000  0.3028392800000000   F   F   F
  0.3449149900000000  0.4991253000000000  0.3151600300000000   F   F   F
  0.4072637956062137  0.5002992148194012  0.4052283556487101   T   T   T
  0.2498692513840855  0.4999675919371341  0.3890266674114933   T   T   T
  0.0987859069083503  0.4981925610631507  0.4028913583353901   T   T   T
  0.1513252514084460  0.4967778191969983  0.4871124703110600   T   T   T
  0.0000640845076899  0.4982027393490875  0.4739159263132388   T   T   T
  0.3541187069174124  0.5011526952516779  0.4877689505113911   T   T   T
  0.4064704794266801  0.4982229605520531  0.5667160862338279   T   T   T
  0.2630900729645557  0.4907857403325400  0.5581000266819348   T   T   T
  0.0999157292484285  0.5004925333760337  0.5750456488088153   T   T   T
  0.9059340900000000  0.9991387300000000  0.2328397600000000   F   F   F
  0.7502921500000000  0.9992445500000000  0.1996190900000000   F   F   F
  0.5947849800000000  0.9990861700000000  0.2326955500000000   F   F   F
  0.6552017600000000  0.1239981900000000  0.3163212800000000   F   F   F
  0.5002732500000000  0.1241083600000000  0.3029352700000000   F   F   F
  0.8453717900000000  0.1239689100000000  0.3162056300000000   F   F   F
  0.8996126535095306  0.1251380534574137  0.3988995694755916   T   T   T
  0.7519440800915377  0.1242813912521158  0.3854456531989754   T   T   T
  0.5959346073670031  0.1196906190884898  0.4029849287917192   T   T   T
  0.6519917453180279  0.1222586077378026  0.4873893766639658   T   T   T
  0.5010702438392940  0.1172781359526662  0.4825471755143177   T   T   T
  0.8470599812634423  0.1210382084751215  0.4864793615846414   T   T   T
  0.8945330931072347  0.1164488903812644  0.5714495513249392   T   T   T
  0.7408839937579871  0.1309130266358482  0.5575343509370475   T   T   T
  0.5943845154684554  0.1226621496858290  0.5725281451117027   T   T   T
  0.9058387800000000  0.1240709400000000  0.2327722000000000   F   F   F
  0.7503062200000000  0.1239861900000000  0.1999864300000000   F   F   F
  0.5947785300000000  0.1240253100000000  0.2325772000000000   F   F   F
  0.6551149700000000  0.2488334700000000  0.3157957100000000   F   F   F
  0.5001934200000000  0.2490626300000000  0.3026265400000000   F   F   F
  0.8454216400000000  0.2489071000000000  0.3158179800000000   F   F   F
  0.8948505824005956  0.2500638893636060  0.4033959245696524   T   T   T
  0.7498870613031849  0.2483327376536084  0.3855015436283059   T   T   T
  0.5996333882785272  0.2456920193284584  0.4016920340097127   T   T   T
  0.6577675124033591  0.2499568021352591  0.4850180050410903   T   T   T
  0.4987970630428080  0.2458376147294596  0.4711469287756759   T   T   T
  0.8471523782696048  0.2395531733707999  0.4882789827909902   T   T   T
  0.9040424813156747  0.2406398836778381  0.5743070532801267   T   T   T
  0.7467062171759610  0.2460646979280489  0.5587859240940273   T   T   T
  0.5864564016900269  0.2494840526050040  0.5644259774890427   T   T   T
  0.9059223500000000  0.2489051000000000  0.2324172100000000   F   F   F
  0.7502637000000000  0.2489565600000000  0.1987456500000000   F   F   F
  0.5945769100000000  0.2489601100000000  0.2321236600000000   F   F   F
  0.6550360700000000  0.3739492600000000  0.3153890000000000   F   F   F
  0.5001089700000000  0.3740634800000000  0.3022751500000000   F   F   F
  0.8454682400000000  0.3738569600000000  0.3153963300000000   F   F   F
  0.9019810443437699  0.3753397241831727  0.4016329646984209   T   T   T
  0.7454500038199329  0.3742315180976426  0.3850046901799853   T   T   T
  0.5934986128838001  0.3741361905534773  0.3994332624064796   T   T   T
  0.6513062559733763  0.3717378174031049  0.4831709500902885   T   T   T
  0.5024169224353068  0.3739319468287031  0.4746459731486862   T   T   T
  0.8526683553763170  0.3752655967623946  0.4923129802223789   T   T   T
  0.9076993762162128  0.3769244237159037  0.5762838012703932   T   T   T
  0.7432358735050217  0.3794513580191939  0.5608643263564496   T   T   T
  0.5962701453527225  0.3679690086938779  0.5647795307653440   T   T   T
  0.9058688300000000  0.3739708800000000  0.2320747400000000   F   F   F
  0.7503243800000000  0.3740989500000000  0.1994041300000000   F   F   F
  0.5945986300000000  0.3740501100000000  0.2317675500000000   F   F   F
  0.6551675500000000  0.9989838200000000  0.3164094500000000   F   F   F
  0.5002363200000000  0.9990826900000001  0.3030879900000000   F   F   F
  0.8453539200000000  0.9991299000000000  0.3162523300000000   F   F   F
  0.8987086784738858  0.9957553161598524  0.4024549682621593   T   T   T
  0.7496730033205204  0.0012573916613313  0.3889842567831226   T   T   T
  0.6003067430940671  0.9997313209808152  0.3997712341807899   T   T   T
  0.6455891508423045  0.0016388922105006  0.4875174841745697   T   T   T
  0.4979255929884910  0.9938770536066265  0.4674649957375018   T   T   T
  0.8528568381072216  0.9960570826190667  0.4864536055773315   T   T   T
  0.9053472053045404  0.9900111570691014  0.5703290672986711   T   T   T