Ta N Cu Ru                              
   1.00000000000000     
    18.1096308199999996    0.0000000000000000    0.0000000000000000
     0.0000000000000000   11.6775998899999998    0.0000000000000000
     0.0000000000000000    0.0000000000000000   23.4818170799999990
   Ta   N    Cu   Ru
   119   120     2     1
Direct
  0.0001952853109624  0.9998709337126183  0.2548725261385468
  0.3331537387844332  0.1250837164289843  0.2637783301284666
  0.1663742510203676  0.1249853872979730  0.2638987771372715
  0.2499199346485210  0.2500531054839484  0.3613299905975937
  0.0825163132941646  0.1250072933522023  0.3686209801531952
  0.4174107020370792  0.1250552084478159  0.3683161203981798
  0.0000996556338709  0.2500671632991810  0.4795995077367268
  0.3319736969394405  0.1250517204444667  0.4779093964523037
  0.1676138365496022  0.1249655688412173  0.4784992829531338
  0.2499993724555233  0.2500832673396614  0.5912401511039033
  0.0836363749238294  0.1258182254666882  0.5896423441898816
  0.4164455665285096  0.1249959444854254  0.5896265134490889
  0.3373005187110396  0.1253079368408995  0.7037503638700753
  0.0001645752209272  0.2500229738827611  0.2548389249453101
  0.3331415463900407  0.3749614746787707  0.2637844635633472
  0.1663848027969694  0.3750640883857840  0.2639027632831882
  0.2498138511599267  0.5000122624865302  0.3614136909659870
  0.0825196938393018  0.3750628302148538  0.3686243220122000
  0.4174080651120556  0.3750159990966767  0.3683188026341284
  0.0000881524337040  0.5001861249491363  0.4798942889264615
  0.3319743068998310  0.3751116870065852  0.4779195167020995
  0.1676087647169028  0.3751876902318724  0.4785061004220255
  0.2494407930328986  0.4997477396811793  0.5913807749224981
  0.0836591479366330  0.3743407078422256  0.5896548355192434
  0.4164495858659105  0.3751973581686748  0.5896450458106197
  0.9987521524351719  0.4946566843349790  0.7023957903133873
  0.3373179520000367  0.3749697536818682  0.7037586582263754
  0.1695204023324370  0.3760763176098087  0.7025790695843028
  0.0002078016954700  0.5001654689962778  0.2548783418234140
  0.3334426680187240  0.6251433615221192  0.2638344083836519
  0.1661550272532932  0.6251298900083921  0.2638982084336574
  0.2497056384872800  0.7500337481052791  0.3614355203156411
  0.0825701193183120  0.6251003293217288  0.3687028519492261
  0.4173227473794452  0.6250592251731661  0.3684674838653886
  0.0000572990869367  0.7500637454985836  0.4801279271847544
  0.3321502506045033  0.6251087785035683  0.4781528944007479
  0.1674756100834453  0.6251295844495937  0.4786569968725867
  0.2494887746368088  0.7501175211182035  0.5914424654243613
  0.0833595567141581  0.6250949833456410  0.5905588916262238
  0.4162449123533665  0.6251679282265664  0.5897710639085364
 -0.0000576277807831  0.7500929379814923  0.7024900331947251
  0.3358125732802778  0.6249298248511439  0.7039041158757411
  0.1645777443216011  0.6265850314365595  0.7052161597738239
  0.0001502329988779  0.7500104811370354  0.2548951293371012
  0.3334426185841378  0.8749044131678578  0.2638277630772223
  0.1661608569026335  0.8749320821581726  0.2638880018704675
  0.2498269799445215  0.0000919308078531  0.3613964617440404
  0.0825715044820142  0.8749899791004286  0.3686855002949164
  0.4173250356937669  0.8750232630331894  0.3684619711309474
  0.0000796759578108  0.9999493795243896  0.4798756998267817
  0.3321427562119672  0.8750483026094108  0.4781475084927482
  0.1674684324154011  0.8750242549118077  0.4786465221972411
  0.2494543966390319  0.0004624319760750  0.5913703218259904
  0.0833511466434778  0.8750688074144067  0.5905399409234664
  0.4162418993595759  0.8750427755459852  0.5897644456840834
  0.9987265701068906  0.0053579101883556  0.7023523686532489
  0.3357867102116892  0.8753581684646401  0.7039067743179991
  0.1645665312617733  0.8735969095728224  0.7051918706372075
  0.4997148526992113  0.9999243718472621  0.2549696848968812
  0.8334538110767431  0.1249068755607560  0.2637491919343854
  0.6667467588378282  0.1249885645925277  0.2637670228535128
  0.7497494444003919  0.2500193358123980  0.3611523638804679
  0.5822556044969216  0.1250422759534884  0.3682659560394744
  0.9175078892463806  0.1249886882565472  0.3683065724336045
  0.4999831834507517  0.2500461830258094  0.4799797316673292
  0.8322226526873368  0.1249222191093276  0.4777830934212453
  0.6678799351457327  0.1249840776099954  0.4777507917502016
  0.7499245346138579  0.2500762728377263  0.5905556173151421
  0.5838594093714101  0.1249872531782712  0.5896805830436331
  0.9159735339073394  0.1257538795182780  0.5888182964125218
  0.5013560577972572  0.2500885131638861  0.7017530169559055
  0.8349599235664488  0.1257630294501834  0.7030760560547447
  0.6650691456865681  0.1249784855603063  0.7039084054432901
  0.4997481094449339  0.2500154812256858  0.2549782414337325
  0.8334549326012115  0.3751212596581468  0.2637523389487903
  0.6667467043135443  0.3750220159429954  0.2637688371204904
  0.7498950397084049  0.4999784981621236  0.3612273807828176
  0.5822545555952554  0.3750055580946808  0.3682674109616846
  0.9175131410501749  0.3750867199377437  0.3683120328949395
  0.4999352816283955  0.5001207357154557  0.4798850421592791
  0.8322281154657043  0.3751736719229090  0.4777915708261291
  0.6678895605932830  0.3750879352142760  0.4777476592342817
  0.7502597767366561  0.4996363858262796  0.5908725082341753
  0.5838552628547913  0.3751309227483295  0.5896770621212825
  0.9159950273328317  0.3744514331451566  0.5888315562303459
  0.5008278272110011  0.5000547754670941  0.7018941312106396
  0.8349541683739246  0.3744676503215613  0.7031057147986105
  0.6650934422861146  0.3751737399505720  0.7039047803661836
  0.4997028591792146  0.5001029789457564  0.2549743899881902
  0.8336870065182346  0.6250354176600160  0.2637460622480267
  0.6663720519863534  0.6249345895702338  0.2637948839357684
  0.7500025690287817  0.7500104685678216  0.3612856315186228
  0.5823448723108754  0.6250214950887549  0.3683860972972978
  0.9175392200164405  0.6250996311332995  0.3684308109290279
  0.4998992820341233  0.7500462608135575  0.4798357726544956
  0.8323698328868417  0.6250918177629369  0.4779849101293918
  0.6676585584286855  0.6250884242158848  0.4779828565064299
  0.7500395397009649  0.7500829924552236  0.5909281450171570
  0.5838421172091701  0.6251110503881810  0.5897151404506420
  0.9164502224022993  0.6251548069679214  0.5898827447512830
  0.5003423747627739  0.7500915649303599  0.7020823540656238
  0.8355378036526414  0.6253563341674795  0.7039846856273060
  0.6651230097491719  0.6249614259577723  0.7040598994116882
  0.4998379968251240  0.7500112370820697  0.2549216512001594
  0.8336835128587698  0.8749747679174124  0.2637450438407944
  0.6663735246717192  0.8750746545860220  0.2637960355319956
  0.7498860018438431  0.0000472870902600  0.3612182250986853
  0.5823444249856385  0.8750191167173949  0.3683847101585544
  0.9175340487439050  0.8749593823372629  0.3684262224102542
  0.4999430257745423 -0.0000174276203545  0.4798775564740155
  0.8323509757954820  0.8749959944344545  0.4779776747041911
  0.6676596704026241  0.8749739820462979  0.4779784517118544
  0.7502338008692714  0.0005150121733413  0.5908523366103990
  0.5838449433683942  0.8750086448855178  0.5897179192589020
  0.9164332186706484  0.8750393482965063  0.5898654252466137
  0.5008051289101948  0.0001275385580445  0.7018837406544181
  0.8354939284888788  0.8749108595863667  0.7039646324730480
  0.6650962780625641  0.8751837828500851  0.7040637511993740
  0.1694951646547416  0.1241073232974759  0.7025845855083999
  0.4065402164605412  0.0000742215041050  0.3012336024689379
  0.2498180405183865  0.9998551534704363  0.2580432436425166
  0.0931922124729278 -0.0000397164223006  0.3014746277961649
  0.1544117587883032  0.2500588000271415  0.4101916657515501
 -0.0000190022373398  0.2500435218728668  0.3930307254895120
  0.3453507830564390  0.2500622576097480  0.4099509133869840
  0.4009868764604475  0.2500896714107050  0.5217834009477069
  0.2500114061004755  0.2500791144724213  0.5030742630931021
  0.0990828822368199  0.2500781998062745  0.5221182016679273
  0.1515093764337110  0.2500717329350863  0.6338944622995512
 -0.0001933883940758  0.2501079290648133  0.6128140501156838
  0.3488001679316867  0.2501068560939102  0.6329812382969831
  0.4047079749868903  0.2501381431404923  0.7401952508553249
  0.2521461267544711  0.2501204360099831  0.7242368064353614
  0.1028537288578835  0.2500712117409031  0.7422666141061108
  0.4065993980782985  0.2500246004551988  0.3011941247876666
  0.2497160707621173  0.2500174275998356  0.2575790354536669
  0.0932012903607136  0.2500363131591317  0.3013892939917449
  0.1544096776548957  0.5000636700984773  0.4103339017097195
 -0.0000015086427179  0.5001096291962820  0.3932486874353513
  0.3453172699317159  0.5000524482759374  0.4099993782837979
  0.4009272762008211  0.5000448307549182  0.5218814179424995
  0.2498924559013427  0.5002497817925029  0.5032697430220106
  0.0988947567908622  0.5000569279082412  0.5225775307635233
  0.1507433486730483  0.5001139211882257  0.6344593636682384
  0.9996806437255538  0.4985081191903294  0.6138182967383266
  0.3481911289276562  0.5004391430677346  0.6330349877892926
  0.4038751341736116  0.5006105800467457  0.7401570246933448
  0.2505339427505362  0.4993800525325653  0.7245039303453067
  0.0962629536470484  0.4975688775994788  0.7433885997610266
  0.4065276799747174  0.4999778220673481  0.3012402064943885
  0.2498164730681637  0.5002006028944623  0.2580583263124838
  0.0931941125542394  0.5001102823047657  0.3014925394528665
  0.1543632281073350  0.7500563114290827  0.4104172347116558
  0.0000029170006964  0.7500388119330434  0.3933694014142025
  0.3452503418908004  0.7500584001489933  0.4100138370318688
  0.4008902132913543  0.7500893070568698  0.5220048735326875
  0.2498693405914772  0.7500895773143538  0.5032525085396247
  0.0988830770064808  0.7500843863748502  0.5226320219765299
  0.1513173842992609  0.7501007773466197  0.6342218118194705
  0.9997959597707923  0.7501018818574449  0.6137806540746719
  0.3479917827690052  0.7501460710462962  0.6331097998183061
  0.4030894264433411  0.7501627593635545  0.7401215530890692
  0.2491485305294881  0.7501029779716114  0.7239296369656970
  0.0969610652999639  0.7501042943035169  0.7417151101800219
  0.4066466427341179  0.7500275661157429  0.3012778415425979
  0.2498261044027211  0.7500200944005985  0.2581762752475368
  0.0931423414584344  0.7500251478513821  0.3015724883444664
  0.1544108573374918  0.0000539244141977  0.4103147334640280
 -0.0000033285625981  0.9999713691744018  0.3932313578977942
  0.3453207289977802  0.0000705600345205  0.4099919010003703
  0.4009287956832908  0.0001370531657893  0.5218699301888369
  0.2498905333094799  0.9999199163256166  0.5032598172161427
  0.0988861897926360  0.0001024235724763  0.5225476487632595
  0.1507299570967866  0.0000894565634717  0.6344253196676329
  0.9996578157748622  0.0016698858113325  0.6137687649020259
  0.3481921628292791  0.9998015421715384  0.6330300661321235
  0.4038451542690843  0.9997078145396362  0.7401454256150984
  0.2504976727960346  0.0008338171670615  0.7244752361802611
  0.0962131040849193  0.0026835578337205  0.7433344788692050
  0.9069375019525666  0.9998742221126493  0.3011441685672435
  0.7500613139910604  0.9998042405494624  0.2575656645961573
  0.5930695536576946  0.0000774264775492  0.3010852017278172
  0.6542503513518618  0.2500299479534044  0.4097648956237750
  0.4998289491885332  0.2500259841781508  0.3931889905415270
  0.8455196166772143  0.2500444033329520  0.4096236876554402
  0.9007716391874603  0.2500724613454724  0.5214524523721534
  0.7499343568101213  0.2500511776209904  0.5024117521747410
  0.5990920357117586  0.2500518165468414  0.5218120764209254
  0.6519085665295892  0.2500659076891978  0.6331825079127305
  0.5002325949102485  0.2500815707878712  0.6131396230584598
  0.8481877558920607  0.2501181524470859  0.6325368332912383
  0.9024891627028583  0.2501161331622367  0.7383970745247058
  0.7504666536699296  0.2500859277929591  0.7241125225136941
  0.5974223714194548  0.2500842448517166  0.7405286813115850
  0.9068734608497756  0.2500295724347227  0.3010439000725622
  0.7501489175622592  0.2500078294753647  0.2573255887842780
  0.5930940134100685  0.2500118911756651  0.3010536994741566
  0.6543306036382489  0.5000823940840937  0.4098211694520243
  0.4998240791570550  0.5000482894298761  0.3931688175125705
  0.8455269171767869  0.5001203916980959  0.4097797471075449
  0.9009858257457717  0.5001571621455265  0.5218886597046236
  0.7500093421858550  0.5002995172486943  0.5027340920740601
  0.5990357689960459  0.5000320553692648  0.5218575923420952
  0.6519841216890631  0.5003083298131716  0.6330249466346940
  0.5001220076711786  0.5001827062665675  0.6132903980112894
  0.8488555670057597  0.4996478133474802  0.6330757553002846
  0.9032368097775668  0.4977114645797939  0.7405990222676478
  0.7502379541339711  0.5000774921480812  0.7238002879033396
  0.5972135031149404  0.4998065442386516  0.7403237053477455
  0.9069467185324666  0.5001635069646250  0.3011474698677191
  0.7500582662170705  0.5002091829148849  0.2575623306639076
  0.5930648608154443  0.4999437149287993  0.3010831884806112
  0.6544422924331830  0.7500190925483909  0.4098666134876881
  0.4998477198403190  0.7500288883865490  0.3931632066151591
  0.8455648978338257  0.7500309205306862  0.4098771145359111
  0.9009820619653771  0.7500713706164513  0.5220150109221060
  0.7500290222822056  0.7500437306199297  0.5027658666982060
  0.5990023487322556  0.7500412356790700  0.5219455478338116
  0.6519542418916237  0.7500683923069515  0.6330400941968347
  0.5000281603288302  0.7500878757075787  0.6133994800457110
  0.8482526174053042  0.7501132670835314  0.6332318169141372
  0.9033140928089372  0.7501562233765980  0.7406229615853994
  0.7505881532465656  0.7500832620552330  0.7236910268439924
  0.5970371975300182  0.7500510009171816  0.7402780560682944
  0.9069483246071511  0.7500088562915666  0.3012365241570515
  0.7499683068004955  0.7500010543365005  0.2582083135859801
  0.5931173711157338  0.7500123837553776  0.3011772078685465
  0.6543233817569726 -0.0000352715099148  0.4098196781859746
  0.4998260073740415  0.0000130548931962  0.3931640736569116
  0.8455187673239349  0.9999515961520676  0.4097683001804522
  0.9009774822739456  0.0000070952630813  0.5218657163082030
  0.7500000942377337  0.9997986952963039  0.5027167094112346
  0.5990373722888542  0.0000611345528403  0.5218525907497482
  0.6519696084837896  0.9998200645339682  0.6330284269376436
  0.5001263154333768 -0.0000252906890146  0.6132810316053139
  0.8488290148554597  0.0005603566564324  0.6330407939829366
  0.9032187024800408  0.0025263955319396  0.7405449298773559
  0.7502239481166842  0.0001100041873496  0.7237915200328991
  0.5971922819679142  0.0003249070727302  0.7403259602054753
  0.0607027398360494  0.1339818447090879  0.7893609989655050
  0.0612694643992088  0.3662885020209806  0.7895504161644233
  0.9970499699843777  0.2502089407323648  0.6985533590799269
 
  0.00000000E+00  0.00000000E+00  0.00000000E+00
  0.00000000E+00  0.00000000E+00  0.00000000E+00
  0.00000000E+00  0.00000000E+00  0.00000000E+00
  0.00000000E+00  0.00000000E+00  0.00000000E+00
  0.00000000E+00  0.00000000E+00  0.00000000E+00
  0.00000000E+00  0.00000000E+00  0.00000000E+00
  0.00000000E+00  0.00000000E+00  0.00000000E+00
  0.00000000E+00  0.00000000E+00  0.00000000E+00
  0.00000000E+00  0.00000000E+00  0.00000000E+00
  0.00000000E+00  0.00000000E+00  0.00000000E+00
  0.00000000E+00  0.00000000E+00  0.00000000E+00
  0.00000000E+00  0.00000000E+00  0.00000000E+00
  0.00000000E+00  0.00000000E+00  0.00000000E+00
  0.00000000E+00  0.00000000E+00  0.00000000E+00
  0.00000000E+00  0.00000000E+00  0.00000000E+00
  0.00000000E+00  0.00000000E+00  0.00000000E+00
  0.00000000E+00  0.00000000E+00  0.00000000E+00
  0.00000000E+00  0.00000000E+00  0.00000000E+00
  0.00000000E+00  0.00000000E+00  0.00000000E+00
  0.00000000E+00  0.00000000E+00  0.00000000E+00
  0.00000000E+00  0.00000000E+00  0.00000000E+00
  0.00000000E+00  0.00000000E+00  0.00000000E+00
  0.00000000E+00  0.00000000E+00  0.00000000E+00
  0.00000000E+00  0.00000000E+00  0.00000000E+00
  0.00000000E+00  0.00000000E+00  0.00000000E+00
  0.00000000E+00  0.00000000E+00  0.00000000E+00
  0.00000000E+00  0.00000000E+00  0.00000000E+00
  0.00000000E+00  0.00000000E+00  0.00000000E+00
  0.00000000E+00  0.00000000E+00  0.00000000E+00
  0.00000000E+00  0.00000000E+00  0.00000000E+00
  0.00000000E+00  0.00000000E+00  0.00000000E+00
  0.00000000E+00  0.00000000E+00  0.00000000E+00
  0.00000000E+00  0.00000000E+00  0.00000000E+00
  0.00000000E+00  0.00000000E+00  0.00000000E+00
  0.00000000E+00  0.00000000E+00  0.00000000E+00
  0.00000000E+00  0.00000000E+00  0.00000000E+00
  0.00000000E+00  0.00000000E+00  0.00000000E+00
  0.00000000E+00  0.00000000E+00  0.00000000E+00
  0.00000000E+00  0.00000000E+00  0.00000000E+00
  0.00000000E+00  0.00000000E+00  0.00000000E+00
  0.00000000E+00  0.00000000E+00  0.00000000E+00
  0.00000000E+00  0.00000000E+00  0.00000000E+00
  0.00000000E+00  0.00000000E+00  0.00000000E+00
  0.00000000E+00  0.00000000E+00  0.00000000E+00
  0.00000000E+00  0.00000000E+00  0.00000000E+00
  0.00000000E+00  0.00000000E+00  0.00000000E+00
  0.00000000E+00  0.00000000E+00  0.00000000E+00
  0.00000000E+00  0.00000000E+00  0.00000000E+00
  0.00000000E+00  0.00000000E+00  0.00000000E+00
  0.00000000E+00  0.00000000E+00  0.00000000E+00
  0.00000000E+00  0.00000000E+00  0.00000000E+00
  0.00000000E+00  0.00000000E+00  0.00000000E+00
  0.00000000E+00  0.00000000E+00  0.00000000E+00
  0.00000000E+00  0.00000000E+00  0.00000000E+00
  0.00000000E+00  0.00000000E+00  0.00000000E+00
  0.00000000E+00  0.00000000E+00  0.00000000E+00
  0.00000000E+00  0.00000000E+00  0.00000000E+00
  0.00000000E+00  0.00000000E+00  0.00000000E+00
  0.00000000E+00  0.00000000E+00  0.00000000E+00
  0.00000000E+00  0.00000000E+00  0.00000000E+00
  0.00000000E+00  0.00000000E+00  0.00000000E+00
  0.00000000E+00  0.00000000E+00  0.00000000E+00
  0.00000000E+00  0.00000000E+00  0.00000000E+00
  0.00000000E+00  0.00000000E+00  0.00000000E+00
  0.00000000E+00  0.00000000E+00  0.00000000E+00
  0.00000000E+00  0.00000000E+00  0.00000000E+00
  0.00000000E+00  0.00000000E+00  0.00000000E+00
  0.00000000E+00  0.00000000E+00  0.00000000E+00
  0.00000000E+00  0.00000000E+00  0.00000000E+00
  0.00000000E+00  0.00000000E+00  0.00000000E+00
  0.00000000E+00  0.00000000E+00  0.00000000E+00
  0.00000000E+00  0.00000000E+00  0.00000000E+00
  0.00000000E+00  0.00000000E+00  0.00000000E+00
  0.00000000E+00  0.00000000E+00  0.00000000E+00
  0.00000000E+00  0.00000000E+00  0.00000000E+00
  0.00000000E+00  0.00000000E+00  0.00000000E+00
  0.00000000E+00  0.00000000E+00  0.00000000E+00
  0.00000000E+00  0.00000000E+00  0.00000000E+00
  0.00000000E+00  0.00000000E+00  0.00000000E+00
  0.00000000E+00  0.00000000E+00  0.00000000E+00
  0.00000000E+00  0.00000000E+00  0.00000000E+00
  0.00000000E+00  0.00000000E+00  0.00000000E+00
  0.00000000E+00  0.00000000E+00  0.00000000E+00
  0.00000000E+00  0.00000000E+00  0.00000000E+00
  0.00000000E+00  0.00000000E+00  0.00000000E+00
  0.00000000E+00  0.00000000E+00  0.00000000E+00
  0.00000000E+00  0.00000000E+00  0.00000000E+00
  0.00000000E+00  0.00000000E+00  0.00000000E+00
  0.00000000E+00  0.00000000E+00  0.00000000E+00
  0.00000000E+00  0.00000000E+00  0.00000000E+00
  0.00000000E+00  0.00000000E+00  0.00000000E+00
  0.00000000E+00  0.00000000E+00  0.00000000E+00
  0.00000000E+00  0.00000000E+00  0.00000000E+00
  0.00000000E+00  0.00000000E+00  0.00000000E+00
  0.00000000E+00  0.00000000E+00  0.00000000E+00
  0.00000000E+00  0.00000000E+00  0.00000000E+00
  0.00000000E+00  0.00000000E+00  0.00000000E+00
  0.00000000E+00  0.00000000E+00  0.00000000E+00
  0.00000000E+00  0.00000000E+00  0.00000000E+00
  0.00000000E+00  0.00000000E+00  0.00000000E+00
  0.00000000E+00  0.00000000E+00  0.00000000E+00
  0.00000000E+00  0.00000000E+00  0.00000000E+00
  0.00000000E+00  0.00000000E+00  0.00000000E+00
  0.00000000E+00  0.00000000E+00  0.00000000E+00
  0.00000000E+00  0.00000000E+00  0.00000000E+00
  0.00000000E+00  0.00000000E+00  0.00000000E+00
  0.00000000E+00  0.00000000E+00  0.00000000E+00
  0.00000000E+00  0.00000000E+00  0.00000000E+00
  0.00000000E+00  0.00000000E+00  0.00000000E+00
  0.00000000E+00  0.00000000E+00  0.00000000E+00
  0.00000000E+00  0.00000000E+00  0.00000000E+00
  0.00000000E+00  0.00000000E+00  0.00000000E+00
  0.00000000E+00  0.00000000E+00  0.00000000E+00
  0.00000000E+00  0.00000000E+00  0.00000000E+00
  0.00000000E+00  0.00000000E+00  0.00000000E+00
  0.00000000E+00  0.00000000E+00  0.00000000E+00
  0.00000000E+00  0.00000000E+00  0.00000000E+00
  0.00000000E+00  0.00000000E+00  0.00000000E+00
  0.00000000E+00  0.00000000E+00  0.00000000E+00
  0.00000000E+00  0.00000000E+00  0.00000000E+00
  0.00000000E+00  0.00000000E+00  0.00000000E+00
  0.00000000E+00  0.00000000E+00  0.00000000E+00
  0.00000000E+00  0.00000000E+00  0.00000000E+00
  0.00000000E+00  0.00000000E+00  0.00000000E+00
  0.00000000E+00  0.00000000E+00  0.00000000E+00
  0.00000000E+00  0.00000000E+00  0.00000000E+00
  0.00000000E+00  0.00000000E+00  0.00000000E+00
  0.00000000E+00  0.00000000E+00  0.00000000E+00
  0.00000000E+00  0.00000000E+00  0.00000000E+00
  0.00000000E+00  0.00000000E+00  0.00000000E+00
  0.00000000E+00  0.00000000E+00  0.00000000E+00
  0.00000000E+00  0.00000000E+00  0.00000000E+00
  0.00000000E+00  0.00000000E+00  0.00000000E+00
  0.00000000E+00  0.00000000E+00  0.00000000E+00
  0.00000000E+00  0.00000000E+00  0.00000000E+00
  0.00000000E+00  0.00000000E+00  0.00000000E+00
  0.00000000E+00  0.00000000E+00  0.00000000E+00
  0.00000000E+00  0.00000000E+00  0.00000000E+00
  0.00000000E+00  0.00000000E+00  0.00000000E+00
  0.00000000E+00  0.00000000E+00  0.00000000E+00
  0.00000000E+00  0.00000000E+00  0.00000000E+00
  0.00000000E+00  0.00000000E+00  0.00000000E+00
  0.00000000E+00  0.00000000E+00  0.00000000E+00
  0.00000000E+00  0.00000000E+00  0.00000000E+00
  0.00000000E+00  0.00000000E+00  0.00000000E+00
  0.00000000E+00  0.00000000E+00  0.00000000E+00
  0.00000000E+00  0.00000000E+00  0.00000000E+00
  0.00000000E+00  0.00000000E+00  0.00000000E+00
  0.00000000E+00  0.00000000E+00  0.00000000E+00
  0.00000000E+00  0.00000000E+00  0.00000000E+00
  0.00000000E+00  0.00000000E+00  0.00000000E+00
  0.00000000E+00  0.00000000E+00  0.00000000E+00
  0.00000000E+00  0.00000000E+00  0.00000000E+00
  0.00000000E+00  0.00000000E+00  0.00000000E+00
  0.00000000E+00  0.00000000E+00  0.00000000E+00
  0.00000000E+00  0.00000000E+00  0.00000000E+00
  0.00000000E+00  0.00000000E+00  0.00000000E+00
  0.00000000E+00  0.00000000E+00  0.00000000E+00
  0.00000000E+00  0.00000000E+00  0.00000000E+00
  0.00000000E+00  0.00000000E+00  0.00000000E+00
  0.00000000E+00  0.00000000E+00  0.00000000E+00
  0.00000000E+00  0.00000000E+00  0.00000000E+00
  0.00000000E+00  0.00000000E+00  0.00000000E+00
  0.00000000E+00  0.00000000E+00  0.00000000E+00
  0.00000000E+00  0.00000000E+00  0.00000000E+00
  0.00000000E+00  0.00000000E+00  0.00000000E+00
  0.00000000E+00  0.00000000E+00  0.00000000E+00
  0.00000000E+00  0.00000000E+00  0.00000000E+00
  0.00000000E+00  0.00000000E+00  0.00000000E+00
  0.00000000E+00  0.00000000E+00  0.00000000E+00
  0.00000000E+00  0.00000000E+00  0.00000000E+00
  0.00000000E+00  0.00000000E+00  0.00000000E+00
  0.00000000E+00  0.00000000E+00  0.00000000E+00
  0.00000000E+00  0.00000000E+00  0.00000000E+00
  0.00000000E+00  0.00000000E+00  0.00000000E+00
  0.00000000E+00  0.00000000E+00  0.00000000E+00
  0.00000000E+00  0.00000000E+00  0.00000000E+00
  0.00000000E+00  0.00000000E+00  0.00000000E+00
  0.00000000E+00  0.00000000E+00  0.00000000E+00
  0.00000000E+00  0.00000000E+00  0.00000000E+00
  0.00000000E+00  0.00000000E+00  0.00000000E+00
  0.00000000E+00  0.00000000E+00  0.00000000E+00
  0.00000000E+00  0.00000000E+00  0.00000000E+00
  0.00000000E+00  0.00000000E+00  0.00000000E+00
  0.00000000E+00  0.00000000E+00  0.00000000E+00
  0.00000000E+00  0.00000000E+00  0.00000000E+00
  0.00000000E+00  0.00000000E+00  0.00000000E+00
  0.00000000E+00  0.00000000E+00  0.00000000E+00
  0.00000000E+00  0.00000000E+00  0.00000000E+00
  0.00000000E+00  0.00000000E+00  0.00000000E+00
  0.00000000E+00  0.00000000E+00  0.00000000E+00
  0.00000000E+00  0.00000000E+00  0.00000000E+00
  0.00000000E+00  0.00000000E+00  0.00000000E+00
  0.00000000E+00  0.00000000E+00  0.00000000E+00
  0.00000000E+00  0.00000000E+00  0.00000000E+00
  0.00000000E+00  0.00000000E+00  0.00000000E+00
  0.00000000E+00  0.00000000E+00  0.00000000E+00
  0.00000000E+00  0.00000000E+00  0.00000000E+00
  0.00000000E+00  0.00000000E+00  0.00000000E+00
  0.00000000E+00  0.00000000E+00  0.00000000E+00
  0.00000000E+00  0.00000000E+00  0.00000000E+00
  0.00000000E+00  0.00000000E+00  0.00000000E+00
  0.00000000E+00  0.00000000E+00  0.00000000E+00
  0.00000000E+00  0.00000000E+00  0.00000000E+00
  0.00000000E+00  0.00000000E+00  0.00000000E+00
  0.00000000E+00  0.00000000E+00  0.00000000E+00
  0.00000000E+00  0.00000000E+00  0.00000000E+00
  0.00000000E+00  0.00000000E+00  0.00000000E+00
  0.00000000E+00  0.00000000E+00  0.00000000E+00
  0.00000000E+00  0.00000000E+00  0.00000000E+00
  0.00000000E+00  0.00000000E+00  0.00000000E+00
  0.00000000E+00  0.00000000E+00  0.00000000E+00
  0.00000000E+00  0.00000000E+00  0.00000000E+00
  0.00000000E+00  0.00000000E+00  0.00000000E+00
  0.00000000E+00  0.00000000E+00  0.00000000E+00
  0.00000000E+00  0.00000000E+00  0.00000000E+00
  0.00000000E+00  0.00000000E+00  0.00000000E+00
  0.00000000E+00  0.00000000E+00  0.00000000E+00
  0.00000000E+00  0.00000000E+00  0.00000000E+00
  0.00000000E+00  0.00000000E+00  0.00000000E+00
  0.00000000E+00  0.00000000E+00  0.00000000E+00
  0.00000000E+00  0.00000000E+00  0.00000000E+00
  0.00000000E+00  0.00000000E+00  0.00000000E+00
  0.00000000E+00  0.00000000E+00  0.00000000E+00
  0.00000000E+00  0.00000000E+00  0.00000000E+00
  0.00000000E+00  0.00000000E+00  0.00000000E+00
  0.00000000E+00  0.00000000E+00  0.00000000E+00
  0.00000000E+00  0.00000000E+00  0.00000000E+00
  0.00000000E+00  0.00000000E+00  0.00000000E+00
  0.00000000E+00  0.00000000E+00  0.00000000E+00
  0.00000000E+00  0.00000000E+00  0.00000000E+00
  0.00000000E+00  0.00000000E+00  0.00000000E+00
  0.00000000E+00  0.00000000E+00  0.00000000E+00
  0.00000000E+00  0.00000000E+00  0.00000000E+00
  0.00000000E+00  0.00000000E+00  0.00000000E+00
  0.00000000E+00  0.00000000E+00  0.00000000E+00
  0.00000000E+00  0.00000000E+00  0.00000000E+00
  0.00000000E+00  0.00000000E+00  0.00000000E+00
  0.00000000E+00  0.00000000E+00  0.00000000E+00
  0.00000000E+00  0.00000000E+00  0.00000000E+00
  0.00000000E+00  0.00000000E+00  0.00000000E+00
  0.00000000E+00  0.00000000E+00  0.00000000E+00
