Cu	N	Ru	Ta                              
   1.00000000000000     
    18.1096308199999996    0.0000000000000000    0.0000000000000000
     0.0000000000000000   23.3551997799999995    0.0000000000000000
     0.0000000000000000    0.0000000000000000   30.4818171199999988
   Cu   N    Ru   Ta
     3   240    36   204
Selective dynamics
Direct
  0.5822354959823801  0.4392517371746223  0.6155626227841507   T   T   T
  0.4677966719770378  0.4902115340199006  0.6295230365697553   T   T   T
  0.4693481995540687  0.3897678601488761  0.6343792408544152   T   T   T
  0.0000447479760891  0.8743072071561252  0.4735433893182899   T   T   T
  0.0001632152471996  0.3743147993781461  0.4734862070174419   T   T   T
  0.0007546365873381  0.7508357331636546  0.3024712727493721   F   F   F
  0.0007546365873381  0.2508357331636546  0.3024712727493721   F   F   F
  0.0007971388342227  0.6259226757939587  0.3025555019798603   F   F   F
  0.0007971388342227  0.1259226757939587  0.3025555019798603   F   F   F
  0.0009289261701255  0.8759179472966139  0.3027706837052264   F   F   F
  0.0009289261701255  0.3759179472966139  0.3027706837052264   F   F   F
  0.0009959888293309  0.0008861705399639  0.3028813086718003   F   F   F
  0.0009959888293309  0.5008861705399639  0.3028813086718003   F   F   F
  0.0022284100067009  0.0003913119016512  0.4726122837751843   T   T   T
  0.0023353434256092  0.5003933241105625  0.4725131102667761   T   T   T
  0.5628559086392483  0.7614992726458080  0.5807834937840474   T   T   T
  0.5628965486490096  0.2632427247831468  0.5805498133361736   T   T   T
  0.5944407181460178  0.8759335502460033  0.2316533513143781   F   F   F
  0.5944407181460178  0.3759335502460033  0.2316533513143781   F   F   F
  0.5944879250719026  0.6260651198762730  0.2317376786361365   F   F   F
  0.5944879250719026  0.1260651198762730  0.2317376786361365   F   F   F
  0.5945319922319641  0.7509793277392376  0.2318466107902424   F   F   F
  0.5945319922319641  0.2509793277392376  0.2318466107902424   F   F   F
  0.5946973191803622  0.0011281697544092  0.2317203788144795   F   F   F
  0.5946973191803622  0.5011281697544092  0.2317203788144795   F   F   F
  0.5992702459242308  0.7515912673392082  0.4022928977720681   T   T   T
  0.6045748003065758  0.3783796394478882  0.5717273172818629   T   T   T
  0.5994095051941347  0.2514582287852761  0.4021882519772598   T   T   T
  0.5999826764420215  0.6265350565942903  0.4015791380997397   T   T   T
  0.6005095673644140  0.3759670341862868  0.4013593166333650   T   T   T
  0.5999280416190066  0.1263705778976579  0.4014448900427809   T   T   T
  0.6002734221512236  0.8760343808300841  0.4012612920592787   T   T   T
  0.6008938876500216  0.5012480447350220  0.4011304104536084   T   T   T
  0.6007239248177861  0.0013316011335336  0.4009110132731591   T   T   T
  0.6046930653469332  0.9981850529001889  0.5689744567919346   T   T   T
  0.6046551138829310  0.8767541498658868  0.5689412148886210   T   T   T
  0.6038333008018802  0.4979272443856823  0.5709550547548341   T   T   T
  0.6133339413644343  0.1415912850732477  0.5676346838902273   T   T   T
  0.6141257149695379  0.6411361311315474  0.5672865141783737   T   T   T
  0.6482275513876730  0.7510942784440150  0.4873271564005260   T   T   T
  0.6484255779172935  0.2502090215982876  0.4873060005257820   T   T   T
  0.6524756593400859  0.6263771120567848  0.4852499759501501   T   T   T
  0.6535728591975480  0.3787726703814974  0.4857136573073537   T   T   T
  0.6522386494963774  0.1257711875249365  0.4853428165922801   T   T   T
  0.6537455054990605  0.8794525342897179  0.4847604441401113   T   T   T
  0.6555400113786020  0.4990370600712296  0.4864880752515773   T   T   T
  0.6549923804575926  0.7511371041673840  0.3152775575080256   F   F   F
  0.6549923804575926  0.2511371041673840  0.3152775575080256   F   F   F
  0.6552153403744344  0.9990195802245380  0.4858498180594636   T   T   T
  0.6552059756456146  0.6260466862938543  0.3150601846403305   F   F   F
  0.6552059756456146  0.1260466862938543  0.3150601846403305   F   F   F
  0.6552570788408829  0.8758846061131820  0.3149041322638837   F   F   F
  0.6552570788408829  0.3758846061131820  0.3149041322638837   F   F   F
  0.6554052259801963  0.0012023099894023  0.3149218625060755   F   F   F
  0.6554052259801963  0.5012023099894023  0.3149218625060755   F   F   F
  0.0694584837349787  0.1312542844800337  0.5733926088777617   T   T   T
  0.0700651679466803  0.6309078600081008  0.5734794376687085   T   T   T
  0.7278406916712409  0.7621714691308950  0.5565673199237170   T   T   T
  0.7283815997871168  0.2629278056025597  0.5565792228528892   T   T   T
  0.7584463068330396  0.3826052409572137  0.5561921701608028   T   T   T
  0.7502772608828882  0.7509303630732511  0.3870193065617551   T   T   T
  0.7503468002856597  0.2508785946574904  0.3870044679929346   T   T   T
  0.7503837756312706  0.8759246053428527  0.1980143607002915   F   F   F
  0.7503837756312706  0.3759246053428527  0.1980143607002915   F   F   F
  0.7506832933348849  0.6259904588200592  0.3867841562668430   T   T   T
  0.7504065850415813  0.0010474442621131  0.1995662990185920   F   F   F
  0.7504065850415813  0.5010474442621131  0.1995662990185920   F   F   F
  0.7504116177228610  0.6259067547141299  0.1982016356247982   F   F   F
  0.7504116177228610  0.1259067547141299  0.1982016356247982   F   F   F
  0.7504539896523426  0.7509563452768688  0.1993173260006742   F   F   F
  0.7504539896523426  0.2509563452768688  0.1993173260006742   F   F   F
  0.7509362155910225  0.3761671575623853  0.3860565877054849   T   T   T
  0.7507090274391359  0.1259494642789801  0.3868452028154304   T   T   T
  0.7508823975605948  0.8762188809678418  0.3859524481466588   T   T   T
  0.7513035934888208  0.5009562169882160  0.3867625290065128   T   T   T
  0.7512594253705336  0.0009031494243622  0.3867212359270016   T   T   T
  0.7576356678349488  0.8826812628796308  0.5562276317879138   T   T   T
  0.7656207694578891  0.9978308226889724  0.5563694552557037   T   T   T
  0.7660988558649315  0.4974443571442347  0.5566094504835771   T   T   T
  0.7716751622532229  0.1389850823666167  0.5567793997667958   T   T   T
  0.7724489652621966  0.6386464801494766  0.5573128664258243   T   T   T
  0.0803256216039571  0.7419834001771419  0.5722377945088556   T   T   T
  0.0806455016072324  0.2420156942777520  0.5718643221625976   T   T   T
  0.8457971856104365  0.7508865770875488  0.3147238720130474   F   F   F
  0.8457971856104365  0.2508865770875488  0.3147238720130474   F   F   F
  0.8459094352758285  0.6257770200071491  0.3148105564777453   F   F   F
  0.8459094352758285  0.1257770200071491  0.3148105564777453   F   F   F
  0.8466465065277172  0.2542792240399026  0.4849482712568706   T   T   T
  0.8459894799777032  0.8758569369000710  0.3146601051453359   F   F   F
  0.8459894799777032  0.3758569369000710  0.3146601051453359   F   F   F
  0.8462370857983075  0.0009253177109869  0.3148622358114821   F   F   F
  0.8462370857983075  0.5009253177109869  0.3148622358114821   F   F   F
  0.8465474477685995  0.7542866877301490  0.4850453039807082   T   T   T
  0.8496093441060522  0.3731107625356728  0.4852009093702380   T   T   T
  0.8496958732196139  0.6249105148831184  0.4847170295100678   T   T   T
  0.8496405953383833  0.8729760282220324  0.4851889770226425   T   T   T
  0.8497772466112512  0.1250192975884820  0.4847434882163843   T   T   T
  0.8520957521519107  0.0010494098427051  0.4859543499319195   T   T   T
  0.8521794607967956  0.5011444874373138  0.4859669005093927   T   T   T
  0.0879790089172875  0.8618294361763684  0.5740868186970126   T   T   T
  0.8962382503424862  0.8701190606669866  0.5715331230167894   T   T   T
  0.8968102580678924  0.3698855851885208  0.5714925272221989   T   T   T
  0.8978469137037698  0.7487768565590560  0.5672104548265023   T   T   T
  0.8978278588910631  0.2485025503331743  0.5670950303758189   T   T   T
  0.9006890309955254  0.2505588317885553  0.4005874292635353   T   T   T
  0.9006873169640993  0.7505177468359471  0.4006078911849416   T   T   T
  0.9012003033542161  0.6257583406917815  0.4011704115711269   T   T   T
  0.9012043208869688  0.1257111848097767  0.4012086253598169   T   T   T
  0.9020047600875079  0.3759718049042245  0.4008493623648725   T   T   T
  0.9019376086258784  0.8759283015588896  0.4008652604566939   T   T   T
  0.9024561206464984  0.1063803495294241  0.5674363730859138   T   T   T
  0.9022848983070871  0.5005929329892542  0.4012540332314044   T   T   T
  0.9022448914788390  0.0005679857251885  0.4012635602402246   T   T   T
  0.9029912089730193  0.6064738088474536  0.5672634826566781   T   T   T
  0.9063370116785165  0.7509661375287990  0.2314450664875594   F   F   F
  0.9063370116785165  0.2509661375287990  0.2314450664875594   F   F   F
  0.9065036119825223  0.6258452416457985  0.2314281613274076   F   F   F
  0.9065036119825223  0.1258452416457985  0.2314281613274076   F   F   F
  0.9065431196901699  0.0009511492176983  0.2315080614196674   F   F   F
  0.9065431196901699  0.5009511492176983  0.2315080614196674   F   F   F
  0.9067333030259945  0.8759844438376305  0.2313964578368939   F   F   F
  0.9067333030259945  0.3759844438376305  0.2313964578368939   F   F   F
  0.0887276935652631  0.3617785750405307  0.5739489308119318   T   T   T
  0.9241373665944457  0.9834947830430172  0.5699336667664113   T   T   T
  0.9242919420303680  0.4835120025262243  0.5701543503710887   T   T   T
  0.0952407101582224  0.7510020395980561  0.2320892091881959   F   F   F
  0.0952407101582224  0.2510020395980561  0.2320892091881959   F   F   F
  0.0953260277450525  0.0008979764762245  0.2323666739458474   F   F   F
  0.0953260277450525  0.5008979764762245  0.2323666739458474   F   F   F
  0.0953735919394063  0.6258547564434522  0.2322437075234305   F   F   F
  0.0953735919394063  0.1258547564434522  0.2322437075234305   F   F   F
  0.0955543013107132  0.8759987254538473  0.2323923499085652   F   F   F
  0.0955543013107132  0.3759987254538473  0.2323923499085652   F   F   F
  0.0995209574778794  0.2509048323717743  0.4016909449897018   T   T   T
  0.0994659471247192  0.6251771742531751  0.4016553533007407   T   T   T
  0.0994036872052443  0.1252527850776262  0.4016148016833420   T   T   T
  0.0995334923611775  0.7509306268049980  0.4017823007339747   T   T   T
  0.9985624630246903  0.2504931672882271  0.4723025327133619   T   T   T
  0.9985613293365739  0.6244558566981724  0.4720293930977084   T   T   T
  0.9985573400761039  0.1244996813451234  0.4720207528737146   T   T   T
  0.9985685398537706  0.7504884073749163  0.4723290421303594   T   T   T
  0.1004129094460139  0.3756268874644746  0.4028366417042483   T   T   T
  0.1003421046517994  0.8756103653889613  0.4028960333112988   T   T   T
  0.1009040352145206  0.5011952370192660  0.4028101695653204   T   T   T
  0.1007960780083094  0.0011934482874031  0.4028568749606574   T   T   T
  0.1047480908824733  0.0005722320230187  0.5671102805004508   T   T   T
  0.1047022978215891  0.5006429151937253  0.5668514927420155   T   T   T
  0.1482985761838819  0.6283136216755246  0.4859806381925090   T   T   T
  0.1485777524849437  0.7459984870093090  0.4872258773404269   T   T   T
  0.1483137630630814  0.1283839131673285  0.4858928393742349   T   T   T
  0.1486653109807242  0.2460183104491762  0.4869557211893713   T   T   T
  0.1535184215237783  0.8763928204562508  0.4879466656268475   T   T   T
  0.1536017961796002  0.3762396629292227  0.4877970396599925   T   T   T
  0.1550602620381459  0.0014816375246350  0.4871420885523741   T   T   T
  0.1552424139023544  0.5014204975567622  0.4870066724105240   T   T   T
  0.1554278840897965  0.7509669489112838  0.3157714680232928   F   F   F
  0.1554278840897965  0.2509669489112767  0.3157714680232928   F   F   F
  0.1555300833018336  0.8760083006234964  0.3161854069282626   F   F   F
  0.1555300833018336  0.3760083006234964  0.3161854069282626   F   F   F
  0.1556347359045702  0.6258770940815310  0.3158690852351640   F   F   F
  0.1556347359045702  0.1258770940815310  0.3158690852351640   F   F   F
  0.1557688557010550  0.0008265358541948  0.3160543218953578   F   F   F
  0.1557688557010550  0.5008265358541948  0.3160543218953578   F   F   F
  0.2097037663091174  0.1123012424615439  0.5661146696134018   T   T   T
  0.2104897914485133  0.6126345903994399  0.5660138249917376   T   T   T
  0.2219005770670534  0.7499969576898061  0.5630271291262080   T   T   T
  0.2228376859342380  0.2494782426795451  0.5621791910745014   T   T   T
  0.2501919688806696  0.7512619967353731  0.3877000556916296   T   T   T
  0.2501951862953258  0.2513002539643894  0.3876851563865610   T   T   T
  0.2505245170746781  0.6255272534339849  0.3887321417205529   T   T   T
  0.2504810889801942  0.1255148652465158  0.3886989720919630   T   T   T
  0.2509998705595054  0.3756270199488463  0.3887760646866878   T   T   T
  0.2506886730670530  0.7509740783728773  0.1986783637654739   F   F   F
  0.2506886730670530  0.2509740783728773  0.1986783637654739   F   F   F
  0.2507303928573421  0.8760426103278647  0.2004520155719618   F   F   F
  0.2507303928573421  0.3760426103278647  0.2004520155719618   F   F   F
  0.2509200644355172  0.8756164030395737  0.3887636183898200   T   T   T
  0.2507787477911734  0.6260460958471867  0.2004465916827201   F   F   F
  0.2507787477911734  0.1260460958471867  0.2004465916827201   F   F   F
  0.2507842901460080  0.0010521164550710  0.1987081864626035   F   F   F
  0.2507842901460080  0.5010521164550710  0.1987081864626035   F   F   F
  0.2512698754729633  0.5013579756137443  0.3881157102055137   T   T   T
  0.2511389759435590  0.0013737367335094  0.3880382466945783   T   T   T
  0.2808977437265005  0.5002691858188771  0.5642404696942834   T   T   T
  0.2815510490397286  0.0002070511160970  0.5647506138380803   T   T   T
  0.2870111135261885  0.3658027808168821  0.5646371652373156   T   T   T
  0.2892037316278858  0.8649551003533470  0.5649243620509574   T   T   T
  0.3452689030671034  0.7520398030615191  0.4858583605225140   T   T   T
  0.3457709857389588  0.7509801434034244  0.3160634932646005   F   F   F
  0.3457709857389588  0.2509801434034244  0.3160634932646005   F   F   F
  0.3458124879654534  0.8762438730036024  0.3160546332285037   F   F   F
  0.3458124879654534  0.3762438730036024  0.3160546332285037   F   F   F
  0.3458692307014104  0.0011300682609701  0.3160825482309733   F   F   F
  0.3458692307014104  0.5011300682609701  0.3160825482309733   F   F   F
  0.3458914509224655  0.6260993829100983  0.3163092197569100   F   F   F
  0.3458914509224655  0.1260993829100983  0.3163092197569100   F   F   F
  0.3454591182394058  0.2519946534075446  0.4858311118190572   T   T   T
  0.3478901384493922  0.6270154873802984  0.4879538012110929   T   T   T
  0.3477235963503174  0.1269084132367588  0.4880498921714217   T   T   T
  0.3523814436089368  0.9971520058642447  0.4877529931103052   T   T   T
  0.3527574450541869  0.4972327177255920  0.4879794162392790   T   T   T
  0.3531015495834803  0.8787014722867240  0.4867579411642638   T   T   T
  0.3533213399124765  0.3784941748325772  0.4869180334873839   T   T   T
  0.3887181054114455  0.7530438711817574  0.5654698090664343   T   T   T
  0.3888926712994652  0.2537387073280694  0.5655091063281434   T   T   T
  0.4008618197264941  0.7517155025400495  0.4025802342383249   T   T   T
  0.4008430306428026  0.2517355307200999  0.4025303766247354   T   T   T
  0.4014359297290968  0.6260406827785665  0.4030033408721088   T   T   T
  0.4013227932054320  0.1260305193317262  0.4029573405561170   T   T   T
  0.4020498143522561  0.5015956383419186  0.4023348134194713   T   T   T
  0.4018724614979235  0.0016612158878075  0.4022309779000430   T   T   T
  0.4021110736478730  0.3758897349481879  0.4020601758395406   T   T   T
  0.4020935143551649  0.8758406035022007  0.4021265985413917   T   T   T
  0.4059113337573805  0.8760558925948985  0.2324750129594619   F   F   F
  0.4059113337573805  0.3760558925948985  0.2324750129594619   F   F   F
  0.4059234726022964  0.6261621252550071  0.2326545521246786   F   F   F
  0.4059234726022964  0.1261621252550071  0.2326545521246786   F   F   F
  0.4060644417929637  0.7510364413590125  0.2325227387887452   F   F   F
  0.4060644417929637  0.2510364413590125  0.2325227387887452   F   F   F
  0.4061374416245584  0.0011248655651599  0.2324172293308493   F   F   F
  0.4061374416245584  0.5011248655651599  0.2324172293308493   F   F   F
  0.4164886744163440  0.1138093030199592  0.5726629352459265   T   T   T
  0.4169228356710150  0.6136624754991524  0.5730773212235174   T   T   T
  0.4211964726885674  0.4958665471717463  0.5743055589295052   T   T   T
  0.4252465214912532  0.9952018995672632  0.5720692490767325   T   T   T
  0.4337663752627527  0.3839492122304392  0.5769165718525465   T   T   T
  0.4353759336427278  0.8885586271763297  0.5752915782403647   T   T   T
  0.4985085552296267  0.7519977308799164  0.4735443595498189   T   T   T
  0.4986945924183845  0.2517709010353101  0.4733544062772775   T   T   T
  0.5004630585837617  0.7510598909550410  0.3031888444713573   F   F   F
  0.5004630585837617  0.2510598909550410  0.3031888444713573   F   F   F
  0.5004977600090044  0.6261199205207575  0.3031516629609641   F   F   F
  0.5004977600090044  0.1261199205207575  0.3031516629609641   F   F   F
  0.5005209432535551  0.8761149809355189  0.3028206587442455   F   F   F
  0.5005209432535551  0.3761149809355189  0.3028206587442455   F   F   F
  0.5006083602757840  0.0011215981985515  0.3028334437431965   F   F   F
  0.5006083602757840  0.5011215981985515  0.3028334437431965   F   F   F
  0.5017521403725330  0.6272666258732433  0.4740994974661645   T   T   T
  0.5025083116312482  0.3767334809454465  0.4718684010247939   T   T   T
  0.5015980953669860  0.1272593979333627  0.4739593091933704   T   T   T
  0.5025120591694540  0.8771007861204934  0.4729422256925951   T   T   T
  0.5032293847980649  0.5017472063401799  0.4726325205881854   T   T   T
  0.5029069787385630  0.0018036913985653  0.4726432685653241   T   T   T
  0.0042674156207249  0.9975466979198967  0.5406542021114855   T   T   T
  0.0042447640995841  0.4972503845310813  0.5405275231167928   T   T   T
  0.6265265916718545  0.8002105649162969  0.5464962493517099   T   T   T
  0.6264717956777548  0.0682149550360738  0.5397198336526126   T   T   T
  0.6280528603157024  0.5676803819441862  0.5387549915744295   T   T   T
  0.6259066469446631  0.3017002175226073  0.5456897170531035   T   T   T
  0.6990470384572708  0.1892165312323123  0.5382508993906289   T   T   T
  0.6996220732113007  0.6878689564869942  0.5381546586406428   T   T   T
  0.8070710582256464  0.5664687861326531  0.5373502932888152   T   T   T
  0.8067703107549798  0.0665594338707127  0.5372655228344492   T   T   T
  0.8462695236196179  0.9371134117763924  0.5366166577079692   T   T   T
  0.8471819304922250  0.4369329053917641  0.5367535632423887   T   T   T
  0.8744160210866379  0.6772539447958743  0.5419450573348132   T   T   T
  0.8736298811702378  0.1770651471549221  0.5419887971346258   T   T   T
  0.9966606941680095  0.6159960710993378  0.5395424462496045   T   T   T
  0.9961899800221214  0.1159215225151574  0.5395114686045902   T   T   T
  0.9962009439742544  0.7538510339599123  0.5394079892992821   T   T   T
  0.9963828229768233  0.2540587528054878  0.5393745303262441   T   T   T
  0.1207340905852695  0.9286533033628763  0.5431315627047256   T   T   T
  0.1211587993157069  0.4286580227480580  0.5428643369112385   T   T   T
  0.1406647329383854  0.8027021938594395  0.5413687413134652   T   T   T
  0.1412735065849137  0.3025808031616638  0.5410868069787351   T   T   T
  0.2022224622444216  0.0409910785678588  0.5428895772859887   T   T   T
  0.2017006268416912  0.5416296476741111  0.5428113448099244   T   T   T
  0.2984801397010194  0.7944171967605179  0.5411234568679377   T   T   T
  0.2984797881903179  0.2951309134235841  0.5406807006943282   T   T   T
  0.3622075602480438  0.0545083744038570  0.5414631763841239   T   T   T
  0.3613320201487376  0.5548995378288816  0.5414881917031115   T   T   T
  0.3771250145398289  0.6787538160805578  0.5419299435375139   T   T   T
  0.3768481555606799  0.1793553539966143  0.5418409853322842   T   T   T
  0.4876716320716641  0.7522083411519319  0.5417241059820812   T   T   T
  0.4879218897756016  0.2526786917222685  0.5415913077041976   T   T   T
  0.5084135848926671  0.4986834288890540  0.5398126935592216   T   T   T
  0.5092722991085007  0.9983222840903009  0.5399158103848887   T   T   T
  0.5107988372536296  0.3820918616785763  0.5390542662194149   T   T   T
  0.5112831907686953  0.8828390516885175  0.5404954065195671   T   T   T
  0.0004312741279105  0.6256010175216308  0.3691426243856370   T   T   T
  0.0003946904468338  0.1255992295161653  0.3691339326961316   T   T   T
  0.0004701394177532  0.7509057124290308  0.3690203426780511   T   T   T
  0.0010343750342656  0.7509675273691911  0.1970340395507222   F   F   F
  0.0010343750342656  0.2509675273691911  0.1970340395507222   F   F   F
  0.0018019105261231  0.3758353334315489  0.3694328903211188   T   T   T
  0.0013074606674977  0.0009931951008113  0.1970949867046485   F   F   F
  0.0013074606674977  0.5009931951008113  0.1970949867046485   F   F   F
  0.0019676590317844  0.5006574054168714  0.3696110279135216   T   T   T
  0.0014056432322107  0.6258753569951239  0.1970772590869743   F   F   F
  0.0014056432322107  0.1258753569951239  0.1970772590869743   F   F   F
  0.0016300205284878  0.8760244032474702  0.1970602374639512   F   F   F
  0.0016300205284878  0.3760244032474702  0.1970602374639512   F   F   F
  0.0017234223696471  0.8758255621815665  0.3694340309291866   T   T   T
  0.0019223651315267  0.0006445003162969  0.3696100453685797   T   T   T
  0.5828489970288615  0.8134981673875430  0.2835797008416634   F   F   F
  0.5828489970288615  0.3134981673875430  0.2835797008416634   F   F   F
  0.5829043521053947  0.6885407361734863  0.2836251512160501   F   F   F
  0.5829043521053947  0.1885407361734863  0.2836251512160501   F   F   F
  0.5829602019462925  0.4385545752758304  0.2833243807611936   F   F   F
  0.5829602019462925  0.9385545752758304  0.2833243807611936   F   F   F
  0.5830265959005345  0.5635893986773652  0.2835447360626375   F   F   F
  0.5830265959005345  0.0635893986773652  0.2835447360626375   F   F   F
  0.5844797889145713  0.6893920894444125  0.4537364134951321   T   T   T
  0.5844619433562844  0.8146616504704224  0.4552920999498200   T   T   T
  0.5858500066767063  0.4389401188178274  0.4528512859474675   T   T   T
  0.5844922915036009  0.1890509660874386  0.4535004256246929   T   T   T
  0.5846834008554598  0.3142951932363838  0.4552311936354476   T   T   T
  0.5856721140165770  0.9391418723816424  0.4525615166238758   T   T   T
  0.5868869890015886  0.5633665935835678  0.4536399053900332   T   T   T
  0.5865229204485979  0.0633215185968355  0.4533944946284864   T   T   T
  0.6662453414939336  0.5635923628994988  0.2021068355520654   F   F   F
  0.6662453414939336  0.0635923628994988  0.2021068355520654   F   F   F
  0.6663404610475681  0.8134949072998268  0.2022484366903115   F   F   F
  0.6663404610475681  0.3134949072998268  0.2022484366903115   F   F   F
  0.6663750951053373  0.6883939277525641  0.2022233082671292   F   F   F
  0.6663750951053373  0.1883939277525641  0.2022233082671292   F   F   F
  0.6663864277493872  0.4383644600106251  0.2021335334354930   F   F   F
  0.6663864277493872  0.9383644600106251  0.2021335334354930   F   F   F
  0.6682011139450199  0.6887544814862726  0.3676988004964786   T   T   T
  0.6681267610410092  0.8135825567628449  0.3679000617283263   T   T   T
  0.6682272760147822  0.3135642774614470  0.3678978022425121   T   T   T
  0.6683320710552544  0.1886694731420581  0.3676385711733740   T   T   T
  0.6687335774120177  0.5637251450254782  0.3675905663949889   T   T   T
  0.6688496518506445  0.4385791416257465  0.3671348465155845   T   T   T
  0.6687724154746739  0.9386018357415922  0.3669557567525505   T   T   T
  0.6688451047508920  0.0636947255460520  0.3675043760305377   T   T   T
  0.6758799108554039  0.9360439115330291  0.5401363859608093   T   T   T
  0.6781856993522621  0.4363377120154652  0.5400227768913030   T   T   T
  0.7475952097921829  0.7522516023724585  0.4552467148160848   T   T   T
  0.7476851982444302  0.2521641076030392  0.4551805898994942   T   T   T
  0.7501730562611186  0.7507079098083409  0.2774330469442816   F   F   F
  0.7501730562611186  0.2507079098083409  0.2774330469442816   F   F   F
  0.7504362135224871  0.6261865947375024  0.4547780404375337   T   T   T
  0.7502748449266368  0.1258822099893608  0.4549164280269437   T   T   T
  0.7512926254052282  0.3756408798278607  0.4537029717137899   T   T   T
  0.7504750055418299  0.6259680682551618  0.2773981497465243   F   F   F
  0.7504750055418299  0.1259680682551618  0.2773981497465243   F   F   F
  0.7505173338481086  0.8759365097582545  0.2770578193141517   F   F   F
  0.7505173338481086  0.3759365097582545  0.2770578193141517   F   F   F
  0.7507337004896470  0.0010587017123740  0.2774432067716575   F   F   F
  0.7507337004896470  0.5010587017123740  0.2774432067716575   F   F   F
  0.7514937242745918  0.8756358823551491  0.4535772600313246   T   T   T
  0.7538756311825959  0.5005061479961845  0.4547103770423941   T   T   T
  0.7538337623703514  0.0008099638823477  0.4546678007517880   T   T   T
  0.0813072329018340  0.6876914745894357  0.4527018941271483   T   T   T
  0.0813820171784906  0.1877190764303631  0.4526477325590518   T   T   T
  0.8270281433583987  0.3144313919604759  0.5405545153022498   T   T   T
  0.8263251071744825  0.8148995061705547  0.5405770240205152   T   T   T
  0.8323509588109189  0.8133592124538797  0.3669980861113256   T   T   T
  0.8324068786654182  0.6882961858026034  0.3671160819544915   T   T   T
  0.8324343566101596  0.1882687885475839  0.3671199916819895   T   T   T
  0.8324052609167020  0.3133639542627120  0.3669639310277822   T   T   T
  0.8329967468240609  0.5633563388572613  0.3673386899640350   T   T   T
  0.8329182627178745  0.0633238749412560  0.3673750539134171   T   T   T
  0.8333737703253968  0.4383618525014884  0.3671855579759110   T   T   T
  0.8333245933532141  0.9383556463451040  0.3671490183770929   T   T   T
  0.8344344719226058  0.6883603527882158  0.2020465356692611   F   F   F
  0.8344344719226058  0.1883603527882158  0.2020465356692611   F   F   F
  0.8344691253071090  0.4383027932291981  0.2021423465583752   F   F   F
  0.8344691253071090  0.9383027932291981  0.2021423465583752   F   F   F
  0.8345236995836203  0.8136019065986346  0.2020593032807980   F   F   F
  0.8345236995836203  0.3136019065986346  0.2020593032807980   F   F   F
  0.8345432068835521  0.5635442939465207  0.2020614199525141   F   F   F
  0.8345432068835521  0.0635442939465207  0.2020614199525141   F   F   F
  0.0835181835032017  0.8134609632527869  0.2839000862688721   F   F   F
  0.0835181835032017  0.3134609632527869  0.2839000862688721   F   F   F
  0.0836480050342630  0.5633752300961916  0.2839758639034855   F   F   F
  0.0836480050342630  0.0633752300961916  0.2839758639034855   F   F   F
  0.0836768758602418  0.6884091217994310  0.2837888281379435   F   F   F
  0.0836768758602418  0.1884091217994310  0.2837888281379435   F   F   F
  0.0836920180794749  0.4383888699923588  0.2841732146708722   F   F   F
  0.0836920180794749  0.9383888699923588  0.2841732146708722   F   F   F
  0.0848409499000018  0.3125636475111036  0.4546486129653994   T   T   T
  0.0848922515639731  0.8126077330180607  0.4547574647612030   T   T   T
  0.0856591218961042  0.5635181678599164  0.4552926313717458   T   T   T
  0.0856303783884068  0.0635904912596754  0.4553105907220777   T   T   T
  0.0862392483382487  0.4381052267903878  0.4550890499965068   T   T   T
  0.0862349505465845  0.9381391358439897  0.4551686212507924   T   T   T
  0.9146556084219957  0.1887771485762892  0.4537312763986106   T   T   T
  0.9146331196664014  0.6887503750347642  0.4537771045355413   T   T   T
  0.9167495313875387  0.3126036321099619  0.4518489383506955   T   T   T
  0.9167674801891381  0.8125498311381792  0.4518722796399635   T   T   T
  0.9175231133550786  0.5628172582424036  0.4529424147777277   T   T   T
  0.9180277870871473  0.4376589573271743  0.4535069913481576   T   T   T
  0.9175667428421468  0.0627673910180270  0.4529742577991958   T   T   T
  0.9179379891008377  0.9376479082256276  0.4534686007679881   T   T   T
  0.9181839152478091  0.6884040565462470  0.2831378587445599   F   F   F
  0.9181839152478091  0.1884040565462470  0.2831378587445599   F   F   F
  0.9183594213103916  0.8134327656776748  0.2832265145484243   F   F   F
  0.9183594213103916  0.3134327656776748  0.2832265145484243   F   F   F
  0.9184058656586132  0.5633566590711467  0.2833389507587185   F   F   F
  0.9184058656586132  0.0633566590711467  0.2833389507587185   F   F   F
  0.9185001265531056  0.4384185648785746  0.2832681567508857   F   F   F
  0.9185001265531056  0.9384185648785746  0.2832681567508857   F   F   F
  0.9913141790268836  0.8664609058235875  0.5418515539186429   T   T   T
  0.9919478461179162  0.3663210992497256  0.5418104448707263   T   T   T
  0.0004485289242998  0.2509123757666420  0.3690022133516965   T   T   T
  0.1526427203394024  0.6803613478919971  0.5438203304375554   T   T   T
  0.1531375456696335  0.1798376775474457  0.5438373369011883   T   T   T
  0.1667765378554549  0.5633392265506032  0.2026421323795375   F   F   F
  0.1667765378554549  0.0633392265506032  0.2026421323795375   F   F   F
  0.1668059973185052  0.6886073834303943  0.2025943133799615   F   F   F
  0.1668059973185052  0.1886073834303943  0.2025943133799615   F   F   F
  0.1668155121452699  0.8133424731509606  0.2025799106952988   F   F   F
  0.1668155121452699  0.3133424731509606  0.2025799106952988   F   F   F
  0.1668272738427916  0.4386259927766716  0.2026791524822329   F   F   F