Mo  S Co                                
   1.00000000000000     
    15.9215000000000000    0.0000000000000000    0.0000000000000000
    -7.9622500000000000   13.7910219999999999    0.0000000000000000
     0.0000000000000000    0.0000000000000000   13.5822000000000003
   Mo   S    Co
    25    49     1
Direct
  0.1298023825423869  0.0669529426157638  0.6765642159310801
  0.1354726980081153  0.2679471289436464  0.6748064209282205
  0.1336042326123348  0.4648949518362429  0.6767021150911248
  0.1323567491459556  0.6658101252828530  0.6788026701384808
  0.1318201800710597  0.8660464686242122  0.6790299658301961
  0.3302100540847590  0.0644840064550465  0.6809580244201996
  0.3328115529827471  0.2656720494566187  0.6807471968521384
  0.3305470404251523  0.4630319794048319  0.6747692129340024
  0.3319076242213868  0.6648236618903596  0.6792279722593477
  0.3317369083919104  0.8655106705081153  0.6804994448905362
  0.5316852619663877  0.0668204006769386  0.6826341317566005
  0.5340081775182171  0.2682908457811166  0.6809625936638355
  0.5315474298399536  0.4687150570295771  0.6765237004027611
  0.5312675550631738  0.6660772252108700  0.6793399448431501
  0.5318995343271382  0.8663692140308967  0.6811547071021167
  0.7321406914539565  0.0666076616406173  0.6812085435991264
  0.7329919706403700  0.2667636392848252  0.6805666636355454
  0.7324435457060900  0.4666779102990262  0.6790527430502422
  0.7322618974203294  0.6669929087719808  0.6786646244700876
  0.7319658225538745  0.8665426484079788  0.6804123086201130
  0.9324327396091903  0.0672329171656969  0.6794040863924167
  0.9336833552136525  0.2665924149858157  0.6793068473878776
  0.9326831660835566  0.4661393707687651  0.6788415898936364
  0.9321280607902054  0.6663643133356487  0.6787013298051221
  0.9315119776973617  0.8662366969378397  0.6786820655817749
  0.0645521377726581  0.1344536357757278  0.5616412661397305
  0.0691087172524050  0.1376443381217598  0.7925406309188290
  0.0659433315296596  0.3312312608589139  0.5614550549995627
  0.0712760496815861  0.3335782493367390  0.7924523066774469
  0.0658208143257824  0.5326508979866986  0.5633685699189570
  0.0667807773871374  0.5317467999899748  0.7926844964858901
  0.0656032077657471  0.7328198515834785  0.5638354179512106
  0.0652773559517570  0.7324785927867836  0.7937883804892394
  0.0645662875554933  0.9324754080446098  0.5630834393737416
  0.0643714048658524  0.9331950123325186  0.7927762391254660
  0.2666866888264394  0.1341797458997931  0.5651769978034835
  0.2571108591581250  0.1258674090438205  0.7956867245949724
  0.2682446902290607  0.3302333102275554  0.5635785031023275
  0.2672478994344019  0.5325356450983278  0.5614167794890932
  0.2649549792525363  0.5272801176392008  0.7924104908810605
  0.2661031835320742  0.7328030828237857  0.5644928205731503
  0.2648716451280464  0.7309541095736733  0.7946435815108259
  0.2657982102517664  0.9326850831629372  0.5648795057911329
  0.2638936148984286  0.9309957042721635  0.7954917667324679
  0.4652289022393958  0.1332830526847175  0.5673641431319041
  0.4637371504558061  0.1347679916249689  0.7986410568519631
  0.4643201289174073  0.3318168075277868  0.5651674988434863
  0.4726227577043929  0.3414255278119498  0.7956484958387904
  0.4640459174467040  0.5339530418790233  0.5615934631668935
  0.4608656859601865  0.5294239361591195  0.7924882027101461
  0.4655795206501523  0.7337482161118629  0.5650920932500938
  0.4645586366617422  0.7318634107987094  0.7951205683725959
  0.4659655494624673  0.9341047055957645  0.5666486660586330
  0.4646701599058431  0.9323564369609940  0.7963601987497952
  0.6644392292294228  0.1325643110985055  0.5666945497422660
  0.6661315212272569  0.1338214619617375  0.7964077875151574
  0.6658405105475609  0.3327047981624176  0.5649185026107233
  0.6674814846483841  0.3346126279017270  0.7955272936386493
  0.6660548084487417  0.5339481548666285  0.5630681337007175
  0.6652972144619085  0.5341535758675846  0.7927655315450153
  0.6650457467361548  0.7337941038818698  0.5645354097063020
  0.6647357856314144  0.7322922051952929  0.7946413198558915
  0.6651386632862994  0.9334223891514952  0.5659998867726088
  0.6655476530829603  0.9329373462679698  0.7961061589020773
  0.8647735717436333  0.1329374031510469  0.5651671879523192
  0.8666496311093823  0.1339440056721628  0.7951963363910366
  0.8657024278641074  0.3323884988873331  0.5645642933641355
  0.8675683396920206  0.3336535001181531  0.7947146801255229
  0.8656719332447054  0.5328810437675671  0.5638604011700750
  0.8660205112741863  0.5332409265469309  0.7938110701561101
  0.8653626329921096  0.7331510805881862  0.5635178316487242
  0.8654042858633630  0.7330868235124299  0.7938113323645126
  0.8647407303539723  0.9334920052816500  0.5645660513427373
  0.8662096455987651  0.9337525881944941  0.7946717200316655
  0.3696593549906950  0.2288970166109294  0.8776376903372309
 
  0.00000000E+00  0.00000000E+00  0.00000000E+00
  0.00000000E+00  0.00000000E+00  0.00000000E+00
  0.00000000E+00  0.00000000E+00  0.00000000E+00
  0.00000000E+00  0.00000000E+00  0.00000000E+00
  0.00000000E+00  0.00000000E+00  0.00000000E+00
  0.00000000E+00  0.00000000E+00  0.00000000E+00
  0.00000000E+00  0.00000000E+00  0.00000000E+00
  0.00000000E+00  0.00000000E+00  0.00000000E+00
  0.00000000E+00  0.00000000E+00  0.00000000E+00
  0.00000000E+00  0.00000000E+00  0.00000000E+00
  0.00000000E+00  0.00000000E+00  0.00000000E+00
  0.00000000E+00  0.00000000E+00  0.00000000E+00
  0.00000000E+00  0.00000000E+00  0.00000000E+00
  0.00000000E+00  0.00000000E+00  0.00000000E+00
  0.00000000E+00  0.00000000E+00  0.00000000E+00
  0.00000000E+00  0.00000000E+00  0.00000000E+00
  0.00000000E+00  0.00000000E+00  0.00000000E+00
  0.00000000E+00  0.00000000E+00  0.00000000E+00
  0.00000000E+00  0.00000000E+00  0.00000000E+00
  0.00000000E+00  0.00000000E+00  0.00000000E+00
  0.00000000E+00  0.00000000E+00  0.00000000E+00
  0.00000000E+00  0.00000000E+00  0.00000000E+00
  0.00000000E+00  0.00000000E+00  0.00000000E+00
  0.00000000E+00  0.00000000E+00  0.00000000E+00
  0.00000000E+00  0.00000000E+00  0.00000000E+00
  0.00000000E+00  0.00000000E+00  0.00000000E+00
  0.00000000E+00  0.00000000E+00  0.00000000E+00
  0.00000000E+00  0.00000000E+00  0.00000000E+00
  0.00000000E+00  0.00000000E+00  0.00000000E+00
  0.00000000E+00  0.00000000E+00  0.00000000E+00
  0.00000000E+00  0.00000000E+00  0.00000000E+00
  0.00000000E+00  0.00000000E+00  0.00000000E+00
  0.00000000E+00  0.00000000E+00  0.00000000E+00
  0.00000000E+00  0.00000000E+00  0.00000000E+00
  0.00000000E+00  0.00000000E+00  0.00000000E+00
  0.00000000E+00  0.00000000E+00  0.00000000E+00
  0.00000000E+00  0.00000000E+00  0.00000000E+00
  0.00000000E+00  0.00000000E+00  0.00000000E+00
  0.00000000E+00  0.00000000E+00  0.00000000E+00
  0.00000000E+00  0.00000000E+00  0.00000000E+00
  0.00000000E+00  0.00000000E+00  0.00000000E+00
  0.00000000E+00  0.00000000E+00  0.00000000E+00
  0.00000000E+00  0.00000000E+00  0.00000000E+00
  0.00000000E+00  0.00000000E+00  0.00000000E+00
  0.00000000E+00  0.00000000E+00  0.00000000E+00
  0.00000000E+00  0.00000000E+00  0.00000000E+00
  0.00000000E+00  0.00000000E+00  0.00000000E+00
  0.00000000E+00  0.00000000E+00  0.00000000E+00
  0.00000000E+00  0.00000000E+00  0.00000000E+00
  0.00000000E+00  0.00000000E+00  0.00000000E+00
  0.00000000E+00  0.00000000E+00  0.00000000E+00
  0.00000000E+00  0.00000000E+00  0.00000000E+00
  0.00000000E+00  0.00000000E+00  0.00000000E+00
  0.00000000E+00  0.00000000E+00  0.00000000E+00
  0.00000000E+00  0.00000000E+00  0.00000000E+00
  0.00000000E+00  0.00000000E+00  0.00000000E+00
  0.00000000E+00  0.00000000E+00  0.00000000E+00
  0.00000000E+00  0.00000000E+00  0.00000000E+00
  0.00000000E+00  0.00000000E+00  0.00000000E+00
  0.00000000E+00  0.00000000E+00  0.00000000E+00
  0.00000000E+00  0.00000000E+00  0.00000000E+00
  0.00000000E+00  0.00000000E+00  0.00000000E+00
  0.00000000E+00  0.00000000E+00  0.00000000E+00
  0.00000000E+00  0.00000000E+00  0.00000000E+00
  0.00000000E+00  0.00000000E+00  0.00000000E+00
  0.00000000E+00  0.00000000E+00  0.00000000E+00
  0.00000000E+00  0.00000000E+00  0.00000000E+00
  0.00000000E+00  0.00000000E+00  0.00000000E+00
  0.00000000E+00  0.00000000E+00  0.00000000E+00
  0.00000000E+00  0.00000000E+00  0.00000000E+00
  0.00000000E+00  0.00000000E+00  0.00000000E+00
  0.00000000E+00  0.00000000E+00  0.00000000E+00
  0.00000000E+00  0.00000000E+00  0.00000000E+00
  0.00000000E+00  0.00000000E+00  0.00000000E+00
  0.00000000E+00  0.00000000E+00  0.00000000E+00
