Co  N  H                                
   1.00000000000000     
     7.4670000076000003    0.0000000000000000    0.0000000000000000
     0.0000000000000000   12.1049995421999999    0.0000000000000000
     0.0000000000000000    0.0000000000000000   22.9036006926999995
   Co   N    H 
    72    18    27
Selective dynamics
Direct
  0.0000000000000000  0.0833299949999997  0.0627399999999980   F   F   F
  0.1666699929999993  0.0833299949999997  0.1568599980000016   F   F   F
 -0.0028181119419991  0.0826125476297722  0.2489760061596099   T   T   T
  0.1674783251096753  0.0866060168429295  0.3447500281013835   T   T   T
  0.0000000000000000  0.2500000000000000  0.0000000000000000   F   F   F
  0.1666699929999993  0.2500000000000000  0.0941099940000001   F   F   F
 -0.0015007899262294  0.2501982181735501  0.1873629757014901   T   T   T
  0.1658065298962719  0.2523577373418326  0.2796311246504383   T   T   T
  0.3333299909999994  0.0833299949999997  0.0627399999999980   F   F   F
  0.5000000000000000  0.0833299949999997  0.1568599980000016   F   F   F
  0.3332890652840209  0.0851641200013897  0.2478388965412487   T   T   T
  0.4986924697020442  0.0859840830953131  0.3464080816639180   T   T   T
  0.3333299909999994  0.2500000000000000  0.0000000000000000   F   F   F
  0.5000000000000000  0.2500000000000000  0.0941099940000001   F   F   F
  0.3332696520771157  0.2500336476574757  0.1862848128814297   T   T   T
  0.5000685063644421  0.2519155354272312  0.2805028666236325   T   T   T
  0.6666700090000006  0.0833299949999997  0.0627399999999980   F   F   F
  0.8333299909999994  0.0833299949999997  0.1568599980000016   F   F   F
  0.6685008418795072  0.0823647988083346  0.2491750420486943   T   T   T
  0.8330630314785433  0.1029557897078920  0.3660464298205232   T   T   T
  0.6666700090000006  0.2500000000000000  0.0000000000000000   F   F   F
  0.8333299909999994  0.2500000000000000  0.0941099940000001   F   F   F
  0.6668998288494066  0.2501288992148433  0.1875843097383189   T   T   T
  0.8322523764326429  0.2477703518378285  0.2862264308747953   T   T   T
  0.0000000000000000  0.4166699760000014  0.0627399999999980   F   F   F
  0.1666699929999993  0.4166699760000014  0.1568599980000016   F   F   F
 -0.0027545307064119  0.4159592196650767  0.2489980289417844   T   T   T
  0.1671243825349907  0.4199308548421903  0.3454022483310992   T   T   T
  0.0000000000000000  0.5833299849999989  0.0000000000000000   F   F   F
  0.1666699929999993  0.5833299849999989  0.0941099940000001   F   F   F
 -0.0014146162496397  0.5835213807214114  0.1874393396667716   T   T   T
  0.1658862970929914  0.5855582364512462  0.2798276491026456   T   T   T
  0.3333299909999994  0.4166699760000014  0.0627399999999980   F   F   F
  0.5000000000000000  0.4166699760000014  0.1568599980000016   F   F   F
  0.3332636300116920  0.4185115142235391  0.2478427775582851   T   T   T
  0.4985145722314317  0.4192728584006603  0.3453679513159541   T   T   T
  0.3333299909999994  0.5833299849999989  0.0000000000000000   F   F   F
  0.5000000000000000  0.5833299849999989  0.0941099940000001   F   F   F
  0.3332902046423718  0.5833974292910462  0.1863250503292160   T   T   T
  0.5002475929136900  0.5855677053193257  0.2802197812197939   T   T   T
  0.6666700090000006  0.4166699760000014  0.0627399999999980   F   F   F
  0.8333299909999994  0.4166699760000014  0.1568599980000016   F   F   F
  0.6685100757702117  0.4156994584740945  0.2490721603922096   T   T   T
  0.8336122164478661  0.4364579759279031  0.3663833529539920   T   T   T
  0.6666700090000006  0.5833299849999989  0.0000000000000000   F   F   F
  0.8333299909999994  0.5833299849999989  0.0941099940000001   F   F   F
  0.6670090542221757  0.5834861422552233  0.1875571425951166   T   T   T
  0.8329870792069664  0.5810239227752464  0.2862589247101839   T   T   T
  0.0000000000000000  0.7500000000000000  0.0627399999999980   F   F   F
  0.1666699929999993  0.7500000000000000  0.1568599980000016   F   F   F
 -0.0022714428941840  0.7491658642567364  0.2490250123267976   T   T   T
  0.1684442226551667  0.7534335557884051  0.3450479030074012   T   T   T
  0.0000000000000000  0.9166700540000008  0.0000000000000000   F   F   F
  0.1666699929999993  0.9166700540000008  0.0941099940000001   F   F   F
 -0.0014403851456615  0.9168851377919022  0.1873628515813483   T   T   T
  0.1661510752034654  0.9189513677003743  0.2796147279371823   T   T   T
  0.3333299909999994  0.7500000000000000  0.0627399999999980   F   F   F
  0.5000000000000000  0.7500000000000000  0.1568599980000016   F   F   F
  0.3335699811519700  0.7518356127474980  0.2478553143356554   T   T   T
  0.4999651769027535  0.7524402297795159  0.3460573506847809   T   T   T
  0.3333299909999994  0.9166700540000008  0.0000000000000000   F   F   F
  0.5000000000000000  0.9166700540000008  0.0941099940000001   F   F   F
  0.3334398199711108  0.9167200762368084  0.1863110890790883   T   T   T
  0.5003423977019540  0.9187781760631728  0.2804895987851412   T   T   T
  0.6666700090000006  0.7500000000000000  0.0627399999999980   F   F   F
  0.8333299909999994  0.7500000000000000  0.1568599980000016   F   F   F
  0.6689308137772452  0.7491111417750915  0.2490647593493950   T   T   T
  0.8342863342388990  0.7698154587190453  0.3660741621102223   T   T   T
  0.6666700090000006  0.9166700540000008  0.0000000000000000   F   F   F
  0.8333299909999994  0.9166700540000008  0.0941099940000001   F   F   F
  0.6670029713651383  0.9168445806844188  0.1875881091849947   T   T   T
  0.8329976099851591  0.9144103611407696  0.2861475884343782   T   T   T
  0.3343338068747589  0.1372029662235304  0.4156179398659293   T   T   T
  0.6593366024991888  0.0464957229702925  0.4201537329614304   T   T   T
  0.0070805615179487  0.0461703127991043  0.4198572428796577   T   T   T
  0.3362706872060193  0.4701223784352815  0.4154384876957008   T   T   T
  0.3381980252275243  0.8039643923078774  0.4155748392974307   T   T   T
  0.6622334229280866  0.3784608187312081  0.4209055843225818   T   T   T
  0.6621353708023505  0.7114537737151887  0.4201589676711061   T   T   T
  0.0098561227568679  0.3798282054563358  0.4195998759296484   T   T   T
  0.0101078184086508  0.7142263362726968  0.4198750604770716   T   T   T
  0.3317923530717712  0.3042824701092494  0.3377759632402964   T   T   T
  0.3330738291020636  0.6377511626268292  0.3377935140211930   T   T   T
  0.3325126813775879  0.9711017969787259  0.3378385571432996   T   T   T
  0.0111103375881299  0.2067139428028701  0.3416157800820305   T   T   T
  0.0117017073467229  0.5406167422874106  0.3421036596703071   T   T   T
  0.0120331832023728  0.8737553681037402  0.3418525817607474   T   T   T
  0.6538080932575927  0.2069278166347888  0.3426427818867017   T   T   T
  0.6544772456585425  0.5393750367292636  0.3422589498249637   T   T   T
  0.6549165090798287  0.8732548988037793  0.3423603223592340   T   T   T
  0.3315424426863829  0.0735120113247949  0.4450271668912948   T   T   T
  0.3534410596563952  0.2075317297622464  0.4402426455770536   T   T   T
  0.7022049505761705 -0.0189963810339076  0.4452787262369581   T   T   T
  0.6175265834454305  0.1060902659837016  0.4488363196638840   T   T   T
  0.9597035685557980 -0.0173365734642643  0.4455026702337130   T   T   T
  0.0559484587062593  0.1050261678094363  0.4477815852401246   T   T   T
  0.3322548077511879  0.4063754367305825  0.4447802897309194   T   T   T
  0.3413552459780583  0.5410005590474540  0.4403780162487489   T   T   T
  0.3327851021161604  0.7402349410447607  0.4449412847417754   T   T   T
  0.3537236773274552  0.8744147632859893  0.4403378686360474   T   T   T
  0.7119935934804928  0.3162769953987974  0.4469569378162239   T   T   T
  0.6121448023475349  0.4375674969864164  0.4484190017832996   T   T   T
  0.7081738964017086  0.6466273520411846  0.4451492746898983   T   T   T
  0.6168611571451559  0.7701137402336921  0.4488137798535908   T   T   T
  0.9679338529441653  0.3138536318540717  0.4445407086176407   T   T   T
  0.0536223378282332  0.4387201510184765  0.4483963628570528   T   T   T
  0.9652538117512760  0.6498419046942409  0.4454002248998046   T   T   T
  0.0558669372226197  0.7737063593509688  0.4479943337156869   T   T   T
  0.3272105995128391  0.2510635616240397  0.3722272004357041   T   T   T
  0.3301054863665012  0.5841567482074553  0.3720800715591262   T   T   T
  0.3262347024695481  0.9174464199021464  0.3721918689878320   T   T   T
  0.0310989979912052  0.2608366933970998  0.3755782590359297   T   T   T
  0.0311331726370561  0.5950811754401865  0.3759330564097284   T   T   T
  0.0310270400504216  0.9279875353002942  0.3758912216480074   T   T   T
  0.6362362465786373  0.2619515765410966  0.3765542727216063   T   T   T
  0.6352648014400089  0.5939781240797474  0.3761231390485929   T   T   T
  0.6364492781662360  0.9280389918032570  0.3760545187164233   T   T   T
 
  0.00000000E+00  0.00000000E+00  0.00000000E+00
  0.00000000E+00  0.00000000E+00  0.00000000E+00
  0.00000000E+00  0.00000000E+00  0.00000000E+00
  0.00000000E+00  0.00000000E+00  0.00000000E+00
  0.00000000E+00  0.00000000E+00  0.00000000E+00
  0.00000000E+00  0.00000000E+00  0.00000000E+00
  0.00000000E+00  0.00000000E+00  0.00000000E+00
  0.00000000E+00  0.00000000E+00  0.00000000E+00
  0.00000000E+00  0.00000000E+00  0.00000000E+00
  0.00000000E+00  0.00000000E+00  0.00000000E+00
  0.00000000E+00  0.00000000E+00  0.00000000E+00
  0.00000000E+00  0.00000000E+00  0.00000000E+00
  0.00000000E+00  0.00000000E+00  0.00000000E+00
  0.00000000E+00  0.00000000E+00  0.00000000E+00
  0.00000000E+00  0.00000000E+00  0.00000000E+00
  0.00000000E+00  0.00000000E+00  0.00000000E+00
  0.00000000E+00  0.00000000E+00  0.00000000E+00
  0.00000000E+00  0.00000000E+00  0.00000000E+00
  0.00000000E+00  0.00000000E+00  0.00000000E+00
  0.00000000E+00  0.00000000E+00  0.00000000E+00
  0.00000000E+00  0.00000000E+00  0.00000000E+00
  0.00000000E+00  0.00000000E+00  0.00000000E+00
  0.00000000E+00  0.00000000E+00  0.00000000E+00
  0.00000000E+00  0.00000000E+00  0.00000000E+00
  0.00000000E+00  0.00000000E+00  0.00000000E+00
  0.00000000E+00  0.00000000E+00  0.00000000E+00
  0.00000000E+00  0.00000000E+00  0.00000000E+00
  0.00000000E+00  0.00000000E+00  0.00000000E+00
  0.00000000E+00  0.00000000E+00  0.00000000E+00
  0.00000000E+00  0.00000000E+00  0.00000000E+00
  0.00000000E+00  0.00000000E+00  0.00000000E+00
  0.00000000E+00  0.00000000E+00  0.00000000E+00
  0.00000000E+00  0.00000000E+00  0.00000000E+00
  0.00000000E+00  0.00000000E+00  0.00000000E+00
  0.00000000E+00  0.00000000E+00  0.00000000E+00
  0.00000000E+00  0.00000000E+00  0.00000000E+00
  0.00000000E+00  0.00000000E+00  0.00000000E+00
  0.00000000E+00  0.00000000E+00  0.00000000E+00
  0.00000000E+00  0.00000000E+00  0.00000000E+00
  0.00000000E+00  0.00000000E+00  0.00000000E+00
  0.00000000E+00  0.00000000E+00  0.00000000E+00
  0.00000000E+00  0.00000000E+00  0.00000000E+00
  0.00000000E+00  0.00000000E+00  0.00000000E+00
  0.00000000E+00  0.00000000E+00  0.00000000E+00
  0.00000000E+00  0.00000000E+00  0.00000000E+00
  0.00000000E+00  0.00000000E+00  0.00000000E+00
  0.00000000E+00  0.00000000E+00  0.00000000E+00
  0.00000000E+00  0.00000000E+00  0.00000000E+00
  0.00000000E+00  0.00000000E+00  0.00000000E+00
  0.00000000E+00  0.00000000E+00  0.00000000E+00
  0.00000000E+00  0.00000000E+00  0.00000000E+00
  0.00000000E+00  0.00000000E+00  0.00000000E+00
  0.00000000E+00  0.00000000E+00  0.00000000E+00
  0.00000000E+00  0.00000000E+00  0.00000000E+00
  0.00000000E+00  0.00000000E+00  0.00000000E+00
  0.00000000E+00  0.00000000E+00  0.00000000E+00
  0.00000000E+00  0.00000000E+00  0.00000000E+00
  0.00000000E+00  0.00000000E+00  0.00000000E+00
  0.00000000E+00  0.00000000E+00  0.00000000E+00
  0.00000000E+00  0.00000000E+00  0.00000000E+00
  0.00000000E+00  0.00000000E+00  0.00000000E+00
  0.00000000E+00  0.00000000E+00  0.00000000E+00
  0.00000000E+00  0.00000000E+00  0.00000000E+00
  0.00000000E+00  0.00000000E+00  0.00000000E+00
  0.00000000E+00  0.00000000E+00  0.00000000E+00
  0.00000000E+00  0.00000000E+00  0.00000000E+00
  0.00000000E+00  0.00000000E+00  0.00000000E+00
  0.00000000E+00  0.00000000E+00  0.00000000E+00
  0.00000000E+00  0.00000000E+00  0.00000000E+00
  0.00000000E+00  0.00000000E+00  0.00000000E+00
  0.00000000E+00  0.00000000E+00  0.00000000E+00
  0.00000000E+00  0.00000000E+00  0.00000000E+00
  0.00000000E+00  0.00000000E+00  0.00000000E+00
  0.00000000E+00  0.00000000E+00  0.00000000E+00
  0.00000000E+00  0.00000000E+00  0.00000000E+00
  0.00000000E+00  0.00000000E+00  0.00000000E+00
  0.00000000E+00  0.00000000E+00  0.00000000E+00
  0.00000000E+00  0.00000000E+00  0.00000000E+00
  0.00000000E+00  0.00000000E+00  0.00000000E+00
  0.00000000E+00  0.00000000E+00  0.00000000E+00
  0.00000000E+00  0.00000000E+00  0.00000000E+00
  0.00000000E+00  0.00000000E+00  0.00000000E+00
  0.00000000E+00  0.00000000E+00  0.00000000E+00
  0.00000000E+00  0.00000000E+00  0.00000000E+00
  0.00000000E+00  0.00000000E+00  0.00000000E+00
  0.00000000E+00  0.00000000E+00  0.00000000E+00
  0.00000000E+00  0.00000000E+00  0.00000000E+00
  0.00000000E+00  0.00000000E+00  0.00000000E+00
  0.00000000E+00  0.00000000E+00  0.00000000E+00
  0.00000000E+00  0.00000000E+00  0.00000000E+00
  0.00000000E+00  0.00000000E+00  0.00000000E+00
  0.00000000E+00  0.00000000E+00  0.00000000E+00
  0.00000000E+00  0.00000000E+00  0.00000000E+00
  0.00000000E+00  0.00000000E+00  0.00000000E+00
  0.00000000E+00  0.00000000E+00  0.00000000E+00
  0.00000000E+00  0.00000000E+00  0.00000000E+00
  0.00000000E+00  0.00000000E+00  0.00000000E+00
  0.00000000E+00  0.00000000E+00  0.00000000E+00
  0.00000000E+00  0.00000000E+00  0.00000000E+00
  0.00000000E+00  0.00000000E+00  0.00000000E+00
  0.00000000E+00  0.00000000E+00  0.00000000E+00
  0.00000000E+00  0.00000000E+00  0.00000000E+00
  0.00000000E+00  0.00000000E+00  0.00000000E+00
  0.00000000E+00  0.00000000E+00  0.00000000E+00
  0.00000000E+00  0.00000000E+00  0.00000000E+00
  0.00000000E+00  0.00000000E+00  0.00000000E+00
  0.00000000E+00  0.00000000E+00  0.00000000E+00
  0.00000000E+00  0.00000000E+00  0.00000000E+00
  0.00000000E+00  0.00000000E+00  0.00000000E+00
  0.00000000E+00  0.00000000E+00  0.00000000E+00
  0.00000000E+00  0.00000000E+00  0.00000000E+00
  0.00000000E+00  0.00000000E+00  0.00000000E+00
  0.00000000E+00  0.00000000E+00  0.00000000E+00
  0.00000000E+00  0.00000000E+00  0.00000000E+00
  0.00000000E+00  0.00000000E+00  0.00000000E+00
  0.00000000E+00  0.00000000E+00  0.00000000E+00
  0.00000000E+00  0.00000000E+00  0.00000000E+00
