System=Co slab
ISTART =0
ISPIN=2
ICHARG=2
ENCUT=400
ISMEAR=0
#SIGMA=0.1
ISIF=2
NSW=1000
IBRION=2
PREC=Normal
MAGMOM=72*1.9  18*0  27*0
SYMPREC = 0.001
NPAR=8
LREAL = Auto
IVDW=11
