Cu	N	Ru	Ta                              
   1.00000000000000     
    18.1096308199999996    0.0000000000000000    0.0000000000000000
     0.0000000000000000   23.3551997799999995    0.0000000000000000
     0.0000000000000000    0.0000000000000000   30.4818171199999988
   Cu   N    Ru   Ta
     4   240    48   192
Selective dynamics
Direct
  0.6056010810847813  0.4424535401670817  0.5858711361713019   T   T   T
  0.4762280937221203  0.4929984029346421  0.6204198837307388   T   T   T
  0.4789659743384183  0.3921183367813537  0.6204854417086879   T   T   T
  0.5570196715290032  0.4435709612856938  0.6671510648107558   T   T   T
  0.0000000000000000  0.0000000000000000  0.3032267788896164   F   F   F
  0.0000000000000000  0.5000000000000000  0.3032267788896164   F   F   F
  0.0000000000000000  0.6249999998929567  0.3032267788896164   F   F   F
  0.0000000000000000  0.7500000002140865  0.3032267788896164   F   F   F
  0.0000000000000000  0.8750000001070433  0.3032267788896164   F   F   F
  0.0000000000000000  0.1249999998929567  0.3032267788896164   F   F   F
  0.0000000000000000  0.2500000002140865  0.3032267788896164   F   F   F
  0.0000000000000000  0.3750000001070433  0.3032267788896164   F   F   F
  0.0004133809160460  0.2491551232684888  0.4697157684161616   T   T   T
  0.9992289567492040  0.8749134698826931  0.4743121306007812   T   T   T
  0.0010868902778748  0.5008729930001566  0.4730919788308035   T   T   T
  0.9989263347371947  0.9993730207248468  0.4712136047521289   T   T   T
  0.0004546773502752  0.7511113677650991  0.4747018545801787   T   T   T
  0.0009781425794557  0.1247988594037183  0.4705984782053179   T   T   T
  0.0025605111299764  0.3721167200000328  0.4745173492453619   T   T   T
  0.0270845382971046  0.2687037783236204  0.5639073676467496   T   T   T
  0.0381349688759870  0.9083904681910144  0.5843129254086360   T   T   T
  0.0537203989381644  0.6818281662786058  0.5499331176693443   T   T   T
  0.5496373529989969  0.8724176739663178  0.5885836620044479   T   T   T
  0.5828327453470120  0.9703811579517869  0.5598905543700439   T   T   T
  0.5858324510958685  0.7641562817626149  0.5644015921238045   T   T   T
  0.5941133989389655  0.0000000000000000  0.2322132027803434   F   F   F
  0.5941133989389655  0.5000000000000000  0.2322132027803434   F   F   F
  0.5941133989389655  0.6249999998929567  0.2322132027803434   F   F   F
  0.5941133989389655  0.7500000002140865  0.2322132027803434   F   F   F
  0.5941133989389655  0.8750000001070433  0.2322132027803434   F   F   F
  0.5941133989389655  0.1249999998929567  0.2322132027803434   F   F   F
  0.5941133989389655  0.2500000002140865  0.2322132027803434   F   F   F
  0.5941133989389655  0.3750000001070433  0.2322132027803434   F   F   F
  0.6055887607095499  0.5228180193614805  0.5728636231915375   T   T   T
  0.0611111789064560  0.0479345127543137  0.5679947138232134   T   T   T
  0.5978802645303430  0.8747755055895747  0.4023084356180066   T   T   T
  0.5982433400116774  0.0006559425654271  0.4018827894886786   T   T   T
  0.5984203118553820  0.7500022862436136  0.4029546820385280   T   T   T
  0.5985851844313778  0.6255637741401280  0.4025385608795730   T   T   T
  0.5985882310634982  0.2502120539722080  0.4023917031371191   T   T   T
  0.5989789806953437  0.1254356720045128  0.4025579506611189   T   T   T
  0.5993642833339862  0.3756762721224486  0.4023990808154670   T   T   T
  0.5994906735249400  0.4998575456391918  0.4025049000228542   T   T   T
  0.6011197621542720  0.1127861753062300  0.5643980360958614   T   T   T
  0.6066985837721760  0.3619947870474607  0.5730053951406202   T   T   T
  0.6457978426892500  0.8760338861074791  0.4867331782914414   T   T   T
  0.6496009099539857  0.6227487215808638  0.4855722460129801   T   T   T
  0.6486772017878430  0.0001309856865000  0.4843460149729782   T   T   T
  0.6496116501464285  0.2526212405753360  0.4861593820890638   T   T   T
  0.6511010436041289  0.7505480987256730  0.4874486663872085   T   T   T
  0.6529837561952098  0.1260529383585465  0.4866462691881049   T   T   T
  0.6529933790568502  0.3769575459842319  0.4861559519480343   T   T   T
  0.6528415982950588  0.4991065822317220  0.4865873698234771   T   T   T
  0.6545990963497701  0.0000000000000000  0.3156671842141137   F   F   F
  0.6545990963497701  0.5000000000000000  0.3156671842141137   F   F   F
  0.6545990963497701  0.6249999998929567  0.3156671842141137   F   F   F
  0.6545990963497701  0.7500000002140865  0.3156671842141137   F   F   F
  0.6545990963497701  0.8750000001070433  0.3156671842141137   F   F   F
  0.6545990963497701  0.1249999998929567  0.3156671842141137   F   F   F
  0.6545990963497701  0.2500000002140865  0.3156671842141137   F   F   F
  0.6545990963497701  0.3750000001070433  0.3156671842141137   F   F   F
  0.6958011908322068  0.2451847239730139  0.5675003678816696   T   T   T
  0.6971860399971613  0.6405514440859158  0.5651839995320820   T   T   T
  0.7098909297957120  0.8735320850635332  0.5601496379051285   T   T   T
  0.7252809517083169  0.0079212123125567  0.5569901081220227   T   T   T
  0.7491784236206240  0.8749645789945332  0.3883450477669294   T   T   T
  0.7499999997239044  0.0000000000000000  0.1996562654398630   F   F   F
  0.7499999997239044  0.5000000000000000  0.1996562654398630   F   F   F
  0.7499999997239044  0.6249999998929567  0.1996562654398630   F   F   F
  0.7499999997239044  0.7500000002140865  0.1996562654398630   F   F   F
  0.7499999997239044  0.8750000001070433  0.1996562654398630   F   F   F
  0.7499999997239044  0.1249999998929567  0.1996562654398630   F   F   F
  0.7499999997239044  0.2500000002140865  0.1996562654398630   F   F   F
  0.7499999997239044  0.3750000001070433  0.1996562654398630   F   F   F
  0.7494314176044224  0.0001748829482690  0.3874756907219382   T   T   T
  0.7496233432870819  0.6252834935330338  0.3873509799916217   T   T   T
  0.7496678110623345  0.7502164137957779  0.3885905095546346   T   T   T
  0.7497297818798907  0.2502610997990270  0.3878803442207057   T   T   T
  0.7498187380947779  0.1252443682392657  0.3878667987873601   T   T   T
  0.7501822452270566  0.5000894436151225  0.3870571261575224   T   T   T
  0.7502581913037435  0.3749995726772719  0.3869517035318359   T   T   T
  0.7583065310489743  0.5155439334049006  0.5576465197576878   T   T   T
  0.7611228933428555  0.3687259933001782  0.5579250626925933   T   T   T
  0.7714576115134361  0.7588773891257226  0.5621568673508632   T   T   T
  0.7777390095755897  0.1238182095275794  0.5637874242851593   T   T   T
  0.8454009036502299  0.0000000000000000  0.3156671842141137   F   F   F
  0.8454009036502299  0.5000000000000000  0.3156671842141137   F   F   F
  0.8454009036502299  0.6249999998929567  0.3156671842141137   F   F   F
  0.8454009036502299  0.7500000002140865  0.3156671842141137   F   F   F
  0.8454009036502299  0.8750000001070433  0.3156671842141137   F   F   F
  0.8454009036502299  0.1249999998929567  0.3156671842141137   F   F   F
  0.8454009036502299  0.2500000002140865  0.3156671842141137   F   F   F
  0.8454009036502299  0.3750000001070433  0.3156671842141137   F   F   F
  0.8454905834522851  0.8788885989182291  0.4844928770408532   T   T   T
  0.8470004720287511  0.9983967437305705  0.4832519609283686   T   T   T
  0.8485101523491789  0.6215782835284819  0.4824925222104328   T   T   T
  0.8500092595628147  0.4980655954236301  0.4844915297060190   T   T   T
  0.8499344262850237  0.2547239280996269  0.4846403825545250   T   T   T
  0.8506171311180931  0.3758630612708440  0.4831555339096191   T   T   T
  0.8508166973004224  0.7503428987709584  0.4889204547743373   T   T   T
  0.8521140357389845  0.1257080581017335  0.4867187929961202   T   T   T
  0.8567732600812128  0.2484339343870009  0.5732357047016923   T   T   T
  0.0907482244324022  0.5148714096080648  0.5668294240464481   T   T   T
  0.8721440188821941  0.6360441914954437  0.5660619627258747   T   T   T
  0.8838657341045212  0.8727885416564585  0.5680382257476331   T   T   T
  0.8953342885246143  0.0143608895199346  0.5654425300280099   T   T   T
  0.8996666824418675  0.7505541954819904  0.4033358558268328   T   T   T
  0.8996799495884573  0.0005798687355016  0.4009613778722192   T   T   T
  0.8997811242001644  0.8741572943407190  0.4017303637951221   T   T   T
  0.9000543240751171  0.1252345671024339  0.4021270935662192   T   T   T
  0.9004432536811008  0.6255337565623745  0.4014200714367933   T   T   T
  0.9006120372439539  0.2497695682423987  0.4010874444147735   T   T   T
  0.9014426486676720  0.4996257779138747  0.4009245156087758   T   T   T
  0.9018117492666297  0.3747738192587559  0.4008111633209697   T   T   T
  0.9100674729861695  0.5120535244331827  0.5704178495579748   T   T   T
  0.9058866010610345  0.0000000000000000  0.2322132027803434   F   F   F
  0.9058866010610345  0.5000000000000000  0.2322132027803434   F   F   F
  0.9058866010610345  0.6249999998929567  0.2322132027803434   F   F   F
  0.9058866010610345  0.7500000002140865  0.2322132027803434   F   F   F
  0.9058866010610345  0.8750000001070433  0.2322132027803434   F   F   F
  0.9058866010610345  0.1249999998929567  0.2322132027803434   F   F   F
  0.9058866010610345  0.2500000002140865  0.2322132027803434   F   F   F
  0.9058866010610345  0.3750000001070433  0.2322132027803434   F   F   F
  0.9157376545275829  0.3738944157326866  0.5622782033773465   T   T   T
  0.9350640880503610  0.7559321854500455  0.5832417009886364   T   T   T
  0.0941133989389655  0.0000000000000000  0.2322132027803434   F   F   F
  0.0941133989389655  0.5000000000000000  0.2322132027803434   F   F   F
  0.0941133989389655  0.6249999998929567  0.2322132027803434   F   F   F
  0.0941133989389655  0.7500000002140865  0.2322132027803434   F   F   F
  0.0941133989389655  0.8750000001070433  0.2322132027803434   F   F   F
  0.0941133989389655  0.1249999998929567  0.2322132027803434   F   F   F
  0.0941133989389655  0.2500000002140865  0.2322132027803434   F   F   F
  0.0941133989389655  0.3750000001070433  0.2322132027803434   F   F   F
  0.9507430971234182  0.1414444201578665  0.5621438783676588   T   T   T
  0.0935610072103111  0.8012519492329722  0.5601707774073518   T   T   T
  0.0986303218913556  0.3768722261154384  0.5732809779240975   T   T   T
  0.0978676744622300  0.7505512477804203  0.4016805001803488   T   T   T
  0.0982651289236192  0.8745374841351928  0.4022987398088080   T   T   T
  0.0982335294236351  0.6249100747622002  0.4012016769039619   T   T   T
  0.0988161681100902  0.9988236810161815  0.4015201358229341   T   T   T
  0.0998915854317058  0.4999959027056431  0.4020471756467640   T   T   T
  0.9982514004862642  0.6252930517330044  0.4725854821999206   T   T   T
  0.0997640888066364  0.1239641607960164  0.4015077095303344   T   T   T
  0.1007402941552694  0.3740477215414364  0.4026428976548438   T   T   T
  0.1005921092187621  0.2499662661949327  0.4015989630541488   T   T   T
  0.1196258655118025  0.1560215926963536  0.5709609440375828   T   T   T
  0.1470054756703021  0.1212749067100770  0.4873585681279657   T   T   T
  0.1466038573691693  0.6255866753923314  0.4828839936320747   T   T   T
  0.1489359213891729  0.9965732649903161  0.4860822270527326   T   T   T
  0.1497907116032520  0.8761986270157029  0.4877543392985593   T   T   T
  0.1512703339141883  0.5001226481072450  0.4862207251331107   T   T   T
  0.1506341191209973  0.2463559544538200  0.4867580878330787   T   T   T
  0.1498516045793083  0.7493022602112369  0.4850262668341769   T   T   T
  0.1523349676519438  0.3747398936314329  0.4875760147415411   T   T   T
  0.1545990963497701  0.0000000000000000  0.3156671842141137   F   F   F
  0.1545990963497701  0.5000000000000000  0.3156671842141137   F   F   F
  0.1545990963497701  0.6249999998929567  0.3156671842141137   F   F   F
  0.1545990963497701  0.7500000002140865  0.3156671842141137   F   F   F
  0.1545990963497701  0.8750000001070433  0.3156671842141137   F   F   F
  0.1545990963497701  0.1249999998929567  0.3156671842141137   F   F   F
  0.1545990963497701  0.2500000002140865  0.3156671842141137   F   F   F
  0.1545990963497701  0.3750000001070433  0.3156671842141137   F   F   F
  0.1921521008665072  0.2757243128421932  0.5700437300088090   T   T   T
  0.1968443256221204  0.6135069431981349  0.5610088906738839   T   T   T
  0.2319669605853012  0.7359376112510053  0.5597252398977409   T   T   T
  0.2484834002252350  0.0232123359351244  0.5499568679523197   T   T   T
  0.2497462139028593  0.8749177523618236  0.3870708436065364   T   T   T
  0.2498180767551705  0.7499426673518691  0.3874452626657658   T   T   T
  0.2499999997239044  0.0000000000000000  0.1996562654398630   F   F   F
  0.2499999997239044  0.5000000000000000  0.1996562654398630   F   F   F
  0.2499999997239044  0.6249999998929567  0.1996562654398630   F   F   F
  0.2499999997239044  0.7500000002140865  0.1996562654398630   F   F   F
  0.2499999997239044  0.8750000001070433  0.1996562654398630   F   F   F
  0.2499999997239044  0.1249999998929567  0.1996562654398630   F   F   F
  0.2499999997239044  0.2500000002140865  0.1996562654398630   F   F   F
  0.2499999997239044  0.3750000001070433  0.1996562654398630   F   F   F
  0.2498533861617125  0.9998426371576016  0.3866863762492923   T   T   T
  0.2498694581599481  0.6248768474473723  0.3876562626275616   T   T   T
  0.2499656204871252  0.1247710682774789  0.3878655239048830   T   T   T
  0.2503325813110245  0.4998313004771228  0.3870702536175085   T   T   T
  0.2502802158000885  0.2501168314216355  0.3876083664974870   T   T   T
  0.2504811252868935  0.3750417253862208  0.3874901604929388   T   T   T
  0.2486593594723734  0.8735098299396098  0.5541563693311454   T   T   T
  0.2803138118534505  0.5078504738395264  0.5668286502568468   T   T   T
  0.2719034867459787  0.1481574603998813  0.5636534703150806   T   T   T
  0.2876397473748663  0.3755861503199516  0.5701824805197618   T   T   T
  0.3444569465729974  0.2522423503743185  0.4873081520974747   T   T   T
  0.3454009036502299  0.0000000000000000  0.3156671842141137   F   F   F
  0.3454009036502299  0.5000000000000000  0.3156671842141137   F   F   F
  0.3454009036502299  0.6249999998929567  0.3156671842141137   F   F   F
  0.3454009036502299  0.7500000002140865  0.3156671842141137   F   F   F
  0.3454009036502299  0.8750000001070433  0.3156671842141137   F   F   F
  0.3454009036502299  0.1249999998929567  0.3156671842141137   F   F   F
  0.3454009036502299  0.2500000002140865  0.3156671842141137   F   F   F
  0.3454009036502299  0.3750000001070433  0.3156671842141137   F   F   F
  0.3459301290997682  0.1263654229170798  0.4860331970815507   T   T   T
  0.3458752741573331  0.8754459368126590  0.4835041699491912   T   T   T
  0.3464110069535210  0.0017062067179476  0.4838522023740583   T   T   T
  0.3470977494564563  0.6214538564724176  0.4848585637969601   T   T   T
  0.3465961174820696  0.7495141061929915  0.4866477050488704   T   T   T
  0.3497208329980711  0.4982865989998034  0.4859621089376104   T   T   T
  0.3500738376692195  0.3782514176186740  0.4865329845036885   T   T   T
  0.3720804295289217  0.6403243700902291  0.5679228624339585   T   T   T
  0.3933408270491260  0.2477108565462758  0.5702418116342126   T   T   T
  0.3956973016517685  0.8850300951598687  0.5811627939108716   T   T   T
  0.3998946079593958  0.8750829134329393  0.4020750721736004   T   T   T
  0.3997777579089942  0.7500170747798123  0.4024223706065385   T   T   T
  0.4001978784906154  0.0005433175134105  0.4018500576582636   T   T   T
  0.4005163646378900  0.1258915838644789  0.4022532580375973   T   T   T
  0.4005579675030963  0.2500988741370312  0.4026784097192908   T   T   T
  0.4004796508196424  0.6252445569438390  0.4018636504405748   T   T   T
  0.4016630188355368  0.3756192343346988  0.4022838829157764   T   T   T
  0.4016579388317041  0.4994511340677555  0.4018849721073898   T   T   T
  0.4058866010610345  0.0000000000000000  0.2322132027803434   F   F   F
  0.4058866010610345  0.5000000000000000  0.2322132027803434   F   F   F
  0.4058866010610345  0.6249999998929567  0.2322132027803434   F   F   F
  0.4058866010610345  0.7500000002140865  0.2322132027803434   F   F   F
  0.4058866010610345  0.8750000001070433  0.2322132027803434   F   F   F
  0.4058866010610345  0.1249999998929567  0.2322132027803434   F   F   F
  0.4058866010610345  0.2500000002140865  0.2322132027803434   F   F   F
  0.4058866010610345  0.3750000001070433  0.2322132027803434   F   F   F
  0.3993303222098341  0.7679051204627045  0.5717689903647256   T   T   T
  0.4149711976508278  0.1138940807365952  0.5732510468015941   T   T   T
  0.4155888521455824  0.0000708519055679  0.5782953899837777   T   T   T
  0.4311628694206947  0.5237703369175636  0.5711726473630773   T   T   T
  0.4337603541319558  0.3614194665236803  0.5714841932839043   T   T   T
  0.4980819070701333  0.8753789134538797  0.4747097982087199   T   T   T
  0.4974480416527071  0.6259907973257739  0.4739767584670508   T   T   T
  0.4983878667607642  0.2503046982176750  0.4740482384248964   T   T   T
  0.4989056000024924  0.0007699713630094  0.4722374355106330   T   T   T
  0.4986925860921117  0.7507131945213019  0.4723938621251404   T   T   T
  0.5000000000000000  0.0000000000000000  0.3032267788896164   F   F   F
  0.5000000000000000  0.5000000000000000  0.3032267788896164   F   F   F
  0.5000000000000000  0.6249999998929567  0.3032267788896164   F   F   F
  0.5000000000000000  0.7500000002140865  0.3032267788896164   F   F   F
  0.5000000000000000  0.8750000001070433  0.3032267788896164   F   F   F
  0.5000000000000000  0.1249999998929567  0.3032267788896164   F   F   F
  0.5000000000000000  0.2500000002140865  0.3032267788896164   F   F   F
  0.5000000000000000  0.3750000001070433  0.3032267788896164   F   F   F
  0.5000695143482141  0.1252310403371795  0.4728403780884467   T   T   T
  0.5017003914685066  0.5004323261681870  0.4756787609644154   T   T   T
  0.5019357162027138  0.3755100013984476  0.4750498851844752   T   T   T
  0.5380348699957396  0.6511198977112507  0.5829189016194197   T   T   T
  0.5519273062090368  0.2224144729220345  0.5823338883172545   T   T   T
  0.0112566161375468  0.3464898997003714  0.5439587035147843   T   T   T
  0.0145738997341693  0.7592626545628849  0.5449563863991298   T   T   T
  0.0430553042508668  0.1210908594720236  0.5357811687993523   T   T   T
  0.6093230157274260  0.6886708298608334  0.5490908130117864   T   T   T
  0.6222275759193642  0.1870024017042433  0.5433594211262537   T   T   T
  0.6788141349693214  0.5658263570262784  0.5362533978663593   T   T   T
  0.6818547191878397  0.3168326500388984  0.5372892024269452   T   T   T
  0.6815223892305496  0.9419933247540222  0.5341641019883591   T   T   T
  0.6920124080555006  0.8030376374830015  0.5393348415229594   T   T   T
  0.7008150035017515  0.0781658695418739  0.5391222165245383   T   T   T
  0.7286402590691761  0.4414777679033320  0.5397081304077463   T   T   T
  0.7763563744068058  0.2035012602692121  0.5498959337485423   T   T   T
  0.7827186480449257  0.6790698494091603  0.5496826520589482   T   T   T
  0.8413154773954489  0.5661061021902808  0.5345865012050285   T   T   T
  0.8443603870685416  0.3166720736399188  0.5367896303514366   T   T   T
  0.8637164017720655  0.9434762735331381  0.5356252704767791   T   T   T
  0.8726395173226593  0.0907746689517704  0.5473860233088889   T   T   T
  0.8707571654715767  0.7965916266354437  0.5486032974709676   T   T   T
  0.8835836755730976  0.4434812781211568  0.5393939794863268   T   T   T
  0.9454356094321686  0.2211360464855285  0.5489071581131149   T   T   T
  0.9672988376605703  0.6381395417160650  0.5383982516666151   T   T   T
  0.9843510097644809  0.8854714839990184  0.5446729509715167   T   T   T
  0.9915209422195124  0.0120746722298313  0.5387877660994072   T   T   T
  0.9980483898795504  0.5191069256598710  0.5390924354701772   T   T   T
  0.1071724818369052  0.4429905660842007  0.5410998167792491   T   T   T
  0.1180388608544075  0.2309097626196544  0.5504976382630591   T   T   T
  0.1961348668522138  0.5409599566253938  0.5426555296777745   T   T   T
  0.1918678722682762  0.8094666133252768  0.5347868907729001   T   T   T
  0.1998681579427021  0.3482662624022194  0.5485195024237552   T   T   T
  0.1660027999409071  0.6791869449675391  0.5357281559772803   T   T   T
  0.2033523246729325  0.0994135530246152  0.5488736998715357   T   T   T
  0.2114087279999443  0.9482956756659722  0.5321826519732322   T   T   T
  0.3021332662886310  0.4412021176761388  0.5339201914897289   T   T   T
  0.3582603306556337  0.5647776718264470  0.5379488053920779   T   T   T
  0.3456209034187424  0.8310449813599213  0.5417300209455596   T   T   T
  0.3347077174172288  0.7114901618688816  0.5482622823343077   T   T   T
  0.3616696680462939  0.3171235094130552  0.5400955853128998   T   T   T
  0.3629083022790303  0.1768806593957357  0.5469242811236987   T   T   T
  0.3639811344791169  0.0541460293996999  0.5399067374120620   T   T   T
  0.3678495550828032  0.9440667847562253  0.5402744947616828   T   T   T
  0.4704588293480508  0.6402730399438421  0.5415420882158436   T   T   T
  0.4873984718964290  0.8738260422571401  0.5495863828290033   T   T   T
  0.4892318509189771  0.2436831946745316  0.5422593492118506   T   T   T
  0.4897811858834089  0.7617764294934022  0.5380780160208444   T   T   T
  0.5002434929020760  0.9974605119041828  0.5406134562583444   T   T   T
  0.5039799395189500  0.1136689332796770  0.5396946725270053   T   T   T
  0.5197754910799299  0.5297553977985517  0.5426217966895858   T   T   T
  0.5214094671705705  0.3533537560290421  0.5425501223398304   T   T   T
  0.0000000000000000  0.0000000000000000  0.1972002481458333   F   F   F
  0.0000000000000000  0.5000000000000000  0.1972002481458333   F   F   F
  0.0000000000000000  0.6249999998929567  0.1972002481458333   F   F   F
  0.0000000000000000  0.7500000002140865  0.1972002481458333   F   F   F
  0.0000000000000000  0.8750000001070433  0.1972002481458333   F   F   F
  0.0000000000000000  0.1249999998929567  0.1972002481458333   F   F   F
  0.0000000000000000  0.2500000002140865  0.1972002481458333   F   F   F
  0.0000000000000000  0.3750000001070433  0.1972002481458333   F   F   F
  0.9991892174137317  0.6252241631961952  0.3694929904149378   T   T   T
  0.9992708491746980 -0.0002052262968196  0.3696638399227870   T   T   T
  0.9996965348359332  0.1246887775371101  0.3700050775155843   T   T   T
  0.9989923463917516  0.8746438549138539  0.3698529156968349   T   T   T
  0.0005768150276979  0.2497575259652312  0.3700421946072752   T   T   T
  0.0009464752143289  0.4998912250243946  0.3695818659639258   T   T   T
  0.0015851577147077  0.3747769469095344  0.3698348023935918   T   T   T
  0.5817277131703718  0.9375510698774433  0.4537195745851978   T   T   T
  0.5821284430246415  0.8130375745719109  0.4554030634797802   T   T   T
  0.5825346300460907  0.4375000002676046  0.2838671249793236   F   F   F
  0.5825346300460907  0.5625000001605613  0.2838671249793236   F   F   F
  0.5825346300460907  0.0625000001605613  0.2838671249793236   F   F   F
  0.5825346300460907  0.6875000000535181  0.2838671249793236   F   F   F
  0.5825346300460907  0.8124999999464819  0.2838671249793236   F   F   F
  0.5825346300460907  0.9375000002676046  0.2838671249793236   F   F   F
  0.5825346300460907  0.1875000000535181  0.2838671249793236   F   F   F
  0.5825346300460907  0.3124999999464819  0.2838671249793236   F   F   F
  0.5824916529774228  0.0631330314161826  0.4552064984001161   T   T   T
  0.5831840133792320  0.6875551822224230  0.4563998383430117   T   T   T
  0.5830301471383037  0.1884462523862530  0.4551012721214688   T   T   T
  0.5839587451745522  0.3137375688537989  0.4545314263392228   T   T   T
  0.5838895030776686  0.5621041769205255  0.4546299498330903   T   T   T
  0.5852440439935228  0.4381621513232294  0.4559792039674702   T   T   T
  0.6657105641648826  0.4375000002676046  0.2025710526275901   F   F   F
  0.6657105641648826  0.5625000001605613  0.2025710526275901   F   F   F
  0.6657105641648826  0.0625000001605613  0.2025710526275901   F   F   F
  0.6657105641648826  0.6875000000535181  0.2025710526275901   F   F   F
  0.6657105641648826  0.8124999999464819  0.2025710526275901   F   F   F
  0.6657105641648826  0.9375000002676046  0.2025710526275901   F   F   F
  0.6657105641648826  0.1875000000535181  0.2025710526275901   F   F   F
  0.6657105641648826  0.3124999999464819  0.2025710526275901   F   F   F
  0.6668106128294123  0.9375508182263267  0.3686099426138887   T   T   T
  0.6668477777593272  0.8124490917382337  0.3689615102358059   T   T   T
  0.6671668624400231  0.5627337420250431  0.3683231529543964   T   T   T
  0.6671868828592561  0.0627482230394756  0.3686460169578092   T   T   T
  0.6671449002643850  0.6877535644129229  0.3689174969348755   T   T   T
  0.6673440769372736  0.3125974257329333  0.3684480079391154   T   T   T
  0.6674508628652996  0.1877394608682207  0.3686386885746704   T   T   T
  0.6675799298268434  0.4376784090285351  0.3684453761693448   T   T   T
  0.7462582775654020  0.8746713279645829  0.4565861608715154   T   T   T
  0.7476618865084120  0.0016341189626778  0.4551863115699263   T   T   T
  0.7486221341172676  0.6255176446098025  0.4554164613851675   T   T   T
  0.7498522458830825  0.2506879702788112  0.4564871680305138   T   T   T
  0.7502555138701649  0.4998383304077472  0.4548532036170258   T   T   T
  0.7499999997239044  0.0000000000000000  0.2777865629422820   F   F   F
  0.7499999997239044  0.5000000000000000  0.2777865629422820   F   F   F
  0.7499999997239044  0.6249999998929567  0.2777865629422820   F   F   F
  0.7499999997239044  0.7500000002140865  0.2777865629422820   F   F   F
  0.7499999997239044  0.8750000001070433  0.2777865629422820   F   F   F
  0.7499999997239044  0.1249999998929567  0.2777865629422820   F   F   F
  0.7499999997239044  0.2500000002140865  0.2777865629422820   F   F   F
  0.7499999997239044  0.3750000001070433  0.2777865629422820   F   F   F
  0.7505533224195989  0.3757356238218589  0.4546578906279856   T   T   T
  0.7504982912969745  0.7501154918361700  0.4576024529326507   T   T   T
  0.7520137235648672  0.1266803650066592  0.4565224987587932   T   T   T
  0.0825346300460907  0.4375000002676046  0.2838671249793236   F   F   F
  0.0825346300460907  0.5625000001605613  0.2838671249793236   F   F   F
  0.0825346300460907  0.0625000001605613  0.2838671249793236   F   F   F
  0.0825346300460907  0.6875000000535181  0.2838671249793236   F   F   F
  0.0825346300460907  0.8124999999464819  0.2838671249793236   F   F   F
  0.0825346300460907  0.9375000002676046  0.2838671249793236   F   F   F
  0.0825346300460907  0.1875000000535181  0.2838671249793236   F   F   F
  0.0825346300460907  0.3124999999464819  0.2838671249793236   F   F   F
  0.0827318752997156  0.6877210640629724  0.4528779690823224   T   T   T
  0.8314134525597632  0.9373758940031640  0.3676032906966185   T   T   T
  0.8316082807821603  0.8124770637787717  0.3685688122136174   T   T   T
  0.8316732417864001  0.0627391919957461  0.3679324836181584   T   T   T
  0.8316754638877049  0.1874860719579239  0.3680753396366264   T   T   T
  0.8318952159354861  0.6878763517372137  0.3686775569893677   T   T   T
  0.8322870377691901  0.5625867076706944  0.3677747599713544   T   T   T
  0.8323014252363722  0.3124155120108472  0.3676750552030828   T   T   T
  0.8324853964388453  0.4374188789247426  0.3677508747191857   T   T   T
  0.0827449415578504  0.9366179739440036  0.4547661549729138   T   T   T
  0.8342894060167296  0.4375000002676046  0.2025710526275901   F   F   F
  0.8342894060167296  0.5625000001605613  0.2025710526275901   F   F   F
  0.8342894060167296  0.0625000001605613  0.2025710526275901   F   F   F
  0.8342894060167296  0.6875000000535181  0.2025710526275901   F   F   F
  0.8342894060167296  0.8124999999464819  0.2025710526275901   F   F   F
  0.8342894060167296  0.9375000002676046  0.2025710526275901   F   F   F
  0.8342894060167296  0.1875000000535181  0.2025710526275901   F   F   F
  0.8342894060167296  0.3124999999464819  0.2025710526275901   F   F   F
  0.0846135837383373  0.4364767372632719  0.4550117767751118   T   T   T
  0.0832754125566074  0.8130010761268371  0.4547881726019367   T   T   T
  0.0835576022699685  0.5623076249015302  0.4541767045040195   T   T   T
  0.0842630452141456  0.1863555127210777  0.4539037620706508   T   T   T
  0.0841027657102137  0.0606896405912690  0.4540924452692541   T   T   T
  0.0857961770145185  0.3108948924150342  0.4556415366768205   T   T   T
  0.9144095338678996  0.9376166668045789  0.4525130691076531   T   T   T
  0.9143974998004630  0.8132289829604645  0.4568407193528909   T   T   T
  0.9152542931913803  0.6870580998780419  0.4566870751647725   T   T   T
  0.9152371688778359  0.0622763618633678  0.4548597623197391   T   T   T
  0.9163077771609083  0.1888188091498598  0.4548200965001084   T   T   T
  0.9169732475783685  0.5616511618534210  0.4524172081565097   T   T   T
  0.9174653699539093  0.4375000002676046  0.2838671249793236   F   F   F
  0.9174653699539093  0.5625000001605613  0.2838671249793236   F   F   F
  0.9174653699539093  0.0625000001605613  0.2838671249793236   F   F   F
  0.9174653699539093  0.6875000000535181  0.2838671249793236   F   F   F
  0.9174653699539093  0.8124999999464819  0.2838671249793236   F   F   F
  0.9174653699539093  0.9375000002676046  0.2838671249793236   F   F   F
  0.9174653699539093  0.1875000000535181  0.2838671249793236   F   F   F
  0.9174653699539093  0.3124999999464819  0.2838671249793236   F   F   F
  0.9185666820523023  0.4368055351726992  0.4536577784091533   T   T   T
  0.9187322775446466  0.3128075164411602  0.4526841507326078   T   T   T
  0.9982814797443847  0.7502667814092152  0.3700960686638206   T   T   T
  0.1657105641648826  0.4375000002676046  0.2025710526275901   F   F   F
  0.1657105641648826  0.5625000001605613  0.2025710526275901   F   F   F