Cu	N	Ru	Ta                              
   1.00000000000000     
    18.1096308199999996    0.0000000000000000    0.0000000000000000
     0.0000000000000000   23.3551997799999995    0.0000000000000000
     0.0000000000000000    0.0000000000000000   30.4818171199999988
   Cu   N    Ru   Ta
     3   240    12   228
Selective dynamics
Direct
  0.5655845137736550  0.4387048267291891  0.6054113838016194   T   T   T
  0.2584881339827759  0.4359348311872810  0.6119722241054386   T   T   T
  0.4308666605699001  0.4383360684610711  0.6064075548348379   T   T   T
  0.0000000000000000  0.0002658024790421  0.3027806050297599   F   F   F
  0.0000000000000000  0.5002658024790421  0.3027806050297599   F   F   F
  0.0000000000000000  0.6252068313499990  0.3027729437410898   F   F   F
  0.0000000000000000  0.7502658026931286  0.3027806050297599   F   F   F
  0.0000000000000000  0.8752068315640855  0.3027729437410898   F   F   F
  0.0000000000000000  0.1252068313499990  0.3027729437410898   F   F   F
  0.0000000000000000  0.2502658026931286  0.3027806050297599   F   F   F
  0.0000000000000000  0.3752068315640855  0.3027729437410898   F   F   F
  0.0000562279009803  0.8751385133887917  0.4736272364169107   T   T   T
  0.0000875547918905  0.0019415513604871  0.4733193444433636   T   T   T
  0.0002180278749755  0.7521479533775333  0.4734297149498340   T   T   T
  0.0003058001368665  0.5025595357433710  0.4727195364563725   T   T   T
  0.0004236816754728  0.6252403303042475  0.4735285384110118   T   T   T
  0.5927819806553246  0.0002320028935618  0.5685186969198374   T   T   T
  0.5931764944478559  0.7502421450767480  0.5686023480183425   T   T   T
  0.5939290761980969  0.2500779606541186  0.5686218885747080   T   T   T
  0.5940493004484111  0.9998103570065027  0.2323399901691943   F   F   F
  0.5940493004484111  0.4998103570065027  0.2323399901691943   F   F   F
  0.5940493004484111  0.7498103572205892  0.2323399901691943   F   F   F
  0.5940493004484111  0.2498103572205892  0.2323399901691943   F   F   F
  0.5941034351798038  0.6248444726427422  0.2323487498175751   F   F   F
  0.5941034351798038  0.8748444728568288  0.2323487498175751   F   F   F
  0.5941034351798038  0.1248444726427422  0.2323487498175751   F   F   F
  0.5941034351798038  0.3748444728568288  0.2323487498175751   F   F   F
  0.5980475837332332  0.8718543931361952  0.5715864983448294   T   T   T
  0.5980810552316624  0.1217372818839163  0.5715256218116838   T   T   T
  0.5987660864494809  0.6241267469323049  0.4026270469295196   T   T   T
  0.5988562406963573  0.8743173923498694  0.4025226477377973   T   T   T
  0.5987690796253388  0.3743129770985185  0.4025661180111690   T   T   T
  0.5986952538223502  0.6221374161709721  0.5714850001670662   T   T   T
  0.5989002286299488  0.1241500256542067  0.4024909402538543   T   T   T
  0.5990340165616619  0.4994393657924898  0.4024772874544602   T   T   T
  0.5991778974975915  0.7491892880223334  0.4023013999211772   T   T   T
  0.5992315899134958  0.9991401657034533  0.4023172681057081   T   T   T
  0.5992028617564382  0.2491107966429325  0.4023222995916246   T   T   T
  0.6003233171470089  0.5015761362070930  0.5716085891545235   T   T   T
  0.6014832704504984  0.3718081193871741  0.5733615747100634   T   T   T
  0.6504979692899248  0.3728097548377836  0.4882820183441964   T   T   T
  0.6510836176254723  0.8732792182017229  0.4882381612350128   T   T   T
  0.6512076170588678  0.1230808530133529  0.4882616526536687   T   T   T
  0.6511401871261203  0.6234584331090525  0.4882010624089495   T   T   T
  0.6516359858408738  0.2491196446463333  0.4882797038672549   T   T   T
  0.6517909915850504  0.9991766978462444  0.4884148565327401   T   T   T
  0.6518164312286736  0.7494061927987485  0.4883025013760477   T   T   T
  0.6518123793116830  0.4995943068737338  0.4886042922167219   T   T   T
  0.6547396409045092  0.9997083480310920  0.3159103144045119   F   F   F
  0.6547396409045092  0.4997083480310920  0.3159103144045119   F   F   F
  0.6547396409045092  0.7497083482451785  0.3159103144045119   F   F   F
  0.6547396409045092  0.2497083482451785  0.3159103144045119   F   F   F
  0.6547625022209047  0.6246790182669955  0.3159667218028375   F   F   F
  0.6547625022209047  0.8746790184810820  0.3159667218028375   F   F   F
  0.6547625022209047  0.1246790182669955  0.3159667218028375   F   F   F
  0.6547625022209047  0.3746790184810820  0.3159667218028375   F   F   F
  0.7410213662421108  0.9920856059922512  0.5624165786750605   T   T   T
  0.7414546186850274  0.7425522284929654  0.5620479319776741   T   T   T
  0.7418514259923614  0.2433257285418264  0.5616983977384761   T   T   T
  0.7449841841481097  0.4936413661990131  0.5613164412324780   T   T   T
  0.7497181855858486  0.0000100119032282  0.1992701427899632   F   F   F
  0.7497181855858486  0.5000100119032282  0.1992701427899632   F   F   F
  0.7497181855858486  0.7500100121173077  0.1992701427899632   F   F   F
  0.7497181855858486  0.2500100121173077  0.1992701427899632   F   F   F
  0.7497340914871273  0.6250292589019324  0.1993221157413743   F   F   F
  0.7497340914871273  0.8750292591160189  0.1993221157413743   F   F   F
  0.7497340914871273  0.1250292589019324  0.1993221157413743   F   F   F
  0.7497340914871273  0.3750292591160189  0.1993221157413743   F   F   F
  0.7500879349724436  0.3748326558651991  0.3877273202740831   T   T   T
  0.7501527102920341  0.9998813440716425  0.3871986186297798   T   T   T
  0.7501343651007699  0.2499354079101545  0.3871405936049955   T   T   T
  0.7501877195011047  0.1247985430644775  0.3877627670968028   T   T   T
  0.7501501271744545  0.6249791452773008  0.3878822610466553   T   T   T
  0.7502001594078410  0.8748633035003283  0.3877852134168765   T   T   T
  0.7501522526769137  0.5000392243997061  0.3873214023663508   T   T   T
  0.7501965515038288  0.7498852216291239  0.3871911825083461   T   T   T
  0.7524562610886089  0.1225451226607787  0.5566467505306729   T   T   T
  0.7527697051111565  0.8723577017302455  0.5563695581195021   T   T   T
  0.7528780482079797  0.3727928541863701  0.5559167273137490   T   T   T
  0.7530466264626816  0.6229927785125031  0.5564932165934825   T   T   T
  0.8451499272473839  0.6251896283286698  0.3155471503596488   F   F   F
  0.8451499272473839  0.8751896285427563  0.3155471503596488   F   F   F
  0.8451499272473839  0.1251896283286698  0.3155471503596488   F   F   F
  0.8451499272473839  0.3751896285427563  0.3155471503596488   F   F   F
  0.8451807898312538  0.0001939208417241  0.3155011134060643   F   F   F
  0.8451807898312538  0.5001939208417241  0.3155011134060643   F   F   F
  0.8451807898312538  0.7501939210558106  0.3155011134060643   F   F   F
  0.8451807898312538  0.2501939210558106  0.3155011134060643   F   F   F
  0.8466169462305759  0.2489149243489746  0.4858321890645077   T   T   T
  0.8466855184906694  0.9983738629242703  0.4858335231541975   T   T   T
  0.8469370057273962  0.7485366621031346  0.4858556863144701   T   T   T
  0.8474579346413786  0.4990054515874954  0.4853578477801481   T   T   T
  0.8485900464762143  0.3786639752213566  0.4858581802807135   T   T   T
  0.8488037287242470  0.1288852816017935  0.4863382978471489   T   T   T
  0.8489468892859066  0.8791020249183764  0.4862130043410947   T   T   T
  0.8492260139521141  0.6289103965372481  0.4862404756063211   T   T   T
  0.8982128143136932  0.2582979475205855  0.5677703704273640   T   T   T
  0.8988865280790528  0.3823835714709500  0.5716481953101681   T   T   T
  0.9010323600717549  0.2506629029181088  0.4015989012795772   T   T   T
  0.9009543689785383  0.0007464105536163  0.4018005680118473   T   T   T
  0.9010271873142739  0.5008361411566559  0.4014923747111832   T   T   T
  0.9011032579671621  0.3756218141599214  0.4014882714574691   T   T   T
  0.9011171444682952  0.1255448253138952  0.4018112945807885   T   T   T
  0.9011045105267527  0.7507688945859746  0.4018083418151509   T   T   T
  0.9010972680044715  0.7591776663172110  0.5675973823506223   T   T   T
  0.9011046215316521  0.6258038168904350  0.4017233373826576   T   T   T
  0.9011991684286562  0.8756232520783707  0.4018310001644868   T   T   T
  0.9013274256701636  0.0089638791036268  0.5673972110300574   T   T   T
  0.9017664578463469  0.5087996314093706  0.5676861669683827   T   T   T
  0.9026654971689607  0.8851780675529812  0.5710703022103739   T   T   T
  0.9031564700128842  0.6348894939073512  0.5708223783861409   T   T   T
  0.9036379799031613  0.1352398628487164  0.5711586003506860   T   T   T
  0.9057164253114252  0.6251516265128672  0.2320045249323357   F   F   F
  0.9057164253114252  0.8751516267269537  0.2320045249323357   F   F   F
  0.9057164253114252  0.1251516265128672  0.2320045249323357   F   F   F
  0.9057164253114252  0.3751516267269537  0.2320045249323357   F   F   F
  0.9057548087553968  0.0001403618907503  0.2320193078436787   F   F   F
  0.9057548087553968  0.5001403618907503  0.2320193078436787   F   F   F
  0.9057548087553968  0.7501403621048368  0.2320193078436787   F   F   F
  0.9057548087553968  0.2501403621048368  0.2320193078436787   F   F   F
  0.0913430698113525  0.3866699166271562  0.5719931381893467   T   T   T
  0.0940203392827965  0.2453257177082925  0.5729585617068126   T   T   T
  0.0942451912446032  0.0001403618907503  0.2320193078436787   F   F   F
  0.0942451912446032  0.5001403618907503  0.2320193078436787   F   F   F
  0.0942451912446032  0.7501403621048368  0.2320193078436787   F   F   F
  0.0942451912446032  0.2501403621048368  0.2320193078436787   F   F   F
  0.0942835746885748  0.6251516265128672  0.2320045249323357   F   F   F
  0.0942835746885748  0.8751516267269537  0.2320045249323357   F   F   F
  0.0942835746885748  0.1251516265128672  0.2320045249323357   F   F   F
  0.0942835746885748  0.3751516267269537  0.2320045249323357   F   F   F
  0.0972793580580803  0.8837881357252563  0.5711419645164905   T   T   T
  0.0985217512607869  0.1290484097000083  0.5703740383123130   T   T   T
  0.0987451177866869  0.6336265054908302  0.5705954632295892   T   T   T
  0.0988847800294359  0.8756415127061613  0.4018639871004742   T   T   T
  0.0988650848496212  0.1254833681410969  0.4018499622837016   T   T   T
  0.0989470658964403  0.0006470427557104  0.4017358969620879   T   T   T
  0.0991020949530362  0.7507165707789537  0.4018211279875121   T   T   T
  0.0991767726565886  0.6257547401213972  0.4017146097436045   T   T   T
  0.0992111546283889  0.2506666596699980  0.4023282848368002   T   T   T
  0.0992858094210168  0.5007268433772056  0.4015585342153787   T   T   T
  0.0992995216904193  0.3752017595434950  0.4021332307761412   T   T   T
  0.0994396057149461  0.7584155980075432  0.5675679069297765   T   T   T
  0.0994564622718469  0.5079089156056636  0.5671818716852316   T   T   T
  0.9987475198761001  0.2509876294260870  0.4735214382156216   T   T   T
  0.9987877984354698  0.3759610315843294  0.4729737575815872   T   T   T
  0.1000138424315636  0.0067785763285769  0.5675657399666265   T   T   T
  0.0000291450550820  0.1248800818220599  0.4735996869221547   T   T   T
  0.1509709274655611  0.2492361534634745  0.4884072860076996   T   T   T
  0.1511519126342616  0.8790120270186244  0.4862624954220771   T   T   T
  0.1512274263666351  0.3770461048570736  0.4880270779857186   T   T   T
  0.1516952014609950  0.1281398496579719  0.4862271452683063   T   T   T
  0.1517512661404345  0.6288333123071186  0.4861889032251607   T   T   T
  0.1531750172687345  0.4988384067154505  0.4852500649940338   T   T   T
  0.1534502602312408  0.9986031293157246  0.4858627982622273   T   T   T
  0.1534959735180562  0.7483575313776181  0.4858811850186684   T   T   T
  0.1548192101687462  0.0001939208417241  0.3155011134060643   F   F   F
  0.1548192101687462  0.5001939208417241  0.3155011134060643   F   F   F
  0.1548192101687462  0.7501939210558106  0.3155011134060643   F   F   F
  0.1548192101687462  0.2501939210558106  0.3155011134060643   F   F   F
  0.1548500727526161  0.6251896283286698  0.3155471503596488   F   F   F
  0.1548500727526161  0.8751896285427563  0.3155471503596488   F   F   F
  0.1548500727526161  0.1251896283286698  0.3155471503596488   F   F   F
  0.1548500727526161  0.3751896285427563  0.3155471503596488   F   F   F
  0.2476559580820733  0.8723812327145734  0.5564876028703865   T   T   T
  0.2482181094781940  0.1217729622857025  0.5565947167018231   T   T   T
  0.2485792881945123  0.6234591307722619  0.5568189556544039   T   T   T
  0.2497044789245314  0.2496192081587165  0.3877740499751219   T   T   T
  0.2497986899005362  0.1248215752565713  0.3877347617779242   T   T   T
  0.2498576479613756  0.8748763254717830  0.3877280615618433   T   T   T
  0.2498694929720974  0.9998782168204220  0.3871229234388406   T   T   T
  0.2498834399795848  0.3749944816528033  0.3879112909547686   T   T   T
  0.2499116116965329  0.7498857412819193  0.3871951447220302   T   T   T
  0.2499379661594099  0.4999630230652568  0.3872530020477605   T   T   T
  0.2500080132375365  0.6249991754120774  0.3877891216276746   T   T   T
  0.2502659079606815  0.6250292589019324  0.1993221157413743   F   F   F
  0.2502659079606815  0.8750292591160189  0.1993221157413743   F   F   F
  0.2502659079606815  0.1250292589019324  0.1993221157413743   F   F   F
  0.2502659079606815  0.3750292591160189  0.1993221157413743   F   F   F
  0.2502818138619602  0.0000100119032282  0.1992701427899632   F   F   F
  0.2502818138619602  0.5000100119032282  0.1992701427899632   F   F   F
  0.2502818138619602  0.7500100121173077  0.1992701427899632   F   F   F
  0.2502818138619602  0.2500100121173077  0.1992701427899632   F   F   F
  0.2535108689873818  0.3798698683571368  0.5617267423493000   T   T   T
  0.2540841238938017  0.4954451304773653  0.5632981831060228   T   T   T
  0.2573671589886813  0.2433233005673427  0.5607717323439920   T   T   T
  0.2582155054563524  0.9926907446755425  0.5617818026454683   T   T   T
  0.2591539004315768  0.7426055213483463  0.5620432161197166   T   T   T
  0.3452374977790953  0.6246790182669955  0.3159667218028375   F   F   F
  0.3452374977790953  0.8746790184810820  0.3159667218028375   F   F   F
  0.3452374977790953  0.1246790182669955  0.3159667218028375   F   F   F
  0.3452374977790953  0.3746790184810820  0.3159667218028375   F   F   F
  0.3452603590954908  0.9997083480310920  0.3159103144045119   F   F   F
  0.3452603590954908  0.4997083480310920  0.3159103144045119   F   F   F
  0.3452603590954908  0.7497083482451785  0.3159103144045119   F   F   F
  0.3452603590954908  0.2497083482451785  0.3159103144045119   F   F   F
  0.3479204654950842  0.2496612741964313  0.4882123563529954   T   T   T
  0.3480844112635076  0.5004300583207235  0.4885964349089996   T   T   T
  0.3485215281683801  0.9992324711530587  0.4882077982398137   T   T   T
  0.3486374780251225  0.7496253671118820  0.4883007946633163   T   T   T
  0.3488649092468732  0.3722799492577750  0.4885003298781936   T   T   T
  0.3489877254969711  0.8732969721071571  0.4881393976028142   T   T   T
  0.3492173276541869  0.1231036674135162  0.4880292668178362   T   T   T
  0.3494388485432662  0.6235353397266326  0.4882326733622827   T   T   T
  0.4009105881918688  0.9991470449160531  0.4022548431741693   T   T   T
  0.4009218715659262  0.4994849321524188  0.4024083357662093   T   T   T
  0.4009448403084546  0.2491485832811890  0.4023520666265417   T   T   T
  0.4010040399129003  0.7492385668426456  0.4023032211890867   T   T   T
  0.4011747119044970  0.3743263476719066  0.4025737447833395   T   T   T
  0.4011524514704474  0.1242184123938153  0.4024769065972749   T   T   T
  0.4012774224100160  0.8743175767454778  0.4024827130759809   T   T   T
  0.4015513891669265  0.5022857959470117  0.5719036553169525   T   T   T
  0.4013849250406497  0.6242544973920852  0.4026053360464745   T   T   T
  0.4021650387518877  0.8720956152737177  0.5714352853493605   T   T   T
  0.4021269914767105  0.1222764340882028  0.5713230794178753   T   T   T
  0.4026259681811054  0.6225266483871170  0.5714558093627777   T   T   T
  0.4039981089599734  0.3710369289704432  0.5721197905395693   T   T   T
  0.4058965648201962  0.6248444726427422  0.2323487498175751   F   F   F
  0.4058965648201962  0.8748444728568288  0.2323487498175751   F   F   F
  0.4058965648201962  0.1248444726427422  0.2323487498175751   F   F   F
  0.4058965648201962  0.3748444728568288  0.2323487498175751   F   F   F
  0.4059506995515889  0.9998103570065027  0.2323399901691943   F   F   F
  0.4059506995515889  0.4998103570065027  0.2323399901691943   F   F   F
  0.4059506995515889  0.7498103572205892  0.2323399901691943   F   F   F
  0.4059506995515889  0.2498103572205892  0.2323399901691943   F   F   F
  0.4069491490620442  0.2509051301275923  0.5670427089874730   T   T   T
  0.4071210567361508  0.9999276008711836  0.5685143601125112   T   T   T
  0.4073577012666528  0.7506248207657708  0.5687146829411360   T   T   T
  0.5000000000000000  0.9996370422826644  0.3031199056678844   F   F   F
  0.5000000000000000  0.4996370422826644  0.3031199056678844   F   F   F
  0.5000000000000000  0.6247350156471256  0.3031143997625279   F   F   F
  0.5000000000000000  0.7496370424967509  0.3031199056678844   F   F   F
  0.5000000000000000  0.8747350158612122  0.3031143997625279   F   F   F
  0.5000000000000000  0.1247350156471256  0.3031143997625279   F   F   F
  0.5000000000000000  0.2496370424967509  0.3031199056678844   F   F   F
  0.5000000000000000  0.3747350158612122  0.3031143997625279   F   F   F
  0.5000328650992736  0.3731735810630014  0.4748110654229999   T   T   T
  0.5001232192671812  0.8733503912142268  0.4754774421704182   T   T   T
  0.5001153037388797  0.9993738328169710  0.4727533956029361   T   T   T
  0.5001290050974573  0.2490985806820402  0.4728044347654791   T   T   T
  0.5001332704623345  0.4993518862632489  0.4742159940706004   T   T   T
  0.5001925282120905  0.7494133628469448  0.4727587214335814   T   T   T
  0.5001717362112629  0.1231726257793423  0.4752271413075967   T   T   T
  0.5002494316621593  0.6236242891225318  0.4758398922093558   T   T   T
  0.8422791024926881  0.3185213854659558  0.5360772866873991   T   T   T
  0.8461286045621284  0.8199559529186994  0.5367543503357508   T   T   T
  0.8464563722529653  0.0697536867118621  0.5370420726067647   T   T   T
  0.8462862876485051  0.5695658583034083  0.5367672947376503   T   T   T
  0.1184232068171431  0.3156197602120362  0.5409184321438961   T   T   T
  0.1540143716970948  0.8193072272655503  0.5365800240161690   T   T   T
  0.1561079394021385  0.5684624461900520  0.5365807372109268   T   T   T
  0.1569793450389375  0.0673326070127729  0.5359665416104769   T   T   T
  0.4999280040404632  0.0069431962422287  0.5389778221464684   T   T   T
  0.5002598812182578  0.7568202467752911  0.5389972559314674   T   T   T
  0.5006416337562811  0.2577139981399348  0.5388914867382931   T   T   T
  0.5007972035998433  0.5052983791316845  0.5407597128037039   T   T   T
  0.0000000000000000  0.0000718854908470  0.1971343718238288   F   F   F
  0.0000000000000000  0.5000718854908470  0.1971343718238288   F   F   F
  0.0000000000000000  0.6251997477026094  0.1971274191543344   F   F   F
  0.0000000000000000  0.7500718857049335  0.1971343718238288   F   F   F
  0.0000000000000000  0.8751997479166960  0.1971274191543344   F   F   F
  0.0000000000000000  0.1251997477026094  0.1971274191543344   F   F   F
  0.0000000000000000  0.2500718857049335  0.1971343718238288   F   F   F
  0.0000000000000000  0.3751997479166960  0.1971274191543344   F   F   F
  0.0000115371550199  0.8754944486433467  0.3693128289148526   T   T   T
  0.0000362694972801  0.1254548429146756  0.3693396685973749   T   T   T
  0.0000861998067204  0.7506017301443022  0.3693763368280453   T   T   T
  0.0001214467214831  0.6255383062144813  0.3693153247284842   T   T   T
  0.0002697494745238  0.7509601729255888  0.5412923966088685   T   T   T
  0.0002297344470101  0.2506131073054532  0.3694445335150316   T   T   T
  0.0002201338308087  0.5006070258971670  0.3693473991738166   T   T   T
  0.0002866943514611  0.3753700423860887  0.3693816112301377   T   T   T
  0.0005000384265566  0.5024711950058469  0.5403933786994246   T   T   T
  0.0007110201588124  0.1257905213829357  0.5419376085121170   T   T   T
  0.0007746989272503  0.6282443899848569  0.5419739873037400   T   T   T
  0.0009112081345269  0.0008863435818265  0.5411110582698865   T   T   T
  0.5826617485954912  0.5622475047824267  0.2840383746124928   F   F   F
  0.5826617485954912  0.0622475047824267  0.2840383746124928   F   F   F
  0.5826617485954912  0.8122475045683402  0.2840383746124928   F   F   F
  0.5826617485954912  0.3122475045683402  0.2840383746124928   F   F   F
  0.5827027102256537  0.4372504995116770  0.2840867749422387   F   F   F
  0.5827027102256537  0.6872504992975905  0.2840867749422387   F   F   F
  0.5827027102256537  0.9372504995116770  0.2840867749422387   F   F   F
  0.5827027102256537  0.1872504992975905  0.2840867749422387   F   F   F
  0.5837515138412542  0.4365357543890213  0.4544054698645338   T   T   T
  0.5838846469160206  0.3110842716820939  0.4543448580560072   T   T   T
  0.5840635327651496  0.9363867827029828  0.4541294254549844   T   T   T
  0.5840260297652534  0.5612236439874297  0.4547877339871806   T   T   T
  0.5840735363667779  0.1862335626048917  0.4541138440771642   T   T   T
  0.5840538221171897  0.6864436887543071  0.4541164398623372   T   T   T
  0.5843102750625673  0.8113435060400306  0.4543222729967006   T   T   T
  0.5843684330765870  0.0612619580362053  0.4543207671397203   T   T   T
  0.6603493067921001  0.1850862230389481  0.5421200126682612   T   T   T
  0.6603786147597313  0.9356993982611229  0.5423717324206666   T   T   T
  0.6606520432337444  0.6863736180809656  0.5422316137508207   T   T   T
  0.6656630292367254  0.4374555758991647  0.2027209846340057   F   F   F
  0.6656630292367254  0.6874555756850853  0.2027209846340057   F   F   F
  0.6656630292367254  0.9374555758991647  0.2027209846340057   F   F   F
  0.6656630292367254  0.1874555756850853  0.2027209846340057   F   F   F
  0.6657072857987743  0.5624132520265661  0.2026937805471647   F   F   F
  0.6657072857987743  0.0624132520265661  0.2026937805471647   F   F   F
  0.6657072857987743  0.8124132518124867  0.2026937805471647   F   F   F
  0.6657072857987743  0.3124132518124867  0.2026937805471647   F   F   F
  0.6657950019154835  0.4359957494163086  0.5406172808665364   T   T   T
  0.6676087020848973  0.4370738283601107  0.3687281402040835   T   T   T
  0.6675845927708400  0.3121614168552005  0.3684908571356410   T   T   T
  0.6676502974916881  0.6869802274332353  0.3684966826127053   T   T   T
  0.6676946856668098  0.8121532656481698  0.3685150390130491   T   T   T
  0.6677075149018464  0.9370118520413703  0.3684796575186584   T   T   T
  0.6676893793549389  0.0621327673519494  0.3684858208072785   T   T   T
  0.6677549154209224  0.5621980170952160  0.3684817607168139   T   T   T
  0.6677777806739337  0.1869588962169869  0.3684955295006899   T   T   T
  0.6687557241182371  0.8100545829126538  0.5436134478379560   T   T   T
  0.6686890942080254  0.0595174801579153  0.5438310334775032   T   T   T
  0.6694169823174008  0.3086863327569059  0.5438460501943396   T   T   T
  0.6701844172465115  0.5609419002393002  0.5438656006688485   T   T   T
  0.7490568455420185  0.3762515352492117  0.4556836734868724   T   T   T
  0.7492054642190759  0.2484089900132501  0.4548571172396691   T   T   T
  0.7493566076958437  0.9982439551570659  0.4549514432517448   T   T   T
  0.7495191522551509  0.1262287844664356  0.4557895494240218   T   T   T
  0.7495160709493230  0.8763553715458734  0.4558359364198987   T   T   T
  0.7495137821366599  0.4984577796816311  0.4550459659985877   T   T   T
  0.7495571604156299  0.7483584891888959  0.4549725146841679   T   T   T
  0.7496000160723401  0.6265064418739733  0.4558761880891379   T   T   T
  0.7497932119634427  0.6250918038603928  0.2779408447549940   F   F   F
  0.7497932119634427  0.8750918040744793  0.2779408447549940   F   F   F
  0.7497932119634427  0.1250918038603928  0.2779408447549940   F   F   F
  0.7497932119634427  0.3750918040744793  0.2779408447549940   F   F   F
  0.7498000177344295  0.9998887643854673  0.2779024730268418   F   F   F
  0.7498000177344295  0.4998887643854673  0.2779024730268418   F   F   F
  0.7498000177344295  0.7498887645995538  0.2779024730268418   F   F   F
  0.7498000177344295  0.2498887645995538  0.2779024730268418   F   F   F
  0.0824000497317835  0.9385887409316270  0.4535492210607700   T   T   T
  0.0825727650034978  0.4376830284600572  0.2837096284632494   F   F   F
  0.0825727650034978  0.6876830282459707  0.2837096284632494   F   F   F
  0.0825727650034978  0.9376830284600572  0.2837096284632494   F   F   F
  0.0825727650034978  0.1876830282459707  0.2837096284632494   F   F   F
  0.0826029583302130  0.5626929404925889  0.2836274496354534   F   F   F
  0.0826029583302130  0.0626929404925889  0.2836274496354534   F   F   F
  0.0826029583302130  0.8126929402785024  0.2836274496354534   F   F   F
  0.0826029583302130  0.3126929402785024  0.2836274496354534   F   F   F
  0.0827006745358328  0.6884776253715811  0.4535216091870949   T   T   T
  0.0828852465713365  0.1886008486114909  0.4538348293877233   T   T   T
  0.8297035205778759  0.9419471022182917  0.5428919604507805   T   T   T
  0.8300327364246436  0.6918739498634986  0.5428311481524397   T   T   T
  0.8303533914521076  0.1912895309727380  0.5428864497331678   T   T   T
  0.8318945105925160  0.4377770239683704  0.3677343057349771   T   T   T
  0.8319610696071083  0.1876936798067876  0.3677294959742284   T   T   T
  0.8321248431255610  0.9377301703110952  0.3677815547760823   T   T   T
  0.8321498773962557  0.6877402936726101  0.3677854314722150   T   T   T
  0.8320381938169553  0.4420226454828774  0.5424947155542583   T   T   T
  0.8322402461305015  0.3127392950513472  0.3677355491447382   T   T   T
  0.8322347376003740  0.5628299740861380  0.3678068122539978   T   T   T
  0.8323611118561884  0.0627266431877296  0.3679539977716326   T   T   T
  0.8324606084656639  0.8127763066952052  0.3680011094033138   T   T   T
  0.8336793151700448  0.5625684457322180  0.2026879705260853   F   F   F
  0.8336793151700448  0.0625684457322180  0.2026879705260853   F   F   F
  0.8336793151700448  0.8125684455181315  0.2026879705260853   F   F   F
  0.8336793151700448  0.3125684455181315  0.2026879705260853   F   F   F
  0.8337395527315365  0.4376312579759087  0.2027221981443361   F   F   F
  0.8337395527315365  0.6876312577618222  0.2027221981443361   F   F   F
  0.8337395527315365  0.9376312579759087  0.2027221981443361   F   F   F
  0.8337395527315365  0.1876312577618222  0.2027221981443361   F   F   F
  0.0834357289244545  0.4379533668861593  0.4534574129966571   T   T   T
  0.0844398530789626  0.3133160930704644  0.4554029423433013   T   T   T
  0.0852127707809619  0.0634370029365212  0.4540348642461576   T   T   T
  0.0854682090797620  0.8134864672116956  0.4542757602713677   T   T   T
  0.0857282063102882  0.5634627161442236  0.4538984806906259   T   T   T
  0.9146965533683279  0.0634870591207999  0.4543235426857337   T   T   T
  0.9148855385556277  0.8135335837397829  0.4542573893952201   T   T   T
  0.9149341312553727  0.3134773806705640  0.4537642868550146   T   T   T
  0.9151857273171603  0.5636144409675780  0.4538468237024175   T   T   T
  0.9172382014976789  0.1885464072168288  0.4534231985806177   T   T   T
  0.9173970416697870  0.5626929404925889  0.2836274496354534   F   F   F
  0.9173970416697870  0.0626929404925889  0.2836274496354534   F   F   F
  0.9173970416697870  0.8126929402785024  0.2836274496354534   F   F   F
  0.9173970416697870  0.3126929402785024  0.2836274496354534   F   F   F
  0.9174272349965022  0.4376830284600572  0.2837096284632494   F   F   F
  0.9174272349965022  0.6876830282459707  0.2837096284632494   F   F   F
  0.9174272349965022  0.9376830284600572  0.2837096284632494   F   F   F
  0.9174272349965022  0.1876830282459707  0.2837096284632494   F   F   F
  0.9175017301938387  0.4387377043391669  0.4533295354687024   T   T   T
  0.9175693494096369  0.9385654423510830  0.4534432934499200   T   T   T
  0.9179361798465737  0.6885819404925280  0.4534982433945862   T   T   T
  0.9944424009195179  0.3803462889151267  0.5411989212842546   T   T   T
  0.9974174220879666  0.2499916163941325  0.5416432485463240   T   T   T
  0.9999585082888220  0.8776030912833268  0.5420913338401936   T   T   T
  0.9999474016789459  0.0005673994530221  0.3693345420068199   T   T   T
  0.1662604174500757  0.4376312579759087  0.2027221981443361   F   F   F
  0.1662604174500757  0.6876312577618222  0.2027221981443361   F   F   F
  0.1662604174500757  0.9376312579759087  0.2027221981443361   F   F   F
  0.1662604174500757  0.1876312577618222  0.2027221981443361   F   F   F
  0.1663206550115603  0.5625684457322180  0.2026879705260853   F   F   F
  0.1663206550115603  0.0625684457322180  0.2026879705260853   F   F   F
  0.1663206550115603  0.8125684455181315  0.2026879705260853   F   F   F
  0.1663206550115603  0.3125684455181315  0.2026879705260853   F   F   F
  0.1668869599481226  0.4391083792368630  0.5413807232564910   T   T   T
  0.1675043152971109  0.0627491419131733  0.3680090868414926   T   T   T
  0.1676030350958680  0.8127730115962271  0.3680281844979963   T   T   T
  0.1676578151249800  0.1877322329538979  0.3680172599476959   T   T   T
  0.1677787871823765  0.4376085789143197  0.3678085666536507   T   T   T
  0.1678355684917234  0.9377583709904135  0.3677886416095190   T   T   T
  0.1678377513057391  0.5627777840702149  0.3678299521604981   T   T   T
  0.1679361441766572  0.3125913759077093  0.3682792791996731   T   T   T
  0.1679674130989108  0.6877166195662550  0.3677387387002337   T   T   T
  0.1688065053664676  0.1904030389431668  0.5438159766652348   T   T   T
  0.1699004462036396  0.9409071561842053  0.5429082053513512   T   T   T