Cu	N	Ru	Ta                              
   1.00000000000000     
    18.1096308199999996    0.0000000000000000    0.0000000000000000
     0.0000000000000000   23.3551997799999995    0.0000000000000000
     0.0000000000000000    0.0000000000000000   30.4818171199999988
   Cu   N    Ru   Ta
     2   240    24   216
Selective dynamics
Direct
  0.5602227619196590  0.4621511126117507  0.6035777096349947   T   T   T
  0.4288852857607682  0.4562665941650693  0.6087705025311919   T   T   T
  0.0000000000000000  0.0000770226766207  0.3028264943543491   F   F   F
  0.0000000000000000  0.5000770226766207  0.3028264943543491   F   F   F
  0.0000000000000000  0.6248851796377153  0.3029475127301708   F   F   F
  0.0000000000000000  0.7500770228907001  0.3028264943543491   F   F   F
  0.0000000000000000  0.8748851798518018  0.3029475127301708   F   F   F
  0.0000000000000000  0.1248851796377153  0.3029475127301708   F   F   F
  0.0000000000000000  0.2500770228907001  0.3028264943543491   F   F   F
  0.0000000000000000  0.3748851798518018  0.3029475127301708   F   F   F
  0.9999328951966830  0.2513874496350053  0.4744281901137791   T   T   T
  0.0015142130139228  0.6265427231802670  0.4749565517649291   T   T   T
  0.5929459611447452  0.8931933758451213  0.5680707030212655   T   T   T
  0.6004853455208923  0.6449330412141236  0.5732869487043480   T   T   T
  0.5899584512699874  0.1486224826833680  0.5691918444323603   T   T   T
  0.5943504772119894  0.6250779795299195  0.2321437935324795   F   F   F
  0.5943504772119894  0.8750779797440060  0.2321437935324795   F   F   F
  0.5943504772119894  0.1250779795299195  0.2321437935324795   F   F   F
  0.5943504772119894  0.3750779797440060  0.2321437935324795   F   F   F
  0.5943930523482663  0.9999373617004466  0.2321734905809336   F   F   F
  0.5943930523482663  0.4999373617004466  0.2321734905809336   F   F   F
  0.5943930523482663  0.7499373619145331  0.2321734905809336   F   F   F
  0.5943930523482663  0.2499373619145331  0.2321734905809336   F   F   F
  0.5940853378923755  0.0182743865864153  0.5656619161226638   T   T   T
  0.6005577153377692  0.7692260724826364  0.5671601453941856   T   T   T
  0.5992672533866967  0.2709853763653171  0.5683492715700263   T   T   T
  0.5924069046385807  0.3938512599866451  0.5692779105130623   T   T   T
  0.5982818430841608  0.3744366893925617  0.4023915557897172   T   T   T
  0.5979340510368241  0.5006911997904929  0.4013957478710802   T   T   T
  0.5988217535109465  0.2507642759118412  0.4018418263527427   T   T   T
  0.5988324558104757  0.1242450983768003  0.4028029930052489   T   T   T
  0.5989089902193445  0.8743098501701119  0.4025017664492510   T   T   T
  0.5988145285228378  0.0005527684616561  0.4018823091130123   T   T   T
  0.5996533492936109  0.7504875025825229  0.4016889186281873   T   T   T
  0.5994592603884977  0.6244770796378851  0.4024983260585714   T   T   T
  0.5997087012558177  0.5186126020159972  0.5608881992766962   T   T   T
  0.6503737180200617  0.9964083035958852  0.4833840696631517   T   T   T
  0.6521698785096046  0.8781189888906215  0.4878849990272003   T   T   T
  0.6522043990227193  0.7470533941417274  0.4839651223143820   T   T   T
  0.6505259430014484  0.2469544579457500  0.4837060401634755   T   T   T
  0.6517473088381379  0.6256790745102797  0.4899833021891246   T   T   T
  0.6508244322034614  0.1279143422860758  0.4887042871737298   T   T   T
  0.6495308123793390  0.4977302183730429  0.4823221683824022   T   T   T
  0.6509890079196337  0.3786068338688885  0.4882008983709656   T   T   T
  0.6547082680948861  0.6251230654212776  0.3157550047659328   F   F   F
  0.6547082680948861  0.8751230656353641  0.3157550047659328   F   F   F
  0.6547082680948861  0.1251230654212776  0.3157550047659328   F   F   F
  0.6547082680948861  0.3751230656353641  0.3157550047659328   F   F   F
  0.6547523877132235  0.9998547719551993  0.3156484409089586   F   F   F
  0.6547523877132235  0.4998547719551993  0.3156484409089586   F   F   F
  0.6547523877132235  0.7498547721692859  0.3156484409089586   F   F   F
  0.6547523877132235  0.2498547721692859  0.3156484409089586   F   F   F
  0.7499701007170094  0.2566199124298773  0.5605872686471993   T   T   T
  0.7489708715401920  0.0081979408557622  0.5578627297592267   T   T   T
  0.7499893743173233  0.1248322404822213  0.3887843307073219   T   T   T
  0.7515138593178401  0.7574158453362445  0.5604326517205290   T   T   T
  0.7498712184146464  0.2499790936666929  0.3868527763458748   T   T   T
  0.7496238062768196  0.3749760111859071  0.3880154100366920   T   T   T
  0.7503206363164993  0.7500332462023660  0.3866811852294176   T   T   T
  0.7499582659827568  0.0002912605513999  0.3869297625032153   T   T   T
  0.7501075252162168  0.8748310400769049  0.3879203722160802   T   T   T
  0.7496521137357023  0.5002690285608389  0.3868477333044475   T   T   T
  0.7501610416193023  0.6249431960166759  0.3886883361827078   T   T   T
  0.7499999997239044  0.0000513585844359  0.1992858820091215   F   F   F
  0.7499999997239044  0.5000513585844431  0.1992858820091215   F   F   F
  0.7499999997239044  0.6250070552811167  0.1993925282102751   F   F   F
  0.7499999997239044  0.7500513587985225  0.1992858820091215   F   F   F
  0.7499999997239044  0.8750070554952032  0.1993925282102751   F   F   F
  0.7499999997239044  0.1250070552811167  0.1993925282102751   F   F   F
  0.7499999997239044  0.2500513587985225  0.1992858820091215   F   F   F
  0.7499999997239044  0.3750070554952032  0.1993925282102751   F   F   F
  0.7508341749452103  0.1362591134764699  0.5543902077648545   T   T   T
  0.7489806480728421  0.8858087815497279  0.5600996453679608   T   T   T
  0.7489408554270144  0.5063633470564139  0.5589986170957558   T   T   T
  0.7608076518618093  0.6362469323643526  0.5546571358382774   T   T   T
  0.7491182591958749  0.3834080349892339  0.5606975128877355   T   T   T
  0.8452476122867765  0.9998547719551993  0.3156484409089586   F   F   F
  0.8452476122867765  0.4998547719551993  0.3156484409089586   F   F   F
  0.8452476122867765  0.7498547721692859  0.3156484409089586   F   F   F
  0.8452476122867765  0.2498547721692859  0.3156484409089586   F   F   F
  0.8452917319051139  0.6251230654212776  0.3157550047659328   F   F   F
  0.8452917319051139  0.8751230656353641  0.3157550047659328   F   F   F
  0.8452917319051139  0.1251230654212776  0.3157550047659328   F   F   F
  0.8452917319051139  0.3751230656353641  0.3157550047659328   F   F   F
  0.8489901092318669  0.2474453514739938  0.4837661386709369   T   T   T
  0.8496177010683745  0.1288328140597159  0.4884343903192626   T   T   T
  0.8501846189013217  0.7476875782048719  0.4832659464023681   T   T   T
  0.8486708209900263  0.8780586842781054  0.4883669307116082   T   T   T
  0.8491131809409576  0.9970827212601687  0.4835941884201362   T   T   T
  0.8476085302735931  0.3780869184288015  0.4883488694909882   T   T   T
  0.8507800573317997  0.6305654510915306  0.4869849779520019   T   T   T
  0.8483543222562637  0.4978009687639255  0.4843279695432626   T   T   T
  0.9011709005892585  0.2507959400280139  0.4017154749073838   T   T   T
  0.9004007601053903  0.5010546727374153  0.4018098477488197   T   T   T
  0.9010614678701268  0.0010263877152170  0.4018142432380376   T   T   T
  0.9017710553390246  0.7512198195803335  0.4014731493382107   T   T   T
  0.9013480931982631  0.1247868170781090  0.4027905593208841   T   T   T
  0.9004645051098588  0.3749492055910919  0.4023869066239313   T   T   T
  0.9016352886104588  0.6249224863526606  0.4023330216431291   T   T   T
  0.9011258532730018  0.8749460524963579  0.4022848423336858   T   T   T
  0.9002696423229660  0.2693390937592193  0.5688769316799294   T   T   T
  0.9031860678243294  0.7714837057308478  0.5687956946248941   T   T   T
  0.9059205143007649  0.0185008311256700  0.5647263081238553   T   T   T
  0.9063035419802304  0.5166118309874460  0.5657930366165483   T   T   T
  0.9056069476517337  0.9999373617004466  0.2321734905809336   F   F   F
  0.9056069476517337  0.4999373617004466  0.2321734905809336   F   F   F
  0.9056069476517337  0.7499373619145331  0.2321734905809336   F   F   F
  0.9056069476517337  0.2499373619145331  0.2321734905809336   F   F   F
  0.9056495227880106  0.6250779795299195  0.2321437935324795   F   F   F
  0.9056495227880106  0.8750779797440060  0.2321437935324795   F   F   F
  0.9056495227880106  0.1250779795299195  0.2321437935324795   F   F   F
  0.9056495227880106  0.3750779797440060  0.2321437935324795   F   F   F
  0.8993508463495933  0.3935890699616931  0.5716913126852946   T   T   T
  0.9019966968089007  0.8948413399413189  0.5705178121671831   T   T   T
  0.9109821187981939  0.1481012850891512  0.5693443267831617   T   T   T
  0.9162066946701071  0.6512266718339552  0.5682113161721692   T   T   T
  0.1004474758578894  0.6458314245442414  0.5715884107237369   T   T   T
  0.0880696760558645  0.8996427472134534  0.5686867422736519   T   T   T
  0.0974223836949459  0.1443484818662499  0.5699947947649145   T   T   T
  0.0838359237515650  0.3977008949294124  0.5694125721484388   T   T   T
  0.0943504772119894  0.6250779795299195  0.2321437935324795   F   F   F
  0.0943504772119894  0.8750779797440060  0.2321437935324795   F   F   F
  0.0943504772119894  0.1250779795299195  0.2321437935324795   F   F   F
  0.0943504772119894  0.3750779797440060  0.2321437935324795   F   F   F
  0.0943930523482663  0.9999373617004466  0.2321734905809336   F   F   F
  0.0943930523482663  0.4999373617004466  0.2321734905809336   F   F   F
  0.0943930523482663  0.7499373619145331  0.2321734905809336   F   F   F
  0.0943930523482663  0.2499373619145331  0.2321734905809336   F   F   F
  0.0965701211037559  0.5187762135808989  0.5700866124419073   T   T   T
  0.0980378130059103  0.0205806774766513  0.5687030036293240   T   T   T
  0.0958298293459039  0.7677035501343022  0.5653133014435276   T   T   T
  0.0926166667733596  0.2663130238676623  0.5654162020603677   T   T   T
  0.0988738307799637  0.8747632997481180  0.4024312661090975   T   T   T
  0.0993257611775359  0.6251025066935850  0.4024531321603021   T   T   T
  0.0981387716504846  0.3746692880297260  0.4020384656136488   T   T   T
  0.0982907606396451  0.5012251026703335  0.4010364304896968   T   T   T
  0.0990150468202159  0.1251908916822349  0.4026222785917189   T   T   T
  0.0989034111999352  0.0011217144977454  0.4014806657570709   T   T   T
  0.0996712758884997  0.7511857377107957  0.4020949445284451   T   T   T
  0.0991536114688025  0.2508002795961907  0.4021109917295750   T   T   T
  0.9989764337089732  0.5020025675778164  0.4738073390099810   T   T   T
  0.9979635758683484  0.3761062036402275  0.4749712311744155   T   T   T
  0.9995731187672511  0.8761995715716966  0.4752270149508516   T   T   T
  0.0008491961524188  0.1258462384330396  0.4757698769829755   T   T   T
  0.0001385734537570  0.0015690349481461  0.4740258558088074   T   T   T
  0.0010476552955201  0.7518518034160910  0.4743412792916987   T   T   T
  0.1485218283793815  0.4971188317869600  0.4822492152658526   T   T   T
  0.1521177402085944  0.6274213803753045  0.4886386171838330   T   T   T
  0.1478626049515236  0.3804522611265090  0.4862083288524767   T   T   T
  0.1504263082227570  0.8804643745358678  0.4870759008750050   T   T   T
  0.1507198235794079  0.9974462780235835  0.4832929629262806   T   T   T
  0.1532546975204213  0.7474386987429131  0.4848017949888949   T   T   T
  0.1519987072855221  0.1279455750772800  0.4882696423831990   T   T   T
  0.1523492595577814  0.2480059326877962  0.4852946713077534   T   T   T
  0.1547082680948861  0.6251230654212776  0.3157550047659328   F   F   F
  0.1547082680948861  0.8751230656353641  0.3157550047659328   F   F   F
  0.1547082680948861  0.1251230654212776  0.3157550047659328   F   F   F
  0.1547082680948861  0.3751230656353641  0.3157550047659328   F   F   F
  0.1547523877132235  0.9998547719551993  0.3156484409089586   F   F   F
  0.1547523877132235  0.4998547719551993  0.3156484409089586   F   F   F
  0.1547523877132235  0.7498547721692859  0.3156484409089586   F   F   F
  0.1547523877132235  0.2498547721692859  0.3156484409089586   F   F   F
  0.2374929472576723  0.3837721987276195  0.5537986005967925   T   T   T
  0.2436520396203834  0.5054465233927272  0.5562109426769876   T   T   T
  0.2552743477297946  0.6319217818121381  0.5564413455229922   T   T   T
  0.2506659117482412  0.1329222120490008  0.5597496923241845   T   T   T
  0.2502146589244433  0.6248551549876752  0.3883568208168300   T   T   T
  0.2499999997239044  0.0000513585844359  0.1992858820091215   F   F   F
  0.2499999997239044  0.5000513585844431  0.1992858820091215   F   F   F
  0.2499999997239044  0.6250070552811167  0.1993925282102751   F   F   F
  0.2499999997239044  0.7500513587985225  0.1992858820091215   F   F   F
  0.2499999997239044  0.8750070554952032  0.1993925282102751   F   F   F
  0.2499999997239044  0.1250070552811167  0.1993925282102751   F   F   F
  0.2499999997239044  0.2500513587985225  0.1992858820091215   F   F   F
  0.2499999997239044  0.3750070554952032  0.1993925282102751   F   F   F
  0.2446295737101886  0.8867301843755814  0.5547607380483899   T   T   T
  0.2500058774143299  0.5000900927563071  0.3868421641718737   T   T   T
  0.2501356935647852 -0.0000033517805039  0.3866729382218299   T   T   T
  0.2503144911899239  0.8749085860945882  0.3886263266036685   T   T   T
  0.2503642916244261  0.7502250427385802  0.3867010745525173   T   T   T
  0.2499422750326345  0.3748336228847272  0.3886763331305431   T   T   T
  0.2547272331148656  0.7556334989727770  0.5607495899023129   T   T   T
  0.2501130596663992  0.2502487122867377  0.3869863049318463   T   T   T
  0.2501217439609514  0.1249012054459338  0.3879669557934192   T   T   T
  0.2499361299691489  0.0070189717134486  0.5602381338153473   T   T   T
  0.2532401419880183  0.2540419930933764  0.5629286103091460   T   T   T
  0.3452476122867765  0.9998547719551993  0.3156484409089586   F   F   F
  0.3452476122867765  0.4998547719551993  0.3156484409089586   F   F   F
  0.3452476122867765  0.7498547721692859  0.3156484409089586   F   F   F
  0.3452476122867765  0.2498547721692859  0.3156484409089586   F   F   F
  0.3452917319051139  0.6251230654212776  0.3157550047659328   F   F   F
  0.3452917319051139  0.8751230656353641  0.3157550047659328   F   F   F
  0.3452917319051139  0.1251230654212776  0.3157550047659328   F   F   F
  0.3452917319051139  0.3751230656353641  0.3157550047659328   F   F   F
  0.3483016210526013  0.3761828422918500  0.4893312570067389   T   T   T
  0.3469879523126355  0.4962643444612420  0.4844801281873886   T   T   T
  0.3486878361664068  0.1278847979810265  0.4879343651649494   T   T   T
  0.3500275003524384  0.6302068159610227  0.4881340995104795   T   T   T
  0.3501124952822932  0.2469220941658501  0.4832164517773267   T   T   T
  0.3510649121440651  0.7478080314392669  0.4825139696278490   T   T   T
  0.3491982497431963  0.8768290649614963  0.4894802051424952   T   T   T
  0.3490554930471075  0.9968891882771197  0.4837126078523567   T   T   T
  0.3887915972173060  0.5150411427190297  0.5700686560650559   T   T   T
  0.4017556766445378  0.7507223189708245  0.4013656012845210   T   T   T
  0.4012002052845248  0.0003870658108689  0.4017827169028259   T   T   T
  0.4013748532183539  0.6240636631284909  0.4026956316696839   T   T   T
  0.4005713646632563  0.5006215297319542  0.4024168074252868   T   T   T
  0.4013437519728724  0.1243205305270344  0.4023370026578522   T   T   T
  0.4013551578820460  0.8743323295565484  0.4027436494553069   T   T   T
  0.4013311362364385  0.2507501985766462  0.4017942658220695   T   T   T
  0.4009435108402502  0.3744042300363231  0.4029472676488275   T   T   T
  0.3982929728307130  0.3909653757287260  0.5732608419842705   T   T   T
  0.4054185283633384  0.2679102449221019  0.5646665072726536   T   T   T
  0.4114466429646957  0.7726941028755179  0.5631515494252036   T   T   T
  0.4024211240447950  0.0191022457203617  0.5670229441377320   T   T   T
  0.4056069476517337  0.9999373617004466  0.2321734905809336   F   F   F
  0.4056069476517337  0.4999373617004466  0.2321734905809336   F   F   F
  0.4056069476517337  0.7499373619145331  0.2321734905809336   F   F   F
  0.4056069476517337  0.2499373619145331  0.2321734905809336   F   F   F
  0.4056495227880106  0.6250779795299195  0.2321437935324795   F   F   F
  0.4056495227880106  0.8750779797440060  0.2321437935324795   F   F   F
  0.4056495227880106  0.1250779795299195  0.2321437935324795   F   F   F
  0.4056495227880106  0.3750779797440060  0.2321437935324795   F   F   F
  0.4046283820693110  0.1421614412337875  0.5692372143777602   T   T   T
  0.4079035490556946  0.8972191698045159  0.5700502436865458   T   T   T
  0.4124624980957793  0.6487937840766690  0.5694413904821469   T   T   T
  0.4995681129436388  0.5019784792419755  0.4755201820006087   T   T   T
  0.5003194665776820  0.2513220334485015  0.4744977076507510   T   T   T
  0.4995975182031581  0.1251150763150708  0.4759203399195044   T   T   T
  0.4996979907872587  0.0003312200437726  0.4740917505132959   T   T   T
  0.5000000000000000  0.0000770226766207  0.3028264943543491   F   F   F
  0.5000000000000000  0.5000770226766207  0.3028264943543491   F   F   F
  0.5000000000000000  0.6248851796377153  0.3029475127301708   F   F   F
  0.5000000000000000  0.7500770228907001  0.3028264943543491   F   F   F
  0.5000000000000000  0.8748851798518018  0.3029475127301708   F   F   F
  0.5000000000000000  0.1248851796377153  0.3029475127301708   F   F   F
  0.5000000000000000  0.2500770228907001  0.3028264943543491   F   F   F
  0.5000000000000000  0.3748851798518018  0.3029475127301708   F   F   F
  0.4995089737306304  0.3755136842576290  0.4765215871142678   T   T   T
  0.5005136172883143  0.8744414623386092  0.4767615867355471   T   T   T
  0.5014086952525006  0.7499873669143312  0.4726000985690874   T   T   T
  0.5012321203957917  0.6255290620984242  0.4756806590468072   T   T   T
  0.9936918071398902  0.2663137098533678  0.5408656758153728   T   T   T
  0.9971393544996658  0.7677647817151810  0.5410492034518681   T   T   T
  0.0045907853616672  0.0163885906862746  0.5405877149891257   T   T   T
  0.0048406450541064  0.5174159979768576  0.5407172913479046   T   T   T
  0.6676899576399904  0.8304892722489691  0.5439556376444854   T   T   T
  0.6596866707769240  0.0833954781825021  0.5476922197838019   T   T   T
  0.6738604467145849  0.5843946341877873  0.5508448472102718   T   T   T
  0.6665049093222080  0.3292298929438011  0.5448832806228383   T   T   T
  0.8314636693737162  0.3288849471907948  0.5442139129892841   T   T   T
  0.8425217482848797  0.0835278053790675  0.5466172055784121   T   T   T
  0.8326116053228900  0.8301459532527137  0.5452830302108368   T   T   T
  0.8550504654692340  0.5829431464672021  0.5444403384919507   T   T   T
  0.1672540218944276  0.5798521573147281  0.5464601141570106   T   T   T
  0.1507319781276679  0.8321245034432870  0.5437581020100913   T   T   T
  0.1667937684146620  0.0794044405754775  0.5447729829824449   T   T   T
  0.1440551049330956  0.3312274370935261  0.5423947982473400   T   T   T
  0.3260544414577699  0.3289300350357706  0.5518177527174458   T   T   T
  0.3335158202981428  0.0791021138021889  0.5435671700303625   T   T   T
  0.3483994541687984  0.5845499508945877  0.5468403893061542   T   T   T
  0.3352212926297576  0.8346514037310432  0.5506389599983715   T   T   T
  0.4898145641449218  0.5197369868812015  0.5431007355365759   T   T   T
  0.4967970248596736  0.0142312333009753  0.5402071223331403   T   T   T
  0.5083937368907860  0.7607990727565674  0.5386778306003128   T   T   T
  0.5044371658605313  0.2675860062298326  0.5411873898226784   T   T   T
  0.0000000000000000  0.9999830748611132  0.1973415402473861   F   F   F
  0.0000000000000000  0.4999830748611132  0.1973415402473861   F   F   F
  0.0000000000000000  0.6250597900044994  0.1972695212469660   F   F   F
  0.0000000000000000  0.7499830750751997  0.1973415402473861   F   F   F
  0.0000000000000000  0.8750597902185859  0.1972695212469660   F   F   F
  0.0000000000000000  0.1250597900044994  0.1972695212469660   F   F   F
  0.0000000000000000  0.2499830750751997  0.1973415402473861   F   F   F
  0.0000000000000000  0.3750597902185859  0.1972695212469660   F   F   F
  0.0000900454566175  0.1249460693130902  0.3696985320840667   T   T   T
  0.0001377458367424  0.2504177187342609  0.3694726613425393   T   T   T
  0.0003764650623634  0.6250701958023124  0.3695472073283798   T   T   T
  0.9993580120471838  0.3748364935447492  0.3694523985507778   T   T   T
  0.9960359664003814  0.8723843949235204  0.5437641229095964   T   T   T
  0.0076591171919143  0.6227832950326717  0.5433846287942223   T   T   T
  0.5824959423441172  0.4374754614066489  0.2839355729984092   F   F   F
  0.5824959423441172  0.6874754611925624  0.2839355729984092   F   F   F
  0.5824959423441172  0.9374754614066489  0.2839355729984092   F   F   F
  0.5824959423441172  0.1874754611925624  0.2839355729984092   F   F   F
  0.5827651808530874  0.5624885324787385  0.2838652796168972   F   F   F
  0.5827651808530874  0.0624885324787385  0.2838652796168972   F   F   F
  0.5827651808530874  0.8124885322646520  0.2838652796168972   F   F   F
  0.5827651808530874  0.3124885322646520  0.2838652796168972   F   F   F
  0.5830284090558185  0.1873712020570474  0.4529437763844572   T   T   T
  0.5824412438522208  0.4378157749283066  0.4526325989978584   T   T   T
  0.5833800671702566  0.9369455359438182  0.4529954562001687   T   T   T
  0.5848600935032857  0.6867606194434369  0.4532528517744474   T   T   T
  0.5841388146241507  0.5625348383219917  0.4550655021334558   T   T   T
  0.5851905156345595  0.3129616371843257  0.4555461236156660   T   T   T
  0.5854680680107746  0.0626443535244613  0.4559249850834493   T   T   T
  0.5861508440248535  0.8122292718618004  0.4552359014137974   T   T   T
  0.6659163253997278  0.5625456426731574  0.2025671506292426   F   F   F
  0.6659163253997278  0.0625456426731503  0.2025671506292426   F   F   F
  0.6659163253997278  0.8125456424590709  0.2025671506292426   F   F   F
  0.6659163253997278  0.3125456424590709  0.2025671506292426   F   F   F
  0.6659898017733283  0.4375125970341855  0.2025194438276969   F   F   F
  0.6659898017733283  0.6875125968200990  0.2025194438276969   F   F   F
  0.6659898017733283  0.9375125970341855  0.2025194438276969   F   F   F
  0.6659898017733283  0.1875125968200990  0.2025194438276969   F   F   F
  0.6676430467351816  0.2017808442061898  0.5418747417108856   T   T   T
  0.6702101231597898  0.7004068590994333  0.5422719859410979   T   T   T
  0.6658800643154345  0.9532519007803469  0.5421220010986121   T   T   T
  0.6680079719371884  0.6872727680115511  0.3683726366081354   T   T   T
  0.6675409678146423  0.5626936922749687  0.3681008421069925   T   T   T
  0.6676325125340867  0.1872519178929282  0.3684143735111571   T   T   T
  0.6675724599613911  0.3125948306366311  0.3680878389889317   T   T   T
  0.6672210793127780  0.4374048829063937  0.3682906369554092   T   T   T
  0.6679873076729673  0.8125088367645151  0.3679603882912224   T   T   T
  0.6677293204891592  0.0626002323693281  0.3682297438056611   T   T   T
  0.6677294649166717  0.9373518637842916  0.3683327877651847   T   T   T
  0.6668595418473355  0.4533452074576438  0.5401186613945395   T   T   T
  0.7506662746981412  0.7486864312110018  0.4538205876310031   T   T   T
  0.7504695372051133  0.8769587461058662  0.4560474508029981   T   T   T
  0.7498048774451688  0.2489518161816093  0.4540103177453541   T   T   T
  0.7498928510377597  0.9978347587806234  0.4542631452317535   T   T   T
  0.7500179938337704  0.1272832911723681  0.4573731871880440   T   T   T
  0.7499999997239044  0.0001643475558382  0.2779548773829816   F   F   F
  0.7499999997239044  0.5001643475558382  0.2779548773829816   F   F   F
  0.7499999997239044  0.6249264342623420  0.2780286426703711   F   F   F
  0.7499999997239044  0.7501643477699247  0.2779548773829816   F   F   F
  0.7499999997239044  0.8749264344764285  0.2780286426703711   F   F   F
  0.7499999997239044  0.1249264342623420  0.2780286426703711   F   F   F
  0.7499999997239044  0.2501643477699247  0.2779548773829816   F   F   F
  0.7499999997239044  0.3749264344764285  0.2780286426703711   F   F   F
  0.7506162320245480  0.6273049584823575  0.4572698496941914   T   T   T
  0.7493041012608639  0.3772008802685844  0.4561326469079217   T   T   T
  0.7497928441300848  0.4985631467962877  0.4541111713678587   T   T   T
  0.0824959423441172  0.4374754614066489  0.2839355729984092   F   F   F
  0.0824959423441172  0.6874754611925624  0.2839355729984092   F   F   F
  0.0824959423441172  0.9374754614066489  0.2839355729984092   F   F   F
  0.0824959423441172  0.1874754611925624  0.2839355729984092   F   F   F
  0.0827651808530874  0.5624885324787385  0.2838652796168972   F   F   F
  0.0827651808530874  0.0624885324787385  0.2838652796168972   F   F   F
  0.0827651808530874  0.8124885322646520  0.2838652796168972   F   F   F
  0.0827651808530874  0.3124885322646520  0.2838652796168972   F   F   F
  0.0805984242600034  0.4384265114721103  0.4516623251675067   T   T   T
  0.8320300246571117  0.9375489931108668  0.3682248703634035   T   T   T
  0.8322611566673382  0.1873553474913328  0.3683892053167955   T   T   T
  0.8317372408575989  0.4375642463433609  0.3681833223180770   T   T   T
  0.8325739183333652  0.6874867390881658  0.3682395325771395   T   T   T
  0.8324026630822438  0.8126805608914202  0.3679026945480042   T   T   T
  0.8322862377403378  0.0627492721084972  0.3682026981873579   T   T   T
  0.8319998516220153  0.3126495169889391  0.3680132457482548   T   T   T
  0.8321768744894276  0.5628426426872978  0.3682130255609185   T   T   T
  0.0851358547408663  0.6882450361059321  0.4533934125865313   T   T   T
  0.8336470344775821  0.2021028756198905  0.5421864556719337   T   T   T
  0.8322029117583708  0.9527384836286807  0.5420937283756752   T   T   T
  0.0825132255861101  0.9383107047424672  0.4523865238720106   T   T   T
  0.8366770380103343  0.7038994759579246  0.5421685701393621   T   T   T
  0.0843005229914152  0.1882256329401431  0.4536747465890123   T   T   T
  0.8340101684082839  0.4375125970341855  0.2025194438276969   F   F   F
  0.8340101684082839  0.6875125968200990  0.2025194438276969   F   F   F
  0.8340101684082839  0.9375125970341855  0.2025194438276969   F   F   F
  0.8340101684082839  0.1875125968200990  0.2025194438276969   F   F   F
  0.8340836447818845  0.5625456426731574  0.2025671506292426   F   F   F
  0.8340836447818845  0.0625456426731503  0.2025671506292426   F   F   F
  0.8340836447818845  0.8125456424590709  0.2025671506292426   F   F   F
  0.8340836447818845  0.3125456424590709  0.2025671506292426   F   F   F
  0.8311714034810586  0.4512152577725153  0.5422960285239997   T   T   T
  0.0850715252547368  0.5634459970909831  0.4548013675865751   T   T   T
  0.0848453593963313  0.3133718112568399  0.4555217650134662   T   T   T
  0.0864854898853637  0.8133383632937594  0.4559540015715539   T   T   T
  0.0854057466327190  0.0633698998281614  0.4550115652224638   T   T   T
  0.9144421239823809  0.0632959968904315  0.4559441614104857   T   T   T
  0.9154354837267168  0.8133967442394501  0.4549362993019548   T   T   T
  0.9143412102388175  0.3131476087999548  0.4549423512628096   T   T   T
  0.9144393466075156  0.5635368399523770  0.4557305087088717   T   T   T
  0.9174888712528895  0.1880425135395898  0.4530567947670952   T   T   T
  0.9163224800814697  0.9379006321952839  0.4528627758939850   T   T   T
  0.9186301641136551  0.6885076032903107  0.4523329782702394   T   T   T
  0.9153239608426224  0.4382691453746027  0.4530899577403208   T   T   T
  0.9172348191469126  0.5624885324787385  0.2838652796168972   F   F   F
  0.9172348191469126  0.0624885324787385  0.2838652796168972   F   F   F
  0.9172348191469126  0.8124885322646520  0.2838652796168972   F   F   F
  0.9172348191469126  0.3124885322646520  0.2838652796168972   F   F   F
  0.9175040576558828  0.4374754614066489  0.2839355729984092   F   F   F
  0.9175040576558828  0.6874754611925624  0.2839355729984092   F   F   F
  0.9175040576558828  0.9374754614066489  0.2839355729984092   F   F   F
  0.9175040576558828  0.1874754611925624  0.2839355729984092   F   F   F
  0.9925308602645544  0.3716264544419522  0.5436600475350604   T   T   T
  0.9992873967768928  0.5006594127939231  0.3692320010290475   T   T   T
  0.0031511271987982  0.1211257465569533  0.5442843155721253   T   T   T
  0.0000932886161490  0.8748917516378341  0.3695116250800429   T   T   T
  0.9999151003935524  0.0005654071912258  0.3693208235703008   T   T   T
  0.0007071694133678  0.7506026060449978  0.3693864594869147   T   T   T
  0.1600487675321410  0.4527922200858571  0.5414353193521469   T   T   T
  0.1659163253997278  0.5625456426731574  0.2025671506292426   F   F   F
  0.1659163253997278  0.0625456426731503  0.2025671506292426   F   F   F
  0.1659163253997278  0.8125456424590709  0.2025671506292426   F   F   F
  0.1659163253997278  0.3125456424590709  0.2025671506292426   F   F   F
  0.1659898017733283  0.4375125970341855  0.2025194438276969   F   F   F
  0.1659898017733283  0.6875125968200990  0.2025194438276969   F   F   F
  0.1659898017733283  0.9375125970341855  0.2025194438276969   F   F   F
  0.1659898017733283  0.1875125968200990  0.2025194438276969   F   F   F
  0.1731609509377389  0.6992314920183140  0.5422704403232059   T   T   T
  0.1665243335259148  0.9525820548477413  0.5420458970503572   T   T   T
  0.1706413031103977  0.2009665599149288  0.5430815997186194   T   T   T
  0.1679113711740272  0.5627790927859598  0.3678917804136605   T   T   T
  0.1677230304364096  0.3127486263574644  0.3682013471464665   T   T   T
  0.1678960930074081  0.0627602145953050  0.3679228530222731   T   T   T
  0.1679970375020527  0.8127823140781583  0.3681827910071825   T   T   T