H S                                     
   1.00000000000000     
    15.9214998300000001    0.0000000000000000    0.0000000000000000
    -7.9622501300000001   13.7910221699999997    0.0000000000000000
     0.0000000000000000    0.0000000000000000   13.5821998300000004
   H    S 
     2     1
Direct
  0.0940446621228688  0.1864066548737924  0.0522949322561956
  0.0346010482669499  0.0619207756664792  0.0443041309604979
  0.0616459116124801  0.1232685930777535  0.1028949019666996
 
  0.00000000E+00  0.00000000E+00  0.00000000E+00
  0.00000000E+00  0.00000000E+00  0.00000000E+00
  0.00000000E+00  0.00000000E+00  0.00000000E+00
