SYSTEM = MoS2
ISMEAR = 1
SIGMA = 0.1
LREAL = .FALSE.
ALGO = Fast
ENCUT = 450
IVDW = 12
ISPIN = 2
LPLANE = .TRUE.
NPAR = 4
NSIM = 4
PREC = normal
LASPH = .TRUE.
LORBIT = 11
