Mo  S Cu                                
   1.00000000000000     
    15.9214998300000001    0.0000000000000000    0.0000000000000000
    -7.9622501300000001   13.7910221699999997    0.0000000000000000
     0.0000000000000000    0.0000000000000000   13.5821998300000004
   Mo   S    Co
    25    50     4
Direct
  0.1306865385019549  0.0676642837617081  0.6763426374171715
  0.1306448019578923  0.2680831558971803  0.6769274958529223
  0.1305000207922831  0.4676446187632450  0.6770860674250727
  0.1307254758408760  0.6676875922569891  0.6772942538806106
  0.1306659945914461  0.8676024665657280  0.6768280625816914
  0.3305793057387731  0.0678983818550734  0.6763770198964849
  0.3288257461141342  0.2670918727515925  0.6695260453165588
  0.3301470632420802  0.4677819823439506  0.6742559059160982
  0.3306539342021111  0.6676953885034891  0.6775329277753954
  0.3308147898242240  0.8678106874134315  0.6781236018985126
  0.5318732932697401  0.0681028807739352  0.6782745543595823
  0.5311219954852930  0.2670334361521896  0.6724568548149534
  0.5322105946082587  0.4698863045286998  0.6679059027366350
  0.5301757316785540  0.6674247763942631  0.6776617709565969
  0.5306573066570763  0.8675279890740839  0.6786684681913115
  0.7307410325408270  0.0674883832705007  0.6788459182246669
  0.7301714146558211  0.2664612242835886  0.6778066099522846
  0.7307007971110764  0.4681810813968639  0.6749293075983616
  0.7310679035486345  0.6678973490724829  0.6751331627801846
  0.7306445883659975  0.8676640925592451  0.6777228478669102
  0.9305770196281244  0.0676316572336901  0.6776965795782957
  0.9306068577588889  0.2676144942497487  0.6780789772334757
  0.9305484167282074  0.4675674823434335  0.6773637663241061
  0.9309793297120166  0.6678735178812119  0.6762031735806460
  0.9307879283230704  0.8677653683893070  0.6768957775751545
  0.0634828471458135  0.1344932707745841  0.5621148061749750
  0.0645038790390871  0.1344510353693238  0.7918460761323445
  0.0631627097325662  0.3340177398322055  0.5623412573075512
  0.0643622919600091  0.3345644262901359  0.7925288654801221
  0.0638008732608384  0.5342862385015366  0.5622062916418713
  0.0639294435138424  0.5343245485225552  0.7923753875590975
  0.0645771226741232  0.7344313996220535  0.5616171041911713
  0.0637609657154456  0.7343181254829219  0.7919476953808839
  0.0639064815749748  0.9341916118790365  0.5616357059020416
  0.0642897348486287  0.9346707748943359  0.7918306587902109
  0.2625808731684529  0.1313514058985703  0.5588391012852227
  0.2659329387910816  0.1374374424528426  0.7898100536716228
  0.2615628265557817  0.3350867202047354  0.5582030466278809
  0.2675536054651317  0.3353215862162955  0.7911307254778848
  0.2631514153848897  0.5353256182532888  0.5611482492993289
  0.2642713645324122  0.5336616696159950  0.7914580196727314
  0.2643953491310782  0.7348076931153145  0.5626327587400723
  0.2638014839001883  0.7341329056450121  0.7927816503812011
  0.2643543146111114  0.9338273069938552  0.5620186948317141
  0.2636562591780063  0.9347253513998481  0.7920321602208276
  0.4644577484269945  0.1328202207370310  0.5615023572970586
  0.4625377824762325  0.1338031594212339  0.7971188177818007
  0.4646157987547710  0.3330888623466990  0.5555993949055704
  0.4616175532546549  0.3381583253041072  0.7830069039162524
  0.4630371821183630  0.5370070195857437  0.5582279695490797
  0.4625571890135518  0.5285520878203798  0.7913408612936550
  0.4643374503685251  0.7350023940865924  0.5629963480361937
  0.4636910113016341  0.7336619304450167  0.7931430129406465
  0.4644651593908193  0.9344406645448231  0.5634488608748782
  0.4640119721517166  0.9344743075693245  0.7934686810668907
  0.6642088610073600  0.1337602318980657  0.5632064626802347
  0.6642540061892674  0.1344004053826708  0.7942078141176268
  0.6650893803128000  0.3335106592741681  0.5608674764677914
  0.6645733493183172  0.3362021568053351  0.7958171577057200
  0.6676205745334585  0.5362726584966779  0.5570716043319948
  0.6618934318498688  0.5332683941454519  0.7881254845851942
  0.6633121332311660  0.7349353569675898  0.5619663999800935
  0.6643036169190992  0.7335593795499236  0.7916246289553541
  0.6637909829990818  0.9345373528384258  0.5633790087345858
  0.6641740294371061  0.9339258500815362  0.7936370540630620
  0.8635503581106576  0.1342060361687771  0.5631615390491191
  0.8644135668338819  0.1343502368733596  0.7934128265084013
  0.8637044460101677  0.3337644638433730  0.5628056056301531
  0.8638416937920255  0.3344669476614257  0.7928351572450438
  0.8650267508490970  0.5343695061622782  0.5610319756889908
  0.8634474961818270  0.5346290580422277  0.7910780453060084
  0.8649141360496628  0.7351691143282864  0.5609389768632056
  0.8636095839125275  0.7338723408380901  0.7912368016343621
  0.8637522846242973  0.9345402215395637  0.5624032666198673
  0.8642198766309193  0.9340798912025150  0.7925252259617181
  0.4048868467426701  0.2536644046070293  0.9826034381264677
  0.5238127601540725  0.2742534114725927  0.8660079276152715
  0.5325861558265998  0.3857560038889858  0.9929768821863405
  0.4189132386856258  0.3979125379665476  0.9027566281462995
 
  0.00000000E+00  0.00000000E+00  0.00000000E+00
  0.00000000E+00  0.00000000E+00  0.00000000E+00
  0.00000000E+00  0.00000000E+00  0.00000000E+00
  0.00000000E+00  0.00000000E+00  0.00000000E+00
  0.00000000E+00  0.00000000E+00  0.00000000E+00
  0.00000000E+00  0.00000000E+00  0.00000000E+00
  0.00000000E+00  0.00000000E+00  0.00000000E+00
  0.00000000E+00  0.00000000E+00  0.00000000E+00
  0.00000000E+00  0.00000000E+00  0.00000000E+00
  0.00000000E+00  0.00000000E+00  0.00000000E+00
  0.00000000E+00  0.00000000E+00  0.00000000E+00
  0.00000000E+00  0.00000000E+00  0.00000000E+00
  0.00000000E+00  0.00000000E+00  0.00000000E+00
  0.00000000E+00  0.00000000E+00  0.00000000E+00
  0.00000000E+00  0.00000000E+00  0.00000000E+00
  0.00000000E+00  0.00000000E+00  0.00000000E+00
  0.00000000E+00  0.00000000E+00  0.00000000E+00
  0.00000000E+00  0.00000000E+00  0.00000000E+00
  0.00000000E+00  0.00000000E+00  0.00000000E+00
  0.00000000E+00  0.00000000E+00  0.00000000E+00
  0.00000000E+00  0.00000000E+00  0.00000000E+00
  0.00000000E+00  0.00000000E+00  0.00000000E+00
  0.00000000E+00  0.00000000E+00  0.00000000E+00
  0.00000000E+00  0.00000000E+00  0.00000000E+00
  0.00000000E+00  0.00000000E+00  0.00000000E+00
  0.00000000E+00  0.00000000E+00  0.00000000E+00
  0.00000000E+00  0.00000000E+00  0.00000000E+00
  0.00000000E+00  0.00000000E+00  0.00000000E+00
  0.00000000E+00  0.00000000E+00  0.00000000E+00
  0.00000000E+00  0.00000000E+00  0.00000000E+00
  0.00000000E+00  0.00000000E+00  0.00000000E+00
  0.00000000E+00  0.00000000E+00  0.00000000E+00
  0.00000000E+00  0.00000000E+00  0.00000000E+00
  0.00000000E+00  0.00000000E+00  0.00000000E+00
  0.00000000E+00  0.00000000E+00  0.00000000E+00
  0.00000000E+00  0.00000000E+00  0.00000000E+00
  0.00000000E+00  0.00000000E+00  0.00000000E+00
  0.00000000E+00  0.00000000E+00  0.00000000E+00
  0.00000000E+00  0.00000000E+00  0.00000000E+00
  0.00000000E+00  0.00000000E+00  0.00000000E+00
  0.00000000E+00  0.00000000E+00  0.00000000E+00
  0.00000000E+00  0.00000000E+00  0.00000000E+00
  0.00000000E+00  0.00000000E+00  0.00000000E+00
  0.00000000E+00  0.00000000E+00  0.00000000E+00
  0.00000000E+00  0.00000000E+00  0.00000000E+00
  0.00000000E+00  0.00000000E+00  0.00000000E+00
  0.00000000E+00  0.00000000E+00  0.00000000E+00
  0.00000000E+00  0.00000000E+00  0.00000000E+00
  0.00000000E+00  0.00000000E+00  0.00000000E+00
  0.00000000E+00  0.00000000E+00  0.00000000E+00
  0.00000000E+00  0.00000000E+00  0.00000000E+00
  0.00000000E+00  0.00000000E+00  0.00000000E+00
  0.00000000E+00  0.00000000E+00  0.00000000E+00
  0.00000000E+00  0.00000000E+00  0.00000000E+00
  0.00000000E+00  0.00000000E+00  0.00000000E+00
  0.00000000E+00  0.00000000E+00  0.00000000E+00
  0.00000000E+00  0.00000000E+00  0.00000000E+00
  0.00000000E+00  0.00000000E+00  0.00000000E+00
  0.00000000E+00  0.00000000E+00  0.00000000E+00
  0.00000000E+00  0.00000000E+00  0.00000000E+00
  0.00000000E+00  0.00000000E+00  0.00000000E+00
  0.00000000E+00  0.00000000E+00  0.00000000E+00
  0.00000000E+00  0.00000000E+00  0.00000000E+00
  0.00000000E+00  0.00000000E+00  0.00000000E+00
  0.00000000E+00  0.00000000E+00  0.00000000E+00
  0.00000000E+00  0.00000000E+00  0.00000000E+00
  0.00000000E+00  0.00000000E+00  0.00000000E+00
  0.00000000E+00  0.00000000E+00  0.00000000E+00
  0.00000000E+00  0.00000000E+00  0.00000000E+00
  0.00000000E+00  0.00000000E+00  0.00000000E+00
  0.00000000E+00  0.00000000E+00  0.00000000E+00
  0.00000000E+00  0.00000000E+00  0.00000000E+00
  0.00000000E+00  0.00000000E+00  0.00000000E+00
  0.00000000E+00  0.00000000E+00  0.00000000E+00
  0.00000000E+00  0.00000000E+00  0.00000000E+00
  0.00000000E+00  0.00000000E+00  0.00000000E+00
  0.00000000E+00  0.00000000E+00  0.00000000E+00
  0.00000000E+00  0.00000000E+00  0.00000000E+00
  0.00000000E+00  0.00000000E+00  0.00000000E+00
