Co  N  H                                
   1.00000000000000     
     9.9566001891999996    0.0000000000000000    0.0000000000000000
    -4.9783000945999998    8.6226686992000001    0.0000000000000000
     0.0000000000000000    0.0000000000000000   23.0708007813000009
   Co   N    H 
    80    14    18
Selective dynamics
Direct
  0.0833299960000033  0.1666699900000026  0.0874599979999999   F   F   F
  0.0811773455497698  0.1655356254591132  0.2623722158549806   T   T   T
  0.1666699880000024  0.0833299900000029  0.0000000000000000   F   F   F
  0.1666699880000024  0.0833299900000029  0.1749099930000000   F   F   F
  0.1677599905996552  0.0730340316044184  0.3446163647251314   T   T   T
  0.3333300139999977  0.1666699900000026  0.0874599979999999   F   F   F
  0.3379786021788351  0.1685085935556150  0.2631012289502718   T   T   T
  0.4166699760000014  0.0833299900000029  0.0000000000000000   F   F   F
  0.4166699760000014  0.0833299900000029  0.1749099930000000   F   F   F
  0.4162844464598260  0.0704614331470589  0.3518674955474511   T   T   T
  0.5833299660000009  0.1666699900000026  0.0874599979999999   F   F   F
  0.5860360322204470  0.1675352853711676  0.2610713172032057   T   T   T
  0.6666700239999983  0.0833299900000029  0.0000000000000000   F   F   F
  0.6666700239999983  0.0833299900000029  0.1749099930000000   F   F   F
  0.6731409533347564  0.0714360048814920  0.3617386438182403   T   T   T
  0.8333299660000009  0.1666699900000026  0.0874599979999999   F   F   F
  0.8339630342955253  0.1665892411526444  0.2616942599136302   T   T   T
  0.9166700239999983  0.0833299900000029  0.0000000000000000   F   F   F
  0.9166700239999983  0.0833299900000029  0.1749099930000000   F   F   F
  0.9366076007110208  0.0747884797284147  0.3618825168322909   T   T   T
  0.0833300010000002  0.4166699640000004  0.0874599979999999   F   F   F
  0.0845058362492645  0.4196305942352822  0.2595760933206991   T   T   T
  0.1666699920000028  0.3333299990000000  0.0000000000000000   F   F   F
  0.1666699920000028  0.3333299990000000  0.1749099930000000   F   F   F
  0.1634843918097452  0.3314261096909205  0.3469398943799005   T   T   T
  0.3333300010000002  0.4166699640000004  0.0874599979999999   F   F   F
  0.3356043781860213  0.4162423341619451  0.2601028018211751   T   T   T
  0.4166699800000018  0.3333299990000000  0.0000000000000000   F   F   F
  0.4166699800000018  0.3333299990000000  0.1749099930000000   F   F   F
  0.4037409567456194  0.3114672733622465  0.3616804737653271   T   T   T
  0.5833299769999982  0.4166699640000004  0.0874599979999999   F   F   F
  0.5818588290481985  0.4175473496462089  0.2613381677141093   T   T   T
  0.6666700279999986  0.3333299990000000  0.0000000000000000   F   F   F
  0.6666700279999986  0.3333299990000000  0.1749099930000000   F   F   F
  0.6666021215783364  0.3334102915695905  0.3532024035817605   T   T   T
  0.8333299530000033  0.4166699640000004  0.0874599979999999   F   F   F
  0.8327788615659981  0.4181587806512839  0.2603435876065378   T   T   T
  0.9166700279999986  0.3333299990000000  0.0000000000000000   F   F   F
  0.9166700279999986  0.3333299990000000  0.1749099930000000   F   F   F
  0.9189814242500345  0.3374988210562332  0.3508749252131819   T   T   T
  0.0833299990000000  0.6666700070000005  0.0874599979999999   F   F   F
  0.0827017650798898  0.6652885279650231  0.2590615840894528   T   T   T
  0.1666699840000021  0.5833299580000002  0.0000000000000000   F   F   F
  0.1666699840000021  0.5833299580000002  0.1749099930000000   F   F   F
  0.1678500757164787  0.5924644351707191  0.3531053047448426   T   T   T
  0.3333299990000000  0.6666700070000005  0.0874599979999999   F   F   F
  0.3344712963015042  0.6670373861687462  0.2607230825941541   T   T   T
  0.4166699600000001  0.5833299580000002  0.0000000000000000   F   F   F
  0.4166699600000001  0.5833299580000002  0.1749099930000000   F   F   F
  0.4172956814522178  0.5822680309277332  0.3519733010094852   T   T   T
  0.5833299749999981  0.6666700070000005  0.0874599979999999   F   F   F
  0.5844516697454073  0.6678171294348303  0.2602226133743302   T   T   T
  0.6666700079999970  0.5833299580000002  0.0000000000000000   F   F   F
  0.6666700079999970  0.5833299580000002  0.1749099930000000   F   F   F
  0.6691320573525834  0.5851613701903133  0.3534189892525148   T   T   T
  0.8333299749999981  0.6666700070000005  0.0874599979999999   F   F   F
  0.8318146108305247  0.6658985201766787  0.2593560064141251   T   T   T
  0.9166700079999970  0.5833299580000002  0.0000000000000000   F   F   F
  0.9166700079999970  0.5833299580000002  0.1749099930000000   F   F   F
  0.9202674738123763  0.5950922782356847  0.3528614535750164   T   T   T
  0.0833299780000019  0.9166699660000006  0.0874599979999999   F   F   F
  0.0849025902232204  0.9205758942486297  0.2565289643138010   T   T   T
  0.1666699640000004  0.8333299179999969  0.0000000000000000   F   F   F
  0.1666699640000004  0.8333299179999969  0.1749099930000000   F   F   F
  0.1650228833502442  0.8385484066541666  0.3385231791619430   T   T   T
  0.3333299780000019  0.9166699660000006  0.0874599979999999   F   F   F
  0.3368995457338909  0.9184147685269103  0.2592950652359527   T   T   T
  0.4166699399999985  0.8333299179999969  0.0000000000000000   F   F   F
  0.4166699399999985  0.8333299179999969  0.1749099930000000   F   F   F
  0.4126600091601446  0.8394756744586142  0.3507023978142779   T   T   T
  0.5833299549999964  0.9166699660000006  0.0874599979999999   F   F   F
  0.5837700463389366  0.9187654374296523  0.2644879275401839   T   T   T
  0.6666699880000024  0.8333299179999969  0.0000000000000000   F   F   F
  0.6666699880000024  0.8333299179999969  0.1749099930000000   F   F   F
  0.6702728139463296  0.8368479079950455  0.3520164540927103   T   T   T
  0.8333299549999964  0.9166699660000006  0.0874599979999999   F   F   F
  0.8310209420217035  0.9225443468174163  0.2617603925300199   T   T   T
  0.9166699880000024  0.8333299179999969  0.0000000000000000   F   F   F
  0.9166699880000024  0.8333299179999969  0.1749099930000000   F   F   F
  0.9231820200836871  0.8422580386605324  0.3391814190320608   T   T   T
  0.8384344086914064  0.4250310213279971  0.3968566594576497   T   T   T
  0.5832662917837106  0.4164179666193395  0.3999815930058931   T   T   T
  0.3227826778292003  0.4119294017335696  0.3967966995100528   T   T   T
  0.0873928183845141  0.4182071756072864  0.3956045574773240   T   T   T
  0.8461624667220821  0.6979395877093825  0.3951442672295489   T   T   T
  0.5860080151435777  0.6691419889791608  0.3970401565387357   T   T   T
  0.5864364628980215  0.1682914062431439  0.3977066420911107   T   T   T
  0.3393706725779997  0.6727586671962125  0.3959841708838689   T   T   T
  0.0912627702471328  0.6907594466535898  0.3971486891341614   T   T   T
  0.8555194274994776  0.1769270293389439  0.3978147673428886   T   T   T
  0.2762558019477098  0.1521223554392993  0.4176713062910507   T   T   T
  0.6514200853982667  0.9288961554012947  0.4217571587748689   T   T   T
  0.9500766658072738  0.0159370350698394  0.4446954149012086   T   T   T
  0.3671281503170389  0.9302792896804329  0.4216942782173795   T   T   T
  0.8409709541751508  0.4231017644888252  0.4416350512636668   T   T   T
  0.5948448931064158  0.4206065137382294  0.4445815693254480   T   T   T
  0.3174704017616488  0.4195844458954285  0.4413825517519254   T   T   T
  0.0852288228286560  0.4146909564086337  0.4403911211596568   T   T   T
  0.8489972065016653  0.7096038513389806  0.4396332778604003   T   T   T
  0.5850804131073024  0.6685189143511570  0.4416932103812237   T   T   T
  0.3352939946710985  0.6719724336790709  0.4407189301302149   T   T   T
  0.0784758935316901  0.6731781890086824  0.4415617162847816   T   T   T
  0.8571521539897224  0.1876380064251184  0.4424093586613857   T   T   T
  0.5824087477595751  0.1778087969117811  0.4422108601887760   T   T   T
  0.2222007023347431  0.1907504804448375  0.4452552104403907   T   T   T
  0.3188047468614285  0.0935000595102691  0.4408207090919175   T   T   T
  0.5517244060784438  0.8668691841936115  0.4450740110108463   T   T   T
  0.7516334465508753  0.9542140935092046  0.4458433623763294   T   T   T
  0.0127657967497938  0.1163094050957375  0.4684542322985519   T   T   T
  0.0137689734435465  0.9610184973953108  0.4475101523411300   T   T   T
  0.4471892538466840  0.9686362590472284  0.4546188913939625   T   T   T
  0.2585474537313593  0.8655405543996554  0.4385577999752299   T   T   T
 
  0.00000000E+00  0.00000000E+00  0.00000000E+00
  0.00000000E+00  0.00000000E+00  0.00000000E+00
  0.00000000E+00  0.00000000E+00  0.00000000E+00
  0.00000000E+00  0.00000000E+00  0.00000000E+00
  0.00000000E+00  0.00000000E+00  0.00000000E+00
  0.00000000E+00  0.00000000E+00  0.00000000E+00
  0.00000000E+00  0.00000000E+00  0.00000000E+00
  0.00000000E+00  0.00000000E+00  0.00000000E+00
  0.00000000E+00  0.00000000E+00  0.00000000E+00
  0.00000000E+00  0.00000000E+00  0.00000000E+00
  0.00000000E+00  0.00000000E+00  0.00000000E+00
  0.00000000E+00  0.00000000E+00  0.00000000E+00
  0.00000000E+00  0.00000000E+00  0.00000000E+00
  0.00000000E+00  0.00000000E+00  0.00000000E+00
  0.00000000E+00  0.00000000E+00  0.00000000E+00
  0.00000000E+00  0.00000000E+00  0.00000000E+00
  0.00000000E+00  0.00000000E+00  0.00000000E+00
  0.00000000E+00  0.00000000E+00  0.00000000E+00
  0.00000000E+00  0.00000000E+00  0.00000000E+00
  0.00000000E+00  0.00000000E+00  0.00000000E+00
  0.00000000E+00  0.00000000E+00  0.00000000E+00
  0.00000000E+00  0.00000000E+00  0.00000000E+00
  0.00000000E+00  0.00000000E+00  0.00000000E+00
  0.00000000E+00  0.00000000E+00  0.00000000E+00
  0.00000000E+00  0.00000000E+00  0.00000000E+00
  0.00000000E+00  0.00000000E+00  0.00000000E+00
  0.00000000E+00  0.00000000E+00  0.00000000E+00
  0.00000000E+00  0.00000000E+00  0.00000000E+00
  0.00000000E+00  0.00000000E+00  0.00000000E+00
  0.00000000E+00  0.00000000E+00  0.00000000E+00
  0.00000000E+00  0.00000000E+00  0.00000000E+00
  0.00000000E+00  0.00000000E+00  0.00000000E+00
  0.00000000E+00  0.00000000E+00  0.00000000E+00
  0.00000000E+00  0.00000000E+00  0.00000000E+00
  0.00000000E+00  0.00000000E+00  0.00000000E+00
  0.00000000E+00  0.00000000E+00  0.00000000E+00
  0.00000000E+00  0.00000000E+00  0.00000000E+00
  0.00000000E+00  0.00000000E+00  0.00000000E+00
  0.00000000E+00  0.00000000E+00  0.00000000E+00
  0.00000000E+00  0.00000000E+00  0.00000000E+00
  0.00000000E+00  0.00000000E+00  0.00000000E+00
  0.00000000E+00  0.00000000E+00  0.00000000E+00
  0.00000000E+00  0.00000000E+00  0.00000000E+00
  0.00000000E+00  0.00000000E+00  0.00000000E+00
  0.00000000E+00  0.00000000E+00  0.00000000E+00
  0.00000000E+00  0.00000000E+00  0.00000000E+00
  0.00000000E+00  0.00000000E+00  0.00000000E+00
  0.00000000E+00  0.00000000E+00  0.00000000E+00
  0.00000000E+00  0.00000000E+00  0.00000000E+00
  0.00000000E+00  0.00000000E+00  0.00000000E+00
  0.00000000E+00  0.00000000E+00  0.00000000E+00
  0.00000000E+00  0.00000000E+00  0.00000000E+00
  0.00000000E+00  0.00000000E+00  0.00000000E+00
  0.00000000E+00  0.00000000E+00  0.00000000E+00
  0.00000000E+00  0.00000000E+00  0.00000000E+00
  0.00000000E+00  0.00000000E+00  0.00000000E+00
  0.00000000E+00  0.00000000E+00  0.00000000E+00
  0.00000000E+00  0.00000000E+00  0.00000000E+00
  0.00000000E+00  0.00000000E+00  0.00000000E+00
  0.00000000E+00  0.00000000E+00  0.00000000E+00
  0.00000000E+00  0.00000000E+00  0.00000000E+00
  0.00000000E+00  0.00000000E+00  0.00000000E+00
  0.00000000E+00  0.00000000E+00  0.00000000E+00
  0.00000000E+00  0.00000000E+00  0.00000000E+00
  0.00000000E+00  0.00000000E+00  0.00000000E+00
  0.00000000E+00  0.00000000E+00  0.00000000E+00
  0.00000000E+00  0.00000000E+00  0.00000000E+00
  0.00000000E+00  0.00000000E+00  0.00000000E+00
  0.00000000E+00  0.00000000E+00  0.00000000E+00
  0.00000000E+00  0.00000000E+00  0.00000000E+00
  0.00000000E+00  0.00000000E+00  0.00000000E+00
  0.00000000E+00  0.00000000E+00  0.00000000E+00
  0.00000000E+00  0.00000000E+00  0.00000000E+00
  0.00000000E+00  0.00000000E+00  0.00000000E+00
  0.00000000E+00  0.00000000E+00  0.00000000E+00
  0.00000000E+00  0.00000000E+00  0.00000000E+00
  0.00000000E+00  0.00000000E+00  0.00000000E+00
  0.00000000E+00  0.00000000E+00  0.00000000E+00
  0.00000000E+00  0.00000000E+00  0.00000000E+00
  0.00000000E+00  0.00000000E+00  0.00000000E+00
  0.00000000E+00  0.00000000E+00  0.00000000E+00
  0.00000000E+00  0.00000000E+00  0.00000000E+00
  0.00000000E+00  0.00000000E+00  0.00000000E+00
  0.00000000E+00  0.00000000E+00  0.00000000E+00
  0.00000000E+00  0.00000000E+00  0.00000000E+00
  0.00000000E+00  0.00000000E+00  0.00000000E+00
  0.00000000E+00  0.00000000E+00  0.00000000E+00
  0.00000000E+00  0.00000000E+00  0.00000000E+00
  0.00000000E+00  0.00000000E+00  0.00000000E+00
  0.00000000E+00  0.00000000E+00  0.00000000E+00
  0.00000000E+00  0.00000000E+00  0.00000000E+00
  0.00000000E+00  0.00000000E+00  0.00000000E+00
  0.00000000E+00  0.00000000E+00  0.00000000E+00
  0.00000000E+00  0.00000000E+00  0.00000000E+00
  0.00000000E+00  0.00000000E+00  0.00000000E+00
  0.00000000E+00  0.00000000E+00  0.00000000E+00
  0.00000000E+00  0.00000000E+00  0.00000000E+00
  0.00000000E+00  0.00000000E+00  0.00000000E+00
  0.00000000E+00  0.00000000E+00  0.00000000E+00
  0.00000000E+00  0.00000000E+00  0.00000000E+00
  0.00000000E+00  0.00000000E+00  0.00000000E+00
  0.00000000E+00  0.00000000E+00  0.00000000E+00
  0.00000000E+00  0.00000000E+00  0.00000000E+00
  0.00000000E+00  0.00000000E+00  0.00000000E+00
  0.00000000E+00  0.00000000E+00  0.00000000E+00
  0.00000000E+00  0.00000000E+00  0.00000000E+00
  0.00000000E+00  0.00000000E+00  0.00000000E+00
  0.00000000E+00  0.00000000E+00  0.00000000E+00
  0.00000000E+00  0.00000000E+00  0.00000000E+00
  0.00000000E+00  0.00000000E+00  0.00000000E+00
  0.00000000E+00  0.00000000E+00  0.00000000E+00
  0.00000000E+00  0.00000000E+00  0.00000000E+00
