System=Co NHx
ISTART =0
ISPIN=2
ICHARG=2
ENCUT=400
ISMEAR=0
SIGMA=0.05
ISIF=2
NSW=2000
IBRION=2
PREC=Normal
LREAL=Auto
SYMPREC = 0.001
NPAR=4
MAGMOM=80*1.9   14*0  18*0  
IVDW=11
