System=Co NHx
ISTART = 0
ISPIN=2
ICHARG=2
ENCUT=400
ISMEAR=0
#SIGMA=0.02
ISIF=2
NSW=1000
IBRION=2
PREC=Normal
LREAL=Auto
SYMPREC = 0.001
#ISYM = 0
NPAR=16
MAGMOM=80*1.9  9*0  9*0 
IVDW=11

