Mo  S Ru                                
   1.00000000000000     
    15.9214998300000001    0.0000000000000000    0.0000000000000000
    -7.9622501300000001   13.7910221699999997    0.0000000000000000
     0.0000000000000000    0.0000000000000000   13.5821998300000004
   Mo   S    Ru
    25    50     3
Direct
  0.1311717264927736  0.0658236795016123  0.6787623513625007
  0.1321694070465114  0.2646014903179719  0.6814162286639132
  0.1327981977015469  0.4654778632976004  0.6807992372031464
  0.1325960815945066  0.6654455055899078  0.6791092297170991
  0.1325079397024638  0.8654660840052841  0.6784642447724707
  0.3325450796734017  0.0653392965371893  0.6797522875601985
  0.3328237636016809  0.2654981019970464  0.6781487031761344
  0.3328918220925203  0.4660591269177345  0.6804675179142450
  0.3326535765472443  0.6657089115591077  0.6786641445461470
  0.3327122285215935  0.8654479894251637  0.6783757422079120
  0.5344339943596879  0.0658182853306997  0.6785023314711793
  0.5324494328867431  0.2654906718372061  0.6780169352757000
  0.5354134951236986  0.4710148196000929  0.6745134610033148
  0.5328242851242138  0.6669322054829792  0.6766696060186206
  0.5328069749822646  0.8657786946221790  0.6774841697789569
  0.7329909415677847  0.0657097548949395  0.6791787464805097
  0.7322391760122073  0.2645990717719755  0.6810654063925057
  0.7329584825788231  0.4660266214084388  0.6802073576478307
  0.7339120661412224  0.6669632407541002  0.6765936529311816
  0.7329372642416558  0.8660999529326574  0.6771207625044511
  0.9325428350423834  0.0657310124028001  0.6793966807934595
  0.9327530505515469  0.2656835773019210  0.6808716091486176
  0.9324769229631613  0.4654790323504230  0.6805998026144096
  0.9328235316808531  0.6657406856793031  0.6785792998801199
  0.9327623483746592  0.8658190921114866  0.6776234644843839
  0.0659585837649246  0.1331784787109811  0.5644818401937997
  0.0649146874425028  0.1311471400102491  0.7956577553559967
  0.0662047162572463  0.3320025064081520  0.5661334087771976
  0.0659860272181874  0.3322429442090709  0.7962607229071708
  0.0655957817890993  0.5312684871096849  0.5652148547035338
  0.0662203494942801  0.5327943104688870  0.7952464013283702
  0.0661074398069488  0.7319411661114401  0.5635662906537959
  0.0659357826324367  0.7324124179638503  0.7937978162847088
  0.0664545064860889  0.9327876479271566  0.5631297405276854
  0.0651244304869820  0.9316872828737388  0.7932314268500136
  0.2661116034915310  0.1320532034387085  0.5648497715635585
  0.2633781741432912  0.1284747141807117  0.7983653871891505
  0.2654554645943392  0.3317259448291949  0.5664835056691402
  0.2669850001540510  0.3325795487894183  0.8011131634579982
  0.2652353753332974  0.5313678640010338  0.5648886038413323
  0.2667251005393112  0.5333695635855733  0.7951345665108889
  0.2655567364187661  0.7318512128488095  0.5635623161913372
  0.2662181886976853  0.7324546485660619  0.7937915703960385
  0.2660243906190800  0.9323429474515805  0.5634444468337492
  0.2652994907698556  0.9307630753364862  0.7936990373430959
  0.4656319711191799  0.1320389167739364  0.5647104372087597
  0.4648976037184340  0.1284907177783268  0.7982087989819959
  0.4664153874940880  0.3330899803240612  0.5632117456667345
  0.4721242652701036  0.3444512523968370  0.7907253528003579
  0.4641698746092047  0.5336761998890083  0.5612586986073822
  0.4680995837429123  0.5352092532743953  0.7924463707849085
  0.4651751814430654  0.7327587636763084  0.5622374866014681
  0.4666228299460897  0.7329921391172292  0.7928308697258757
  0.4660348000856303  0.9326903883452218  0.5629476458357487
  0.4663832171024112  0.9317466871060986  0.7930381292304602
  0.6670240791870512  0.1331079795894254  0.5641538493333442
  0.6660476641911188  0.1311952588426308  0.7953240745279970
  0.6660207082084639  0.3317034595636414  0.5661900764168237
  0.6653333498415890  0.3325072895099552  0.8008639482551416
  0.6692715749208702  0.5337339910079208  0.5611270225738778
  0.6670179264271496  0.5351874178647407  0.7922944656456252
  0.6664253787002963  0.7331204853079143  0.5615254635123605
  0.6663770977359817  0.7329370266745912  0.7916798034171535
  0.6664599877559780  0.9333832261750175  0.5626734528517687
  0.6659168600994150  0.9316160137405163  0.7929472809726121
  0.8666543061619834  0.1333277806308004  0.5646340214792147
  0.8656321063375785  0.1316139726238177  0.7949831151548423
  0.8657542880844531  0.3319958358953770  0.5659087344243119
  0.8659413863444598  0.3322442550793738  0.7960453153272269
  0.8659956240924913  0.5314664503258157  0.5646816803158146
  0.8663684646449141  0.5333030891921169  0.7949156025547666
  0.8674256322623606  0.7329245792064043  0.5622215383492275
  0.8661021352638301  0.7329383850774747  0.7928304094205885
  0.8667998752716457  0.9334801365568310  0.5628110754380700
  0.8653857827235782  0.9315740156236245  0.7930826114650671
  0.3495383775640377  0.2634448781783405  0.8928803387500679
  0.5133825125532212  0.2633233195217599  0.8929452864620302
  0.4309084162246890  0.2627023423192156  0.0337517696868872
 
  0.00000000E+00  0.00000000E+00  0.00000000E+00
  0.00000000E+00  0.00000000E+00  0.00000000E+00
  0.00000000E+00  0.00000000E+00  0.00000000E+00
  0.00000000E+00  0.00000000E+00  0.00000000E+00
  0.00000000E+00  0.00000000E+00  0.00000000E+00
  0.00000000E+00  0.00000000E+00  0.00000000E+00
  0.00000000E+00  0.00000000E+00  0.00000000E+00
  0.00000000E+00  0.00000000E+00  0.00000000E+00
  0.00000000E+00  0.00000000E+00  0.00000000E+00
  0.00000000E+00  0.00000000E+00  0.00000000E+00
  0.00000000E+00  0.00000000E+00  0.00000000E+00
  0.00000000E+00  0.00000000E+00  0.00000000E+00
  0.00000000E+00  0.00000000E+00  0.00000000E+00
  0.00000000E+00  0.00000000E+00  0.00000000E+00
  0.00000000E+00  0.00000000E+00  0.00000000E+00
  0.00000000E+00  0.00000000E+00  0.00000000E+00
  0.00000000E+00  0.00000000E+00  0.00000000E+00
  0.00000000E+00  0.00000000E+00  0.00000000E+00
  0.00000000E+00  0.00000000E+00  0.00000000E+00
  0.00000000E+00  0.00000000E+00  0.00000000E+00
  0.00000000E+00  0.00000000E+00  0.00000000E+00
  0.00000000E+00  0.00000000E+00  0.00000000E+00
  0.00000000E+00  0.00000000E+00  0.00000000E+00
  0.00000000E+00  0.00000000E+00  0.00000000E+00
  0.00000000E+00  0.00000000E+00  0.00000000E+00
  0.00000000E+00  0.00000000E+00  0.00000000E+00
  0.00000000E+00  0.00000000E+00  0.00000000E+00
  0.00000000E+00  0.00000000E+00  0.00000000E+00
  0.00000000E+00  0.00000000E+00  0.00000000E+00
  0.00000000E+00  0.00000000E+00  0.00000000E+00
  0.00000000E+00  0.00000000E+00  0.00000000E+00
  0.00000000E+00  0.00000000E+00  0.00000000E+00
  0.00000000E+00  0.00000000E+00  0.00000000E+00
  0.00000000E+00  0.00000000E+00  0.00000000E+00
  0.00000000E+00  0.00000000E+00  0.00000000E+00
  0.00000000E+00  0.00000000E+00  0.00000000E+00
  0.00000000E+00  0.00000000E+00  0.00000000E+00
  0.00000000E+00  0.00000000E+00  0.00000000E+00
  0.00000000E+00  0.00000000E+00  0.00000000E+00
  0.00000000E+00  0.00000000E+00  0.00000000E+00
  0.00000000E+00  0.00000000E+00  0.00000000E+00
  0.00000000E+00  0.00000000E+00  0.00000000E+00
  0.00000000E+00  0.00000000E+00  0.00000000E+00
  0.00000000E+00  0.00000000E+00  0.00000000E+00
  0.00000000E+00  0.00000000E+00  0.00000000E+00
  0.00000000E+00  0.00000000E+00  0.00000000E+00
  0.00000000E+00  0.00000000E+00  0.00000000E+00
  0.00000000E+00  0.00000000E+00  0.00000000E+00
  0.00000000E+00  0.00000000E+00  0.00000000E+00
  0.00000000E+00  0.00000000E+00  0.00000000E+00
  0.00000000E+00  0.00000000E+00  0.00000000E+00
  0.00000000E+00  0.00000000E+00  0.00000000E+00
  0.00000000E+00  0.00000000E+00  0.00000000E+00
  0.00000000E+00  0.00000000E+00  0.00000000E+00
  0.00000000E+00  0.00000000E+00  0.00000000E+00
  0.00000000E+00  0.00000000E+00  0.00000000E+00
  0.00000000E+00  0.00000000E+00  0.00000000E+00
  0.00000000E+00  0.00000000E+00  0.00000000E+00
  0.00000000E+00  0.00000000E+00  0.00000000E+00
  0.00000000E+00  0.00000000E+00  0.00000000E+00
  0.00000000E+00  0.00000000E+00  0.00000000E+00
  0.00000000E+00  0.00000000E+00  0.00000000E+00
  0.00000000E+00  0.00000000E+00  0.00000000E+00
  0.00000000E+00  0.00000000E+00  0.00000000E+00
  0.00000000E+00  0.00000000E+00  0.00000000E+00
  0.00000000E+00  0.00000000E+00  0.00000000E+00
  0.00000000E+00  0.00000000E+00  0.00000000E+00
  0.00000000E+00  0.00000000E+00  0.00000000E+00
  0.00000000E+00  0.00000000E+00  0.00000000E+00
  0.00000000E+00  0.00000000E+00  0.00000000E+00
  0.00000000E+00  0.00000000E+00  0.00000000E+00
  0.00000000E+00  0.00000000E+00  0.00000000E+00
  0.00000000E+00  0.00000000E+00  0.00000000E+00
  0.00000000E+00  0.00000000E+00  0.00000000E+00
  0.00000000E+00  0.00000000E+00  0.00000000E+00
  0.00000000E+00  0.00000000E+00  0.00000000E+00
  0.00000000E+00  0.00000000E+00  0.00000000E+00
  0.00000000E+00  0.00000000E+00  0.00000000E+00
