Ta  N  W Cu                             
   1.00000000000000     
    18.1096308199999996    0.0000000000000000    0.0000000000000000
     0.0000000000000000   23.3551997799999995    0.0000000000000000
     0.0000000000000000    0.0000000000000000   30.4818171199999988
   Ta   N    W    Cu
   192   240    48     2
Direct
  0.0000201496917072  0.0000681309433830  0.1967664419154929
  0.3338673062541275  0.0625570886380871  0.2026444013999082
  0.1663433837143771  0.0625354898726513  0.2026352286983411
  0.2501248794287179  0.1250918296238908  0.2779208328203850
  0.0823281788241417  0.0625171251717447  0.2835729593301792
  0.4176704441137957  0.0625423820006361  0.2836959699555379
  0.0000469831333945  0.1248303444978873  0.3693787511216584
  0.3326012270500911  0.0625377244031355  0.3678097582133972
  0.1676052149026717  0.0625443128660663  0.3677063370894302
  0.2500156140367622  0.1248584165886513  0.4537033424307992
  0.0838247948193214  0.0625095964077786  0.4537935338875414
  0.4163245966456088  0.0624305124673299  0.4543103387159775
  0.0000605869256205  0.1249637502765353  0.1967830924321134
  0.3338389605082099  0.1876116981489133  0.2027400502659376
  0.1664325118510988  0.1875545414470707  0.2026676412954984
  0.2501307808871189  0.2501046247842993  0.2780671930507879
  0.0823662894731356  0.1875260473128293  0.2836061268130692
  0.4176908862606084  0.1875495870102029  0.2837737740265069
  0.0000532152618433  0.2501860776878928  0.3693995514281241
  0.3325375187178352  0.1875320627853512  0.3679034624105881
  0.1675788379435872  0.1875193048804462  0.3676722035005682
  0.2498975413815572  0.2498340287499232  0.4537558210008257
  0.0836659402982676  0.1874310931747445  0.4542211790306467
  0.4164083600829827  0.1872973638669819  0.4539986232803983
  0.0001107950102934  0.2501033777700030  0.1968445250365605
  0.3338585945516996  0.3125696087176593  0.2028003339487867
  0.1663988336087243  0.3125305195823245  0.2027238601372261
  0.2501769570645038  0.3751143360117126  0.2782521523590304
  0.0823378450902297  0.3125224561411102  0.2836825462378272
  0.4177033632679610  0.3125638062064624  0.2839012828176024
  0.0000184082251593  0.3748184739398894  0.3694165157526470
  0.3325539617195972  0.3125432734584948  0.3680609794965974
  0.1676501479417283  0.3125337729815882  0.3678706829726934
  0.2502701251447874  0.3747339666938601  0.4540902111965011
  0.0837492755506730  0.3124243468370906  0.4538380489942568
  0.4165735443147014  0.3122132562369515  0.4545763301901573
  0.0001820371318857  0.3750018206534236  0.1969060155227638
  0.3338879861675679  0.4375223464666078  0.2028790518318431
  0.1663809231512658  0.4375160594520651  0.2027531444480459
  0.2500712569288055  0.0000369546659087  0.2778702952626304
  0.0823640441353959  0.4375099966413813  0.2837595298059625
  0.4176760157012112  0.4375538004941077  0.2840053594085603
  0.0000125071451649  0.0002316680407333  0.3693670415835086
  0.3325154908276673  0.4375222387840054  0.3683040742304442
  0.1676439173259396  0.4375311470880447  0.3679144291697583
  0.2500036620693820  0.0000981297312137  0.4536527840522595
  0.0835188518217223  0.4374402194552829  0.4542727201988157
  0.4163627894927515  0.4373921699968619  0.4545419064397933
  0.0001874860365021  0.5000064301785088  0.1969356946198957
  0.3338654765900486  0.5624809949053500  0.2028593110907480
  0.1663820555728037  0.5624863450398294  0.2027717215954041
  0.2501316095956270  0.6249625805874217  0.2782617788732580
  0.0823394746622270  0.5625003707875535  0.2837492000358708
  0.4176392320822515  0.5625184492613258  0.2840312073849773
  0.0000082800196921  0.6248390732881504  0.3694181708904480
  0.3325187422277338  0.5625360699562592  0.3683106696466893
  0.1676495620250051  0.5625310200979783  0.3679785074614443
  0.2500577171378069  0.6252645901530016  0.4540023399155473
  0.0837909172518110  0.5625720267884375  0.4539203018423592
  0.4166365620493693  0.5626572813576729  0.4549159827409142
  0.0001326135603605  0.6249559679164776  0.1969081356440938
  0.3338499487501494  0.6874334294971405  0.2028266734589863
  0.1663692744064420  0.6874380606898711  0.2027138621757416
  0.2500983282961187  0.7499211342174661  0.2780792461220045
  0.0823503947659106  0.6874855741370993  0.2837003257636681
  0.4176551734727170  0.6874910030354400  0.2839342913032041
  0.9999887166653210  0.7502078453000891  0.3694066265054445
  0.3324864060244792  0.6875539432963222  0.3681317625246336
  0.1675485558826679  0.6875465021463683  0.3678221139865414
  0.2499749467485444  0.7502626903297482  0.4538401518302706
  0.0835592218042720  0.6876908897621306  0.4542458703363366
  0.4165954206589433  0.6878159347669666  0.4542705413701640
  0.0000625922202389  0.7499917107378238  0.1968558379405607
  0.3338348928310779  0.8124473925010633  0.2027252824133114
  0.1663590958485486  0.8124624388596260  0.2026811339257435
  0.2500587507589103  0.8749729107920032  0.2779293358552266
  0.0823227321771611  0.8125080565404161  0.2836184916139644
  0.4176380355687286  0.8124875200904711  0.2837950040914237
  0.0000143879820484  0.8748303021754111  0.3693810576050893
  0.3325300882606541  0.8125612637452448  0.3678965664201215
  0.1675708164230159  0.8125554831815833  0.3677769243217881
  0.2499549916127322  0.8751298547968673  0.4536695051720940
  0.0837391504857692  0.8126260891476207  0.4538263590345721
  0.4163075478241751  0.8128020807853318  0.4543669734290248
  0.0000161238253824  0.8748970744481994  0.1967885081323359
  0.3338180012569083  0.9374717722028265  0.2026940054827548
  0.1664032964190625  0.9374760910411055  0.2026361148788496
  0.2501616923719112  0.4999943303556194  0.2783574669176119
  0.0823550934460897  0.9375124264388575  0.2835738765951064
  0.4176633715338269  0.9375223070517151  0.2837071524095265
  0.0000199062922164  0.5001844555147343  0.3694351744519651
  0.3324801402358588  0.9375653538170425  0.3678276611400477
  0.1675109865514699  0.9375559903383248  0.3676312968443298
  0.2502808046520357  0.4999986474154738  0.4541983350086625
  0.0836638941455305  0.9375947912361298  0.4541821081390296
  0.4163129280519868  0.9376480642749954  0.4539516315243048
  0.4999568288193501  0.9999694336217289  0.1968579002724482
  0.8336673669240824  0.0625104234163629  0.2026141700810982
  0.6661244896304268  0.0625271475395408  0.2026176082208977
  0.7499365196175916  0.1250348545071631  0.2778776862014567
  0.5822822741213827  0.0625333072678984  0.2836589140109140
  0.9177242175363816  0.0625143895219935  0.2835571875919385
  0.5000506879809379  0.1252372587496637  0.3694940903277484
  0.8324245436407196  0.0625230766444460  0.3676687227382871
  0.6674429676916489  0.0625305203498741  0.3677255423565455
  0.7500723105010536  0.1249710919486304  0.4536198298367466
  0.5839263373235823  0.0625183833854024  0.4542948229763013
  0.9161898032133564  0.0625038060380874  0.4537679944690396
  0.4999119232957980  0.1250906433165326  0.1968772781338259
  0.8336133737595404  0.1875099773393671  0.2026027311866088
  0.6661477877831032  0.1875566010772971  0.2026672878518809
  0.7499250333449226  0.2500129905231887  0.2778922219191244
  0.5822746021253877  0.1875330319499113  0.2836777151561591
  0.9177077358945098  0.1875071208267727  0.2835580517012701
  0.5000130000763079  0.2498457747087173  0.3695504341503550
  0.8324908878685164  0.1875106396888100  0.3675817532444299
  0.6675529059829159  0.1875259209497813  0.3677676483692878
  0.7501272786762598  0.2499854609401169  0.4536021935717613
  0.5838871077444452  0.1874388254100694  0.4539510693052549
  0.9163388687253118  0.1874386216377815  0.4541446709353849
  0.4998406304804703  0.2500420299752335  0.1969540138253976
  0.8336281895041395  0.3125055262184802  0.2026226032525926
  0.6661175431428106  0.3125550903797389  0.2026799471686260
  0.7498948781957040  0.3750260858630412  0.2778959206438572
  0.5822435261609371  0.3125442249578541  0.2837397822813585
  0.9177134077818394  0.3124995652999161  0.2835657363611617
  0.4999484902037992  0.3752508955641218  0.3696942367649498
  0.8324421828088404  0.3125037189092978  0.3676778348635352
  0.6675160787276369  0.3125309840619082  0.3677555494751275
  0.7501203432024113  0.3748999393093939  0.4536464770809303
  0.5838831067521824  0.3124569801213610  0.4543140304636566
  0.9162315950953328  0.3124364458083448  0.4537676834690956
  0.4997691260474681  0.3751051103291871  0.1970313761357829
  0.8336202294025981  0.4375032804016072  0.2026225069548673
  0.6660567214533515  0.4375225334163204  0.2027485250327530
  0.7499391213646476  0.0000159766710226  0.2778841847758997
  0.5822170936518845  0.4375367782403004  0.2838072942060421
  0.9176856496169137  0.4374965350596867  0.2835803321771238
  0.5000194222824348  0.9998441694596210  0.3694779180184256
  0.8324971904024494  0.4375101587211816  0.3676292906016059
  0.6675811297623682  0.4375393991183500  0.3678165435586180
  0.7500534266019159  0.0000792730255199  0.4536358137869314
  0.5839208375335971  0.4375198313035114  0.4540185010180693
  0.9163434461023812  0.4374706027193653  0.4541579685190769
  0.4997530453258037  0.4999633441653799  0.1970802654942645
  0.8335974760168412  0.5625025254169103  0.2026459341448614
  0.6660619476966261  0.5624892384033657  0.2027312415797837
  0.7498901432982166  0.6250194223958800  0.2779446874090894
  0.5822108731533504  0.5625120106916270  0.2838367456116231
  0.9176909740713484  0.5624998538713299  0.2835889525968867
  0.4999041936701545  0.6252374210475864  0.3697076029978490
  0.8324542604161351  0.5625261814832996  0.3677148358911779
  0.6675106789908796  0.5625600006753473  0.3678299245514296
  0.7500131311782710  0.6250806445296959  0.4536423724641878
  0.5838180717922867  0.5625578872856494  0.4544463595628798
  0.9161479354615594  0.5625388768025914  0.4537654492734191
  0.4997708397126388  0.6250140697354425  0.1970439454167305
  0.8335859154708842  0.6874837418441757  0.2026306679750220
  0.6660596473191518  0.6874550511981283  0.2027372678290575
  0.7498906883492893  0.7499862242653350  0.2779408299312962
  0.5822114278303516  0.6875111884069653  0.2837865646381061
  0.9176805867441331  0.6874905124096671  0.2835863975966006
  0.4999660610725627  0.7498471943156915  0.3696071120009563
  0.8324618281718941  0.6875339633448547  0.3676471140079656
  0.6675064897154641  0.6875567799690643  0.3678740528858953
  0.7500227563279012  0.7501441394862027  0.4536767529110790
  0.5836716617915059  0.6876630376986625  0.4541057618018272
  0.9162935877113085  0.6875918035894557  0.4541790006691429
  0.4998480211860112  0.7498842838688091  0.1969655414923892
  0.8336278079701387  0.8124996815812011  0.2026307632109265
  0.6661102999379409  0.8124712205529860  0.2026757011795794
  0.7499355476844443  0.8749935697917692  0.2779088982399145
  0.5822431790109519  0.8125008227619688  0.2837317305473164
  0.9177047887136567  0.8125028951391968  0.2835768782162944
  0.4999928131567515  0.8752544050553439  0.3695039971098026
  0.8324087263350890  0.8125373759100114  0.3677077454190254
  0.6674302013191564  0.8125542608139540  0.3677837144152463
  0.7500409357478262  0.8750677539244762  0.4536407818105204
  0.5838727501860177  0.8126857679161930  0.4542995859499896
  0.9161645290907074  0.8125987331880538  0.4538055878728358
  0.4999336418043612  0.8749858062084783  0.1968924819132809
  0.8336115988366686  0.9374812168475017  0.2026115200072525
  0.6661417044889717  0.9374698344000123  0.2026713218829812
  0.7498898905350728  0.5000022214429123  0.2779295817900334
  0.5822675489052358  0.9375148192602225  0.2836851806522986
  0.9176794480095367  0.9375004562602101  0.2835683173352521
  0.4999172249486818  0.4998129836932890  0.3697523361617314
  0.8325017271683350  0.9375345356011167  0.3676192012103385
  0.6675176294390255  0.9375449168967407  0.3677850876301179
  0.7500968384319862  0.5000413256281888  0.4536412192824955
  0.5838510755085835  0.9376055975322046  0.4539549089197195
  0.9163075013274593  0.9375724218401871  0.4541721732669757
  0.4060371409915433  0.0000145303862524  0.2319918727201795
  0.2501147871563205  0.0000258370679163  0.1991577771152464
  0.0939941605022625  0.0000242009083422  0.2318645150749461
  0.1544492429248123  0.1249984999830289  0.3154268381332699
  0.0000260427240732  0.1249755015808063  0.3028372220698614
  0.3456762468620482  0.1250704246610468  0.3155601464136311
  0.4013012363433290  0.1248527336126841  0.4024504504118624
  0.2500240494075356  0.1250369931091129  0.3864133260151732
  0.0988159401036128  0.1251401400668897  0.4023145200702061
  0.1533796279994988  0.1248493181871169  0.4870181085361267
  0.0000169176952411  0.1244405718434436  0.4748512897156374
  0.3466610412489359  0.1249295222462550  0.4870855440608253
  0.4006846542841558  0.1246034403308940  0.5675266817522271
  0.2500552461624608  0.1249125807849651  0.5573278246513169
  0.0999109951859438  0.1246029429929294  0.5673971405058253
  0.4060170007964743  0.1250596297707958  0.2320355762733683
  0.2501290531947546  0.1250375771105894  0.1991599857143882
  0.0940322749620179  0.1250094398152584  0.2318858486602338
  0.1544112609292654  0.2500765484058789  0.3155004305939499
  0.0000186415780306  0.2500374730941601  0.3028671568477179
  0.3457137137680064  0.2500492190309984  0.3156837333293865
  0.4013006297482136  0.2500645245956932  0.4025623551089126
  0.2500140961582886  0.2499732002995714  0.3864872158854169
  0.0988100811258192  0.2498430505599458  0.4023663337680006
  0.1533041245470486  0.2499882764536636  0.4871327475413878
  0.0000116972921589  0.2503649494938287  0.4748899102657163
  0.3465578501816893  0.2491263014292215  0.4871111085656281
  0.3999448446775205  0.2485375706763762  0.5678961277247936
  0.2501534468160287  0.2499361230134411  0.5574585190160164
  0.0998052897842712  0.2500789069865874  0.5674841247028652
  0.4059923127137353  0.2500907039302831  0.2321610529866120
  0.2501235509642612  0.2500883458791705  0.1991651810483859
  0.0940770387008101  0.2500425913992430  0.2319534680150710
  0.1543976642282203  0.3750186519143810  0.3156079617287304
  0.9999957822891332  0.3749708316496836  0.3028922506006211
  0.3457574899236988  0.3751074939008134  0.3158653519067656
  0.4012837962895475  0.3748602621815280  0.4028076935223837
  0.2500568154621376  0.3750157008588744  0.3867778915053037
  0.0987659276120780  0.3751413827695558  0.4024005709978837
  0.1530792770530525  0.3748374070792764  0.4870871508464489
  0.9999400941739935  0.3743734103888769  0.4748776767726710
  0.3469589216941316  0.3741257933662325  0.4877727701119312
  0.4004987044322377  0.3716820960812939  0.5697864944918436
  0.2491276525512234  0.3751631559008217  0.5576666475530843
  0.0993856881564668  0.3744613070900868  0.5677100965579314
  0.4059472830567614  0.3750721758774915  0.2322986081632337
  0.2501149165286023  0.3750593984670303  0.1994906967387280
  0.0941483297434829  0.3750161034846613  0.2320464119347605
  0.1544331934118688  0.0000693554429390  0.3154076994344450
  0.0000298102874297  0.0000530204935814  0.3028256840715358
  0.3456239699415278  0.0000246232468228  0.3155151872733768
  0.4012549554361513  0.0001749568467275  0.4024110011608215
  0.2499874782070535  0.0000319356759633  0.3863642327119052
  0.0987897634709896  0.9999261877711518  0.4022958136476404
  0.1533966410394072  0.0001414871288219  0.4869918256560339
  0.0000060501918426  0.0005596445338938  0.4748512444547828
  0.3466023636851077  0.9998082412123921  0.4870714070595810
  0.4004512295464266  0.9999641862860642  0.5675598202020282
  0.2500203134620591  0.9999628232460367  0.5572768329080589
  0.0998771483978231  0.0003431328585961  0.5673439257242663
  0.4059183450460537  0.5000269485551101  0.2323517277472433
  0.2501061199588648  0.5000003027142981  0.1995493040757665
  0.0941380165741634  0.5000014794080130  0.2320806832381166
  0.1543817013717614  0.6249667090896409  0.3156134790874177
  0.9999836057414981  0.6249604250169369  0.3028979872749034
  0.3457038702359085  0.6249997899858215  0.3158945581932002
  0.4012948250069641  0.6249247623216334  0.4028604720034039
  0.2500090174636327  0.6250554336362484  0.3867279353676949
  0.0987283982614855  0.6251842768030045  0.4024223238297679
  0.1531071805177504  0.6252163150561714  0.4870959864951132
  0.9999135945955615  0.6245866648423259  0.4748825912860966
  0.3466779284780230  0.6262637865479448  0.4875980062439496
  0.3981443076184163  0.6272738212859537  0.5691550288446550
  0.2489645270320082  0.6253598764429427  0.5579364587184017
  0.0991313862881142  0.6249991569559228  0.5675291122615391
  0.4059354191926658  0.6249663755943615  0.2322965568775075
  0.2500982574534092  0.6249447753813158  0.1993953335118945
  0.0940944247337470  0.6249746198988504  0.2320425230597820
  0.1543832054707792  0.7500360475526762  0.3155227475174840
  0.9999928369814342  0.7500365549302401  0.3028644813557833
  0.3456632544806482  0.7499620625944203  0.3157082648857283
  0.4012217520158714  0.7502516246421465  0.4026124890293943
  0.2499686567030537  0.7500708284988846  0.3865595259574377
  0.0987426091499017  0.7499496099914396  0.4023701896755085
  0.1531818231290956  0.7502315410943581  0.4870648647358209
  0.9999419667849310  0.7506811113949539  0.4748909327803972
  0.3466359064010973  0.7504178810871309  0.4872296101660893
  0.4007356617155224  0.7511490790228592  0.5677128775237037
  0.2499869700327153  0.7499508474290550  0.5573972100204827
  0.0998217206575447  0.7506490740151364  0.5675250899082371
  0.4059799117667424  0.7499419688409432  0.2321723278048822
  0.2501088713569217  0.7499320538507774  0.1993582580411797
  0.0940471269919243  0.7499700140663279  0.2319653503549048
  0.1543937493043046  0.8749867694718887  0.3154370496570778
  0.0000141434988947  0.8749778243042314  0.3028445707663892
  0.3456057484143358  0.8750467357466789  0.3155620247127118
  0.4012151591369388  0.8750226210957095  0.4024463564366059
  0.2499631530751287  0.8750972331154188  0.3863970592883135
  0.0987713037862363  0.8752101372743866  0.4023128686199726
  0.1533657502093604  0.8750596928179064  0.4870243616435559
  0.9999886625290699  0.8746351925380367  0.4748776147928808
  0.3465433558312228  0.8755934926489815  0.4870587304862966
  0.4002223849582478  0.8754620526320807  0.5675928317477528
  0.2499709363958686  0.8752988559292021  0.5572944247167158
  0.0998342035448303  0.8748557955458907  0.5673055171003512
  0.4060295282568376  0.8749751693609653  0.2320392164171281
  0.2501042563338984  0.8749464576960762  0.1990673328608992
  0.0939991096016897  0.8749725511323234  0.2318816499003660
  0.1543813865515204  0.5000498457809925  0.3156618018414292
  0.9999831092645977  0.5000279012176350  0.3029020675910132
  0.3457506137877786  0.5000234431095336  0.3159721451659507
  0.4013327803162312  0.5001595573638795  0.4029689230925513
  0.2500640170851085  0.5000273574886904  0.3868773835008383
  0.0987314713796863  0.4998919738726215  0.4024258040067821
  0.1530198514622043  0.4999709495131199  0.4870227172162700
  0.9998810369437408  0.5005504531842391  0.4748587597516192
  0.3468904434730362  0.4998902361190645  0.4879602601123310
  0.3961215269155147  0.5006787412982732  0.5697421615101916
  0.2482567601748116  0.4997522828311958  0.5577852735437716
  0.0989132449207233  0.5003625579541549  0.5676381632512175
  0.9060141391016501  0.0000186597628513  0.2318569490355600
  0.7498731839055637  0.0000092560719835  0.1991716422671033
  0.5939192397324931  0.0000049342458794  0.2319720505705618
  0.6543177443618760  0.1250535295464275  0.3154645438344303
  0.4999936698347796  0.1250701880356004  0.3029565342056628
  0.8456317532822197  0.1249753826743714  0.3153730599277793
  0.9012402621351541  0.1251270182706676  0.4022711566266750
  0.7500314063989109  0.1250362651121293  0.3863280908920430
  0.5988433646548188  0.1249042311707171  0.4024024112550109
  0.6535513067441556  0.1251784519971437  0.4871012609561234
  0.5001605222666541  0.1254179837164813  0.4750504313027051
  0.8466729937203752  0.1248784033309391  0.4869516693150473
  0.9001616440084632  0.1246637777359609  0.5673445901607224
  0.7501124753847321  0.1251388121271475  0.5572642990498835
  0.5997721922556281  0.1249785924207742  0.5676096684264209
  0.9060205333478279  0.1249954119715539  0.2318497139704547
  0.7498774520079365  0.1250071696919051  0.1991121810134686
  0.5939157091164375  0.1250402003246833  0.2319613891716088
  0.6543280183197311  0.2500104403486816  0.3154870350051269
  0.5000141772562614  0.2499980815747236  0.3030189133535401
  0.8456339367709944  0.2500549869362274  0.3153740863843879
  0.9012302929845859  0.2498358217294054  0.4022740108067140
  0.7500556172460691  0.2499861909331145  0.3863247708871995
  0.5988502934788968  0.2501318524039249  0.4024190218768808
  0.6535344649945003  0.2496346853473028  0.4870247206918634
  0.5001233585477749  0.2494947749548970  0.4749347540291708
  0.8466931549099002  0.2500077248854709  0.4869620675505146
  0.9001256425972599  0.2502562638390842  0.5672992996954562
  0.7501260184589356  0.2498740453067754  0.5572752471450073
  0.6002054382184454  0.2496593948351631  0.5676528985855072
  0.9060113018576814  0.2500226181983578  0.2318513839687881
  0.7498800829583843  0.2500364556805010  0.1991047861766759
  0.5938745066394091  0.2500565822992797  0.2319984154458155
  0.6543352389717825  0.3750623223593550  0.3155346284872849
  0.4999980380643549  0.3750923401990320  0.3031392969553437
  0.8456159940059749  0.3749793999871613  0.3153905196677087
  0.9012154615961947  0.3751130543891321  0.4022788661693113
  0.7500479275373877  0.3750136811725895  0.3863769701417468
  0.5988552597652941  0.3749182143941994  0.4024309323623640
  0.6535066908668981  0.3750619910773878  0.4870560390024323
  0.5001711663242574  0.3755738987716839  0.4752249311349814
  0.8467506951213863  0.3748906855692624  0.4869234970001983
  0.9001371996365464  0.3744894591391841  0.5673515505689011
  0.7502807110422367  0.3751007540851958  0.5572829494551215
  0.6000776651332629  0.3745011844062134  0.5676268131301470
  0.9060002545260417  0.3749957924990071  0.2318542753541237
  0.7498707724717235  0.3750296499084271  0.1991160792520219
  0.5938338481717409  0.3750513238149153  0.2320581360129097
  0.6543286791756131  0.0000056961323764  0.3154745224674258
  0.4999790064604213  0.9999943979786536  0.3029431924922292
  0.8456273344209393  0.0000470097665897  0.3153879820479233
  0.9012405856541434  0.9999043453956773  0.4022861408569369
  0.7500231583284531  0.0000182229069665  0.3863366425261248
  0.5988100879374869  0.0001732082170065  0.4023988268523837
  0.6535128839407136  0.9998534751859935  0.4870675055836031
  0.5000988115712559  0.9996308120979620  0.4749681045058765
  0.8466349250687060  0.0001249731816273  0.4869753490243411
  0.9001508500020492  0.0003354758539658  0.5673352563278726
  0.7500605669528255  0.9999711190302065  0.5572683738595998
  0.5997434245375217  0.0000614908374956  0.5675347855342068
  0.9059955918535394  0.5000048944112834  0.2318639492064563
  0.7498538388950706  0.5000119143940083  0.1991599337520498
  0.5938150611891189  0.5000101719149370  0.2321024290844917
  0.6543019133630565  0.6250521128123481  0.3155805726345449
  0.4999720565830259  0.6250439374283161  0.3031563327814055
  0.8456088616536093  0.6249715210339701  0.3154156246244639
  0.9012070221245807  0.6251896423022103  0.4022914741570318
  0.7500294097655100  0.6250462870035420  0.3863816498328561
  0.5987386371060595  0.6249590724311176  0.4025080040659716
  0.6534587779509167  0.6254207873474229  0.4870494382159123
  0.5001318890320263  0.6254506905189174  0.4751532903385964
  0.8466031499731841  0.6250132411395555  0.4869668553144919
  0.8996603310044691  0.6247965935220847  0.5674405077542204
  0.7502652689790494  0.6253384490549792  0.5574285054325046
  0.6017690536448796  0.6258580883410971  0.5677091133136543
  0.9059790711795443  0.6249911093064071  0.2318724864236614
  0.7498380917466960  0.6249810041392081  0.1991481751641331
  0.5938173511584424  0.6249873916877249  0.2320874821841485
  0.6542884971818310  0.7499820077983941  0.3155435421707722
  0.4999560449924942  0.7499757336509063  0.3030653155949210
  0.8456142099016688  0.7500407330253722  0.3154176580179140
  0.9012203540768269  0.7499204327947027  0.4023079771693290
  0.7500128209133479  0.7500475571115572  0.3863896046889295
  0.5987810671012639  0.7501791756292064  0.4024769826708550
  0.6534570254968273  0.7500635489287504  0.4871463701478547
  0.5001019313414687  0.7498907715211374  0.4752461875382394
  0.8466940389441149  0.7501799042316435  0.4869440698131342
  0.9001818810242597  0.7504594576643910  0.5673717874194537
  0.7501375899557559  0.7500080389531902  0.5572897593633215
  0.5996718308704629  0.7504191637037749  0.5677200475750652
  0.9059655463891403  0.7500025733621385  0.2318774641834978
  0.7498452311780994  0.7499747354606470  0.1992154679835565
  0.5938604457058645  0.7499647924313777  0.2320522906001159
  0.6543347908990782  0.8750440713798753  0.3154985395563799
  0.4999601052778644  0.8750563507314837  0.3029737986710543
  0.8456324485332516  0.8749829283233623  0.3154034443092968
  0.9012126124361188  0.8751830452600515  0.4023046998579360
  0.7500170598076892  0.8750679633790526  0.3863594998324231
  0.5987838100039298  0.8749865878050471  0.4024128976060126
  0.6534923802217563  0.8754248122226045  0.4870606728757707
  0.5000697371341332  0.8755360059300017  0.4749403445471643
  0.8466237484957801  0.8750328380764714  0.4869971153212802
  0.9001437342265959  0.8747733552689212  0.5673247026684791
  0.7500529290743927  0.8751966666027542  0.5572621428330820
  0.5998848845790548  0.8752813101163852  0.5675440745391640
  0.9059947477448134  0.8749822491643044  0.2318627879445714
  0.7498673326441860  0.8749696266400164  0.1990870375643468
  0.5938966394085838  0.8749793167268436  0.2320053340049952
  0.6543270087370772  0.5000169576827602  0.3155771564907681
  0.4999816935347496  0.5000011552658563  0.3031942496691542
  0.8456127986654280  0.5000314329554101  0.3154070552135337
  0.9012046071340833  0.4998610741986909  0.4022801039631432
  0.7500396120332127  0.5000372875463910  0.3863892077149202
  0.5987932215860070  0.5001748861157509  0.4024662911613390
  0.6536044272637582  0.4997559831147242  0.4869904304863510
  0.5002301085725378  0.4994267563201191  0.4753595286833274
  0.8466769386516049  0.5000362303253070  0.4869697086199949
  0.8996746446747963  0.5003297990968605  0.5674769084518587
  0.7504343600214156  0.4996344810738194  0.5574128802614595
  0.6021057115374759  0.4994335262228873  0.5674982306882086
  0.9999906770572764  0.1144378770052796  0.5414004549637781
  0.3361415672138151  0.0622098611845843  0.5393070981821069
  0.1666964331373606  0.0624759317315124  0.5387869797094424
  0.9999817157738207  0.2603391580076178  0.5414107478353003
  0.3335745593642443  0.1866430799245293  0.5389206093646806
  0.1640907447907622  0.1873377608498643  0.5393580820973582
  0.9996923077960389  0.3643234546800187  0.5414197001122432
  0.3354601915432838  0.3103930362526697  0.5395786893193204
  0.1660756085675317  0.3125271441899287  0.5389125009613949
  0.0000108547848612  0.0105520807130119  0.5414031036068536
  0.3286176386254098  0.4360653199841096  0.5381810925600661
  0.1623864992263364  0.4375265243728421  0.5394224084232562
  0.9994339003858670  0.6145030679402836  0.5413831533048779
  0.3310815679531345  0.5640973938810703  0.5384898311732371
  0.1647015509015688  0.5625652775798144  0.5388377153568058
  0.9999802452718569  0.7606742363207530  0.5414263274303153
  0.3326788315130429  0.6893742988456424  0.5392183929917707
  0.1635764770058969  0.6876688616230666  0.5394049522268816
  0.9999834505577994  0.8646525963614096  0.5414011226311999
  0.3361810473441551  0.8132840448712173  0.5392733232759852
  0.1665544175358704  0.8125491183935907  0.5387946588797732
  0.9992029066889003  0.5106267586943005  0.5414018605606259
  0.3334757329755718  0.9377494790901721  0.5389104921045487
  0.1641864752762388  0.9376039568026755  0.5392775949166619
  0.5002921163166434  0.1350042473758180  0.5415984453191811
  0.8334129396575989  0.0625236907006936  0.5387271717761948
  0.6640709511691654  0.0624603297170907  0.5392680885769963
  0.5000335202381763  0.2405363963230585  0.5414936112236433
  0.8359119919214706  0.1873864627662982  0.5392086000096512
  0.6665799228413931  0.1872628709098123  0.5388850034674348
  0.5014268878432091  0.3834993037525436  0.5418328839415238
  0.8334544441090230  0.3125158634729459  0.5386915341389269
  0.6642053868911830  0.3118029769766579  0.5391152055888000
  0.5000847101273322  0.9900715601269141  0.5414937750784645
  0.8357625285137473  0.4374728340703484  0.5392457971666218
  0.6674207155383556  0.4371133644591580  0.5386329128025551
  0.5008731948550320  0.6342061299293746  0.5417262699930703
  0.8333488300361154  0.5625420741993210  0.5386982886183773
  0.6641237007225271  0.5630003914616708  0.5391923097208391
  0.5003269881731569  0.7406963138361249  0.5418549347328252
  0.8358984163248948  0.6876371686944722  0.5392476787734708
  0.6669910033907840  0.6880615916577781  0.5387914992910581
  0.5000931875595427  0.8847945702653135  0.5414890863772470
  0.8334123268294960  0.8124941207365168  0.5387340878324736
  0.6640165448914885  0.8128470380983757  0.5392536215195847
  0.5020899844213815  0.4915071948734848  0.5421266808339098
  0.8358399932329803  0.9375665173995031  0.5392550205137780
  0.6665235376413534  0.9376578359883325  0.5388643796988362
  0.4451220226441208  0.5634712760215805  0.6024170572812579
  0.4222933773859197  0.4368750188075552  0.6081037759386732
 
  0.00000000E+00  0.00000000E+00  0.00000000E+00
  0.00000000E+00  0.00000000E+00  0.00000000E+00
  0.00000000E+00  0.00000000E+00  0.00000000E+00
  0.00000000E+00  0.00000000E+00  0.00000000E+00
  0.00000000E+00  0.00000000E+00  0.00000000E+00