Ta  N Ru                                
   1.00000000000000     
    18.1096308199999996    0.0000000000000000    0.0000000000000000
     0.0000000000000000   23.3551997799999995    0.0000000000000000
     0.0000000000000000    0.0000000000000000   30.4818171199999988
   Ta   N    Ru
   216   240    24
Direct
  0.0001140449910586 -0.0000218914725610  0.1956339020426051
  0.3339630889723043  0.0624367761477345  0.2020746532453995
  0.1665580335938543  0.0624312676774151  0.2019952606763200
  0.2500970613942660  0.1250654797652218  0.2774149246370041
  0.0823969293817484  0.0625005127769305  0.2828287178880781
  0.4177608978853297  0.0625076694638804  0.2830428399918756
  0.0004208958249452  0.1248874059224518  0.3687310948892878
  0.3326359929791623  0.0626883682731095  0.3673454018690724
  0.1677017016137645  0.0626438101393888  0.3669773771758250
  0.2507630668420620  0.1250209643830178  0.4539008186913855
  0.0833911260818375  0.0623702724746890  0.4531271562334678
  0.4145798508457437  0.0623040349421329  0.4542428631454709
  0.0011766800042054  0.1155787938870606  0.5436041824747547
  0.0002946899333071  0.1250060763992838  0.1956435964420142
  0.3337896771939969  0.1875740163014488  0.2021359180361899
  0.1665137067276007  0.1876136609678285  0.2020690539644284
  0.2500084727609469  0.2499961815231374  0.2774564205532902
  0.0825194182365588  0.1875049169346897  0.2828743726509266
  0.4176516136595164  0.1875131343874939  0.2830678348827907
  0.0002412995780802  0.2499344675001419  0.3686642962580424
  0.3324554997678934  0.1875762226669593  0.3671254132166518
  0.1676246926336247  0.1874881145036866  0.3672603971080965
  0.2500400913734528  0.2497074383388178  0.4539396428870152
  0.0859852014064017  0.1875408373638501  0.4544460717594757
  0.4173341771721122  0.1879480370288413  0.4532885619081362
  0.3246876591766300  0.1870986896738537  0.5434678769038573
  0.0001116430951719  0.2500086032900209  0.1957148425115222
  0.3335719452327706  0.3123938038829779  0.2021410165714569
  0.1663744889982795  0.3123690321266336  0.2019930538527262
  0.2497581978147609  0.3750081776771717  0.2775600433950980
  0.0824218565020578  0.3124845655082344  0.2829640071010736
  0.4174386505286899  0.3125028304454691  0.2830756957012641
  0.9995294339912951  0.3748825007532931  0.3687781560879013
  0.3323877936658085  0.3126507536788842  0.3676419281117409
  0.1672778061545833  0.3125296102071126  0.3673009480458680
  0.2484523854652804  0.3758037825765301  0.4552231280037135
  0.0825709049332378  0.3124423180456276  0.4527103775312215
  0.4151306101685444  0.3128220547881019  0.4540314989826666
  0.9938332017484552  0.3676343124418086  0.5425684390929542
  0.0001418227187368  0.3749738536345714  0.1957849385243872
  0.3337732135409928  0.4375293376285976  0.2020601970706113
  0.1661879149379070  0.4375422993003077  0.2020456278685198
  0.2500860738545343 -0.0000345100525457  0.2773143885528661
  0.0823054830471471  0.4374516238597846  0.2830328029686146
  0.4174863562765432  0.4374791844469013  0.2830146622958648
  0.0005077554808460  0.0001197311021681  0.3687291171057748
  0.3316162566003577  0.4374824976460942  0.3669789008104013
  0.1673052717073366  0.4373069086609234  0.3676193538622853
  0.2507378887931692  0.9996360560145330  0.4533245472162031
  0.0828143585076160  0.4373067222922046  0.4545245976546002
  0.4177467200725093  0.4382133882540194  0.4519942537567452
  0.3253942036406182  0.4359674778962891  0.5418057185539902
 -0.0000500014127050  0.4999441040789906  0.1957871651459026
  0.3337654802203905  0.5623967399885267  0.2019900570532401
  0.1662535537353012  0.5623275082995872  0.2019635481540698
  0.2499063493102360  0.6249215437702350  0.2773416316880231
  0.0821296490258025  0.5624029164522315  0.2828886803556228
  0.4175988535547874  0.5624454538705556  0.2829283118410419
  0.0002976015988088  0.6249937813348833  0.3684412417748398
  0.3315995826200451  0.5623988945810702  0.3670335058596271
  0.1671159965392497  0.5623519467584274  0.3670848722534065
  0.2490283407386759  0.6249962960123803  0.4537590417029999
  0.0819099536298655  0.5616580990485147  0.4525992301458638
  0.4140486871470328  0.5621760658972359  0.4530099205397706
  0.0027864785239203  0.6159947875885856  0.5426776011361871
 -0.0000017625923109  0.6249692005120763  0.1957057073430826
  0.3337942268663657  0.6874961496327847  0.2020358419631158
  0.1666183555233950  0.6874550144129459  0.2019021583854022
  0.2501391363129444  0.7499664463190333  0.2772018001277575
  0.0823502302835686  0.6874581657125318  0.2825981773901000
  0.4177857674380649  0.6874434800792861  0.2829447449151862
  0.0008115819750771  0.7502824243829210  0.3682623444425615
  0.3321322423676313  0.6873519447356247  0.3667667605685248
  0.1676836132749312  0.6874122248347371  0.3668645514699433
  0.2510674521097487  0.7498429060843778  0.4535507490913888
  0.0860147514777376  0.6873744726205132  0.4537703760526150
  0.4166445793339570  0.6874379352276518  0.4528989242762624
  0.3270154648361143  0.6854811909035995  0.5432238606725956
 -0.0000388952651302  0.7499439901729376  0.1956032459018536
  0.3339380208951708  0.8123809098660639  0.2020228697901690
  0.1666394925923469  0.8124749315696802  0.2018304607232953
  0.2501091097670909  0.8749908966676482  0.2773765800666435
  0.0823727429815651  0.8125139706610640  0.2826019573285921
  0.4178077936093590  0.8124385758686469  0.2829882877819528
  0.0004028736845933  0.8749955126538334  0.3684988825875387
  0.3325771723971636  0.8125588025561888  0.3672603952185374
  0.1679130706701860  0.8125930986026294  0.3666434403438323
  0.2507193123276782  0.8752657086256790  0.4538228858068292
  0.0843208481147085  0.8123565930845895  0.4522879693303381
  0.4143054653573222  0.8121635841075473  0.4540939797055765
  0.0005777873979077  0.8621142074053602  0.5427301849973866
  0.0000791534725709  0.8749757239737687  0.1955996012054442
  0.3339774527765276  0.9375565837862491  0.2020355020693596
  0.1666206773964702  0.9376134038679969  0.2019463945093151
  0.2496458818777930  0.4999055276028241  0.2774444703599436
  0.0825069120894065  0.9375189461417609  0.2827307435527407
  0.4178408413542594  0.9374748376749081  0.2829338146193696
  0.9993477567794429  0.4999417967495474  0.3687844992711342
  0.3326095217397792  0.9375085872216848  0.3667354382851625
  0.1678228059736543  0.9375264340946533  0.3670757503048143
  0.2474125334814808  0.4994035346269319  0.4547525925489868
  0.0855947968821489  0.9373931690063735  0.4540839116771170
  0.4171662909793556  0.9380225934458035  0.4522951904892272
  0.3256219695189729  0.9334569223336280  0.5422995326735944
  0.5000946313201075 -0.0000475535221057  0.1957777578432640
  0.8335485216292381  0.0624653488217967  0.2020333221675844
  0.6663322668250760  0.0624518489830548  0.2020048134323959
  0.7499352886838355  0.1249572643889867  0.2772730632540253
  0.5822618769730655  0.0624313071335956  0.2828874968895098
  0.9178599028168891  0.0624564652597037  0.2827718640065260
  0.5001293639534320  0.1248581275155628  0.3689538221725895
  0.8326948229739198  0.0624728513563146  0.3670667962767760
  0.6676270039346622  0.0623561375223636  0.3669796639337642
  0.7506382216933171  0.1244055244037361  0.4535179057148137
  0.5834669164443355  0.0618154514277416  0.4531967149386824
  0.9148382513706550  0.0622786833186600  0.4538893122008023
  0.5005552995498244  0.1147298727328760  0.5438860028697531
  0.4998526321001514  0.1250154283607378  0.1957396889121784
  0.8336247683437981  0.1873969960960882  0.2019294271625100
  0.6663004718690080  0.1874381621786837  0.2019802763242610
  0.7498261027459482  0.2499105940312126  0.2772779003319655
  0.5823229789099640  0.1874539781153195  0.2828413966574846
  0.9177577419449151  0.1874720626121780  0.2826990115178200
  0.5000751930325944  0.2499645738097821  0.3688537745070849
  0.8324577339345338  0.1872945534498699  0.3665308867719209
  0.6674013085914260  0.1872813855969062  0.3670789103781585
  0.7501720591894213  0.2489966953129926  0.4527176095833025
  0.5858092839596801  0.1869732014806440  0.4542957611341970
  0.9169538603525218  0.1876209961839312  0.4523427027921583
  0.8264325219619311  0.1855725070294900  0.5423655635026238
  0.4998232568563054  0.2499465710658172  0.1957289428094662
  0.8337380898611513  0.3124594023299004  0.2019125804157615
  0.6662593533660226  0.3124138362771202  0.2019014640813711
  0.7499455555077890  0.3749174340025479  0.2773331612431961
  0.5820940683809408  0.3124564283225231  0.2827600079116730
  0.9176416500620477  0.3124815318977651  0.2828348208802455
  0.5000326530227477  0.3750677074930576  0.3687057981594228
  0.8321087306032348  0.3124786856655831  0.3669970936783706
  0.6672654420039343  0.3125268632687776  0.3668690224522464
  0.7500572421989807  0.3744917802991609  0.4539863607395540
  0.5824291113435941  0.3119042519274818  0.4528166052520256
  0.9134806856244226  0.3120509623278603  0.4533780448767507
  0.5025455861380276  0.3720467856226472  0.5442655530361576
  0.4997868663396234  0.3750443640105960  0.1957644424777284
  0.8336054750237523  0.4374349410607721  0.2020434550345742
  0.6663156432312517  0.4375310210345639  0.2020134264899368
  0.7499588879158123 -0.0001159270593987  0.2773038192797565
  0.5823616219207902  0.4374782905955116  0.2828269953956750
  0.9174501573375164  0.4374785151243507  0.2829587026603423
  0.5005766732337344  0.0000436150075590  0.3688736721436056
  0.8319503712764516  0.4374433067753266  0.3669522403877858
  0.6676227253993336  0.4374425805165549  0.3670816144702681
  0.7507315648146993  0.9993749610783608  0.4533158873322505
  0.5868550295617405  0.4374554071857193  0.4538883832185599
  0.9155432971847478  0.4376648029424760  0.4529649576794867
  0.8232275267113288  0.4388039813175962  0.5441848960229274
  0.4999611881816349  0.4999388295050193  0.1957768865021736
  0.8334437696233152  0.5624599565305811  0.2020007643909710
  0.6663468399483490  0.5624342258551420  0.2019988039556616
  0.7497778360962220  0.6250171200675241  0.2775174053022951
  0.5824290783883769  0.5624741352758751  0.2830107312323742
  0.9174031640132870  0.5624619699653842  0.2829307944220643
  0.5000309821816404  0.6249283214328889  0.3688272871882030
  0.8320174232710988  0.5626570953509503  0.3674513225410178
  0.6674845232271641  0.5625598309213309  0.3673128033871221
  0.7496497409857149  0.6266945218480778  0.4551248379656905
  0.5836660487671833  0.5624517099014105  0.4528468631922716
  0.9139166314245176  0.5627225206031717  0.4537222754340794
  0.4967903143568148  0.6132857938051012  0.5423823848140761
  0.5000706930300588  0.6249466288566695  0.1958306091378686
  0.8335113049596670  0.6874685270948414  0.2019559368457315
  0.6662724512268130  0.6875018815604411  0.2020874999251040
  0.7498173012748702  0.7499662900644565  0.2774386218450513
  0.5824300396521686  0.6874615996211743  0.2831154518302874
  0.9176311891679830  0.6874787567139498  0.2827751721400402
  0.5000814606264885  0.7498641080197105  0.3690232736086590
  0.8320790509641124  0.6876316604495776  0.3667893299261732
  0.6678945617092928  0.6873860131047883  0.3676209939106584
  0.7497542365602675  0.7496891215739484  0.4544358007673436
  0.5838720075060355  0.6870685759009107  0.4545129915668138
  0.9181346344551528  0.6881951795713970  0.4514074394545347
  0.8344146902952965  0.6883169932545434  0.5412858057121065
  0.5001979332827492  0.7499391437588893  0.1958320980117904
  0.8336872237093204  0.8124190239799968  0.2019082621306063
  0.6661379813073646  0.8124256853350394  0.2020781409889676
  0.7498667943055333  0.8749326062916430  0.2774862974944662
  0.5823767780944099  0.8124033712382340  0.2831109997824402
  0.9177562547600879  0.8124914275719849  0.2826967859450872
  0.5004763069970838  0.8748073742980159  0.3689515756675901
  0.8323572679625519  0.8126202097906493  0.3669087158897926
  0.6675826912416434  0.8123511527255753  0.3672579172432706
  0.7498607999411536  0.8746453275239299  0.4540041613297983
  0.5831297782452588  0.8113499901959201  0.4533420190796535
  0.9154612911340390  0.8125875285786154  0.4532738591185992
  0.5024710640125241  0.8630032805179828  0.5435775027063190
  0.5001439148638698  0.8749632569892499  0.1957830174423474
  0.8336465790660320  0.9374715842889300  0.2019553937188176
  0.6662387061114891  0.9374282731634314  0.2021207864727015
  0.7498583142931660  0.4999483146023864  0.2774218000763664
  0.5824204492483013  0.9374394932373373  0.2830528987830847
  0.9178309572750645  0.9374807375537964  0.2827101719626734
  0.5004064002796447  0.4999325853884829  0.3685883323547080
  0.8325125751207247  0.9373787600686940  0.3667131234793643
  0.6675474318368030  0.9372347287891560  0.3674004670215986
  0.7483123565389754  0.4996720123207080  0.4545863999660633
  0.5857620085324858  0.9369324917466152  0.4545814100387199
  0.9173218311320573  0.9377837491377824  0.4525056742460391
  0.8270229571637222  0.9354047395278343  0.5419615533727841
  0.1760914240563130  0.0597852058200323  0.5420897120163921
  0.1735709464016064  0.3131737833687210  0.5429808215934183
  0.1739691566400732  0.5616488244205593  0.5418610888048871
  0.1761406519830021  0.8101992553757310  0.5421082383320678
  0.6762663669462411  0.0590004784323295  0.5419917184940538
  0.6743909938881619  0.3061890707928833  0.5418125325007345
  0.6852439133388515  0.5652351674267930  0.5437030643093482
  0.6768367724409858  0.8100351241807148  0.5420252288722545
  0.4065662839374647  0.0000348453382695  0.2311545278185803
  0.2502903655223795  0.0000105352876970  0.1979955683327973
  0.0937016256485167  0.0000226617093158  0.2309291327158756
  0.1543140716982337  0.1249712077886136  0.3147929488072475
  0.0001548253187160  0.1249840939014725  0.3020174151154561
  0.3458214321801331  0.1250223365445130  0.3149031508629646
  0.4014801896205327  0.1250211508042946  0.4019403172406768
  0.2501223427233709  0.1250220060439917  0.3861999418696801
  0.0990361577902868  0.1253435988756760  0.4018844403321616
  0.1535796847495583  0.1220119111223168  0.4865542248889313
  0.0005734584794664  0.1255390569109117  0.4753592784109856
  0.3475905749957443  0.1292714786878633  0.4859979837559626
  0.4047131593106999  0.1344804002048188  0.5691710637151727
  0.2613008392915935  0.1147325462535541  0.5599998522275201
  0.1031570694173219  0.1219992252658591  0.5685818619087690
  0.4064153071454519  0.1249955360964442  0.2312206423032822
  0.2501879484414339  0.1249877066655174  0.1986283188312752
  0.0938314227897959  0.1249777180413772  0.2310048209093118
  0.1544228849427909  0.2500169816868859  0.3148284356045867
  0.0000637026647546  0.2499420236057363  0.3019959588557736
  0.3455913352469679  0.2501314525173520  0.3149654316817762
  0.4012194155774645  0.2501980927464930  0.4016898181038349
  0.2501515168126744  0.2500873535076144  0.3863056945568766
  0.0991778700024164  0.2495763007474752  0.4013347376810279
  0.1528720390370930  0.2533888501464018  0.4854764930224632
  0.9994443792137088  0.2502968625052949  0.4726553442608009
  0.3467151388863180  0.2467467474233144  0.4863800148533357
  0.3955470309933483  0.2538745685052515  0.5675269847050605
  0.2320625395541974  0.2377510713315144  0.5614888099673303
  0.0831526399436537  0.2442587938665466  0.5613433718209939
  0.4063618158202029  0.2500271146283599  0.2312240256646153
  0.2500786646815653  0.2499982191646464  0.1978140545935530
  0.0936613855833603  0.2500157923720918  0.2310519858310641
  0.1542139984902950  0.3749380015021150  0.3149589609381089
 -0.0000886455128923  0.3749535885144512  0.3020830147456492
  0.3454053710553359  0.3749433998525500  0.3149354244560078
  0.4013976788944848  0.3749629551424177  0.4012519486582786
  0.2497622571147045  0.3748974908869998  0.3870937475234869
  0.0983864738208354  0.3751645494720244  0.4016059430376452
  0.1493357430731719  0.3729389293309854  0.4873575015857307
  0.9972243346928406  0.3740617411906667  0.4738203635716075
  0.3479729553033484  0.3803820062056261  0.4841257461719113
  0.4032012490781774  0.3819093206628174  0.5691721704669430
  0.2558669802298810  0.3677694375393193  0.5552224112983229
  0.0938029002049676  0.3639336676246552  0.5709733716388350
  0.4062237248146504  0.3749540084743672  0.2311881853748614
  0.2499781119102784  0.3750288678451293  0.1986324745154928
  0.0936884578625584  0.3749861593155925  0.2311443864939065
  0.1544092453172914  0.0001037430239139  0.3146922089694679
  0.0001695357439413 -0.0000384978239757  0.3020170237403202
  0.3457953317707784  0.0001449052931567  0.3147100298947274
  0.4013478563887283  0.0005507066986498  0.4011922047701995
  0.2502670110006420  0.0000477364730305  0.3857336470316389
  0.0994474512946223  0.9999036139395983  0.4014580429876470
  0.1536999355964540  0.0021969963027085  0.4854861955866783
  0.0002285702548371  0.0007102339185303  0.4738596946398034
  0.3470919988660350  0.9962742406172009  0.4851306827329442
  0.3991574189413357  0.0043894386798226  0.5653330699551161
  0.2373258354138610  0.9875628678596330  0.5602618352738808
  0.0920199345870581  0.0001581649659854  0.5639354343213825
  0.4063457099765576  0.4999779009525359  0.2310999311871788
  0.2500360331275251  0.4999223141473744  0.1983171126441415
  0.0935213988287454  0.4999143088631055  0.2311298648308988
  0.1541538737097212  0.6248532709319915  0.3146157818729770
 -0.0000582378244544  0.6249590115236585  0.3018237257605108
  0.3455520772337683  0.6248392467760464  0.3146355264489470
  0.4007261089648144  0.6248392784914226  0.4010647870688184
  0.2496058199837040  0.6248556052858800  0.3860588910281195
  0.0987997159182133  0.6252331626746356  0.4014714636211970
  0.1513912108040125  0.6218202384930384  0.4860876136423933
  0.0006131622017307  0.6254822998142663  0.4747076083014036
  0.3463744852714072  0.6282893419740061  0.4853071119298734
  0.3992916475434512  0.6271450275676145  0.5690397491891824
  0.2548851243328727  0.6195007874274329  0.5595604374867007
  0.1015896232064940  0.6264303345016085  0.5688551598952175
  0.4064095357281458  0.6249098444397255  0.2310793540846790
  0.2500848409099491  0.6248581931608365  0.1983451604692270
  0.0936968845183878  0.6248624643277355  0.2309223645397058
  0.1543929162256148  0.7500716811061708  0.3144233449408384
  0.0001336918968886  0.7499967681522567  0.3016937453987021
  0.3457167158842974  0.7500145158748311  0.3147006326565672
  0.4006739368636075  0.7499782040232618  0.4013297083800370
  0.2501574182944825  0.7500773348981420  0.3858285212063486
  0.0998995897264191  0.7497416006826839  0.4009027218714711
  0.1541030039772521  0.7528170754380094  0.4854652364101548
  0.0012522177689298  0.7505761587761069  0.4714821019777352
  0.3467821884819729  0.7462939058302122  0.4867918509057112
  0.3992877979461014  0.7501910462386967  0.5698361576015303
  0.2345666274341909  0.7374962934411028  0.5621349258661810
  0.0915978718412290  0.7513595917668283  0.5660383481350357
  0.4065618954821551  0.7499700100715725  0.2311078844164152
  0.2501905276723146  0.7499697034393747  0.1978615786970390
  0.0937597545816238  0.7500015565121110  0.2307417065835625
  0.1542999257720665  0.8750195628660792  0.3145720552769127
  0.0001454851586893  0.8750447507313845  0.3018203931330679
  0.3459324455654696  0.8749336025977321  0.3146899098769645
  0.4016020518412490  0.8747072561939151  0.4014447041874377
  0.2501880342316763  0.8750999168170960  0.3860390033471059
  0.0991054116641121  0.8755954696559231  0.4014224269334447
  0.1534282202129358  0.8722173140042067  0.4856718541307223
  0.0003010356042955  0.8749009943532260  0.4752005125050840
  0.3487112237558531  0.8804048118188251  0.4847835796368306
  0.4078083609971004  0.8840500871657475  0.5685744993323187
  0.2615773240093181  0.8631481048466233  0.5579287125882039
  0.1013291746665066  0.8741446158222704  0.5672312546434887
  0.4065508778168398  0.8749171472912313  0.2311072156585799
  0.2502974347269585  0.8750054209111396  0.1984979096465034
  0.0938188217870476  0.8750411460045323  0.2308190547437665
  0.1540280749272786  0.4998491628936828  0.3149118435486953
 -0.0002491957109625  0.4999363631115717  0.3020811240493783
  0.3453078353207341  0.4999254467511672  0.3146840665475292
  0.4007075884522500  0.5002515652068683  0.4005168249715912
  0.2493942412158238  0.4999269117626246  0.3866691415029985
  0.0984128424552066  0.4994894829331252  0.4014353648802464
  0.1486726124487102  0.5015119116301499  0.4872687176104725
  0.9976411019335208  0.5000476333683900  0.4732490127233325
  0.3462046724516126  0.4970075889738942  0.4844607639145923
  0.3909891759715353  0.5035994091762505  0.5701207204552031
  0.2526621031959402  0.5021154487492813  0.5564166005902795
  0.0896555940617494  0.5066370096416083  0.5690539341528054
  0.9064514424066966 -0.0000218227314986  0.2309188387616764
  0.7499304132682256 -0.0001083794912437  0.1981528776191419
  0.5936405954833822 -0.0000783276466345  0.2311280484838517
  0.6541858012455606  0.1247327714896870  0.3147014716775464
  0.5000440195538099  0.1249792602735056  0.3022168350403984
  0.8457952502703405  0.1248027339798378  0.3145084117602214
  0.9015021461059876  0.1246050554303938  0.4012764507254776
  0.7500385934380069  0.1247758461215081  0.3858371139067295
  0.5988585322762630  0.1249913218743003  0.4018704562639739
  0.6537711656341898  0.1213433976028634  0.4862816432135800
  0.5002750546330927  0.1255318547530227  0.4758815404375600
  0.8479059516563837  0.1291066232023161  0.4849201787966247
  0.9053102604362366  0.1338687161582867  0.5693083649292272
  0.7618736861719910  0.1135564619182452  0.5585339366718249
  0.6028502159841562  0.1212036430329446  0.5683895550678292
  0.9065714584582271  0.1249211692858885  0.2308650259152593
  0.7499518902387869  0.1249696028331636  0.1980169789726812
  0.5935082669769031  0.1249369137675730  0.2310052456229711
  0.6541180440664307  0.2499670965617601  0.3146055117698236
  0.4999218684633718  0.2499541550738652  0.3021543767576718
  0.8456832285041773  0.2499783217536088  0.3144190547148897
  0.9007546656609450  0.2500701824974232  0.4008174414801863
  0.7498605468817070  0.2497618481021218  0.3853365603604077
  0.5990491246032689  0.2495305293343193  0.4013165815613542
  0.6531845631728026  0.2514586166287596  0.4846455461111460
  0.5002190940141399  0.2504731941220104  0.4741150248941614
  0.8459481513088045  0.2458048167924577  0.4848761791706621
  0.8947923696179121  0.2555474820314221  0.5660844004678570
  0.7358065202899678  0.2354672891791265  0.5612689255823227
  0.5846716166033151  0.2425440864115625  0.5599117099767904
  0.9063654355514775  0.2500134677372002  0.2308986548211560
  0.7500225157254728  0.2499705786716215  0.1983035919395448
  0.5934601046710468  0.2499567653168182  0.2309536350512772
  0.6541417391376038  0.3748911113362473  0.3146724420973711
  0.4999179886298288  0.3750106785202004  0.3020249132551112
  0.8455595737119728  0.3749127575388580  0.3146918437418847
  0.9004303788367661  0.3747542249574873  0.4013175642449578
  0.7496951151375184  0.3747724179217052  0.3862668815740766
  0.5987719340587148  0.3752217767361945  0.4016094416339364
  0.6517083313510053  0.3698626634143458  0.4860561330668458
  0.5010158109157332  0.3763388553579630  0.4752738021988617
  0.8469594630609778  0.3790620398176188  0.4858662375054916
  0.8973286120426793  0.3824101249458361  0.5704236461629457
  0.7552179695109533  0.3670808763814853  0.5570015498595995
  0.6052159580891442  0.3606974355630779  0.5713771529725687
  0.9063605127069306  0.3749540614027579  0.2310138825689311
  0.7499423133015044  0.3749215938266363  0.1983501273067995
  0.5935147219201510  0.3749362807756715  0.2309402383331627
  0.6543430279326731 -0.0000535849131135  0.3148207951465277
  0.5001188115977783 -0.0000574241619300  0.3021851925191555
  0.8457731044074419 -0.0000028287549756  0.3145664213310409
  0.9013935122145537  0.0002335675870943  0.4011539683797981
  0.7502570177620331  0.9998585792042987  0.3857234136675695
  0.5994701753584927  0.9995351118909280  0.4016356419314248
  0.6538690835832514  0.0017108268356480  0.4856219330283781
  0.5001706210330398  0.0005896007091779  0.4737926243950801
  0.8471783883724857  0.9963563984586562  0.4855375025892227
  0.8992355606695777  0.0027478896866286  0.5660138219120165
  0.7367771772480161  0.9871064790760345  0.5610375052598685
  0.5917826706769298  0.9997384200384253  0.5648851290205921
  0.9062563100552953  0.4999958859692767  0.2310458752270179
  0.7499709766809523  0.4999451666333015  0.1980764537747660
  0.5935645907158191  0.4999889085515801  0.2310514247105767
  0.6542717841781280  0.6250335176405368  0.3149523222879024
  0.5000262170411043  0.6249416510350875  0.3021440589845666
  0.8455024281398641  0.6249712385645683  0.3147333136067562
  0.9014718215364200  0.6249483447239098  0.4008964657725296
  0.7500950012903157  0.6250203300549180  0.3869830525295314
  0.5989734359046315  0.6252843828830742  0.4016124935607163
  0.6511305291639016  0.6240701398676138  0.4871334587516205
  0.4981601556127087  0.6232956991352974  0.4740210620981042
  0.8496967670637255  0.6311210940063056  0.4843935131696110
  0.9086964751582829  0.6334413375249274  0.5698871237203500
  0.7622457483983791  0.6189177302728086  0.5550533892600020
  0.5973324335498094  0.6073881362618959  0.5700309089390426
  0.9062231659362506  0.6249160937623662  0.2309510000275094
  0.7498769312509296  0.6249885810430554  0.1982655992783041
  0.5937065504099210  0.6249981921623650  0.2311739457700682
  0.6543517323744198  0.7499131784323152  0.3150308304758880
  0.5000399919782221  0.7499301776645604  0.3022762385536660
  0.8456532859419882  0.7500894350987068  0.3145099213717240
  0.9015476561150868  0.7507742839835755  0.4003860703447416
  0.7501408382911201  0.7501928473239258  0.3865073079228986
  0.5992023148971179  0.7496073671545402  0.4016584326433793
  0.6514340126226753  0.7507755448598573  0.4873439384055171
  0.4988732190787446  0.7495706972797469  0.4733560146171534
  0.8493590340780680  0.7482022613320350  0.4842901712941372
  0.9065455844396511  0.7534683391962186  0.5669776314419058
  0.7593030415868537  0.7526339369476003  0.5580439018143717
  0.5925768007077749  0.7534348270974903  0.5685598426174353
  0.9063281162895522  0.7499789511793831  0.2308838506846530
  0.7499155440112758  0.7500091852423733  0.1983574963303822
  0.5936692175623854  0.7499382981274384  0.2312751869506150
  0.6542423680821504  0.8748911063693299  0.3149219631017290
  0.5001161046536728  0.8749086292260549  0.3022300412409456
  0.8458290038112536  0.8749910239048381  0.3145398805628762
  0.9016154522553080  0.8750632512226593  0.4012188119728948
  0.7501188838855346  0.8748687648408088  0.3862123234701204
  0.5989173295926670  0.8748877270546895  0.4021371609424551
  0.6529794389376427  0.8714202506361501  0.4865079103863422
  0.5006866222013276  0.8750970629492253  0.4760397747757901
  0.8479394241011923  0.8779083719395183  0.4851269342868628
  0.9045795408808209  0.8807786020648261  0.5678007312040536
  0.7587823097887776  0.8673419317734082  0.5597397849041634
  0.6023156582373437  0.8745260511917151  0.5682637656192154
  0.9064165316737189  0.8749778580248345  0.2308820927956967
  0.7499366245840084  0.8749167524990753  0.1985692725411294
  0.5936335297091736  0.8749061388400834  0.2312349837937454
  0.6543687238376296  0.4999564296587175  0.3147705779419675
  0.4999986346868472  0.4999605196263174  0.3020055919198896
  0.8453904478024854  0.5000869907184723  0.3148092384129592
  0.9001227235957660  0.5001297500698387  0.4013256085363504
  0.7497478387737745  0.5000530948605468  0.3865540161878676
  0.5994772950353635  0.4993797387407772  0.4013589068137323
  0.6517254727289992  0.5043000627035324  0.4867262844486245
  0.4995268383040792  0.5002385410661168  0.4710706078952604
  0.8449405963511395  0.4968747357264918  0.4871625987733939
  0.8977385854820776  0.5022635667221858  0.5700071155804145
  0.7252044869561651  0.4858915766116527  0.5635847042460113
  0.5551672019138933  0.4584577326035564  0.5535973051929668
  0.1537707296178887  0.1853285685200750  0.5389340395407758
  0.1121341889039487  0.4375919983997320  0.5408456974435314
  0.1562948602058808  0.6869882213217883  0.5387257551523547
  0.1541198756800581  0.9366290711956327  0.5379213572288486
  0.6538396574261697  0.1836705013584502  0.5385570699886868
  0.6509495947220695  0.4287761079460709  0.5386667308103271
  0.6141696533840147  0.6840562086792893  0.5408700714447607
  0.6551635091686624  0.9361601652239139  0.5389229618890838
  0.3485631881787921  0.0657445990250744  0.5379539053348222
  0.9921582237948140  0.2590978614135167  0.5395613546179847
  0.3486383391773840  0.3150262855321289  0.5343710380679624
  0.9982033111155214  0.0118823791871172  0.5411698476477853
  0.3370007502610358  0.5616127070069467  0.5353692508649001
  0.0006057798261372  0.7573669788219296  0.5377916378724338
  0.3574269344849986  0.8126918124657776  0.5362154222525853
  0.9912096220534442  0.5066623143928926  0.5414373567074990
  0.8499164936194552  0.0641392407608029  0.5370840475813764
  0.4914399376671383  0.2623945066909301  0.5417579427175641
  0.8434186732126189  0.3159583625336290  0.5358736163108588
  0.4990536917089016  0.0111561796825998  0.5408943614395619
  0.8590931471562787  0.5654752709323935  0.5347876453066162
  0.4934160166455481  0.7550878685551876  0.5414167907375346
  0.8400309084489452  0.8122088073379157  0.5384101546372771
  0.4777716658325213  0.5044703310819093  0.5375176017912577
 
  0.00000000E+00  0.00000000E+00  0.00000000E+00
  0.00000000E+00  0.00000000E+00  0.00000000E+00
  0.00000000E+00  0.00000000E+00  0.00000000E+00
  0.00000000E+00  0.00000000E+00  0.00000000E+00
  0.00000000E+00  0.00000000E+00  0.00000000E+00
  0.00000000E+00  0.00000000E+00  0.00000000E+00
  0.00000000E+00  0.00000000E+00  0.00000000E+00
  0.00000000E+00  0.00000000E+00  0.00000000E+00