Ta  N Co Cu                             
   1.00000000000000     
    18.1096308199999996    0.0000000000000000    0.0000000000000000
     0.0000000000000000   23.3551997799999995    0.0000000000000000
     0.0000000000000000    0.0000000000000000   30.4818171199999988
   Ta   N    Co   Cu
   228   240    12     4
Direct
  0.0000285442065717  0.0000838243000061  0.1979610383967483
  0.3341570938246150  0.0624070982339546  0.2030064469128732
  0.1661259380073261  0.0624640378153813  0.2032922533311705
  0.2502593381689451  0.1250212848555776  0.2786643033200136
  0.0827757764750245  0.0625864592618655  0.2845714917652984
  0.4172539844402294  0.0624805928542713  0.2844402766916048
  0.0003939685557697  0.1251224407539979  0.3702709676309226
  0.3318312079937442  0.0624577809813829  0.3690878249594078
  0.1681415751352944  0.0625432010897384  0.3688627577124137
  0.2510576052381950  0.1272222827905694  0.4575472013956556
  0.0852808408071724  0.0626821592926916  0.4553340204808407
  0.4169452939049876  0.0620641814076350  0.4540233701533865
  0.0006757626036418  0.1250199325108881  0.5414840369473879
  0.3324673236623141  0.0604664202724408  0.5436115481437369
  0.0001924391786758  0.1250664780804556  0.1979883556517734
  0.3342589818319581  0.1875585206533827  0.2029740310319212
  0.1662425497777207  0.1876724746760985  0.2032740998500060
  0.2503635602408707  0.2500177422570999  0.2785662146505246
  0.0827713299969517  0.1875910115728203  0.2846228565647593
  0.4174359532250023  0.1874617161125656  0.2844633283472575
  0.0004042770982267  0.2501504077531891  0.3702005776037112
  0.3319548744224790  0.1873986418797102  0.3690360380570681
  0.1683076680829032  0.1876601510821487  0.3686786745009698
  0.2505879257469985  0.2483516413014186  0.4573909043784568
  0.0840853881897772  0.1879419014390535  0.4541234031895200
  0.4177076343470034  0.1875781022647161  0.4533926925598593
  0.0013452896599730  0.2489793516698384  0.5421035049022720
  0.3440778140294896  0.1865204189700052  0.5428649782269943
  0.1711560116572741  0.1853092105642347  0.5437922080655611
  0.0001586352132179  0.2500118120141579  0.1979278328294853
  0.3342781921378162  0.3124206868508708  0.2029794481105114
  0.1662872936454463  0.3124300185151156  0.2032180909422650
  0.2503164225205623  0.3750111461810945  0.2785814663197641
  0.0829479394170178  0.3126014391364933  0.2844511156573972
  0.4173098950055163  0.3124726059991332  0.2843875307885710
  0.0003457651361032  0.3751215092976494  0.3701289166561992
  0.3320311253013415  0.3125820418345526  0.3689986364263191
  0.1683590413903389  0.3126520510683264  0.3687117217293974
  0.2519104267337084  0.3772839571163402  0.4587978228263765
  0.0850802382538305  0.3127145663764495  0.4548364879640232
  0.4182858863892562  0.3120060961184663  0.4533432820368688
  0.0011790389411388  0.3756149635711949  0.5414316087994138
  0.3389426286218935  0.3097588374715841  0.5412722254039153
  0.0001796878991129  0.3750234526082394  0.1979028547625461
  0.3341919050860085  0.4375727675725898  0.2029486198167945
  0.1662510203345491  0.4376025492615483  0.2031832533518454
  0.2501590416826502  0.9999984832480564  0.2786247833193940
  0.0827693751169107  0.4375939499214141  0.2844998332893596
  0.4173953267134181  0.4374865366473770  0.2844141796215780
  0.0001371504345826  0.0001722060664306  0.3702637257219692
  0.3319924599208903  0.4373792404104009  0.3690329543354736
  0.1682995096042106  0.4375466503823517  0.3685751736951630
  0.2504628029998131  0.9983710296708352  0.4576677340396316
  0.0839621349068196  0.4379186863891107  0.4539005611588678
  0.4183978021879184  0.4379160570605336  0.4534076614913261
  0.9997388364959789  0.9990687950030548  0.5419071274374332
  0.3454877498681626  0.4383646382706985  0.5414113148054938
  0.1675711641755129  0.4384480239519419  0.5421755300700397
  0.0000696901557191  0.5000727092942441  0.1978393103157714
  0.3341226320047426  0.5624487746484803  0.2029095830201371
  0.1660997557046215  0.5624744199174501  0.2031223008874292
  0.2500879861186647  0.6250815287531282  0.2785326814292333
  0.0827638211832138  0.5625945164553627  0.2844009937125023
  0.4171476776042837  0.5625057716647746  0.2843292318460016
  0.0000231100380503  0.6251841091992105  0.3701120336946033
  0.3318596070010784  0.5626588351385280  0.3689491996245735
  0.1680735206571882  0.5627263718605775  0.3686494925362140
  0.2509912183747929  0.6270652512771377  0.4580695637236900
  0.0851156477028141  0.5629733846471510  0.4549421820791295
  0.4168358932276917  0.5621917225915354  0.4539669145355987
  0.9993271497370628  0.6256413032441159  0.5413905718943397
  0.3345754560989249  0.5629251463541820  0.5446308118689345
  0.0000428300260253  0.6250572760840143  0.1978601653331893
  0.3338969988136924  0.6876231969098328  0.2029368727256298
  0.1661439061429775  0.6876875479927520  0.2032093869835450
  0.2500419244151217  0.7500357231013410  0.2785293004460314
  0.0825664246203530  0.6876052570729314  0.2845218195974368
  0.4171996194939851  0.6875167774231272  0.2843561164051067
  0.9999789991775927  0.7501974037276753  0.3701945895681078
  0.3316379716606264  0.6874676747150801  0.3689806417009862
  0.1680215605322175  0.6876778045838421  0.3685679578162038
  0.2502898282879826  0.7483691671984261  0.4575291486722222
  0.0834820879969413  0.6879775483348070  0.4538651981366328
  0.4178645771633356  0.6877891719065445  0.4533755166304800
  0.9999925472880520  0.7492786793959425  0.5417355571521654
  0.3425853132575227  0.6879425304611715  0.5412218751621296
  0.1709842994545525  0.6876378367631233  0.5430164703325460
  0.0000113192146927  0.7501303954884833  0.1978821638487815
  0.3340317473042091  0.8124638864734237  0.2029389892172944
  0.1658943987211572  0.8125092402433012  0.2032092126009246
  0.2499998467963778  0.8750486341345294  0.2786770522687192
  0.0826170878215109  0.8125957206181482  0.2845297798125515
  0.4170551425900086  0.8125157626931028  0.2843651700609726
  0.9999728714616225  0.8751295734835125  0.3702448172533650
  0.3316529793782053  0.8125427018593783  0.3690522214072516
  0.1679598350509011  0.8126279831955188  0.3688521333879962
  0.2507719821418704  0.8772947638637234  0.4581213654801886
  0.0848728267355270  0.8127906334665695  0.4552525724246408
  0.4168838265732830  0.8121462238580506  0.4538744277733144
  0.9995152579066939  0.8753734482315636  0.5415085403066087
  0.3325679230972653  0.8109772731494616  0.5434251950873232
  0.0000419036363866  0.8750794258724142  0.1979533849748023
  0.3339728024375290  0.9376506737798636  0.2029813962409506
  0.1660953899960234  0.9376877145723981  0.2032951359800279
  0.2502633599338537  0.5000283056396455  0.2784092381971348
  0.0825607498701260  0.9375779402314350  0.2846434917258165
  0.4172516020025228  0.9374941557999392  0.2844218993915888
  0.0003504669788228  0.5002421358609581  0.3701255090986422
  0.3316288101530418  0.9373827938217687  0.3690497438338625
  0.1681002079946055  0.9376049923585299  0.3687074187678334
  0.2506876191620933  0.4988138089144414  0.4564265629754587
  0.0834913788089864  0.9379029410916147  0.4539468116687573
  0.4179122334701901  0.9377947382878347  0.4533004658022435
  0.0015634625037606  0.4995849570178237  0.5415474998079333
  0.3428306664023566  0.9372560986932470  0.5415273372769178
  0.1713930046475554  0.9367646556328850  0.5430832482749040
  0.5001506760232033  0.0000444968560842  0.1977901968104447
  0.8342784228795068  0.0625223074050467  0.2032736949348077
  0.6662538417245401  0.0624993399875464  0.2029619257205013
  0.7503392247721052  0.1250349697037478  0.2786282881479991
  0.5832120690970939  0.0624892028456969  0.2843932661105413
  0.9175747592586561  0.0626058497831394  0.2846122304354495
  0.5000791938713505  0.1250015592008182  0.3694428392029963
  0.8322455020749615  0.0626204091591092  0.3689112411621309
  0.6685424887313616  0.0625645630780909  0.3690304194565783
  0.7494437823648354  0.1274709867999064  0.4580644548691168
  0.5830518099144868  0.0621411012459561  0.4537712831356515
  0.9152757523359867  0.0627263323179506  0.4552870264946449
  0.5007340361444150  0.1124363995681108  0.5437209444957887
  0.6675387241057109  0.0606820246756143  0.5432081929474819
  0.5001688823162453  0.1249721189402280  0.1978398093533968
  0.8342763965925570  0.1876043142918249  0.2032841383832178
  0.6663115993879245  0.1875636059036907  0.2029713909528823
  0.7504141638931969  0.2499958151677433  0.2785703395404795
  0.5831730155077537  0.1874619338859773  0.2844380629884000
  0.9178111455581472  0.1875964340721552  0.2846749825640345
  0.5002902980273802  0.2497859537706191  0.3693624815839627
  0.8323492484860466  0.1876357035253520  0.3687227281838972
  0.6687702354560727  0.1874130850882878  0.3689814312279580
  0.7502627791930792  0.2481361866736336  0.4576536050817879
  0.5822908540792398  0.1878183038958809  0.4530647480003509
  0.9171044312449510  0.1878967182733930  0.4538798995706657
  0.8289231241817703  0.1865349126987041  0.5429385909634590
  0.6576505765192735  0.1873362648939860  0.5412582534311809
  0.5002781448806815  0.2499267490425439  0.1978028199544752
  0.8343236391873177  0.3125057798750603  0.2032305752379884
  0.6663146355483107  0.3124416246700363  0.2029694947529208
  0.7504541828911755  0.3750417985992840  0.2785227886663080
  0.5833421924979802  0.3124787760247685  0.2843624223501919
  0.9177045002324675  0.3126026858772804  0.2845333496986768
  0.5004443635037106  0.3750856246984497  0.3693446493480153
  0.8324644847198073  0.3125846181689411  0.3688099297582141
  0.6688677925250346  0.3125349614669375  0.3688610376522377
  0.7498206277972415  0.3774546829109582  0.4577273912413418
  0.5837189749062190  0.3120889832621501  0.4535479829170512
  0.9155250994328128  0.3126738137157261  0.4551998993580568
  0.5025339051388684  0.3656701416046673  0.5429570499979732
  0.6680848125476544  0.3106940032360868  0.5429932811841951
  0.5002105779220472  0.3749483000010940  0.1978117163223274
  0.8342347883078460  0.4376146538602299  0.2032050641729768
  0.6663065722978061  0.4375665125361934  0.2029325337489354
  0.7501961512393578  0.0000047219308712  0.2785806345379882
  0.5831225795942814  0.4374986520701611  0.2843597113835585
  0.9177750999362004  0.4376127298035541  0.2845775985853223
  0.5000450764541569  0.9998514556576055  0.3693887245240859
  0.8323709549494751  0.4377111429172089  0.3686742199567945
  0.6688533138379498  0.4375177020623724  0.3688651771253149
  0.7497510907404177  0.9982753913298126  0.4576356259911520
  0.5826470636757435  0.4378665571578679  0.4529171757524324
  0.9171844558358018  0.4379156424283224  0.4537976330270936
  0.8294012831581412  0.4358244957081965  0.5428539837894775
  0.6583091620930759  0.4377351884303593  0.5409555476542565
  0.5001588310476066  0.5000143465859139  0.1977569551513767
  0.8342253991018467  0.5625313136377201  0.2031562076416051
  0.6661723725773143  0.5624668684729244  0.2029130097864069
  0.7502367100521283  0.6250585762277865  0.2785064983017023
  0.5831068561152080  0.5625163082468916  0.2843175822940509
  0.9175507152446443  0.5626121778959643  0.2844563486366880
  0.4999397732860302  0.6250756815547405  0.3693550411782596
  0.8322562607352637  0.5626231927966998  0.3687519586245216
  0.6686442875790206  0.5625895283913138  0.3688058500489575
  0.7492496863593772  0.6275515891684975  0.4577671941018622
  0.5831811377929341  0.5621769940465171  0.4534864701575145
  0.9152434073801601  0.5627373054565652  0.4552035015778060
  0.4999929950220974  0.6122099187602217  0.5431331466186577
  0.6670978505116452  0.5609213935799033  0.5428991833787151
  0.5000436689854411  0.6250225405871603  0.1977961361936167
  0.8340980741300967  0.6876564056225831  0.2031960552103911
  0.6662136391379860  0.6875967081620615  0.2028993351359460
  0.7501062117928328  0.7500506664568505  0.2785089311138123
  0.5829180746507632  0.6875196870725659  0.2843188822334781
  0.9175583572152846  0.6876194149351420  0.2845784415604555
  0.4998744461670483  0.7499057037997119  0.3693088339345536
  0.8320589835259184  0.6876924420846677  0.3686583114746682
  0.6685247505586105  0.6875041112056977  0.3688502440040367
  0.7496363519686327  0.7481892876715008  0.4577172478438811
  0.5821594740259641  0.6878494789528631  0.4528963054251633
  0.9165582913069841  0.6879423237907503  0.4538685931579991
  0.8274227133713339  0.6862732221569985  0.5429910590439988
  0.6564114514343800  0.6874699726126039  0.5412023850857963
  0.5000451881133827  0.7501143812873181  0.1977597793333103
  0.8342117649138032  0.8125270758933567  0.2031894153485396
  0.6661039475412309  0.8124952153741134  0.2028852998711699
  0.7501550652274176  0.8750778852072685  0.2785982497057233
  0.5830153839510714  0.8125244738019148  0.2843181568809428
  0.9174390231294609  0.8125959531744087  0.2845421052048067
  0.4999412121441225  0.8750463537282798  0.3693800562196046
  0.8320518643178261  0.8126315601923011  0.3688451912848691
  0.6684302122135506  0.8125911173925431  0.3689114455926088
  0.7491461546124185  0.8775614973098129  0.4580704978624226
  0.5829167593902085  0.8121728599376041  0.4535869387127534
  0.9149191457449675  0.8127541528574156  0.4553067140796543
  0.4996027286010900  0.8619697857696096  0.5436531264669142
  0.6667062002784405  0.8108546169535700  0.5430021916167860
  0.5000305621213457  0.8750467215182667  0.1978219718789944
  0.8341917148755229  0.9376335168485284  0.2032754360502835
  0.6662332900219354  0.9375949417281930  0.2029230978251917
  0.7503237398341867  0.5000481500919776  0.2784935728580251
  0.5829873908944521  0.9375109616914159  0.2843762376906867
  0.9175753111239189  0.9375906024504204  0.2846897031396054
  0.4999655426398917  0.4999654527193158  0.3693788429091143
  0.8320343780092614  0.9376515610105898  0.3687375304886018
  0.6685198163291588  0.9374509966309077  0.3689724225373112
  0.7502365041751560  0.4981567099764561  0.4578243862890474
  0.5821184481952528  0.9378527655508364  0.4530760332562522
  0.9165802423411051  0.9379610898641317  0.4539646252673819
  0.8276134504988235  0.9367018073703264  0.5431389888114424
  0.6566083248100725  0.9373473357965025  0.5413839354984802
  0.4056762050708187  0.9999757142612253  0.2326122984931516
  0.2500650625796794  0.0000580521867590  0.1994298036861366
  0.0943310947325173  0.0000591837602357  0.2328304320053860
  0.1552872082465626  0.1250796523680648  0.3162759155021888
  0.0002922938622874  0.1250572639191603  0.3036756731273229
  0.3452984851963166  0.1250125215503104  0.3164329336230267
  0.4011614197262432  0.1246746410121347  0.4023120120854884
  0.2499536185104176  0.1249062331654684  0.3890397847117413
  0.0998085017183143  0.1251519722214240  0.4024452966342196
  0.1511991395435857  0.1267543016164225  0.4877273711582717
  0.0004873812244810  0.1251246425851917  0.4732236765990478
  0.3516055372989015  0.1249835595522555  0.4883100177779838
  0.4070354013826076  0.1261961937775951  0.5719429515411889
  0.2575257974319030  0.1315676394208438  0.5577005224356313
  0.0982735082378952  0.1272271047594415  0.5698780140126658
  0.4056438145793706  0.1250161319292005  0.2326828243587258
  0.2501748319771266  0.1250330132552122  0.2001460815043359
  0.0945569226764889  0.1251203716610689  0.2328799456880049
  0.1553079471203844  0.2501014796267569  0.3161852896520685
  0.0003593275077591  0.2501706909896484  0.3036180733558638
  0.3453630411923996  0.2499680210592672  0.3163552892616650
  0.4012641451023669  0.2499221960284714  0.4018852559738946
  0.2500547802427491  0.2502985465005878  0.3890068029077440
  0.0999353965880587  0.2501911823228156  0.4023332676405644
  0.1512238964952388  0.2490701851268255  0.4882620534495956
  0.0005704463867886  0.2502978139735035  0.4734897065001888
  0.3511362198143146  0.2494615233728226  0.4874486481474491
  0.4137818437841148  0.2534049219061032  0.5658323894344477
  0.2599437639341033  0.2497671186730273  0.5593600200121074
  0.0990158306336468  0.2484456816533651  0.5705037125889305
  0.4058263129280419  0.2498989290983715  0.2326238411257577
  0.2502991274504254  0.2499904013049346  0.1995778177611882
  0.0944839657080507  0.2500139694365870  0.2327838090807788
  0.1553625421742666  0.3750987829190109  0.3161708939312931
  0.0003363431820418  0.3750689823950992  0.3035419633277456
  0.3453155871660627  0.3750299066301395  0.3163932643215190
  0.4015660278624367  0.3749940644411467  0.4020572847649504
  0.2501106058632985  0.3748201183705291  0.3895838346035845
  0.0997112978557908  0.3752020985789031  0.4021331271276338
  0.1503088289991368  0.3764144075759788  0.4871009957251999
  0.0003628570680192  0.3752169704828390  0.4731131468680090
  0.3551887849581803  0.3749362348765430  0.4880247887162383
  0.4080745442391631  0.3751132877738641  0.5745358526349094
  0.2573249584891215  0.3776038880819925  0.5499789635663959
  0.0995756717947387  0.3769915759865867  0.5701632577551408
  0.4056728404768037  0.3750289581019004  0.2326315234570657
  0.2502420264220433  0.3749889562683109  0.1998902813839010
  0.0945833518045589  0.3750902101678619  0.2327485495551329
  0.1550531975984626  0.0000478724698070  0.3162342679698114
  0.0001328874029269  0.0001374516849069  0.3036769995042974
  0.3452170169660178  0.9999149867949342  0.3163746225636856
  0.4010876278231521  0.0000612809863441  0.4020234622605727
  0.2497902950719748  0.0000724464463104  0.3890531025001422
  0.0996285248941220  0.0002614214782852  0.4024220818080693
  0.1504413940497145  0.9989847343108025  0.4881867402825577
  0.0001554838766964  0.0003698827527927  0.4733905497194399
  0.3509596048520862  0.0003473742018727  0.4874035864435413
  0.4104898532369816  0.0046857317079443  0.5652124763118636
  0.2579997136798653  0.9974798199286781  0.5557058667721151
  0.0973023025272752  0.9978710862606661  0.5698617950882507
  0.4057040811719261  0.4999615773031749  0.2325775426946208
  0.2501552861392327  0.5000172695306730  0.1994709850716490
  0.0944178679336645  0.5000216630145218  0.2326811116363459
  0.1551197385043821  0.6251495235268365  0.3161408537251518
  0.0001306580168006  0.6250664201318230  0.3035192439127670
  0.3451235461253788  0.6250961138331661  0.3163409709686889
  0.4010604024683886  0.6248611866809028  0.4022452306596165
  0.2497368771448976  0.6251203077439982  0.3892078435130912
  0.0994682688355084  0.6252310250550082  0.4022050271910800
  0.1501345524113091  0.6269333253574771  0.4875314621964506
  0.0000169333871440  0.6252392446638311  0.4730518505929595
  0.3524811986884515  0.6248279690238903  0.4880926135098207
  0.4051935014842059  0.6249097968372297  0.5714404225053826
  0.2559229728582366  0.6279848369715282  0.5542485898299176
  0.0969128966440778  0.6277637802654965  0.5695107304456926
  0.4054680549497078  0.6250638905382004  0.2325732057465686
  0.2500370466763329  0.6250212100569001  0.1996970873265340
  0.0944320652493147  0.6251038956096480  0.2327256265853421
  0.1549949253890546  0.7501191325658212  0.3161528429606406
  0.0000486969676032  0.7501424478710277  0.3035995590629668
  0.3450742359373038  0.7499628994309546  0.3163153755486903
  0.4009314421705312  0.7500770792008709  0.4019708246525724
  0.2496544238060281  0.7501080775430751  0.3890000284840198
  0.0995011322835637  0.7503151281186717  0.4023165625260816
  0.1504533487851418  0.7491123243225175  0.4880505555329790
  0.0000261451852737  0.7504088905468294  0.4732928843685968
  0.3505906078818484  0.7505783210095984  0.4873935925724595
  0.4104057455193271  0.7538617130829337  0.5653632229009986
  0.2583927248644855  0.7464349054740680  0.5564203128618530
  0.0975293771676675  0.7481059921195765  0.5698032354702534
  0.4055338738812821  0.7500098608221109  0.2325538522203914
  0.2499847571307185  0.7501217977563002  0.1994266516416658
  0.0942917752098253  0.7500750525757169  0.2327673543329070
  0.1550416660974818  0.8750735561283278  0.3162723500563018
  0.0000581307698369  0.8750463798470420  0.3036570274412043
  0.3450962745414756  0.8750449253077193  0.3164015120802546
  0.4010650971731948  0.8747687009119218  0.4021922556557982
  0.2496958206383582  0.8749430019802418  0.3893192150796665
  0.0994149102861002  0.8751340637067315  0.4023486890439329
  0.1500785196129328  0.8767785700462625  0.4876287886561315
  0.9999442885831655  0.8751750594488428  0.4731766597089759
  0.3522655587508012  0.8751027411233210  0.4878525575082904
  0.4057481414871731  0.8760287408499323  0.5716403073770948
  0.2563040406364081  0.8795589731006146  0.5548865944224204
  0.0970339384570593  0.8775602022586426  0.5696582701497661
  0.4054442015875281  0.8750627726878193  0.2326123721816415
  0.2499865199921771  0.8750495015143969  0.2000652278623960
  0.0943788573733713  0.8751219258786662  0.2328714502761429
  0.1552515821125482  0.5000923690829140  0.3160656692941473
  0.0002585157636048  0.5001664780631998  0.3035439357485359
  0.3452202329810348  0.4999361969553959  0.3163005158087913
  0.4008656624095934  0.5001965435628861  0.4020773796383921
  0.2499223009807849  0.5001012065707755  0.3884399116387840
  0.0999023559200580  0.5003395048110164  0.4022066161026174
  0.1521245394562740  0.4997520353549092  0.4877628268216156
  0.0006661931024183  0.5005255714648413  0.4731950095810973
  0.3491651033942418  0.5011374951954508  0.4883340423077343
  0.4121918356655101  0.5040771783107303  0.5663297666707194
  0.2616188819455800  0.4926050774180410  0.5641566555152977
  0.0989745249827507  0.4994426858190053  0.5698723924669338
  0.9058174828728482  0.0000537866448411  0.2329118062051947
  0.7502331838387235  0.0000527663854228  0.1996811378847383
  0.5946779895069838  0.9999883445118769  0.2325623323516837
  0.6553031004910039  0.1250261283981260  0.3163775611019517
  0.5002528172075529  0.1249788627933341  0.3030181343904133
  0.8452407947800324  0.1250987073325405  0.3163127201219353
  0.9009685589328740  0.1250959701933283  0.4023384513622190
  0.7505635235566359  0.1249702431008117  0.3893059491865571
  0.5990535639536745  0.1247687714633301  0.4020677666638122
  0.6478082587680163  0.1251753386327223  0.4876759031495723
  0.5000777045364231  0.1245038865355568  0.4748709065090182
  0.8501819517123721  0.1269538957387297  0.4874119955085732
  0.9031093335318658  0.1272582569025715  0.5695397087958440
  0.7439841587775859  0.1297291876653190  0.5546977398981667
  0.5944019297259473  0.1264564621002009  0.5715832020264600
  0.9058814094876055  0.1251257646001989  0.2329246123842665
  0.7503095539417899  0.1250358042518371  0.1998077121438442
  0.5947781924659381  0.1250362120702420  0.2326363746970799
  0.6553595440187863  0.2499236613585580  0.3162545149381444
  0.5003279643812348  0.2499950440972114  0.3029392219061009
  0.8454392239474728  0.2500812633787461  0.3162312091542816
  0.9009699029380300  0.2502567161483995  0.4023775227117454
  0.7507427832335338  0.2501349196834468  0.3890181204345282
  0.5993818404982392  0.2500593879663526  0.4017454836119683
  0.6493979186727188  0.2502543487178954  0.4870093597398295
  0.5005483170969853  0.2502819830732577  0.4738127439938467
  0.8503318373218747  0.2489185158151912  0.4880694227238465
  0.9036137561015494  0.2474151428464992  0.5697018416266815
  0.7424736920350981  0.2475593708510431  0.5549448733404034
  0.5901141168044433  0.2546934276751642  0.5649563839115146
  0.9059486166973016  0.2500339167306720  0.2328658997353656
  0.7503236946267222  0.2500180571074395  0.1996861198739239
  0.5947772027707501  0.2499102388226504  0.2326070548342116
  0.6554296811589566  0.3750686575830642  0.3162589062720116
  0.5003177128237866  0.3749718498831101  0.3029483592631266
  0.8453132835519384  0.3751163513294458  0.3162379198708081
  0.9009663262311705  0.3750994255699283  0.4022630034656984
  0.7507559811845610  0.3750123838776744  0.3890728455305918
  0.5995655475919506  0.3748511322109351  0.4018706097458633
  0.6486364399620612  0.3750368495102094  0.4876157916862311
  0.5012860156140064  0.3745938992035036  0.4738556897042088
  0.8501773519081013  0.3768237904908673  0.4873317515305118
  0.9038780632271610  0.3766886447940365  0.5693904613802090
  0.7441101309382248  0.3803685919086632  0.5555909926870655
  0.5948621182212435  0.3757250222597293  0.5715109372736222
  0.9058887492628500  0.3751219148016247  0.2328418701996569
  0.7502901231307817  0.3750225420086153  0.1996738485573317
  0.5948164677155674  0.3750230729629891  0.2325869098707258
  0.6551452711548720  0.9999722335823265  0.3162785123063045
  0.5001702553371317  0.9999859020637416  0.3029577252783824
  0.8451778710134192  0.0001145244028038  0.3162611886501026
  0.9006538973917557  0.0002953118176450  0.4024133498678282
  0.7504391587102646  0.0001872792014836  0.3890355619778063
  0.5990481366747744  0.0001349183795583  0.4018338797596144
  0.6489995162428457  0.0004270140562781  0.4872068904266129
  0.5000373845984285  0.0001730004840326  0.4739007079205138
  0.8496988124617673  0.9990574738344264  0.4881263190298029
  0.9022024121789372  0.9975775924225019  0.5698545624782270
  0.7413146220118421  0.9971558057087790  0.5557576873001508
  0.5889951461671359  0.0046636637313071  0.5650385519263565
  0.9058783281380940  0.5000457228601078  0.2327788580234085
  0.7502338505496979  0.5000554746708730  0.1996112567948600
  0.5946556295538485  0.4999602932995160  0.2325435602108641
  0.6551558404646585  0.6250819979226989  0.3162204464596314
  0.5000681890380889  0.6249977128460813  0.3029244841883099
  0.8451052567536692  0.6251189691304759  0.3161974922810487
  0.9006309119425282  0.6251280744385284  0.4022485678466268
  0.7504315868355889  0.6249778710036793  0.3890729692040225
  0.5990629283463846  0.6248087995163800  0.4018583547998915
  0.6478627664175107  0.6251599713959877  0.4875441281602875
  0.5001899029887085  0.6243679334408014  0.4744085132217677
  0.8495945845742696  0.6269690906020600  0.4872656667132773
  0.9016248619857805  0.6267573375441842  0.5694438560292596
  0.7426120339810325  0.6301336001214253  0.5553428186042808
  0.5931063786499422  0.6259693183567876  0.5712670260736061
  0.9057537151023496  0.6251425736419307  0.2327965599075057
  0.7501655547808141  0.6250475596035940  0.1996422127909412
  0.5946562663146651  0.6250580895549049  0.2325375786031074
  0.6550456893962178  0.7500074561508612  0.3161887482665620
  0.5000275543258752  0.7500096434671519  0.3028822115547172
  0.8450953403492392  0.7501132065744187  0.3161884495792791
  0.9005098797751359  0.7503373615842719  0.4023574126822282
  0.7503584067041302  0.7502326056761959  0.3890338786635539
  0.5989419021878675  0.7501308750007141  0.4016834826440672
  0.6485859566419663  0.7503277335035108  0.4869931213465719
  0.4999699518804235  0.7502228102189079  0.4737897109126976
  0.8497608907649408  0.7489593211264136  0.4880491430946492
  0.9023432963693239  0.7470621749716599  0.5698045252214854
  0.7413701002814719  0.7475645602747676  0.5547742529943278
  0.5887823981998963  0.7543477391698303  0.5650159666466621
  0.9057783870642311  0.7500669212742821  0.2328126045117358
  0.7501370489422925  0.7500927602831737  0.1996115306669424
  0.5945616889276053  0.7500100458669294  0.2325144484610675
  0.6550805552871211  0.8750617603102171  0.3163148239416600
  0.5000654382992948  0.8750104982367191  0.3029427436197381
  0.8450379008678723  0.8750977140724885  0.3162856906023421
  0.9005613168425270  0.8751301085966787  0.4023567859417412
  0.7503399292042801  0.8749528262550967  0.3892852969568068
  0.5989285171984591  0.8748238163733504  0.4020031075571993
  0.6475142220997299  0.8751539112113633  0.4876439376765447
  0.4999856639233045  0.8744158641831135  0.4747826068265582
  0.8497555316779994  0.8769599555287755  0.4874627028283598
  0.9017742934138369  0.8771824604204426  0.5696857552554064
  0.7429945616775555  0.8796029963161587  0.5547128596011746
  0.5933232536368251  0.8762533818591223  0.5714359040337555
  0.9057206194539305  0.8751155571196918  0.2328989098023939
  0.7502046965693125  0.8750501768675463  0.1998255847105668
  0.5946773908097569  0.8750764115157565  0.2325607264962173
  0.6552575690296933  0.4999936501399560  0.3161767831335922
  0.5001752074995665  0.5000174157728310  0.3029361801239929
  0.8453309416488679  0.5001076859076363  0.3161672009878345
  0.9009080010658508  0.5003606105226623  0.4023044177380299
  0.7506535768736313  0.5002604000147315  0.3890684668780011
  0.5991417414083031  0.5001762885778405  0.4016309080779337
  0.6490621105507515  0.5003480383528895  0.4868930352686789
  0.5001599262619862  0.5005413458994283  0.4736263996736554
  0.8505709087303188  0.4988390111583456  0.4880257592817259
  0.9040151005319572  0.4966550435386523  0.5697039911459498
  0.7428813197346784  0.4981318941201920  0.5538365879290481
  0.5902179586067433  0.5039905392566340  0.5652600846918006
  0.1281201275131920  0.0614524922028608  0.5362708071974467
  0.1273168077535161  0.3118610824717081  0.5350859939902222
  0.1295476759122280  0.5643177773875365  0.5355597215405012
  0.1270516892134239  0.8126258178366754  0.5364059605748679
  0.8733223250052262  0.0619695013101946  0.5366055483004857
  0.5010724811780634  0.2629775199841831  0.5367031102924784
  0.8739445607589502  0.3114432971664485  0.5363442367112157
  0.4997914778479569  0.0112975318274522  0.5368004156176696
  0.8742360982328918  0.5608605760842735  0.5369127311624453
  0.4992273919672243  0.7605968520472004  0.5366619344263910
  0.8734111134942566  0.8116065871517790  0.5369720643653508
  0.5005879275856984  0.5103628313833823  0.5365135998651809
  0.3465349042782080  0.3702410120316628  0.6248413085179223
  0.2561379726667639  0.4474968067118041  0.6172460836764699
  0.2274510523105135  0.3184774812317457  0.5973509444847096
  0.2387909598313129  0.3706586232177713  0.6678639226205689
 
  0.00000000E+00  0.00000000E+00  0.00000000E+00
  0.00000000E+00  0.00000000E+00  0.00000000E+00
  0.00000000E+00  0.00000000E+00  0.00000000E+00