generated by phonopy                    
   1.00000000000000     
     5.1431173393090184    0.0189595706506213    0.0000000000000000
    -2.5551391998262241    4.4635500558111412    0.0000000000000000
     0.0000000000000000    0.0000000000000000   13.1555372475133581
   B    N    Ga
    14    16     2
Direct
  0.6624083193009784  0.3307782608381988  0.0031936593062795
  0.1692217391618009  0.8375916806990216  0.0031936593062795
  0.6611093067652336  0.8388906932347664 -0.0090315206441022
  0.1611093067652339  0.3388906932347661  0.5090315206441025
  0.6692217391618003  0.3375916806990216  0.4968063406937204
  0.1624083193009781  0.8307782608381997  0.4968063406937204
  0.3314636594529391  0.1685363405470610  0.2492479632196016
  0.8316655134658921  0.1683344865341082  0.2500000000000000
  0.3316655134658916  0.6683344865341079  0.2500000000000000
  0.8314636594529392  0.6685363405470608  0.2507520367803984
  0.3393309510864364  0.1606690489135638  0.7492439459536411
  0.8362128242179774  0.1637871757820228  0.7500000000000000
  0.3362128242179772  0.6637871757820226  0.7500000000000000
  0.8393309510864361  0.6606690489135639  0.7507560540463589
  0.3477469430233095  0.1522530569766904  0.0280600592755195
  0.7930316192029421  0.1526110056264561 -0.0195492532525608
  0.3473889943735441  0.7069683807970579 -0.0195492532525608
  0.8297397302238707  0.6702602697761293 -0.0046492504772154
  0.3297397302238705  0.1702602697761294  0.5046492504772158
  0.8473889943735441  0.2069683807970584  0.5195492532525611
  0.2930316192029416  0.6526110056264559  0.5195492532525611
  0.8477469430233097  0.6522530569766904  0.4719399407244808
  0.1645747076039286  0.3354252923960715  0.2510568487501809
  0.6648526744160561  0.3351473255839429  0.2500000000000000
  0.1648526744160569  0.8351473255839439  0.2500000000000000
  0.6645747076039281  0.8354252923960719  0.2489431512498192
  0.1712110953390319  0.3287889046609682  0.7559757091594327
  0.6707787670246200  0.3292212329753799  0.7500000000000000
  0.1707787670246199  0.8292212329753800  0.7500000000000000
  0.6712110953390316  0.8287889046609684  0.7440242908405673
  0.1792631553414398  0.3207368446585601  0.9513193033214078
  0.6792631553414402  0.8207368446585598  0.5486806966785923
 
  0.00000000E+00  0.00000000E+00  0.00000000E+00
  0.00000000E+00  0.00000000E+00  0.00000000E+00
  0.00000000E+00  0.00000000E+00  0.00000000E+00
  0.00000000E+00  0.00000000E+00  0.00000000E+00
  0.00000000E+00  0.00000000E+00  0.00000000E+00
  0.00000000E+00  0.00000000E+00  0.00000000E+00
  0.00000000E+00  0.00000000E+00  0.00000000E+00
  0.00000000E+00  0.00000000E+00  0.00000000E+00
  0.00000000E+00  0.00000000E+00  0.00000000E+00
  0.00000000E+00  0.00000000E+00  0.00000000E+00
  0.00000000E+00  0.00000000E+00  0.00000000E+00
  0.00000000E+00  0.00000000E+00  0.00000000E+00
  0.00000000E+00  0.00000000E+00  0.00000000E+00
  0.00000000E+00  0.00000000E+00  0.00000000E+00
  0.00000000E+00  0.00000000E+00  0.00000000E+00
  0.00000000E+00  0.00000000E+00  0.00000000E+00
  0.00000000E+00  0.00000000E+00  0.00000000E+00
  0.00000000E+00  0.00000000E+00  0.00000000E+00
  0.00000000E+00  0.00000000E+00  0.00000000E+00
  0.00000000E+00  0.00000000E+00  0.00000000E+00
  0.00000000E+00  0.00000000E+00  0.00000000E+00
  0.00000000E+00  0.00000000E+00  0.00000000E+00
  0.00000000E+00  0.00000000E+00  0.00000000E+00
  0.00000000E+00  0.00000000E+00  0.00000000E+00
  0.00000000E+00  0.00000000E+00  0.00000000E+00
  0.00000000E+00  0.00000000E+00  0.00000000E+00
  0.00000000E+00  0.00000000E+00  0.00000000E+00
  0.00000000E+00  0.00000000E+00  0.00000000E+00
  0.00000000E+00  0.00000000E+00  0.00000000E+00
  0.00000000E+00  0.00000000E+00  0.00000000E+00
  0.00000000E+00  0.00000000E+00  0.00000000E+00
  0.00000000E+00  0.00000000E+00  0.00000000E+00
