Mo  S Cu                                
   1.00000000000000     
    15.9214998300000001    0.0000000000000000    0.0000000000000000
    -7.9622501300000001   13.7910221699999997    0.0000000000000000
     0.0000000000000000    0.0000000000000000   13.5821998300000004
   Mo   S    Ru
    25    50     2
Direct
  0.1317358513458515  0.0654012573638667  0.6781513074011158
  0.1289371198591098  0.2642153916035994  0.6778803662827713
  0.1325346208606959  0.4660224080413684  0.6788456850708329
  0.1337784895182637  0.6662993079043389  0.6765454871054999
  0.1333088612375164  0.8663530229543710  0.6760606298838638
  0.3319261740178305  0.0643528118287051  0.6769644966997248
  0.3319992408942198  0.2661422691410067  0.6866749205403266
  0.3330524922485338  0.4653118029845587  0.6870687552191654
  0.3332281273536637  0.6663351194227261  0.6783045424161571
  0.3326823549161873  0.8654399117146312  0.6754977318149571
  0.5322704562605765  0.0639192548250591  0.6745576085517442
  0.5308909728583657  0.2614057877919080  0.6763269046096099
  0.5318396220404580  0.4645581757078574  0.6892198872365256
  0.5346523926307398  0.6687262010984867  0.6783345728916075
  0.5328015810074191  0.8657948477500739  0.6753649712295342
  0.7322465812540955  0.0650847020380638  0.6752686728758590
  0.7304977324871871  0.2626972126246159  0.6760084536906419
  0.7345639683209697  0.4640614203295002  0.6859980273492070
  0.7339369645617140  0.6663814675096518  0.6811777834296819
  0.7332175333555995  0.8660529253302300  0.6762490913274704
  0.9317541895632289  0.0654115410720735  0.6762711671425805
  0.9318246685431717  0.2656782991723574  0.6779089867056456
  0.9355559093835595  0.4686831379901690  0.6772359969849475
  0.9350786161243434  0.6691071804913804  0.6770258000884510
  0.9328884853861439  0.8664564983491019  0.6767674286623659
  0.0658526032422841  0.1321928184003909  0.5619576322956519
  0.0626955805622416  0.1301077864157918  0.7926474803232679
  0.0651512533222061  0.3329916735069531  0.5628184231186566
  0.0631719513799993  0.3320412010592406  0.7933070945540948
  0.0671895554354975  0.5326345293089290  0.5617506689664040
  0.0677068439277662  0.5340823339404395  0.7932238977372350
  0.0667142951134565  0.7330798235373734  0.5610085238023643
  0.0687966899835288  0.7347116648872998  0.7917135870159697
  0.0663100645559496  0.9334293675983858  0.5616492238479154
  0.0658851965198863  0.9319002876700395  0.7920850920931883
  0.2671295910055704  0.1360596569790005  0.5662605032756431
  0.2639915997229636  0.1286568499662195  0.7949187180154951
  0.2677223436386811  0.3337168270411297  0.5703647599955133
  0.2499873963162216  0.3246456590709883  0.8048110329247891
  0.2680443805097426  0.5304613795310971  0.5669869009947135
  0.2649663000391911  0.5343051828098737  0.7958285252175870
  0.2666357146382623  0.7315205808952427  0.5613121757471902
  0.2664909375509055  0.7335747495188087  0.7920740179029551
  0.2659334333019743  0.9326138146386427  0.5606279996626853
  0.2659429203321011  0.9313582469253134  0.7914508876813144
  0.4641322266389594  0.1306836418941160  0.5600511444542420
  0.4646467308567068  0.1273420495949864  0.7910837163652218
  0.4641489836469432  0.3342377349016630  0.5707394770887362
  0.4714550688811627  0.3223486606699169  0.8049492817117567
  0.4658794035683798  0.5294142980545615  0.5716279106415811
  0.4734744724588040  0.5480053219914041  0.8059225689144967
  0.4656129704801799  0.7312401004935865  0.5618382566164115
  0.4669915935034155  0.7355745651134669  0.7925965659669671
  0.4654476453398786  0.9310962857975866  0.5595056440872170
  0.4659847065862053  0.9319026918156439  0.7903744712579410
  0.6658731897039729  0.1317848478674364  0.5594438642381903
  0.6648658295253043  0.1294810812785911  0.7908434597229572
  0.6667037557493245  0.3343904190996909  0.5654804753141960
  0.6592964659356184  0.3193985080561674  0.7979483171311941
  0.6646657803297131  0.5286340962671972  0.5727062988418155
  0.6689718824705011  0.5338797865897789  0.7998006808357445
  0.6671076220556884  0.7307732028970904  0.5632194515830093
  0.6683356046863054  0.7358825308651546  0.7937395506471461
  0.6662249946387959  0.9317414869155698  0.5601937636196084
  0.6659790065433171  0.9325569980413988  0.7907130564688529
  0.8665332736256346  0.1335833251402718  0.5612445056300714
  0.8645363777377142  0.1314606496709985  0.7914269704569321
  0.8662303057437200  0.3334332806584186  0.5628907651012227
  0.8630134996215091  0.3349769640137410  0.7942825990227433
  0.8642803099159195  0.5325044664542560  0.5662326415010668
  0.8778188082079268  0.5411678816104697  0.7980705844835754
  0.8646880874076572  0.7321766181095484  0.5629255479820330
  0.8686840334707142  0.7352691095370574  0.7935772227273930
  0.8661090347226050  0.9324944096216967  0.5608947434249245
  0.8658611784589638  0.9328832098983781  0.7915491863769759
  0.3988335300285115  0.3986025673741054  0.8623037419860324
  0.7913919935623142  0.4074609075333200  0.8878689873780061
 
  0.00000000E+00  0.00000000E+00  0.00000000E+00
  0.00000000E+00  0.00000000E+00  0.00000000E+00
  0.00000000E+00  0.00000000E+00  0.00000000E+00
  0.00000000E+00  0.00000000E+00  0.00000000E+00
  0.00000000E+00  0.00000000E+00  0.00000000E+00
  0.00000000E+00  0.00000000E+00  0.00000000E+00
  0.00000000E+00  0.00000000E+00  0.00000000E+00
  0.00000000E+00  0.00000000E+00  0.00000000E+00
  0.00000000E+00  0.00000000E+00  0.00000000E+00
  0.00000000E+00  0.00000000E+00  0.00000000E+00
  0.00000000E+00  0.00000000E+00  0.00000000E+00
  0.00000000E+00  0.00000000E+00  0.00000000E+00
  0.00000000E+00  0.00000000E+00  0.00000000E+00
  0.00000000E+00  0.00000000E+00  0.00000000E+00
  0.00000000E+00  0.00000000E+00  0.00000000E+00
  0.00000000E+00  0.00000000E+00  0.00000000E+00
  0.00000000E+00  0.00000000E+00  0.00000000E+00
  0.00000000E+00  0.00000000E+00  0.00000000E+00
  0.00000000E+00  0.00000000E+00  0.00000000E+00
  0.00000000E+00  0.00000000E+00  0.00000000E+00
  0.00000000E+00  0.00000000E+00  0.00000000E+00
  0.00000000E+00  0.00000000E+00  0.00000000E+00
  0.00000000E+00  0.00000000E+00  0.00000000E+00
  0.00000000E+00  0.00000000E+00  0.00000000E+00
  0.00000000E+00  0.00000000E+00  0.00000000E+00
  0.00000000E+00  0.00000000E+00  0.00000000E+00
  0.00000000E+00  0.00000000E+00  0.00000000E+00
  0.00000000E+00  0.00000000E+00  0.00000000E+00
  0.00000000E+00  0.00000000E+00  0.00000000E+00
  0.00000000E+00  0.00000000E+00  0.00000000E+00
  0.00000000E+00  0.00000000E+00  0.00000000E+00
  0.00000000E+00  0.00000000E+00  0.00000000E+00
  0.00000000E+00  0.00000000E+00  0.00000000E+00
  0.00000000E+00  0.00000000E+00  0.00000000E+00
  0.00000000E+00  0.00000000E+00  0.00000000E+00
  0.00000000E+00  0.00000000E+00  0.00000000E+00
  0.00000000E+00  0.00000000E+00  0.00000000E+00
  0.00000000E+00  0.00000000E+00  0.00000000E+00
  0.00000000E+00  0.00000000E+00  0.00000000E+00
  0.00000000E+00  0.00000000E+00  0.00000000E+00
  0.00000000E+00  0.00000000E+00  0.00000000E+00
  0.00000000E+00  0.00000000E+00  0.00000000E+00
  0.00000000E+00  0.00000000E+00  0.00000000E+00
  0.00000000E+00  0.00000000E+00  0.00000000E+00
  0.00000000E+00  0.00000000E+00  0.00000000E+00
  0.00000000E+00  0.00000000E+00  0.00000000E+00
  0.00000000E+00  0.00000000E+00  0.00000000E+00
  0.00000000E+00  0.00000000E+00  0.00000000E+00
  0.00000000E+00  0.00000000E+00  0.00000000E+00
  0.00000000E+00  0.00000000E+00  0.00000000E+00
  0.00000000E+00  0.00000000E+00  0.00000000E+00
  0.00000000E+00  0.00000000E+00  0.00000000E+00
  0.00000000E+00  0.00000000E+00  0.00000000E+00
  0.00000000E+00  0.00000000E+00  0.00000000E+00
  0.00000000E+00  0.00000000E+00  0.00000000E+00
  0.00000000E+00  0.00000000E+00  0.00000000E+00
  0.00000000E+00  0.00000000E+00  0.00000000E+00
  0.00000000E+00  0.00000000E+00  0.00000000E+00
  0.00000000E+00  0.00000000E+00  0.00000000E+00
  0.00000000E+00  0.00000000E+00  0.00000000E+00
  0.00000000E+00  0.00000000E+00  0.00000000E+00
  0.00000000E+00  0.00000000E+00  0.00000000E+00
  0.00000000E+00  0.00000000E+00  0.00000000E+00
  0.00000000E+00  0.00000000E+00  0.00000000E+00
  0.00000000E+00  0.00000000E+00  0.00000000E+00
  0.00000000E+00  0.00000000E+00  0.00000000E+00
  0.00000000E+00  0.00000000E+00  0.00000000E+00
  0.00000000E+00  0.00000000E+00  0.00000000E+00
  0.00000000E+00  0.00000000E+00  0.00000000E+00
  0.00000000E+00  0.00000000E+00  0.00000000E+00
  0.00000000E+00  0.00000000E+00  0.00000000E+00
  0.00000000E+00  0.00000000E+00  0.00000000E+00
  0.00000000E+00  0.00000000E+00  0.00000000E+00
  0.00000000E+00  0.00000000E+00  0.00000000E+00
  0.00000000E+00  0.00000000E+00  0.00000000E+00
  0.00000000E+00  0.00000000E+00  0.00000000E+00
  0.00000000E+00  0.00000000E+00  0.00000000E+00
