Cu	N	Ru	Ta                              
   1.00000000000000     
    18.1096308199999996    0.0000000000000000    0.0000000000000000
     0.0000000000000000   23.3551997799999995    0.0000000000000000
     0.0000000000000000    0.0000000000000000   30.4818171199999988
   Cu   N    Ru   Ta
     4   240    36   204
Selective dynamics
Direct
  0.5800269321375647  0.4400060989543816  0.6174877324062166   T   T   T
  0.4667162682034273  0.3868060665608190  0.6342056699341164   T   T   T
  0.4668877927634624  0.4897145539084011  0.6286245661304927   T   T   T
  0.5739446793416225  0.3271469011539881  0.6173113672129263   T   T   T
  0.0001012758547410  0.3742807490076276  0.4742706219124357   T   T   T
  0.0007546365873381  0.7508357331636546  0.3024712727493721   F   F   F
  0.0007546365873381  0.2508357331636546  0.3024712727493721   F   F   F
  0.0007971388342227  0.6259226757939587  0.3025555019798603   F   F   F
  0.0007971388342227  0.1259226757939587  0.3025555019798603   F   F   F
  0.0009289261701255  0.8759179472966139  0.3027706837052264   F   F   F
  0.0009289261701255  0.3759179472966139  0.3027706837052264   F   F   F
  0.0009959888293309  0.0008861705399639  0.3028813086718003   F   F   F
  0.0009959888293309  0.5008861705399639  0.3028813086718003   F   F   F
  0.0022565076623147  0.0004610692606273  0.4726327626533579   T   T   T
  0.0024190126003784  0.5002776434041115  0.4729557198471706   T   T   T
  0.5631212389597078  0.7612512460766803  0.5806522416399030   T   T   T
  0.5793845660085509  0.2672851687512108  0.5741951897649871   T   T   T
  0.5944407181460178  0.8759335502460033  0.2316533513143781   F   F   F
  0.5944407181460178  0.3759335502460033  0.2316533513143781   F   F   F
  0.5944879250719026  0.6260651198762730  0.2317376786361365   F   F   F
  0.5944879250719026  0.1260651198762730  0.2317376786361365   F   F   F
  0.5945319922319641  0.7509793277392376  0.2318466107902424   F   F   F
  0.5945319922319641  0.2509793277392376  0.2318466107902424   F   F   F
  0.5946973191803622  0.0011281697544092  0.2317203788144795   F   F   F
  0.5946973191803622  0.5011281697544092  0.2317203788144795   F   F   F
  0.5993083012664752  0.2512746565569184  0.4015678837623317   T   T   T
  0.6042987557579321  0.8763929907624666  0.5687947496337372   T   T   T
  0.6000582534231501  0.1261466240333084  0.4012973032579779   T   T   T
  0.5992506136827644  0.7517071919582139  0.4021846795833069   T   T   T
  0.5999053741936077  0.3761256633306351  0.4011883802568678   T   T   T
  0.6002824007417551  0.8760252730992969  0.4012341135277711   T   T   T
  0.6007915440721674  0.0012673223382542  0.4008919354349852   T   T   T
  0.5998061561988924  0.6266077019045689  0.4014467431505932   T   T   T
  0.6004663472493749  0.5013080993738416  0.4012724600481594   T   T   T
  0.6026560980150495  0.3820395305145003  0.5707472999167380   T   T   T
  0.6062085807837538  0.4980431437304103  0.5718269773079828   T   T   T
  0.6046864177714488  0.9969254361775347  0.5692782969680067   T   T   T
  0.6136159978566215  0.1392168831644392  0.5686685240972880   T   T   T
  0.6154873552029995  0.6403432040653901  0.5672477432079438   T   T   T
  0.6490791794302389  0.2502227241110455  0.4860775520559658   T   T   T
  0.6482050697839645  0.7511748784212114  0.4871580318811463   T   T   T
  0.6521715755831026  0.1252218835517160  0.4853307881381668   T   T   T
  0.6522636339471292  0.3787887660034959  0.4853258588613366   T   T   T
  0.6522178766380275  0.6269124600654533  0.4848460562167506   T   T   T
  0.6538297667849107  0.8792788443990283  0.4847200885981529   T   T   T
  0.6554411755561900  0.9988091980451477  0.4859477198394567   T   T   T
  0.6546548352714171  0.4991431013320398  0.4863377301618110   T   T   T
  0.6549923804575926  0.7511371041673840  0.3152775575080256   F   F   F
  0.6549923804575926  0.2511371041673840  0.3152775575080256   F   F   F
  0.6552059756456146  0.6260466862938543  0.3150601846403305   F   F   F
  0.6552059756456146  0.1260466862938543  0.3150601846403305   F   F   F
  0.6552570788408829  0.8758846061131820  0.3149041322638837   F   F   F
  0.6552570788408829  0.3758846061131820  0.3149041322638837   F   F   F
  0.6554052259801963  0.0012023099894023  0.3149218625060755   F   F   F
  0.6554052259801963  0.5012023099894023  0.3149218625060755   F   F   F
  0.0694363255534463  0.1303733508771158  0.5734188643365112   T   T   T
  0.0703352557012496  0.6303498230951319  0.5730274330718544   T   T   T
  0.7277069593955353  0.7613963548776425  0.5564941383044077   T   T   T
  0.7335764434073895  0.2570531539973818  0.5566589727047118   T   T   T
  0.7429049294782727  0.3692719388311216  0.5578541519740774   T   T   T
  0.7576247055920698  0.8819243865232115  0.5561965799608628   T   T   T
  0.7503221369649725  0.2509172899093590  0.3867654940551425   T   T   T
  0.7507325887545215  0.1259140866247125  0.3868496242298442   T   T   T
  0.7502690593010467  0.7509285243905148  0.3869242084373478   T   T   T
  0.7507520826020923  0.3760812636303180  0.3859935471603551   T   T   T
  0.7503837756312706  0.8759246053428527  0.1980143607002915   F   F   F
  0.7503837756312706  0.3759246053428527  0.1980143607002915   F   F   F
  0.7504065850415813  0.0010474442621131  0.1995662990185920   F   F   F
  0.7504065850415813  0.5010474442621131  0.1995662990185920   F   F   F
  0.7509460309046060  0.8761682793522830  0.3859253511960938   T   T   T
  0.7504116177228610  0.6259067547141299  0.1982016356247982   F   F   F
  0.7504116177228610  0.1259067547141299  0.1982016356247982   F   F   F
  0.7504539896523426  0.7509563452768688  0.1993173260006742   F   F   F
  0.7504539896523426  0.2509563452768688  0.1993173260006742   F   F   F
  0.7505947045889116  0.6260135571432532  0.3868058425307467   T   T   T
  0.7513517468781510  0.0009004629759667  0.3867143959193509   T   T   T
  0.7510304009612305  0.5011288740892968  0.3869399679029669   T   T   T
  0.7662166812809109  0.9969889415469261  0.5565935134546930   T   T   T
  0.7683213991446581  0.4932518132380131  0.5553100302428079   T   T   T
  0.7716523707654031  0.1378616765602749  0.5569170991403763   T   T   T
  0.7726791320767467  0.6377234113689191  0.5572062081750282   T   T   T
  0.0812707502021502  0.2403348961818488  0.5724744332805912   T   T   T
  0.0799834156731388  0.7412839111974928  0.5727525561741997   T   T   T
  0.8459511568566040  0.2543270352562194  0.4853455341628029   T   T   T
  0.8457971856104365  0.7508865770875488  0.3147238720130474   F   F   F
  0.8457971856104365  0.2508865770875488  0.3147238720130474   F   F   F
  0.8459094352758285  0.6257770200071491  0.3148105564777453   F   F   F
  0.8459094352758285  0.1257770200071491  0.3148105564777453   F   F   F
  0.8459894799777032  0.8758569369000710  0.3146601051453359   F   F   F
  0.8459894799777032  0.3758569369000710  0.3146601051453359   F   F   F
  0.8464238840862266  0.7542916493177824  0.4849183054307565   T   T   T
  0.8462370857983075  0.0009253177109869  0.3148622358114821   F   F   F
  0.8462370857983075  0.5009253177109869  0.3148622358114821   F   F   F
  0.8476327871865796  0.3739422430892784  0.4858118168678892   T   T   T
  0.8497942715200342  0.8729751918128297  0.4851765191152447   T   T   T
  0.8497908283785777  0.1250001743208224  0.4849976861040238   T   T   T
  0.8496771469937031  0.6253548840802000  0.4843429320379758   T   T   T
  0.8520744466591875  0.0008016215129357  0.4860604710105572   T   T   T
  0.8524205179674461  0.5017945736257807  0.4863259141948728   T   T   T
  0.0910287182285690  0.3598295890162619  0.5755312267763585   T   T   T
  0.0873985614424780  0.8606742276938065  0.5743346291863536   T   T   T
  0.8973606245552749  0.3719317808556833  0.5701899696103355   T   T   T
  0.8986781254231765  0.2486775284702003  0.5671908108961008   T   T   T
  0.8960701888479154  0.8697256637932226  0.5716110775014007   T   T   T
  0.8978267111235390  0.7480378421397534  0.5670403931402919   T   T   T
  0.9025507776110234  0.1058691144499881  0.5675989825104458   T   T   T
  0.9005253303965114  0.2506875242289264  0.4009111707990318   T   T   T
  0.9007355874460130  0.7505491166113991  0.4005498006744375   T   T   T
  0.9011866565455393  0.1258458365743022  0.4013701155915744   T   T   T
  0.9011196523388753  0.6259571901055402  0.4009681672399776   T   T   T
  0.9020020003325829  0.8759396728610843  0.4008569012876276   T   T   T
  0.9016322514774302  0.3761749290125254  0.4012755170872205   T   T   T
  0.9022792334192089  0.0005754816451236  0.4013216911365816   T   T   T
  0.9021114425228112  0.5004438153492429  0.4016489147751100   T   T   T
  0.9027226076046132  0.6053669085766450  0.5667967674909516   T   T   T
  0.9063370116785165  0.7509661375287990  0.2314450664875594   F   F   F
  0.9063370116785165  0.2509661375287990  0.2314450664875594   F   F   F
  0.9065036119825223  0.6258452416457985  0.2314281613274076   F   F   F
  0.9065036119825223  0.1258452416457985  0.2314281613274076   F   F   F
  0.9065431196901699  0.0009511492176983  0.2315080614196674   F   F   F
  0.9065431196901699  0.5009511492176983  0.2315080614196674   F   F   F
  0.9067333030259945  0.8759844438376305  0.2313964578368939   F   F   F
  0.9067333030259945  0.3759844438376305  0.2313964578368939   F   F   F
  0.9250521129697403  0.9826723482394728  0.5697242613660786   T   T   T
  0.9322701988817210  0.4846817030801576  0.5744828961026992   T   T   T
  0.0952407101582224  0.7510020395980561  0.2320892091881959   F   F   F
  0.0952407101582224  0.2510020395980561  0.2320892091881959   F   F   F
  0.0953260277450525  0.0008979764762245  0.2323666739458474   F   F   F
  0.0953260277450525  0.5008979764762245  0.2323666739458474   F   F   F
  0.0953735919394063  0.6258547564434522  0.2322437075234305   F   F   F
  0.0953735919394063  0.1258547564434522  0.2322437075234305   F   F   F
  0.0955543013107132  0.8759987254538473  0.2323923499085652   F   F   F
  0.0955543013107132  0.3759987254538473  0.2323923499085652   F   F   F
  0.0993284102419401  0.1253880275720775  0.4016396178900110   T   T   T
  0.0991674584278468  0.2510382233756465  0.4018474267205083   T   T   T
  0.0993657574949719  0.6252283695157557  0.4015630986015871   T   T   T
  0.0995693937635094  0.7510321105048416  0.4017758048983271   T   T   T
  0.1003850071027279  0.8756631935228296  0.4028966609059440   T   T   T
  0.9985295573809373  0.1245781678854325  0.4721899985118126   T   T   T
  0.9982403829076588  0.2507122083066042  0.4725757241904359   T   T   T
  0.9984583702970624  0.6245561104102747  0.4718946131994181   T   T   T
  0.9986556357952732  0.7505574838166699  0.4722694643852673   T   T   T
  0.1000283887073354  0.3756339755526781  0.4029619086404337   T   T   T
  0.1007510012041894  0.0012742952324120  0.4028191288252955   T   T   T
  0.0002038346433700  0.8743761008988327  0.4734735086433114   T   T   T
  0.1005687424468713  0.5010252232447946  0.4027426915962775   T   T   T
  0.1057246961569207  0.9993777682655508  0.5670647138228276   T   T   T
  0.1099884795748692  0.4995271166263612  0.5659034758756551   T   T   T
  0.1485526977838878  0.1284764535727895  0.4858141784109259   T   T   T
  0.1486723165853997  0.2460101863253737  0.4869678865293259   T   T   T
  0.1480917694066476  0.6283050449892355  0.4857374435322201   T   T   T
  0.1485425799250368  0.7459731995275224  0.4873326260179187   T   T   T
  0.1534662907615703  0.8765132957658113  0.4878706662047307   T   T   T
  0.1539930432835970  0.3766109296896645  0.4877274536697207   T   T   T
  0.1550996418405449  0.0018423011293746  0.4869371535837315   T   T   T
  0.1554278840897965  0.7509669489112838  0.3157714680232928   F   F   F
  0.1554278840897965  0.2509669489112767  0.3157714680232928   F   F   F
  0.1554499460416544  0.5019644817862227  0.4862870605402838   T   T   T
  0.1555300833018336  0.8760083006234964  0.3161854069282626   F   F   F
  0.1555300833018336  0.3760083006234964  0.3161854069282626   F   F   F
  0.1556347359045702  0.6258770940815310  0.3158690852351640   F   F   F
  0.1556347359045702  0.1258770940815310  0.3158690852351640   F   F   F
  0.1557688557010550  0.0008265358541948  0.3160543218953578   F   F   F
  0.1557688557010550  0.5008265358541948  0.3160543218953578   F   F   F
  0.2089000483654483  0.1112582661828277  0.5665202688003049   T   T   T
  0.2113086261855255  0.6125277814487595  0.5650987563631110   T   T   T
  0.2252618799909636  0.2479356165959053  0.5613829631786095   T   T   T
  0.2219856892430963  0.7496949366065420  0.5632218375961356   T   T   T
  0.2500798380265744  0.2512449028080370  0.3878165880024254   T   T   T
  0.2505012273165297  0.1255861944074953  0.3888247155866063   T   T   T
  0.2502093399767548  0.7513174060433058  0.3876956347037562   T   T   T
  0.2511217197720433  0.0014126576010828  0.3880630124250676   T   T   T
  0.2509208619159033  0.8756943447642803  0.3888188930375275   T   T   T
  0.2508228324989505  0.3756291029128537  0.3886544021930877   T   T   T
  0.2504532957772867  0.6255861581022480  0.3886769826714137   T   T   T
  0.2506886730670530  0.7509740783728773  0.1986783637654739   F   F   F
  0.2506886730670530  0.2509740783728773  0.1986783637654739   F   F   F
  0.2507303928573421  0.8760426103278647  0.2004520155719618   F   F   F
  0.2507303928573421  0.3760426103278647  0.2004520155719618   F   F   F
  0.2507787477911734  0.6260460958471867  0.2004465916827201   F   F   F
  0.2507787477911734  0.1260460958471867  0.2004465916827201   F   F   F
  0.2507842901460080  0.0010521164550710  0.1987081864626035   F   F   F
  0.2507842901460080  0.5010521164550710  0.1987081864626035   F   F   F
  0.2511303189542020  0.5013499544672928  0.3879273008648696   T   T   T
  0.2824324705015764  0.0006371015334140  0.5650360983382019   T   T   T
  0.2845541230998255  0.3662719155434004  0.5634318054353714   T   T   T
  0.2891191188788396  0.8649324529653001  0.5645728112684730   T   T   T
  0.2816075150627507  0.5011998090493998  0.5643836146349738   T   T   T
  0.3460117291033596  0.2511719015372120  0.4861709378456805   T   T   T
  0.3457709857389588  0.7509801434034244  0.3160634932646005   F   F   F
  0.3457709857389588  0.2509801434034244  0.3160634932646005   F   F   F
  0.3458124879654534  0.8762438730036024  0.3160546332285037   F   F   F
  0.3458124879654534  0.3762438730036024  0.3160546332285037   F   F   F
  0.3458692307014104  0.0011300682609701  0.3160825482309733   F   F   F
  0.3458692307014104  0.5011300682609701  0.3160825482309733   F   F   F
  0.3458914509224655  0.6260993829100983  0.3163092197569100   F   F   F
  0.3458914509224655  0.1260993829100983  0.3163092197569100   F   F   F
  0.3453067895269954  0.7523225013206942  0.4858267852161860   T   T   T
  0.3482056252678016  0.1277221724427544  0.4888398470888954   T   T   T
  0.3477320176858671  0.6274663832892623  0.4881062776474646   T   T   T
  0.3525574417243052  0.9972359504561291  0.4878493571259770   T   T   T
  0.3525778552002256  0.4972992174166934  0.4878744108092926   T   T   T
  0.3531985803842083  0.8788030872209819  0.4867432350013972   T   T   T
  0.3532560411190306  0.3784347987754425  0.4865743218858032   T   T   T
  0.3889240835478518  0.7529009714801491  0.5654429742622770   T   T   T
  0.3965847984397239  0.2590510978635189  0.5643227803808635   T   T   T
  0.4008636732638418  0.2516948242881313  0.4026837734840319   T   T   T
  0.4012726113899115  0.1258293484091376  0.4030058858978677   T   T   T
  0.4018683804041753  0.0016923037107622  0.4022530406648288   T   T   T
  0.4008241348539440  0.7517570490123179  0.4025819415829730   T   T   T
  0.4013210517021427  0.6261662528759834  0.4030391646034223   T   T   T
  0.4018416466724938  0.3756381499478207  0.4020038797711714   T   T   T
  0.4020852236623543  0.8758760745036883  0.4021104342582046   T   T   T
  0.4018885776271506  0.5017584324284325  0.4023124383385343   T   T   T
  0.4059113337573805  0.8760558925948985  0.2324750129594619   F   F   F
  0.4059113337573805  0.3760558925948985  0.2324750129594619   F   F   F
  0.4059234726022964  0.6261621252550071  0.2326545521246786   F   F   F
  0.4059234726022964  0.1261621252550071  0.2326545521246786   F   F   F
  0.4060644417929637  0.7510364413590125  0.2325227387887452   F   F   F
  0.4060644417929637  0.2510364413590125  0.2325227387887452   F   F   F
  0.4061374416245584  0.0011248655651599  0.2324172293308493   F   F   F
  0.4061374416245584  0.5011248655651599  0.2324172293308493   F   F   F
  0.4170840120764696  0.1156333992045505  0.5720565668331583   T   T   T
  0.4184684079402119  0.6139155415789963  0.5733951303034877   T   T   T
  0.4201426791875614  0.4955271755291689  0.5739487427048646   T   T   T
  0.4252903148239230  0.9964924197818453  0.5721368991450558   T   T   T
  0.4307550887940688  0.3849969686827991  0.5759392631472522   T   T   T
  0.4348402005175463  0.8889634058270771  0.5752884407965686   T   T   T
  0.5000955062314969  0.2515573998562409  0.4734111408896391   T   T   T
  0.4984967856238452  0.7521460349567459  0.4735103254708808   T   T   T
  0.5004630585837617  0.7510598909550410  0.3031888444713573   F   F   F
  0.5004630585837617  0.2510598909550410  0.3031888444713573   F   F   F
  0.5004977600090044  0.6261199205207575  0.3031516629609641   F   F   F
  0.5004977600090044  0.1261199205207575  0.3031516629609641   F   F   F
  0.5005209432535551  0.8761149809355189  0.3028206587442455   F   F   F
  0.5005209432535551  0.3761149809355189  0.3028206587442455   F   F   F
  0.5006083602757840  0.0011215981985515  0.3028334437431965   F   F   F
  0.5006083602757840  0.5011215981985515  0.3028334437431965   F   F   F
  0.5021945859376973  0.1268575128462979  0.4736880746115324   T   T   T
  0.5017572874412107  0.3764370285252638  0.4716543301802382   T   T   T
  0.5025148688238955  0.8771002759628708  0.4729645469025142   T   T   T
  0.5029770840356318  0.0018065586938364  0.4726779490562776   T   T   T
  0.5016228059165027  0.6274162658851856  0.4742503576138753   T   T   T
  0.5027767506943681  0.5018527761238113  0.4734372631995707   T   T   T
  0.0050871893266779  0.9970373425374921  0.5405050287973961   T   T   T
  0.0099310959132816  0.4971105754941020  0.5410678458601562   T   T   T
  0.6276275870523048  0.0664336067914729  0.5397963947029275   T   T   T
  0.6302213902617445  0.5666992064576158  0.5377159163042141   T   T   T
  0.6271063662037963  0.8001709458288613  0.5464969822479607   T   T   T
  0.6535321867077043  0.3139203531213638  0.5381127055000563   T   T   T
  0.6973561302665241  0.1857144475540775  0.5385735805303267   T   T   T
  0.6998719320903279  0.6871785218087627  0.5381018462571159   T   T   T
  0.8063783272786850  0.5649939580901953  0.5366162457388991   T   T   T
  0.8071138774613463  0.0660772496418645  0.5373325645863937   T   T   T
  0.8460996257504793  0.9367176798772581  0.5367064330613015   T   T   T
  0.8614033038235602  0.4441677987052263  0.5418851296966831   T   T   T
  0.8745176121349828  0.1770188005182957  0.5423684980391053   T   T   T
  0.8734333682450031  0.6766059645765562  0.5420840819502469   T   T   T
  0.9960800531203235  0.1152461283060350  0.5396618783100667   T   T   T
  0.9969993944793819  0.2538919162150977  0.5396991636785299   T   T   T
  0.9962223232180889  0.6160962320377177  0.5393747218996408   T   T   T
  0.9964779742596148  0.7535134055979495  0.5392936430642565   T   T   T
  0.1209357378077698  0.9271781920729094  0.5432936262963556   T   T   T
  0.1243262962307792  0.4256968100630260  0.5431862341933519   T   T   T
  0.1419546106903214  0.3009073373505678  0.5421318164248502   T   T   T
  0.1407148513451990  0.8020028554145047  0.5417809444136077   T   T   T
  0.2020797325659263  0.0401959665793931  0.5432418599541747   T   T   T
  0.2024394823331055  0.5415926838281094  0.5422478160049486   T   T   T
  0.3001136054273417  0.2950984967964418  0.5405592502780673   T   T   T
  0.2983867624886645  0.7942520841095553  0.5410046171062384   T   T   T
  0.3627051177322125  0.0553691155184167  0.5412087638707305   T   T   T
  0.3633181990282292  0.5552920912680153  0.5413853443509374   T   T   T
  0.3833235694419080  0.1837350654355963  0.5418646952351740   T   T   T
  0.3779248237545388  0.6786296500287399  0.5421963847012450   T   T   T
  0.4963347876675630  0.2558636848942325  0.5410187747380045   T   T   T
  0.4882327556883723  0.7520993066702275  0.5416530838284183   T   T   T
  0.5088595392505546  0.3817758287302539  0.5382206235721496   T   T   T
  0.5093784603778467  0.9983788884139767  0.5400665287568234   T   T   T
  0.5108826939767646  0.8826118068880134  0.5404788060222040   T   T   T
  0.5093250760466638  0.4982835080793744  0.5408753541355924   T   T   T
  0.0004808971134195  0.7509866689512334  0.3689944223056389   T   T   T
  0.0003908948588908  0.6256049316447949  0.3691184382452239   T   T   T
  0.0017720911252634  0.8758606677986081  0.3694274756718812   T   T   T
  0.0010343750342656  0.7509675273691911  0.1970340395507222   F   F   F
  0.0010343750342656  0.2509675273691911  0.1970340395507222   F   F   F
  0.0018816130826577  0.0006964807915807  0.3695957208017795   T   T   T
  0.0015907961762816  0.5005715935722851  0.3696927429930031   T   T   T
  0.0013365521741017  0.3758742137369639  0.3695767382154788   T   T   T
  0.0013074606674977  0.0009931951008113  0.1970949867046485   F   F   F
  0.0013074606674977  0.5009931951008113  0.1970949867046485   F   F   F
  0.0014056432322107  0.6258753569951239  0.1970772590869743   F   F   F
  0.0014056432322107  0.1258753569951239  0.1970772590869743   F   F   F
  0.0016300205284878  0.8760244032474702  0.1970602374639512   F   F   F
  0.0016300205284878  0.3760244032474702  0.1970602374639512   F   F   F
  0.5828489970288615  0.8134981673875430  0.2835797008416634   F   F   F
  0.5828489970288615  0.3134981673875430  0.2835797008416634   F   F   F
  0.5829043521053947  0.6885407361734863  0.2836251512160501   F   F   F
  0.5829043521053947  0.1885407361734863  0.2836251512160501   F   F   F
  0.5829602019462925  0.4385545752758304  0.2833243807611936   F   F   F
  0.5829602019462925  0.9385545752758304  0.2833243807611936   F   F   F
  0.5830265959005345  0.5635893986773652  0.2835447360626375   F   F   F
  0.5830265959005345  0.0635893986773652  0.2835447360626375   F   F   F
  0.5839980747334521  0.3139809106921721  0.4537629615106344   T   T   T
  0.5847915864128235  0.1888771481282792  0.4532766468673426   T   T   T
  0.5844862059003471  0.4393298391669759  0.4529232563060029   T   T   T
  0.5844624147866513  0.8146676682261818  0.4552072400635866   T   T   T
  0.5857641284576846  0.9390680007246132  0.4525330876742484   T   T   T
  0.5843896064567672  0.6895303487079680  0.4536320153594155   T   T   T
  0.5866588823370330  0.0631201206672517  0.4533115348514556   T   T   T
  0.5862620312645477  0.5636370056493263  0.4536394209561690   T   T   T
  0.6662453414939336  0.5635923628994988  0.2021068355520654   F   F   F
  0.6662453414939336  0.0635923628994988  0.2021068355520654   F   F   F
  0.6663404610475681  0.8134949072998268  0.2022484366903115   F   F   F
  0.6663404610475681  0.3134949072998268  0.2022484366903115   F   F   F
  0.6663750951053373  0.6883939277525641  0.2022233082671292   F   F   F
  0.6663750951053373  0.1883939277525641  0.2022233082671292   F   F   F
  0.6663864277493872  0.4383644600106251  0.2021335334354930   F   F   F
  0.6663864277493872  0.9383644600106251  0.2021335334354930   F   F   F
  0.6684705221134640  0.1885969841793759  0.3674722033977542   T   T   T
  0.6683119272239827  0.3135778668348713  0.3675042179235731   T   T   T
  0.6681864907328396  0.8135660908268633  0.3678749482926984   T   T   T
  0.6689018613006572  0.0636318003080922  0.3673771596558465   T   T   T
  0.6688157967830713  0.9385880470691165  0.3669916464067962   T   T   T
  0.6681200422705590  0.6887565845659880  0.3676562215683152   T   T   T
  0.6687135500895593  0.4386255797197289  0.3673488557170816   T   T   T
  0.6686204909515174  0.5637710292123586  0.3675211105650679   T   T   T
  0.6761779449011497  0.9354765451616713  0.5400783929433398   T   T   T
  0.6790042026830090  0.4381748328329417  0.5398462554964947   T   T   T
  0.7473987259599860  0.2512800321384595  0.4547759764773993   T   T   T
  0.7475749985703360  0.7522478625959702  0.4550879868953197   T   T   T
  0.7504679982724632  0.1258863650790859  0.4549994205537889   T   T   T
  0.7504712875763990  0.3765248674899193  0.4536516940256932   T   T   T
  0.7501730562611186  0.7507079098083409  0.2774330469442816   F   F   F
  0.7501730562611186  0.2507079098083409  0.2774330469442816   F   F   F
  0.7504232244124966  0.6264873000609023  0.4546511688756329   T   T   T
  0.7504750055418299  0.6259680682551618  0.2773981497465243   F   F   F
  0.7504750055418299  0.1259680682551618  0.2773981497465243   F   F   F
  0.7505173338481086  0.8759365097582545  0.2770578193141517   F   F   F
  0.7505173338481086  0.3759365097582545  0.2770578193141517   F   F   F
  0.7507337004896470  0.0010587017123740  0.2774432067716575   F   F   F
  0.7507337004896470  0.5010587017123740  0.2774432067716575   F   F   F
  0.7515815823667537  0.8756288513832386  0.4535610760835796   T   T   T
  0.7539992397524523  0.0004289568765805  0.4546238370029748   T   T   T
  0.7535786337978282  0.4997882188329366  0.4549844076534231   T   T   T
  0.0812496185658510  0.1878585043030887  0.4527483803682369   T   T   T
  0.0812334572894947  0.6877160623627699  0.4525980341801129   T   T   T
  0.8260985767476300  0.3142772954034796  0.5403615144224024   T   T   T
  0.8267417938936810  0.8142972866789100  0.5404342661074220   T   T   T
  0.8324680630192171  0.1882935389508757  0.3672303357337884   T   T   T
  0.8324280344894569  0.8133542366169101  0.3669489422903383   T   T   T
  0.8326136100406986  0.3134252521180648  0.3669496787112048   T   T   T
  0.8324475623688540  0.6883022673970840  0.3671135903957226   T   T   T
  0.8330489386526376  0.0633397292508260  0.3674041322969822   T   T   T
  0.8333372476418118  0.9383462493875437  0.3671739466354328   T   T   T
  0.8333640616534805  0.4384643917816961  0.3675514015276082   T   T   T
  0.8331247419225938  0.5633604867343658  0.3673485606278528   T   T   T
  0.8344344719226058  0.6883603527882158  0.2020465356692611   F   F   F
  0.8344344719226058  0.1883603527882158  0.2020465356692611   F   F   F
  0.8344691253071090  0.4383027932291981  0.2021423465583752   F   F   F
  0.8344691253071090  0.9383027932291981  0.2021423465583752   F   F   F
  0.8345236995836203  0.8136019065986346  0.2020593032807980   F   F   F
  0.8345236995836203  0.3136019065986346  0.2020593032807980   F   F   F
  0.8345432068835521  0.5635442939465207  0.2020614199525141   F   F   F
  0.8345432068835521  0.0635442939465207  0.2020614199525141   F   F   F
  0.0835181835032017  0.8134609632527869  0.2839000862688721   F   F   F
  0.0835181835032017  0.3134609632527869  0.2839000862688721   F   F   F
  0.0836480050342630  0.5633752300961916  0.2839758639034855   F   F   F
  0.0836480050342630  0.0633752300961916  0.2839758639034855   F   F   F
  0.0836768758602418  0.6884091217994310  0.2837888281379435   F   F   F
  0.0836768758602418  0.1884091217994310  0.2837888281379435   F   F   F
  0.0836920180794749  0.4383888699923588  0.2841732146708722   F   F   F
  0.0836920180794749  0.9383888699923588  0.2841732146708722   F   F   F
  0.0847828709283590  0.3125849070973163  0.4551004569669297   T   T   T
  0.0858536641521929  0.0637237084666338  0.4552945573727554   T   T   T
  0.0850202798768901  0.8126737893664031  0.4547964437228428   T   T   T
  0.0852584142300897  0.5635346503496360  0.4551532884002766   T   T   T
  0.0863428296584185  0.9382857788004513  0.4551984051191753   T   T   T
  0.0860660183107568  0.4381171490676356  0.4553238335667643   T   T   T
  0.9143726189622805  0.1889422670857361  0.4540742791613217   T   T   T
  0.9147005387101217  0.6888471198117988  0.4537745388560180   T   T   T
  0.9155495512044679  0.3131379803415369  0.4524395479134876   T   T   T
  0.9169278515039184  0.8125763237923991  0.4518857801322784   T   T   T
  0.9173398523929708  0.4378576526118409  0.4546588471837280   T   T   T
  0.9175143023467026  0.0627687078035931  0.4530439355296929   T   T   T
  0.9172206031926416  0.5628442458080551  0.4529079550033465   T   T   T
  0.9180870201373910  0.9375642822586535  0.4534765689493514   T   T   T
  0.9181839152478091  0.6884040565462470  0.2831378587445599   F   F   F
  0.9181839152478091  0.1884040565462470  0.2831378587445599   F   F   F
  0.9183594213103916  0.8134327656776748  0.2832265145484243   F   F   F
  0.9183594213103916  0.3134327656776748  0.2832265145484243   F   F   F
  0.9184058656586132  0.5633566590711467  0.2833389507587185   F   F   F
  0.9184058656586132  0.0633566590711467  0.2833389507587185   F   F   F
  0.9185001265531056  0.4384185648785746  0.2832681567508857   F   F   F
  0.9185001265531056  0.9384185648785746  0.2832681567508857   F   F   F
  0.9909739231603226  0.8657628789109384  0.5417537298895213   T   T   T
  0.9948906812412226  0.3647192365142622  0.5426581636535831   T   T   T
  0.0002974035292919  0.1256882096660826  0.3691521193600534   T   T   T
  0.0001185513554208  0.2510053110439228  0.3691243275240194   T   T   T
  0.1534816990435026  0.1792844526258203  0.5439978340269001   T   T   T
  0.1521285327987465  0.6804024722967605  0.5435832518772532   T   T   T
  0.1667765378554549  0.5633392265506032  0.2026421323795375   F   F   F
  0.1667765378554549  0.0633392265506032  0.2026421323795375   F   F   F
  0.1668059973185052  0.6886073834303943  0.2025943133799615   F   F   F
  0.1668059973185052  0.1886073834303943  0.2025943133799615   F   F   F
  0.1668155121452699  0.8133424731509606  0.2025799106952988   F   F   F
  0.1668155121452699  0.3133424731509606  0.2025799106952988   F   F   F