Ru Ta  N  Cu                            
   1.00000000000000     
    18.1096308199999996    0.0000000000000000    0.0000000000000000
     0.0000000000000000   23.3551997799999995    0.0000000000000000
     0.0000000000000000    0.0000000000000000   30.4818170799999990
   Ru   Ta   N    Cu
    64   240   240     4
Selective dynamics
Direct
  0.0686367576349349  0.0041374714310602  0.5337734111316302   T   T   T
  0.2312521814701357  0.5043734574344593  0.5280971892805332   T   T   T
  0.4413200523412631  0.0623958335658063  0.5191920972964796   T   T   T
  0.0639397476918599  0.2541215225164057  0.5333417025472851   T   T   T
  0.2860713136323346  0.2459270050833177  0.5245525985541667   T   T   T
  0.4423062586963670  0.3110887324431242  0.5199372939313887   T   T   T
  0.0680338050974503  0.1169278370347425  0.5335353268108153   T   T   T
  0.2869879044879883  0.1274784697724617  0.5239814587556733   T   T   T
  0.4474118658382381  0.1872154231303095  0.5210732667248545   T   T   T
  0.0647171119633263  0.3687276691617750  0.5334856797499365   T   T   T
  0.2828834769601404  0.3701105422557791  0.5275767538133066   T   T   T
  0.4418201618569770  0.4362388099611111  0.5202716875906388   T   T   T
  0.1742749145030011  0.4165014576475871  0.5593515331895312   T   T   T
  0.1820565918986628  0.3022600410607001  0.5514729804813030   T   T   T
  0.1754206441819696  0.1855464290376779  0.5480262411561386   T   T   T
  0.1867706606846648  0.0649250292569331  0.5506491022940697   T   T   T
  0.0769002135056100  0.5057053091567907  0.5345474982682122   T   T   T
  0.2846793221969049  0.9970143612587692  0.5246333099239034   T   T   T
  0.4455172153066577  0.5620511297680959  0.5206057926648248   T   T   T
  0.0684290114661991  0.7542098896552276  0.5327645770479631   T   T   T
  0.2913626754231527  0.7501063866603677  0.5230516380537663   T   T   T
  0.4429775960783439  0.8142358852218573  0.5196743554411315   T   T   T
  0.0666984244019951  0.6200907236825678  0.5338923655795811   T   T   T
  0.2889973017799238  0.6296935251850199  0.5249776722994437   T   T   T
  0.4525158782835266  0.6885052274705769  0.5225331755200104   T   T   T
  0.0676354415894268  0.8665698977542882  0.5335556436569022   T   T   T
  0.2870783553158862  0.8792302038501657  0.5242375960884609   T   T   T
  0.4446439482361391  0.9376661161224862  0.5212456251444494   T   T   T
  0.1750974793137216  0.9368618649478673  0.5483377532814224   T   T   T
  0.1875833511928082  0.8170255079281591  0.5502019296799866   T   T   T
  0.1806093724323514  0.6973955288637739  0.5474704795692472   T   T   T
  0.1828791868515469  0.5891216054395920  0.5636063538357532   T   T   T
  0.5673960160920274  0.0029031745290642  0.5333477586173148   T   T   T
  0.7882596242749905  0.5137039109674303  0.5261650176851823   T   T   T
  0.9408371089378247  0.0630500184795449  0.5193289902157494   T   T   T
  0.5687321893365941  0.2460841163902355  0.5344909979845109   T   T   T
  0.7781991368473754  0.2468228850849866  0.5266752015909402   T   T   T
  0.9373474406463059  0.3123667550455675  0.5193426497506238   T   T   T
  0.5659546357415457  0.1134079207778076  0.5325388711669479   T   T   T
  0.7872540274425399  0.1222030526541375  0.5244637871106614   T   T   T
  0.9439642004061337  0.1864430979752383  0.5213897046330138   T   T   T
  0.5695881982582929  0.3552871023836248  0.5345370117179409   T   T   T
  0.7827057809462322  0.3615307194870009  0.5269824366456414   T   T   T
  0.9560267433678031  0.4367589082504965  0.5237896546307570   T   T   T
  0.6810302376111632  0.4388443925266801  0.5496380047202898   T   T   T
  0.6814616120768479  0.3141955239003689  0.5597352402639464   T   T   T
  0.6749398910499010  0.1822592558290596  0.5488397014175906   T   T   T
  0.6836137386306720  0.0646697636715399  0.5523220003302352   T   T   T
  0.5732972473412119  0.5203507987555585  0.5346360579366733   T   T   T
  0.7842102990219701  0.0002829164840327  0.5249743146908911   T   T   T
  0.9472479622119178  0.5632287554631388  0.5204099600318082   T   T   T
  0.5671659511484327  0.7610668845982781  0.5321195114430824   T   T   T
  0.7882883824519503  0.7533511358758688  0.5240731780497557   T   T   T
  0.9416477784989846  0.8151479495352228  0.5194690030125638   T   T   T
  0.5725389974371240  0.6306932414859184  0.5343388868466308   T   T   T
  0.7807529020415966  0.6288201531814719  0.5265139808219907   T   T   T
  0.9490469846830337  0.6854170748742467  0.5211567068816149   T   T   T
  0.5689688813247220  0.8714493903348610  0.5333730747061812   T   T   T
  0.7852663989302128  0.8754071134488005  0.5248415003969732   T   T   T
  0.9466141269178915  0.9376750677877808  0.5209912160290704   T   T   T
  0.6772751913507556  0.9380207520162759  0.5481782367853185   T   T   T
  0.6848641636291244  0.8113899310893685  0.5521558968561567   T   T   T
  0.6780161713373308  0.6930188951215613  0.5490263879710044   T   T   T
  0.6862147460490916  0.5596596074474953  0.5595605340515440   T   T   T
  0.9996246524628063  0.9999635445867767  0.1022212275957983   F   F   F
  0.3339438256838960  0.0624457813299060  0.1075563970202325   F   F   F
  0.1656734882889026  0.0624869619810369  0.1076523577670159   F   F   F
  0.2496380332605455  0.1248777014917124  0.1827535963680589   F   F   F
  0.0820753910794778  0.0624168821917976  0.1887361965005994   F   F   F
  0.4168249566545654  0.0624128089775482  0.1889653308070223   F   F   F
  0.0001570155463652  0.1249533356307245  0.2747534457921126   T   T   T
  0.3320512995530067  0.0624384370372668  0.2731493898270320   T   T   T
  0.1676817819017284  0.0624282186081042  0.2727933759808136   T   T   T
  0.2492038065401676  0.1249073376679224  0.3595555620592892   T   T   T
  0.0836640201808878  0.0624466021433510  0.3591489857199279   T   T   T
  0.4161679454610021  0.0624684762837660  0.3589424946237212   T   T   T
  0.4945502657054029  0.1252719686784958  0.4441505367400681   T   T   T
  0.3321371885595639  0.0623917239339137  0.4449879522771545   T   T   T
  0.1652917891104112  0.0624196718852057  0.4471981764554999   T   T   T
  0.9996175425524214  0.1249358288969233  0.1022184789678420   F   F   F
  0.3339435537114426  0.1874256191358299  0.1075504356733603   F   F   F
  0.1656688965935942  0.1874633245330628  0.1076544484778310   F   F   F
  0.2496428192825420  0.2499248694537357  0.1827745152021549   F   F   F
  0.0820483011947246  0.1874164370395803  0.1887315368489411   F   F   F
  0.4168235962087010  0.1874178821048673  0.1889761876915443   F   F   F
  0.0001113842555896  0.2499628027532385  0.2747841005408686   T   T   T
  0.3321387162205777  0.1874776851510475  0.2732228525134727   T   T   T
  0.1677070270989058  0.1874495808528366  0.2728266035127913   T   T   T
  0.2492537482504432  0.2501048173418469  0.3595983343788857   T   T   T
  0.0836485283776130  0.1873940827046233  0.3593252417017667   T   T   T
  0.4160389379814287  0.1875254355354108  0.3588586251452431   T   T   T
  0.4964034007255615  0.2496482125434801  0.4442004929862192   T   T   T
  0.3323320492949526  0.1874558869045790  0.4438935724195947   T   T   T
  0.1641129879814419  0.1872494510604552  0.4479588342211495   T   T   T
  0.9996247444640574  0.2499647011854407  0.1022230082490267   F   F   F
  0.3339438339619036  0.3124448417397900  0.1075557633545969   F   F   F
  0.1656741876920407  0.3124866150128511  0.1076519504247102   F   F   F
  0.2496342491082189  0.3748782083517597  0.1827543288382500   F   F   F
  0.0820773763724816  0.3124181279228466  0.1887355922833933   F   F   F
  0.4168238893201348  0.3124134579098339  0.1889644027201030   F   F   F
  0.9999535037005572  0.3748762917453303  0.2747804174620120   T   T   T
  0.3322490530021007  0.3125146055044293  0.2732795866837594   T   T   T
  0.1677022004305170  0.3124425156078593  0.2728640711620695   T   T   T
  0.2497789239807410  0.3748966222873835  0.3596964527786712   T   T   T
  0.0836873358126564  0.3123172865572544  0.3592565021129328   T   T   T
  0.4163661423863071  0.3127180361786611  0.3592549728406575   T   T   T
  0.4982951873209323  0.3745490829239512  0.4444887272464791   T   T   T
  0.3325224958906702  0.3122073082137372  0.4450448774832506   T   T   T
  0.1653981165915338  0.3121771956830262  0.4474955286491114   T   T   T
  0.9996196554118555  0.3749345235867736  0.1022175688270863   F   F   F
  0.3339389444248013  0.4374272239936090  0.1075500232538360   F   F   F
  0.1656692123176882  0.4374660331456823  0.1076535614342404   F   F   F
  0.2496367764464793  0.9999279799998888  0.1827742299965678   F   F   F
  0.0820476334098430  0.4374171254006285  0.1887298800136392   F   F   F
  0.4168193524269412  0.4374154383080295  0.1889763507298241   F   F   F
  0.5002042245735134  0.4998923568612146  0.2749009452982677   T   T   T
  0.3323429228263619  0.4374545154546363  0.2733382860362695   T   T   T
  0.1676664231515514  0.4374013377921245  0.2728811990217218   T   T   T
  0.2501550644272847  0.4998189080498112  0.3595767692661947   T   T   T
  0.0834750141972476  0.4372458542064517  0.3591202406873599   T   T   T
  0.4164217244410020  0.4375505366238845  0.3596906422543474   T   T   T
  0.4979838465855466  0.4997149220365379  0.4450211396147498   T   T   T
  0.3336113294035331  0.4375717877527719  0.4467439960488732   T   T   T
  0.1655238027191236  0.4372990132405439  0.4460295768598563   T   T   T
  0.9996246524628063  0.4999635445867767  0.1022212275957983   F   F   F
  0.3339438256838960  0.5624457813299060  0.1075563970202325   F   F   F
  0.1656734882889026  0.5624869619810369  0.1076523577670159   F   F   F
  0.2496380332605455  0.6248777014917124  0.1827535963680589   F   F   F
  0.0820753910794778  0.5624168821917976  0.1887361965005994   F   F   F
  0.4168249566545654  0.5624128089775482  0.1889653308070223   F   F   F
  0.0000353885266751  0.6249445639469670  0.2747324622134006   T   T   T
  0.3324329465844880  0.5623480099998835  0.2733898944855598   T   T   T
  0.1677374027235765  0.5623738977488533  0.2728392510111987   T   T   T
  0.2499201356962609  0.6247635249021927  0.3596725751510696   T   T   T
  0.0833519315173670  0.5623886192291365  0.3589001697450097   T   T   T
  0.4165318432805573  0.5622311594266404  0.3598952841888347   T   T   T
  0.4941735263858811  0.6251472138700391  0.4459084964297189   T   T   T
  0.3328739726485693  0.5621134297414927  0.4465697782019066   T   T   T
  0.1653412950878863  0.5619563814464869  0.4447843040793655   T   T   T
  0.9996175425524214  0.6249358288969233  0.1022184789678420   F   F   F
  0.3339435537114426  0.6874256191358228  0.1075504356733603   F   F   F
  0.1656688965935942  0.6874633245330557  0.1076544484778310   F   F   F
  0.2496428192825420  0.7499248694537357  0.1827745152021549   F   F   F
  0.0820483011947246  0.6874164370395732  0.1887315368489411   F   F   F
  0.4168235962087010  0.6874178821048602  0.1889761876915443   F   F   F
  0.0001243379392473  0.7498929292487626  0.2747337840335937   T   T   T
  0.3324091020390879  0.6873001950085419  0.2734120116445425   T   T   T
  0.1677597123319513  0.6873657679815558  0.2728370467279410   T   T   T
  0.2495218266992916  0.7499257560405749  0.3596724066787536   T   T   T
  0.0835838132360218  0.6875323351968151  0.3591937667958603   T   T   T
  0.4162744677649377  0.6872034823518082  0.3595124673493327   T   T   T
  0.4928538369486783  0.7498138833749893  0.4454791318670197   T   T   T
  0.3316472801392812  0.6873373831699239  0.4444649416889173   T   T   T
  0.1642542337269103  0.6873325861173141  0.4475398702007058   T   T   T
  0.9996247444640574  0.7499647011854407  0.1022230082490267   F   F   F
  0.3339438339619036  0.8124448417397900  0.1075557633545969   F   F   F
  0.1656741876920407  0.8124866150128511  0.1076519504247102   F   F   F
  0.2496342491082189  0.8748782083517597  0.1827543288382500   F   F   F
  0.0820773763724816  0.8124181279228466  0.1887355922833933   F   F   F
  0.4168238893201348  0.8124134579098339  0.1889644027201030   F   F   F
  0.0001825497553759  0.8749192040652305  0.2747380127571304   T   T   T
  0.3321927068761953  0.8123294220825262  0.2732580583241578   T   T   T
  0.1677392923405340  0.8123659664680456  0.2728081093570918   T   T   T
  0.2492250749051261  0.8749081322516153  0.3595623809249449   T   T   T
  0.0837017250927871  0.8124583954968376  0.3591444271530216   T   T   T
  0.4163001926195219  0.8123523193405747  0.3592020999092765   T   T   T
  0.4951709036269279  0.8754255183841171  0.4442637466700353   T   T   T
  0.3319113585939588  0.8130698574153692  0.4448119575467421   T   T   T
  0.1652474329731493  0.8125764757984513  0.4470265255665751   T   T   T
  0.9996196554118555  0.8749345235867736  0.1022175688270863   F   F   F
  0.3339389444248013  0.9374272239936019  0.1075500232538360   F   F   F
  0.1656692123176882  0.9374660331456752  0.1076535614342404   F   F   F
  0.2496367764464793  0.4999279799998888  0.1827742299965678   F   F   F
  0.0820476334098430  0.9374171254006214  0.1887298800136392   F   F   F
  0.4168193524269412  0.9374154383080224  0.1889763507298241   F   F   F
  0.5002049806124149  0.9999245464087075  0.2747088345261674   T   T   T
  0.3321522338310836  0.9373860993562979  0.2732220349695034   T   T   T
  0.1676986892189380  0.9373912785207453  0.2727984693994447   T   T   T
  0.2491336651186594  0.0000244909148172  0.3595375264130815   T   T   T
  0.0835963139396005  0.9374489867668533  0.3592461730255419   T   T   T
  0.4161314812954449  0.9374848691603501  0.3587693814309342   T   T   T
  0.4952144081425932  0.9998185744384450  0.4441652954767048   T   T   T
  0.3319594674288881  0.9377798022653213  0.4438269034518326   T   T   T
  0.1638909757951356  0.9374335660370585  0.4478766336776019   T   T   T
  0.4996261485864011  0.9999638794554073  0.1022212895025945   F   F   F
  0.8339437371848675  0.0624482785398897  0.1075580759875550   F   F   F
  0.6656689243728380  0.0624780056916450  0.1076592327669417   F   F   F
  0.7496377014008289  0.1248750966894079  0.1827574333080477   F   F   F
  0.5820735458319604  0.0624174442172745  0.1887352315057669   F   F   F
  0.9168252921289621  0.0624138005358219  0.1889639379559043   F   F   F
  0.5001956520112700  0.1249499831505016  0.2747323977955781   T   T   T
  0.8320669449978959  0.0624540820389521  0.2731674910183468   T   T   T
  0.6676748570263417  0.0624254469391107  0.2728088236967250   T   T   T
  0.7492437457678914  0.1248568163974460  0.3595519592326112   T   T   T
  0.5836223764739306  0.0624139851646331  0.3590629062762004   T   T   T
  0.9160385855717992  0.0624728239560156  0.3589892255673663   T   T   T
  0.9957910705970952  0.1250452607750418  0.4439671717343581   T   T   T
  0.8323170810933948  0.0624115719664327  0.4448953200569714   T   T   T
  0.6650777632787583  0.0622222929646050  0.4467910329183942   T   T   T
  0.4996213536236240  0.1249348955726433  0.1022183024833154   F   F   F
  0.8339388961320680  0.1874236234033546  0.1075519903559652   F   F   F
  0.6656669566206190  0.1874574838225769  0.1076541056651124   F   F   F
  0.7496375557706187  0.2499211919418656  0.1827775726101990   F   F   F
  0.5820467926301731  0.1874136002736648  0.1887331258771638   F   F   F
  0.9168211714113710  0.1874148173649246  0.1889752459503455   F   F   F
  0.5002048836667843  0.2500320913849392  0.2747725540367482   T   T   T
  0.8320669722580346  0.1874606287607708  0.2732063853392082   T   T   T
  0.6676062936538580  0.1874461830650542  0.2728451661548781   T   T   T
  0.7494150072269430  0.2500004581056491  0.3597070680664988   T   T   T
  0.5835461023189799  0.1873858622053176  0.3593255263255385   T   T   T
  0.9159183023755072  0.1874907737725708  0.3590330530901781   T   T   T
  0.9960100654907130  0.2496230472410808  0.4440377626253313   T   T   T
  0.8316559195696932  0.1874026725555777  0.4448178117814877   T   T   T
  0.6640105657252577  0.1869574102594287  0.4479269121520174   T   T   T
  0.4996265847195431  0.2499624135589542  0.1022211658925301   F   F   F
  0.8339432913754052  0.3124470264806618  0.1075580597257542   F   F   F
  0.6656786166489255  0.3124812578813660  0.1076589101753385   F   F   F
  0.7496359798815462  0.3748756411498491  0.1827578042801292   F   F   F
  0.5820751330297256  0.3124154754956550  0.1887345581865603   F   F   F
  0.9168256971425777  0.3124110138011744  0.1889624020058491   F   F   F
  0.5002436573140716  0.3751056941126115  0.2748554161501040   T   T   T
  0.8320491210512789  0.3124555082545370  0.2732520469148770   T   T   T
  0.6677070268057831  0.3124722540033312  0.2729278453259516   T   T   T
  0.7495950061866694  0.3748840992938417  0.3599514214285570   T   T   T
  0.5838052788889111  0.3124494995232593  0.3592752196466732   T   T   T
  0.9160390347034771  0.3124614434103427  0.3592102548781308   T   T   T
  0.9965835287430427  0.3750309448148278  0.4443398127794745   T   T   T
  0.8335106054512901  0.3124454937839651  0.4456987644901247   T   T   T
  0.6654593449791291  0.3123309744460971  0.4463782129660065   T   T   T
  0.4996231203952064  0.3749337364865255  0.1022171720136171   F   F   F
  0.8339311317052278  0.4374224703005467  0.1075522038351053   F   F   F
  0.6656706818776428  0.4374574332997483  0.1076540871022118   F   F   F
  0.7496383104150084  0.9999213865668750  0.1827756388646549   F   F   F
  0.5820474546648100  0.4374150382907018  0.1887310280212660   F   F   F
  0.9168210958579976  0.4374163027642837  0.1889749839040178   F   F   F
  0.9998844644261677  0.4998611340938464  0.2747339454206580   T   T   T
  0.8321138312498174  0.4374383628366215  0.2733593176617672   T   T   T
  0.6676961925220876  0.4374683323938355  0.2729921090180862   T   T   T
  0.7497666472687532  0.5001302885704602  0.3599553960130727   T   T   T
  0.5841834788079706  0.4374997626477341  0.3598271102196976   T   T   T
  0.9159760456074320  0.4374252975408537  0.3594473238690855   T   T   T
  0.9967872554849767  0.4999161295062111  0.4448992472089604   T   T   T
  0.8330702207266983  0.4376057867074238  0.4461191923671634   T   T   T
  0.6653319278299810  0.4374940401602935  0.4493473508033007   T   T   T
  0.4996261485864011  0.4999638794554073  0.1022212895025945   F   F   F
  0.8339437371848675  0.5624482785398897  0.1075580759875550   F   F   F
  0.6656689243728380  0.5624780056916450  0.1076592327669417   F   F   F
  0.7496377014008289  0.6248750966894079  0.1827574333080477   F   F   F
  0.5820735458319604  0.5624174442172745  0.1887352315057669   F   F   F
  0.9168252921289621  0.5624138005358219  0.1889639379559043   F   F   F
  0.5000975728538098  0.6247719261053973  0.2748653479635587   T   T   T
  0.8320887484112217  0.5624030958173515  0.2732595853930460   T   T   T
  0.6676716110469006  0.5624326176626959  0.2729829691748825   T   T   T
  0.7497886526973734  0.6249597391599886  0.3597430810375886   T   T   T
  0.5838140304871513  0.5625062135785529  0.3595774887817398   T   T   T
  0.9162577070292576  0.5624361503872493  0.3592036392089579   T   T   T
  0.9968236345462240  0.6250139729176212  0.4441521344206327   T   T   T
  0.8336324965142379  0.5626069639517123  0.4454775998117266   T   T   T
  0.6655998977415579  0.5627011269965723  0.4464119783217817   T   T   T
  0.4996213536236240  0.6249348955726433  0.1022183024833154   F   F   F
  0.8339388961320680  0.6874236234033475  0.1075519903559652   F   F   F
  0.6656669566206190  0.6874574838225698  0.1076541056651124   F   F   F
  0.7496375557706187  0.7499211919418656  0.1827775726101990   F   F   F
  0.5820467926301731  0.6874136002736577  0.1887331258771638   F   F   F
  0.9168211714113710  0.6874148173649175  0.1889752459503455   F   F   F
  0.5001178547039301  0.7498339167274627  0.2747974278084822   T   T   T
  0.8321006449770392  0.6873872399074661  0.2732360877133143   T   T   T
  0.6675335430236922  0.6873889477453169  0.2729515306471659   T   T   T
  0.7494880053761342  0.7500620271727488  0.3596326863125938   T   T   T
  0.5835243898585339  0.6874616603089375  0.3596297585749208   T   T   T
  0.9160001267126937  0.6874941512398894  0.3591208968786314   T   T   T
  0.9946655577974475  0.7500595433359977  0.4444258421054752   T   T   T
  0.8327174412094868  0.6875244346095273  0.4452037605373627   T   T   T
  0.6645659315215146  0.6880168294290704  0.4476219110669070   T   T   T
  0.4996265847195431  0.7499624135589542  0.1022211658925301   F   F   F
  0.8339432913754052  0.8124470264806618  0.1075580597257542   F   F   F
  0.6656786166489255  0.8124812578813660  0.1076589101753385   F   F   F
  0.7496359798815462  0.8748756411498491  0.1827578042801292   F   F   F
  0.5820751330297256  0.8124154754956550  0.1887345581865603   F   F   F
  0.9168256971425777  0.8124110138011744  0.1889624020058491   F   F   F
  0.5001777471817215  0.8748811983381978  0.2747301393419897   T   T   T
  0.8320994812258687  0.8123864403843996  0.2731825864023390   T   T   T
  0.6676584207157980  0.8123657391587812  0.2728537615944352   T   T   T
  0.7493395952113657  0.8749104799258295  0.3595325891709311   T   T   T
  0.5835757768635159  0.8124055108944930  0.3591379287442222   T   T   T
  0.9161046627686197  0.8124647098452192  0.3590700498690207   T   T   T
  0.9956258637573646  0.8754589142354950  0.4438969104392135   T   T   T
  0.8326628666506751  0.8125689424244963  0.4450103864233445   T   T   T
  0.6654652292456827  0.8127717469203498  0.4466240017171693   T   T   T
  0.4996231203952064  0.8749337364865255  0.1022171720136171   F   F   F
  0.8339311317052278  0.9374224703005396  0.1075522038351053   F   F   F
  0.6656706818776428  0.9374574332997412  0.1076540871022118   F   F   F
  0.7496383104150084  0.4999213865668750  0.1827756388646549   F   F   F
  0.5820474546648100  0.9374150382906947  0.1887310280212660   F   F   F
  0.9168210958579976  0.9374163027642766  0.1889749839040178   F   F   F
  0.0001898334453406  0.9999409916420847  0.2747387722206919   T   T   T
  0.8320822262589895  0.9374134861528900  0.2731686861064414   T   T   T
  0.6676792180470044  0.9373908635656251  0.2727931131006532   T   T   T
  0.7492487321792728  0.0000267370918314  0.3595201966704337   T   T   T
  0.5835786405851939  0.9374371786753883  0.3592258939318584   T   T   T
  0.9159801581057365  0.9374854108925111  0.3588661161393617   T   T   T
  0.9956308511461892  0.0000267357606500  0.4440942667748535   T   T   T
  0.8318240439533272  0.9376151572498256  0.4445143683728245   T   T   T
  0.6643893711279255  0.9374880656347060  0.4477745400042859   T   T   T
  0.4054220745019208  0.9999222115495812  0.1371706404740110   F   F   F
  0.2498130538845231  0.9999469596221715  0.1043552466225179   F   F   F
  0.0938777968594522  0.9999465964224399  0.1371098030237761   F   F   F
  0.1543635830516692  0.1248899271375592  0.2204647086472562   F   F   F
  0.9995670073461937  0.1248966516782701  0.2080976692853085   F   F   F
  0.3446973568903360  0.1248674306196307  0.2206598414842134   F   F   F
  0.4005227298560277  0.1249452130362664  0.3067446772992454   T   T   T
  0.2496428347593100  0.1249518463767347  0.2919443190955944   T   T   T
  0.0995050737221769  0.1249414509242140  0.3070460410047784   T   T   T
  0.1516432741917504  0.1249119309638192  0.3935661301288776   T   T   T
  0.4996190196097655  0.1249871221525110  0.3762733873425294   T   T   T
  0.3479174202541736  0.1246687367032298  0.3921819315502696   T   T   T
  0.3974628345390060  0.1266078572285851  0.4798032350804306   T   T   T
  0.2504846543490226  0.1249868475306390  0.4626739425904691   T   T   T
  0.0946181654799237  0.1237789049191124  0.4731205437465863   T   T   T
  0.4054214644049878  0.1249282036816339  0.1371697875501496   F   F   F
  0.2498118312390858  0.1249501818115135  0.1042602234590362   F   F   F
  0.0938664600244081  0.1249385922007349  0.1371069089706722   F   F   F
  0.1543560911150905  0.2498790211591952  0.2204709660202369   F   F   F
  0.9995706735895027  0.2499094862395950  0.2080999580462830   F   F   F
  0.3447055266517580  0.2498932390428195  0.2206623926809286   F   F   F
  0.4005980908541937  0.2501519907549477  0.3068548601365997   T   T   T
  0.2496814341358358  0.2500074154231138  0.2919772750750128   T   T   T
  0.0995360809929351  0.2499053244481519  0.3070820735601762   T   T   T
  0.1516846709985065  0.2498995096709939  0.3936885090059695   T   T   T
  0.4997323199851237  0.2499202497978334  0.3763163854010325   T   T   T
  0.3479016476012795  0.2504606939455007  0.3922790491313632   T   T   T
  0.3994739959724814  0.2487100599604967  0.4791204007911803   T   T   T
  0.2506882803773764  0.2494154913153432  0.4630913188704804   T   T   T
  0.0947897654141339  0.2503228391520068  0.4732917468745099   T   T   T
  0.4054229972694188  0.2499207711709062  0.1371716336629376   F   F   F
  0.2498138581555835  0.2499451823925298  0.1043557657097551   F   F   F
  0.0938776901322669  0.2499459403779412  0.1371098843944125   F   F   F
  0.1543617400249389  0.3748920346981564  0.2204674382050342   F   F   F
  0.9995672189247742  0.3748993922795947  0.2080981530608312   F   F   F
  0.3446956533108718  0.3748674624887514  0.2206599019871973   F   F   F
  0.4006465827898627  0.3751560271778986  0.3071646888562657   T   T   T
  0.2497959901769886  0.3749661082144810  0.2920466829862456   T   T   T
  0.0993984401882750  0.3748415455710572  0.3069938633572345   T   T   T
  0.1520523759749971  0.3746327195299596  0.3934037402354544   T   T   T
  0.5001693155239296  0.3750470702332525  0.3765836754013129   T   T   T
  0.3477920413573947  0.3756640735455572  0.3933125483440975   T   T   T
  0.4018704607674699  0.3742252480063802  0.4787556193597433   T   T   T
  0.2511667654276936  0.3751631712921500  0.4645124002561043   T   T   T
  0.0962939602448145  0.3748488296472791  0.4734336714511818   T   T   T
  0.4054204481464510  0.3749288137657416  0.1371674470345781   F   F   F
  0.2498106243523637  0.3749504007233213  0.1042578114000037   F   F   F
  0.0938682935435935  0.3749385903486697  0.1371059653233644   F   F   F
  0.1543531827738107  0.9998787448957458  0.2204712064644667   F   F   F
  0.9995677263797802  0.9999081653989563  0.2081008624749074   F   F   F
  0.3447067510723798  0.9998918897834912  0.2206650007889195   F   F   F
  0.4006692788607948  0.4999095565916246  0.3073653202635298   T   T   T
  0.2498736687355431  0.4998933815897781  0.2919949782307744   T   T   T
  0.0992377604453761  0.4998255270191150  0.3068378283901474   T   T   T
  0.1520003207448542  0.4995109132137003  0.3924453028914797   T   T   T
  0.5002905318851687  0.4999143419831882  0.3769983200786589   T   T   T
  0.3479090816894888  0.0002974103836651  0.3921260826558896   T   T   T
  0.4023659975584820  0.4998671823174360  0.4796405479792592   T   T   T
  0.2494761243956340  0.5001874882575503  0.4630485160161041   T   T   T
  0.0947354954334476  0.0006679556133152  0.4731050814984798   T   T   T
  0.4054220745019208  0.4999222115495883  0.1371706404740110   F   F   F
  0.2498130538845231  0.4999469596221715  0.1043552466225179   F   F   F
  0.0938777968594522  0.4999465964224399  0.1371098030237761   F   F   F
  0.1543635830516692  0.6248899271375592  0.2204647086472562   F   F   F
  0.9995670073461937  0.6248966516782701  0.2080976692853085   F   F   F
  0.3446973568903360  0.6248674306196307  0.2206598414842134   F   F   F
  0.4007242112125455  0.6246841004777561  0.3073501789313040   T   T   T
  0.2498469131020957  0.6248347746958888  0.2920537029906916   T   T   T
  0.0994295443174197  0.6249499659115083  0.3068894279989382   T   T   T
  0.1517456911527792  0.6251729956625135  0.3929400868205686   T   T   T
  0.4998287012325951  0.6250091201798915  0.3776686540777247   T   T   T
  0.3480394738110941  0.6239123233791984  0.3933529307704199   T   T   T
  0.3960294745805488  0.6261940994968677  0.4824204465415878   T   T   T
  0.2500603388023257  0.6245390015784112  0.4634860590113421   T   T   T
  0.0963917553195911  0.6232688694658866  0.4734215194224187   T   T   T
  0.4054214644049878  0.6249282036816339  0.1371697875501496   F   F   F
  0.2498118312390858  0.6249501818115135  0.1042602234590362   F   F   F
  0.0938664600244081  0.6249385922007349  0.1371069089706722   F   F   F
  0.1543560911150905  0.7498790211591952  0.2204709660202369   F   F   F
  0.9995706735895027  0.7499094862395950  0.2080999580462830   F   F   F
  0.3447055266517580  0.7498932390428195  0.2206623926809286   F   F   F
  0.4006771522913923  0.7497469881041141  0.3070798168041445   T   T   T
  0.2497604115660289  0.7498283617290974  0.2920337296082544   T   T   T
  0.0994633699793673  0.7499294568678625  0.3070049903488781   T   T   T
  0.1517585255213131  0.7499006327137286  0.3933294553730286   T   T   T
  0.4997562866659877  0.7498130332828959  0.3773236897712698   T   T   T
  0.3481945943977695  0.7500767310744914  0.3926397444250987   T   T   T
  0.3943579900253889  0.7488155542678693  0.4822798506362369   T   T   T
  0.2503099918625008  0.7501548826349042  0.4623427065979625   T   T   T
  0.0947519146051567  0.7506779922233963  0.4723716483600418   T   T   T
  0.4054229972694188  0.7499207711709062  0.1371716336629376   F   F   F
  0.2498138581555835  0.7499451823925369  0.1043557657097551   F   F   F
  0.0938776901322669  0.7499459403779412  0.1371098843944125   F   F   F
  0.1543617400249389  0.8748920346981564  0.2204674382050342   F   F   F
  0.9995672189247742  0.8748993922795947  0.2080981530608312   F   F   F
  0.3446956533108718  0.8748674624887514  0.2206599019871973   F   F   F
  0.4005878492485135  0.8747881463656055  0.3068022739825707   T   T   T
  0.2496859133272495  0.8748679974855637  0.2919433417252109   T   T   T
  0.0995253334130746  0.8748923056501181  0.3070222843716757   T   T   T
  0.1516370710923743  0.8750140181164007  0.3935620729273445   T   T   T
  0.4997621750966017  0.8749522235721759  0.3763949822096073   T   T   T
  0.3480333171147549  0.8749601017803499  0.3921421098091232   T   T   T