Mo  S Co                                
   1.00000000000000     
    15.9214998300000001    0.0000000000000000    0.0000000000000000
    -7.9622501300000001   13.7910221699999997    0.0000000000000000
     0.0000000000000000    0.0000000000000000   13.5821998300000004
   Mo   S    Ru
    25    49     4
Direct
  0.1334584928956701  0.0676206619806479  0.6801116589836269
  0.1321519346116702  0.2647710439507946  0.6742510038713689
  0.1329517058023768  0.4669948199032277  0.6785401054754843
  0.1324678598623734  0.6657760597870421  0.6784410180873550
  0.1329954341868387  0.8662222434291422  0.6785403553263194
  0.3329275291633280  0.0659271475065637  0.6793551964635327
  0.3325869257567007  0.2612930913733038  0.6738651639204036
  0.3278903099774126  0.4581230857326446  0.6843199651592258
  0.3322400708704834  0.6634708671317284  0.6810923152128012
  0.3321479412010149  0.8640159634591029  0.6796712891724326
  0.5313164297496584  0.0636067508606786  0.6824130209188795
  0.5316512207704278  0.2634552360800342  0.6781304816164351
  0.5333518005046969  0.4671825073370144  0.6790073666915433
  0.5305839086429387  0.6638274351116280  0.6810473740562344
  0.5319069882299488  0.8642849883629822  0.6808582405249197
  0.7333151813504486  0.0655191148972634  0.6815299136620609
  0.7315827805041977  0.2649390904508095  0.6802704074081660
  0.7344984608278722  0.4709349382556525  0.6761267841061951
  0.7326306873494914  0.6670948950340687  0.6774511268429038
  0.7319054574110169  0.8652915963439298  0.6797610088391366
  0.9326590886693396  0.0668925283408157  0.6808119335484122
  0.9320801846488678  0.2633347002196302  0.6803020759538683
  0.9327042927013309  0.4662203049756570  0.6800277960076002
  0.9336079532767698  0.6672387212833542  0.6772487660065991
  0.9326985340460467  0.8667290770447877  0.6787245682232950
  0.0649157900536892  0.1308892794677661  0.5631111802570032
  0.0715063306090968  0.1371880023754457  0.8000756423118602
  0.0651443524321991  0.3325074620743820  0.5624957343717938
  0.0698085565033040  0.3366055955090346  0.7937916422183022
  0.0652338099111773  0.5323603952196478  0.5633784559727388
  0.0661568423026466  0.5336729495094801  0.7939236691486613
  0.0671928041906540  0.7336700602026767  0.5626979701105697
  0.0660422599515229  0.7330696369898959  0.7931763954115993
  0.0666321495995135  0.9340417850982874  0.5641638043798096
  0.0658057096242715  0.9325265883436273  0.7935235389933979
  0.2646622700626438  0.1296186258054632  0.5617180811616933
  0.2642868520953883  0.1307266270714962  0.8002296090391994
  0.2660306210749894  0.3299457191305564  0.5644984283062442
  0.2677055985049535  0.5291859152028522  0.5670288582549361
  0.2633144034138724  0.5274934219640315  0.7967487391802734
  0.2666234399848904  0.7305943915988919  0.5646017868767927
  0.2647821383030688  0.7306330239363703  0.7947243514845184
  0.2669315967075434  0.9321413284091378  0.5641792416194988
  0.2653834680949316  0.9313224287139619  0.7938530412583376
  0.4664703210879395  0.1309106666157334  0.5657620140200521
  0.4619702102703229  0.1257973280618714  0.8024474037986451
  0.4674025255342684  0.3319892575186500  0.5631896450886700
  0.4673108560661845  0.3376051464348180  0.7979211351737234
  0.4600805425861978  0.5290933212418096  0.5673478589794030
  0.4626074344106357  0.5276142601611511  0.7964208561908279
  0.4649919118644519  0.7307472710924543  0.5659546925023662
  0.4651080361613680  0.7308214183286097  0.7964062690624019
  0.4659644459028698  0.9312502956357989  0.5652140281494695
  0.4638909323772467  0.9289420403211821  0.7959811673656461
  0.6649538302918998  0.1317067469011306  0.5678203000391164
  0.6617699594674491  0.1256474567008681  0.8030123534173796
  0.6661852903192411  0.3321960544522611  0.5659144880998497
  0.6712237190049208  0.3473756848538301  0.7974227435010874
  0.6651229920025870  0.5343144746173678  0.5609225941317391
  0.6675773630995749  0.5358893642747944  0.7928016906026301
  0.6632911367172056  0.7320522876324986  0.5642312146692063
  0.6655412111482306  0.7316871318531142  0.7943614919510154
  0.6653395049764157  0.9324713333022387  0.5655709067604562
  0.6656046428965894  0.9310132144776517  0.7956571990118064
  0.8655154331556858  0.1318636832479498  0.5654687930182831
  0.8661070045651869  0.1321737202828075  0.7974322160858165
  0.8647134217851402  0.3309137462984282  0.5668629647698467
  0.8650654216074116  0.3314847256965834  0.7982788687561779
  0.8683263122221163  0.5335310836195717  0.5620285904922042
  0.8669942859598265  0.5350727957731820  0.7927149137371714
  0.8665145935013570  0.7341899943763721  0.5625711190377842
  0.8662483196966946  0.7331518931460579  0.7925995976235143
  0.8655973465032574  0.9337764187486997  0.5649697642274774
  0.8659530928600532  0.9324482386427704  0.7946017219853800
  0.3137029390406525  0.2807784185264808  0.8604954827224063
  0.5393664961575624  0.2658360728026494  0.8841341029010295
  0.7166856840071532  0.2647060412490205  0.8848613478616514
  0.1803613037708516  0.2889286546903307  0.8592001982156248
 
  0.00000000E+00  0.00000000E+00  0.00000000E+00
  0.00000000E+00  0.00000000E+00  0.00000000E+00
  0.00000000E+00  0.00000000E+00  0.00000000E+00
  0.00000000E+00  0.00000000E+00  0.00000000E+00
  0.00000000E+00  0.00000000E+00  0.00000000E+00
  0.00000000E+00  0.00000000E+00  0.00000000E+00
  0.00000000E+00  0.00000000E+00  0.00000000E+00
  0.00000000E+00  0.00000000E+00  0.00000000E+00
  0.00000000E+00  0.00000000E+00  0.00000000E+00
  0.00000000E+00  0.00000000E+00  0.00000000E+00
  0.00000000E+00  0.00000000E+00  0.00000000E+00
  0.00000000E+00  0.00000000E+00  0.00000000E+00
  0.00000000E+00  0.00000000E+00  0.00000000E+00
  0.00000000E+00  0.00000000E+00  0.00000000E+00
  0.00000000E+00  0.00000000E+00  0.00000000E+00
  0.00000000E+00  0.00000000E+00  0.00000000E+00
  0.00000000E+00  0.00000000E+00  0.00000000E+00
  0.00000000E+00  0.00000000E+00  0.00000000E+00
  0.00000000E+00  0.00000000E+00  0.00000000E+00
  0.00000000E+00  0.00000000E+00  0.00000000E+00
  0.00000000E+00  0.00000000E+00  0.00000000E+00
  0.00000000E+00  0.00000000E+00  0.00000000E+00
  0.00000000E+00  0.00000000E+00  0.00000000E+00
  0.00000000E+00  0.00000000E+00  0.00000000E+00
  0.00000000E+00  0.00000000E+00  0.00000000E+00
  0.00000000E+00  0.00000000E+00  0.00000000E+00
  0.00000000E+00  0.00000000E+00  0.00000000E+00
  0.00000000E+00  0.00000000E+00  0.00000000E+00
  0.00000000E+00  0.00000000E+00  0.00000000E+00
  0.00000000E+00  0.00000000E+00  0.00000000E+00
  0.00000000E+00  0.00000000E+00  0.00000000E+00
  0.00000000E+00  0.00000000E+00  0.00000000E+00
  0.00000000E+00  0.00000000E+00  0.00000000E+00
  0.00000000E+00  0.00000000E+00  0.00000000E+00
  0.00000000E+00  0.00000000E+00  0.00000000E+00
  0.00000000E+00  0.00000000E+00  0.00000000E+00
  0.00000000E+00  0.00000000E+00  0.00000000E+00
  0.00000000E+00  0.00000000E+00  0.00000000E+00
  0.00000000E+00  0.00000000E+00  0.00000000E+00
  0.00000000E+00  0.00000000E+00  0.00000000E+00
  0.00000000E+00  0.00000000E+00  0.00000000E+00
  0.00000000E+00  0.00000000E+00  0.00000000E+00
  0.00000000E+00  0.00000000E+00  0.00000000E+00
  0.00000000E+00  0.00000000E+00  0.00000000E+00
  0.00000000E+00  0.00000000E+00  0.00000000E+00
  0.00000000E+00  0.00000000E+00  0.00000000E+00
  0.00000000E+00  0.00000000E+00  0.00000000E+00
  0.00000000E+00  0.00000000E+00  0.00000000E+00
  0.00000000E+00  0.00000000E+00  0.00000000E+00
  0.00000000E+00  0.00000000E+00  0.00000000E+00
  0.00000000E+00  0.00000000E+00  0.00000000E+00
  0.00000000E+00  0.00000000E+00  0.00000000E+00
  0.00000000E+00  0.00000000E+00  0.00000000E+00
  0.00000000E+00  0.00000000E+00  0.00000000E+00
  0.00000000E+00  0.00000000E+00  0.00000000E+00
  0.00000000E+00  0.00000000E+00  0.00000000E+00
  0.00000000E+00  0.00000000E+00  0.00000000E+00
  0.00000000E+00  0.00000000E+00  0.00000000E+00
  0.00000000E+00  0.00000000E+00  0.00000000E+00
  0.00000000E+00  0.00000000E+00  0.00000000E+00
  0.00000000E+00  0.00000000E+00  0.00000000E+00
  0.00000000E+00  0.00000000E+00  0.00000000E+00
  0.00000000E+00  0.00000000E+00  0.00000000E+00
  0.00000000E+00  0.00000000E+00  0.00000000E+00
  0.00000000E+00  0.00000000E+00  0.00000000E+00
  0.00000000E+00  0.00000000E+00  0.00000000E+00
  0.00000000E+00  0.00000000E+00  0.00000000E+00
  0.00000000E+00  0.00000000E+00  0.00000000E+00
  0.00000000E+00  0.00000000E+00  0.00000000E+00
  0.00000000E+00  0.00000000E+00  0.00000000E+00
  0.00000000E+00  0.00000000E+00  0.00000000E+00
  0.00000000E+00  0.00000000E+00  0.00000000E+00
  0.00000000E+00  0.00000000E+00  0.00000000E+00
  0.00000000E+00  0.00000000E+00  0.00000000E+00
  0.00000000E+00  0.00000000E+00  0.00000000E+00
  0.00000000E+00  0.00000000E+00  0.00000000E+00
  0.00000000E+00  0.00000000E+00  0.00000000E+00
  0.00000000E+00  0.00000000E+00  0.00000000E+00
