Mo  S Ru                                
   1.00000000000000     
    15.9215000000000000    0.0000000000000000    0.0000000000000000
    -7.9622500000000000   13.7910219999999999    0.0000000000000000
     0.0000000000000000    0.0000000000000000   13.5822000000000003
   Mo   S    Ru
    25    50     2
Direct
  0.1322216097322837  0.0655673643706436  0.6789638494341403
  0.1305409770601713  0.2643282605960096  0.6806745908187182
  0.1321505980639017  0.4658563527272932  0.6808034649159680
  0.1326930696398207  0.6664108129090494  0.6786456874591806
  0.1324316121652913  0.8660209926297640  0.6782728601364951
  0.3322552623777995  0.0657104132815576  0.6781624823558730
  0.3326275373439458  0.2648330293390018  0.6787710784105769
  0.3330040394249565  0.4672445759129786  0.6795406106634729
  0.3345615258361150  0.6688320636387246  0.6776887468352371
  0.3325765123517854  0.8667468386901618  0.6777481003717938
  0.5326345265521795  0.0666449246487133  0.6781599699170968
  0.5324080777052629  0.2664558944787174  0.6793769473107858
  0.5328271269932046  0.4667240806980431  0.6813631877636581
  0.5327535110377042  0.6676398800280410  0.6788626548963279
  0.5329857941448921  0.8671292782551987  0.6781119145969399
  0.7327348893790742  0.0665618731904232  0.6784286139200972
  0.7325044126445732  0.2663078808914960  0.6789400598431925
  0.7325800705013705  0.4663181570486046  0.6793616270379772
  0.7325040009859691  0.6662609735017639  0.6794592139102917
  0.7326995180408176  0.8663978117632070  0.6784310882054072
  0.9320364830785763  0.0654941658889143  0.6787645107712450
  0.9327007191235381  0.2664010916345276  0.6797472147950927
  0.9323432895270400  0.4662607417837279  0.6791229202982265
  0.9324601241841179  0.6660869293289835  0.6788574751767271
  0.9324010819509851  0.8659084332534945  0.6786442417924619
  0.0655582395302403  0.1322666645958250  0.5638296327312204
  0.0640328500007499  0.1305782099314783  0.7946239256505976
  0.0662435208968475  0.3335770290572242  0.5649622616218366
  0.0655353890163539  0.3325971736744293  0.7955254904225484
  0.0660265773151423  0.5325229906690581  0.5643401296745267
  0.0652646549027125  0.5334464976322835  0.7942440124635013
  0.0655416550628303  0.7324932541948925  0.5634454904190704
  0.0659959249904887  0.7330039005001154  0.7936747056245110
  0.0655964356327559  0.9326774115792702  0.5634528153012468
  0.0656795416884179  0.9322381673921214  0.7937472364568592
  0.2652673753024786  0.1321838607752497  0.5631480243423397
  0.2659126187194332  0.1316854916441130  0.7940285340448057
  0.2655259908274985  0.3335457805658208  0.5668926675145585
  0.2599425078547881  0.3210321333156543  0.8001826574010593
  0.2662407988919853  0.5330853585886501  0.5653486780536099
  0.2667000488098168  0.5357052347874784  0.7953400121362790
  0.2657467295468265  0.7332827058571283  0.5628975597746404
  0.2664365879701975  0.7340672032604445  0.7930764146247213
  0.2655377439882471  0.9328855767488875  0.5627409339394305
  0.2657705306712543  0.9326079195811872  0.7932356054699170
  0.4659711790605598  0.1337342723114787  0.5634490429425441
  0.4655720119734426  0.1325249692686228  0.7935685890250710
  0.4666854751472158  0.3343967221359563  0.5647242475922596
  0.4650315241496088  0.3324038959866655  0.7950833845870164
  0.4654053943084833  0.5328160314176387  0.5662182372425519
  0.4703519135917560  0.5364567298730520  0.8023202484910712
  0.4666926744313429  0.7338470864840687  0.5626220674616036
  0.4666532391141089  0.7346593278502738  0.7939540697621226
  0.4661372131990120  0.9335602711376225  0.5627859745733872
  0.4658910507854372  0.9334220547324534  0.7930056019372671
  0.6661918966157288  0.1334322165774680  0.5633541757089517
  0.6656842939740315  0.1327811262652432  0.7935577516037711
  0.6656429087236688  0.3331326278227351  0.5641820046013137
  0.6658019074170838  0.3327609215772327  0.7942515017569534
  0.6652624704369074  0.5328091979168192  0.5647597703892444
  0.6670291305636695  0.5333849164311104  0.7951937709302399
  0.6659155381648247  0.7327069464604108  0.5637815220947004
  0.6662584390513899  0.7337438007052342  0.7941250943055493
  0.6663680523838309  0.9333787316292614  0.5631328840410887
  0.6660264644012344  0.9333152636427116  0.7933022972042281
  0.8664920849962598  0.1335445951932357  0.5638865282968055
  0.8655225089154754  0.1324625056380384  0.7939755391304217
  0.8661260209228629  0.3329361224183458  0.5641911824359696
  0.8655311802457817  0.3329148908223019  0.7943136362543939
  0.8655732360375055  0.5326690754259999  0.5639235641063749
  0.8659297968449167  0.5330456007575535  0.7942811742170903
  0.8654209078219921  0.7324159223196531  0.5638637274949829
  0.8660683203770105  0.7329349444486937  0.7941113278570171
  0.8658392648561772  0.9325834105162869  0.5633359819257038
  0.8654755305971378  0.9322639976912512  0.7937635545533368
  0.2819798083816565  0.3049576194911339  0.9594639228267710
  0.3271342228365341  0.4551366239181363  0.8871429308866396
 
  0.00000000E+00  0.00000000E+00  0.00000000E+00
  0.00000000E+00  0.00000000E+00  0.00000000E+00
  0.00000000E+00  0.00000000E+00  0.00000000E+00
  0.00000000E+00  0.00000000E+00  0.00000000E+00
  0.00000000E+00  0.00000000E+00  0.00000000E+00
  0.00000000E+00  0.00000000E+00  0.00000000E+00
  0.00000000E+00  0.00000000E+00  0.00000000E+00
  0.00000000E+00  0.00000000E+00  0.00000000E+00
  0.00000000E+00  0.00000000E+00  0.00000000E+00
  0.00000000E+00  0.00000000E+00  0.00000000E+00
  0.00000000E+00  0.00000000E+00  0.00000000E+00
  0.00000000E+00  0.00000000E+00  0.00000000E+00
  0.00000000E+00  0.00000000E+00  0.00000000E+00
  0.00000000E+00  0.00000000E+00  0.00000000E+00
  0.00000000E+00  0.00000000E+00  0.00000000E+00
  0.00000000E+00  0.00000000E+00  0.00000000E+00
  0.00000000E+00  0.00000000E+00  0.00000000E+00
  0.00000000E+00  0.00000000E+00  0.00000000E+00
  0.00000000E+00  0.00000000E+00  0.00000000E+00
  0.00000000E+00  0.00000000E+00  0.00000000E+00
  0.00000000E+00  0.00000000E+00  0.00000000E+00
  0.00000000E+00  0.00000000E+00  0.00000000E+00
  0.00000000E+00  0.00000000E+00  0.00000000E+00
  0.00000000E+00  0.00000000E+00  0.00000000E+00
  0.00000000E+00  0.00000000E+00  0.00000000E+00
  0.00000000E+00  0.00000000E+00  0.00000000E+00
  0.00000000E+00  0.00000000E+00  0.00000000E+00
  0.00000000E+00  0.00000000E+00  0.00000000E+00
  0.00000000E+00  0.00000000E+00  0.00000000E+00
  0.00000000E+00  0.00000000E+00  0.00000000E+00
  0.00000000E+00  0.00000000E+00  0.00000000E+00
  0.00000000E+00  0.00000000E+00  0.00000000E+00
  0.00000000E+00  0.00000000E+00  0.00000000E+00
  0.00000000E+00  0.00000000E+00  0.00000000E+00
  0.00000000E+00  0.00000000E+00  0.00000000E+00
  0.00000000E+00  0.00000000E+00  0.00000000E+00
  0.00000000E+00  0.00000000E+00  0.00000000E+00
  0.00000000E+00  0.00000000E+00  0.00000000E+00
  0.00000000E+00  0.00000000E+00  0.00000000E+00
  0.00000000E+00  0.00000000E+00  0.00000000E+00
  0.00000000E+00  0.00000000E+00  0.00000000E+00
  0.00000000E+00  0.00000000E+00  0.00000000E+00
  0.00000000E+00  0.00000000E+00  0.00000000E+00
  0.00000000E+00  0.00000000E+00  0.00000000E+00
  0.00000000E+00  0.00000000E+00  0.00000000E+00
  0.00000000E+00  0.00000000E+00  0.00000000E+00
  0.00000000E+00  0.00000000E+00  0.00000000E+00
  0.00000000E+00  0.00000000E+00  0.00000000E+00
  0.00000000E+00  0.00000000E+00  0.00000000E+00
  0.00000000E+00  0.00000000E+00  0.00000000E+00
  0.00000000E+00  0.00000000E+00  0.00000000E+00
  0.00000000E+00  0.00000000E+00  0.00000000E+00
  0.00000000E+00  0.00000000E+00  0.00000000E+00
  0.00000000E+00  0.00000000E+00  0.00000000E+00
  0.00000000E+00  0.00000000E+00  0.00000000E+00
  0.00000000E+00  0.00000000E+00  0.00000000E+00
  0.00000000E+00  0.00000000E+00  0.00000000E+00
  0.00000000E+00  0.00000000E+00  0.00000000E+00
  0.00000000E+00  0.00000000E+00  0.00000000E+00
  0.00000000E+00  0.00000000E+00  0.00000000E+00
  0.00000000E+00  0.00000000E+00  0.00000000E+00
  0.00000000E+00  0.00000000E+00  0.00000000E+00
  0.00000000E+00  0.00000000E+00  0.00000000E+00
  0.00000000E+00  0.00000000E+00  0.00000000E+00
  0.00000000E+00  0.00000000E+00  0.00000000E+00
  0.00000000E+00  0.00000000E+00  0.00000000E+00
  0.00000000E+00  0.00000000E+00  0.00000000E+00
  0.00000000E+00  0.00000000E+00  0.00000000E+00
  0.00000000E+00  0.00000000E+00  0.00000000E+00
  0.00000000E+00  0.00000000E+00  0.00000000E+00
  0.00000000E+00  0.00000000E+00  0.00000000E+00
  0.00000000E+00  0.00000000E+00  0.00000000E+00
  0.00000000E+00  0.00000000E+00  0.00000000E+00
  0.00000000E+00  0.00000000E+00  0.00000000E+00
  0.00000000E+00  0.00000000E+00  0.00000000E+00
  0.00000000E+00  0.00000000E+00  0.00000000E+00
  0.00000000E+00  0.00000000E+00  0.00000000E+00
