Ta N Cu Ru                              
   1.00000000000000     
    18.1096308199999996    0.0000000000000000    0.0000000000000000
     0.0000000000000000   11.6775998899999998    0.0000000000000000
     0.0000000000000000    0.0000000000000000   23.4818170799999990
   Ta   N    Cu   Ru
   119   120     2     1
Direct
  0.0000770375164887  0.9999531396818480  0.2548843253830689
  0.3332603208735532  0.1251585985905898  0.2637494884534399
  0.1662962123756401  0.1250066224903743  0.2638223566060533
  0.2500364747870295  0.2500473335107375  0.3612670068579714
  0.0825049630468678  0.1250120476577068  0.3684823124061656
  0.4174258149256865  0.1251598609789508  0.3683554153339456
  0.0001010460805405  0.2501447132981479  0.4795307057113805
  0.3321160559541183  0.1251289102518619  0.4779336327442677
  0.1676821921954580  0.1249667319491733  0.4780864274609659
  0.2499866860634036  0.2503628166390268  0.5907099886789895
  0.0838704683175807  0.1255903168382231  0.5889582251248709
  0.4160701038909307  0.1251581406674131  0.5900283836900685
  0.3383018508130625  0.1255144311706148  0.7031922906472486
  0.1646720260486285  0.1265406936759247  0.6998915871654107
  0.0000665500404898  0.2500689368189818  0.2548488891227411
  0.3332128679321849  0.3750931137933025  0.2637785715688092
  0.1663574774615918  0.3751742200543495  0.2638456068022859
  0.2499448221051987  0.5001027870447408  0.3612887108654030
  0.0824641640643806  0.3751099489791954  0.3685281292930623
  0.4174368729805625  0.3751152189685821  0.3683884983917573
  0.0000835130469628  0.5001805530680233  0.4798559605451185
  0.3320953847824840  0.3752549212223715  0.4780403422540583
  0.1677059747249222  0.3752641986731781  0.4782018093351015
  0.2496945458225801  0.4997460572245012  0.5911787178588307
  0.0838680068023763  0.3746422824812851  0.5894438559353302
  0.4160486360155328  0.3754632041758494  0.5900132950647516
  0.9997655624998302  0.4920278338659649  0.7032200835208057
  0.3365950226080292  0.3765493678776992  0.7043964603272881
  0.1652516016463933  0.3782407113152090  0.7047986483175834
  0.0000792882723631  0.5001416821168556  0.2548835307871502
  0.3334524108594013  0.6251936307075155  0.2637819943954463
  0.1661908331991051  0.6251168586589809  0.2638413153887849
  0.2498291324596804  0.7500810236466338  0.3613344916510362
  0.0825529279920796  0.6251075090708642  0.3685950331615214
  0.4173192848620843  0.6251344845607609  0.3684546124412373
  0.0000285737485211  0.7500381025997628  0.4801076100310098
  0.3322551802592560  0.6252092156534542  0.4781555694355749
  0.1675002807928359  0.6251591914390456  0.4784487891815623
  0.2496347347083994  0.7503310244720437  0.5913024091165956
  0.0834872238288119  0.6249199723160155  0.5904325848932491
  0.4161667194932511  0.6252903160106439  0.5900069116428818
  0.9996430534967856  0.7500794524970195  0.7025408673644198
  0.3350538511927535  0.6253459833331784  0.7041947252333783
  0.1642934210862776  0.6253164092410991  0.7044103285768160
  0.0000703687927692  0.7500623506108804  0.2549112530159978
  0.3334738163849700  0.8750742928437109  0.2638068350153950
  0.1661715490363565  0.8749915897343112  0.2638222349442718
  0.2499719931145978  0.0001896144601988  0.3612878260668031
  0.0824919219199599  0.8750095466579871  0.3685931637948202
  0.4173689930037279  0.8751383425194125  0.3684946943950266
  0.0000776136743428  0.9997614457623225  0.4798220876050302
  0.3322676118590582  0.8750835930660295  0.4782051442413217
  0.1675424315073489  0.8749589042615530  0.4784001035532603
  0.2494956061316072  0.0005027010336981  0.5909642163204885
  0.0834422297021758  0.8749146365301527  0.5904096436259054
  0.4158850769203684  0.8751113843744138  0.5900623942611301
  0.9980356571414662  0.0056480799416958  0.7021106161369230
  0.3362449899513985  0.8744464192990127  0.7046507722065486
  0.1642981367455027  0.8722326481462401  0.7055611487461878
  0.4997327033475158  0.0000530349583435  0.2549999950742269
  0.8334305389969241  0.1250296437282445  0.2637712278755273
  0.6666052552775882  0.1251059513660887  0.2637932363421681
  0.7497122953060411  0.2501136907400867  0.3612013291776926
  0.5822058092683121  0.1251605977033398  0.3683314233365695
  0.9174527930667146  0.1250293944691307  0.3683256453402632
  0.4998313822392652  0.2501885934894639  0.4801245258987046
  0.8321870651696318  0.1248981527762710  0.4777896878391125
  0.6678767007779508  0.1250732636789238  0.4778140119108906
  0.7500210748641314  0.2500697677574704  0.5906208887931116
  0.5837135922588346  0.1251494729829801  0.5897379383926344
  0.9159140835683185  0.1255229017321589  0.5886251968185836
  0.5009763637848412  0.2502908933582429  0.7019772234727262
  0.8352750963163927  0.1260480703020364  0.7029968684819040
  0.6652851782399413  0.1251729998645119  0.7038105559752310
  0.4997612026724815  0.2501300762706585  0.2550007571565412
  0.8334420323927378  0.3751709623783134  0.2637652535985826
  0.6666200339455067  0.3750944163612159  0.2637569101061437
  0.7498598268720930  0.5000597388247475  0.3612402874684835
  0.5822277161032277  0.3751172174103364  0.3683082018027528
  0.9174577004845853  0.3751190418228569  0.3683764641615624
  0.4998709981887278  0.5002668767348123  0.4799573319165765
  0.8322255811425578  0.3752286398269606  0.4778718466447974
  0.6678062121287588  0.3751477938018103  0.4777859837124667
  0.7503390663119587  0.4997703617170994  0.5909318357499780
  0.5836941542144706  0.3752536270355865  0.5897451558232297
  0.9161004375346743  0.3744977797746274  0.5888744191574753
  0.5005380045397319  0.5001361868756380  0.7019778754994581
  0.8354473694866267  0.3743777803987018  0.7032938276219430
  0.6652099646354465  0.3750545726959639  0.7038134078946260
  0.4997369403553786  0.5002064495977716  0.2549519371598519
  0.8335890269153398  0.6251051869285614  0.2637778047780665
  0.6663815355921997  0.6251025897254164  0.2637942579516106
  0.7499752620989931  0.7500707179855663  0.3612791442088669
  0.5823453747149516  0.6251372324235968  0.3683978486872284
  0.9174494723493972  0.6251165002936119  0.3684455509160133
  0.4998308555520201  0.7501670324250063  0.4799194949532353
  0.8324028492524113  0.6251296453342697  0.4781230920226739
  0.6676474043540260  0.6251451606980274  0.4780158195997713
  0.7502272726668201  0.7500972310453493  0.5909832027008458
  0.5837628603555511  0.6251826379934301  0.5897103628556575
  0.9166197611705179  0.6248841133324621  0.5900660390788502
  0.5005281954991325  0.7504283808837294  0.7019926481247333
  0.8356163774589965  0.6249634500645342  0.7042872124615200
  0.6653283426349552  0.6251187352418385  0.7040116785007022
  0.4997898329786247  0.7501156924338858  0.2548990509221701
  0.8335910807455678  0.8750354898969031  0.2637507741004829
  0.6663778879187187  0.8751727013372980  0.2637896809554121
  0.7498210689922364  0.0001034092388570  0.3612375414744946
  0.5823225965292339  0.8751324940266421  0.3684241549592335
  0.9174517321577291  0.8749914190362993  0.3684570662092732
  0.4997943165667880  0.0000509025065117  0.4800258486467857
  0.8323521700041783  0.8749571483209274  0.4780432613113604
  0.6676103790993445  0.8750507396287457  0.4779949499028080
  0.7502548890546399  0.0005973043324050  0.5909052719295794
  0.5837459279638968  0.8751441560365236  0.5897243021616748
  0.9164546350396542  0.8750066907670153  0.5899395681974754
  0.5007728845508899  0.0004686755212835  0.7019695962969398
  0.8353952592102711  0.8753071494460697  0.7040056670717356
  0.6651678888628967  0.8755595372894487  0.7039275490406862
  0.4065610025795349  0.0001905214014477  0.3012498716310366
  0.2498243332601714 -0.0000083104799992  0.2580747378157461
  0.0931451175312588  0.9999563653437227  0.3013552562254154
  0.1544489002889484  0.2501437299648078  0.4099450198820837
  0.9999688685944594  0.2500416418221887  0.3930026566106991
  0.3454546439528604  0.2501955297539407  0.4099603484696771
  0.4008062630962523  0.2502539539159006  0.5220515988737172
  0.2500343219786076  0.2500925920325783  0.5026595902049795
  0.0992779683683440  0.2501898749216075  0.5217670313440790
  0.1518295458185329  0.2520677817212432  0.6335855130165643
  0.9999825539882916  0.2497011451643961  0.6122369070611338
  0.3479025340555710  0.2511198717990025  0.6335529365214710
  0.4042277922836252  0.2510831340927361  0.7407191245230149
  0.2501514647676027  0.2481754539736639  0.7284587876026444
  0.0946548802854970  0.2558430347981663  0.7411270229754728
  0.4066086777212580  0.2501458636680853  0.3012136385755225
  0.2497294662878286  0.2500674779819017  0.2578418329643237
  0.0931778974624192  0.2500691188723868  0.3012882776822647
  0.1544533191294674  0.5001364783262536  0.4101398525350300
  0.9999741432092476  0.5001673774875388  0.3932053343681213
  0.3453814203798556  0.5001642252461649  0.4100277502949037
  0.4008845931945608  0.5001665415383834  0.5221061220063899
  0.2499589523081503  0.5004690352711378  0.5031008188202142
  0.0989579251253535  0.5001342717900109  0.5224235605670671
  0.1512383804253996  0.4994540624847438  0.6338776609471890
  0.9999570246417150  0.4979879204485193  0.6144412172158396
  0.3479553357413869  0.5006184438775990  0.6333686590472500
  0.4032457102556121  0.5006304951213919  0.7403730179386543
  0.2497300696116817  0.4992344124271232  0.7246435898963797
  0.0967574055573239  0.4987911732298021  0.7411522667364444
  0.4065685072211638  0.5000522638405982  0.3012282898145253
  0.2498419893878793  0.5002398430463495  0.2578874736412560
  0.0931374751440134  0.5001448026128161  0.3013811253505064
  0.1544240878993617  0.7500770941638402  0.4102318890856818
  0.9999702847483322  0.7500164581876587  0.3933451084243887
  0.3452986366750379  0.7501278501606224  0.4100451329719799
  0.4008293909440332  0.7502131264642740  0.5221976045617955
  0.2498849178193831  0.7500248683396965  0.5031300322860048
  0.0989539318280843  0.7500739343538996  0.5224837581915225
  0.1515499096942779  0.7505232757612473  0.6339893580362024
  0.9999317078610498  0.7498445643539154  0.6138932834442521
  0.3478009589814782  0.7501875303876769  0.6334470022128272
  0.4031389425626764  0.7502440967864924  0.7403091148752514
  0.2493913859930005  0.7517493968105016  0.7246743710876293
  0.0969576011441451  0.7498685837420553  0.7412099903220439
  0.4066286467088780  0.7501554439312189  0.3012795374216286
  0.2498529044218568  0.7501056450864764  0.2581144671091883
  0.0931142677689082  0.7500648727356565  0.3014687356408965
  0.1544622501410431  0.9999392346707818  0.4100689695001176
  0.9999716916337390  0.9999796918331172  0.3931944034185368
  0.3454038621629794  0.0000940801706503  0.4100149691801193
  0.4007540608050074  0.0001956797354896  0.5221060065048303
  0.2499187598608211  0.9999747834650700  0.5029390962171402
  0.0990410933967595  0.9997489655534115  0.5222084306201454
  0.1510771677939039  0.9988477992086098  0.6342250185793133
  0.9997845229294722  0.0017061254310123  0.6137342246479526
  0.3475608520139886  0.9993425426780576  0.6335825016829030
  0.4039975427921686  0.9997703758240150  0.7406946146103310
  0.2498070757132319  0.0040831544007784  0.7286220202275256
  0.0943274906546576  0.9989122126474030  0.7434518985136284
  0.9068137573343231  0.9999306512630816  0.3011799428218234
  0.7500145282285868  0.9999593624805662  0.2576306773466405
  0.5930626961008370  0.0001969851180702  0.3011453236869996
  0.6542308417855371  0.2501275472243640  0.4098164738346450
  0.4998224429474781  0.2501489887998649  0.3933009890914800
  0.8454552498468286  0.2500733820214204  0.4096800515068206
  0.9007545136664979  0.2501416975665769  0.5214031006990862
  0.7498818529413773  0.2501830007578840  0.5024503629668514
  0.5989585805759136  0.2500835998308027  0.5218759686597815
  0.6520004916769644  0.2502742028642063  0.6331511425537036
  0.5000109657916241  0.2502161877251806  0.6133974065470184
  0.8483738992514738  0.2502123821127306  0.6326470005027014
  0.9048032556802207  0.2502014056428858  0.7380090184050571
  0.7509824288170923  0.2502726357314608  0.7242272664123897
  0.5974056400318981  0.2501096396036729  0.7403968061085187
  0.9067877848719789  0.2501087285382563  0.3011010068029064
  0.7500750902088220  0.2501113902582735  0.2575303138144760
  0.5930598049854482  0.2501117819706918  0.3011198392985364
  0.6543326221734195  0.5001514003100348  0.4098556371108471
  0.4998320535648109  0.5001871907034300  0.3932157524932792
  0.8454656168925115  0.5001772038157506  0.4098654370930344
  0.9010698253524557  0.5001997835907243  0.5220435652962260
  0.7499642467508035  0.5002861760320664  0.5027999908391156
  0.5989524544598994  0.5001459476141403  0.5218971349655070
  0.6520084124386132  0.5004888791773139  0.6329507049640755
  0.5000196099978180  0.5002816355996668  0.6134359296516284
  0.8489114754904923  0.4997649163197672  0.6332174168950244
  0.9035733533312567  0.4978934953642989  0.7407303183253943
  0.7504077517976376  0.5000178463630696  0.7237900879706726
  0.5971153937684116  0.4999701036185517  0.7400823360023951
  0.9068372646739565  0.5001763129003460  0.3012007704945482
  0.7499901242816549  0.5002136994291849  0.2576226079382740
  0.5930605293618927  0.5000603671307181  0.3011104580493467
  0.6544437588725180  0.7501005324960415  0.4098783976052951
  0.4998465225165662  0.7501053092224007  0.3932136982622708
  0.8454976536541510  0.7500297618970774  0.4099454114498596
  0.9010419488912316  0.7499810850004627  0.5221233662801401
  0.7500359425704689  0.7500936337009237  0.5028163357159198
  0.5989705870153812  0.7501135543505547  0.5219593292698361
  0.6520130974447478  0.7500515008208382  0.6329706927814304
  0.4999708419858807  0.7502769423467892  0.6134031890015793
  0.8484082316114598  0.7499286966318180  0.6333147017906599
  0.9033116212392753  0.7501366636973573  0.7406824109270194
  0.7506318844086457  0.7501552380150950  0.7237559378414563
  0.5970775617331494  0.7501163127813513  0.7401430406906691
  0.9068573763222852  0.7500735689953792  0.3012647597095957
  0.7499306589382770  0.7500999319889798  0.2579628397350395
  0.5930780061029903  0.7501334232305656  0.3011697127214351
  0.6543009264281683  0.0000812223409484  0.4098704165640780
  0.4998232525200209  0.0001247169645835  0.3932767912746770
  0.8454685653087555  0.9999700233901084  0.4098098228539930
  0.9009596432812141  0.9997092503228771  0.5218570383336402
  0.7499589866504760  0.9997833144627642  0.5027456868287974
  0.5989377706243026  0.0002775764504981  0.5219046753319511
  0.6519770329130966  0.9999598046862864  0.6330138513395116
  0.4999501145620790  0.0001355423430473  0.6134118021331268
  0.8488667683059928  0.0004474388747078  0.6331906896750625
  0.9030802034505526  0.0027826319646450  0.7408163295596085
  0.7502888363833492  0.0002103906885446  0.7238503286408289
  0.5972762234557834  0.0006468615422614  0.7402755174976055
  0.0839887984033371  0.1312619398275473  0.7921418796467871
  0.2399464805466414  0.1267813820467115  0.7928823814291136
  0.9985168269698580  0.2500862542293683  0.6978304893730807
 
  0.00000000E+00  0.00000000E+00  0.00000000E+00
  0.00000000E+00  0.00000000E+00  0.00000000E+00
  0.00000000E+00  0.00000000E+00  0.00000000E+00
  0.00000000E+00  0.00000000E+00  0.00000000E+00
  0.00000000E+00  0.00000000E+00  0.00000000E+00
  0.00000000E+00  0.00000000E+00  0.00000000E+00
  0.00000000E+00  0.00000000E+00  0.00000000E+00
  0.00000000E+00  0.00000000E+00  0.00000000E+00
  0.00000000E+00  0.00000000E+00  0.00000000E+00
  0.00000000E+00  0.00000000E+00  0.00000000E+00
  0.00000000E+00  0.00000000E+00  0.00000000E+00
  0.00000000E+00  0.00000000E+00  0.00000000E+00
  0.00000000E+00  0.00000000E+00  0.00000000E+00
  0.00000000E+00  0.00000000E+00  0.00000000E+00
  0.00000000E+00  0.00000000E+00  0.00000000E+00
  0.00000000E+00  0.00000000E+00  0.00000000E+00
  0.00000000E+00  0.00000000E+00  0.00000000E+00
  0.00000000E+00  0.00000000E+00  0.00000000E+00
  0.00000000E+00  0.00000000E+00  0.00000000E+00
  0.00000000E+00  0.00000000E+00  0.00000000E+00
  0.00000000E+00  0.00000000E+00  0.00000000E+00
  0.00000000E+00  0.00000000E+00  0.00000000E+00
  0.00000000E+00  0.00000000E+00  0.00000000E+00
  0.00000000E+00  0.00000000E+00  0.00000000E+00
  0.00000000E+00  0.00000000E+00  0.00000000E+00
  0.00000000E+00  0.00000000E+00  0.00000000E+00
  0.00000000E+00  0.00000000E+00  0.00000000E+00
  0.00000000E+00  0.00000000E+00  0.00000000E+00
  0.00000000E+00  0.00000000E+00  0.00000000E+00
  0.00000000E+00  0.00000000E+00  0.00000000E+00
  0.00000000E+00  0.00000000E+00  0.00000000E+00
  0.00000000E+00  0.00000000E+00  0.00000000E+00
  0.00000000E+00  0.00000000E+00  0.00000000E+00
  0.00000000E+00  0.00000000E+00  0.00000000E+00
  0.00000000E+00  0.00000000E+00  0.00000000E+00
  0.00000000E+00  0.00000000E+00  0.00000000E+00
  0.00000000E+00  0.00000000E+00  0.00000000E+00
  0.00000000E+00  0.00000000E+00  0.00000000E+00
  0.00000000E+00  0.00000000E+00  0.00000000E+00
  0.00000000E+00  0.00000000E+00  0.00000000E+00
  0.00000000E+00  0.00000000E+00  0.00000000E+00
  0.00000000E+00  0.00000000E+00  0.00000000E+00
  0.00000000E+00  0.00000000E+00  0.00000000E+00
  0.00000000E+00  0.00000000E+00  0.00000000E+00
  0.00000000E+00  0.00000000E+00  0.00000000E+00
  0.00000000E+00  0.00000000E+00  0.00000000E+00
  0.00000000E+00  0.00000000E+00  0.00000000E+00
  0.00000000E+00  0.00000000E+00  0.00000000E+00
  0.00000000E+00  0.00000000E+00  0.00000000E+00
  0.00000000E+00  0.00000000E+00  0.00000000E+00
  0.00000000E+00  0.00000000E+00  0.00000000E+00
  0.00000000E+00  0.00000000E+00  0.00000000E+00
  0.00000000E+00  0.00000000E+00  0.00000000E+00
  0.00000000E+00  0.00000000E+00  0.00000000E+00
  0.00000000E+00  0.00000000E+00  0.00000000E+00
  0.00000000E+00  0.00000000E+00  0.00000000E+00
  0.00000000E+00  0.00000000E+00  0.00000000E+00
  0.00000000E+00  0.00000000E+00  0.00000000E+00
  0.00000000E+00  0.00000000E+00  0.00000000E+00
  0.00000000E+00  0.00000000E+00  0.00000000E+00
  0.00000000E+00  0.00000000E+00  0.00000000E+00
  0.00000000E+00  0.00000000E+00  0.00000000E+00
  0.00000000E+00  0.00000000E+00  0.00000000E+00
  0.00000000E+00  0.00000000E+00  0.00000000E+00
  0.00000000E+00  0.00000000E+00  0.00000000E+00
  0.00000000E+00  0.00000000E+00  0.00000000E+00
  0.00000000E+00  0.00000000E+00  0.00000000E+00
  0.00000000E+00  0.00000000E+00  0.00000000E+00
  0.00000000E+00  0.00000000E+00  0.00000000E+00
  0.00000000E+00  0.00000000E+00  0.00000000E+00
  0.00000000E+00  0.00000000E+00  0.00000000E+00
  0.00000000E+00  0.00000000E+00  0.00000000E+00
  0.00000000E+00  0.00000000E+00  0.00000000E+00
  0.00000000E+00  0.00000000E+00  0.00000000E+00
  0.00000000E+00  0.00000000E+00  0.00000000E+00
  0.00000000E+00  0.00000000E+00  0.00000000E+00
  0.00000000E+00  0.00000000E+00  0.00000000E+00
  0.00000000E+00  0.00000000E+00  0.00000000E+00
  0.00000000E+00  0.00000000E+00  0.00000000E+00
  0.00000000E+00  0.00000000E+00  0.00000000E+00
  0.00000000E+00  0.00000000E+00  0.00000000E+00
  0.00000000E+00  0.00000000E+00  0.00000000E+00
  0.00000000E+00  0.00000000E+00  0.00000000E+00
  0.00000000E+00  0.00000000E+00  0.00000000E+00
  0.00000000E+00  0.00000000E+00  0.00000000E+00
  0.00000000E+00  0.00000000E+00  0.00000000E+00
  0.00000000E+00  0.00000000E+00  0.00000000E+00
  0.00000000E+00  0.00000000E+00  0.00000000E+00
  0.00000000E+00  0.00000000E+00  0.00000000E+00
  0.00000000E+00  0.00000000E+00  0.00000000E+00
  0.00000000E+00  0.00000000E+00  0.00000000E+00
  0.00000000E+00  0.00000000E+00  0.00000000E+00
  0.00000000E+00  0.00000000E+00  0.00000000E+00
  0.00000000E+00  0.00000000E+00  0.00000000E+00
  0.00000000E+00  0.00000000E+00  0.00000000E+00
  0.00000000E+00  0.00000000E+00  0.00000000E+00
  0.00000000E+00  0.00000000E+00  0.00000000E+00
  0.00000000E+00  0.00000000E+00  0.00000000E+00
  0.00000000E+00  0.00000000E+00  0.00000000E+00
  0.00000000E+00  0.00000000E+00  0.00000000E+00
  0.00000000E+00  0.00000000E+00  0.00000000E+00
  0.00000000E+00  0.00000000E+00  0.00000000E+00
  0.00000000E+00  0.00000000E+00  0.00000000E+00
  0.00000000E+00  0.00000000E+00  0.00000000E+00
  0.00000000E+00  0.00000000E+00  0.00000000E+00
  0.00000000E+00  0.00000000E+00  0.00000000E+00
  0.00000000E+00  0.00000000E+00  0.00000000E+00
  0.00000000E+00  0.00000000E+00  0.00000000E+00
  0.00000000E+00  0.00000000E+00  0.00000000E+00
  0.00000000E+00  0.00000000E+00  0.00000000E+00
  0.00000000E+00  0.00000000E+00  0.00000000E+00
  0.00000000E+00  0.00000000E+00  0.00000000E+00
  0.00000000E+00  0.00000000E+00  0.00000000E+00
  0.00000000E+00  0.00000000E+00  0.00000000E+00
  0.00000000E+00  0.00000000E+00  0.00000000E+00
  0.00000000E+00  0.00000000E+00  0.00000000E+00
  0.00000000E+00  0.00000000E+00  0.00000000E+00
  0.00000000E+00  0.00000000E+00  0.00000000E+00
  0.00000000E+00  0.00000000E+00  0.00000000E+00
  0.00000000E+00  0.00000000E+00  0.00000000E+00
  0.00000000E+00  0.00000000E+00  0.00000000E+00
  0.00000000E+00  0.00000000E+00  0.00000000E+00
  0.00000000E+00  0.00000000E+00  0.00000000E+00
  0.00000000E+00  0.00000000E+00  0.00000000E+00
  0.00000000E+00  0.00000000E+00  0.00000000E+00
  0.00000000E+00  0.00000000E+00  0.00000000E+00
  0.00000000E+00  0.00000000E+00  0.00000000E+00
  0.00000000E+00  0.00000000E+00  0.00000000E+00
  0.00000000E+00  0.00000000E+00  0.00000000E+00
  0.00000000E+00  0.00000000E+00  0.00000000E+00
  0.00000000E+00  0.00000000E+00  0.00000000E+00
  0.00000000E+00  0.00000000E+00  0.00000000E+00
  0.00000000E+00  0.00000000E+00  0.00000000E+00
  0.00000000E+00  0.00000000E+00  0.00000000E+00
  0.00000000E+00  0.00000000E+00  0.00000000E+00
  0.00000000E+00  0.00000000E+00  0.00000000E+00
  0.00000000E+00  0.00000000E+00  0.00000000E+00
  0.00000000E+00  0.00000000E+00  0.00000000E+00
  0.00000000E+00  0.00000000E+00  0.00000000E+00
  0.00000000E+00  0.00000000E+00  0.00000000E+00
  0.00000000E+00  0.00000000E+00  0.00000000E+00
  0.00000000E+00  0.00000000E+00  0.00000000E+00
  0.00000000E+00  0.00000000E+00  0.00000000E+00
  0.00000000E+00  0.00000000E+00  0.00000000E+00
  0.00000000E+00  0.00000000E+00  0.00000000E+00
  0.00000000E+00  0.00000000E+00  0.00000000E+00
  0.00000000E+00  0.00000000E+00  0.00000000E+00
  0.00000000E+00  0.00000000E+00  0.00000000E+00
  0.00000000E+00  0.00000000E+00  0.00000000E+00
  0.00000000E+00  0.00000000E+00  0.00000000E+00
  0.00000000E+00  0.00000000E+00  0.00000000E+00
  0.00000000E+00  0.00000000E+00  0.00000000E+00
  0.00000000E+00  0.00000000E+00  0.00000000E+00
  0.00000000E+00  0.00000000E+00  0.00000000E+00
  0.00000000E+00  0.00000000E+00  0.00000000E+00
  0.00000000E+00  0.00000000E+00  0.00000000E+00
  0.00000000E+00  0.00000000E+00  0.00000000E+00
  0.00000000E+00  0.00000000E+00  0.00000000E+00
  0.00000000E+00  0.00000000E+00  0.00000000E+00
  0.00000000E+00  0.00000000E+00  0.00000000E+00
  0.00000000E+00  0.00000000E+00  0.00000000E+00
  0.00000000E+00  0.00000000E+00  0.00000000E+00
  0.00000000E+00  0.00000000E+00  0.00000000E+00
  0.00000000E+00  0.00000000E+00  0.00000000E+00
  0.00000000E+00  0.00000000E+00  0.00000000E+00
  0.00000000E+00  0.00000000E+00  0.00000000E+00
  0.00000000E+00  0.00000000E+00  0.00000000E+00
  0.00000000E+00  0.00000000E+00  0.00000000E+00
  0.00000000E+00  0.00000000E+00  0.00000000E+00
  0.00000000E+00  0.00000000E+00  0.00000000E+00
  0.00000000E+00  0.00000000E+00  0.00000000E+00
  0.00000000E+00  0.00000000E+00  0.00000000E+00
  0.00000000E+00  0.00000000E+00  0.00000000E+00
  0.00000000E+00  0.00000000E+00  0.00000000E+00
  0.00000000E+00  0.00000000E+00  0.00000000E+00
  0.00000000E+00  0.00000000E+00  0.00000000E+00
  0.00000000E+00  0.00000000E+00  0.00000000E+00
  0.00000000E+00  0.00000000E+00  0.00000000E+00
  0.00000000E+00  0.00000000E+00  0.00000000E+00
  0.00000000E+00  0.00000000E+00  0.00000000E+00
  0.00000000E+00  0.00000000E+00  0.00000000E+00
  0.00000000E+00  0.00000000E+00  0.00000000E+00
  0.00000000E+00  0.00000000E+00  0.00000000E+00
  0.00000000E+00  0.00000000E+00  0.00000000E+00
  0.00000000E+00  0.00000000E+00  0.00000000E+00
  0.00000000E+00  0.00000000E+00  0.00000000E+00
  0.00000000E+00  0.00000000E+00  0.00000000E+00
  0.00000000E+00  0.00000000E+00  0.00000000E+00
  0.00000000E+00  0.00000000E+00  0.00000000E+00
  0.00000000E+00  0.00000000E+00  0.00000000E+00
  0.00000000E+00  0.00000000E+00  0.00000000E+00
  0.00000000E+00  0.00000000E+00  0.00000000E+00
  0.00000000E+00  0.00000000E+00  0.00000000E+00
  0.00000000E+00  0.00000000E+00  0.00000000E+00
  0.00000000E+00  0.00000000E+00  0.00000000E+00
  0.00000000E+00  0.00000000E+00  0.00000000E+00
  0.00000000E+00  0.00000000E+00  0.00000000E+00
  0.00000000E+00  0.00000000E+00  0.00000000E+00
  0.00000000E+00  0.00000000E+00  0.00000000E+00
  0.00000000E+00  0.00000000E+00  0.00000000E+00
  0.00000000E+00  0.00000000E+00  0.00000000E+00
  0.00000000E+00  0.00000000E+00  0.00000000E+00
  0.00000000E+00  0.00000000E+00  0.00000000E+00
  0.00000000E+00  0.00000000E+00  0.00000000E+00
  0.00000000E+00  0.00000000E+00  0.00000000E+00
  0.00000000E+00  0.00000000E+00  0.00000000E+00
  0.00000000E+00  0.00000000E+00  0.00000000E+00
  0.00000000E+00  0.00000000E+00  0.00000000E+00
  0.00000000E+00  0.00000000E+00  0.00000000E+00
  0.00000000E+00  0.00000000E+00  0.00000000E+00
  0.00000000E+00  0.00000000E+00  0.00000000E+00
  0.00000000E+00  0.00000000E+00  0.00000000E+00
  0.00000000E+00  0.00000000E+00  0.00000000E+00
  0.00000000E+00  0.00000000E+00  0.00000000E+00
  0.00000000E+00  0.00000000E+00  0.00000000E+00
  0.00000000E+00  0.00000000E+00  0.00000000E+00
  0.00000000E+00  0.00000000E+00  0.00000000E+00
  0.00000000E+00  0.00000000E+00  0.00000000E+00
  0.00000000E+00  0.00000000E+00  0.00000000E+00
  0.00000000E+00  0.00000000E+00  0.00000000E+00
  0.00000000E+00  0.00000000E+00  0.00000000E+00
  0.00000000E+00  0.00000000E+00  0.00000000E+00
  0.00000000E+00  0.00000000E+00  0.00000000E+00
  0.00000000E+00  0.00000000E+00  0.00000000E+00
  0.00000000E+00  0.00000000E+00  0.00000000E+00
  0.00000000E+00  0.00000000E+00  0.00000000E+00
  0.00000000E+00  0.00000000E+00  0.00000000E+00
  0.00000000E+00  0.00000000E+00  0.00000000E+00
  0.00000000E+00  0.00000000E+00  0.00000000E+00
  0.00000000E+00  0.00000000E+00  0.00000000E+00
  0.00000000E+00  0.00000000E+00  0.00000000E+00
  0.00000000E+00  0.00000000E+00  0.00000000E+00
  0.00000000E+00  0.00000000E+00  0.00000000E+00
  0.00000000E+00  0.00000000E+00  0.00000000E+00
  0.00000000E+00  0.00000000E+00  0.00000000E+00
  0.00000000E+00  0.00000000E+00  0.00000000E+00
  0.00000000E+00  0.00000000E+00  0.00000000E+00
  0.00000000E+00  0.00000000E+00  0.00000000E+00
  0.00000000E+00  0.00000000E+00  0.00000000E+00
  0.00000000E+00  0.00000000E+00  0.00000000E+00
  0.00000000E+00  0.00000000E+00  0.00000000E+00
  0.00000000E+00  0.00000000E+00  0.00000000E+00
