Ta  N Ru Cu                             
   1.00000000000000     
     9.0548154099999998    0.0000000000000000    0.0000000000000000
     0.0000000000000000   11.6775998899999998    0.0000000000000000
     0.0000000000000000    0.0000000000000000   23.4818170799999990
   Ta   N    Ru   Cu
    60    60    16     1
Selective dynamics
Direct
  0.0000000000000000  0.0000000000000000  0.2546926809530987   F   F   F
  0.6670845899906297  0.1250000003211298  0.2638822399803757   F   F   F
  0.3329153514769843  0.1250000003211298  0.2638822399803757   F   F   F
  0.4999999994478088  0.2499999997859135  0.3618861993156202   F   F   F
  0.1650707596845180  0.1250000003211298  0.3684425577811794   F   F   F
  0.8349292403154820  0.1250000003211298  0.3684425577811794   F   F   F
  0.0006313253414623  0.2501520164079293  0.4798336439515329   T   T   T
  0.6641913353091313  0.1250870526316565  0.4778183719025880   T   T   T
  0.3349029778177876  0.1250309261902005  0.4779836772010413   T   T   T
  0.4973727533344342  0.2505034721568384  0.5900191179539827   T   T   T
  0.1680898627861699  0.1250246334380539  0.5902585343676957   T   T   T
  0.8319778949999691  0.1252901856786233  0.5888587643572719   T   T   T
  0.9921939222435896  0.2489970345123492  0.6997494375109228   T   T   T
  0.6618542598565007  0.1253583256219326  0.6989900731376140   T   T   T
  0.3300478597190428  0.1251149002057430  0.7046183669492079   T   T   T
  0.0000000000000000  0.2499999997859135  0.2546926809530987   F   F   F
  0.6670845899906297  0.3750000001070433  0.2638822399803757   F   F   F
  0.3329153514769843  0.3750000001070433  0.2638822399803757   F   F   F
  0.4999999994478088  0.5000000004281731  0.3618861993156202   F   F   F
  0.1650707596845180  0.3750000001070433  0.3684425577811794   F   F   F
  0.8349292403154820  0.3750000001070433  0.3684425577811794   F   F   F
  0.0005253515165153  0.5001590550815000  0.4799313662855706   T   T   T
  0.6643254839283665  0.3752114847061955  0.4780088355898943   T   T   T
  0.3349212597583743  0.3751592957665900  0.4781675783075955   T   T   T
  0.4978945554364835  0.4999871768831654  0.5905845889520162   T   T   T
  0.1675870522581216  0.3753097461574759  0.5905964931160606   T   T   T
  0.8319506612634701  0.3754854290252872  0.5892697920919492   T   T   T
  0.9892637092731005  0.4976788835675408  0.7020527736384458   T   T   T
  0.6654285319993092  0.3758386920876871  0.6998002256040103   T   T   T
  0.3296783472967646  0.3748955731397782  0.7054424821592332   T   T   T
  0.0000000000000000  0.5000000004281731  0.2546926809530987   F   F   F
  0.6670845899906297  0.6249999998929567  0.2638822399803757   F   F   F
  0.3329153514769843  0.6249999998929567  0.2638822399803757   F   F   F
  0.4999999994478088  0.7500000002140865  0.3618861993156202   F   F   F
  0.1650707596845180  0.6249999998929567  0.3684425577811794   F   F   F
  0.8349292403154820  0.6249999998929567  0.3684425577811794   F   F   F
  0.0004970766090076  0.7499887102788094  0.4799403529691444   T   T   T
  0.6642673183406318  0.6250759852801883  0.4780407346092622   T   T   T
  0.3347484262069526  0.6250775305922779  0.4782431466194446   T   T   T
  0.4973277586321928  0.7502308308115609  0.5904899260042106   T   T   T
  0.1674484085967465  0.6250843072125567  0.5908726424490943   T   T   T
  0.8322165488762970  0.6252466616056330  0.5897954340683342   T   T   T
  0.9887273040539534  0.7515191673895865  0.7019961811329227   T   T   T
  0.6665321030720157  0.6261969282553678  0.7021014582703515   T   T   T
  0.3281862917009928  0.6245495950101592  0.7051908931621642   T   T   T
  0.0000000000000000  0.7500000002140865  0.2546926809530987   F   F   F
  0.6670845899906297  0.8750000005352163  0.2638822399803757   F   F   F
  0.3329153514769843  0.8750000005352163  0.2638822399803757   F   F   F
  0.4999999994478088  0.0000000000000000  0.3618861993156202   F   F   F
  0.1650707596845180  0.8750000005352163  0.3684425577811794   F   F   F
  0.8349292403154820  0.8750000005352163  0.3684425577811794   F   F   F
  0.0006734663548406  0.9999234343709050  0.4798383843416371   T   T   T
  0.6642802219596478  0.8749436967419931  0.4779957627896720   T   T   T
  0.3347672985049526  0.8748883203525759  0.4781484219051474   T   T   T
  0.4968729983140063  0.0001474033191774  0.5899872677672198   T   T   T
  0.1675547717999266  0.8748702600119785  0.5906940135003027   T   T   T
  0.8316009439008367  0.8750357473713598  0.5892411611978794   T   T   T
  0.9910555194603483  0.0003137859026957  0.6995916368487669   T   T   T
  0.6634403892019639  0.8757399170056031  0.6996925382943914   T   T   T
  0.3278055190008486  0.8748124667537478  0.7056370626391097   T   T   T
  0.8141011533980276  0.0000000000000000  0.3013105672926031   F   F   F
  0.4999999994478088  0.0000000000000000  0.2564174481620327   F   F   F
  0.1858988466019724  0.0000000000000000  0.3013105672926031   F   F   F
  0.3088456122590841  0.2499999997859135  0.4099867722441957   F   F   F
  0.0000000000000000  0.2499999997859135  0.3930971035158137   F   F   F
  0.6911543877409159  0.2499999997859135  0.4099867722441957   F   F   F
  0.8016656931650291  0.2503186237969039  0.5213529847393047   T   T   T
  0.4993439131700909  0.2501177635225905  0.5024659066068311   T   T   T
  0.1986204087238944  0.2503176267707564  0.5224376971474729   T   T   T
  0.3029112344780129  0.2502734394421888  0.6349878113176449   T   T   T
  0.9992190663702669  0.2503776058384920  0.6119014979165629   T   T   T
  0.6951993898697324  0.2504878685262495  0.6318290118593916   T   T   T
  0.7975001893448125  0.2487170845355775  0.7448437191558154   T   T   T
  0.5010376949300525  0.2507441890495729  0.7243986353227015   T   T   T
  0.1901721607591960  0.2487339103397570  0.7382353224437203   T   T   T
  0.8141011533980276  0.2499999997859135  0.3013105672926031   F   F   F
  0.4999999994478088  0.2499999997859135  0.2564174481620327   F   F   F
  0.1858988466019724  0.2499999997859135  0.3013105672926031   F   F   F
  0.3088456122590841  0.5000000004281731  0.4099867722441957   F   F   F
  0.0000000000000000  0.5000000004281731  0.3930971035158137   F   F   F
  0.6911543877409159  0.5000000004281731  0.4099867722441957   F   F   F
  0.8018488685600547  0.5003849560874913  0.5217252934583562   T   T   T
  0.4994033926930307  0.5001821402519158  0.5028508197400844   T   T   T
  0.1981902870736979  0.5000792415223443  0.5227816301993249   T   T   T
  0.3030684375874661  0.5000266327556296  0.6354687478257057   T   T   T
  0.9988160366642006  0.5000953772562982  0.6136992074017769   T   T   T
  0.6956004923268121  0.5010525782859021  0.6327552424992366   T   T   T
  0.7946390220394455  0.4980143671316195  0.7463712837954345   T   T   T
  0.5015656930667183  0.5008821606110824  0.7245677189256163   T   T   T
  0.1879981799052377  0.4993289060358697  0.7391301294145652   T   T   T
  0.8141011533980276  0.5000000004281731  0.3013105672926031   F   F   F
  0.4999999994478088  0.5000000004281731  0.2564174481620327   F   F   F
  0.1858988466019724  0.5000000004281731  0.3013105672926031   F   F   F
  0.3088456122590841  0.7500000002140865  0.4099867722441957   F   F   F
  0.0000000000000000  0.7500000002140865  0.3930971035158137   F   F   F
  0.6911543877409159  0.7500000002140865  0.4099867722441957   F   F   F
  0.8018422019490561  0.7498854643496292  0.5217575017244339   T   T   T
  0.4993118427840841  0.7500359499643575  0.5028423825619436   T   T   T
  0.1981232692377200  0.7499111314185040  0.5227820985853446   T   T   T
  0.3026905433863498  0.7500526064594114  0.6353710087284521   T   T   T
  0.9985998025671903  0.7502277529132257  0.6139094124481630   T   T   T
  0.6948871899224280  0.7498519567663201  0.6326035873500655   T   T   T
  0.7933801879372060  0.7567671993185993  0.7450825499983144   T   T   T
  0.4996083654346891  0.7498799569622941  0.7252262680151657   T   T   T
  0.1872205635425477  0.7483699487104564  0.7395696811750067   T   T   T
  0.8141011533980276  0.7500000002140865  0.3013105672926031   F   F   F
  0.4999999994478088  0.7500000002140865  0.2564174481620327   F   F   F
  0.1858988466019724  0.7500000002140865  0.3013105672926031   F   F   F
  0.3088456122590841  0.0000000000000000  0.4099867722441957   F   F   F
  0.0000000000000000  0.0000000000000000  0.3930971035158137   F   F   F
  0.6911543877409159  0.0000000000000000  0.4099867722441957   F   F   F
  0.8016961341665515  0.0000286450337160  0.5213056373442468   T   T   T
  0.4992334641654688 -0.0000000743984264  0.5024571102625877   T   T   T
  0.1986590647615503  0.9998328548721854  0.5224982741936421   T   T   T
  0.3028028305028065  0.9995943800941568  0.6352252846254560   T   T   T
  0.9987985487521078  0.9998477911823409  0.6119732806139176   T   T   T
  0.6945032537841368  0.0004675203906203  0.6314951664991482   T   T   T
  0.7961879454434480  0.0041924264073544  0.7428079699844701   T   T   T
  0.5007007642977686  0.9997127302437571  0.7247429755668767   T   T   T
  0.1887141215631622  0.0012943615448224  0.7383687101920423   T   T   T
  0.1380628080546775  0.0151011428528897  0.8164904330233854   T   T   T
  0.5855741978145584  0.0004112307527575  0.8034636263265530   T   T   T
  0.8859990448916993  0.1232852896531099  0.7992586375564200   T   T   T
  0.1379673888032784  0.4906821379500808  0.8182750976746196   T   T   T
  0.5756158694831545  0.4893869371045629  0.8039102171755004   T   T   T
  0.9580268201142712  0.7484024086440312  0.8694417047431677   T   T   T
  0.1369034203998418  0.2392188884905075  0.8171330407585761   T   T   T
  0.5782829129305419  0.2523567399088144  0.8037819616293159   T   T   T
  0.8945883167603615  0.3586432952964966  0.8013941322596793   T   T   T
  0.1811733623859754  0.7528708776101022  0.8226766739311661   T   T   T
  0.5737104865255647  0.7516956243867214  0.8050397294013567   T   T   T
  0.8767324666476682  0.8756806905356905  0.8033265257026999   T   T   T
  0.3688528569805078  0.8929416355501877  0.8392650314003299   T   T   T
  0.3737369286090983  0.6153975047931787  0.8398827189234951   T   T   T
  0.3603366964922584  0.3743283377407959  0.8364756025801402   T   T   T
  0.3746836074041473  0.1262880168194441  0.8377210685467456   T   T   T
  0.8576637976168616  0.5795105874465711  0.8204581489419998   T   T   T
 
  0.00000000E+00  0.00000000E+00  0.00000000E+00
  0.00000000E+00  0.00000000E+00  0.00000000E+00
  0.00000000E+00  0.00000000E+00  0.00000000E+00
  0.00000000E+00  0.00000000E+00  0.00000000E+00
  0.00000000E+00  0.00000000E+00  0.00000000E+00
  0.00000000E+00  0.00000000E+00  0.00000000E+00
  0.00000000E+00  0.00000000E+00  0.00000000E+00
  0.00000000E+00  0.00000000E+00  0.00000000E+00
  0.00000000E+00  0.00000000E+00  0.00000000E+00
  0.00000000E+00  0.00000000E+00  0.00000000E+00
  0.00000000E+00  0.00000000E+00  0.00000000E+00
  0.00000000E+00  0.00000000E+00  0.00000000E+00
  0.00000000E+00  0.00000000E+00  0.00000000E+00
  0.00000000E+00  0.00000000E+00  0.00000000E+00
  0.00000000E+00  0.00000000E+00  0.00000000E+00
  0.00000000E+00  0.00000000E+00  0.00000000E+00
  0.00000000E+00  0.00000000E+00  0.00000000E+00
  0.00000000E+00  0.00000000E+00  0.00000000E+00
  0.00000000E+00  0.00000000E+00  0.00000000E+00
  0.00000000E+00  0.00000000E+00  0.00000000E+00
  0.00000000E+00  0.00000000E+00  0.00000000E+00
  0.00000000E+00  0.00000000E+00  0.00000000E+00
  0.00000000E+00  0.00000000E+00  0.00000000E+00
  0.00000000E+00  0.00000000E+00  0.00000000E+00
  0.00000000E+00  0.00000000E+00  0.00000000E+00
  0.00000000E+00  0.00000000E+00  0.00000000E+00
  0.00000000E+00  0.00000000E+00  0.00000000E+00
  0.00000000E+00  0.00000000E+00  0.00000000E+00
  0.00000000E+00  0.00000000E+00  0.00000000E+00
  0.00000000E+00  0.00000000E+00  0.00000000E+00
  0.00000000E+00  0.00000000E+00  0.00000000E+00
  0.00000000E+00  0.00000000E+00  0.00000000E+00
  0.00000000E+00  0.00000000E+00  0.00000000E+00
  0.00000000E+00  0.00000000E+00  0.00000000E+00
  0.00000000E+00  0.00000000E+00  0.00000000E+00
  0.00000000E+00  0.00000000E+00  0.00000000E+00
  0.00000000E+00  0.00000000E+00  0.00000000E+00
  0.00000000E+00  0.00000000E+00  0.00000000E+00
  0.00000000E+00  0.00000000E+00  0.00000000E+00
  0.00000000E+00  0.00000000E+00  0.00000000E+00
  0.00000000E+00  0.00000000E+00  0.00000000E+00
  0.00000000E+00  0.00000000E+00  0.00000000E+00
  0.00000000E+00  0.00000000E+00  0.00000000E+00
  0.00000000E+00  0.00000000E+00  0.00000000E+00
  0.00000000E+00  0.00000000E+00  0.00000000E+00
  0.00000000E+00  0.00000000E+00  0.00000000E+00
  0.00000000E+00  0.00000000E+00  0.00000000E+00
  0.00000000E+00  0.00000000E+00  0.00000000E+00
  0.00000000E+00  0.00000000E+00  0.00000000E+00
  0.00000000E+00  0.00000000E+00  0.00000000E+00
  0.00000000E+00  0.00000000E+00  0.00000000E+00
  0.00000000E+00  0.00000000E+00  0.00000000E+00
  0.00000000E+00  0.00000000E+00  0.00000000E+00
  0.00000000E+00  0.00000000E+00  0.00000000E+00
  0.00000000E+00  0.00000000E+00  0.00000000E+00
  0.00000000E+00  0.00000000E+00  0.00000000E+00
  0.00000000E+00  0.00000000E+00  0.00000000E+00
  0.00000000E+00  0.00000000E+00  0.00000000E+00
  0.00000000E+00  0.00000000E+00  0.00000000E+00
  0.00000000E+00  0.00000000E+00  0.00000000E+00
  0.00000000E+00  0.00000000E+00  0.00000000E+00
  0.00000000E+00  0.00000000E+00  0.00000000E+00
  0.00000000E+00  0.00000000E+00  0.00000000E+00
  0.00000000E+00  0.00000000E+00  0.00000000E+00
  0.00000000E+00  0.00000000E+00  0.00000000E+00
  0.00000000E+00  0.00000000E+00  0.00000000E+00
  0.00000000E+00  0.00000000E+00  0.00000000E+00
  0.00000000E+00  0.00000000E+00  0.00000000E+00
  0.00000000E+00  0.00000000E+00  0.00000000E+00
  0.00000000E+00  0.00000000E+00  0.00000000E+00
  0.00000000E+00  0.00000000E+00  0.00000000E+00
  0.00000000E+00  0.00000000E+00  0.00000000E+00
  0.00000000E+00  0.00000000E+00  0.00000000E+00
  0.00000000E+00  0.00000000E+00  0.00000000E+00
  0.00000000E+00  0.00000000E+00  0.00000000E+00
  0.00000000E+00  0.00000000E+00  0.00000000E+00
  0.00000000E+00  0.00000000E+00  0.00000000E+00
  0.00000000E+00  0.00000000E+00  0.00000000E+00
  0.00000000E+00  0.00000000E+00  0.00000000E+00
  0.00000000E+00  0.00000000E+00  0.00000000E+00
  0.00000000E+00  0.00000000E+00  0.00000000E+00
  0.00000000E+00  0.00000000E+00  0.00000000E+00
  0.00000000E+00  0.00000000E+00  0.00000000E+00
  0.00000000E+00  0.00000000E+00  0.00000000E+00
  0.00000000E+00  0.00000000E+00  0.00000000E+00
  0.00000000E+00  0.00000000E+00  0.00000000E+00
  0.00000000E+00  0.00000000E+00  0.00000000E+00
  0.00000000E+00  0.00000000E+00  0.00000000E+00
  0.00000000E+00  0.00000000E+00  0.00000000E+00
  0.00000000E+00  0.00000000E+00  0.00000000E+00
  0.00000000E+00  0.00000000E+00  0.00000000E+00
  0.00000000E+00  0.00000000E+00  0.00000000E+00
  0.00000000E+00  0.00000000E+00  0.00000000E+00
  0.00000000E+00  0.00000000E+00  0.00000000E+00
  0.00000000E+00  0.00000000E+00  0.00000000E+00
  0.00000000E+00  0.00000000E+00  0.00000000E+00
  0.00000000E+00  0.00000000E+00  0.00000000E+00
  0.00000000E+00  0.00000000E+00  0.00000000E+00
  0.00000000E+00  0.00000000E+00  0.00000000E+00
  0.00000000E+00  0.00000000E+00  0.00000000E+00
  0.00000000E+00  0.00000000E+00  0.00000000E+00
  0.00000000E+00  0.00000000E+00  0.00000000E+00
  0.00000000E+00  0.00000000E+00  0.00000000E+00
  0.00000000E+00  0.00000000E+00  0.00000000E+00
  0.00000000E+00  0.00000000E+00  0.00000000E+00
  0.00000000E+00  0.00000000E+00  0.00000000E+00
  0.00000000E+00  0.00000000E+00  0.00000000E+00
  0.00000000E+00  0.00000000E+00  0.00000000E+00
  0.00000000E+00  0.00000000E+00  0.00000000E+00
  0.00000000E+00  0.00000000E+00  0.00000000E+00
  0.00000000E+00  0.00000000E+00  0.00000000E+00
  0.00000000E+00  0.00000000E+00  0.00000000E+00
  0.00000000E+00  0.00000000E+00  0.00000000E+00
  0.00000000E+00  0.00000000E+00  0.00000000E+00
  0.00000000E+00  0.00000000E+00  0.00000000E+00
  0.00000000E+00  0.00000000E+00  0.00000000E+00
  0.00000000E+00  0.00000000E+00  0.00000000E+00
  0.00000000E+00  0.00000000E+00  0.00000000E+00
  0.00000000E+00  0.00000000E+00  0.00000000E+00
  0.00000000E+00  0.00000000E+00  0.00000000E+00
  0.00000000E+00  0.00000000E+00  0.00000000E+00
  0.00000000E+00  0.00000000E+00  0.00000000E+00
  0.00000000E+00  0.00000000E+00  0.00000000E+00
  0.00000000E+00  0.00000000E+00  0.00000000E+00
  0.00000000E+00  0.00000000E+00  0.00000000E+00
  0.00000000E+00  0.00000000E+00  0.00000000E+00
  0.00000000E+00  0.00000000E+00  0.00000000E+00
  0.00000000E+00  0.00000000E+00  0.00000000E+00
  0.00000000E+00  0.00000000E+00  0.00000000E+00
  0.00000000E+00  0.00000000E+00  0.00000000E+00
  0.00000000E+00  0.00000000E+00  0.00000000E+00
  0.00000000E+00  0.00000000E+00  0.00000000E+00
  0.00000000E+00  0.00000000E+00  0.00000000E+00
  0.00000000E+00  0.00000000E+00  0.00000000E+00
  0.00000000E+00  0.00000000E+00  0.00000000E+00
  0.00000000E+00  0.00000000E+00  0.00000000E+00
  0.00000000E+00  0.00000000E+00  0.00000000E+00
