Ta  N  W Cu                             
   1.00000000000000     
    18.1096308199999996    0.0000000000000000    0.0000000000000000
     0.0000000000000000   23.3551997799999995    0.0000000000000000
     0.0000000000000000    0.0000000000000000   30.4818171199999988
   Ta   N    W    Cu
   216   240    24     2
Direct
  0.0000324548340842  0.9999953710847436  0.1978696601374139
  0.3343904315382105  0.0624527196182214  0.2033259633150664
  0.1656471383583096  0.0624426498819588  0.2033170453049564
  0.2501117522736465  0.1250245700713251  0.2785064112576094
  0.0827199908311371  0.0624509494275856  0.2846714733957825
  0.4173293728215981  0.0624732974510778  0.2847085035816548
  0.0000509417540826  0.1251510930377577  0.3703037985842386
  0.3326189656968879  0.0624442729636172  0.3691836518630396
  0.1675736027569812  0.0624692853511633  0.3690750184568046
  0.2502976911897150  0.1250663865651305  0.4555682058249673
  0.0836329822245077  0.0626052416324825  0.4552150078731643
  0.4166565389373744  0.0625669266256565  0.4555122864273926
  0.9996523712101890  0.1283927854617772  0.5414575538549897
  0.3347726243769173  0.0617603978902252  0.5430523204847617
  0.1639609970909603  0.0632529079415036  0.5426969052010548
  0.0000479808526137  0.1248523478261490  0.1977295305823290
  0.3341093536937549  0.1872574129854812  0.2030611603821342
  0.1659630787470832  0.1872542409370581  0.2030368631220085
  0.2501555482288822  0.2500059455893648  0.2781208342810402
  0.0827352277845463  0.1874125621671183  0.2842782274251121
  0.4173534755552950  0.1874124542073474  0.2843586038045416
  0.0000540816210446  0.2501640915227838  0.3697025354183978
  0.3328484142952775  0.1874264058085231  0.3687813829896456
  0.1674943240643998  0.1874500015791796  0.3685815538199151
  0.2501902413723300  0.2505491753909226  0.4543738353198634
  0.0838905012578834  0.1878447362653120  0.4546455110283034
  0.4162995820286639  0.1877169399767808  0.4550846221414844
  0.9996716597994393  0.2526993280027057  0.5407690474652114
  0.0000404501467131  0.2497957140521265  0.1973683118484431
  0.3341032553064593  0.3123434656431030  0.2026610792174139
  0.1660013616798608  0.3123185705983218  0.2026380737584361
  0.2501280259848002  0.3749765701102277  0.2777725940485567
  0.0826978968472574  0.3124125694291919  0.2838409699548663
  0.4174166396825001  0.3124052324622824  0.2839151506696922
  0.0000842761593844  0.3751400382425700  0.3693114987454749
  0.3327508298880417  0.3125093339685989  0.3681887199234453
  0.1674869361669309  0.3125117021187833  0.3680337350760041
  0.2500318100841596  0.3753357405681967  0.4537708603829955
  0.0837583736096192  0.3129228994018902  0.4541058633494544
  0.4167692855365601  0.3129823304380324  0.4543888778918657
  0.0000382662180272  0.3759244395055958  0.5407646340112180
  0.0000569507283856  0.3748735484996004  0.1970297872387903
  0.3343155605335326  0.4373878048425581  0.2024526229541763
  0.1657796260036619  0.4373837094360198  0.2024200828058014
  0.2500555665809898  0.0000292117089202  0.2786974595361826
  0.0826613938922449  0.4374689348846701  0.2836206397942433
  0.4174180433811188  0.4374665990785047  0.2837060766371096
  0.0000350072510074  0.9999686647712664  0.3706229673071704
  0.3327886517251812  0.4375164925612225  0.3679661543939119
  0.1674976529889207  0.4375389611240692  0.3677862841647368
  0.2499964537628045  0.9999864975309336  0.4559651966961340
  0.0839058014929464  0.4376860896572623  0.4539136276400768
  0.4166501868957866  0.4376435064923356  0.4542568566105416
  0.9998346618816925  0.0000716097711191  0.5414606603901504
  0.0000243313200343  0.4999851513092182  0.1969044416724799
  0.3342719249327786  0.5626030055140987  0.2024534707696262
  0.1658359800712219  0.5626157974011079  0.2024524560027743
  0.2500894331046908  0.6250194613387308  0.2777193213374716
  0.0826352031644504  0.5625065886624725  0.2836269147428254
  0.4174392641195155  0.5624972733550209  0.2836893903214985
  0.0000590198855690  0.6248532987098798  0.3693205616496087
  0.3327761119756261  0.5624788669455967  0.3680316556166545
  0.1674548509797518  0.5624642402773148  0.3678168144649661
  0.2502907438141335  0.6247314918742077  0.4538972347124854
  0.0838675291490532  0.5623015550225219  0.4539497429321884
  0.4165142560112045  0.5624407913912393  0.4542687478010308
  0.9998652254945668  0.6238746100313364  0.5407087428738322
  0.0000497480430894  0.6250914826031249  0.1970098209145306
  0.3340881779827924  0.6876471932575257  0.2026462015988031
  0.1659994372678000  0.6876624877855946  0.2026464073033836
  0.2500578515280552  0.7499846861881565  0.2780254626839067
  0.0826555757475731  0.6875756716106594  0.2838257657023249
  0.4173817589472009  0.6875501072756052  0.2838637070613999
  0.0000411738755446  0.7498207577218778  0.3697203998246223
  0.3327426101890012  0.6874685412704693  0.3681244364776006
  0.1673976990885393  0.6874585854977155  0.3680165900686845
  0.2499841619713408  0.7494847456484592  0.4541781318438467
  0.0837524764981694  0.6870819934329688  0.4541161556764592
  0.4167261819038615  0.6871617083111516  0.4543709918699150
  0.0000243661916315  0.7473590135838677  0.5409104302148222
  0.0000292523572227  0.7502038209006372  0.1973801542522509
  0.3341408463904472  0.8127422807547617  0.2030037101999156
  0.1658830560044393  0.8127457404891416  0.2029945027791342
  0.2500341758819928  0.8749766894191566  0.2783889240541200
  0.0826874195486482  0.8125747676173987  0.2842511293330432
  0.4173505000565925  0.8125741651472964  0.2842787023689368
  0.0000384128208140  0.8748353365843045  0.3703319576840656
  0.3327898658774231  0.8125234707236331  0.3685747715623862
  0.1673941382344779  0.8125354236970566  0.3685043783815516
  0.2499952648469730  0.8747241121971925  0.4552923164985643
  0.0839075691673727  0.8121140233858100  0.4547173068829053
  0.4162761674097339  0.8122279886335875  0.4547508446351145
  0.9999405701414261  0.8716275348191971  0.5415959791444465
  0.0000324590156282  0.8751675312822584  0.1976972245829884
  0.3344113033620175  0.9375403857571172  0.2033101915341291
  0.1656018038351732  0.9375312988061353  0.2032967895442752
  0.2501518963353746  0.4999551170245624  0.2777056851741406
  0.0826923476792203  0.9375420430928614  0.2846506195955598
  0.4173383044256411  0.9375470595993605  0.2846529375986435
  0.0000616262852517  0.4999798812495584  0.3692063080381871
  0.3326452665239827  0.9375211775885646  0.3690481206478822
  0.1675173776293306  0.9375092475886930  0.3690105316820294
  0.2503011261382966  0.5000573655317240  0.4537909257938324
  0.0835980675777037  0.9373316641384335  0.4552492786373250
  0.4165716073523313  0.9372665297299108  0.4553081171095741
  0.9999382353218991  0.5000794417509624  0.5409328540963756
  0.3352380100187915  0.9361491465144169  0.5426425319052939
  0.1643858797733984  0.9367833728061683  0.5427127959395861
  0.4999893187844933  0.9999997401560279  0.1978618062718951
  0.8343930357895815  0.0624357388351342  0.2032810057991554
  0.6656517493572807  0.0624271142688286  0.2032953362435421
  0.7500158516161761  0.1249689806055017  0.2783715395367210
  0.5826899584989604  0.0624592106982860  0.2846503652119736
  0.9173531407316773  0.0624388458428626  0.2846245757633667
  0.4999960285405933  0.1251109299442916  0.3704404156962156
  0.8325829726710978  0.0624649298288062  0.3690125889147637
  0.6674780873248665  0.0624465091436335  0.3690133201439423
  0.7502213810404044  0.1252361253816119  0.4552800512696678
  0.5837672977015202  0.0626497821674832  0.4553302728079629
  0.9164898058522297  0.0626416461587382  0.4552560300210828
  0.5007928472391399  0.1284805130274691  0.5423391130580626
  0.8355361260755885  0.0632208905432989  0.5427588495955931
  0.6648920320967093  0.0630220978075542  0.5425603590863446
  0.4999559454608402  0.1248219502218575  0.1977357490092544
  0.8341174260561033  0.1872491622814749  0.2029766953606824
  0.6659127276799595  0.1872361500563500  0.2030100980697682
  0.7499797962458743  0.2499642652303038  0.2779443502903973
  0.5826768474192363  0.1874004929107116  0.2842719011985153
  0.9173927152394938  0.1874071554677954  0.2842075564776536
  0.4999900104811488  0.2501579065317685  0.3698106748804193
  0.8327203160914607  0.1874653632695029  0.3684638016179846
  0.6673188935937873  0.1874349827874937  0.3685568020961867
  0.7501939001787505  0.2505383813864483  0.4541152343648918
  0.5839813867794703  0.1877458276773822  0.4548134458777113
  0.9162616369379819  0.1878836891068119  0.4546659647911540
  0.5008290843940841  0.2525863423308081  0.5404594098560622
  0.4999704896633617  0.2497927743415360  0.1973866813664387
  0.8340772133761831  0.3123315342584334  0.2025828110269075
  0.6658934943892660  0.3123324622706249  0.2025894024784307
  0.7499968442365983  0.3749787961948599  0.2776331491065491
  0.5826422441586914  0.3124006108375923  0.2838091133617695
  0.9174145381138246  0.3124072718583335  0.2837626217374947
  0.4999940608360163  0.3751111902542235  0.3694221917098162
  0.8327579932647140  0.3125266578484158  0.3679373657358909
  0.6673245821806617  0.3125146192017283  0.3679992406635932
  0.7501672771603012  0.3752858035186861  0.4536626999137852
  0.5837763270997485  0.3129217062149721  0.4541935629583094
  0.9164819178078645  0.3129358371779034  0.4541494182689263
  0.4998373145659230  0.3757559214928747  0.5417694418400458
  0.4999545779345098  0.3748569539501716  0.1970241043343748
  0.8342882753721881  0.4373529922391413  0.2023638795032170
  0.6656793696615040  0.4373446800619618  0.2023782677522448
  0.7500493196426490  0.9999829692562088  0.2786506731739280
  0.5826428356217832  0.4374672523172478  0.2835971453159942
  0.9174433313401167  0.4374767237369213  0.2835382874771284
  0.5000307596736562  0.9999841678753825  0.3706468034764256
  0.8327695650134359  0.4375261365072660  0.3677124905253564
  0.6673101113985851  0.4375064900714136  0.3677752780008419
  0.7501743207517322  0.9999872721299141  0.4559156783681146
  0.5839175539083641  0.4376574709442451  0.4540960857347542
  0.9163979874798187  0.4376895632136595  0.4539976156273866
  0.5000799565709926  0.0000102395225170  0.5413072752311621
  0.4999746870107771  0.4999549821022953  0.1969013633767034
  0.8342238980904710  0.5626288457225996  0.2023950280420550
  0.6657654544269249  0.5626277530046622  0.2023937456875302
  0.7500107817438106  0.6250552049468467  0.2775830251788207
  0.5825921442084194  0.5625071558355259  0.2835905214987733
  0.9174633647558679  0.5625077757364565  0.2835421131597329
  0.5000291320848476  0.6248328245278003  0.3694059266391392
  0.8327972275907669  0.5624495480852687  0.3677336344695803
  0.6673415231100179  0.5624635257742625  0.3678255184050485
  0.7501669050620734  0.6246519873441869  0.4536590711737745
  0.5839398346948812  0.5623728790329494  0.4540978067829968
  0.9163937172511325  0.5622863768309614  0.4540182723052766
  0.5008873969534875  0.6236689511106306  0.5414448932478351
  0.4999516064510274  0.6251166649410536  0.1970151314761708
  0.8340629140965845  0.6876589540812574  0.2026057731358364
  0.6659621147601058  0.6876554595627127  0.2026096366560566
  0.7500248486248822  0.7500287173806228  0.2779503978279081
  0.5826715241536391  0.6875596774967718  0.2837949122453551
  0.9174009200330744  0.6875788601071022  0.2837684412851544
  0.5000586793946482  0.7498512793098371  0.3697497555825962
  0.8327707293390176  0.6874596836534153  0.3679472702464750
  0.6673448574754133  0.6874828736398868  0.3679767700075445
  0.7501326655012690  0.7494678258618706  0.4541245404257097
  0.5837987595509659  0.6870945660716714  0.4542080926483507
  0.9164016379809112  0.6870480363362361  0.4541515147845132
  0.5001599306821447  0.7481839644582280  0.5406997966178224
  0.4999864834904102  0.7501690652710877  0.1973767648679043
  0.8341616601203796  0.8127408741216229  0.2029741104872258
  0.6658666521757013  0.8127441853276096  0.2029817275439783
  0.7500381256227513  0.8749895531513161  0.2783744861722255
  0.5827095801442539  0.8125825670602822  0.2842445378684033
  0.9173522278738062  0.8125795061693921  0.2842217198267107
  0.5000874592623390  0.8748413408276221  0.3703512677529233
  0.8327478205850483  0.8125262769449577  0.3685057986296840
  0.6673593491649825  0.8125408362262263  0.3685236259270113
  0.7501724581077980  0.8747505295273967  0.4553143969491558
  0.5840842014392891  0.8122414432388680  0.4547642569264241
  0.9162133350618475  0.8121052830409781  0.4547483718617897
  0.5000228511883762  0.8713223684375890  0.5421024543198811
  0.4999944373774241  0.8751919810176148  0.1976767600175933
  0.8344290605368343  0.9375095164119571  0.2032749720397220
  0.6656252244051259  0.9375366152057651  0.2032904812792040
  0.7499699421352020  0.4999665480296542  0.2775595151786732
  0.5826881426131365  0.9375498279506616  0.2846332383002945
  0.9173564320697238  0.9375458915547981  0.2846349222551510
  0.5000204899061700  0.5000268448875644  0.3693241526761994
  0.8325963109774293  0.9375050129610898  0.3690348398985108
  0.6675096858256424  0.9375307490158846  0.3690159876780541
  0.7501898789451857  0.5000409059783024  0.4535800103854513
  0.5836945922393895  0.9372778242095379  0.4553019654364334
  0.9165031193115354  0.9373314894530722  0.4552853817426765
  0.5009950855827157  0.5003443901552203  0.5408293447193415
  0.8354862587952425  0.9368423260854115  0.5427781958956217
  0.6648277173895067  0.9366384600407471  0.5427258665234405
  0.4059054834698443  0.0000198166438494  0.2330324583895020
  0.2500010225798093  0.9999907243810284  0.2010141962837935
  0.0941268859317930  0.0000020589603835  0.2330131803300901
  0.1549798410164911  0.1249394116870590  0.3163350557947666
  0.0000414749358484  0.1249920677665415  0.3036410709827422
  0.3452136305056683  0.1249443118798084  0.3164678062262638
  0.4011102698304256  0.1250730337699153  0.4031879349897096
  0.2501008405313030  0.1249928883380633  0.3879542875932458
  0.0990565941618584  0.1251112451556082  0.4028450900390865
  0.1522439502845216  0.1257861275210459  0.4882179101535371
  0.0000526936225071  0.1258761879278794  0.4737195569198462
  0.3480260928543615  0.1255217940892024  0.4890004962424470
  0.3990958509643860  0.1275515013843460  0.5720203912119359
  0.2488494045803478  0.1310724337571045  0.5583895701144286
  0.0988377300190919  0.1294137072405661  0.5701023013696940
  0.4058461375407418  0.1248724250910840  0.2328403023934271
  0.2500238765873206  0.1247257632106482  0.2000447081595453
  0.0941960332063374  0.1248636863960826  0.2327868699309690
  0.1549181467656950  0.2499224662465380  0.3158381084512456
  0.0000456599043162  0.2500063973543192  0.3031401234482729
  0.3453143175692617  0.2499221372664238  0.3159575074792045
  0.4011048072235326  0.2502015669694586  0.4025903411853946
  0.2501321033098094  0.2500199744241911  0.3871167061273937
  0.0990429706014027  0.2502625700278998  0.4023519394413384
  0.1527980066586423  0.2508449391653258  0.4873612267849765
  0.0000466852730767  0.2508007537333299  0.4732102645106195
  0.3472281238443315  0.2512446456604067  0.4877572054038950
  0.3973652654815041  0.2536586749242105  0.5700598415281206
  0.2492571412909186  0.2528580650530330  0.5577878830530949
  0.1007830900968472  0.2522990626709856  0.5688702087303383
  0.4057979086503423  0.2498113152967107  0.2324121415638771
  0.2500418558855344  0.2497755944305098  0.1996465804618950
  0.0942468471078968  0.2498034662695616  0.2323509958941159
  0.1547988859444160  0.3749912469252692  0.3154839565045293
  0.0000470106559121  0.3749834863994437  0.3027757122734229
  0.3453939350007218  0.3749720829294318  0.3156269685776039
  0.4012294154429981  0.3752041736239136  0.4023116909403868
  0.2500996779579197  0.3750607006087492  0.3865959524112483
  0.0990466244765926  0.3751864217782952  0.4020207655159282
  0.1530702678994018  0.3754869378482368  0.4870419387912364
  0.0001264388439068  0.3755703926438230  0.4731483329930271
  0.3469606297547969  0.3755453177604906  0.4871346738650004
  0.3973572797727414  0.3760155466122015  0.5692922380842091
  0.2499081648197006  0.3761108465310201  0.5574888555689697
  0.1018042897609561  0.3760379758741834  0.5686447026574868
  0.4058233553403383  0.3748637612837697  0.2321054128933113
  0.2500337829380754  0.3749228376458262  0.1993699304082668
  0.0942385218731516  0.3748614728040351  0.2320304958561721
  0.1549310565575084  0.0000068123967125  0.3165658639752209
  0.0000215874945724  0.9999896997507705  0.3039147894621479
  0.3451566672813442  0.0000207319795038  0.3165982658211419
  0.4010533101163176  0.9999815857306089  0.4031686212464010
  0.2500547343556718  0.9999545131484666  0.3881480653355283
  0.0991109573079711  0.9999707832393341  0.4031201363390551
  0.1516500823417530  0.9999517223870100  0.4885808393662288
  0.0000531779047606  0.9999765443029034  0.4736092944919648
  0.3482213402150123  0.9997694872677556  0.4884996501234014
  0.4021909479928567  0.9994453660111589  0.5705432970438977
  0.2499167079756575  0.0002424255668956  0.5583400203493483
  0.0972834574219732  0.9998744358948244  0.5707471528859571
  0.4058710116657309  0.4999804650212027  0.2320284981030980
  0.2500283063286304  0.4999739775999146  0.2000560168011347
  0.0942099745959979  0.4999888453754195  0.2319606402679071
  0.1548030528996520  0.6249819875267661  0.3154884680153813
  0.0000260152267302  0.6250066070073643  0.3027808828590253
  0.3453226471113169  0.6249525685014845  0.3156078796660893
  0.4012242242144382  0.6248502789296637  0.4023069706191862
  0.2500792539157075  0.6249481746519834  0.3866807531592187
  0.0989701322979357  0.6247681422385440  0.4020264642940177
  0.1530773907754082  0.6245299927033869  0.4869337067800501
  0.0000808013547626  0.6245012607888896  0.4730772549683451
  0.3473023398230239  0.6249810153967985  0.4875925880973995
  0.3972290542891059  0.6256455769612685  0.5703368936552451
  0.2492854164778819  0.6236434899879129  0.5575381799119299
  0.1014450808030958  0.6240262158930463  0.5686092716654514
  0.4058160262654482  0.6250959224838297  0.2320673135657572
  0.2500354168640229  0.6250756702066553  0.1992098044709536
  0.0942167314051616  0.6251162115406501  0.2320198979272803
  0.1548387598680989  0.7500387704929850  0.3158036499747041
  0.0000123150881635  0.7499896021923789  0.3031507685780497
  0.3452591049795117  0.7500195231930888  0.3158476357991518
  0.4011547784304881  0.7497091433421232  0.4024416433564397
  0.2500541695914507  0.7499337818622820  0.3869467435553275
  0.0990008437528189  0.7497461805952881  0.4023846261517150
  0.1530010772164374  0.7490878950732593  0.4874368526884965
  0.0000622815773141  0.7491410801534784  0.4733949977428367
  0.3470400888570637  0.7492653974190731  0.4873371012345800
  0.3984265358472499  0.7485062710186341  0.5687658900187103
  0.2500573467954439  0.7465527819562823  0.5577150936407662
  0.1013604169396274  0.7478633558010443  0.5688448758205524
  0.4057992010193274  0.7501746299307825  0.2323714007723794
  0.2500208379358639  0.7502358049889111  0.1996527357903162
  0.0942364679856951  0.7501809468759930  0.2323462471070670
  0.1548985118705772  0.8750598889935830  0.3162864075428686
  0.0000164955153537  0.8749856972610957  0.3036507480010542
  0.3451659525007287  0.8750626898809486  0.3163066868133129
  0.4011055324180575  0.8748829326766057  0.4029256455476400
  0.2500441820096668  0.8749910485920438  0.3877343360573704
  0.0990633432453976  0.8748410072458199  0.4028683940407234
  0.1522795847756271  0.8741283887750484  0.4882537498502373
  0.0000618246600936  0.8740663763306316  0.4738499390579065
  0.3476355262929900  0.8741561681474650  0.4882701051494323
  0.4002483766855462  0.8703394792046808  0.5702631701571264
  0.2497142924676723  0.8691999374921835  0.5581234320274717
  0.0993318172291708  0.8704070642743105  0.5700164075092076
  0.4058792365935489  0.8751188871466908  0.2327748412450106
  0.2500162856430848  0.8752484670046812  0.2000087055107755
  0.0941470443269878  0.8751311198247436  0.2327787821301044
  0.1547611060366521  0.5000104615574656  0.3154123857885978
  0.0000367740411562  0.4999832123651160  0.3026889378873534
  0.3454664114331223  0.5000216415712941  0.3155457759041909
  0.4011835467583680  0.5000376851734174  0.4021950793403377
  0.2501332818638176  0.5000099392008224  0.3865721644483457
  0.0990246820284284  0.5000190867466969  0.4019486178002936
  0.1531224213322488  0.5000099978975570  0.4869177538416167
  0.0001270418497654  0.4999768280826800  0.4732641186472648
  0.3471834564276932  0.4998369184977705  0.4873603945568306
  0.3970945899054712  0.4984956781732137  0.5700107416331051
  0.2494772274737329  0.5003050873172370  0.5575500560563640
  0.1015393555102762  0.4999699817833374  0.5687172655669528
  0.9058837401858426  0.9999888104806942  0.2329896127974678
  0.7500472577158419  0.9999671422611485  0.2009659073399988
  0.5941185150160067  0.0000096809604386  0.2329907995120735
  0.6549015191867440  0.1249198139921717  0.3162876075420300
  0.5000270822498791  0.1249824943268862  0.3037364646507470
  0.8451533396137734  0.1249157071007332  0.3162460952109640
  0.9010353483982314  0.1251459739747176  0.4028470659571042
  0.7500877986648646  0.1249924525413419  0.3877065659329375
  0.5990272106204415  0.1250933424604312  0.4029516627460765
  0.6526229854920800  0.1258280630461925  0.4882907551921463
  0.5002129176755403  0.1258040852534918  0.4743213577293375
  0.8478855820597317  0.1259052440512747  0.4882626471691367
  0.9005167331434976  0.1295833905494419  0.5700757155142782
  0.7504051933350198  0.1308824598691274  0.5581119162561166
  0.6005976252837257  0.1295217230712993  0.5700862469286960
  0.9058545914269729  0.1248472228301480  0.2327338526807310
  0.7500262725396993  0.1247187683117517  0.1999066456531082
  0.5941429832748639  0.1248503951294921  0.2327501177873685
  0.6548255179639852  0.2499240956011377  0.3157676183344549
  0.5000362622071037  0.2499891164763710  0.3032255097615320
  0.8452130810769845  0.2499275391108782  0.3157312591384169
  0.9010701071174552  0.2502895436965105  0.4023418776790777
  0.7500606504425278  0.2500586795778332  0.3868733752899587
  0.5990258853474231  0.2502116327387824  0.4023498776306909
  0.6532942617960771  0.2508449529214474  0.4872035678332409
  0.5002275249969514  0.2506101560113976  0.4730137879557077
  0.8472709969251682  0.2508961655495554  0.4874011227078512
  0.8986428143868324  0.2523067854111787  0.5688563853627784
  0.7502922531517129  0.2532566216505572  0.5575256435926690
  0.6022494135573595  0.2523537971662151  0.5683415092536066
  0.9057879009003216  0.2497985743860838  0.2322943033995131
  0.7500107862932950  0.2497653248095162  0.1996179903769217
  0.5941975395211898  0.2497886770584543  0.2323226282403255
  0.6547522357291413  0.3749720576048858  0.3154520834967300
  0.5000440002523661  0.3749752391066323  0.3028694092635291
  0.8453083626957536  0.3749913296928540  0.3154063328038745
  0.9011448698752815  0.3752056650790365  0.4020148904907686
  0.7500579485492835  0.3750592047045416  0.3864719613236502
  0.5989219933242538  0.3752035584906110  0.4021031940042334
  0.6532666655213362  0.3754552600422869  0.4869881907325322
  0.5002441374011752  0.3755365788593110  0.4738522163087211
  0.8470739438819663  0.3754986843201280  0.4869732878404918
  0.8983773692283705  0.3760487988735832  0.5684720522488078
  0.7502980269808504  0.3762522932498769  0.5572289162570314
  0.6020831386772869  0.3759349981253024  0.5686916559551136
  0.9058109861284862  0.3748634144680665  0.2319659202219952
  0.7499907573702984  0.3749118340168778  0.1991690770895715
  0.5941582484500216  0.3748557402566419  0.2320029880430283
  0.6549408034119182  0.9999888579483169  0.3165207234991669
  0.5000244440653816  0.0000098007811573  0.3039227684018826
  0.8451571956905113  0.9999769181557951  0.3165393514741552
  0.9009862896914740  0.9999666982282776  0.4031336108355674
  0.7500620914381599  0.9999917262189300  0.3880992114211494
  0.5990923632812084  0.9999647576316804  0.4030796980578515
  0.6520191398427713  0.9999115924243824  0.4884165541715646
  0.5001546939046051  0.9998691655907166  0.4734925531839096
  0.8484610145908036  0.9999886129861437  0.4886193319824628
  0.9025907419986936  0.9999908230567556  0.5708139951756763
  0.7501376419950319  0.9999871712974411  0.5584002760928826
  0.5975813225474553  0.9999196231852849  0.5703644038385889
  0.9058112476123128  0.4999853892744781  0.2319053097258958
  0.7499989856553029  0.4999642446525883  0.2000726571788363
  0.5941498226600501  0.4999892183516579  0.2319305633519875
  0.6547987771795505  0.6249735508735625  0.3154484109481146
  0.5000395235987511  0.6250062373820384  0.3028375495979745
  0.8452724938925300  0.6249949695987098  0.3154061882220631
  0.9011338536785374  0.6247536449307134  0.4020251933641603
  0.7500853457927477  0.6249382854291099  0.3864545393841539
  0.5989561986002414  0.6248275732693571  0.4021087846267761
  0.6533390947491426  0.6245601153861884  0.4870424699512697
  0.5002675094088289  0.6244028026371566  0.4735119188900754
  0.8470539879819867  0.6244698831363493  0.4869798537503129
  0.8983744933521720  0.6239657151433704  0.5685136564114543
  0.7504332559553006  0.6236934386226380  0.5572524864671493
  0.6028500994227244  0.6241595972696246  0.5685899047014402
  0.9058253541068311  0.6251208226063838  0.2319614466459612
  0.7500121468348055  0.6250911666918952  0.1990047782103517
  0.5941789198288063  0.6251032423819538  0.2319770645512946
  0.6548455758335905  0.7500460954364456  0.3157645642181137
  0.5000426803061231  0.7499716270938919  0.3031864441147221
  0.8452313526827595  0.7500536188952438  0.3157653054550664
  0.9010999239188493  0.7497164971684356  0.4023884770399064
  0.7500685748390836  0.7499193138678351  0.3868878716185620
  0.5990140311496788  0.7497428759782920  0.4023550416625312
  0.6532368003794389  0.7491161692455179  0.4872759146205041
  0.5002088962015563  0.7493474385216885  0.4732639018188820
  0.8471358707283940  0.7490781075408108  0.4874284883944497
  0.8987793360609118  0.7477358474537041  0.5687862520856655
  0.7501536375800697  0.7467212754580075  0.5576335963396204
  0.6015759775263660  0.7479867465925878  0.5685355381077173
  0.9057946844196181  0.7501948528089812  0.2323129785735603
  0.7500124091964793  0.7502577352359694  0.1996459574525815
  0.5942120191830043  0.7501875351785543  0.2323179659587922
  0.6549123138692394  0.8750764133899693  0.3162775723115701
  0.5000383006737223  0.8750103917057359  0.3036566274171051
  0.8451651792543444  0.8750640981534801  0.3162820138865570
  0.9010453620961059  0.8748348051217860  0.4028988933701854
  0.7500861241161090  0.8749775379327858  0.3877290533177913
  0.5990996049097035  0.8748938415029528  0.4029260332009557
  0.6525725578346453  0.8742457375054187  0.4883267429437979
  0.5001221331723684  0.8741046265658383  0.4741610055436070
  0.8478369141810660  0.8741211274919038  0.4883089951262889
  0.9006748028118139  0.8704024129383754  0.5701008767198132
  0.7503232472676444  0.8691690736930866  0.5581638962491695
  0.5998141940531241  0.8703186918872774  0.5701999642816631
  0.9058687211217844  0.8751309627194814  0.2327575248708627
  0.7500202076423790  0.8752501684023599  0.2000022689467684
  0.5941418327429417  0.8751334794548171  0.2327479578271863
  0.6546731441193643  0.5000235183494723  0.3153691828766441
  0.5000372571081471  0.4999779178018784  0.3027615460121922
  0.8453458598930439  0.5000033760481273  0.3153232238904877
  0.9011316470368129  0.5000007017209072  0.4019655276606855
  0.7500708667170954  0.4999877833664854  0.3863694126535862
  0.5989935857905024  0.4999910124680511  0.4019744587559302
  0.6534429847772003  0.5000496029913819  0.4868505034689363
  0.5002725477391152  0.5002535142862570  0.4731776628471422
  0.8471029025239005  0.5000057491777312  0.4869762371994568
  0.8984203294486619  0.4999668522108323  0.5686159339368402
  0.7503578977933003  0.5000735585652833  0.5572352129141223
  0.6028436702881947  0.4997194315658930  0.5683027427807517
  0.3312436547384081  0.1888554157178248  0.5393200681296193
  0.1639160967613833  0.1889211375775091  0.5401167595748149
  0.3335470845718973  0.3146596666451345  0.5394985859230488
  0.1646767457193405  0.3133090919509485  0.5393864412115619
  0.3336949815936521  0.4369309583556458  0.5393732699537992
  0.1648582075862564  0.4379851071109258  0.5391748789931654
  0.3313543801131686  0.5623354768365729  0.5384397284840787
  0.1646184344617296  0.5621482864555816  0.5391738085345565
  0.3339900153570881  0.6879033051412833  0.5396322293874007
  0.1649507614445866  0.6864087387645483  0.5393852949915257
  0.3348465105529002  0.8113855039634714  0.5399983219708915
  0.1649868597514512  0.8111470809278956  0.5401389808127490
  0.8349309896712001  0.1888708586026837  0.5401275825627394
  0.6655551241475308  0.1887852202827744  0.5400944165835497
  0.8347396976128820  0.3133575478845856  0.5393686171427561
  0.6657890589416979  0.3136367805045310  0.5391944129594677
  0.8347288345356958  0.4378857609646261  0.5391834232039443
  0.6658234278709898  0.4376181045412224  0.5390360931150440
  0.8347009177691618  0.5621379139386065  0.5392011196136153
  0.6659051470819435  0.5621949909774102  0.5392148205683753
  0.8347371308033757  0.6865610988774620  0.5393632617461463
  0.6656703632917029  0.6868471901864410  0.5392939197332183
  0.8349756943269213  0.8111941342436424  0.5401985143689672
  0.6653774445651095  0.8112929973215159  0.5400460855240965
  0.4299528868121882  0.5618971658762177  0.6068681474967548
  0.4303504183564044  0.1915573123797358  0.6078200281128971
 
  0.00000000E+00  0.00000000E+00  0.00000000E+00
  0.00000000E+00  0.00000000E+00  0.00000000E+00
  0.00000000E+00  0.00000000E+00  0.00000000E+00
  0.00000000E+00  0.00000000E+00  0.00000000E+00
  0.00000000E+00  0.00000000E+00  0.00000000E+00