Cu	N	Ru	Ta                              
   1.00000000000000     
    18.1096308199999996    0.0000000000000000    0.0000000000000000
     0.0000000000000000   23.3551997799999995    0.0000000000000000
     0.0000000000000000    0.0000000000000000   30.4818171199999988
   Cu   N    Ru   Ta
     2   240    12   228
Selective dynamics
Direct
  0.5615343984657261  0.4383352885141062  0.6051393839665664   T   T   T
  0.0942036544300224  0.0679524514605841  0.5894415416749361   T   T   T
  0.0000000000000000  0.0002658024790421  0.3027806050297599   F   F   F
  0.0000000000000000  0.5002658024790421  0.3027806050297599   F   F   F
  0.0000000000000000  0.6252068313499990  0.3027729437410898   F   F   F
  0.0000000000000000  0.7502658026931286  0.3027806050297599   F   F   F
  0.0000000000000000  0.8752068315640855  0.3027729437410898   F   F   F
  0.0000000000000000  0.1252068313499990  0.3027729437410898   F   F   F
  0.0000000000000000  0.2502658026931286  0.3027806050297599   F   F   F
  0.0000000000000000  0.3752068315640855  0.3027729437410898   F   F   F
  0.0000228159885328  0.5022592790728478  0.4733876428849835   T   T   T
  0.0000943174164609  0.2522157020902061  0.4740237002439528   T   T   T
  0.0001299842906348  0.3751782111549218  0.4736277752902739   T   T   T
  0.0004352045847413  0.0018947795313550  0.4742063511727926   T   T   T
  0.0004414348937751  0.1253315806212480  0.4742216589125550   T   T   T
  0.5923149826683124  0.7502829409646313  0.5684551997056864   T   T   T
  0.5926140144462448  0.2500601812024452  0.5687352267702470   T   T   T
  0.5927780156478246  0.9997418981153551  0.5686807957227203   T   T   T
  0.5940493004484111  0.9998103570065027  0.2323399901691943   F   F   F
  0.5940493004484111  0.4998103570065027  0.2323399901691943   F   F   F
  0.5940493004484111  0.7498103572205892  0.2323399901691943   F   F   F
  0.5940493004484111  0.2498103572205892  0.2323399901691943   F   F   F
  0.5941034351798038  0.6248444726427422  0.2323487498175751   F   F   F
  0.5941034351798038  0.8748444728568288  0.2323487498175751   F   F   F
  0.5941034351798038  0.1248444726427422  0.2323487498175751   F   F   F
  0.5941034351798038  0.3748444728568288  0.2323487498175751   F   F   F
  0.5955651457785421  0.5014951383786542  0.5715668968799283   T   T   T
  0.5975808235777750  0.8716935709770722  0.5715602178414135   T   T   T
  0.5978157824928455  0.3717473055293522  0.5736706205503372   T   T   T
  0.5978680295113968  0.6218742772200508  0.5716989198249379   T   T   T
  0.5987284701114524  0.6241739261581758  0.4026186579731205   T   T   T
  0.5987450776621359  0.8742722284367517  0.4025384137221803   T   T   T
  0.5988640309662044  0.3742774357474948  0.4025694212456292   T   T   T
  0.5989407469988961  0.1242442471563399  0.4024292166884217   T   T   T
  0.5989394598393805  0.1215166806133401  0.5719739251987298   T   T   T
  0.5990473753826896  0.7492148145890580  0.4023439608891781   T   T   T
  0.5991639954523342  0.4992187490649207  0.4024111928072529   T   T   T
  0.5991876403553311  0.9991257674603464  0.4022688486157330   T   T   T
  0.5992568941742443  0.2491440311383554  0.4022793008125471   T   T   T
  0.6503568019462024  0.3726701409574184  0.4886536982415778   T   T   T
  0.6506062605668306  0.1230669513664488  0.4881291683000210   T   T   T
  0.6506589440081779  0.6232596022317969  0.4883370584211472   T   T   T
  0.6507694345547518  0.8732433149998834  0.4882568517973689   T   T   T
  0.6513583630172988  0.9991725168003941  0.4883316005535562   T   T   T
  0.6515137207434757  0.2493471329664742  0.4884747057736025   T   T   T
  0.6515012668541597  0.4993345869084762  0.4889729644226779   T   T   T
  0.6514816233548743  0.7492672078936257  0.4884116477689474   T   T   T
  0.6547396409045092  0.9997083480310920  0.3159103144045119   F   F   F
  0.6547396409045092  0.4997083480310920  0.3159103144045119   F   F   F
  0.6547396409045092  0.7497083482451785  0.3159103144045119   F   F   F
  0.6547396409045092  0.2497083482451785  0.3159103144045119   F   F   F
  0.6547625022209047  0.6246790182669955  0.3159667218028375   F   F   F
  0.6547625022209047  0.8746790184810820  0.3159667218028375   F   F   F
  0.6547625022209047  0.1246790182669955  0.3159667218028375   F   F   F
  0.6547625022209047  0.3746790184810820  0.3159667218028375   F   F   F
  0.7405047655356778  0.2428022591427437  0.5619954621996710   T   T   T
  0.7406677948172757  0.7419276495817799  0.5623157229589911   T   T   T
  0.7411171411169651  0.9925607116304691  0.5621019801038113   T   T   T
  0.7429868446882163  0.4924286244993086  0.5620784284466323   T   T   T
  0.7497181855858486  0.0000100119032282  0.1992701427899632   F   F   F
  0.7497181855858486  0.5000100119032282  0.1992701427899632   F   F   F
  0.7497181855858486  0.7500100121173077  0.1992701427899632   F   F   F
  0.7497181855858486  0.2500100121173077  0.1992701427899632   F   F   F
  0.7497340914871273  0.6250292589019324  0.1993221157413743   F   F   F
  0.7497340914871273  0.8750292591160189  0.1993221157413743   F   F   F
  0.7497340914871273  0.1250292589019324  0.1993221157413743   F   F   F
  0.7497340914871273  0.3750292591160189  0.1993221157413743   F   F   F
  0.7500552220799874  0.6249116813796295  0.3879699404125908   T   T   T
  0.7500689578425074  0.7498318727549672  0.3872749755455021   T   T   T
  0.7500935266505756  0.4998039722993994  0.3874572484200187   T   T   T
  0.7501118258804473  0.8748852463586593  0.3878933416565438   T   T   T
  0.7501516272249718  0.3748928488375017  0.3880676284099497   T   T   T
  0.7502517050395147  0.2498263737063399  0.3872671340486475   T   T   T
  0.7502526496620785  0.0000159893401960  0.3873113195197641   T   T   T
  0.7503338382291699  0.1248618709031407  0.3878077115482245   T   T   T
  0.7518803646136376  0.1225883559636614  0.5559396374325262   T   T   T
  0.7520644503815012  0.8723498046587165  0.5563837936223321   T   T   T
  0.7520999051483781  0.6222999584659304  0.5560665508954239   T   T   T
  0.7527886945467206  0.3726476757934881  0.5562208226975213   T   T   T
  0.8451499272473839  0.6251896283286698  0.3155471503596488   F   F   F
  0.8451499272473839  0.8751896285427563  0.3155471503596488   F   F   F
  0.8451499272473839  0.1251896283286698  0.3155471503596488   F   F   F
  0.8451499272473839  0.3751896285427563  0.3155471503596488   F   F   F
  0.8451807898312538  0.0001939208417241  0.3155011134060643   F   F   F
  0.8451807898312538  0.5001939208417241  0.3155011134060643   F   F   F
  0.8451807898312538  0.7501939210558106  0.3155011134060643   F   F   F
  0.8451807898312538  0.2501939210558106  0.3155011134060643   F   F   F
  0.8464454419862250  0.7482399396460047  0.4859647225274054   T   T   T
  0.8467093958361701  0.2484210972435517  0.4858207992423764   T   T   T
  0.8468335864620539  0.9990544066627547  0.4860755951768826   T   T   T
  0.8469573180181204  0.4984259377531888  0.4857912047804595   T   T   T
  0.8486144789586810  0.1287149896963204  0.4859962199224361   T   T   T
  0.8488314947607660  0.8793099019736628  0.4864116887437236   T   T   T
  0.8489700850287577  0.6290258645392883  0.4862642596191601   T   T   T
  0.8491552729805339  0.3788666652588580  0.4863644342072466   T   T   T
  0.0852091109877793  0.1471230799195740  0.5781560506077706   T   T   T
  0.0875736662859588  0.9891288237025208  0.5782428243447690   T   T   T
  0.8986417000910896  0.0080027299003798  0.5679584047662749   T   T   T
  0.8990698662318461  0.1341960020665748  0.5710362915012589   T   T   T
  0.9007347243151178  0.7507015364201312  0.4018055974644154   T   T   T
  0.9008924565954503  0.5006774857599697  0.4017501086789286   T   T   T
  0.9009029039229455  0.6255966936305130  0.4017853240368141   T   T   T
  0.9010212696552783  0.8756869676901383  0.4019969450770675   T   T   T
  0.9011144418188431  0.3755722080684875  0.4018564250701569   T   T   T
  0.9011878052774107  0.2507754985478993  0.4019334395745570   T   T   T
  0.9012566181968434  0.0008272620950918  0.4019134108277957   T   T   T
  0.9012744375596676  0.7586697937470830  0.5677617534751800   T   T   T
  0.9012977308774084  0.2591994583303410  0.5676487274063471   T   T   T
  0.9014875530186093  0.1255142094010288  0.4018600241499024   T   T   T
  0.9021109823985880  0.8843542545594135  0.5714724916702104   T   T   T
  0.9022295167015371  0.5090331172227678  0.5678109835888363   T   T   T
  0.9025012511819805  0.6351275359259720  0.5712352452541050   T   T   T
  0.9035689584711252  0.3852511811127734  0.5715532538316777   T   T   T
  0.9057164253114252  0.6251516265128672  0.2320045249323357   F   F   F
  0.9057164253114252  0.8751516267269537  0.2320045249323357   F   F   F
  0.9057164253114252  0.1251516265128672  0.2320045249323357   F   F   F
  0.9057164253114252  0.3751516267269537  0.2320045249323357   F   F   F
  0.9057548087553968  0.0001403618907503  0.2320193078436787   F   F   F
  0.9057548087553968  0.5001403618907503  0.2320193078436787   F   F   F
  0.9057548087553968  0.7501403621048368  0.2320193078436787   F   F   F
  0.9057548087553968  0.2501403621048368  0.2320193078436787   F   F   F
  0.0942451912446032  0.0001403618907503  0.2320193078436787   F   F   F
  0.0942451912446032  0.5001403618907503  0.2320193078436787   F   F   F
  0.0942451912446032  0.7501403621048368  0.2320193078436787   F   F   F
  0.0942451912446032  0.2501403621048368  0.2320193078436787   F   F   F
  0.0942835746885748  0.6251516265128672  0.2320045249323357   F   F   F
  0.0942835746885748  0.8751516267269537  0.2320045249323357   F   F   F
  0.0942835746885748  0.1251516265128672  0.2320045249323357   F   F   F
  0.0942835746885748  0.3751516267269537  0.2320045249323357   F   F   F
  0.0974373494451114  0.6324335610800178  0.5709815279480076   T   T   T
  0.0977092718022664  0.8760863835489261  0.5698143853650147   T   T   T
  0.0983197508416554  0.3844766982652914  0.5711026632759950   T   T   T
  0.0986062371038886  0.8753918117616117  0.4019014048281589   T   T   T
  0.0986160564466521  0.0008318664655887  0.4023325172293214   T   T   T
  0.0987490720590161  0.7504666774225591  0.4016944309054951   T   T   T
  0.0987492411849090  0.1251191563669593  0.4024668163993679   T   T   T
  0.0987988803897029  0.6256271099362269  0.4017021107319377   T   T   T
  0.0988233387470492  0.3756584810363839  0.4018453426889497   T   T   T
  0.0989694067294074  0.5007067118221890  0.4017166223646217   T   T   T
  0.0989956628833911  0.2506495502651359  0.4021322939268109   T   T   T
  0.0992563696573867  0.7551567173147407  0.5680313209081203   T   T   T
  0.0997044975066077  0.5082621277950036  0.5678705400604918   T   T   T
  0.9994676855709236  0.8748846780349383  0.4738906621352185   T   T   T
  0.9997066551057495  0.7518493750895272  0.4732824454335405   T   T   T
  0.9998395485123077  0.6250393354822320  0.4735614743339258   T   T   T
  0.1002703191091090  0.2607961833799545  0.5672757657749884   T   T   T
  0.1509571955204857  0.9950124316205810  0.4870310189549570   T   T   T
  0.1510833547175677  0.6285990908022598  0.4860529834568993   T   T   T
  0.1512958369093396  0.8772583113784860  0.4862045287852877   T   T   T
  0.1514172266180026  0.3792207809075235  0.4860186264073698   T   T   T
  0.1519458391517488  0.1310437768730486  0.4875092439569692   T   T   T
  0.1529113673703338  0.7481870336723392  0.4858319836199579   T   T   T
  0.1531980086561352  0.4987998304739530  0.4858435923494008   T   T   T
  0.1539171980580953  0.2486820037863284  0.4862821588070841   T   T   T
  0.1548192101687462  0.0001939208417241  0.3155011134060643   F   F   F
  0.1548192101687462  0.5001939208417241  0.3155011134060643   F   F   F
  0.1548192101687462  0.7501939210558106  0.3155011134060643   F   F   F
  0.1548192101687462  0.2501939210558106  0.3155011134060643   F   F   F
  0.1548500727526161  0.6251896283286698  0.3155471503596488   F   F   F
  0.1548500727526161  0.8751896285427563  0.3155471503596488   F   F   F
  0.1548500727526161  0.1251896283286698  0.3155471503596488   F   F   F
  0.1548500727526161  0.3751896285427563  0.3155471503596488   F   F   F
  0.2475153023694934  0.8739227175927884  0.5570510398576211   T   T   T
  0.2476669572376636  0.6226267078929312  0.5564651321383096   T   T   T
  0.2479106326625513  0.3731621011346969  0.5562830217086032   T   T   T
  0.2497494741150214  0.3749570282680399  0.3877015213085652   T   T   T
  0.2497878688702544  0.4999831489311915  0.3872086733624041   T   T   T
  0.2497817422233637  0.7498374259634675  0.3871443080422528   T   T   T
  0.2498057307453772  0.6249139714272176  0.3877229453086646   T   T   T
  0.2498220796023461  0.8745550586253313  0.3875571488813564   T   T   T
  0.2497979309243608  0.2501140469054612  0.3871229864524642   T   T   T
  0.2498054233924120  0.9998701379041605  0.3873837035791214   T   T   T
  0.2498123434635890  0.1248858627725204  0.3875938295823185   T   T   T
  0.2502659079606815  0.6250292589019324  0.1993221157413743   F   F   F
  0.2502659079606815  0.8750292591160189  0.1993221157413743   F   F   F
  0.2502659079606815  0.1250292589019324  0.1993221157413743   F   F   F
  0.2502659079606815  0.3750292591160189  0.1993221157413743   F   F   F
  0.2502818138619602  0.0000100119032282  0.1992701427899632   F   F   F
  0.2502818138619602  0.5000100119032282  0.1992701427899632   F   F   F
  0.2502818138619602  0.7500100121173077  0.1992701427899632   F   F   F
  0.2502818138619602  0.2500100121173077  0.1992701427899632   F   F   F
  0.2514715030500143  0.1259048645939621  0.5580126347806749   T   T   T
  0.2527187035285459  0.9977732731132775  0.5588614746187105   T   T   T
  0.2564886669620331  0.7437380307510277  0.5611700789398879   T   T   T
  0.2575955124730008  0.2435663214907062  0.5609765710733554   T   T   T
  0.2580523232566934  0.4930796391054988  0.5617419051840532   T   T   T
  0.3452374977790953  0.6246790182669955  0.3159667218028375   F   F   F
  0.3452374977790953  0.8746790184810820  0.3159667218028375   F   F   F
  0.3452374977790953  0.1246790182669955  0.3159667218028375   F   F   F
  0.3452374977790953  0.3746790184810820  0.3159667218028375   F   F   F
  0.3452603590954908  0.9997083480310920  0.3159103144045119   F   F   F
  0.3452603590954908  0.4997083480310920  0.3159103144045119   F   F   F
  0.3452603590954908  0.7497083482451785  0.3159103144045119   F   F   F
  0.3452603590954908  0.2497083482451785  0.3159103144045119   F   F   F
  0.3481901035959368  0.7493235098635079  0.4882476811609031   T   T   T
  0.3482770600167461  0.9986560895013588  0.4879561539842638   T   T   T
  0.3484476272945390  0.4995719028747341  0.4883023736132910   T   T   T
  0.3486070857939437  0.8735162059487870  0.4883043556684056   T   T   T
  0.3485939669527716  0.2498096467507973  0.4881945731101537   T   T   T
  0.3489934425158869  0.6234915641824416  0.4881075508545757   T   T   T
  0.3491947146381492  0.3733265093661759  0.4880541205020181   T   T   T
  0.3493763376690499  0.1241871683482455  0.4881590767893244   T   T   T
  0.4008251972059670  0.4993665894543023  0.4022608032114380   T   T   T
  0.4008680294588149  0.7492407319744883  0.4023535001924870   T   T   T
  0.4008310975160638  0.9993031757581478  0.4022218998051927   T   T   T
  0.4008851268011970  0.2493458375376349  0.4021142174690601   T   T   T
  0.4010888974847533  0.3743882027777474  0.4023425474720001   T   T   T
  0.4010820782973471  0.1242057689461131  0.4024455258369443   T   T   T
  0.4011467731367648  0.6243081610258351  0.4025070280441768   T   T   T
  0.4011301227668229  0.8741704947363180  0.4025346325481214   T   T   T
  0.4011428787478182  0.8729092001905426  0.5708330718375914   T   T   T
  0.4019611751729102  0.6221500511710183  0.5712200439449351   T   T   T
  0.4025085086321952  0.3726401046969811  0.5713789512990215   T   T   T
  0.4054809690253756  0.1234445737796745  0.5714754618572490   T   T   T
  0.4055960796054054  0.4999750258632635  0.5690117072616874   T   T   T
  0.4057265728382728  0.7503195150778654  0.5684701656480742   T   T   T
  0.4058965648201962  0.6248444726427422  0.2323487498175751   F   F   F
  0.4058965648201962  0.8748444728568288  0.2323487498175751   F   F   F
  0.4058965648201962  0.1248444726427422  0.2323487498175751   F   F   F
  0.4058965648201962  0.3748444728568288  0.2323487498175751   F   F   F
  0.4059506995515889  0.9998103570065027  0.2323399901691943   F   F   F
  0.4059506995515889  0.4998103570065027  0.2323399901691943   F   F   F
  0.4059506995515889  0.7498103572205892  0.2323399901691943   F   F   F
  0.4059506995515889  0.2498103572205892  0.2323399901691943   F   F   F
  0.4059681991057036  0.9986929358285066  0.5686257537915806   T   T   T
  0.4068516232016429  0.2512518341348697  0.5686913046238953   T   T   T
  0.4996852581904582  0.9993555936684493  0.4727472553863689   T   T   T
  0.4997557648841285  0.3732364045801289  0.4747455753209895   T   T   T
  0.4998148529748241  0.8733165527420791  0.4754179068334899   T   T   T
  0.4998790494257074  0.7493747144496381  0.4729158752108051   T   T   T
  0.4999669182039302  0.6234058107170375  0.4755840615060989   T   T   T
  0.4999849084403996  0.4993426755916548  0.4731299024091870   T   T   T
  0.5000030521279235  0.2493075098718609  0.4726872983351370   T   T   T
  0.4999730310966271  0.1232065033459001  0.4748856398334648   T   T   T
  0.5000000000000000  0.9996370422826644  0.3031199056678844   F   F   F
  0.5000000000000000  0.4996370422826644  0.3031199056678844   F   F   F
  0.5000000000000000  0.6247350156471256  0.3031143997625279   F   F   F
  0.5000000000000000  0.7496370424967509  0.3031199056678844   F   F   F
  0.5000000000000000  0.8747350158612122  0.3031143997625279   F   F   F
  0.5000000000000000  0.1247350156471256  0.3031143997625279   F   F   F
  0.5000000000000000  0.2496370424967509  0.3031199056678844   F   F   F
  0.5000000000000000  0.3747350158612122  0.3031143997625279   F   F   F
  0.8430863554346104  0.0685996742392704  0.5359205844962126   T   T   T
  0.8474503351278793  0.8196870999338081  0.5370036915686741   T   T   T
  0.8480982890642048  0.3201194888665926  0.5373782117795673   T   T   T
  0.8483998316353533  0.5697523904578473  0.5369875084659033   T   T   T
  0.1546399782137539  0.5686076664609937  0.5364233942897730   T   T   T
  0.1551501373997069  0.3198118897452826  0.5365118885124462   T   T   T
  0.1564488659506336  0.8158097213567556  0.5359381293829143   T   T   T
  0.1896893059640287  0.0624734806871239  0.5257508297325074   T   T   T
  0.4991619295114876  0.5059925251237118  0.5393548128510622   T   T   T
  0.4993417989832086  0.7571997395666933  0.5391806608174511   T   T   T
  0.4998109412427298  0.2572411079770278  0.5390365242707784   T   T   T
  0.4999215285515819  0.0063870311074462  0.5390229998443891   T   T   T
  0.0000000000000000  0.0000718854908470  0.1971343718238288   F   F   F
  0.0000000000000000  0.5000718854908470  0.1971343718238288   F   F   F
  0.0000000000000000  0.6251997477026094  0.1971274191543344   F   F   F
  0.0000000000000000  0.7500718857049335  0.1971343718238288   F   F   F
  0.0000000000000000  0.8751997479166960  0.1971274191543344   F   F   F
  0.0000000000000000  0.1251997477026094  0.1971274191543344   F   F   F
  0.0000000000000000  0.2500718857049335  0.1971343718238288   F   F   F
  0.0000000000000000  0.3751997479166960  0.1971274191543344   F   F   F
  0.0001585419720290  0.0005413781006850  0.3694414508264412   T   T   T
  0.0001948643281391  0.2505671540759490  0.3694714559562440   T   T   T
  0.0002749842763444  0.1254338561623921  0.3694724802000038   T   T   T
  0.0004081875302076  0.7504872397963861  0.5412619636276308   T   T   T
  0.0008609166871469  0.3787229756514265  0.5421396866050671   T   T   T
  0.0009977661414986  0.5005264980315446  0.5412881592537465   T   T   T
  0.0010621002757607  0.2511624954029595  0.5417263853627029   T   T   T
  0.5826617485954912  0.5622475047824267  0.2840383746124928   F   F   F
  0.5826617485954912  0.0622475047824267  0.2840383746124928   F   F   F
  0.5826617485954912  0.8122475045683402  0.2840383746124928   F   F   F
  0.5826617485954912  0.3122475045683402  0.2840383746124928   F   F   F
  0.5827027102256537  0.4372504995116770  0.2840867749422387   F   F   F
  0.5827027102256537  0.6872504992975905  0.2840867749422387   F   F   F
  0.5827027102256537  0.9372504995116770  0.2840867749422387   F   F   F
  0.5827027102256537  0.1872504992975905  0.2840867749422387   F   F   F
  0.5836251574125487  0.4363690888910748  0.4542775795498309   T   T   T
  0.5837266558536071  0.6863681919979595  0.4541319731720810   T   T   T
  0.5837693606622082  0.1863149787650236  0.4540721481167079   T   T   T
  0.5837724504475968  0.9363678383238156  0.4541424270466063   T   T   T
  0.5839260269257105  0.0611618940531147  0.4541146199210304   T   T   T
  0.5839647196743070  0.5612239230821446  0.4545716607254523   T   T   T
  0.5840315913373838  0.3111972015753948  0.4542569704179809   T   T   T
  0.5840666048957633  0.8113374732805689  0.4544030351778064   T   T   T
  0.6597329655443898  0.9354782004217438  0.5423589452435986   T   T   T
  0.6600358982697164  0.6858449663506830  0.5423599120279072   T   T   T
  0.6601671996590013  0.1850227275809174  0.5422167767508008   T   T   T
  0.6648564040565433  0.4357834189266706  0.5411169444746968   T   T   T
  0.6656630292367254  0.4374555758991647  0.2027209846340057   F   F   F
  0.6656630292367254  0.6874555756850853  0.2027209846340057   F   F   F
  0.6656630292367254  0.9374555758991647  0.2027209846340057   F   F   F
  0.6656630292367254  0.1874555756850853  0.2027209846340057   F   F   F
  0.6657072857987743  0.5624132520265661  0.2026937805471647   F   F   F
  0.6657072857987743  0.0624132520265661  0.2026937805471647   F   F   F
  0.6657072857987743  0.8124132518124867  0.2026937805471647   F   F   F
  0.6657072857987743  0.3124132518124867  0.2026937805471647   F   F   F
  0.6675459363835813  0.6869918131176249  0.3685445807623356   T   T   T
  0.6675798804520385  0.4370060278577089  0.3686139243666761   T   T   T
  0.6676470371560626  0.8121543833252780  0.3685465335689392   T   T   T
  0.6677262729191281  0.9370110638669470  0.3685243870299428   T   T   T
  0.6677214746515565  0.5621589955670838  0.3685692285136404   T   T   T
  0.6677773926968416  0.3121730510252744  0.3685819896858138   T   T   T
  0.6677987668158791  0.0621607497650014  0.3684439635027437   T   T   T
  0.6678316643896679  0.1869982743176575  0.3684646041530280   T   T   T
  0.6682818166532454  0.0593111503994000  0.5435916369044343   T   T   T
  0.6684462809416314  0.8098283819975962  0.5438077577945706   T   T   T
  0.6687277287960812  0.3087407055027411  0.5443121992914325   T   T   T
  0.6693096457651103  0.5605225945847665  0.5441966702140425   T   T   T
  0.7491086451752308  0.1263468284854818  0.4558235158076469   T   T   T
  0.7491394736267133  0.3759605165676745  0.4561760446310473   T   T   T
  0.7491678882634702  0.7482764375344362  0.4550656847377911   T   T   T
  0.7492177333087392  0.2484620338669442  0.4550567045186676   T   T   T
  0.7492418075553069  0.9983868675898947  0.4551032092924709   T   T   T
  0.7492366126630935  0.6263334261467438  0.4560656248900020   T   T   T
  0.7492720118561196  0.4982849050855133  0.4552482383549905   T   T   T
  0.7494064008261190  0.8764668150355638  0.4559789760827613   T   T   T
  0.7497932119634427  0.6250918038603928  0.2779408447549940   F   F   F
  0.7497932119634427  0.8750918040744793  0.2779408447549940   F   F   F
  0.7497932119634427  0.1250918038603928  0.2779408447549940   F   F   F
  0.7497932119634427  0.3750918040744793  0.2779408447549940   F   F   F
  0.7498000177344295  0.9998887643854673  0.2779024730268418   F   F   F
  0.7498000177344295  0.4998887643854673  0.2779024730268418   F   F   F
  0.7498000177344295  0.7498887645995538  0.2779024730268418   F   F   F
  0.7498000177344295  0.2498887645995538  0.2779024730268418   F   F   F
  0.0815730205215849  0.9378251184461480  0.4539804078140644   T   T   T
  0.0819267164802974  0.6883030549372497  0.4534896452997293   T   T   T
  0.0821822315054400  0.4386229587050711  0.4535972485408745   T   T   T
  0.0825108786414344  0.1886308708411439  0.4543320925837309   T   T   T
  0.0825727650034978  0.4376830284600572  0.2837096284632494   F   F   F
  0.0825727650034978  0.6876830282459707  0.2837096284632494   F   F   F
  0.0825727650034978  0.9376830284600572  0.2837096284632494   F   F   F
  0.0825727650034978  0.1876830282459707  0.2837096284632494   F   F   F
  0.0826029583302130  0.5626929404925889  0.2836274496354534   F   F   F
  0.0826029583302130  0.0626929404925889  0.2836274496354534   F   F   F
  0.0826029583302130  0.8126929402785024  0.2836274496354534   F   F   F
  0.0826029583302130  0.3126929402785024  0.2836274496354534   F   F   F
  0.8291318616069400  0.9412712539541978  0.5430943360272050   T   T   T
  0.8292831595203213  0.1922384338961511  0.5425970171162231   T   T   T
  0.8292887066973134  0.6916776016661393  0.5428777603336764   T   T   T
  0.8314180084366750  0.4419079449036316  0.5427930556003502   T   T   T
  0.8319785348505647  0.6876831297503493  0.3677359623846843   T   T   T
  0.8320393881010287  0.9377734853055686  0.3678847584073289   T   T   T
  0.8320672543720555  0.4376704022250659  0.3678065256041326   T   T   T
  0.8321513234783416  0.5627329466909037  0.3679716699108200   T   T   T
  0.8322669655524492  0.8127644978328613  0.3680460560892536   T   T   T
  0.8322701698331250  0.1876928584146433  0.3678497461664696   T   T   T
  0.8323746185342086  0.3127333719531655  0.3680306985248000   T   T   T
  0.8325713707038332  0.0627563391240129  0.3679717994855143   T   T   T
  0.8336793151700448  0.5625684457322180  0.2026879705260853   F   F   F
  0.8336793151700448  0.0625684457322180  0.2026879705260853   F   F   F
  0.8336793151700448  0.8125684455181315  0.2026879705260853   F   F   F
  0.8336793151700448  0.3125684455181315  0.2026879705260853   F   F   F
  0.8337395527315365  0.4376312579759087  0.2027221981443361   F   F   F
  0.8337395527315365  0.6876312577618222  0.2027221981443361   F   F   F
  0.8337395527315365  0.9376312579759087  0.2027221981443361   F   F   F
  0.8337395527315365  0.1876312577618222  0.2027221981443361   F   F   F
  0.0848011520089038  0.8130148276986536  0.4540223223242651   T   T   T
  0.0849711442241165  0.5634779485271785  0.4539652018168403   T   T   T
  0.0854358533002768  0.3135665790048042  0.4543558018998271   T   T   T
  0.0869857028156176  0.0633213170150784  0.4559337646301046   T   T   T
  0.9143585344656728  0.8134179278438014  0.4543859891433391   T   T   T
  0.9146740600315831  0.5634574607735767  0.4541892567469290   T   T   T
  0.9149167769255219  0.3134726679384557  0.4543868019194771   T   T   T
  0.9155752438660709  0.0635209877711789  0.4543293845727741   T   T   T
  0.9173970416697870  0.5626929404925889  0.2836274496354534   F   F   F
  0.9173970416697870  0.0626929404925889  0.2836274496354534   F   F   F
  0.9173970416697870  0.8126929402785024  0.2836274496354534   F   F   F
  0.9173970416697870  0.3126929402785024  0.2836274496354534   F   F   F
  0.9174272349965022  0.4376830284600572  0.2837096284632494   F   F   F
  0.9174272349965022  0.6876830282459707  0.2837096284632494   F   F   F
  0.9174272349965022  0.9376830284600572  0.2837096284632494   F   F   F
  0.9174272349965022  0.1876830282459707  0.2837096284632494   F   F   F
  0.9174267521119637  0.6884805580905590  0.4534578960129679   T   T   T
  0.9174947160844377  0.9387543940326605  0.4536756679040551   T   T   T
  0.9175418115192466  0.1884888730597035  0.4536202295004301   T   T   T
  0.9177573073544686  0.4385398063469161  0.4535347616108246   T   T   T
  0.9966098236191265  0.1297128300082356  0.5432228212320350   T   T   T
  0.9984749956204964  0.0009681005459057  0.5430524469144036   T   T   T
  0.9989930579819102  0.8765048195215440  0.5422157204564253   T   T   T
  0.9997317900506154  0.7505309646622007  0.3693451819275483   T   T   T
  0.9998194370386104  0.6254789709285209  0.3693125419887603   T   T   T
  0.9998233596188559  0.8754666953648355  0.3693302675475453   T   T   T
  0.9999402646724241  0.5005703691547355  0.3693620685978064   T   T   T
  0.9998855801565141  0.6282941597804610  0.5420690234541966   T   T   T
  0.9999688846717733  0.3755417219432131  0.3693524563387327   T   T   T
  0.1656930761785477  0.9389263475342154  0.5447829155759640   T   T   T
  0.1662604174500757  0.4376312579759087  0.2027221981443361   F   F   F
  0.1662604174500757  0.6876312577618222  0.2027221981443361   F   F   F
  0.1662604174500757  0.9376312579759087  0.2027221981443361   F   F   F
  0.1662604174500757  0.1876312577618222  0.2027221981443361   F   F   F
  0.1663206550115603  0.5625684457322180  0.2026879705260853   F   F   F
  0.1663206550115603  0.0625684457322180  0.2026879705260853   F   F   F
  0.1663206550115603  0.8125684455181315  0.2026879705260853   F   F   F
  0.1663206550115603  0.3125684455181315  0.2026879705260853   F   F   F
  0.1673960328730953  0.8126867891652843  0.3679766859031453   T   T   T
  0.1674825483759025  0.3127257198371062  0.3679969129974753   T   T   T
  0.1674674919577713  0.0626748827405258  0.3685460397700293   T   T   T
  0.1676396028113703  0.5627724421562080  0.3678913815668386   T   T   T
  0.1678630858036297  0.6876897923833053  0.3677335289671440   T   T   T
  0.1678429086942479  0.4377206334489187  0.3677585582025992   T   T   T
  0.1678060454079920  0.9377252809243372  0.3681886023186045   T   T   T
  0.1677911369242888  0.1876241332668759  0.3681216303972589   T   T   T
  0.1692554349909321  0.6901009184703043  0.5428551708134433   T   T   T
  0.1694779388225931  0.1903961512064643  0.5440348431226398   T   T   T
  0.1705161195387609  0.4415997449768361  0.5427456881851369   T   T   T