Ta  N Ru Cu                             
   1.00000000000000     
     9.0548154099999998    0.0000000000000000    0.0000000000000000
     0.0000000000000000   11.6775998899999998    0.0000000000000000
     0.0000000000000000    0.0000000000000000   23.4818170799999990
   Ta   N    Ru   Cu
    60    60    16     2
Selective dynamics
Direct
  0.0000000000000000  0.0000000000000000  0.2546926809530987   F   F   F
  0.6670845899906297  0.1250000003211298  0.2638822399803757   F   F   F
  0.3329153514769843  0.1250000003211298  0.2638822399803757   F   F   F
  0.4999999994478088  0.2499999997859135  0.3618861993156202   F   F   F
  0.1650707596845180  0.1250000003211298  0.3684425577811794   F   F   F
  0.8349292403154820  0.1250000003211298  0.3684425577811794   F   F   F
  0.0004525817822636  0.2500615412502692  0.4799324982797901   T   T   T
  0.6644674294527420  0.1250893614481769  0.4780424551471547   T   T   T
  0.3354470680621831  0.1250474607212731  0.4779480948808770   T   T   T
  0.4992946136465908  0.2501413336928937  0.5904285617593891   T   T   T
  0.1688125711512859  0.1250220985771020  0.5901158467676648   T   T   T
  0.8323881620884075  0.1254499567794363  0.5897220672273600   T   T   T
  0.9953638269726891  0.2507157184435900  0.6993250791605101   T   T   T
  0.6652847761892158  0.1252292360219988  0.7013977232961415   T   T   T
  0.3301988635760865  0.1251972083135450  0.7048670842809769   T   T   T
  0.0000000000000000  0.2499999997859135  0.2546926809530987   F   F   F
  0.6670845899906297  0.3750000001070433  0.2638822399803757   F   F   F
  0.3329153514769843  0.3750000001070433  0.2638822399803757   F   F   F
  0.4999999994478088  0.5000000004281731  0.3618861993156202   F   F   F
  0.1650707596845180  0.3750000001070433  0.3684425577811794   F   F   F
  0.8349292403154820  0.3750000001070433  0.3684425577811794   F   F   F
  0.0003793327143482  0.5000371288596059  0.4798810524186217   T   T   T
  0.6644424247171561  0.3750618823778674  0.4780365312051594   T   T   T
  0.3355270740278596  0.3750169384944406  0.4779242198366174   T   T   T
  0.5000119946581235  0.5001059612517600  0.5902282546033498   T   T   T
  0.1684075793629988  0.3750084635685207  0.5897945805984540   T   T   T
  0.8327782823948282  0.3753543895684083  0.5895424420542267   T   T   T
  0.9984959107058775  0.4992568725072735  0.6997997952050641   T   T   T
  0.6668286762534515  0.3763461665659668  0.7021631531820635   T   T   T
  0.3298785541343760  0.3750444325538910  0.7036449803782805   T   T   T
  0.0000000000000000  0.5000000004281731  0.2546926809530987   F   F   F
  0.6670845899906297  0.6249999998929567  0.2638822399803757   F   F   F
  0.3329153514769843  0.6249999998929567  0.2638822399803757   F   F   F
  0.4999999994478088  0.7500000002140865  0.3618861993156202   F   F   F
  0.1650707596845180  0.6249999998929567  0.3684425577811794   F   F   F
  0.8349292403154820  0.6249999998929567  0.3684425577811794   F   F   F
  0.0004894297931296  0.7501409028054535  0.4798990675170650   T   T   T
  0.6644974124177269  0.6250538304553906  0.4780119145716071   T   T   T
  0.3353584923022001  0.6250752341930412  0.4779150045654547   T   T   T
  0.4997900491012935  0.7503000424373648  0.5903315853928917   T   T   T
  0.1683675996815764  0.6252763151317540  0.5898180989863734   T   T   T
  0.8330870128843866  0.6250342215365510  0.5896812131743412   T   T   T
  0.9948809137218680  0.7502478221437222  0.6999557751726393   T   T   T
  0.6673111867129917  0.6248773357956312  0.7021839235662439   T   T   T
  0.3322516191933650  0.6254839614243962  0.7023432886252854   T   T   T
  0.0000000000000000  0.7500000002140865  0.2546926809530987   F   F   F
  0.6670845899906297  0.8750000005352163  0.2638822399803757   F   F   F
  0.3329153514769843  0.8750000005352163  0.2638822399803757   F   F   F
  0.4999999994478088  0.0000000000000000  0.3618861993156202   F   F   F
  0.1650707596845180  0.8750000005352163  0.3684425577811794   F   F   F
  0.8349292403154820  0.8750000005352163  0.3684425577811794   F   F   F
  0.0004242624745237  0.0000684618097175  0.4799512779176439   T   T   T
  0.6645019500786539  0.8750768157557318  0.4780945312916039   T   T   T
  0.3354683490458963  0.8751041255127493  0.4780107700602955   T   T   T
  0.4988728122755710  0.0001784531642129  0.5904095295372775   T   T   T
  0.1685718498666020  0.8753202040473506  0.5902323011093550   T   T   T
  0.8326519354211748  0.8751819147491556  0.5894371198588619   T   T   T
  0.9918591484720027  0.9998456625616360  0.7000269486002072   T   T   T
  0.6660371606266035  0.8742462609465684  0.7002446923849535   T   T   T
  0.3297032949806579  0.8753918350343216  0.7054155909295319   T   T   T
  0.8141011533980276  0.0000000000000000  0.3013105672926031   F   F   F
  0.4999999994478088  0.0000000000000000  0.2564174481620327   F   F   F
  0.1858988466019724  0.0000000000000000  0.3013105672926031   F   F   F
  0.3088456122590841  0.2499999997859135  0.4099867722441957   F   F   F
  0.0000000000000000  0.2499999997859135  0.3930971035158137   F   F   F
  0.6911543877409159  0.2499999997859135  0.4099867722441957   F   F   F
  0.8013689574998746  0.2501811667399966  0.5218821185422218   T   T   T
  0.4998305205999748  0.2500788022842584  0.5027228019378238   T   T   T
  0.1990585040384741  0.2499568515269945  0.5220964606805580   T   T   T
  0.3040028236591354  0.2500133162161340  0.6347739733611254   T   T   T
  0.0000473840881117  0.2502601039055689  0.6114838668491712   T   T   T
  0.6953094049215378  0.2511519021696739  0.6336749992614278   T   T   T
  0.8037674328653490  0.2548891769722667  0.7444021223805745   T   T   T
  0.5016831872729772  0.2514746574708043  0.7268156459894987   T   T   T
  0.1918532350516071  0.2499691646141296  0.7391884505852571   T   T   T
  0.8141011533980276  0.2499999997859135  0.3013105672926031   F   F   F
  0.4999999994478088  0.2499999997859135  0.2564174481620327   F   F   F
  0.1858988466019724  0.2499999997859135  0.3013105672926031   F   F   F
  0.3088456122590841  0.5000000004281731  0.4099867722441957   F   F   F
  0.0000000000000000  0.5000000004281731  0.3930971035158137   F   F   F
  0.6911543877409159  0.5000000004281731  0.4099867722441957   F   F   F
  0.8015152502745538  0.5001369290458091  0.5218488312539447   T   T   T
  0.4999023141921192  0.5000872455802773  0.5026474343064173   T   T   T
  0.1989689981460248  0.5000358322157814  0.5219753026416091   T   T   T
  0.3043280078260111  0.4999350647336695  0.6338855975214496   T   T   T
  0.0002440483702639  0.4999565564842332  0.6117519142607543   T   T   T
  0.6962616904205152  0.5004353707662207  0.6335677945669598   T   T   T
  0.8069467500702771  0.5001159435683118  0.7444960122738280   T   T   T
  0.5003014130002877  0.4996539982392549  0.7243219859209500   T   T   T
  0.1960784285432036  0.5018661749638786  0.7388035357462157   T   T   T
  0.8141011533980276  0.5000000004281731  0.3013105672926031   F   F   F
  0.4999999994478088  0.5000000004281731  0.2564174481620327   F   F   F
  0.1858988466019724  0.5000000004281731  0.3013105672926031   F   F   F
  0.3088456122590841  0.7500000002140865  0.4099867722441957   F   F   F
  0.0000000000000000  0.7500000002140865  0.3930971035158137   F   F   F
  0.6911543877409159  0.7500000002140865  0.4099867722441957   F   F   F
  0.8015548790382763  0.7499996416296322  0.5218545546732101   T   T   T
  0.4998355274585837  0.7499962225029365  0.5026826421214693   T   T   T
  0.1989259631311562  0.7503564504546949  0.5221598575022645   T   T   T
  0.3044859802004371  0.7506861053542574  0.6344877642888337   T   T   T
 -0.0000596860361942  0.7504009948102053  0.6120139711576388   T   T   T
  0.6962862010727543  0.7488704631496825  0.6334226221765272   T   T   T
  0.8024885949870488  0.7483419838615052  0.7458103070774450   T   T   T
  0.5030201069712305  0.7500768890006115  0.7261852417240050   T   T   T
  0.1930936970060391  0.7482933849869701  0.7384954107707090   T   T   T
  0.8141011533980276  0.7500000002140865  0.3013105672926031   F   F   F
  0.4999999994478088  0.7500000002140865  0.2564174481620327   F   F   F
  0.1858988466019724  0.7500000002140865  0.3013105672926031   F   F   F
  0.3088456122590841  0.0000000000000000  0.4099867722441957   F   F   F
  0.0000000000000000  0.0000000000000000  0.3930971035158137   F   F   F
  0.6911543877409159  0.0000000000000000  0.4099867722441957   F   F   F
  0.8016031420180088  0.0002507828686002  0.5218093773792648   T   T   T
  0.4998044299536863  0.0001237769165313  0.5027096749657071   T   T   T
  0.1989796323963636  0.0000224124594881  0.5222670783726433   T   T   T
  0.3040383484330617  0.0000114684979625  0.6349919420485612   T   T   T
 -0.0003174214121340  0.0001216757550306  0.6120171381013045   T   T   T
  0.6957163247350151  0.0008492926419802  0.6330806616765294   T   T   T
  0.7990350117534776  0.9964808507378862  0.7455635929414902   T   T   T
  0.5020398094766833  0.0004661655578174  0.7249176885589366   T   T   T
  0.1891124788168597  0.0011300805238435  0.7382640273263112   T   T   T
  0.1247515627886316  0.0092402353541081  0.8159858215072328   T   T   T
  0.5724018244077445  0.0044837028180278  0.8046873155866892   T   T   T
  0.8679653658482153  0.1283344122760369  0.7976500218330203   T   T   T
  0.1521003322365215  0.5219950558420654  0.8181028946219167   T   T   T
  0.5039383216304578  0.4886801135897768  0.8088009685620439   T   T   T
  0.8950839995762973  0.6215994328757616  0.7996899806954048   T   T   T
  0.1199627648519610  0.2317425665947246  0.8161666822611993   T   T   T
  0.5544167334733781  0.2572891523514197  0.8088786950262186   T   T   T
  0.8898695286129980  0.3740421707156756  0.7996340732587316   T   T   T
  0.1361672217341463  0.7439975555752261  0.8171388229059913   T   T   T
  0.5712558715831991  0.7731988605911606  0.8069166401798544   T   T   T
  0.8860168567514910  0.8725748715181862  0.7998447103812979   T   T   T
  0.3502244282399924  0.8871063904160275  0.8359945387427234   T   T   T
  0.3717773234841763  0.6603556339008978  0.8495420521360514   T   T   T
  0.3224958199019256  0.3465071508609087  0.8458756757611074   T   T   T
  0.3623243632773541  0.1146637249863014  0.8389798458075755   T   T   T
  0.6728496168330644  0.6056645706386704  0.8667136022075830   T   T   T
  0.4154629754821687  0.4948210201257293  0.9135499434091228   T   T   T
 
  0.00000000E+00  0.00000000E+00  0.00000000E+00
  0.00000000E+00  0.00000000E+00  0.00000000E+00
  0.00000000E+00  0.00000000E+00  0.00000000E+00
  0.00000000E+00  0.00000000E+00  0.00000000E+00
  0.00000000E+00  0.00000000E+00  0.00000000E+00
  0.00000000E+00  0.00000000E+00  0.00000000E+00
  0.00000000E+00  0.00000000E+00  0.00000000E+00
  0.00000000E+00  0.00000000E+00  0.00000000E+00
  0.00000000E+00  0.00000000E+00  0.00000000E+00
  0.00000000E+00  0.00000000E+00  0.00000000E+00
  0.00000000E+00  0.00000000E+00  0.00000000E+00
  0.00000000E+00  0.00000000E+00  0.00000000E+00
  0.00000000E+00  0.00000000E+00  0.00000000E+00
  0.00000000E+00  0.00000000E+00  0.00000000E+00
  0.00000000E+00  0.00000000E+00  0.00000000E+00
  0.00000000E+00  0.00000000E+00  0.00000000E+00
  0.00000000E+00  0.00000000E+00  0.00000000E+00
  0.00000000E+00  0.00000000E+00  0.00000000E+00
  0.00000000E+00  0.00000000E+00  0.00000000E+00
  0.00000000E+00  0.00000000E+00  0.00000000E+00
  0.00000000E+00  0.00000000E+00  0.00000000E+00
  0.00000000E+00  0.00000000E+00  0.00000000E+00
  0.00000000E+00  0.00000000E+00  0.00000000E+00
  0.00000000E+00  0.00000000E+00  0.00000000E+00
  0.00000000E+00  0.00000000E+00  0.00000000E+00
  0.00000000E+00  0.00000000E+00  0.00000000E+00
  0.00000000E+00  0.00000000E+00  0.00000000E+00
  0.00000000E+00  0.00000000E+00  0.00000000E+00
  0.00000000E+00  0.00000000E+00  0.00000000E+00
  0.00000000E+00  0.00000000E+00  0.00000000E+00
  0.00000000E+00  0.00000000E+00  0.00000000E+00
  0.00000000E+00  0.00000000E+00  0.00000000E+00
  0.00000000E+00  0.00000000E+00  0.00000000E+00
  0.00000000E+00  0.00000000E+00  0.00000000E+00
  0.00000000E+00  0.00000000E+00  0.00000000E+00
  0.00000000E+00  0.00000000E+00  0.00000000E+00
  0.00000000E+00  0.00000000E+00  0.00000000E+00
  0.00000000E+00  0.00000000E+00  0.00000000E+00
  0.00000000E+00  0.00000000E+00  0.00000000E+00
  0.00000000E+00  0.00000000E+00  0.00000000E+00
  0.00000000E+00  0.00000000E+00  0.00000000E+00
  0.00000000E+00  0.00000000E+00  0.00000000E+00
  0.00000000E+00  0.00000000E+00  0.00000000E+00
  0.00000000E+00  0.00000000E+00  0.00000000E+00
  0.00000000E+00  0.00000000E+00  0.00000000E+00
  0.00000000E+00  0.00000000E+00  0.00000000E+00
  0.00000000E+00  0.00000000E+00  0.00000000E+00
  0.00000000E+00  0.00000000E+00  0.00000000E+00
  0.00000000E+00  0.00000000E+00  0.00000000E+00
  0.00000000E+00  0.00000000E+00  0.00000000E+00
  0.00000000E+00  0.00000000E+00  0.00000000E+00
  0.00000000E+00  0.00000000E+00  0.00000000E+00
  0.00000000E+00  0.00000000E+00  0.00000000E+00
  0.00000000E+00  0.00000000E+00  0.00000000E+00
  0.00000000E+00  0.00000000E+00  0.00000000E+00
  0.00000000E+00  0.00000000E+00  0.00000000E+00
  0.00000000E+00  0.00000000E+00  0.00000000E+00
  0.00000000E+00  0.00000000E+00  0.00000000E+00
  0.00000000E+00  0.00000000E+00  0.00000000E+00
  0.00000000E+00  0.00000000E+00  0.00000000E+00
  0.00000000E+00  0.00000000E+00  0.00000000E+00
  0.00000000E+00  0.00000000E+00  0.00000000E+00
  0.00000000E+00  0.00000000E+00  0.00000000E+00
  0.00000000E+00  0.00000000E+00  0.00000000E+00
  0.00000000E+00  0.00000000E+00  0.00000000E+00
  0.00000000E+00  0.00000000E+00  0.00000000E+00
  0.00000000E+00  0.00000000E+00  0.00000000E+00
  0.00000000E+00  0.00000000E+00  0.00000000E+00
  0.00000000E+00  0.00000000E+00  0.00000000E+00
  0.00000000E+00  0.00000000E+00  0.00000000E+00
  0.00000000E+00  0.00000000E+00  0.00000000E+00
  0.00000000E+00  0.00000000E+00  0.00000000E+00
  0.00000000E+00  0.00000000E+00  0.00000000E+00
  0.00000000E+00  0.00000000E+00  0.00000000E+00
  0.00000000E+00  0.00000000E+00  0.00000000E+00
  0.00000000E+00  0.00000000E+00  0.00000000E+00
  0.00000000E+00  0.00000000E+00  0.00000000E+00
  0.00000000E+00  0.00000000E+00  0.00000000E+00
  0.00000000E+00  0.00000000E+00  0.00000000E+00
  0.00000000E+00  0.00000000E+00  0.00000000E+00
  0.00000000E+00  0.00000000E+00  0.00000000E+00
  0.00000000E+00  0.00000000E+00  0.00000000E+00
  0.00000000E+00  0.00000000E+00  0.00000000E+00
  0.00000000E+00  0.00000000E+00  0.00000000E+00
  0.00000000E+00  0.00000000E+00  0.00000000E+00
  0.00000000E+00  0.00000000E+00  0.00000000E+00
  0.00000000E+00  0.00000000E+00  0.00000000E+00
  0.00000000E+00  0.00000000E+00  0.00000000E+00
  0.00000000E+00  0.00000000E+00  0.00000000E+00
  0.00000000E+00  0.00000000E+00  0.00000000E+00
  0.00000000E+00  0.00000000E+00  0.00000000E+00
  0.00000000E+00  0.00000000E+00  0.00000000E+00
  0.00000000E+00  0.00000000E+00  0.00000000E+00
  0.00000000E+00  0.00000000E+00  0.00000000E+00
  0.00000000E+00  0.00000000E+00  0.00000000E+00
  0.00000000E+00  0.00000000E+00  0.00000000E+00
  0.00000000E+00  0.00000000E+00  0.00000000E+00
  0.00000000E+00  0.00000000E+00  0.00000000E+00
  0.00000000E+00  0.00000000E+00  0.00000000E+00
  0.00000000E+00  0.00000000E+00  0.00000000E+00
  0.00000000E+00  0.00000000E+00  0.00000000E+00
  0.00000000E+00  0.00000000E+00  0.00000000E+00
  0.00000000E+00  0.00000000E+00  0.00000000E+00
  0.00000000E+00  0.00000000E+00  0.00000000E+00
  0.00000000E+00  0.00000000E+00  0.00000000E+00
  0.00000000E+00  0.00000000E+00  0.00000000E+00
  0.00000000E+00  0.00000000E+00  0.00000000E+00
  0.00000000E+00  0.00000000E+00  0.00000000E+00
  0.00000000E+00  0.00000000E+00  0.00000000E+00
  0.00000000E+00  0.00000000E+00  0.00000000E+00
  0.00000000E+00  0.00000000E+00  0.00000000E+00
  0.00000000E+00  0.00000000E+00  0.00000000E+00
  0.00000000E+00  0.00000000E+00  0.00000000E+00
  0.00000000E+00  0.00000000E+00  0.00000000E+00
  0.00000000E+00  0.00000000E+00  0.00000000E+00
  0.00000000E+00  0.00000000E+00  0.00000000E+00
  0.00000000E+00  0.00000000E+00  0.00000000E+00
  0.00000000E+00  0.00000000E+00  0.00000000E+00
  0.00000000E+00  0.00000000E+00  0.00000000E+00
  0.00000000E+00  0.00000000E+00  0.00000000E+00
  0.00000000E+00  0.00000000E+00  0.00000000E+00
  0.00000000E+00  0.00000000E+00  0.00000000E+00
  0.00000000E+00  0.00000000E+00  0.00000000E+00
  0.00000000E+00  0.00000000E+00  0.00000000E+00
  0.00000000E+00  0.00000000E+00  0.00000000E+00
  0.00000000E+00  0.00000000E+00  0.00000000E+00
  0.00000000E+00  0.00000000E+00  0.00000000E+00
  0.00000000E+00  0.00000000E+00  0.00000000E+00
  0.00000000E+00  0.00000000E+00  0.00000000E+00
  0.00000000E+00  0.00000000E+00  0.00000000E+00
  0.00000000E+00  0.00000000E+00  0.00000000E+00
  0.00000000E+00  0.00000000E+00  0.00000000E+00
  0.00000000E+00  0.00000000E+00  0.00000000E+00
  0.00000000E+00  0.00000000E+00  0.00000000E+00
  0.00000000E+00  0.00000000E+00  0.00000000E+00
  0.00000000E+00  0.00000000E+00  0.00000000E+00
  0.00000000E+00  0.00000000E+00  0.00000000E+00
  0.00000000E+00  0.00000000E+00  0.00000000E+00
