Ta  N Cu                                
   1.00000000000000     
     9.0548154099999998    0.0000000000000000    0.0000000000000000
     0.0000000000000000   11.6775998899999998    0.0000000000000000
     0.0000000000000000    0.0000000000000000   23.4818170799999990
   Ta   N    Cu
    60    60     2
Selective dynamics
Direct
  0.0000000000000000  0.0000000000000000  0.2546926809530987   F   F   F
  0.6670845899906297  0.1250000003211298  0.2638822399803757   F   F   F
  0.3329153514769843  0.1250000003211298  0.2638822399803757   F   F   F
  0.4999999994478088  0.2499999997859135  0.3618861993156202   F   F   F
  0.1650707596845180  0.1250000003211298  0.3684425577811794   F   F   F
  0.8349292403154820  0.1250000003211298  0.3684425577811794   F   F   F
 -0.0001074076314235  0.2500943494712234  0.4798735652188424   T   T   T
  0.6649947205705075  0.1249405888887837  0.4780277958474581   T   T   T
  0.3343919070980446  0.1249617092695692  0.4781203368351242   T   T   T
  0.4995763816195407  0.2502202221182816  0.5906352996893374   T   T   T
  0.1674779766698651  0.1249028224421698  0.5902719748887718   T   T   T
  0.8315075578420916  0.1248782612984529  0.5900763313708471   T   T   T
  0.9989610428492288  0.2489561612780818  0.7016466669701171   T   T   T
  0.6761283693359091  0.1248572875869695  0.7025701972425445   T   T   T
  0.3304317477960001  0.1248626071272501  0.7002169127124281   T   T   T
  0.0000000000000000  0.2499999997859135  0.2546926809530987   F   F   F
  0.6670845899906297  0.3750000001070433  0.2638822399803757   F   F   F
  0.3329153514769843  0.3750000001070433  0.2638822399803757   F   F   F
  0.4999999994478088  0.5000000004281731  0.3618861993156202   F   F   F
  0.1650707596845180  0.3750000001070433  0.3684425577811794   F   F   F
  0.8349292403154820  0.3750000001070433  0.3684425577811794   F   F   F
 -0.0001105057335320  0.4999466687332239  0.4798401637995902   T   T   T
  0.6649371301091809  0.3749728244403773  0.4781119227096550   T   T   T
  0.3345891578523871  0.3749679176130113  0.4782439667449904   T   T   T
  0.4996962342992320  0.4997858870538838  0.5908625210945512   T   T   T
  0.1679596290747823  0.3751881883462947  0.5903854685784057   T   T   T
  0.8311772967574638  0.3750803726211481  0.5900573774359119   T   T   T
  0.0011797440125680  0.4998694166545660  0.7019263031442667   T   T   T
  0.6734034121148007  0.3761930562275753  0.7044788727472723   T   T   T
  0.3295491184955111  0.3782557334973352  0.7052530952225922   T   T   T
  0.0000000000000000  0.5000000004281731  0.2546926809530987   F   F   F
  0.6670845899906297  0.6249999998929567  0.2638822399803757   F   F   F
  0.3329153514769843  0.6249999998929567  0.2638822399803757   F   F   F
  0.4999999994478088  0.7500000002140865  0.3618861993156202   F   F   F
  0.1650707596845180  0.6249999998929567  0.3684425577811794   F   F   F
  0.8349292403154820  0.6249999998929567  0.3684425577811794   F   F   F
 -0.0001028474227129  0.7499512237965210  0.4798430186376139   T   T   T
  0.6647685052238070  0.6249542513160825  0.4780954089670021   T   T   T
  0.3347060915056472  0.6249571583217434  0.4781569617494146   T   T   T
  0.4997227990982024  0.7499749191499145  0.5908555479415909   T   T   T
  0.1676209045307760  0.6248882600140457  0.5902880142976830   T   T   T
  0.8318606487032124  0.6248896791342945  0.5901111900401822   T   T   T
  0.0012027374781096  0.7497409635287066  0.7019139313710197   T   T   T
  0.6710445934013547  0.6248428015394815  0.7041119312819003   T   T   T
  0.3295952841646506  0.6248605826161374  0.7042425892559042   T   T   T
  0.0000000000000000  0.7500000002140865  0.2546926809530987   F   F   F
  0.6670845899906297  0.8750000005352163  0.2638822399803757   F   F   F
  0.3329153514769843  0.8750000005352163  0.2638822399803757   F   F   F
  0.4999999994478088  0.0000000000000000  0.3618861993156202   F   F   F
  0.1650707596845180  0.8750000005352163  0.3684425577811794   F   F   F
  0.8349292403154820  0.8750000005352163  0.3684425577811794   F   F   F
 -0.0001076239800825  0.9998135464046811  0.4798708145837357   T   T   T
  0.6649490869231365  0.8749277879899857  0.4781122205758052   T   T   T
  0.3346268858134459  0.8749734519402707  0.4782509542735557   T   T   T
  0.4995790518654803  0.9995777914783417  0.5906424986818920   T   T   T
  0.1679703545616546  0.8745894443957452  0.5903794527194667   T   T   T
  0.8311815852562061  0.8746850899816284  0.5900655360751873   T   T   T
  0.9989546195495770  0.0007419072645821  0.7016544852637989   T   T   T
  0.6735000089124094  0.8735307477437823  0.7044658703257226   T   T   T
  0.3295629690664991  0.8714117528791822  0.7052677902777497   T   T   T
  0.8141011533980276  0.0000000000000000  0.3013105672926031   F   F   F
  0.4999999994478088  0.0000000000000000  0.2564174481620327   F   F   F
  0.1858988466019724  0.0000000000000000  0.3013105672926031   F   F   F
  0.3088456122590841  0.2499999997859135  0.4099867722441957   F   F   F
  0.0000000000000000  0.2499999997859135  0.3930971035158137   F   F   F
  0.6911543877409159  0.2499999997859135  0.4099867722441957   F   F   F
  0.8019181470259930  0.2499796137195954  0.5221147024285056   T   T   T
  0.4997023031949391  0.2498342337676934  0.5027373860837372   T   T   T
  0.1976628736082332  0.2500738747644254  0.5223174732405264   T   T   T
  0.3037658375741492  0.2517670164965227  0.6341428648256465   T   T   T
  0.9993489092632992  0.2501574469490860  0.6134617756330892   T   T   T
  0.6950695344208538  0.2509974187498628  0.6334939292313168   T   T   T
  0.8075340427571945  0.2499937835083383  0.7408897637336558   T   T   T
  0.5012401871342328  0.2472713914603683  0.7283474011293368   T   T   T
  0.1930920052297836  0.2541285009744236  0.7438053868284329   T   T   T
  0.8141011533980276  0.2499999997859135  0.3013105672926031   F   F   F
  0.4999999994478088  0.2499999997859135  0.2564174481620327   F   F   F
  0.1858988466019724  0.2499999997859135  0.3013105672926031   F   F   F
  0.3088456122590841  0.5000000004281731  0.4099867722441957   F   F   F
  0.0000000000000000  0.5000000004281731  0.3930971035158137   F   F   F
  0.6911543877409159  0.5000000004281731  0.4099867722441957   F   F   F
  0.8021078823699059  0.4999377780177698  0.5221788823833405   T   T   T
  0.4997829307589608  0.5000138662686542  0.5028598126423119   T   T   T
  0.1975272762584566  0.4998695628414502  0.5223438796603134   T   T   T
  0.3040432263973717  0.4998602452441586  0.6336382928919455   T   T   T
  0.9996591928777251  0.4998424972501685  0.6136284955951390   T   T   T
  0.6953567285314669  0.5000244685388459  0.6334105976282510   T   T   T
  0.8072072898351007  0.5001571849180765  0.7404846602413413   T   T   T
  0.5001993788045700  0.4987970005833879  0.7245886684568527   T   T   T
  0.1947626300326178  0.5004350070526378  0.7411841852761032   T   T   T
  0.8141011533980276  0.5000000004281731  0.3013105672926031   F   F   F
  0.4999999994478088  0.5000000004281731  0.2564174481620327   F   F   F
  0.1858988466019724  0.5000000004281731  0.3013105672926031   F   F   F
  0.3088456122590841  0.7500000002140865  0.4099867722441957   F   F   F
  0.0000000000000000  0.7500000002140865  0.3930971035158137   F   F   F
  0.6911543877409159  0.7500000002140865  0.4099867722441957   F   F   F
  0.8021047080257734  0.7499103132516201  0.5221840979458608   T   T   T
  0.4997758558510836  0.7498820815242186  0.5028536425765281   T   T   T
  0.1975349844302212  0.7500008088283097  0.5223347366814642   T   T   T
  0.3040837416340148  0.7498736937963110  0.6336320499276042   T   T   T
  0.9996787951830723  0.7498960216403382  0.6136191992629867   T   T   T
  0.6953884602087409  0.7497039851983530  0.6334113707314319   T   T   T
  0.8072449429423609  0.7494846085247204  0.7404785873753473   T   T   T
  0.5002231533252122  0.7508393892256074  0.7245910080259729   T   T   T
  0.1947601038744058  0.7492206293396684  0.7411688939944056   T   T   T
  0.8141011533980276  0.7500000002140865  0.3013105672926031   F   F   F
  0.4999999994478088  0.7500000002140865  0.2564174481620327   F   F   F
  0.1858988466019724  0.7500000002140865  0.3013105672926031   F   F   F
  0.3088456122590841  0.0000000000000000  0.4099867722441957   F   F   F
  0.0000000000000000  0.0000000000000000  0.3930971035158137   F   F   F
  0.6911543877409159  0.0000000000000000  0.4099867722441957   F   F   F
  0.8019219881935148  0.9998660482901102  0.5221165722128628   T   T   T
  0.4996919149838130  0.0000584038345457  0.5027324344234907   T   T   T
  0.1976699816237445  0.9997852872763977  0.5223170145359679   T   T   T
  0.3037554830732417  0.9979732566939581  0.6341416944964513   T   T   T
  0.9993744612105474  0.9995991506431132  0.6134738074797442   T   T   T
  0.6950609898581940  0.9987761368988406  0.6334896676076157   T   T   T
  0.8075189093109516  0.9997367118615413  0.7408837834965819   T   T   T
  0.5012564661220007  0.0022762593488386  0.7283017729703867   T   T   T
  0.1931057621620655  0.9955240394423467  0.7437955635051420   T   T   T
  0.1680154021712865  0.1248289928928917  0.7930948012938058   T   T   T
  0.4867818774708604  0.1243484572146204  0.7923954785870899   T   T   T
 
  0.00000000E+00  0.00000000E+00  0.00000000E+00
  0.00000000E+00  0.00000000E+00  0.00000000E+00
  0.00000000E+00  0.00000000E+00  0.00000000E+00
  0.00000000E+00  0.00000000E+00  0.00000000E+00
  0.00000000E+00  0.00000000E+00  0.00000000E+00
  0.00000000E+00  0.00000000E+00  0.00000000E+00
  0.00000000E+00  0.00000000E+00  0.00000000E+00
  0.00000000E+00  0.00000000E+00  0.00000000E+00
  0.00000000E+00  0.00000000E+00  0.00000000E+00
  0.00000000E+00  0.00000000E+00  0.00000000E+00
  0.00000000E+00  0.00000000E+00  0.00000000E+00
  0.00000000E+00  0.00000000E+00  0.00000000E+00
  0.00000000E+00  0.00000000E+00  0.00000000E+00
  0.00000000E+00  0.00000000E+00  0.00000000E+00
  0.00000000E+00  0.00000000E+00  0.00000000E+00
  0.00000000E+00  0.00000000E+00  0.00000000E+00
  0.00000000E+00  0.00000000E+00  0.00000000E+00
  0.00000000E+00  0.00000000E+00  0.00000000E+00
  0.00000000E+00  0.00000000E+00  0.00000000E+00
  0.00000000E+00  0.00000000E+00  0.00000000E+00
  0.00000000E+00  0.00000000E+00  0.00000000E+00
  0.00000000E+00  0.00000000E+00  0.00000000E+00
  0.00000000E+00  0.00000000E+00  0.00000000E+00
  0.00000000E+00  0.00000000E+00  0.00000000E+00
  0.00000000E+00  0.00000000E+00  0.00000000E+00
  0.00000000E+00  0.00000000E+00  0.00000000E+00
  0.00000000E+00  0.00000000E+00  0.00000000E+00
  0.00000000E+00  0.00000000E+00  0.00000000E+00
  0.00000000E+00  0.00000000E+00  0.00000000E+00
  0.00000000E+00  0.00000000E+00  0.00000000E+00
  0.00000000E+00  0.00000000E+00  0.00000000E+00
  0.00000000E+00  0.00000000E+00  0.00000000E+00
  0.00000000E+00  0.00000000E+00  0.00000000E+00
  0.00000000E+00  0.00000000E+00  0.00000000E+00
  0.00000000E+00  0.00000000E+00  0.00000000E+00
  0.00000000E+00  0.00000000E+00  0.00000000E+00
  0.00000000E+00  0.00000000E+00  0.00000000E+00
  0.00000000E+00  0.00000000E+00  0.00000000E+00
  0.00000000E+00  0.00000000E+00  0.00000000E+00
  0.00000000E+00  0.00000000E+00  0.00000000E+00
  0.00000000E+00  0.00000000E+00  0.00000000E+00
  0.00000000E+00  0.00000000E+00  0.00000000E+00
  0.00000000E+00  0.00000000E+00  0.00000000E+00
  0.00000000E+00  0.00000000E+00  0.00000000E+00
  0.00000000E+00  0.00000000E+00  0.00000000E+00
  0.00000000E+00  0.00000000E+00  0.00000000E+00
  0.00000000E+00  0.00000000E+00  0.00000000E+00
  0.00000000E+00  0.00000000E+00  0.00000000E+00
  0.00000000E+00  0.00000000E+00  0.00000000E+00
  0.00000000E+00  0.00000000E+00  0.00000000E+00
  0.00000000E+00  0.00000000E+00  0.00000000E+00
  0.00000000E+00  0.00000000E+00  0.00000000E+00
  0.00000000E+00  0.00000000E+00  0.00000000E+00
  0.00000000E+00  0.00000000E+00  0.00000000E+00
  0.00000000E+00  0.00000000E+00  0.00000000E+00
  0.00000000E+00  0.00000000E+00  0.00000000E+00
  0.00000000E+00  0.00000000E+00  0.00000000E+00
  0.00000000E+00  0.00000000E+00  0.00000000E+00
  0.00000000E+00  0.00000000E+00  0.00000000E+00
  0.00000000E+00  0.00000000E+00  0.00000000E+00
  0.00000000E+00  0.00000000E+00  0.00000000E+00
  0.00000000E+00  0.00000000E+00  0.00000000E+00
  0.00000000E+00  0.00000000E+00  0.00000000E+00
  0.00000000E+00  0.00000000E+00  0.00000000E+00
  0.00000000E+00  0.00000000E+00  0.00000000E+00
  0.00000000E+00  0.00000000E+00  0.00000000E+00
  0.00000000E+00  0.00000000E+00  0.00000000E+00
  0.00000000E+00  0.00000000E+00  0.00000000E+00
  0.00000000E+00  0.00000000E+00  0.00000000E+00
  0.00000000E+00  0.00000000E+00  0.00000000E+00
  0.00000000E+00  0.00000000E+00  0.00000000E+00
  0.00000000E+00  0.00000000E+00  0.00000000E+00
  0.00000000E+00  0.00000000E+00  0.00000000E+00
  0.00000000E+00  0.00000000E+00  0.00000000E+00
  0.00000000E+00  0.00000000E+00  0.00000000E+00
  0.00000000E+00  0.00000000E+00  0.00000000E+00
  0.00000000E+00  0.00000000E+00  0.00000000E+00
  0.00000000E+00  0.00000000E+00  0.00000000E+00
  0.00000000E+00  0.00000000E+00  0.00000000E+00
  0.00000000E+00  0.00000000E+00  0.00000000E+00
  0.00000000E+00  0.00000000E+00  0.00000000E+00
  0.00000000E+00  0.00000000E+00  0.00000000E+00
  0.00000000E+00  0.00000000E+00  0.00000000E+00
  0.00000000E+00  0.00000000E+00  0.00000000E+00
  0.00000000E+00  0.00000000E+00  0.00000000E+00
  0.00000000E+00  0.00000000E+00  0.00000000E+00
  0.00000000E+00  0.00000000E+00  0.00000000E+00
  0.00000000E+00  0.00000000E+00  0.00000000E+00
  0.00000000E+00  0.00000000E+00  0.00000000E+00
  0.00000000E+00  0.00000000E+00  0.00000000E+00
  0.00000000E+00  0.00000000E+00  0.00000000E+00
  0.00000000E+00  0.00000000E+00  0.00000000E+00
  0.00000000E+00  0.00000000E+00  0.00000000E+00
  0.00000000E+00  0.00000000E+00  0.00000000E+00
  0.00000000E+00  0.00000000E+00  0.00000000E+00
  0.00000000E+00  0.00000000E+00  0.00000000E+00
  0.00000000E+00  0.00000000E+00  0.00000000E+00
  0.00000000E+00  0.00000000E+00  0.00000000E+00
  0.00000000E+00  0.00000000E+00  0.00000000E+00
  0.00000000E+00  0.00000000E+00  0.00000000E+00
  0.00000000E+00  0.00000000E+00  0.00000000E+00
  0.00000000E+00  0.00000000E+00  0.00000000E+00
  0.00000000E+00  0.00000000E+00  0.00000000E+00
  0.00000000E+00  0.00000000E+00  0.00000000E+00
  0.00000000E+00  0.00000000E+00  0.00000000E+00
  0.00000000E+00  0.00000000E+00  0.00000000E+00
  0.00000000E+00  0.00000000E+00  0.00000000E+00
  0.00000000E+00  0.00000000E+00  0.00000000E+00
  0.00000000E+00  0.00000000E+00  0.00000000E+00
  0.00000000E+00  0.00000000E+00  0.00000000E+00
  0.00000000E+00  0.00000000E+00  0.00000000E+00
  0.00000000E+00  0.00000000E+00  0.00000000E+00
  0.00000000E+00  0.00000000E+00  0.00000000E+00
  0.00000000E+00  0.00000000E+00  0.00000000E+00
  0.00000000E+00  0.00000000E+00  0.00000000E+00
  0.00000000E+00  0.00000000E+00  0.00000000E+00
  0.00000000E+00  0.00000000E+00  0.00000000E+00
  0.00000000E+00  0.00000000E+00  0.00000000E+00
  0.00000000E+00  0.00000000E+00  0.00000000E+00
  0.00000000E+00  0.00000000E+00  0.00000000E+00
  0.00000000E+00  0.00000000E+00  0.00000000E+00
  0.00000000E+00  0.00000000E+00  0.00000000E+00
