Ta  N Ru Cu                             
   1.00000000000000     
    18.1096308199999996    0.0000000000000000    0.0000000000000000
     0.0000000000000000   23.3551997799999995    0.0000000000000000
     0.0000000000000000    0.0000000000000000   30.4818171199999988
   Ta   N    Ru   Cu
   192   240    48    29
Selective dynamics
Direct
  0.0000000000000000  0.0000000000000000  0.1972002480802644   F   F   F
  0.3342894068167936  0.0625000001605613  0.2025710526885689   F   F   F
  0.1657105639170098  0.0625000001605613  0.2025710526885689   F   F   F
  0.2499999997239044  0.1249999998929567  0.2777865629601095   F   F   F
  0.0825346300841332  0.0625000001605613  0.2838671249264877   F   F   F
  0.4174653699158668  0.0625000001605613  0.2838671249264877   F   F   F
  0.0028328510527180  0.1216083325790297  0.3664041042339010   T   T   T
  0.3381030093689639  0.0605129058382842  0.3707189160761177   T   T   T
  0.1644986223452099  0.0613500781727678  0.3701961088234720   T   T   T
  0.2552198087746027  0.1239055260086630  0.4563006512017483   T   T   T
  0.0837115298628406  0.0621543341156907  0.4587521439718326   T   T   T
  0.4234847156245521  0.0642871240286214  0.4573001325975047   T   T   T
  0.0000000000000000  0.1249999998929567  0.1972002480802644   F   F   F
  0.3342894068167936  0.1875000000535181  0.2025710526885689   F   F   F
  0.1657105639170098  0.1875000000535181  0.2025710526885689   F   F   F
  0.2499999997239044  0.2500000002140865  0.2777865629601095   F   F   F
  0.0825346300841332  0.1875000000535181  0.2838671249264877   F   F   F
  0.4174653699158668  0.1875000000535181  0.2838671249264877   F   F   F
  0.0067073596717305  0.2502057612054115  0.3686051701454390   T   T   T
  0.3429680005560249  0.1882193814201849  0.3681519044540293   T   T   T
  0.1700536099807087  0.1878395368416111  0.3686856294867183   T   T   T
  0.2605321125090578  0.2526853790032079  0.4558964757365447   T   T   T
  0.0907500326205241  0.1847166371975635  0.4543253269976614   T   T   T
  0.4213245083411562  0.1887298285731940  0.4554386721407610   T   T   T
  0.0000000000000000  0.2500000002140865  0.1972002480802644   F   F   F
  0.3342894068167936  0.3124999999464819  0.2025710526885689   F   F   F
  0.1657105639170098  0.3124999999464819  0.2025710526885689   F   F   F
  0.2499999997239044  0.3750000001070433  0.2777865629601095   F   F   F
  0.0825346300841332  0.3124999999464819  0.2838671249264877   F   F   F
  0.4174653699158668  0.3124999999464819  0.2838671249264877   F   F   F
  0.0071416988685730  0.3732240243588067  0.3707859210498245   T   T   T
  0.3402852549734884  0.3141800535174594  0.3699471591917528   T   T   T
  0.1679692751658275  0.3155477363413358  0.3671919876166280   T   T   T
  0.2546138685535303  0.3725796645498254  0.4549236283040962   T   T   T
  0.0926710722820882  0.3069466949257377  0.4549260299348903   T   T   T
  0.4221622233099951  0.3138857842417796  0.4508210053436268   T   T   T
  0.0000000000000000  0.3750000001070433  0.1972002480802644   F   F   F
  0.3342894068167936  0.4375000002676046  0.2025710526885689   F   F   F
  0.1657105639170098  0.4375000002676046  0.2025710526885689   F   F   F
  0.2499999997239044  0.0000000000000000  0.2777865629601095   F   F   F
  0.0825346300841332  0.4375000002676046  0.2838671249264877   F   F   F
  0.4174653699158668  0.4375000002676046  0.2838671249264877   F   F   F
  0.9995235910644223  0.9993218940328509  0.3687703722943556   T   T   T
  0.3365755637808366  0.4383448649630401  0.3697834041525528   T   T   T
  0.1658164476212239  0.4422932712939885  0.3686874957414399   T   T   T
  0.2532489338663131  0.9957836204080723  0.4564955659524816   T   T   T
  0.0900065964893456  0.4362049196584926  0.4576696378859839   T   T   T
  0.4216515078219408  0.4377831307264904  0.4524157343659219   T   T   T
  0.0000000000000000  0.5000000000000000  0.1972002480802644   F   F   F
  0.3342894068167936  0.5625000001605613  0.2025710526885689   F   F   F
  0.1657105639170098  0.5625000001605613  0.2025710526885689   F   F   F
  0.2499999997239044  0.6249999998929567  0.2777865629601095   F   F   F
  0.0825346300841332  0.5625000001605613  0.2838671249264877   F   F   F
  0.4174653699158668  0.5625000001605613  0.2838671249264877   F   F   F
  0.0040743217393303  0.6266685247100345  0.3707175439302152   T   T   T
  0.3317011845616676  0.5605121873290353  0.3642939767301708   T   T   T
  0.1712565944209977  0.5666597823472231  0.3673348338881491   T   T   T
  0.2563479769131457  0.6226069812665175  0.4544280273075380   T   T   T
  0.0968555178612273  0.5680131523486658  0.4594247208782708   T   T   T
  0.4228826240310429  0.5604637320922313  0.4554951705830242   T   T   T
  0.0000000000000000  0.6249999998929567  0.1972002480802644   F   F   F
  0.3342894068167936  0.6875000000535181  0.2025710526885689   F   F   F
  0.1657105639170098  0.6875000000535181  0.2025710526885689   F   F   F
  0.2499999997239044  0.7500000002140865  0.2777865629601095   F   F   F
  0.0825346300841332  0.6875000000535181  0.2838671249264877   F   F   F
  0.4174653699158668  0.6875000000535181  0.2838671249264877   F   F   F
  0.0009515243119118  0.7473509301577095  0.3687848372461977   T   T   T
  0.3341816007378913  0.6862775017344414  0.3669237764263784   T   T   T
  0.1675072691017396  0.6868377167519996  0.3684503835350237   T   T   T
  0.2485851121636814  0.7564199594351998  0.4539283411398580   T   T   T
  0.0907516811656902  0.6927946236022399  0.4552020431095353   T   T   T
  0.4163483442717862  0.6856795570576775  0.4541075115332912   T   T   T
  0.0000000000000000  0.7500000002140865  0.1972002480802644   F   F   F
  0.3342894068167936  0.8124999999464819  0.2025710526885689   F   F   F
  0.1657105639170098  0.8124999999464819  0.2025710526885689   F   F   F
  0.2499999997239044  0.8750000001070433  0.2777865629601095   F   F   F
  0.0825346300841332  0.8124999999464819  0.2838671249264877   F   F   F
  0.4174653699158668  0.8124999999464819  0.2838671249264877   F   F   F
  0.9980034657455576  0.8814922682861959  0.3707341581078406   T   T   T
  0.3374133441473450  0.8145169228140352  0.3687479814549545   T   T   T
  0.1696093397652436  0.8111745488632239  0.3669292363658230   T   T   T
  0.2445290329018489  0.8779999571908895  0.4595168465292191   T   T   T
  0.0817695901499586  0.8119736347939444  0.4547148236458934   T   T   T
  0.4190610063734991  0.8120150858430056  0.4522054357372676   T   T   T
  0.0000000000000000  0.8750000001070433  0.1972002480802644   F   F   F
  0.3342894068167936  0.9375000002676046  0.2025710526885689   F   F   F
  0.1657105639170098  0.9375000002676046  0.2025710526885689   F   F   F
  0.2499999997239044  0.5000000000000000  0.2777865629601095   F   F   F
  0.0825346300841332  0.9375000002676046  0.2838671249264877   F   F   F
  0.4174653699158668  0.9375000002676046  0.2838671249264877   F   F   F
  0.0029093889662675  0.5016380444938627  0.3710123384740424   T   T   T
  0.3318821572231195  0.9373076053377115  0.3687294157984775   T   T   T
  0.1669536078384403  0.9392044975824229  0.3690005898641788   T   T   T
  0.2549177598179670  0.4933538059370485  0.4542392429560851   T   T   T
  0.0860922492868865  0.9389309289824063  0.4509267397669054   T   T   T
  0.4208516884041613  0.9388973063681453  0.4558576958342340   T   T   T
  0.5000000000000000  0.0000000000000000  0.1972002480802644   F   F   F
  0.8342894062646025  0.0625000001605613  0.2025710526885689   F   F   F
  0.6657105639170098  0.0625000001605613  0.2025710526885689   F   F   F
  0.7499999997239044  0.1249999998929567  0.2777865629601095   F   F   F
  0.5825346300841332  0.0625000001605613  0.2838671249264877   F   F   F
  0.9174653699158668  0.0625000001605613  0.2838671249264877   F   F   F
  0.5047578977635375  0.1188024892617527  0.3691479133240859   T   T   T
  0.8284263224241079  0.0605443087650743  0.3693790776549413   T   T   T
  0.6623205866025622  0.0631422206796561  0.3662385139800321   T   T   T
  0.7489303231803132  0.1221865004979562  0.4618319602980265   T   T   T
  0.5881122872208367  0.0613365077716917  0.4582007413113927   T   T   T
  0.9204504061438384  0.0634073656887314  0.4527863063898495   T   T   T
  0.5000000000000000  0.1249999998929567  0.1972002480802644   F   F   F
  0.8342894062646025  0.1875000000535181  0.2025710526885689   F   F   F
  0.6657105639170098  0.1875000000535181  0.2025710526885689   F   F   F
  0.7499999997239044  0.2500000002140865  0.2777865629601095   F   F   F
  0.5825346300841332  0.1875000000535181  0.2838671249264877   F   F   F
  0.9174653699158668  0.1875000000535181  0.2838671249264877   F   F   F
  0.5103278708278738  0.2514319455575374  0.3666177794614833   T   T   T
  0.8348031517367631  0.1912203139648308  0.3678676374082990   T   T   T
  0.6681729007874569  0.1859588565065688  0.3704559736372843   T   T   T
  0.7563496732212822  0.2509763921075092  0.4545439367260012   T   T   T
  0.5933830959439989  0.1888794751880865  0.4593437866321302   T   T   T
  0.9208996029485745  0.1846664964786858  0.4545894969120997   T   T   T
  0.5000000000000000  0.2500000002140865  0.1972002480802644   F   F   F
  0.8342894062646025  0.3124999999464819  0.2025710526885689   F   F   F
  0.6657105639170098  0.3124999999464819  0.2025710526885689   F   F   F
  0.7499999997239044  0.3750000001070433  0.2777865629601095   F   F   F
  0.5825346300841332  0.3124999999464819  0.2838671249264877   F   F   F
  0.9174653699158668  0.3124999999464819  0.2838671249264877   F   F   F
  0.5074441961721176  0.3740562552171935  0.3681985391964444   T   T   T
  0.8448905119167374  0.3168164161389810  0.3695421314020712   T   T   T
  0.6757936055008079  0.3107137266297680  0.3689439965083441   T   T   T
  0.7566459763499777  0.3782106088283286  0.4587360103611365   T   T   T
  0.5881831906872452  0.3137971059552845  0.4562615877977150   T   T   T
  0.9241337132103316  0.3066576385069013  0.4532138995924461   T   T   T
  0.5000000000000000  0.3750000001070433  0.1972002480802644   F   F   F
  0.8342894062646025  0.4375000002676046  0.2025710526885689   F   F   F
  0.6657105639170098  0.4375000002676046  0.2025710526885689   F   F   F
  0.7499999997239044  0.0000000000000000  0.2777865629601095   F   F   F
  0.5825346300841332  0.4375000002676046  0.2838671249264877   F   F   F
  0.9174653699158668  0.4375000002676046  0.2838671249264877   F   F   F
  0.5022552568860653  0.9916565962942213  0.3708287514209754   T   T   T
  0.8325632419995758  0.4361330631790528  0.3668741690316131   T   T   T
  0.6645578914976679  0.4336927966313408  0.3672118565061074   T   T   T
  0.7512540027577078  0.9979977174996187  0.4546221362541525   T   T   T
  0.5845015942808762  0.4375305794406503  0.4611652120844512   T   T   T
  0.9244964960462937  0.4361925735636610  0.4527494426163400   T   T   T
  0.5000000000000000  0.5000000000000000  0.1972002480802644   F   F   F
  0.8342894062646025  0.5625000001605613  0.2025710526885689   F   F   F
  0.6657105639170098  0.5625000001605613  0.2025710526885689   F   F   F
  0.7499999997239044  0.6249999998929567  0.2777865629601095   F   F   F
  0.5825346300841332  0.5625000001605613  0.2838671249264877   F   F   F
  0.9174653699158668  0.5625000001605613  0.2838671249264877   F   F   F
  0.5068674904100569  0.6230286314028648  0.3683646753912902   T   T   T
  0.8383205278145761  0.5597280804002818  0.3697353029006792   T   T   T
  0.6705513357252574  0.5595823379114787  0.3713155915207866   T   T   T
  0.7581969953585762  0.6255397742411178  0.4576043222103591   T   T   T
  0.5936819359292809  0.5590563026271498  0.4552417554178173   T   T   T
  0.9269019479601791  0.5635151345905630  0.4536146015088812   T   T   T
  0.5000000000000000  0.6249999998929567  0.1972002480802644   F   F   F
  0.8342894062646025  0.6875000000535181  0.2025710526885689   F   F   F
  0.6657105639170098  0.6875000000535181  0.2025710526885689   F   F   F
  0.7499999997239044  0.7500000002140865  0.2777865629601095   F   F   F
  0.5825346300841332  0.6875000000535181  0.2838671249264877   F   F   F
  0.9174653699158668  0.6875000000535181  0.2838671249264877   F   F   F
  0.5025314368954300  0.7501550892301632  0.3699696586282642   T   T   T
  0.8391603581878641  0.6857060092212703  0.3677934695251549   T   T   T
  0.6717644473352727  0.6882239693404623  0.3690013876241170   T   T   T
  0.7490831005622357  0.7479828650536338  0.4573237938187943   T   T   T
  0.5818748816334020  0.6883786853771302  0.4537493324933879   T   T   T
  0.9198161100856148  0.6892879774792676  0.4554407414253930   T   T   T
  0.5000000000000000  0.7500000002140865  0.1972002480802644   F   F   F
  0.8342894062646025  0.8124999999464819  0.2025710526885689   F   F   F
  0.6657105639170098  0.8124999999464819  0.2025710526885689   F   F   F
  0.7499999997239044  0.8750000001070433  0.2777865629601095   F   F   F
  0.5825346300841332  0.8124999999464819  0.2838671249264877   F   F   F
  0.9174653699158668  0.8124999999464819  0.2838671249264877   F   F   F
  0.5047875540972740  0.8740302050742673  0.3708828711336224   T   T   T
  0.8368815454092690  0.8118045036102923  0.3705679003603304   T   T   T
  0.6717945944957499  0.8134866008532123  0.3656567255856302   T   T   T
  0.7540431288188190  0.8764274175057065  0.4551973961239822   T   T   T
  0.5827131124759851  0.8157659372414358  0.4551427118670630   T   T   T
  0.9202515360193190  0.8118118706662506  0.4559950690458658   T   T   T
  0.5000000000000000  0.8750000001070433  0.1972002480802644   F   F   F
  0.8342894062646025  0.9375000002676046  0.2025710526885689   F   F   F
  0.6657105639170098  0.9375000002676046  0.2025710526885689   F   F   F
  0.7499999997239044  0.5000000000000000  0.2777865629601095   F   F   F
  0.5825346300841332  0.9375000002676046  0.2838671249264877   F   F   F
  0.9174653699158668  0.9375000002676046  0.2838671249264877   F   F   F
  0.5033039371913571  0.5043413430785914  0.3688361509824921   T   T   T
  0.8311327098579508  0.9385817845868547  0.3662311622157269   T   T   T
  0.6700316163902049  0.9394390252485284  0.3716885515881638   T   T   T
  0.7605603490159302  0.5030562742582213  0.4600728797253802   T   T   T
  0.5917520730727196  0.9393478723631704  0.4593673589114881   T   T   T
  0.9144204162989582  0.9390242784234137  0.4549284368056716   T   T   T
  0.4058866008042799  0.0000000000000000  0.2322132027086568   F   F   F
  0.2499999997239044  0.0000000000000000  0.1996562655205665   F   F   F
  0.0941133991957201  0.0000000000000000  0.2322132027086568   F   F   F
  0.1545990962481767  0.1249999998929567  0.3156671842807413   F   F   F
  0.0000000000000000  0.1249999998929567  0.3032267790298775   F   F   F
  0.3454009037518233  0.1249999998929567  0.3156671842807413   F   F   F
  0.4061492426855135  0.1245430651095598  0.4042732539449516   T   T   T
  0.2566434455690613  0.1228239565307138  0.3870168031551018   T   T   T
  0.0995980438531115  0.1247476920079659  0.4018662018583680   T   T   T
  0.1553945551279874  0.1233734623657112  0.4844879830346516   T   T   T
  0.9980132171840833  0.1208020602951226  0.4775732168932250   T   T   T
  0.3536856700756642  0.1283822467880399  0.4829788073436395   T   T   T
  0.5178756373553941  0.0741988401114719  0.5678159616889847   T   T   T
  0.3313633066693338  0.1034852738247304  0.5720552346467467   T   T   T
  0.1019695686863660  0.0965081696038076  0.5693564012234510   T   T   T
  0.4058866008042799  0.1249999998929567  0.2322132027086568   F   F   F
  0.2499999997239044  0.1249999998929567  0.1996562655205665   F   F   F
  0.0941133991957201  0.1249999998929567  0.2322132027086568   F   F   F
  0.1545990962481767  0.2500000002140865  0.3156671842807413   F   F   F
  0.0000000000000000  0.2500000002140865  0.3032267790298775   F   F   F
  0.3454009037518233  0.2500000002140865  0.3156671842807413   F   F   F
  0.4081964733060743  0.2529255493335915  0.3973076530193711   T   T   T
  0.2492282543376637  0.2502237097605081  0.3889691395104909   T   T   T
  0.1014344995065668  0.2493484372854755  0.4037691771600457   T   T   T
  0.1587737693851098  0.2435695424286115  0.4950026072414492   T   T   T
  0.0094366891381892  0.2475212035447734  0.4691316430193379   T   T   T
  0.3515351027162897  0.2440874135132206  0.4904011856709232   T   T   T
  0.4603543833475809  0.1880622355990310  0.5567168726284025   T   T   T
  0.2629713200827326  0.2608371889113695  0.5696350534329447   T   T   T
  0.0904589038315902  0.2316315882834677  0.5738264738968283   T   T   T
  0.4058866008042799  0.2500000002140865  0.2322132027086568   F   F   F
  0.2499999997239044  0.2500000002140865  0.1996562655205665   F   F   F
  0.0941133991957201  0.2500000002140865  0.2322132027086568   F   F   F
  0.1545990962481767  0.3750000001070433  0.3156671842807413   F   F   F
  0.0000000000000000  0.3750000001070433  0.3032267790298775   F   F   F
  0.3454009037518233  0.3750000001070433  0.3156671842807413   F   F   F
  0.4089757298797476  0.3695110699932497  0.4001027025167422   T   T   T
  0.2470152510140784  0.3778252217283421  0.3855049493930841   T   T   T
  0.1056594215555173  0.3806740050858915  0.4020638730058204   T   T   T
  0.1583789259692340  0.3682671029591917  0.4876418258572184   T   T   T
  0.0112324823352926  0.3717326653292964  0.4705830280130765   T   T   T
  0.3540762656652764  0.3785813590036670  0.4840869705931395   T   T   T
  0.4446172527210861  0.4146246814140232  0.5791114934320418   T   T   T
  0.2960270558227218  0.3798363460886470  0.5640154257437023   T   T   T
  0.1372795642504422  0.3635188554973240  0.5793317781173395   T   T   T
  0.4058866008042799  0.3750000001070433  0.2322132027086568   F   F   F
  0.2499999997239044  0.3750000001070433  0.1996562655205665   F   F   F
  0.0941133991957201  0.3750000001070433  0.2322132027086568   F   F   F
  0.1545990962481767  0.0000000000000000  0.3156671842807413   F   F   F
  0.0000000000000000  0.0000000000000000  0.3032267790298775   F   F   F
  0.3454009037518233  0.0000000000000000  0.3156671842807413   F   F   F
  0.3995659054871725  0.0028343592652729  0.4058699175513682   T   T   T
  0.2492331460765117  0.0056640306204090  0.3881804523292750   T   T   T
  0.0950805394167053  0.0040576776870724  0.4003911549352567   T   T   T
  0.1548718082947950  0.9998372354120009  0.4844296130711911   T   T   T
  0.0095273464911305  0.9948201976566211  0.4752582407028165   T   T   T
  0.3498082015937243  0.0060243551983320  0.4894441291911478   T   T   T
  0.4094178301843555  0.9909570647822371  0.6010722286965748   T   T   T
  0.2319331894898528  0.9995880678184905  0.5649090444349554   T   T   T
  0.0646813511485840  0.9700321456884107  0.5740520005434848   T   T   T
  0.4058866008042799  0.5000000000000000  0.2322132027086568   F   F   F
  0.2499999997239044  0.5000000000000000  0.1996562655205665   F   F   F
  0.0941133991957201  0.5000000000000000  0.2322132027086568   F   F   F
  0.1545990962481767  0.6249999998929567  0.3156671842807413   F   F   F
  0.0000000000000000  0.6249999998929567  0.3032267790298775   F   F   F
  0.3454009037518233  0.6249999998929567  0.3156671842807413   F   F   F
  0.4002452574830835  0.6274384442483917  0.4027708132378519   T   T   T
  0.2462499887266007  0.6228138404937597  0.3874138202821405   T   T   T
  0.0981868765020222  0.6223599130290930  0.4038882268078705   T   T   T
  0.1608444415421188  0.6357449382422156  0.4873720543377749   T   T   T
  0.0107024687694770  0.6240181480386648  0.4746677074586146   T   T   T
  0.3544447676384057  0.6231395156900549  0.4911224592275056   T   T   T
  0.4778971774810831  0.6398525652267476  0.5806136331311625   T   T   T
  0.2427110444991783  0.6454565053198357  0.5734933396060334   T   T   T
  0.0720083787235944  0.6340562135498655  0.5816637147455730   T   T   T
  0.4058866008042799  0.6249999998929567  0.2322132027086568   F   F   F
  0.2499999997239044  0.6249999998929567  0.1996562655205665   F   F   F
  0.0941133991957201  0.6249999998929567  0.2322132027086568   F   F   F
  0.1545990962481767  0.7500000002140865  0.3156671842807413   F   F   F
  0.0000000000000000  0.7500000002140865  0.3032267790298775   F   F   F
  0.3454009037518233  0.7500000002140865  0.3156671842807413   F   F   F
  0.3979091452191844  0.7469148234919429  0.4005367283315416   T   T   T
  0.2487593385655289  0.7544340452981750  0.3892734873794020   T   T   T
  0.0912962130155584  0.7506160450159597  0.4016052187780321   T   T   T
  0.1532328009346982  0.7558265146059084  0.4884193606090623   T   T   T
  0.0005932811359394  0.7508224547241646  0.4686922072143487   T   T   T
  0.3514771261264918  0.7583316931322244  0.4829882271791183   T   T   T
  0.4469550781310045  0.7984252135445129  0.5576995780682867   T   T   T
  0.2752933173904553  0.7635366037064374  0.5602820396857415   T   T   T
  0.1003922295936574  0.7473797589748559  0.5732926648155773   T   T   T
  0.4058866008042799  0.7500000002140865  0.2322132027086568   F   F   F
  0.2499999997239044  0.7500000002140865  0.1996562655205665   F   F   F
  0.0941133991957201  0.7500000002140865  0.2322132027086568   F   F   F
  0.1545990962481767  0.8750000001070433  0.3156671842807413   F   F   F
  0.0000000000000000  0.8750000001070433  0.3032267790298775   F   F   F
  0.3454009037518233  0.8750000001070433  0.3156671842807413   F   F   F
  0.4045246160307255  0.8730945874422392  0.3984418329388571   T   T   T
  0.2554080301665888  0.8756919711313733  0.3899986515615824   T   T   T
  0.1026682924423578  0.8722784382585088  0.4040435076388990   T   T   T
  0.1452734974396983  0.8759955646029823  0.4856803487432630   T   T   T
  0.0029779468212720  0.8755597403319759  0.4736982422512436   T   T   T
  0.3523668987566690  0.8776126602214895  0.4831468174338827   T   T   T
  0.5343322536349350  0.9205945923618750  0.5532616874827428   T   T   T
  0.3329853306112040  0.8856225811585863  0.5788952440562054   T   T   T
  0.1666007061298622  0.8718024042828624  0.5741954594047969   T   T   T
  0.4058866008042799  0.8750000001070433  0.2322132027086568   F   F   F
  0.2499999997239044  0.8750000001070433  0.1996562655205665   F   F   F
  0.0941133991957201  0.8750000001070433  0.2322132027086568   F   F   F
  0.1545990962481767  0.5000000000000000  0.3156671842807413   F   F   F
  0.0000000000000000  0.5000000000000000  0.3032267790298775   F   F   F
  0.3454009037518233  0.5000000000000000  0.3156671842807413   F   F   F
  0.4011758958675806  0.5046882858114328  0.4023767791604858   T   T   T
  0.2565385829861127  0.4954396105044166  0.3833980699555805   T   T   T
  0.1041731861067175  0.5017251959573173  0.4016219263231512   T   T   T
  0.1675352279188797  0.5010530198112629  0.4904655801846303   T   T   T
  0.0009026527714236  0.4952842107232369  0.4747874171331180   T   T   T
  0.3540236946141793  0.4951594403662082  0.4863496147499309   T   T   T
  0.5317911761888353  0.5054838526034696  0.5667281589566341   T   T   T
  0.3611395328978786  0.5205329174376793  0.5718511659507091   T   T   T
  0.1523928684755838  0.5146965396828395  0.6018543609993565   T   T   T
  0.9058866008042799  0.0000000000000000  0.2322132027086568   F   F   F
  0.7499999997239044  0.0000000000000000  0.1996562655205665   F   F   F
  0.5941133991957201  0.0000000000000000  0.2322132027086568   F   F   F
  0.6545990962481767  0.1249999998929567  0.3156671842807413   F   F   F
  0.5000000000000000  0.1249999998929567  0.3032267790298775   F   F   F
  0.8454009037518233  0.1249999998929567  0.3156671842807413   F   F   F
  0.9033445374477752  0.1289928890358643  0.3975158634992698   T   T   T
  0.7520406629377103  0.1219934299375342  0.3897672986892834   T   T   T
  0.5990984242472794  0.1314097114293747  0.4062759822012450   T   T   T
  0.6526916417925118  0.1223202146850494  0.4910813281613717   T   T   T
  0.5028781865571591  0.1286942428143200  0.4781467193283208   T   T   T
  0.8465743410943845  0.1256224858235716  0.4860401333177935   T   T   T
  0.9107033173582256  0.1299271450423752  0.5766749693918369   T   T   T
  0.7824968409281147  0.0763131768899517  0.5857178967331982   T   T   T
  0.6380699043975926  0.1454360516386566  0.6275215099925040   T   T   T
  0.9058866008042799  0.1249999998929567  0.2322132027086568   F   F   F
  0.7499999997239044  0.1249999998929567  0.1996562655205665   F   F   F
  0.5941133991957201  0.1249999998929567  0.2322132027086568   F   F   F
  0.6545990962481767  0.2500000002140865  0.3156671842807413   F   F   F
  0.5000000000000000  0.2500000002140865  0.3032267790298775   F   F   F
  0.8454009037518233  0.2500000002140865  0.3156671842807413   F   F   F
  0.9078021432762262  0.2472819139042434  0.4027586626139629   T   T   T
  0.7544394204132902  0.2541502444558070  0.3893217385114225   T   T   T
  0.6077082385731888  0.2518966843605738  0.4023915465219007   T   T   T
  0.6595816952209869  0.2589208453680037  0.4875881085043082   T   T   T
  0.5099239253769529  0.2494862455383093  0.4691413176001237   T   T   T
  0.8518768765118595  0.2530251264428140  0.4844655535286753   T   T   T
  0.9088934069779823  0.2705634491786673  0.5617665158470837   T   T   T
  0.7356149733142989  0.2193219939417419  0.5671762347824467   T   T   T
  0.5636983787603161  0.3107388867465712  0.5584865601676534   T   T   T
  0.9058866008042799  0.2500000002140865  0.2322132027086568   F   F   F
  0.7499999997239044  0.2500000002140865  0.1996562655205665   F   F   F
  0.5941133991957201  0.2500000002140865  0.2322132027086568   F   F   F
  0.6545990962481767  0.3750000001070433  0.3156671842807413   F   F   F
  0.5000000000000000  0.3750000001070433  0.3032267790298775   F   F   F
  0.8454009037518233  0.3750000001070433  0.3156671842807413   F   F   F
  0.9073799133220929  0.3729654507653866  0.4019181082311671   T   T   T
  0.7498770123773699  0.3794873431295351  0.3922412429278481   T   T   T
  0.6055482958019257  0.3665859227288777  0.4020797803178749   T   T   T
  0.6572957541674267  0.3700689153065553  0.4873574961827736   T   T   T
  0.5060235612472135  0.3778741778044079  0.4738187475558738   T   T   T
  0.8603366469079433  0.3668107135295613  0.4859364314978514   T   T   T
  0.9764343437514360  0.4112910859666346  0.5579727154697492   T   T   T
  0.7962033291613541  0.3659457012916774  0.5824126381005592   T   T   T
  0.6424966523830929  0.2976626855119745  0.6271592748205287   T   T   T
  0.9058866008042799  0.3750000001070433  0.2322132027086568   F   F   F
  0.7499999997239044  0.3750000001070433  0.1996562655205665   F   F   F
  0.5941133991957201  0.3750000001070433  0.2322132027086568   F   F   F
  0.6545990962481767  0.0000000000000000  0.3156671842807413   F   F   F
  0.5000000000000000  0.0000000000000000  0.3032267790298775   F   F   F
  0.8454009037518233  0.0000000000000000  0.3156671842807413   F   F   F
  0.8924535620696267  0.9968925893800802  0.4057001057290354   T   T   T
  0.7495972002092194  0.9972865496102079  0.3861057801852756   T   T   T
  0.6006781907032863  0.0003031649386420  0.4036896471887654   T   T   T
  0.6545012165451523  0.0020646436251825  0.4875163299903231   T   T   T
  0.5042188746062299  0.9960164435366268  0.4724206001451642   T   T   T
  0.8485454400342675  0.9942660154655488  0.4883301747257713   T   T   T
  0.9092360039781919  0.0087448418899713  0.5767996583706440   T   T   T
  0.7380523277146203  0.9793981115653311  0.5623927445531565   T   T   T
  0.6060095229823075  0.0048028364608568  0.6273235035417319   T   T   T
  0.9058866008042799  0.5000000000000000  0.2322132027086568   F   F   F
  0.7499999997239044  0.5000000000000000  0.1996562655205665   F   F   F
  0.5941133991957201  0.5000000000000000  0.2322132027086568   F   F   F
  0.6545990962481767  0.6249999998929567  0.3156671842807413   F   F   F
  0.5000000000000000  0.6249999998929567  0.3032267790298775   F   F   F
  0.8454009037518233  0.6249999998929567  0.3156671842807413   F   F   F
  0.9048213422853478  0.6202060572711535  0.4010131342184328   T   T   T
  0.7588661338430865  0.6188537195466081  0.3894254994220877   T   T   T
  0.6052799690527052  0.6224288008953899  0.3989522211779788   T   T   T
  0.6576359467274465  0.6257875127253371  0.4868708204182226   T   T   T
  0.5061083455244033  0.6231345399929865  0.4693011280088216   T   T   T
  0.8600705795402784  0.6221794185883958  0.4836742562776858   T   T   T
  0.9095660379322432  0.6235782316624493  0.5696534846718589   T   T   T
  0.7957796312045246  0.6057783176677716  0.6440159551395519   T   T   T
  0.6463374625038215  0.6388755021151949  0.5808052732982792   T   T   T
  0.9058866008042799  0.6249999998929567  0.2322132027086568   F   F   F
  0.7499999997239044  0.6249999998929567  0.1996562655205665   F   F   F
  0.5941133991957201  0.6249999998929567  0.2322132027086568   F   F   F
  0.6545990962481767  0.7500000002140865  0.3156671842807413   F   F   F
  0.5000000000000000  0.7500000002140865  0.3032267790298775   F   F   F
  0.8454009037518233  0.7500000002140865  0.3156671842807413   F   F   F
  0.9062610171971632  0.7487449859928722  0.4013833624161202   T   T   T
  0.7531890584392715  0.7469158511672360  0.3897424186604858   T   T   T
  0.5992088975908297  0.7473038278323229  0.4027788531655379   T   T   T
  0.6456200415392477  0.7433534789375633  0.4892117431576392   T   T   T
  0.4938405590619102  0.7533014969372880  0.4717585333380817   T   T   T
  0.8491502563245116  0.7494575648152768  0.4851762077720365   T   T   T
  0.9180345917149701  0.7490597329475130  0.5634289047234724   T   T   T
  0.7764269707864135  0.7292828847997818  0.5723996328442077   T   T   T
  0.6212201317865167  0.7897380575781786  0.5730556856141465   T   T   T
  0.9058866008042799  0.7500000002140865  0.2322132027086568   F   F   F
  0.7499999997239044  0.7500000002140865  0.1996562655205665   F   F   F
  0.5941133991957201  0.7500000002140865  0.2322132027086568   F   F   F
  0.6545990962481767  0.8750000001070433  0.3156671842807413   F   F   F