Ru Cu                                   
   1.00000000000000     
    10.8623999999999992    0.0000000000000000    0.0000000000000000
    -5.4311999999999969    9.4071143460680844    0.0000000000000000
     0.0000000000000000    0.0000000000000000   22.7112499999999962
   Ru   Cu
    96     1
Direct
  0.0833445156103635  0.1667000335921129  0.3581860638183279
  0.1659610817456943  0.0832708187829336  0.2678033516084208
  0.0834156830384344  0.1667351025659067  0.5487726990578962
  0.1663828505280606  0.0834602066733057  0.4528582673466419
  0.0756402808726140  0.1525720285921076  0.7346782424368921
  0.1680958415406611  0.0838419796579895  0.6415448273056472
  0.0833464473748524  0.4166718095208898  0.3581922432313428
  0.1655775780460546  0.3327971827592425  0.2673327648813236
  0.0834186059511342  0.4167497526692648  0.5487782020119315
  0.1665162928152885  0.3332779389510050  0.4520599989574896
  0.0756194613965875  0.4231178631252675  0.7346835053929573
  0.1680112373590640  0.3340204321570748  0.6412284953441723
  0.0835102311768932  0.6665149679413641  0.3583145527165441
  0.1659698735739220  0.5827353820866226  0.2678092816678000
  0.0836820123105025  0.6667082156495973  0.5479303544928231
  0.1663615591129446  0.5829339944639499  0.4528469616688429
  0.0842916426613084  0.6642212256833064  0.7323722495403298
  0.1680914672174873  0.5843066786085244  0.6415502004853589
  0.0835104039099387  0.9170348487213702  0.3583045505117970
  0.1658030015693555  0.8328951094211888  0.2678841752688984
  0.0836883311536515  0.9169986553123191  0.5479367836385409
  0.1668802061959195  0.8334660618934937  0.4522266594699492
  0.0842607871972536  0.9201362242453238  0.7323760276324016
  0.1661120439152110  0.8330851668334487  0.6420246508932487
  0.3332582031908400  0.1665148544281016  0.3582199785761860
  0.4168175224036332  0.0837980982906212  0.2677382536516502
  0.3345072588043586  0.1674694163106043  0.5478117834839101
  0.4165632172765676  0.0832805760990857  0.4522465422875461
  0.3370570286585273  0.1661222186370835  0.7326248963636469
  0.4171637313745463  0.0829386533721815  0.6424561906203629
  0.3331081300454067  0.4165727651878728  0.3588080412952253
  0.4170814540563159  0.3332002740853355  0.2675976053467649
  0.3337985776272539  0.4169265451762847  0.5487669228830061
  0.4164038810427442  0.3334915186762314  0.4522628634113537
  0.1411500186284871  0.3205930195404880  0.8084439255813264
  0.4167756017164063  0.3345261901929628  0.6414509635284554
  0.3332523192795153  0.6667552400994168  0.3582285713015111
  0.4170824101884096  0.5839167446211122  0.2676014105291473
  0.3345091423648093  0.6670985879730633  0.5478038865298279
  0.4164061750566978  0.5829621519912488  0.4522529302557921
  0.3370516993556135  0.6709649643339451  0.7326228674113537
  0.4167607049182803  0.5822726857118400  0.6414528048080610
  0.3332598107735715  0.9166477505493928  0.3583547807358751
  0.4168171388386119  0.8330292520681563  0.2677406181903804
  0.3339635103272953  0.9169979049919998  0.5476410368896858
  0.4165734581910007  0.8333264581482924  0.4522412127295394
  0.3326845025060078  0.9163702278758212  0.7322157927971802
  0.4171449525779451  0.8342310832302923  0.6424434684595253
  0.5831532613087838  0.1665970565509235  0.3583342238265424
  0.6662418421689740  0.0831297428117979  0.2678704581594717
  0.5833626505881936  0.1668076064672910  0.5479421891522982
  0.6664613792195568  0.0832577532085951  0.4522282822860301
  0.5838623393791736  0.1672649999077959  0.7323244188712460
  0.6674268258774254  0.0837545880395266  0.6421347951957870
  0.5832022753238848  0.4165861505309487  0.3582842224089869
  0.6651850144468761  0.3327941044245165  0.2677536280900357
  0.5832278884787685  0.4163362996121207  0.5478045233362238
  0.6667090367138691  0.3334806601560552  0.4522727396367268
  0.5876181290537461  0.4167557895493038  0.7322817555724368
  0.6676824086053265  0.3336072445948931  0.6421090863264926
  0.5832174466736871  0.6666458582534803  0.3582906063231294
  0.6662323372423408  0.5831028988905467  0.2678679935838010
  0.5831824285336142  0.6669470865839403  0.5477930798704733
  0.6664624612201171  0.5832578853876380  0.4529896862050326
  0.5876235902986723  0.6708895176353201  0.7322958722505275
  0.6670220523804149  0.5835489281134049  0.6424012340757578
  0.5831571633265182  0.9165930275042676  0.3583331577806817
  0.6651713741714873  0.8323909070472819  0.2677576643129232
  0.5833506630273687  0.9166268567681004  0.5479428868288854
  0.6667126349182835  0.8332609342510569  0.4522740807570326
  0.5838699816848864  0.9166879685272942  0.7323149881749820
  0.6676519727670543  0.8340995466976298  0.6420982224605107
  0.8331570817939685  0.1665907893121079  0.3582211603334524
  0.9173867305628320  0.0836625975364263  0.2677000008720714
  0.8339597785304741  0.1670059121561466  0.5472287853201179
  0.9169319479036496  0.0832981041717256  0.4522465816531759
  0.8335777031549650  0.1668198039767263  0.7329754650979252
  0.9160353679557171  0.0826142828398481  0.6413792522612427
  0.8331432437430368  0.4165733933968229  0.3584289471785059
  0.9173745730058283  0.3337414093998466  0.2677128537800560
  0.8334963982054802  0.4167400919744300  0.5477495818663876
  0.9169376505482115  0.3336450128763891  0.4522462290439512
  0.8335195617540491  0.4180876692703364  0.7321945985079753
  0.9160667534351501  0.3334693353418963  0.6413860668439706
  0.8324318616625894  0.6662278781299167  0.3585746470867316
  0.9168484855515173  0.5835504256540712  0.2678331427624382
  0.8336410722244636  0.6668492068705969  0.5479039572530527
  0.9167540647292389  0.5832883852297576  0.4521648538085157
  0.8351271663942273  0.6675869615868071  0.7321175705734578
  0.9171069293728417  0.5835596090243008  0.6415711632694540
  0.8331635166755361  0.9165974555147186  0.3584258593935103
  0.9168538650479884  0.8333238767378731  0.2678297309269559
  0.8334646852102555  0.9167512358791443  0.5477457354974383
  0.9167471677392510  0.8334872505830918  0.4521670338028185
  0.8335017626159997  0.9154867752317201  0.7321901794508715
  0.9171039353678372  0.8335645548481583  0.6415747173378995
  0.3446050208620953  0.4223108624984833  0.7377808665805173
 
  0.00000000E+00  0.00000000E+00  0.00000000E+00
  0.00000000E+00  0.00000000E+00  0.00000000E+00
  0.00000000E+00  0.00000000E+00  0.00000000E+00
  0.00000000E+00  0.00000000E+00  0.00000000E+00
  0.00000000E+00  0.00000000E+00  0.00000000E+00
  0.00000000E+00  0.00000000E+00  0.00000000E+00
  0.00000000E+00  0.00000000E+00  0.00000000E+00
  0.00000000E+00  0.00000000E+00  0.00000000E+00
  0.00000000E+00  0.00000000E+00  0.00000000E+00
  0.00000000E+00  0.00000000E+00  0.00000000E+00
  0.00000000E+00  0.00000000E+00  0.00000000E+00
  0.00000000E+00  0.00000000E+00  0.00000000E+00
  0.00000000E+00  0.00000000E+00  0.00000000E+00
  0.00000000E+00  0.00000000E+00  0.00000000E+00
  0.00000000E+00  0.00000000E+00  0.00000000E+00
  0.00000000E+00  0.00000000E+00  0.00000000E+00
  0.00000000E+00  0.00000000E+00  0.00000000E+00
  0.00000000E+00  0.00000000E+00  0.00000000E+00
  0.00000000E+00  0.00000000E+00  0.00000000E+00
  0.00000000E+00  0.00000000E+00  0.00000000E+00
  0.00000000E+00  0.00000000E+00  0.00000000E+00
  0.00000000E+00  0.00000000E+00  0.00000000E+00
  0.00000000E+00  0.00000000E+00  0.00000000E+00
  0.00000000E+00  0.00000000E+00  0.00000000E+00
  0.00000000E+00  0.00000000E+00  0.00000000E+00
  0.00000000E+00  0.00000000E+00  0.00000000E+00
  0.00000000E+00  0.00000000E+00  0.00000000E+00
  0.00000000E+00  0.00000000E+00  0.00000000E+00
  0.00000000E+00  0.00000000E+00  0.00000000E+00
  0.00000000E+00  0.00000000E+00  0.00000000E+00
  0.00000000E+00  0.00000000E+00  0.00000000E+00
  0.00000000E+00  0.00000000E+00  0.00000000E+00
  0.00000000E+00  0.00000000E+00  0.00000000E+00
  0.00000000E+00  0.00000000E+00  0.00000000E+00
  0.00000000E+00  0.00000000E+00  0.00000000E+00
  0.00000000E+00  0.00000000E+00  0.00000000E+00
  0.00000000E+00  0.00000000E+00  0.00000000E+00
  0.00000000E+00  0.00000000E+00  0.00000000E+00
  0.00000000E+00  0.00000000E+00  0.00000000E+00
  0.00000000E+00  0.00000000E+00  0.00000000E+00
  0.00000000E+00  0.00000000E+00  0.00000000E+00
  0.00000000E+00  0.00000000E+00  0.00000000E+00
  0.00000000E+00  0.00000000E+00  0.00000000E+00
  0.00000000E+00  0.00000000E+00  0.00000000E+00
  0.00000000E+00  0.00000000E+00  0.00000000E+00
  0.00000000E+00  0.00000000E+00  0.00000000E+00
  0.00000000E+00  0.00000000E+00  0.00000000E+00
  0.00000000E+00  0.00000000E+00  0.00000000E+00
  0.00000000E+00  0.00000000E+00  0.00000000E+00
  0.00000000E+00  0.00000000E+00  0.00000000E+00
  0.00000000E+00  0.00000000E+00  0.00000000E+00
  0.00000000E+00  0.00000000E+00  0.00000000E+00
  0.00000000E+00  0.00000000E+00  0.00000000E+00
  0.00000000E+00  0.00000000E+00  0.00000000E+00
  0.00000000E+00  0.00000000E+00  0.00000000E+00
  0.00000000E+00  0.00000000E+00  0.00000000E+00
  0.00000000E+00  0.00000000E+00  0.00000000E+00
  0.00000000E+00  0.00000000E+00  0.00000000E+00
  0.00000000E+00  0.00000000E+00  0.00000000E+00
  0.00000000E+00  0.00000000E+00  0.00000000E+00
  0.00000000E+00  0.00000000E+00  0.00000000E+00
  0.00000000E+00  0.00000000E+00  0.00000000E+00
  0.00000000E+00  0.00000000E+00  0.00000000E+00
  0.00000000E+00  0.00000000E+00  0.00000000E+00
  0.00000000E+00  0.00000000E+00  0.00000000E+00
  0.00000000E+00  0.00000000E+00  0.00000000E+00
  0.00000000E+00  0.00000000E+00  0.00000000E+00
  0.00000000E+00  0.00000000E+00  0.00000000E+00
  0.00000000E+00  0.00000000E+00  0.00000000E+00
  0.00000000E+00  0.00000000E+00  0.00000000E+00
  0.00000000E+00  0.00000000E+00  0.00000000E+00
  0.00000000E+00  0.00000000E+00  0.00000000E+00
  0.00000000E+00  0.00000000E+00  0.00000000E+00
  0.00000000E+00  0.00000000E+00  0.00000000E+00
  0.00000000E+00  0.00000000E+00  0.00000000E+00
  0.00000000E+00  0.00000000E+00  0.00000000E+00
  0.00000000E+00  0.00000000E+00  0.00000000E+00
  0.00000000E+00  0.00000000E+00  0.00000000E+00
  0.00000000E+00  0.00000000E+00  0.00000000E+00
  0.00000000E+00  0.00000000E+00  0.00000000E+00
  0.00000000E+00  0.00000000E+00  0.00000000E+00
  0.00000000E+00  0.00000000E+00  0.00000000E+00
  0.00000000E+00  0.00000000E+00  0.00000000E+00
  0.00000000E+00  0.00000000E+00  0.00000000E+00
  0.00000000E+00  0.00000000E+00  0.00000000E+00
  0.00000000E+00  0.00000000E+00  0.00000000E+00
  0.00000000E+00  0.00000000E+00  0.00000000E+00
  0.00000000E+00  0.00000000E+00  0.00000000E+00
  0.00000000E+00  0.00000000E+00  0.00000000E+00
  0.00000000E+00  0.00000000E+00  0.00000000E+00
  0.00000000E+00  0.00000000E+00  0.00000000E+00
  0.00000000E+00  0.00000000E+00  0.00000000E+00
  0.00000000E+00  0.00000000E+00  0.00000000E+00
  0.00000000E+00  0.00000000E+00  0.00000000E+00
  0.00000000E+00  0.00000000E+00  0.00000000E+00
  0.00000000E+00  0.00000000E+00  0.00000000E+00
  0.00000000E+00  0.00000000E+00  0.00000000E+00
