Ta  N Co Cu                             
   1.00000000000000     
    18.1096308199999996    0.0000000000000000    0.0000000000000000
     0.0000000000000000   23.3551997799999995    0.0000000000000000
     0.0000000000000000    0.0000000000000000   30.4818171199999988
   Ta   N    Co   Cu
   216   240    24     4
Direct
  0.0000448155627382  0.0000711939120350  0.1978285115413811
  0.3339314968950831  0.0624969768562167  0.2029756533199176
  0.1661327254494509  0.0624625286168765  0.2029253815260006
  0.2501370157033662  0.1250339735261932  0.2786051720429512
  0.0829412215811018  0.0625370361096387  0.2842722660379522
  0.4171514923828425  0.0625731576001911  0.2843294567229364
  0.9999561798281107  0.1249833610731770  0.3698418847784950
  0.3313689866658578  0.0623845715503464  0.3690794085336790
  0.1687145745697620  0.0623187413151882  0.3690512476297343
  0.2499279939194849  0.1268585072491319  0.4598666456038956
  0.0829754912689111  0.0618517623267181  0.4535071906573549
  0.4169815633825067  0.0619325035960543  0.4535657617411388
  0.9998405429059147  0.1289453412882224  0.5416682606465670
  0.3390881517162612  0.0663749652710450  0.5471925430494764
  0.1603259679046758  0.0663774949246303  0.5472002321009128
  0.9999049589575080  0.1253883178750073  0.1979236427127304
  0.3345215213924746  0.1876236413159020  0.2029242772872806
  0.1655751475986520  0.1875483975774230  0.2028275869558982
  0.2501567669622702  0.2500100502730831  0.2785900596340980
  0.0828285622853571  0.1875101221574766  0.2843588691318715
  0.4172509255309365  0.1875747475790774  0.2844876902997413
  0.9998837163978394  0.2494666314090495  0.3695566049849646
  0.3317374493897702  0.1875534589514771  0.3691904285774612
  0.1685113078481066  0.1873749818562942  0.3690344768800884
  0.2500202945797909  0.2488566125038929  0.4600273313653744
  0.0842742438860213  0.1870026166427152  0.4544417375883185
  0.4159416426077058  0.1872021556794081  0.4547720058105895
  0.9997973302441210  0.2522123641749801  0.5402015118246197
  0.9998184445070208  0.2498057587855627  0.1981093070870514
  0.3335775822138629  0.3127177426515075  0.2032542102225108
  0.1666056130498035  0.3126545075897980  0.2031431601790743
  0.2501430682128216  0.3750356877819598  0.2788932663416688
  0.0829826833492007  0.3125618622224451  0.2843821845698074
  0.4171376252842052  0.3126495117153993  0.2845537330913785
  0.9998122375981850  0.3751516893615090  0.3697098858682182
  0.3318845878859875  0.3126670509969074  0.3691033656157998
  0.1684349040700397  0.3124871210812827  0.3688528220556506
  0.2498843633753438  0.3755468705720659  0.4615461629571200
  0.0829684445521721  0.3118042664391396  0.4521492806586664
  0.4175099339165840  0.3121247837039220  0.4527148334097291
  0.9992305007153490  0.3785565518846141  0.5419700187680903
  0.9998194767247028  0.3755222179637201  0.1983505478372578
  0.3344417306278515  0.4374488455628978  0.2034017591338895
  0.1657807041951713  0.4373820472549355  0.2032784765926863
  0.2500631680524279  0.0000714781560376  0.2785848486540914
  0.0829961366437075  0.4375343017090927  0.2849160478694870
  0.4171011685040256  0.4376517474274095  0.2851042205143912
  0.9999792462976487  0.0000790737636009  0.3693271445639681
  0.3315833611934025  0.4378453272521341  0.3702595502068817
  0.1686825227373703  0.4378102043526440  0.3701380592010182
  0.2499727864898063  0.0000595944264674  0.4625283387235797
  0.0851774066047710  0.4372583558734107  0.4549025095703456
  0.4142425754270675  0.4375243870726706  0.4555207498058849
  0.9999854896962290  0.9999445864736245  0.5437600506136206
  0.9999421419402807  0.4999511090686326  0.1985146835675096
  0.3344950868248375  0.5625107957317965  0.2033154751440520
  0.1656834606971600  0.5624860647023340  0.2032239071821635
  0.2501094240378308  0.6249378150619336  0.2788509240536854
  0.0830589626884120  0.5623559361495651  0.2849277551358469
  0.4170815599448332  0.5624010697998756  0.2850589191910871
  0.9999359405952220  0.6250348333175211  0.3696041587408487
  0.3314911675489398  0.5623055275124500  0.3701684428841503
  0.1685173063410872  0.5622303203024543  0.3701257171537335
  0.2492923471719237  0.6245075316075273  0.4613379239610680
  0.0852594684255692  0.5628491952215100  0.4548396346168033
  0.4140530362411425  0.5628936854207893  0.4550737163174929
  0.0008531058881189  0.6220634188037337  0.5414598507427257
  0.0000530920543866  0.6243246374250546  0.1981754539526932
  0.3334326172505584  0.6872748044108334  0.2031213970415777
  0.1666214451945365  0.6873430124278528  0.2031028308699590
  0.2500440968246025  0.7500660490116502  0.2785028935606348
  0.0830990445263495  0.6874329995761954  0.2843072149380959
  0.4170192876440453  0.6874658692308628  0.2843474619623620
  0.0000494547186776  0.7507003326721033  0.3694616499793639
  0.3316848598423405  0.6876143342368408  0.3688747207886109
  0.1683354332042697  0.6875685173605746  0.3688564690719502
  0.2497224585855164  0.7514243926437132  0.4600195737401549
  0.0827911939792472  0.6883568767903654  0.4523477950029218
  0.4168086593239337  0.6883477044392023  0.4524691318453264
  0.9998464146474717  0.7477042904319191  0.5401226321631469
  0.0000397316793368  0.7502324052706300  0.1979152799818280
  0.3344647039640591  0.8124333452769008  0.2027577545088306
  0.1656311879774179  0.8124526837739907  0.2027235214522705
  0.2500137549638595  0.8750888740950131  0.2785374920798276
  0.0828976001253849  0.8125827918075785  0.2843137857785223
  0.4171339261428173  0.8125648137745856  0.2843302908786640
  0.0000019671448612  0.8751895114900847  0.3697970318156081
  0.3315914715885526  0.8127123416124320  0.3690478344293098
  0.1684162484480041  0.8127081787102952  0.3690593172615380
  0.2499591228108500  0.8733179498919199  0.4598821133908189
  0.0841748944467895  0.8131325396747258  0.4545089791684518
  0.4157278350539713  0.8132412000638780  0.4544574031259501
  0.0000492221159334  0.8710307348217725  0.5416629240427966
  0.9999930390347700  0.8747303381821112  0.1978316182357105
  0.3339543458875553  0.9376620548971104  0.2029175395822165
  0.1660926500342654  0.9376155126886303  0.2028809231376272
  0.2500443297382802  0.4999866922673277  0.2794297811882558
  0.0829591419120987  0.9375551073352923  0.2842468922300085
  0.4170834835615835  0.9375754132037173  0.2842812654505877
  0.9996154051220003  0.5000649758496252  0.3704206358005422
  0.3313510948848943  0.9377944392789743  0.3690458981772125
  0.1687025416686581  0.9377630500234346  0.3690492332772664
  0.2491723625910041  0.4995759626145073  0.4691792386868556
  0.0828821457825200  0.9383462795188748  0.4535140067068184
  0.4170596291662036  0.9383878218562813  0.4535722755153131
  0.9997240788442241  0.5004076293491337  0.5421433447203441
  0.3395379230640785  0.9332965523426822  0.5474267741340597
  0.1605521757310981  0.9333850811441309  0.5473343201197309
  0.5000381145704722  0.0001144075880646  0.1978844724694540
  0.8337712996519286  0.0624770723017321  0.2029744666821003
  0.6660072626873514  0.0625405194214324  0.2030304071627853
  0.7498430569643091  0.1251373826587994  0.2787426858563293
  0.5829508641272980  0.0626229837291703  0.2844181206535978
  0.9169665668960789  0.0625636487306096  0.2843033102347619
  0.5001448245434972  0.1250356664370358  0.3700693730775981
  0.8312446275367478  0.0623919347432178  0.3691080157420998
  0.6685869892044067  0.0624243102548832  0.3693361030198830
  0.7497508097545449  0.1267516013173520  0.4602065287537940
  0.5829841808276512  0.0620201181741749  0.4540015129973085
  0.9171544540970018  0.0618122308510607  0.4535269880050379
  0.4995183104995462  0.1285102406277332  0.5419424185824724
  0.8392700827588158  0.0665186364470998  0.5473433027268797
  0.6607304817319744  0.0660769426036367  0.5473192563341769
  0.5001309419608830  0.1254725211693568  0.1980217979972352
  0.8342756501582471  0.1876160584119688  0.2029389068015064
  0.6654668968340971  0.1876895581878557  0.2030352768658901
  0.7498282724755470  0.2501155433186923  0.2787562865957369
  0.5828986890699213  0.1875980561344051  0.2846293810822260
  0.9169573007240288  0.1875220698629931  0.2844733953659926
  0.5000581377488800  0.2494838346064228  0.3697865877591227
  0.8314707637584533  0.1875165495444762  0.3692578765552028
  0.6683999112260537  0.1874260921063851  0.3695128827329057
  0.7494020160367398  0.2485530857363045  0.4609715746351455
  0.5845067150132550  0.1872334815058494  0.4557080322661449
  0.9158824929620693  0.1870450028780795  0.4544943122132423
  0.5020140344778738  0.2519728083531518  0.5416765123149219
  0.5002144546774332  0.2498300123309818  0.1982730933358781
  0.8332127110461798  0.3126524168938474  0.2032552474170686
  0.6664033838949663  0.3127664464537716  0.2033955952400177
  0.7498424997012449  0.3751979141035164  0.2791103987157442
  0.5831033154053387  0.3127132894905600  0.2847277985138348
  0.9167491677316590  0.3126158982211678  0.2844966629279284
  0.5000657903551442  0.3751800257882678  0.3700904577229593
  0.8316214672464355  0.3126171310566761  0.3691312923644503
  0.6682738999781819  0.3125624335371029  0.3692250676292588
  0.7507110789324685  0.3756067909470744  0.4617497952653267
  0.5832357021521162  0.3122668984502113  0.4524372636362770
  0.9173687842247844  0.3120171147680182  0.4526757110057744
  0.4973148613557399  0.3785996469687376  0.5422371069160832
  0.5002953858140415  0.3756372274713939  0.1985498640742236
  0.8341498006006844  0.4373943994722254  0.2033506308351747
  0.6655483817707761  0.4374534863815924  0.2035203470071920
  0.7498862558988648  0.0001225138450849  0.2786360393004514
  0.5831209825382686  0.4377349134232631  0.2853673212683958
  0.9167405494554970  0.4376398728181528  0.2850108480226723
  0.5000596731117071  0.0001186251690939  0.3693968942189372
  0.8314038427909693  0.4379402335226033  0.3704751869303138
  0.6686775972199328  0.4378868518783960  0.3707468447926772
  0.7498897430717548  0.0001393614513674  0.4625855632664297
  0.5854819243791809  0.4372987889513666  0.4560119183755020
  0.9143908196116612  0.4376082428255401  0.4556017995720154
  0.4998349916216469  0.0000917437581975  0.5438654810605215
  0.5002696328700722  0.4999551565456599  0.1987213450418466
  0.8342642116310728  0.5624925826782246  0.2032532560258247
  0.6655112624169206  0.5624951445632149  0.2033831134073054
  0.7497562629615899  0.6249640330056323  0.2788829285863770
  0.5830913179331176  0.5624259803536091  0.2852536141350797
  0.9168362710078739  0.5624171322822988  0.2849427300176757
  0.5001445840712648  0.6251301552994022  0.3699574321465917
  0.8312131725312142  0.5624335332267876  0.3702553356976210
  0.6685202632705227  0.5624108927786367  0.3707069925040187
  0.7499497334290837  0.6246281595538221  0.4612369416982105
  0.5856564569171212  0.5631309226669856  0.4561608347720281
  0.9145217838462329  0.5632432281913964  0.4550480153234560
  0.4993438105714816  0.6218458759384973  0.5419157224450331
  0.5001169481786860  0.6242845644507895  0.1983288482427028
  0.8333091373435977  0.6873361466610817  0.2030749003248147
  0.6664923850369888  0.6872979840727780  0.2031538602426721
  0.7498473488455915  0.7501153609524778  0.2784658926973904
  0.5830641732584283  0.6874719768662985  0.2844377172959582
  0.9168739386016895  0.6874724088871673  0.2842486169350451
  0.5000333202398721  0.7506660388245407  0.3695327004221838
  0.8315666582975112  0.6877744123963367  0.3686865791024587
  0.6682443060791243  0.6877068626599012  0.3689876179363338
  0.7499845541363115  0.7515029437604284  0.4599222152233082
  0.5828733259413070  0.6884850779753648  0.4526040268447389
  0.9170134216593482  0.6885952426554809  0.4520831523754936
  0.4998855432797527  0.7474345861013063  0.5402575406224059
  0.4999932742525672  0.7501925851179152  0.1979940593585852
  0.8343721856245807  0.8124622947908406  0.2027287364261738
  0.6655201105897603  0.8124564114838648  0.2027622298239393
  0.7499129767447954  0.8751633544656556  0.2785438528989417
  0.5828468675235996  0.8126004695754006  0.2843486528884256
  0.9170899314509526  0.8126106124172523  0.2842644632079683
  0.4999533992748084  0.8752013252068522  0.3698240970132289
  0.8315057401855697  0.8128431693582243  0.3689563483004719
  0.6683126456482995  0.8128252325411864  0.3690522441161974
  0.7498200364799601  0.8734054378922167  0.4598199783297332
  0.5840941337402157  0.8132932338017156  0.4544604020114917
  0.9156411606366746  0.8132752411695492  0.4544365549596137
  0.4998791878423816  0.8705221588313563  0.5417196215914544
  0.5000118659032040  0.8747465683989688  0.1978712877967510
  0.8338384292597141  0.9376742359147840  0.2029043281116785
  0.6660042440251743  0.9377058040508714  0.2029380497709710
  0.7497296317280586  0.4999913057275194  0.2796790715706976
  0.5829271019164821  0.9375998142540709  0.2843049392657022
  0.9170149678155184  0.9375480718746800  0.2842421173418899
  0.5004531263541310  0.5001617154662412  0.3709116719686918
  0.8312150817398916  0.9378556593273331  0.3690253555466256
  0.6685995979407764  0.9378672055281783  0.3691037898863030
  0.7502461649514416  0.5006507688502282  0.4694300713833002
  0.5829285118354761  0.9384487901668450  0.4535643766996529
  0.9169051066208453  0.9384087892687418  0.4535094416516472
  0.5042360617785704  0.5007882783951771  0.5434943910230245
  0.8393788988377864  0.9334159074640098  0.5472917864441555
  0.6602667519112870  0.9331728013065756  0.5475171738750433
  0.4054947584478370  0.0000857519991797  0.2325606616127729
  0.2500451168547002  0.0000564301783967  0.1984791355951430
  0.0945111305393738  0.0000562873988343  0.2325226010984807
  0.1551863384049099  0.1249120866286759  0.3163481994142856
  0.9999139987541810  0.1249805710500596  0.3032882545639595
  0.3449643886694176  0.1249743807289647  0.3164208462420035
  0.4008127591181960  0.1249362591197212  0.4020798458041881
  0.2500775109402227  0.1249899188419192  0.3898320369727983
  0.0992609120885248  0.1248025363492502  0.4019513327665365
  0.1484295084441598  0.1215358024989257  0.4885282238995501
  0.0000649670715163  0.1244836777298985  0.4732752094688948
  0.3514593999156688  0.1215200197101467  0.4884427107516700
  0.4039188518104595  0.1288480777495238  0.5713694494797537
  0.2498290109307533  0.0893751621698797  0.5767073736225186
  0.0948812288592222  0.1287127521213876  0.5711010570285993
  0.4055476242681948  0.1251109863244224  0.2327400448761807
  0.2500792987113485  0.1252408391333901  0.2000305134429965
  0.0944884747554511  0.1250447412342126  0.2326487174574652
  0.1552031419199125  0.2497956272117037  0.3162050395988274
  0.9998759657688723  0.2499786460751494  0.3030827992513423
  0.3449803976234591  0.2499561159466666  0.3163472780492995
  0.4010982796248967  0.2490535444545117  0.4017923256513001
  0.2501214303609771  0.2499154808899604  0.3900326644902421
  0.0990689375247911  0.2487438980117034  0.4013222784626080
  0.1476043841710606  0.2517346126492370  0.4866461092145897
  0.0002181257404672  0.2489223231063775  0.4727737739440769
  0.3523811660689447  0.2519765451680769  0.4867447008782833
  0.3996374636338444  0.2521993488415362  0.5650778862474652
  0.2500453722188354  0.1889418551474051  0.5117769376947052
  0.1010928212329318  0.2520474880719874  0.5648007165199971
  0.4055290413125903  0.2501774455172807  0.2327951258854029
  0.2500862148084053  0.2498683932984065  0.1993904674966416
  0.0945840864014542  0.2500832121902192  0.2326400197246699
  0.1554818844724295  0.3752599852127574  0.3165319517706209
  0.9998480761012800  0.3750463808728952  0.3032365268421415
  0.3447087279641963  0.3753346641015654  0.3166853405525814
  0.4012461296582828  0.3753164687497517  0.4017626735617554
  0.2500907123806400  0.3752736123150697  0.3914203450393288
  0.0988874953051635  0.3751549440883792  0.4011112249301121
  0.1467708555491640  0.3699953191459713  0.4847370126061392
  0.0000634974099114  0.3761992581327220  0.4742250906304974
  0.3528899330860327  0.3703457495906761  0.4850335775925814
  0.3924932897256070  0.3848930311609919  0.5644813455519255
  0.2493049583292972  0.4327998136165832  0.5187303939310581
  0.1040765206424012  0.3851696430595553  0.5635111532927084
  0.4055351670601155  0.3751997672961735  0.2330100545529845
  0.2501239402237800  0.3753552409992906  0.1985685244514528
  0.0946058437781687  0.3751215941119170  0.2328483698013599
  0.1550388275080223  0.0000548810438232  0.3162456933383240
  0.9999653242602804  0.0000604354080735  0.3029305750231828
  0.3450295089193673  0.0000816519537139  0.3162707665044948
  0.4012669834572336  0.0000828668921784  0.4017226385917638
  0.2500278885422915  0.0000703836045943  0.3901797433131122
  0.0987746058203953  0.0000650425779938  0.4016841429697422
  0.1446095171395569  0.0001005886647434  0.4874493174515706
  0.9999363074136696  0.0000586314827586  0.4744154838644974
  0.3553159040190366  0.0001544135920710  0.4874582463990436
  0.4031713229400395  0.0000078101640000  0.5734547254361431
  0.2499394362214531  0.9998728532662469  0.5348728973687074
  0.0965940560991712  0.0000237606549618  0.5733768158231953
  0.4055202013918091  0.4999653894039255  0.2334406768241237
  0.2500631876471431  0.4999840725571758  0.2018625738576958
  0.0946791425542912  0.4999399538803289  0.2332677981741043
  0.1555231447992185  0.6247183143205675  0.3165337935761485
  0.9999445887310330  0.6249736460262838  0.3031553760136845
  0.3446303213305768  0.6247916435039329  0.3165854235764272
  0.4010810562738740  0.6251877288981689  0.4013512731994240
  0.2499430536419638  0.6248497107267710  0.3913067437318247
  0.0988522248065067  0.6250082312229068  0.4011374653384792
  0.1464715712453781  0.6301796846710843  0.4849302603224359
  0.0000100121071753  0.6242322984052890  0.4738431833897607
  0.3521906710906748  0.6302789009665304  0.4846701601055230
  0.3941207143942407  0.6131922027052070  0.5627865087757300
  0.2489630474967015  0.5666692410306311  0.5183402982522622
  0.1058087176403646  0.6138552926131453  0.5637667904829939
  0.4054809113878335  0.6247853623955564  0.2329263415755207
  0.2500568889856254  0.6245069993900785  0.1986507080708364
  0.0946767913724287  0.6247785305646190  0.2328381269040349
  0.1551996621542457  0.7501985445975095  0.3162037587374442
  0.9999773392647384  0.7500978336114628  0.3029732075341371
  0.3448614703867960  0.7502226527466718  0.3161920878952742
  0.4009810710872586  0.7513471070449000  0.4014316018215283
  0.2499864043687978  0.7502668665245125  0.3899411609414756
  0.0990413806624204  0.7512751615100584  0.4014102789583589
  0.1472955462949841  0.7483615527990821  0.4866465577560888
  0.9998435777822223  0.7513278282122826  0.4727054062922420
  0.3522390431906288  0.7487445543585736  0.4864847278295841
  0.3981349835389594  0.7474103491642623  0.5648979143396957
  0.2498704998130705  0.8112952955238697  0.5116190186449074
  0.1014989603726306  0.7479924265163334  0.5651330206081653
  0.4054146748469307  0.7499180348225210  0.2326472292926738
  0.2500206251134500  0.7501923364480945  0.1991928490012356
  0.0946404653906683  0.7499759537368789  0.2326096606006232
  0.1551669896569692  0.8751855781783462  0.3163382943702118
  0.9999786771765287  0.8751445763136658  0.3032198630060918
  0.3448409520020377  0.8752071316065511  0.3163333974632394
  0.4007394291766602  0.8753956571462993  0.4019726548507379
  0.2499912635101893  0.8751586261301725  0.3898277762944744
  0.0992263943871450  0.8753336077699316  0.4019705235442217
  0.1483321842909078  0.8786914513852295  0.4885149553449537
  0.9999131374709265  0.8756982845900367  0.4732819027995134
  0.3515739752069535  0.8786504894569873  0.4884968252434589
  0.4050270101187294  0.8711809456789226  0.5713177912459315
  0.2500272646017621  0.9103894170719897  0.5767759981690190
  0.0950953577697149  0.8714303997475312  0.5713405940158438
  0.4054382567578330  0.8750182194242981  0.2326535537890564
  0.2500475523523562  0.8748757320783014  0.1999641222748352
  0.0945439241010888  0.8750290605455291  0.2326299861318191
  0.1552834348719259  0.4999507040999021  0.3171505459662924
  0.9998611204917793  0.4999786974991451  0.3037648450029238
  0.3447608333447150  0.5000199354422392  0.3171900273108292
  0.4013630709645284  0.5000735375950711  0.4021937506575526
  0.2499098357314224  0.4999784398322475  0.3938917779924722
  0.0985871688341149  0.5000538687449989  0.4018469174728523
  0.1402041777858614  0.5000716404438847  0.4858817109000384
  0.9996173425487527  0.5003632243915277  0.4733480560166186
  0.3574702737787234  0.5006804879899249  0.4852366671857595
  0.4061112964546112  0.4979789298055834  0.5721153639848637
  0.2498173063410078  0.5001785916598251  0.5811413282001752
  0.0965151707592966  0.5018890588836200  0.5743079555764510
  0.9054603316441572  0.0000753399395705  0.2325195631879140
  0.7498913421991702  0.0000947276765473  0.1983716852646467
  0.5945179402583562  0.0001287273214245  0.2326269853040586
  0.6551102085055334  0.1249611465229279  0.3166458090687172
  0.5000809796223606  0.1250373731845826  0.3034291034436549
  0.8447295944831552  0.1249891557933935  0.3164602843294446
  0.9007208503751372  0.1248405116823221  0.4020259209815080
  0.7500243134595053  0.1249608358099437  0.3900271818780325
  0.5993263650363687  0.1249667467367885  0.4025076290799205
  0.6484435920147931  0.1215778505945266  0.4894501360910084
  0.4999380594488301  0.1245950111981529  0.4735177087480693
  0.8517638703844312  0.1214459871903202  0.4885499528816197
  0.9045488600179183  0.1287079432575240  0.5712846559138427
  0.7498804920972262  0.0898404452933761  0.5767556274598959
  0.5946006120164711  0.1285545068682552  0.5718521669919738
  0.9053470111652473  0.1250691585939094  0.2327291246329395
  0.7498661135944928  0.1252698611951999  0.2002135277214450
  0.5945776622587005  0.1251535562462465  0.2329070777999718
  0.6551152040203689  0.2498972044365289  0.3165527418203098
  0.5000585624788059  0.2500725739825356  0.3032946826737160
  0.8446511903030824  0.2499770840244651  0.3164140583200705
  0.9009248512492718  0.2490127658135179  0.4015777668011395
  0.7500176887542267  0.2499260780635026  0.3905145886737884
  0.5990472457347522  0.2486776927578376  0.4019420454934206
  0.6466660795919879  0.2521953901943732  0.4880030537594351
  0.5001638188296482  0.2491643206551686  0.4736390978173901
  0.8526384857639400  0.2516322528860258  0.4867443178716684
  0.8985721046879505  0.2510491632161305  0.5654426719795396
  0.7514625481228592  0.1885876485500333  0.5119583568609372
  0.6009108479177101  0.2579648827556369  0.5712651757838003
  0.9052038196292216  0.2500802754257663  0.2327837210629511
  0.7498254870963947  0.2498819661149767  0.1994214571257231
  0.5946759494771925  0.2502053728947899  0.2330142185989317
  0.6554165285157865  0.3754871696935567  0.3169762321684217
  0.5000823281536100  0.3751727390472652  0.3035137326605764
  0.8444408333750530  0.3754159548518246  0.3167850586309910
  0.9010993863126160  0.3753801665526240  0.4016279999204997
  0.7501563621126195  0.3752633338452114  0.3917515704944137
  0.5989140638697137  0.3752848247609677  0.4017018329931403
  0.6472867858816898  0.3711767818962599  0.4851762369680870
  0.4999939995141247  0.3763731007524385  0.4749934548992982
  0.8539116314813811  0.3698494968658466  0.4855135254519567
  0.8944162725077760  0.3831761508417202  0.5655334926132269
  0.7542267359612183  0.4325879469427392  0.5183102640905801
  0.6012682627889916  0.3822281294096896  0.5645197674795597
  0.9051577593317646  0.3751658625268632  0.2330017272975624
  0.7498288364085894  0.3753911627117432  0.1987144249097668
  0.5947462894718072  0.3753228787492233  0.2333207469349148
  0.6549674432073331  0.0001690965300227  0.3163894550581858
  0.5000244855300835  0.0000932668433862  0.3030015568710738
  0.8448756706331224  0.0001523965744141  0.3162652480871060
  0.9011699412673480  0.0000984283975498  0.4016936226355270
  0.7499370037762532  0.0000975030141248  0.3902637070953574
  0.5988212480893367  0.0002565911984576  0.4019115406730762
  0.6446258267498735  0.9999824190438034  0.4877699241314986
  0.4999424367671068  0.0000002070683962  0.4745480532597313
  0.8552061767020973  0.0001649487853541  0.4874204103868678
  0.9032755608651328  0.0000342918164620  0.5733571577644625
  0.7499932785998311  0.9999593941767912  0.5350449684455754
  0.5964645518779790  0.9997621633305158  0.5736030513653532
  0.9051755457026616  0.4999743550598197  0.2333217104562522
  0.7499629290284062  0.4999729777111668  0.2019720688722160
  0.5947801672151840  0.4999859789180334  0.2336994340453842
  0.6553760223413221  0.6248066891277233  0.3167995241510937
  0.5000572187190713  0.6249969579478005  0.3033848025886883
  0.8443818438397344  0.6247624081015815  0.3164747216543802
  0.9009070020366181  0.6250804914579717  0.4011565806263278
  0.7499747891777488  0.6251005978105582  0.3911514570691068
  0.5989349767123855  0.6249986054258656  0.4017051664357965
  0.6472342991161000  0.6306436742687112  0.4851351275334608
  0.4997565694982882  0.6240248785647395  0.4744360354233095
  0.8530321679877773  0.6307426473080326  0.4844628150016916
  0.8962929022944905  0.6130375690947574  0.5622592498008601
  0.7517417940749169  0.5678802144712023  0.5186545195510917
  0.6054725826915544  0.6111404469317065  0.5619503451708283
  0.9053889500588923  0.6247816975369744  0.2327897754174089
  0.7498734281735153  0.6244975259520871  0.1986808378050640
  0.5946432124779619  0.6247557537422068  0.2330615593875791
  0.6551290408029971  0.7502859549415390  0.3162668118521239
  0.5000110474059980  0.7500826074743898  0.3030783223158480
  0.8447073032559871  0.7503083181697932  0.3160942073894617
  0.9008772244101593  0.7515184933354462  0.4012412371276000
  0.7499682936134775  0.7504270731164127  0.3899152632622247
  0.5990225677682872  0.7513693690992937  0.4015096207554123
  0.6475394698657055  0.7489021379801102  0.4865620518503704
  0.4999535031482623  0.7511814749857351  0.4728413916948853
  0.8524080541684000  0.7486165123731610  0.4865758259543469
  0.8987416471599232  0.7477301932362863  0.5650201909547619
  0.7498655749248826  0.8113479836509043  0.5116410358739429
  0.6011044309094800  0.7475052405115861  0.5650726151204211
  0.9053966659368413  0.7499820457412554  0.2325424183199800
  0.7498923786500526  0.7502035759512253  0.1990787180987610
  0.5945866647141997  0.7499484032094941  0.2326813785133979
  0.6550897662065225  0.8752456793027150  0.3163647657235771
  0.4999761096391069  0.8751401402361125  0.3032430183942196
  0.8447839542444484  0.8752547172701526  0.3162894624174371
  0.9006925671902337  0.8754370396971467  0.4019167972076616
  0.7498953230440719  0.8752136824361898  0.3898345114948611
  0.5991493017550340  0.8754516183248100  0.4019739985696589
  0.6482278451934960  0.8786044013072924  0.4885240922063474
  0.4999376068775234  0.8757896670744145  0.4733372045768789
  0.8513892140860477  0.8787098090273986  0.4884740296490691
  0.9049892784878253  0.8713891762371588  0.5712046395610599
  0.7499200963949590  0.9104047052520414  0.5768102194250275
  0.5949940500848641  0.8711925636982940  0.5714064531845722
  0.9054339502660369  0.8750537292495153  0.2325907980880828
  0.7499218076596250  0.8748935693127819  0.2001025681340352
  0.5945302813037188  0.8750554199783025  0.2326812369826143
  0.6553305221063610  0.5002045491676697  0.3177448143969599
  0.5001272455624957  0.5000762266402390  0.3042411005230576
  0.8444559943637060  0.5000878215140929  0.3173525194938520
  0.9008745297937750  0.5001804449932905  0.4024145204883354
  0.7500953705698308  0.5002033253246125  0.3945993269942747
  0.5993271135437652  0.5002971663016353  0.4032427372550060
  0.6404268846076562  0.4999784272125325  0.4889825358719264
  0.4997980087536007  0.5002582585835285  0.4735834545571365
  0.8588311168208165  0.5011620145531950  0.4867678842440952
  0.9055182933833450  0.4929940737131489  0.5752881323344283
  0.7517247388312356  0.4988093363560040  0.5831306103821561
  0.5940647708255469  0.4957913055011360  0.5807235947122109
  0.3620961456710958  0.1918825664579700  0.5330354150246563
  0.1373938220425543  0.1913967765002909  0.5327942188583918
  0.3752711800356749  0.3171197460888919  0.5338653581815294
  0.1245427924408560  0.3176006153475086  0.5337845456210815
  0.3273363742395929  0.4467023732516680  0.5635280908310634
  0.1687367024599808  0.4482963840211269  0.5613043705440575
  0.3277199201316705  0.5499428037517617  0.5612465608526378
  0.1738612003240831  0.5523649384875782  0.5639771156353248
  0.3744336620757736  0.6817847242306954  0.5342667230017142
  0.1238320555759671  0.6820887045075352  0.5348011087638369
  0.3625307954365624  0.8082968211520765  0.5329534444710617
  0.1372455573141096  0.8084446603424666  0.5328968663904234
  0.8620934556170425  0.1911958316898321  0.5327131509753045
  0.6331462791003375  0.1918743224241979  0.5362940325594820
  0.8758229614219175  0.3170263993052345  0.5347804485571217
  0.6278740136535390  0.3156351781921103  0.5312243851806429
  0.8264867607761133  0.4434660495669860  0.5671151754122548
  0.6777393575711272  0.4484507749850621  0.5574937293454880
  0.8338251434350568  0.5478703401470213  0.5579821416680630
  0.6737946799271768  0.5497627644440257  0.5613882985124405
  0.8755660354748969  0.6820529402808404  0.5336110339766904
  0.6234606443207511  0.6809237382998674  0.5346732414442883
  0.8624368428620102  0.8082933874133218  0.5328752593551869
  0.6377219149790889  0.8081797427121700  0.5327849137653686
  0.7230234710904497  0.4088999905630146  0.6292864031586518
  0.5899636007149951  0.4381125873384946  0.6248689407786898
  0.6173041125923078  0.3269068170718938  0.6123622009856433
  0.6340690828088782  0.3775740439082114  0.6809683868837979
 
  0.00000000E+00  0.00000000E+00  0.00000000E+00
  0.00000000E+00  0.00000000E+00  0.00000000E+00
  0.00000000E+00  0.00000000E+00  0.00000000E+00