Ta  N Co Cu                             
   1.00000000000000     
    18.1096308199999996    0.0000000000000000    0.0000000000000000
     0.0000000000000000   23.3551997799999995    0.0000000000000000
     0.0000000000000000    0.0000000000000000   30.4818171199999988
   Ta   N    Co   Cu
   216   240    24     2
Direct
  0.9997938071355392  0.0000351836299828  0.1980375836046377
  0.3335557293544369  0.0624457847733169  0.2031065499013280
  0.1659685897022882  0.0624397888257135  0.2031544390980784
  0.2498095069540653  0.1248937104986325  0.2785892893897071
  0.0827491005521068  0.0625299099800216  0.2844294255563184
  0.4168840725889496  0.0625295959198269  0.2843602253359521
  0.9998536766731050  0.1248742691608484  0.3700240824653847
  0.3311922542846517  0.0622845312888032  0.3691280919960249
  0.1685815526648398  0.0622680826393491  0.3691546509569932
  0.2501415345053957  0.1268161979397320  0.4599855280069889
  0.0829556177206712  0.0617154741741075  0.4536838381635633
  0.4170316589313146  0.0618310210761095  0.4537293166898877
  0.9998195359191513  0.1289650129954865  0.5417464402837453
  0.3394287080551948  0.0665615943169229  0.5473856010370994
  0.1605234977699155  0.0663747800852832  0.5472988840146016
  0.9997039171673805  0.1253569303020825  0.1981403480582387
  0.3341118119862898  0.1875063339720526  0.2029428416309855
  0.1654981399458677  0.1875510003017524  0.2030380051711305
  0.2497304433123801  0.2499092981154547  0.2785067784690938
  0.0826531889554971  0.1874431090558559  0.2845157395636591
  0.4169568536285055  0.1874219365176444  0.2844186603727721
  0.9998146372848922  0.2494209166147527  0.3696393127423647
  0.3314448161361057  0.1873288045604795  0.3690724865776502
  0.1683139425515563  0.1873371829111008  0.3691322395677403
  0.2502160610725497  0.2488867384150950  0.4600220283403473
  0.0842814341911620  0.1870168112209356  0.4546073424326238
  0.4157516267080439  0.1871392457795338  0.4544718103380987
  0.0002437547163652  0.2522900795791543  0.5400869448484471
  0.9997111111431281  0.2497703210435418  0.1982467888633010
  0.3329597822877304  0.3125870842906835  0.2031569231668158
  0.1663298032417870  0.3126363284713136  0.2032460188738980
  0.2497316254671418  0.3749828888458282  0.2786516937774834
  0.0828064529914059  0.3125341072826444  0.2844331468105636
  0.4166660358942025  0.3125228980501547  0.2842414064035950
  0.9997853965109442  0.3750503854311447  0.3697764814061486
  0.3313792634564123  0.3124550956355492  0.3687520266901601
  0.1682910878995045  0.3124777523385447  0.3688103418458795
  0.2508751041230468  0.3756298630777550  0.4615524452652195
  0.0830265884047492  0.3119702424784734  0.4522633841507826
  0.4171897369700304  0.3120106304088424  0.4523781775044071
  0.0002452355164948  0.3787101564386859  0.5417247861283698
  0.9996030397488056  0.3754830100830731  0.1984381010708987
  0.3338887030008451  0.4374544741362456  0.2031876365000045
  0.1655575106211487  0.4375182799512984  0.2033438514338783
  0.2498379690843606  0.0000210950241168  0.2786133592628346
  0.0828293592109972  0.4375830548886412  0.2849046388336518
  0.4166701953530350  0.4376109487386515  0.2846618451958776
  0.9998810846677699  0.0000110098201702  0.3694898245727245
  0.3311719429081563  0.4378067589214965  0.3699763205741746
  0.1687709580373209  0.4377649468460731  0.3699613047616168
  0.2500110938296274  0.0000131891427984  0.4626495556010113
  0.0862008102403777  0.4371961280006431  0.4549481676645613
  0.4154893932788610  0.4372172844202211  0.4546587709297185
  0.9999152516438912  0.9999463318612314  0.5438962584117490
  0.9997196480968071  0.4999748697836424  0.1986170441320354
  0.3339262275181198  0.5626162883269714  0.2031740168893563
  0.1655390614019367  0.5625028159877914  0.2033348098223868
  0.2497424793942713  0.6250616848714046  0.2786226570078227
  0.0828349528238519  0.5624170740149950  0.2849066589282572
  0.4166710071198167  0.5624648881791501  0.2846651397299951
  0.9999134038285220  0.6249810395849877  0.3696895235073754
  0.3311684905120060  0.5622645552561636  0.3699884732222500
  0.1686747287807790  0.5622287187121486  0.3699475177221032
  0.2506308016872723  0.6240932849421412  0.4614937216233486
  0.0864575356460193  0.5625499961570668  0.4550787522012101
  0.4156527762935127  0.5631030335421414  0.4544354198780667
  0.0011656981589709  0.6215937064796435  0.5416245545452369
  0.9997243589794920  0.6244824538307654  0.1983837692761554
  0.3329323956714347  0.6874584170740334  0.2031289895663093
  0.1663382760539776  0.6874315022944657  0.2032097332792873
  0.2497226349676680  0.7501287273594102  0.2784620528313582
  0.0828270052328008  0.6874843799025570  0.2843815237026632
  0.4166642691033644  0.6875361979662884  0.2841972903475138
  0.9998806753921556  0.7506087292561787  0.3696038015345522
  0.3313778365494997  0.6876490076785302  0.3687687014861041
  0.1682948987652608  0.6875537556051796  0.3688344705716347
  0.2501289823531536  0.7511769230025038  0.4600295937886258
  0.0831861045423210  0.6879673835742679  0.4524979258828239
  0.4171192179288710  0.6882163334283931  0.4523815211802287
  0.9998655495197823  0.7474137611987075  0.5400450552865195
  0.9997800395035554  0.7502939241580364  0.1981891407512819
  0.3341203457610504  0.8125313450091625  0.2029229827694365
  0.1654958930244987  0.8124840628565266  0.2030257974511187
  0.2497950006471257  0.8751166137117110  0.2785627606542675
  0.0826658866384307  0.8126067963308401  0.2844908886294206
  0.4169420745183601  0.8126506484645617  0.2843726322917135
  0.9998301234441698  0.8751401609903766  0.3699958140902240
  0.3314585058895787  0.8127241446173628  0.3690502977182888
  0.1683142664913362  0.8126828384180200  0.3691392992713105
  0.2501572864338470  0.8731942082788535  0.4600264877930513
  0.0842638486044720  0.8129501250196327  0.4545914234087789
  0.4157944998428533  0.8129665419743546  0.4544864683752436
  0.9998757186071217  0.8709486437676830  0.5417761728115096
  0.9997735882017977  0.8747163882983600  0.1980898360464636
  0.3336000975211704  0.9376178901624499  0.2030994320158186
  0.1659695224888580  0.9375847238836741  0.2031629560108712
  0.2497672647270477  0.5000035025962362  0.2791876564369176
  0.0827250627780884  0.9375302248785786  0.2844360822512684
  0.4168863220266772  0.9375607186158632  0.2843543377783959
  0.9997840937489144  0.4999922777702750  0.3704380634056648
  0.3312285198344469  0.9377621360418402  0.3691362904534188
  0.1685880491392169  0.9377299320388914  0.3691625215635170
  0.2526052419967186  0.4995730947776451  0.4701799324418232
  0.0829106879892549  0.9382759410016703  0.4536870532619233
  0.4169909826766727  0.9382168333471554  0.4537262806911713
  0.9930575387219065  0.5002377461323064  0.5416526455759652
  0.3395300108945136  0.9333906775882781  0.5474731674672739
  0.1604793591930331  0.9334593381505201  0.5473437311761558
  0.4998358498135715  0.0000314913848385  0.1979766475270210
  0.8336830859778459  0.0624123282211144  0.2032160286085372
  0.6661429818155256  0.0624168817652233  0.2031729713136272
  0.7497866711330374  0.1249178520923095  0.2787206057646756
  0.5828095402828808  0.0625348226471374  0.2844135334204125
  0.9168464011572013  0.0625292400998703  0.2845017536343022
  0.4998974986718068  0.1249119711479096  0.3699341102727374
  0.8311522379031047  0.0622958237502829  0.3692208128563337
  0.6684975910513202  0.0623276578277228  0.3692588489129704
  0.7500165361208246  0.1266891714039176  0.4600447205732081
  0.5828513565975015  0.0617581270385799  0.4537429892797533
  0.9170996451434590  0.0617457728220501  0.4537462658603317
  0.4991874278119823  0.1288288038820582  0.5417008353160284
  0.8394730367962282  0.0665247223105965  0.5474233678835319
  0.6607776808571231  0.0660769767157205  0.5470463648341166
  0.4998520947273022  0.1253569907742786  0.1980552838657559
  0.8342753063206132  0.1875569319463466  0.2030652578265943
  0.6656466544199446  0.1875517790075492  0.2030267097938179
  0.7498699937152367  0.2498803521885762  0.2785716574830914
  0.5827447805346679  0.1874354356490784  0.2844421945528310
  0.9168319367487996  0.1874306813035318  0.2846363783621513
  0.4998008968424656  0.2494236530184111  0.3694313244022283
  0.8313163609428145  0.1873955435596741  0.3693219742600959
  0.6683132600124253  0.1874209094038406  0.3692681660716346
  0.7494944889722817  0.2487585238160079  0.4606154031033185
  0.5840824441189127  0.1872005858187293  0.4548314781035856
  0.9156884510312651  0.1869611870008541  0.4546224716367036
  0.5027985409191231  0.2527848305291656  0.5400285669389504
  0.4997744996044702  0.2496792010577025  0.1980761485919729
  0.8333070098711488  0.3125335172848906  0.2033147933540462
  0.6666021202025760  0.3124905303349479  0.2031605261469949
  0.7500289519420065  0.3749802286889903  0.2786680893936690
  0.5830466565798602  0.3125155295344797  0.2841901601809553
  0.9166160335235745  0.3125406649321718  0.2846001037257864
  0.4996405509435888  0.3751182776080526  0.3692640965232030
  0.8314108281728636  0.3124977181147344  0.3691148270211997
  0.6683037057587526  0.3125408240913359  0.3687547085323217
  0.7498218437520876  0.3756596108948926  0.4620151513429249
  0.5827227776338759  0.3124883619201526  0.4517498713732238
  0.9172176479396299  0.3118845441744682  0.4524961117581938
  0.5058872087464081  0.3794911023018486  0.5419382331359799
  0.4997396602338000  0.3755284407559216  0.1981674973121414
  0.8342466987257566  0.4374920335277324  0.2033667172938820
  0.6657934870715181  0.4374838205416935  0.2030990528570840
  0.7497655358608597  0.0000237968108578  0.2786537132774285
  0.5829434176478614  0.4375942152526804  0.2844583760363122
  0.9166251066419804  0.4376046789758021  0.2850600665615488
  0.4998999761421317  0.0000188753601762  0.3694476662703181
  0.8312768312421639  0.4377559967826770  0.3704129531683265
  0.6688007190605987  0.4377422561966782  0.3694627383867939
  0.7499488006603130  0.0000179227883521  0.4626409378434957
  0.5859455626855450  0.4376351989076213  0.4540657743231336
  0.9149497974149199  0.4373475380363914  0.4554192957108256
  0.4998280764108074  0.0000400160455385  0.5438548461912589
  0.4995584673716422  0.4999960935073489  0.1983034823202985
  0.8342430698280268  0.5625253827358563  0.2033218848852272
  0.6658261609421743  0.5625191842455237  0.2030629939151893
  0.7500220624958303  0.6250668458411610  0.2785372934567363
  0.5829443668406071  0.5624670133559775  0.2844264544814976
  0.9166622656862629  0.5624186913517946  0.2850174976100490
  0.4996453560733087  0.6250250416460688  0.3692180786061527
  0.8312653965229373  0.5622528665195929  0.3703024780001698
  0.6687782077637934  0.5622961704475244  0.3694080571385925
  0.7494962342762648  0.6243206813693192  0.4617481931182468
  0.5859556656996858  0.5624552240814040  0.4540948889410288
  0.9151991776073274  0.5630266192293263  0.4550695041209636
  0.5094434220655941  0.6210462760442255  0.5416538479706432
  0.4996979201581482  0.6244943737013173  0.1981180996571510
  0.8332899106892526  0.6874728921497066  0.2032487348722540
  0.6666604515918877  0.6875426177525483  0.2031015304226997
  0.7498358673449204  0.7501742718071895  0.2784112882091705
  0.5830567115168535  0.6875338329548910  0.2841081383867774
  0.9166311946722843  0.6874901342226636  0.2844632946737775
  0.4997161144047979  0.7506565004072741  0.3693558505604031
  0.8313869576897872  0.6875728779033707  0.3689106174210437
  0.6683458503341129  0.6875556585078044  0.3686023136678074
  0.7495245686292336  0.7512056304561625  0.4603206386007272
  0.5826323305090213  0.6877012728696528  0.4515770510421859
  0.9170461028764407  0.6881714516112751  0.4524379485306298
  0.5044349378529702  0.7473315861703540  0.5400534548963378
  0.4997661644921294  0.7503902822111854  0.1980224065768397
  0.8342694562318727  0.8124979406085515  0.2030059469467957
  0.6656166750677386  0.8125051555203768  0.2029505210116582
  0.7497753214893308  0.8751378010086555  0.2786311626798081
  0.5827293580408650  0.8126375729672901  0.2843891731161534
  0.9168766846887522  0.8126187313785209  0.2845555092413434
  0.4998766938991892  0.8751774642911485  0.3699031724716733
  0.8313619233617828  0.8126685941369800  0.3691963251110764
  0.6683483097418090  0.8126668313709828  0.3691608381485594
  0.7500892909388739  0.8733541807642311  0.4599307093989609
  0.5841250794667729  0.8128864795920734  0.4546778967882048
  0.9156050779834146  0.8129836873375851  0.4546123630722860
  0.4992300872564996  0.8712461080849394  0.5416982715675047
  0.4998591955369633  0.8746986625291342  0.1980342231133179
  0.8337075402726981  0.9376283396707521  0.2032071549866359
  0.6661373500900964  0.9376414654524154  0.2031511985730461
  0.7501202103586948  0.5000048523981064  0.2790119408009843
  0.5827957073802921  0.9375428398371426  0.2844046897053190
  0.9168411925419662  0.9375256175118878  0.2844739745916698
  0.4996713147047274  0.5000241633839764  0.3697374460682639
  0.8311569019645546  0.9377684965294151  0.3691979966273351
  0.6685351713961509  0.9377507129130507  0.3692212904003114
  0.7517707511632707  0.5000689141588808  0.4693802258176163
  0.5828949038054105  0.9382528869109095  0.4537226719125727
  0.9170471494984014  0.9382480339847987  0.4537417329986155
  0.4876650888733991  0.5012826587412818  0.5401236930936832
  0.8395356387160717  0.9333442075397613  0.5474267009749312
  0.6609434210935632  0.9340908283334883  0.5469964388973736
  0.4053467620954549  0.0000327824528767  0.2326476565650282
  0.2497779429478371  0.0000160915690088  0.1986442750841846
  0.0942643807030876  0.0000280395390106  0.2327287918185448
  0.1550759737351370  0.1248313270895665  0.3163995464967613
  0.9997956645134991  0.1249224523228492  0.3033542760357193
  0.3445796083325590  0.1248160629931547  0.3163553360963078
  0.4006673596981045  0.1247277093224000  0.4020945250468486
  0.2499260571674711  0.1249098542680827  0.3899335306522644
  0.0991769875479989  0.1247472187668563  0.4021197807497074
  0.1485940040382587  0.1214452311685790  0.4886258730847359
  0.0000242549808362  0.1244141700064105  0.4734044672161062
  0.3516075035179682  0.1216570073817067  0.4886818762323486
  0.4044003881706217  0.1291623777032811  0.5713680040774349
  0.2498814652702848  0.0894172825847548  0.5768238080442956
  0.0950959339356885  0.1288229930020535  0.5711401977011121
  0.4052647378559868  0.1250040253653992  0.2327080364824852
  0.2497693666533820  0.1250903516366293  0.2001634314510454
  0.0943299789080214  0.1250289043105113  0.2327880801195121
  0.1550578478316069  0.2497877299739955  0.3161891244025767
  0.9997697329037365  0.2499137010857453  0.3031067850007005
  0.3445301354622714  0.2497643580826150  0.3161099167716372
  0.4007729861931750  0.2487888577651844  0.4014090167112343
  0.2498602902594271  0.2498147931059478  0.3899761887730193
  0.0989606866819912  0.2487582696250499  0.4014922995292096
  0.1478332158316462  0.2517267149027234  0.4866383601450934
  0.0001183859399632  0.2489451374196960  0.4727924563366415
  0.3526489674661093  0.2519519271412136  0.4866197233828942
  0.4014715566311224  0.2539998170330477  0.5644136691570694
  0.2504177525899749  0.1890048382069054  0.5117714518897643
  0.1014744706609818  0.2521382461554964  0.5649164253388577
  0.4051339454578411  0.2499643829066898  0.2326284658999782
  0.2497515272315169  0.2498081885753223  0.1994737168985097
  0.0943480379737238  0.2500149494630790  0.2327722519261926
  0.1553885036572780  0.3752267021855928  0.3164154038231715
  0.9997550210892712  0.3750366719354759  0.3031654406603934
  0.3441734124450662  0.3752507065799691  0.3163353362725800
  0.4008010946859102  0.3751130527225683  0.4010999740286465
  0.2499370603935418  0.3752599435668103  0.3912655397307816
  0.0989109631259595  0.3751236135734999  0.4011844369970774
  0.1477780174004266  0.3699613556688135  0.4846925272366107
  0.0004659135017135  0.3760984415116582  0.4742173474015203
  0.3537415237196626  0.3700891259916119  0.4851367940773343
  0.4001879522259912  0.3892354204190625  0.5620910183310812
  0.2503125910743265  0.4326647989470231  0.5188189889224049
  0.1048897267870785  0.3842472170294613  0.5637415293211916
  0.4050336529738061  0.3751023664430519  0.2326938752994749
  0.2497196365378898  0.3752795863925158  0.1984848072154648
  0.0943753488307664  0.3751400875616397  0.2329002012719670
  0.1549711507473219  0.9999991310572298  0.3163366952270508
  0.9998144471735699  0.0000201608039632  0.3029471324287556
  0.3447261539683666  0.0000338030468185  0.3162996756490273
  0.4010977464564291  0.0000453715067223  0.4018544020609269
  0.2499115955275926  0.9999881461072988  0.3902883714472551
  0.0986638150089760  0.9999850626081610  0.4018334795176202
  0.1447074760070635  0.9999727030440013  0.4876094605340313
  0.9999761772893692  0.0000172995738055  0.4745968591600302
  0.3553150314576570  0.0000285067173351  0.4876716878923091
  0.4032342024325075  0.0000339441477450  0.5735634648469556
  0.2499922547940372  0.9999391102401702  0.5349719119052665
  0.0966386399557138  0.9999721241111601  0.5734241153592947
  0.4049482418806605  0.5000284699614994  0.2330153756638822
  0.2497757374467682  0.5000274517922350  0.2016757735661869
  0.0944621803185584  0.5000012192831846  0.2332268713809000
  0.1554101850043352  0.6248084587260081  0.3164211903223588
  0.9997757629318471  0.6250083743011388  0.3031261026915786
  0.3441422729200454  0.6248256220427493  0.3163343159961940
  0.4007503537505457  0.6251128511496873  0.4010776235235483
  0.2498696551406780  0.6247615547433440  0.3913023446441315
  0.0989895337439464  0.6248502045167257  0.4012303407375626
  0.1478244370768564  0.6298960166129604  0.4847703463006781
  0.0006802202350329  0.6239542850684856  0.4740554525779928
  0.3535406850726162  0.6299809547478290  0.4851881724671898
  0.4042163417227371  0.6086812999906002  0.5614155711644671
  0.2501328959555948  0.5664422091863557  0.5185948803224605
  0.1058080637174328  0.6156087648362529  0.5640981741976461
  0.4050328294640479  0.6249657578097398  0.2326892749944136
  0.2497005424063019  0.6247602296234547  0.1985326392509137
  0.0944381505054750  0.6248713522998912  0.2329127040635157
  0.1550589258986008  0.7502227389137204  0.3161786133749018
  0.9997769217849566  0.7501200840056228  0.3030544051681403
  0.3445099863122039  0.7502923115795355  0.3160921632970073
  0.4007611703567235  0.7513081031321605  0.4014323295243543
  0.2498134680436337  0.7502320042719575  0.3899644841518963
  0.0989712098482656  0.7511987902915820  0.4015154255014721
  0.1476952675633783  0.7482628738705301  0.4866223410582293
  0.9999758560921492  0.7510151510396952  0.4727219316814626
  0.3524833093252795  0.7484898944970766  0.4865305862705966
  0.4027591630697174  0.7448710255182718  0.5639361369799829
  0.2499029161548094  0.8109369678924452  0.5117934912208497
  0.1017422360019395  0.7479220479299116  0.5649025289150984
  0.4051302073681669  0.7500920272388498  0.2325882906953183
  0.2497336250177966  0.7502443206080613  0.1993336456807313
  0.0943829507350245  0.7500324198462636  0.2327571428286959
  0.1550818453025471  0.8751852937422555  0.3163933481577246
  0.9997861341586187  0.8751100997327796  0.3033332864087299
  0.3445797144593499  0.8752368575941105  0.3163356746415147
  0.4006593001399210  0.8753443994798786  0.4020888888607814
  0.2499091568985463  0.8750871754150396  0.3899785998403544
  0.0991420056890746  0.8752649489396092  0.4021230888980227
  0.1484975416284726  0.8785641627074767  0.4886047998139205
  0.9999721598778990  0.8755266744849948  0.4734175229833752
  0.3516544445734056  0.8783036002731777  0.4887212318760490
  0.4045255164593442  0.8708595079684613  0.5714772554739724
  0.2499429004320319  0.9104917585113697  0.5768318982894414
  0.0951398980604239  0.8710852520338221  0.5712163041681819
  0.4052540627705810  0.8750586853429212  0.2326956208807616
  0.2498031507210214  0.8749558242335596  0.2002311544411910
  0.0943369582708797  0.8750230893362172  0.2328005707667415
  0.1552638264608888  0.5000105683959930  0.3169757996519635
  0.9997826443061228  0.5000018105117476  0.3037476646650319
  0.3444143730487568  0.5000241273374897  0.3169154892614827
  0.4008450858244856  0.5000359694296819  0.4019282702666516
  0.2500722431662652  0.4999748880257329  0.3939004588263302
  0.0990333817088498  0.5000170746514030  0.4017661507021515
  0.1435571534945126  0.4995813926179551  0.4848560317766371
  0.0008917487719202  0.5000249950066618  0.4728586640140620
  0.3630357797728507  0.5004236097487720  0.4876437756677490
  0.3941753482582797  0.4986223993038337  0.5771195566934750
  0.2443876958436135  0.5001231907063470  0.5819199072268617
  0.0907763896336675  0.5028603649989520  0.5713936292452075
  0.9053627378838485  0.0000240370009479  0.2327870376200920
  0.7499245155688925  0.0000326079518018  0.1984113782057122
  0.5943592414464121  0.0000219672516835  0.2326715268981090
  0.6550545676025195  0.1248607025538959  0.3164795605875099
  0.4998546911942938  0.1249137293612677  0.3032471865300721
  0.8445120621864106  0.1248454455888037  0.3165189831818793
  0.9006105285874924  0.1247093040700307  0.4021852085815141
  0.7498296372721356  0.1249230939621384  0.3900344631685257
  0.5991165250319739  0.1248349283697010  0.4022056991122440
  0.6483904349919953  0.1214429244177069  0.4888491832680941
  0.4999971227384208  0.1244801960389239  0.4733159104888571
  0.8516613497189098  0.1215191405880844  0.4887501238323964
  0.9047974795682308  0.1286783905198945  0.5714877023138385
  0.7497976100053378  0.0897111960984915  0.5766669446186228
  0.5946923081327498  0.1282512266790548  0.5713328305495367
  0.9052454981029143  0.1250289604773513  0.2329116955165347
  0.7499340937694470  0.1250973427902693  0.2004782405805940
  0.5944506467877844  0.1249980038870433  0.2327593685103508
  0.6551581778428925  0.2497920681809944  0.3161830123878460
  0.4998573113677196  0.2499242193594924  0.3028722965302322
  0.8444563017969031  0.2498242639763291  0.3163954626241647
  0.9008042096660915  0.2488328124081249  0.4016436898303724
  0.7497898930084261  0.2499014985288568  0.3903700112722959
  0.5988245483136652  0.2488717005789667  0.4013279144928461
  0.6467343988570065  0.2517924735540760  0.4869214901776004
  0.5000883463630075  0.2492149302687068  0.4725156932984831
  0.8524086072207240  0.2517806920658217  0.4868019049841976
  0.8985905656439712  0.2522526281488666  0.5649042119052723
  0.7501288126851122  0.1886255571499547  0.5118166315708308
  0.6035996637410150  0.2524449284029018  0.5679954189115648
  0.9051644224554423  0.2499831272454145  0.2329104351678311
  0.7499811938790657  0.2497882374822780  0.1992751300987052
  0.5944324197784283  0.2499624416344233  0.2326199696408011
  0.6555270992058055  0.3751907578793876  0.3161610407124016
  0.4998434098540159  0.3750161741245108  0.3027106602052783
  0.8441744377949192  0.3752530651669517  0.3166788110959402
  0.9009113777006590  0.3751156357118148  0.4015571591549048
  0.7498809422108224  0.3753056425851469  0.3916723812873784
  0.5987731233221893  0.3752075948265272  0.4005610859578752
  0.6457305104255511  0.3721049329998465  0.4849688993986305
  0.5005861875468653  0.3763014771751116  0.4736391649383478
  0.8533291868094679  0.3697157456391054  0.4853502881300145
  0.8949177131024939  0.3862983467958614  0.5641994381447901
  0.7505106027583466  0.4333864899166713  0.5184893064360665
  0.6076693585081401  0.3792080860289957  0.5701556124779543
  0.9050633336198146  0.3751251728083318  0.2330980843554613
  0.7499715242433496  0.3752311734997349  0.1988248271879840
  0.5945401995034274  0.3750821203461143  0.2325733945600277
  0.6549257797818484  0.0000355765922109  0.3163808411392779
  0.4998463190457443  0.0000408694867886  0.3028919989183336
  0.8445942242305975  0.0000322306899321  0.3163766420481693
  0.9011433086672795  0.0000044818065064  0.4018813941434161
  0.7498777367900615  0.0000358651733166  0.3903402880479021
  0.5986112635178316  0.0000152611935889  0.4018747218198655
  0.6446942184523081  0.0000146690432814  0.4877543487089184
  0.4999274528473094  0.0000015694349926  0.4745934165258845
  0.8552332150894628  0.9999906865983803  0.4876045160226141
  0.9031995043722318  0.9998978006524766  0.5734235915783330
  0.7501664673622699  0.9999961668341797  0.5351338762412894
  0.5964672289700204  0.0000288442589849  0.5735211571817231
  0.9051235999271299  0.4999990966222327  0.2333707450841942
  0.7499652719422016  0.4999956619029220  0.2012570427881215
  0.5945212063755108  0.5000036081662671  0.2327303291309732
  0.6555618331708075  0.6248581641576507  0.3160621387746616
  0.4998469317912608  0.6250597183105384  0.3026860072614923
  0.8441691324214844  0.6247717857925750  0.3165472058836087
  0.9009633381704205  0.6250220393579724  0.4012753726644718
  0.7498479604237431  0.6247574463846561  0.3914776790777239
  0.5988050776923828  0.6248861285970406  0.4004365993968619
  0.6453543028666431  0.6279135981103323  0.4848986847719274
  0.5006779662598291  0.6241694572257614  0.4732788243152868
  0.8528255083387819  0.6303902553451692  0.4848217606813421
  0.8959903684705282  0.6115924582927121  0.5624496481954964
  0.7498357047278930  0.5668517781312872  0.5187235231011229
  0.6112592402128811  0.6206399784442311  0.5702468929042439
  0.9051298630745848  0.6248849154943699  0.2329996305078552
  0.7499652810013231  0.6247574816950561  0.1986635196078197
  0.5945454214809658  0.6249342758114196  0.2325008954368428
  0.6551899081321579  0.7502918412966864  0.3160544702587629
  0.4998573726486342  0.7501288306199356  0.3027922457377556
  0.8444522443700890  0.7502512532784635  0.3162414414102486
  0.9007928485930634  0.7512487602826354  0.4015193782819324
  0.7498297184317195  0.7501910071504909  0.3901704891484883
  0.5987646330742464  0.7512623576806590  0.4011558702497808
  0.6469053578930684  0.7484418780741180  0.4865455703822903
  0.5002311270111690  0.7509122946644382  0.4725298365785164
  0.8522568827910177  0.7481386675905952  0.4868070817786503
  0.8991110255343955  0.7474393811817066  0.5649985296461608
  0.7499611607898231  0.8113631817716040  0.5117091352888110
  0.6051199007440644  0.7475302402967330  0.5679845124074987
  0.9051987992268806  0.7500622118864584  0.2328065628111986
  0.7499486705091059  0.7502867771850674  0.1991554249582066
  0.5944800498100520  0.7501116083784893  0.2325530156604216
  0.6550603852768688  0.8752071737448333  0.3164182355070793
  0.4998447130811954  0.8751589819624570  0.3032147752684722
  0.8445036743713743  0.8751959291311238  0.3164465407161288
  0.9006102256898671  0.8752979525918931  0.4021626714971518
  0.7498875402268013  0.8751389445376176  0.3899373388870728
  0.5991234182762639  0.8752572204308322  0.4021509701097301
  0.6485266290856657  0.8786399422369229  0.4888245819775108
  0.5000234714165117  0.8756175128401722  0.4733312894134656
  0.8515762956132775  0.8784544097603018  0.4887342573417328
  0.9047836556465469  0.8709936089900054  0.5713437165738497
  0.7498867579291257  0.9102834676791218  0.5766977752503166
  0.5949031968413792  0.8716282187680804  0.5711633959475790
  0.9053128804296335  0.8750289221849741  0.2328518998975966
  0.7499392638671480  0.8749537971178611  0.2004472618805835
  0.5944559039310988  0.8750728900325555  0.2327347843413889
  0.6554985872847254  0.5000413086352680  0.3164968122961511
  0.4998448814591612  0.5000440092189251  0.3031263245803402
  0.8443568885887203  0.5000141015532620  0.3172092934462540
  0.9009000866879830  0.4999930961494101  0.4023642395414981
  0.7499382602686779  0.5000389571156063  0.3937768723398278
  0.5990053855590602  0.5000510831188336  0.4006641148994419
  0.6434438077536839  0.4998529717911637  0.4836176591353123
  0.5007556339804040  0.5002079083869120  0.4716896518131790
  0.8617458435756262  0.5006283572004904  0.4875068957319471
  0.8985578219642321  0.4978901129698912  0.5768303413256461
  0.7438402049827388  0.4984429440551210  0.5803856618812020
  0.5879396658847966  0.4997968100725387  0.5672891509747373
  0.3635726197407365  0.1928954037656752  0.5330775721682457
  0.1376974746603068  0.1913923419777461  0.5329395550123479
  0.3792676128105867  0.3206296717977821  0.5340094643973430
  0.1254235067657348  0.3172406274085375  0.5339823021855281
  0.3240440305226500  0.4465138771765069  0.5651872336732566
  0.1664794150980882  0.4492683464927936  0.5606791330339433
  0.3247418150627368  0.5518444346872400  0.5637251644285897
  0.1711185442190626  0.5525435400150585  0.5634702844499344
  0.3804445351323267  0.6780562258151974  0.5346005059471963
  0.1253631161314033  0.6828239228904707  0.5343574227728638
  0.3643654382122961  0.8065928088560881  0.5333897380164458
  0.1381292794398306  0.8083929779037575  0.5329226155641322
  0.8624859256868831  0.1915106641429603  0.5329588249229573
  0.6358209501335566  0.1888701669450725  0.5341050644076191
  0.8767494053327027  0.3187933483762606  0.5351869575737638
  0.6311573388301355  0.3146719615975258  0.5300774887343138
  0.8250024597706371  0.4462713760671093  0.5652437290778138
  0.6698987835672057  0.4495372076400983  0.5621380549443344
  0.8271385196088659  0.5503160382986962  0.5616330712331319
  0.6714468314755351  0.5500143611817876  0.5636712821537344
  0.8763690103750506  0.6809352345607920  0.5340803477685228
  0.6325727746616820  0.6854006221440017  0.5298637790276715
  0.8624966551290356  0.8082198104736449  0.5327846194803243
  0.6367333370389545  0.8113138930198716  0.5340877549329974
  0.6006203414280691  0.6847438607162886  0.6076325963718006
  0.5975917593383784  0.3151242929585294  0.6075947134235165
 
  0.00000000E+00  0.00000000E+00  0.00000000E+00
  0.00000000E+00  0.00000000E+00  0.00000000E+00
  0.00000000E+00  0.00000000E+00  0.00000000E+00
  0.00000000E+00  0.00000000E+00  0.00000000E+00
  0.00000000E+00  0.00000000E+00  0.00000000E+00