Cu	N	Ru	Ta                              
   1.00000000000000     
    18.1096308199999996    0.0000000000000000    0.0000000000000000
     0.0000000000000000   23.3551997799999995    0.0000000000000000
     0.0000000000000000    0.0000000000000000   30.4818171199999988
   Cu   N    Ru   Ta
     4   240    12   228
Selective dynamics
Direct
  0.5617728773494801  0.4374426303935636  0.6106137157949416   T   T   T
  0.0940213541969605  0.0673356174012858  0.5894263143416687   T   T   T
  0.4462909266360846  0.3912189924626704  0.6271791530312351   T   T   T
  0.4541223386630675  0.4923360708253928  0.6228086784969378   T   T   T
  0.0000000000000000  0.0002658024790421  0.3027806050297599   F   F   F
  0.0000000000000000  0.5002658024790421  0.3027806050297599   F   F   F
  0.0000000000000000  0.6252068313499990  0.3027729437410898   F   F   F
  0.0000000000000000  0.7502658026931286  0.3027806050297599   F   F   F
  0.0000000000000000  0.8752068315640855  0.3027729437410898   F   F   F
  0.0000000000000000  0.1252068313499990  0.3027729437410898   F   F   F
  0.0000000000000000  0.2502658026931286  0.3027806050297599   F   F   F
  0.0000000000000000  0.3752068315640855  0.3027729437410898   F   F   F
  0.0000799378080531  0.3751803985321124  0.4733501213272516   T   T   T
  0.9998876447080183  0.5023040769377590  0.4730475944417601   T   T   T
  0.0003953847174867  0.1252936239337828  0.4741332990881490   T   T   T
  0.0004084193000539  0.0018648830565088  0.4741038902338529   T   T   T
  0.5921606645598764  0.7504313284300346  0.5684130188140948   T   T   T
  0.5929995157491846  0.2509223373610597  0.5682940774183237   T   T   T
  0.5928008245954042  0.9999863066002743  0.5685327218153090   T   T   T
  0.5940493004484111  0.9998103570065027  0.2323399901691943   F   F   F
  0.5940493004484111  0.4998103570065027  0.2323399901691943   F   F   F
  0.5940493004484111  0.7498103572205892  0.2323399901691943   F   F   F
  0.5940493004484111  0.2498103572205892  0.2323399901691943   F   F   F
  0.5941034351798038  0.6248444726427422  0.2323487498175751   F   F   F
  0.5941034351798038  0.8748444728568288  0.2323487498175751   F   F   F
  0.5941034351798038  0.1248444726427422  0.2323487498175751   F   F   F
  0.5941034351798038  0.3748444728568288  0.2323487498175751   F   F   F
  0.5977674936178817  0.8719259540893584  0.5714767454310679   T   T   T
  0.5973899341430542  0.4995402438837588  0.5704324295222070   T   T   T
  0.5982226801242099  0.6216280074157846  0.5716849317274930   T   T   T
  0.5987213616577072  0.8743826445212234  0.4025143485415423   T   T   T
  0.5986165354446589  0.6242521416712673  0.4026294533420655   T   T   T
  0.5988705291075715  0.1244153822979779  0.4024132918548549   T   T   T
  0.5987408050495671  0.3744644954001052  0.4025130682865926   T   T   T
  0.6005646303416805  0.3724396227438549  0.5719294861454136   T   T   T
  0.5990153161271008  0.7493117640994384  0.4023560647523828   T   T   T
  0.5990852008472284  0.2493320706753669  0.4023299280289540   T   T   T
  0.5991320604492072  0.9992455024082155  0.4022691761807208   T   T   T
  0.5989491995036472  0.1219431185359177  0.5718355290972162   T   T   T
  0.5990711883959903  0.4993503287165604  0.4023678639357256   T   T   T
  0.6506966919142250  0.1232431912290081  0.4880737563239234   T   T   T
  0.6508137820486285  0.8734015648561327  0.4882220261856680   T   T   T
  0.6506382303597870  0.6233681418275929  0.4883157958373070   T   T   T
  0.6513131360292103  0.3728946616107992  0.4879972026031681   T   T   T
  0.6515953592684699  0.2494515640092255  0.4882710646142839   T   T   T
  0.6512902455811602  0.9993460316778945  0.4882502830580610   T   T   T
  0.6513347228555183  0.7494291024974062  0.4884323722400012   T   T   T
  0.6518316814529976  0.4995037764947867  0.4884820909116762   T   T   T
  0.6547396409045092  0.9997083480310920  0.3159103144045119   F   F   F
  0.6547396409045092  0.4997083480310920  0.3159103144045119   F   F   F
  0.6547396409045092  0.7497083482451785  0.3159103144045119   F   F   F
  0.6547396409045092  0.2497083482451785  0.3159103144045119   F   F   F
  0.6547625022209047  0.6246790182669955  0.3159667218028375   F   F   F
  0.6547625022209047  0.8746790184810820  0.3159667218028375   F   F   F
  0.6547625022209047  0.1246790182669955  0.3159667218028375   F   F   F
  0.6547625022209047  0.3746790184810820  0.3159667218028375   F   F   F
  0.7408638172976412  0.2425834666619389  0.5620158753982560   T   T   T
  0.7405972572567391  0.7420404475927761  0.5622763852639182   T   T   T
  0.7413648028837863  0.9929108393509458  0.5618712521315380   T   T   T
  0.7438065129304335  0.4928686445601519  0.5616773658021369   T   T   T
  0.7497181855858486  0.0000100119032282  0.1992701427899632   F   F   F
  0.7497181855858486  0.5000100119032282  0.1992701427899632   F   F   F
  0.7497181855858486  0.7500100121173077  0.1992701427899632   F   F   F
  0.7497181855858486  0.2500100121173077  0.1992701427899632   F   F   F
  0.7497340914871273  0.6250292589019324  0.1993221157413743   F   F   F
  0.7497340914871273  0.8750292591160189  0.1993221157413743   F   F   F
  0.7497340914871273  0.1250292589019324  0.1993221157413743   F   F   F
  0.7497340914871273  0.3750292591160189  0.1993221157413743   F   F   F
  0.7500013160780316  0.7499056437131634  0.3872752609681885   T   T   T
  0.7499842700458693  0.6249663148060652  0.3879363793306265   T   T   T
  0.7500749046882915  0.8749452341796332  0.3878689219787559   T   T   T
  0.7502048163680989  0.0000579335290733  0.3872852938948602   T   T   T
  0.7501774751142898  0.2498688954458763  0.3871964612095083   T   T   T
  0.7500965523507173  0.4998960849304532  0.3872792935761866   T   T   T
  0.7501908296581887  0.3749147390127259  0.3878067608252941   T   T   T
  0.7502727650801758  0.1248945165314517  0.3877494071536756   T   T   T
  0.7519311684249882  0.1226732966914984  0.5558002431147908   T   T   T
  0.7521023357629132  0.8725479500997316  0.5563598291282836   T   T   T
  0.7521700370409173  0.6225091919510420  0.5561447678344530   T   T   T
  0.7538085740023035  0.3725563022789464  0.5559434625708908   T   T   T
  0.8451499272473839  0.6251896283286698  0.3155471503596488   F   F   F
  0.8451499272473839  0.8751896285427563  0.3155471503596488   F   F   F
  0.8451499272473839  0.1251896283286698  0.3155471503596488   F   F   F
  0.8451499272473839  0.3751896285427563  0.3155471503596488   F   F   F
  0.8451807898312538  0.0001939208417241  0.3155011134060643   F   F   F
  0.8451807898312538  0.5001939208417241  0.3155011134060643   F   F   F
  0.8451807898312538  0.7501939210558106  0.3155011134060643   F   F   F
  0.8451807898312538  0.2501939210558106  0.3155011134060643   F   F   F
  0.8463525737116993  0.7482889990800968  0.4859175231393802   T   T   T
  0.8468044331073048  0.2484703513577050  0.4857986723127251   T   T   T
  0.8468575950949407  0.9990861683482912  0.4860068954570930   T   T   T
  0.8471528013692625  0.4985079836072939  0.4856750394294486   T   T   T
  0.8486449423368545  0.1286867897091368  0.4859302225057912   T   T   T
  0.8488680456287727  0.8793351766135774  0.4863815080273126   T   T   T
  0.8488802656996368  0.6290342676958319  0.4862299481864514   T   T   T
  0.8494869074206310  0.3787636494687229  0.4862873732280807   T   T   T
  0.0851071227953380  0.1465352545693945  0.5782443772464878   T   T   T
  0.0872201758318565  0.9884453156224268  0.5782662541365543   T   T   T
  0.8990532890467252  0.1338420987607148  0.5709618741157941   T   T   T
  0.8986397037896361  0.0077800870812304  0.5678531600700470   T   T   T
  0.9006060075913617  0.7507392207506297  0.4017692400420365   T   T   T
  0.9007877002335442  0.6256675638027783  0.4017317678636991   T   T   T
  0.9008205666939686  0.5007514667725126  0.4016546670866422   T   T   T
  0.9009411257874104  0.8757197452170142  0.4019529186664003   T   T   T
  0.9011055399771452  0.2589496793061301  0.5677404601425063   T   T   T
  0.9010601582534110  0.3755580767613021  0.4017508955077801   T   T   T
  0.9011538230056488  0.2507269270532214  0.4018524821669514   T   T   T
  0.9012184767665761  0.0008296785110327  0.4018453718818290   T   T   T
  0.9014613809840605  0.1255376264359424  0.4017834329253351   T   T   T
  0.9014136091215620  0.7586938662713903  0.5676767877500091   T   T   T
  0.9018564003933383  0.5089119092497423  0.5679517776081846   T   T   T
  0.9020972040382116  0.6349821800343651  0.5712093473788383   T   T   T
  0.9024163793559828  0.8843292774805911  0.5713723344237648   T   T   T
  0.9033547163579435  0.3848532753574488  0.5716564876488555   T   T   T
  0.9057164253114252  0.6251516265128672  0.2320045249323357   F   F   F
  0.9057164253114252  0.8751516267269537  0.2320045249323357   F   F   F
  0.9057164253114252  0.1251516265128672  0.2320045249323357   F   F   F
  0.9057164253114252  0.3751516267269537  0.2320045249323357   F   F   F
  0.9057548087553968  0.0001403618907503  0.2320193078436787   F   F   F
  0.9057548087553968  0.5001403618907503  0.2320193078436787   F   F   F
  0.9057548087553968  0.7501403621048368  0.2320193078436787   F   F   F
  0.9057548087553968  0.2501403621048368  0.2320193078436787   F   F   F
  0.0942451912446032  0.0001403618907503  0.2320193078436787   F   F   F
  0.0942451912446032  0.5001403618907503  0.2320193078436787   F   F   F
  0.0942451912446032  0.7501403621048368  0.2320193078436787   F   F   F
  0.0942451912446032  0.2501403621048368  0.2320193078436787   F   F   F
  0.0942835746885748  0.6251516265128672  0.2320045249323357   F   F   F
  0.0942835746885748  0.8751516267269537  0.2320045249323357   F   F   F
  0.0942835746885748  0.1251516265128672  0.2320045249323357   F   F   F
  0.0942835746885748  0.3751516267269537  0.2320045249323357   F   F   F
  0.0972522320131414  0.3840422462804204  0.5711293682780400   T   T   T
  0.0966448251044177  0.6319202183023063  0.5710139736007331   T   T   T
  0.0984483871112272  0.5080267947442515  0.5678615366827396   T   T   T
  0.0983540485580626  0.8752165459427195  0.5692578293405738   T   T   T
  0.0986016554491412  0.0008277759413353  0.4022586905929842   T   T   T
  0.0985804829312444  0.8754302322303522  0.4018152165912864   T   T   T
  0.0987151411249937  0.1251130042983587  0.4023791398680842   T   T   T
  0.0986684035216944  0.7504762088006165  0.4016206203639318   T   T   T
  0.0988592180928570  0.3756390443691321  0.4017371810941170   T   T   T
  0.0987912590030525  0.6256443545633261  0.4016643753678422   T   T   T
  0.0990152215929068  0.2506773783480271  0.4020557582551523   T   T   T
  0.0989449806803785  0.5007513836684633  0.4015984465434723   T   T   T
  0.0990606081806044  0.7543696842871446  0.5684387025672696   T   T   T
  0.0996996063441656  0.2605123928005913  0.5673047741783724   T   T   T
  0.9994503435653620  0.8748585833995990  0.4737742152114405   T   T   T
  0.9995714349136924  0.7519128422196442  0.4731518414005459   T   T   T
  0.9996406215425737  0.6251099267056054  0.4733997132160683   T   T   T
  0.0000168493503724  0.2521981537753339  0.4738974842069629   T   T   T
  0.1507278904865473  0.6285654035270989  0.4861082430440892   T   T   T
  0.1511900563531726  0.3791674653843997  0.4858790842984604   T   T   T
  0.1509043972116716  0.9949194925304050  0.4869876491965210   T   T   T
  0.1515044823502786  0.8771308537340275  0.4860666527291969   T   T   T
  0.1517610330214693  0.1310915585028845  0.4874106399851457   T   T   T
  0.1527687595462094  0.4988516123033858  0.4855656882121346   T   T   T
  0.1524363580674643  0.7483790329110133  0.4857386356594730   T   T   T
  0.1536893359230710  0.2487037213327272  0.4862454876842232   T   T   T
  0.1548192101687462  0.0001939208417241  0.3155011134060643   F   F   F
  0.1548192101687462  0.5001939208417241  0.3155011134060643   F   F   F
  0.1548192101687462  0.7501939210558106  0.3155011134060643   F   F   F
  0.1548192101687462  0.2501939210558106  0.3155011134060643   F   F   F
  0.1548500727526161  0.6251896283286698  0.3155471503596488   F   F   F
  0.1548500727526161  0.8751896285427563  0.3155471503596488   F   F   F
  0.1548500727526161  0.1251896283286698  0.3155471503596488   F   F   F
  0.1548500727526161  0.3751896285427563  0.3155471503596488   F   F   F
  0.2466194241430682  0.3736258891349032  0.5563072192231645   T   T   T
  0.2469928150384003  0.6237198001242986  0.5568448202508067   T   T   T
  0.2478580363840463  0.8746139845355584  0.5572182165102124   T   T   T
  0.2497903184637296  0.8746339099352228  0.3874078539932460   T   T   T
  0.2497829619141436  0.9999424438416175  0.3873077763798140   T   T   T
  0.2497675669203378  0.7499090318617796  0.3871159295759579   T   T   T
  0.2497956967140007  0.1249718856053347  0.3875210873677598   T   T   T
  0.2498320315035955  0.4999954803856636  0.3872754503228232   T   T   T
  0.2497919286400676  0.6249489797628303  0.3876386469787797   T   T   T
  0.2498365147835110  0.3750331080634108  0.3878144062013508   T   T   T
  0.2498596364754804  0.2501978620232316  0.3871146675013521   T   T   T
  0.2502659079606815  0.6250292589019324  0.1993221157413743   F   F   F
  0.2502659079606815  0.8750292591160189  0.1993221157413743   F   F   F
  0.2502659079606815  0.1250292589019324  0.1993221157413743   F   F   F
  0.2502659079606815  0.3750292591160189  0.1993221157413743   F   F   F
  0.2502818138619602  0.0000100119032282  0.1992701427899632   F   F   F
  0.2502818138619602  0.5000100119032282  0.1992701427899632   F   F   F
  0.2502818138619602  0.7500100121173077  0.1992701427899632   F   F   F
  0.2502818138619602  0.2500100121173077  0.1992701427899632   F   F   F
  0.2510578208294899  0.1260355195413124  0.5579030188690031   T   T   T
  0.2524742388925995  0.9979881964863722  0.5586737043366035   T   T   T
  0.2555768236396611  0.4938875714012583  0.5612554072363890   T   T   T
  0.2544674351081557  0.7456372180333880  0.5603310057151784   T   T   T
  0.2566114670703539  0.2436198963920786  0.5609218496929401   T   T   T
  0.3452374977790953  0.6246790182669955  0.3159667218028375   F   F   F
  0.3452374977790953  0.8746790184810820  0.3159667218028375   F   F   F
  0.3452374977790953  0.1246790182669955  0.3159667218028375   F   F   F
  0.3452374977790953  0.3746790184810820  0.3159667218028375   F   F   F
  0.3452603590954908  0.9997083480310920  0.3159103144045119   F   F   F
  0.3452603590954908  0.4997083480310920  0.3159103144045119   F   F   F
  0.3452603590954908  0.7497083482451785  0.3159103144045119   F   F   F
  0.3452603590954908  0.2497083482451785  0.3159103144045119   F   F   F
  0.3483388831700321  0.2498283349591685  0.4882146915046618   T   T   T
  0.3480458292379511  0.7497975499048805  0.4880370735282398   T   T   T
  0.3482245775939431  0.9989408463013048  0.4878131894221391   T   T   T
  0.3484216812621577  0.4996775703431361  0.4886658238573450   T   T   T
  0.3482827486939183  0.6239609468700822  0.4881608636920022   T   T   T
  0.3485355384007885  0.8738183631039551  0.4881999798522743   T   T   T
  0.3492685715210301  0.3735108547397163  0.4886088791421410   T   T   T
  0.3490855457465452  0.1243091094373124  0.4881042165774711   T   T   T
  0.3982359041570194  0.3717432216146683  0.5728088126528958   T   T   T
  0.4011563245441015  0.5021451706622744  0.5701041934726190   T   T   T
  0.4008081625826200  0.6229613903870743  0.5709769441238167   T   T   T
  0.4008433284086814  0.9994714645945336  0.4021865505837638   T   T   T
  0.4009549065699288  0.2496253830848728  0.4023148991188701   T   T   T
  0.4008688150160743  0.7493829334024158  0.4023222342093107   T   T   T
  0.4012977411071975  0.8734488292352228  0.5706888996600695   T   T   T
  0.4008869324301602  0.4994129472992135  0.4024771460645344   T   T   T
  0.4011149684699519  0.8743255136729823  0.4024757352546406   T   T   T
  0.4010693582288252  0.1244077830607485  0.4024498117143068   T   T   T
  0.4011239344788789  0.6243670606042603  0.4026027236969809   T   T   T
  0.4012256582022869  0.3747051957640771  0.4026560461071460   T   T   T
  0.4050726628109428  0.1237025769772881  0.5713624657374539   T   T   T
  0.4059197733292537  0.2515963798022110  0.5686373363842950   T   T   T
  0.4048382996000446  0.7507981903516854  0.5685213433110231   T   T   T
  0.4058566689287387  0.9992138470025340  0.5685191137711566   T   T   T
  0.4058965648201962  0.6248444726427422  0.2323487498175751   F   F   F
  0.4058965648201962  0.8748444728568288  0.2323487498175751   F   F   F
  0.4058965648201962  0.1248444726427422  0.2323487498175751   F   F   F
  0.4058965648201962  0.3748444728568288  0.2323487498175751   F   F   F
  0.4059506995515889  0.9998103570065027  0.2323399901691943   F   F   F
  0.4059506995515889  0.4998103570065027  0.2323399901691943   F   F   F
  0.4059506995515889  0.7498103572205892  0.2323399901691943   F   F   F
  0.4059506995515889  0.2498103572205892  0.2323399901691943   F   F   F
  0.4996301026689358  0.9996328818334886  0.4728008702345668   T   T   T
  0.4999454023758628  0.2498522563375208  0.4734386325761846   T   T   T
  0.4998890967989255  0.1235563491155242  0.4750351460966761   T   T   T
  0.4998128608617156  0.8735793795616034  0.4754235297356382   T   T   T
  0.4997178356207277  0.7495991677838637  0.4730330161739291   T   T   T
  0.5000310266052364  0.3738479147687040  0.4753225311319634   T   T   T
  0.5000000000000000  0.9996370422826644  0.3031199056678844   F   F   F
  0.5000000000000000  0.4996370422826644  0.3031199056678844   F   F   F
  0.5000000000000000  0.6247350156471256  0.3031143997625279   F   F   F
  0.5000000000000000  0.7496370424967509  0.3031199056678844   F   F   F
  0.5000000000000000  0.8747350158612122  0.3031143997625279   F   F   F
  0.5000000000000000  0.1247350156471256  0.3031143997625279   F   F   F
  0.5000000000000000  0.2496370424967509  0.3031199056678844   F   F   F
  0.5000000000000000  0.3747350158612122  0.3031143997625279   F   F   F
  0.4998159252058094  0.6236271712761309  0.4757354457634068   T   T   T
  0.5000435526669453  0.4996568397207480  0.4734010436712912   T   T   T
  0.8427661827480192  0.0684097864240817  0.5356577911938468   T   T   T
  0.8476545656032235  0.8197318601390522  0.5369814730037781   T   T   T
  0.8476947839498297  0.5695945793873907  0.5368933699253355   T   T   T
  0.8478393773269230  0.3198367531906651  0.5372154375210472   T   T   T
  0.1542997422957019  0.3197020602340746  0.5365819397073114   T   T   T
  0.1538099306903029  0.5684310197780056  0.5365411175381468   T   T   T
  0.1579910784903298  0.8151071228781515  0.5356012572474520   T   T   T
  0.1892757426405237  0.0625232340220626  0.5256311998856277   T   T   T
  0.4994996425321407  0.2601089863118403  0.5398141733594020   T   T   T
  0.4989026860934124  0.7575159929763532  0.5393148768374861   T   T   T
  0.4998750475939961  0.0070363893988567  0.5390891841090107   T   T   T
  0.5008990768983468  0.5077945856095823  0.5399866742211488   T   T   T
  0.0000000000000000  0.0000718854908470  0.1971343718238288   F   F   F
  0.0000000000000000  0.5000718854908470  0.1971343718238288   F   F   F
  0.0000000000000000  0.6251997477026094  0.1971274191543344   F   F   F
  0.0000000000000000  0.7500718857049335  0.1971343718238288   F   F   F
  0.0000000000000000  0.8751997479166960  0.1971274191543344   F   F   F
  0.0000000000000000  0.1251997477026094  0.1971274191543344   F   F   F
  0.0000000000000000  0.2500718857049335  0.1971343718238288   F   F   F
  0.0000000000000000  0.3751997479166960  0.1971274191543344   F   F   F
  0.9997608149013322  0.6255134596698977  0.3692916570573616   T   T   T
  0.0001212823585559  0.5006742688385750  0.5409058765162646   T   T   T
  0.9998905996745553  0.5006143554705990  0.3693078308794652   T   T   T
  0.9999626923062127  0.3755319807240064  0.3693163189420118   T   T   T
  0.0001430775621821  0.0005349198446909  0.3694115983210475   T   T   T
  0.0001809377244280  0.2505644665311625  0.3694433221511927   T   T   T
  0.0002723319795041  0.1254328629862727  0.3694416039204263   T   T   T
  0.0006547831697373  0.7506726407902727  0.5411419440925569   T   T   T
  0.0006210692697127  0.2510757389991722  0.5416005958993955   T   T   T
  0.5826617485954912  0.5622475047824267  0.2840383746124928   F   F   F
  0.5826617485954912  0.0622475047824267  0.2840383746124928   F   F   F
  0.5826617485954912  0.8122475045683402  0.2840383746124928   F   F   F
  0.5826617485954912  0.3122475045683402  0.2840383746124928   F   F   F
  0.5827027102256537  0.4372504995116770  0.2840867749422387   F   F   F
  0.5827027102256537  0.6872504992975905  0.2840867749422387   F   F   F
  0.5827027102256537  0.9372504995116770  0.2840867749422387   F   F   F
  0.5827027102256537  0.1872504992975905  0.2840867749422387   F   F   F
  0.5837281489153799  0.1864818336701480  0.4541208151911945   T   T   T
  0.5837231047145653  0.9365031328413629  0.4541334292860422   T   T   T
  0.5839593761275749  0.3115332948089470  0.4543800951357987   T   T   T
  0.5838361269416107  0.0614340977872595  0.4540959465377306   T   T   T
  0.5836327767943519  0.6865181040565010  0.4541604675348252   T   T   T
  0.5837446060798717  0.4365290069377737  0.4542747732466538   T   T   T
  0.5838455066731143  0.5614452354291449  0.4545946288093842   T   T   T
  0.5839663721530020  0.8115061674425051  0.4544029797491465   T   T   T
  0.6599642818389773  0.9356862851872690  0.5422346104170188   T   T   T
  0.6599023409608801  0.6860519767094307  0.5424236893527018   T   T   T
  0.6603678525661708  0.1851555843987886  0.5421065632603678   T   T   T
  0.6648975981544371  0.4357095110214093  0.5407072212617221   T   T   T
  0.6656630292367254  0.4374555758991647  0.2027209846340057   F   F   F
  0.6656630292367254  0.6874555756850853  0.2027209846340057   F   F   F
  0.6656630292367254  0.9374555758991647  0.2027209846340057   F   F   F
  0.6656630292367254  0.1874555756850853  0.2027209846340057   F   F   F
  0.6657072857987743  0.5624132520265661  0.2026937805471647   F   F   F
  0.6657072857987743  0.0624132520265661  0.2026937805471647   F   F   F
  0.6657072857987743  0.8124132518124867  0.2026937805471647   F   F   F
  0.6657072857987743  0.3124132518124867  0.2026937805471647   F   F   F
  0.6675110651659659  0.6870570950171000  0.3685424829979571   T   T   T
  0.6676137652079132  0.8122143067383280  0.3685373906901064   T   T   T
  0.6676733521839782  0.9370738930533223  0.3685205108651400   T   T   T
  0.6675914076876103  0.4370842774830786  0.3685555525415944   T   T   T
  0.6677337479491539  0.1870734331486103  0.3684716554026364   T   T   T
  0.6677459678567342  0.0622100595749818  0.3684483560772108   T   T   T
  0.6676702081937306  0.3122300110898037  0.3685653393763367   T   T   T
  0.6676611997523508  0.5622326081130468  0.3685423961402979   T   T   T
  0.6682182690591086  0.0596203754202635  0.5434397365659619   T   T   T
  0.6683671396358901  0.8100580032773639  0.5437874308216630   T   T   T
  0.6700327332139477  0.3091663375788898  0.5435892727861439   T   T   T
  0.6698552978419886  0.5605827523756421  0.5440164648571113   T   T   T
  0.7493067921684126  0.2484706215822209  0.4549613801277077   T   T   T
  0.7491618978346529  0.1264207791978446  0.4557578291627988   T   T   T
  0.7491742858747084  0.9984512181256835  0.4550824895628653   T   T   T
  0.7490207609759221  0.7483394052054011  0.4550824527174154   T   T   T
  0.7494110243356927  0.8765497402200912  0.4559483659133641   T   T   T
  0.7491591632991023  0.6264466005499874  0.4560250016469748   T   T   T
  0.7497058400015681  0.3761289660318119  0.4558163753777128   T   T   T
  0.7497932119634427  0.6250918038603928  0.2779408447549940   F   F   F
  0.7497932119634427  0.8750918040744793  0.2779408447549940   F   F   F
  0.7497932119634427  0.1250918038603928  0.2779408447549940   F   F   F
  0.7497932119634427  0.3750918040744793  0.2779408447549940   F   F   F
  0.7498000177344295  0.9998887643854673  0.2779024730268418   F   F   F
  0.7498000177344295  0.4998887643854673  0.2779024730268418   F   F   F
  0.7498000177344295  0.7498887645995538  0.2779024730268418   F   F   F
  0.7498000177344295  0.2498887645995538  0.2779024730268418   F   F   F
  0.7495186572105178  0.4983457913119893  0.4550433654778884   T   T   T
  0.0815458446473457  0.9378043973820974  0.4538999566638569   T   T   T
  0.0816471763764314  0.6883242145664428  0.4534120658760620   T   T   T
  0.0820847410975321  0.4386389306140894  0.4533740629269912   T   T   T
  0.0824390896520132  0.1886399355658704  0.4542360895166022   T   T   T
  0.0825727650034978  0.4376830284600572  0.2837096284632494   F   F   F
  0.0825727650034978  0.6876830282459707  0.2837096284632494   F   F   F
  0.0825727650034978  0.9376830284600572  0.2837096284632494   F   F   F
  0.0825727650034978  0.1876830282459707  0.2837096284632494   F   F   F
  0.0826029583302130  0.5626929404925889  0.2836274496354534   F   F   F
  0.0826029583302130  0.0626929404925889  0.2836274496354534   F   F   F
  0.0826029583302130  0.8126929402785024  0.2836274496354534   F   F   F
  0.0826029583302130  0.3126929402785024  0.2836274496354534   F   F   F
  0.8292582212274396  0.9412489776478022  0.5430379506048258   T   T   T
  0.8294461747458454  0.1921287992086843  0.5425805939929147   T   T   T
  0.8292329417734727  0.6917970414717668  0.5428525702687315   T   T   T
  0.8318586940440993  0.6877300055015494  0.3676981412363467   T   T   T
  0.8319769601034257  0.9378037520465862  0.3678563588075404   T   T   T
  0.8320832064284372  0.5627969695560399  0.3678998810580826   T   T   T
  0.8320426904624478  0.4377088263929010  0.3677080366661801   T   T   T
  0.8321914116984979  0.1877062041410664  0.3678011733419612   T   T   T
  0.8321968266293690  0.8128056687991342  0.3680177310041534   T   T   T
  0.8318192775742600  0.4418977704472918  0.5427423100459565   T   T   T
  0.8323443125483847  0.3127232843951653  0.3679416284504043   T   T   T
  0.8325345518147762  0.0627753501997101  0.3679408402459916   T   T   T
  0.8336793151700448  0.5625684457322180  0.2026879705260853   F   F   F
  0.8336793151700448  0.0625684457322180  0.2026879705260853   F   F   F
  0.8336793151700448  0.8125684455181315  0.2026879705260853   F   F   F
  0.8336793151700448  0.3125684455181315  0.2026879705260853   F   F   F
  0.8337395527315365  0.4376312579759087  0.2027221981443361   F   F   F
  0.8337395527315365  0.6876312577618222  0.2027221981443361   F   F   F
  0.8337395527315365  0.9376312579759087  0.2027221981443361   F   F   F
  0.8337395527315365  0.1876312577618222  0.2027221981443361   F   F   F
  0.0846737954779023  0.8130436353773934  0.4538953774596570   T   T   T
  0.0848288443442493  0.5635073678143190  0.4538489027755513   T   T   T
  0.0853790753555045  0.3135746479003431  0.4542570293150608   T   T   T
  0.0869512450189719  0.0632978439593162  0.4558504569944274   T   T   T
  0.9142488911146920  0.8134448089040445  0.4543391236224189   T   T   T
  0.9145742438522516  0.5635121420804268  0.4540481809597253   T   T   T
  0.9149805697537737  0.3134498267491032  0.4542287284267336   T   T   T
  0.9155339355811443  0.0635204767580405  0.4542162386764202   T   T   T
  0.9173970416697870  0.5626929404925889  0.2836274496354534   F   F   F
  0.9173970416697870  0.0626929404925889  0.2836274496354534   F   F   F
  0.9173970416697870  0.8126929402785024  0.2836274496354534   F   F   F
  0.9173970416697870  0.3126929402785024  0.2836274496354534   F   F   F
  0.9174272349965022  0.4376830284600572  0.2837096284632494   F   F   F
  0.9174272349965022  0.6876830282459707  0.2837096284632494   F   F   F
  0.9174272349965022  0.9376830284600572  0.2837096284632494   F   F   F
  0.9174272349965022  0.1876830282459707  0.2837096284632494   F   F   F
  0.9172575322174190  0.6885279135422061  0.4533957396667548   T   T   T
  0.9174676354937361  0.9387634341558905  0.4535986395566360   T   T   T
  0.9175570758266515  0.1884899465844383  0.4535576692601613   T   T   T
  0.9177950398939630  0.4385537069539874  0.4534075227857007   T   T   T
  0.9965048422260747  0.1295190139295172  0.5431501943368271   T   T   T
  0.9992586764156675  0.6283365523801334  0.5418888179280544   T   T   T
  0.9992797273703379  0.8763926399436017  0.5420558336924990   T   T   T
  0.9983920544441093  0.0007458072706944  0.5429233020654693   T   T   T
  0.0001280422368363  0.3787357795235432  0.5418370607933581   T   T   T
  0.9996312970925726  0.7505518230859433  0.3693126282913568   T   T   T
  0.9997607106194389  0.8754677275390208  0.3693145788537464   T   T   T
  0.1657607796301196  0.9387758204340660  0.5446090593105691   T   T   T
  0.1662604174500757  0.4376312579759087  0.2027221981443361   F   F   F
  0.1662604174500757  0.6876312577618222  0.2027221981443361   F   F   F
  0.1662604174500757  0.9376312579759087  0.2027221981443361   F   F   F
  0.1662604174500757  0.1876312577618222  0.2027221981443361   F   F   F
  0.1663206550115603  0.5625684457322180  0.2026879705260853   F   F   F
  0.1663206550115603  0.0625684457322180  0.2026879705260853   F   F   F
  0.1663206550115603  0.8125684455181315  0.2026879705260853   F   F   F
  0.1663206550115603  0.3125684455181315  0.2026879705260853   F   F   F
  0.1682552533788365  0.4415349194984741  0.5423977992015392   T   T   T
  0.1673489555778748  0.8127061231941207  0.3679237345174894   T   T   T
  0.1674653593387983  0.0627077693409537  0.3684900189170303   T   T   T
  0.1675819692961690  0.3127713965469250  0.3679784469525681   T   T   T
  0.1678125114195870  0.9377568202620060  0.3681211970184686   T   T   T
  0.1676897244564232  0.5627774289631292  0.3678566599578091   T   T   T
  0.1677952097620168  0.1876654978872943  0.3680753960891748   T   T   T
  0.1678372905441609  0.6877169779845566  0.3677008388607901   T   T   T
  0.1679102834503390  0.4377406447934744  0.3677006541617231   T   T   T