Mo  S Co                                
   1.00000000000000     
    15.9215000000000000    0.0000000000000000    0.0000000000000000
    -7.9622500000000000   13.7910219999999999    0.0000000000000000
     0.0000000000000000    0.0000000000000000   13.5822000000000003
   Mo   S    Co
    25    49     1
Direct
  0.1333732314128682  0.0664458307117641  0.6784607243056158
  0.1346735975468505  0.2664917266664588  0.6758905939596858
  0.1334611940422192  0.4653255355523100  0.6786698246197034
  0.1326736747640638  0.6654765750538374  0.6800800883390750
  0.1326210359411846  0.8655123122876986  0.6799394772838028
  0.3323383332431717  0.0658959406048396  0.6799850520368693
  0.3318517694307843  0.2645785301702546  0.6746859800746847
  0.3319621821092085  0.4658291257489537  0.6746433337329591
  0.3324088883188736  0.6649429612609552  0.6800368081917085
  0.3326023188351499  0.8655357658907263  0.6806519333608279
  0.5326825460028388  0.0656320217479660  0.6809672970349467
  0.5320365473737425  0.2656088643477972  0.6804118946533819
  0.5305790278724842  0.4645332105938635  0.6789174046197246
  0.5320698689979864  0.6649416925618681  0.6802838963401499
  0.5327103818570507  0.8656080813143205  0.6809072732930517
  0.7330976727783991  0.0658042936231382  0.6813397815549465
  0.7327709011860151  0.2656039719481456  0.6813265765140741
  0.7320907206760552  0.4651706507925653  0.6806219296701599
  0.7320848984231745  0.6653479999477199  0.6804761088761140
  0.7327677445767975  0.8656478217721855  0.6811026341111415
  0.9338055554856126  0.0662906919200168  0.6807684922417963
  0.9338224620195348  0.2659287571741658  0.6809528124022108
  0.9326227511195455  0.4653623262844633  0.6805363214754010
  0.9323383715326941  0.6653316652021246  0.6801195802594435
  0.9325762385909186  0.8655899270181351  0.6802483913212996
  0.0654085056841467  0.1318336667804658  0.5629446289238942
  0.0709973161153030  0.1361523231825643  0.7939563262234302
  0.0654067947125299  0.3320261372779143  0.5631316834014157
  0.0710851286922178  0.3331567484957247  0.7940945680281715
  0.0656154236884845  0.5322034714461736  0.5649614668032683
  0.0666560825522780  0.5318477873091894  0.7946208961163919
  0.0657675249193801  0.7319823675503869  0.5649778802607841
  0.0658395964366818  0.7321233291422260  0.7950160192907276
  0.0655985066913871  0.9317056898970222  0.5647089019379479
  0.0665316239217120  0.9330975996492157  0.7943781361171816
  0.2658509052963893  0.1308787335876858  0.5616012946078257
  0.2656432330930016  0.1356560884976190  0.7937013341498300
  0.2662121168967104  0.3323401487141311  0.5611098091660693
  0.2658304109467196  0.5334450711378693  0.5616794895280037
  0.2658398947038521  0.5285104649014514  0.7937959643383792
  0.2662349521974008  0.7324188057568790  0.5653118858549249
  0.2658298042290710  0.7316158844575256  0.7953411090558902
  0.2662334286583956  0.9322324751828290  0.5652408212154540
  0.2657173324719508  0.9326207485173796  0.7952627121193387
  0.4661316539468316  0.1322828170112018  0.5656978432652409
  0.4654458636738781  0.1322936146420446  0.7955087152979345
  0.4667580917551177  0.3320135783012219  0.5624136835630651
  0.4611921275808584  0.3316286501420009  0.7937467186881335
  0.4667831584791600  0.5332108656719967  0.5623103249244252
  0.4612804286724952  0.5281596958844901  0.7937054390742233
  0.4661298855178586  0.7324046032716041  0.5656454795380341
  0.4655922879955199  0.7317372520901415  0.7954515997467411
  0.4661897313612684  0.9323901182607841  0.5657856388320894
  0.4657813613649466  0.9321469295422844  0.7958955272945971
  0.6663347336482914  0.1323506073239855  0.5662054786724369
  0.6660378319462765  0.1322936591623858  0.7962760474544837
  0.6658559458831306  0.3317842126450259  0.5658580981318480
  0.6652027398362463  0.3321600988114852  0.7959330284024304
  0.6655613588550082  0.5319531658117995  0.5654911417836246
  0.6641210928701469  0.5313365872205367  0.7947384492592491
  0.6658461192929863  0.7325199890090701  0.5656735772823893
  0.6652580180625307  0.7315795917603509  0.7957397795207868
  0.6663289249960798  0.9325923136947694  0.5661002051263608
  0.6660862423543890  0.9322194044870074  0.7961698106014836
  0.8665516774960977  0.1325612167441292  0.5663412345154413
  0.8670281877155261  0.1326621288103595  0.7961805780463749
  0.8660109631544159  0.3317301456857962  0.5660912347206519
  0.8668280946037896  0.3324483703130241  0.7960611685863768
  0.8654532715009182  0.5316645377276359  0.5654158331168162
  0.8657527925640238  0.5321457693130967  0.7954029852772422
  0.8654362466323775  0.7320119127355866  0.5652524058122950
  0.8657371329274710  0.7320428174941043  0.7952367361713613
  0.8659877679475798  0.9327104311378278  0.5658320328128141
  0.8668201581528692  0.9327384818512598  0.7957871001701236
  0.2663401192646759  0.3324064273125131  0.8023275162403607
 
  0.00000000E+00  0.00000000E+00  0.00000000E+00
  0.00000000E+00  0.00000000E+00  0.00000000E+00
  0.00000000E+00  0.00000000E+00  0.00000000E+00
  0.00000000E+00  0.00000000E+00  0.00000000E+00
  0.00000000E+00  0.00000000E+00  0.00000000E+00
  0.00000000E+00  0.00000000E+00  0.00000000E+00
  0.00000000E+00  0.00000000E+00  0.00000000E+00
  0.00000000E+00  0.00000000E+00  0.00000000E+00
  0.00000000E+00  0.00000000E+00  0.00000000E+00
  0.00000000E+00  0.00000000E+00  0.00000000E+00
  0.00000000E+00  0.00000000E+00  0.00000000E+00
  0.00000000E+00  0.00000000E+00  0.00000000E+00
  0.00000000E+00  0.00000000E+00  0.00000000E+00
  0.00000000E+00  0.00000000E+00  0.00000000E+00
  0.00000000E+00  0.00000000E+00  0.00000000E+00
  0.00000000E+00  0.00000000E+00  0.00000000E+00
  0.00000000E+00  0.00000000E+00  0.00000000E+00
  0.00000000E+00  0.00000000E+00  0.00000000E+00
  0.00000000E+00  0.00000000E+00  0.00000000E+00
  0.00000000E+00  0.00000000E+00  0.00000000E+00
  0.00000000E+00  0.00000000E+00  0.00000000E+00
  0.00000000E+00  0.00000000E+00  0.00000000E+00
  0.00000000E+00  0.00000000E+00  0.00000000E+00
  0.00000000E+00  0.00000000E+00  0.00000000E+00
  0.00000000E+00  0.00000000E+00  0.00000000E+00
  0.00000000E+00  0.00000000E+00  0.00000000E+00
  0.00000000E+00  0.00000000E+00  0.00000000E+00
  0.00000000E+00  0.00000000E+00  0.00000000E+00
  0.00000000E+00  0.00000000E+00  0.00000000E+00
  0.00000000E+00  0.00000000E+00  0.00000000E+00
  0.00000000E+00  0.00000000E+00  0.00000000E+00
  0.00000000E+00  0.00000000E+00  0.00000000E+00
  0.00000000E+00  0.00000000E+00  0.00000000E+00
  0.00000000E+00  0.00000000E+00  0.00000000E+00
  0.00000000E+00  0.00000000E+00  0.00000000E+00
  0.00000000E+00  0.00000000E+00  0.00000000E+00
  0.00000000E+00  0.00000000E+00  0.00000000E+00
  0.00000000E+00  0.00000000E+00  0.00000000E+00
  0.00000000E+00  0.00000000E+00  0.00000000E+00
  0.00000000E+00  0.00000000E+00  0.00000000E+00
  0.00000000E+00  0.00000000E+00  0.00000000E+00
  0.00000000E+00  0.00000000E+00  0.00000000E+00
  0.00000000E+00  0.00000000E+00  0.00000000E+00
  0.00000000E+00  0.00000000E+00  0.00000000E+00
  0.00000000E+00  0.00000000E+00  0.00000000E+00
  0.00000000E+00  0.00000000E+00  0.00000000E+00
  0.00000000E+00  0.00000000E+00  0.00000000E+00
  0.00000000E+00  0.00000000E+00  0.00000000E+00
  0.00000000E+00  0.00000000E+00  0.00000000E+00
  0.00000000E+00  0.00000000E+00  0.00000000E+00
  0.00000000E+00  0.00000000E+00  0.00000000E+00
  0.00000000E+00  0.00000000E+00  0.00000000E+00
  0.00000000E+00  0.00000000E+00  0.00000000E+00
  0.00000000E+00  0.00000000E+00  0.00000000E+00
  0.00000000E+00  0.00000000E+00  0.00000000E+00
  0.00000000E+00  0.00000000E+00  0.00000000E+00
  0.00000000E+00  0.00000000E+00  0.00000000E+00
  0.00000000E+00  0.00000000E+00  0.00000000E+00
  0.00000000E+00  0.00000000E+00  0.00000000E+00
  0.00000000E+00  0.00000000E+00  0.00000000E+00
  0.00000000E+00  0.00000000E+00  0.00000000E+00
  0.00000000E+00  0.00000000E+00  0.00000000E+00
  0.00000000E+00  0.00000000E+00  0.00000000E+00
  0.00000000E+00  0.00000000E+00  0.00000000E+00
  0.00000000E+00  0.00000000E+00  0.00000000E+00
  0.00000000E+00  0.00000000E+00  0.00000000E+00
  0.00000000E+00  0.00000000E+00  0.00000000E+00
  0.00000000E+00  0.00000000E+00  0.00000000E+00
  0.00000000E+00  0.00000000E+00  0.00000000E+00
  0.00000000E+00  0.00000000E+00  0.00000000E+00
  0.00000000E+00  0.00000000E+00  0.00000000E+00
  0.00000000E+00  0.00000000E+00  0.00000000E+00
  0.00000000E+00  0.00000000E+00  0.00000000E+00
  0.00000000E+00  0.00000000E+00  0.00000000E+00
  0.00000000E+00  0.00000000E+00  0.00000000E+00
