Ta  N Ru Cu                             
   1.00000000000000     
     9.0548154099999998    0.0000000000000000    0.0000000000000000
     0.0000000000000000   11.6775998899999998    0.0000000000000000
     0.0000000000000000    0.0000000000000000   26.4818170799999990
   Ta   N    Ru   Cu
    60    60    32     2
Selective dynamics
Direct
  0.0000000000000000  0.0000000000000000  0.2258397498815228   F   F   F
  0.6670845899906297  0.1250000003211298  0.2339882671631202   F   F   F
  0.3329153514769843  0.1250000003211298  0.2339882671631202   F   F   F
  0.4999999994478088  0.2499999997859135  0.3208898207564346   F   F   F
  0.1650707596845180  0.1250000003211298  0.3267034403329916   F   F   F
  0.8349292403154820  0.1250000003211298  0.3267034403329916   F   F   F
  0.0009493634949557  0.2501172218075452  0.4254620495739733   T   T   T
  0.6648867745836307  0.1251853337882566  0.4239573667729822   T   T   T
  0.3352296112309379  0.1251504756781561  0.4239138777439202   T   T   T
  0.4977629573194639  0.2503158767726471  0.5231594838151834   T   T   T
  0.1673363255681032  0.1252979648473638  0.5234020247699261   T   T   T
  0.8340899343828413  0.1254183512896399  0.5227221176596313   T   T   T
  0.0041527642217982  0.2504470147571924  0.6221873369641574   T   T   T
  0.6651989496438392  0.1258051371152452  0.6206795820742552   T   T   T
  0.3290611022291457  0.1254487332718522  0.6244407067922976   T   T   T
  0.0000000000000000  0.2499999997859135  0.2258397498815228   F   F   F
  0.6670845899906297  0.3750000001070433  0.2339882671631202   F   F   F
  0.3329153514769843  0.3750000001070433  0.2339882671631202   F   F   F
  0.4999999994478088  0.5000000004281731  0.3208898207564346   F   F   F
  0.1650707596845180  0.3750000001070433  0.3267034403329916   F   F   F
  0.8349292403154820  0.3750000001070433  0.3267034403329916   F   F   F
  0.0009025128568126  0.5002190728614940  0.4254609978066508   T   T   T
  0.6650256476952559  0.3751545780369817  0.4239572161539855   T   T   T
  0.3352660454572756  0.3751318249843160  0.4238833320580116   T   T   T
  0.4977547597942082  0.5004879101320117  0.5231897346227605   T   T   T
  0.1670032911967388  0.3753520900109441  0.5233056363523381   T   T   T
  0.8340262697217646  0.3755383875920307  0.5226478841238728   T   T   T
  0.9986380081244997  0.5005914248139800  0.6235252135185665   T   T   T
  0.6652352590912386  0.3758943389761025  0.6199782950064430   T   T   T
  0.3291057938694641  0.3751466179260636  0.6232969186344520   T   T   T
  0.0000000000000000  0.5000000004281731  0.2258397498815228   F   F   F
  0.6670845899906297  0.6249999998929567  0.2339882671631202   F   F   F
  0.3329153514769843  0.6249999998929567  0.2339882671631202   F   F   F
  0.4999999994478088  0.7500000002140865  0.3208898207564346   F   F   F
  0.1650707596845180  0.6249999998929567  0.3267034403329916   F   F   F
  0.8349292403154820  0.6249999998929567  0.3267034403329916   F   F   F
  0.0009658753501328  0.7501739730053295  0.4254457598189432   T   T   T
  0.6649114526122654  0.6251836809454719  0.4239657361925096   T   T   T
  0.3352490065382428  0.6251396595612821  0.4239260635582081   T   T   T
  0.4978540403685595  0.7503876343645628  0.5231417997929858   T   T   T
  0.1671319091993256  0.6253156082126611  0.5233812299065450   T   T   T
  0.8341661160517424  0.6254709109803246  0.5227156480732325   T   T   T
  0.0044395840221015  0.7506997789840547  0.6223363492320754   T   T   T
  0.6645821704919036  0.6260984147311068  0.6203894502392749   T   T   T
  0.3284293967801220  0.6254522251303908  0.6242346042048722   T   T   T
  0.0000000000000000  0.7500000002140865  0.2258397498815228   F   F   F
  0.6670845899906297  0.8750000005352163  0.2339882671631202   F   F   F
  0.3329153514769843  0.8750000005352163  0.2339882671631202   F   F   F
  0.4999999994478088  0.0000000000000000  0.3208898207564346   F   F   F
  0.1650707596845180  0.8750000005352163  0.3267034403329916   F   F   F
  0.8349292403154820  0.8750000005352163  0.3267034403329916   F   F   F
  0.0009405049890941  0.0002194865767189  0.4254722004199881   T   T   T
  0.6650063074128464  0.8751566624119828  0.4239426243100107   T   T   T
  0.3353445170224350  0.8751280185433968  0.4238974604486800   T   T   T
  0.4978350868593197  0.0004188635018861  0.5232542597129441   T   T   T
  0.1671309086900526  0.8753506621157251  0.5233155813726522   T   T   T
  0.8341588436287036  0.8756209449772887  0.5226366509666885   T   T   T
  0.0009571550187579  0.0003313346553470  0.6232543198268219   T   T   T
  0.6659525659378985  0.8761016920265148  0.6200508364234009   T   T   T
  0.3301730935738013  0.8752775228535437  0.6233137790050545   T   T   T
  0.8141011533980276  0.0000000000000000  0.2671765160246267   F   F   F
  0.4999999994478088  0.0000000000000000  0.2273691263583544   F   F   F
  0.1858988466019724  0.0000000000000000  0.2671765160246267   F   F   F
  0.3088456122590841  0.2499999997859135  0.3635413069267344   F   F   F
  0.0000000000000000  0.2499999997859135  0.3485649890092901   F   F   F
  0.6911543877409159  0.2499999997859135  0.3635413069267344   F   F   F
  0.8026196353867109  0.2502246797063265  0.4626080686433734   T   T   T
  0.4999182741782889  0.2502265795785484  0.4456346749108810   T   T   T
  0.1988301866854223  0.2502477499149587  0.4631850914102659   T   T   T
  0.3021027478646989  0.2499720964854273  0.5628045568577473   T   T   T
  0.0006433769434472  0.2504484030492649  0.5437424486825941   T   T   T
  0.6957052973698041  0.2501768038100005  0.5601642632791080   T   T   T
  0.8049072163434693  0.2516773221393601  0.6550965663354335   T   T   T
  0.5020533896156988  0.2507987626229986  0.6425114737462614   T   T   T
  0.1980409848605530  0.2511056183130440  0.6601043897117924   T   T   T
  0.8141011533980276  0.2499999997859135  0.2671765160246267   F   F   F
  0.4999999994478088  0.2499999997859135  0.2273691263583544   F   F   F
  0.1858988466019724  0.2499999997859135  0.2671765160246267   F   F   F
  0.3088456122590841  0.5000000004281731  0.3635413069267344   F   F   F
  0.0000000000000000  0.5000000004281731  0.3485649890092901   F   F   F
  0.6911543877409159  0.5000000004281731  0.3635413069267344   F   F   F
  0.8027413182433655  0.5003456523491246  0.4626387143373565   T   T   T
  0.4999214666524344  0.5001580859854948  0.4456507980399245   T   T   T
  0.1986407859341875  0.5001824164988719  0.4631800363450493   T   T   T
  0.3016011349656953  0.5005898899665504  0.5623614369021045   T   T   T
  0.0001053859195091  0.5004423508407475  0.5444863497278623   T   T   T
  0.6960990690675075  0.5009283623715642  0.5602293532523333   T   T   T
  0.7980339691376738  0.5015542454213354  0.6584939794238706   T   T   T
  0.4996277377820438  0.5003884643357186  0.6391785976783069   T   T   T
  0.1972000741658715  0.4996297071230921  0.6592207405556072   T   T   T
  0.8141011533980276  0.5000000004281731  0.2671765160246267   F   F   F
  0.4999999994478088  0.5000000004281731  0.2273691263583544   F   F   F
  0.1858988466019724  0.5000000004281731  0.2671765160246267   F   F   F
  0.3088456122590841  0.7500000002140865  0.3635413069267344   F   F   F
  0.0000000000000000  0.7500000002140865  0.3485649890092901   F   F   F
  0.6911543877409159  0.7500000002140865  0.3635413069267344   F   F   F
  0.8026605681986713  0.7502916179512102  0.4626079681098720   T   T   T
  0.4999336978763533  0.7502233059472972  0.4456176189928556   T   T   T
  0.1988498998991216  0.7502515097183582  0.4631895554993639   T   T   T
  0.3021237331178678  0.7500781211987829  0.5628278476958456   T   T   T
  0.0006952278747940  0.7504594183274519  0.5438338932155297   T   T   T
  0.6959474880068358  0.7505456726003080  0.5600968709897381   T   T   T
  0.8052910874785065  0.7521931530061888  0.6553323884738692   T   T   T
  0.5022875390033629  0.7509619059122581  0.6425945339604104   T   T   T
  0.1983844104911580  0.7507924590701506  0.6603783281320194   T   T   T
  0.8141011533980276  0.7500000002140865  0.2671765160246267   F   F   F
  0.4999999994478088  0.7500000002140865  0.2273691263583544   F   F   F
  0.1858988466019724  0.7500000002140865  0.2671765160246267   F   F   F
  0.3088456122590841  0.0000000000000000  0.3635413069267344   F   F   F
  0.0000000000000000  0.0000000000000000  0.3485649890092901   F   F   F
  0.6911543877409159  0.0000000000000000  0.3635413069267344   F   F   F
  0.8027057962108008  0.0003735847713586  0.4626226560487224   T   T   T
  0.4999292774124397  0.0001874850785251  0.4457011833199416   T   T   T
  0.1987513991498210  0.0002211311233086  0.4631903768162526   T   T   T
  0.3019040036560615  0.0004978079827081  0.5625779642541400   T   T   T
  0.0004068513167673  0.0004387321994536  0.5443202849823449   T   T   T
  0.6961734667474133  0.0010029031076488  0.5603553046923356   T   T   T
  0.8014417364689823  0.0008330651605304  0.6579799271123371   T   T   T
  0.5011369357740966  0.0002176776193024  0.6402158583303190   T   T   T
  0.1986741054937342  0.9992450109571671  0.6600284200235241   T   T   T
  0.0944189242084406  0.0107644411294124  0.7316624857749280   T   T   T
  0.5695008273189710  0.9888553053501904  0.7141010205622904   T   T   T
  0.8497421888991552  0.1333531211590430  0.7128269831638331   T   T   T
  0.0978100010069102  0.5076795190639051  0.7313817015711670   T   T   T
  0.5707516513417371  0.4996889867989133  0.7123641142091923   T   T   T
  0.8521955511448156  0.6343987470323166  0.7130124265778655   T   T   T
  0.1081322342044728  0.2473399052292628  0.7327142963078337   T   T   T
  0.5531327985405952  0.2592658176814568  0.7194198188895438   T   T   T
  0.8500599359182964  0.3684780753462751  0.7129757652537329   T   T   T
  0.1087272326819040  0.7419963636684668  0.7331717570268854   T   T   T
  0.5521824179128051  0.7571642460079253  0.7201496805492634   T   T   T
  0.8479285486343741  0.8684692216997452  0.7135842406850297   T   T   T
  0.3280592112985290  0.8909546785877100  0.7373755105746304   T   T   T
  0.3482350526277492  0.6119149375735772  0.7445678786146956   T   T   T
  0.3351082337362978  0.3912896237681200  0.7397422884713610   T   T   T
  0.3481374541464880  0.1144567572768789  0.7438785585431766   T   T   T
  0.1410813288802335  0.8814763761486129  0.8062054927318767   T   T   T
  0.6595736936027556  0.8834771201724436  0.7938413068431143   T   T   T
  0.8937156913424792  0.0196819609431610  0.7969098168973492   T   T   T
  0.1486166508562727  0.3791925608370587  0.8075576882960525   T   T   T
  0.6593863441451249  0.3895635853969409  0.7901577942368129   T   T   T
  0.8935227370770562  0.5153720223132907  0.7960092412128686   T   T   T
  0.1461423183361601  0.1240937348082684  0.8103836982047439   T   T   T
  0.6388727465916232  0.1129525062465407  0.7896031655968193   T   T   T
  0.8900034496846673  0.2430577588365757  0.7952053905535631   T   T   T
  0.1481472126509159  0.6180537990197822  0.8110324887140928   T   T   T
  0.6402668415161459  0.6167414819300949  0.7905795028540474   T   T   T
  0.8927499942110008  0.7411879833821569  0.7953871901212411   T   T   T
  0.4211644165451401  0.7659667704203975  0.8071571338566941   T   T   T
  0.3975406000391949  0.4871442588211531  0.8223434321730608   T   T   T
  0.4212756717281133  0.2621005805864814  0.8098887403877401   T   T   T
  0.3987225583291010  0.9825505296933122  0.8186246877183281   T   T   T
  0.6643917369934474  0.2570340913801463  0.8644854364538574   T   T   T
  0.6604026928859806  0.4899550070655372  0.8713436766743687   T   T   T
 
  0.00000000E+00  0.00000000E+00  0.00000000E+00
  0.00000000E+00  0.00000000E+00  0.00000000E+00
  0.00000000E+00  0.00000000E+00  0.00000000E+00
  0.00000000E+00  0.00000000E+00  0.00000000E+00
  0.00000000E+00  0.00000000E+00  0.00000000E+00
  0.00000000E+00  0.00000000E+00  0.00000000E+00
  0.00000000E+00  0.00000000E+00  0.00000000E+00
  0.00000000E+00  0.00000000E+00  0.00000000E+00
  0.00000000E+00  0.00000000E+00  0.00000000E+00
  0.00000000E+00  0.00000000E+00  0.00000000E+00
  0.00000000E+00  0.00000000E+00  0.00000000E+00
  0.00000000E+00  0.00000000E+00  0.00000000E+00
  0.00000000E+00  0.00000000E+00  0.00000000E+00
  0.00000000E+00  0.00000000E+00  0.00000000E+00
  0.00000000E+00  0.00000000E+00  0.00000000E+00
  0.00000000E+00  0.00000000E+00  0.00000000E+00
  0.00000000E+00  0.00000000E+00  0.00000000E+00
  0.00000000E+00  0.00000000E+00  0.00000000E+00
  0.00000000E+00  0.00000000E+00  0.00000000E+00
  0.00000000E+00  0.00000000E+00  0.00000000E+00
  0.00000000E+00  0.00000000E+00  0.00000000E+00
  0.00000000E+00  0.00000000E+00  0.00000000E+00
  0.00000000E+00  0.00000000E+00  0.00000000E+00
  0.00000000E+00  0.00000000E+00  0.00000000E+00
  0.00000000E+00  0.00000000E+00  0.00000000E+00
  0.00000000E+00  0.00000000E+00  0.00000000E+00
  0.00000000E+00  0.00000000E+00  0.00000000E+00
  0.00000000E+00  0.00000000E+00  0.00000000E+00
  0.00000000E+00  0.00000000E+00  0.00000000E+00
  0.00000000E+00  0.00000000E+00  0.00000000E+00
  0.00000000E+00  0.00000000E+00  0.00000000E+00
  0.00000000E+00  0.00000000E+00  0.00000000E+00
  0.00000000E+00  0.00000000E+00  0.00000000E+00
  0.00000000E+00  0.00000000E+00  0.00000000E+00
  0.00000000E+00  0.00000000E+00  0.00000000E+00
  0.00000000E+00  0.00000000E+00  0.00000000E+00
  0.00000000E+00  0.00000000E+00  0.00000000E+00
  0.00000000E+00  0.00000000E+00  0.00000000E+00
  0.00000000E+00  0.00000000E+00  0.00000000E+00
  0.00000000E+00  0.00000000E+00  0.00000000E+00
  0.00000000E+00  0.00000000E+00  0.00000000E+00
  0.00000000E+00  0.00000000E+00  0.00000000E+00
  0.00000000E+00  0.00000000E+00  0.00000000E+00
  0.00000000E+00  0.00000000E+00  0.00000000E+00
  0.00000000E+00  0.00000000E+00  0.00000000E+00
  0.00000000E+00  0.00000000E+00  0.00000000E+00
  0.00000000E+00  0.00000000E+00  0.00000000E+00
  0.00000000E+00  0.00000000E+00  0.00000000E+00
  0.00000000E+00  0.00000000E+00  0.00000000E+00
  0.00000000E+00  0.00000000E+00  0.00000000E+00
  0.00000000E+00  0.00000000E+00  0.00000000E+00
  0.00000000E+00  0.00000000E+00  0.00000000E+00
  0.00000000E+00  0.00000000E+00  0.00000000E+00
  0.00000000E+00  0.00000000E+00  0.00000000E+00
  0.00000000E+00  0.00000000E+00  0.00000000E+00
  0.00000000E+00  0.00000000E+00  0.00000000E+00
  0.00000000E+00  0.00000000E+00  0.00000000E+00
  0.00000000E+00  0.00000000E+00  0.00000000E+00
  0.00000000E+00  0.00000000E+00  0.00000000E+00
  0.00000000E+00  0.00000000E+00  0.00000000E+00
  0.00000000E+00  0.00000000E+00  0.00000000E+00
  0.00000000E+00  0.00000000E+00  0.00000000E+00
  0.00000000E+00  0.00000000E+00  0.00000000E+00
  0.00000000E+00  0.00000000E+00  0.00000000E+00
  0.00000000E+00  0.00000000E+00  0.00000000E+00
  0.00000000E+00  0.00000000E+00  0.00000000E+00
  0.00000000E+00  0.00000000E+00  0.00000000E+00
  0.00000000E+00  0.00000000E+00  0.00000000E+00
  0.00000000E+00  0.00000000E+00  0.00000000E+00
  0.00000000E+00  0.00000000E+00  0.00000000E+00
  0.00000000E+00  0.00000000E+00  0.00000000E+00
  0.00000000E+00  0.00000000E+00  0.00000000E+00
  0.00000000E+00  0.00000000E+00  0.00000000E+00
  0.00000000E+00  0.00000000E+00  0.00000000E+00
  0.00000000E+00  0.00000000E+00  0.00000000E+00
  0.00000000E+00  0.00000000E+00  0.00000000E+00
  0.00000000E+00  0.00000000E+00  0.00000000E+00
  0.00000000E+00  0.00000000E+00  0.00000000E+00
  0.00000000E+00  0.00000000E+00  0.00000000E+00
  0.00000000E+00  0.00000000E+00  0.00000000E+00
  0.00000000E+00  0.00000000E+00  0.00000000E+00
  0.00000000E+00  0.00000000E+00  0.00000000E+00
  0.00000000E+00  0.00000000E+00  0.00000000E+00
  0.00000000E+00  0.00000000E+00  0.00000000E+00
  0.00000000E+00  0.00000000E+00  0.00000000E+00
  0.00000000E+00  0.00000000E+00  0.00000000E+00
  0.00000000E+00  0.00000000E+00  0.00000000E+00
  0.00000000E+00  0.00000000E+00  0.00000000E+00
  0.00000000E+00  0.00000000E+00  0.00000000E+00
  0.00000000E+00  0.00000000E+00  0.00000000E+00
  0.00000000E+00  0.00000000E+00  0.00000000E+00
  0.00000000E+00  0.00000000E+00  0.00000000E+00
  0.00000000E+00  0.00000000E+00  0.00000000E+00
  0.00000000E+00  0.00000000E+00  0.00000000E+00
  0.00000000E+00  0.00000000E+00  0.00000000E+00
  0.00000000E+00  0.00000000E+00  0.00000000E+00
  0.00000000E+00  0.00000000E+00  0.00000000E+00
  0.00000000E+00  0.00000000E+00  0.00000000E+00
  0.00000000E+00  0.00000000E+00  0.00000000E+00
  0.00000000E+00  0.00000000E+00  0.00000000E+00
  0.00000000E+00  0.00000000E+00  0.00000000E+00
  0.00000000E+00  0.00000000E+00  0.00000000E+00
  0.00000000E+00  0.00000000E+00  0.00000000E+00
  0.00000000E+00  0.00000000E+00  0.00000000E+00
  0.00000000E+00  0.00000000E+00  0.00000000E+00
  0.00000000E+00  0.00000000E+00  0.00000000E+00
  0.00000000E+00  0.00000000E+00  0.00000000E+00
  0.00000000E+00  0.00000000E+00  0.00000000E+00
  0.00000000E+00  0.00000000E+00  0.00000000E+00
  0.00000000E+00  0.00000000E+00  0.00000000E+00
  0.00000000E+00  0.00000000E+00  0.00000000E+00
  0.00000000E+00  0.00000000E+00  0.00000000E+00
  0.00000000E+00  0.00000000E+00  0.00000000E+00
  0.00000000E+00  0.00000000E+00  0.00000000E+00
  0.00000000E+00  0.00000000E+00  0.00000000E+00
  0.00000000E+00  0.00000000E+00  0.00000000E+00
  0.00000000E+00  0.00000000E+00  0.00000000E+00
  0.00000000E+00  0.00000000E+00  0.00000000E+00
  0.00000000E+00  0.00000000E+00  0.00000000E+00
  0.00000000E+00  0.00000000E+00  0.00000000E+00
  0.00000000E+00  0.00000000E+00  0.00000000E+00
  0.00000000E+00  0.00000000E+00  0.00000000E+00
  0.00000000E+00  0.00000000E+00  0.00000000E+00
  0.00000000E+00  0.00000000E+00  0.00000000E+00
  0.00000000E+00  0.00000000E+00  0.00000000E+00
  0.00000000E+00  0.00000000E+00  0.00000000E+00
  0.00000000E+00  0.00000000E+00  0.00000000E+00
  0.00000000E+00  0.00000000E+00  0.00000000E+00
  0.00000000E+00  0.00000000E+00  0.00000000E+00
  0.00000000E+00  0.00000000E+00  0.00000000E+00
  0.00000000E+00  0.00000000E+00  0.00000000E+00
  0.00000000E+00  0.00000000E+00  0.00000000E+00
  0.00000000E+00  0.00000000E+00  0.00000000E+00
  0.00000000E+00  0.00000000E+00  0.00000000E+00
  0.00000000E+00  0.00000000E+00  0.00000000E+00
  0.00000000E+00  0.00000000E+00  0.00000000E+00
  0.00000000E+00  0.00000000E+00  0.00000000E+00
  0.00000000E+00  0.00000000E+00  0.00000000E+00
  0.00000000E+00  0.00000000E+00  0.00000000E+00
  0.00000000E+00  0.00000000E+00  0.00000000E+00
  0.00000000E+00  0.00000000E+00  0.00000000E+00
  0.00000000E+00  0.00000000E+00  0.00000000E+00
  0.00000000E+00  0.00000000E+00  0.00000000E+00
  0.00000000E+00  0.00000000E+00  0.00000000E+00
  0.00000000E+00  0.00000000E+00  0.00000000E+00
  0.00000000E+00  0.00000000E+00  0.00000000E+00
  0.00000000E+00  0.00000000E+00  0.00000000E+00
  0.00000000E+00  0.00000000E+00  0.00000000E+00
  0.00000000E+00  0.00000000E+00  0.00000000E+00
  0.00000000E+00  0.00000000E+00  0.00000000E+00
  0.00000000E+00  0.00000000E+00  0.00000000E+00
  0.00000000E+00  0.00000000E+00  0.00000000E+00
  0.00000000E+00  0.00000000E+00  0.00000000E+00
  0.00000000E+00  0.00000000E+00  0.00000000E+00
