Mo  S Co                                
   1.00000000000000     
    15.9214998300000001    0.0000000000000000    0.0000000000000000
    -7.9622501300000001   13.7910221699999997    0.0000000000000000
     0.0000000000000000    0.0000000000000000   13.5821998300000004
   Mo   S    Co
    25    49     4
Direct
  0.1348460988571842  0.0683984922721135  0.6775895724243757
  0.1367315324538847  0.2694177165664870  0.6740443932408511
  0.1341712681209035  0.4651972427312801  0.6763918456278838
  0.1336951419221385  0.6658133260930028  0.6782490794814816
  0.1338617935941832  0.8666216457500484  0.6787730293110710
  0.3337373096369968  0.0669041182447232  0.6798087619857178
  0.3331983798516553  0.2669230316958478  0.6741567596004238
  0.3286112583630375  0.4617976623964548  0.6745191299037429
  0.3332750623949918  0.6646783723233655  0.6787139446777539
  0.3333836901081639  0.8658168886416708  0.6797848621241742
  0.5335320717918640  0.0658818012051779  0.6803719725003889
  0.5342308127089846  0.2655519460686639  0.6798311979444879
  0.5328376015618882  0.4653165169993844  0.6758041034536585
  0.5332310559101490  0.6665752282168714  0.6778284558912990
  0.5332968181317654  0.8657841225258562  0.6793060021245876
  0.7338024784292748  0.0660838420458663  0.6791755447301183
  0.7341315797393038  0.2660866635295724  0.6797609807284349
  0.7336002908788262  0.4659222780722616  0.6785007055281351
  0.7336637608948132  0.6660872493968405  0.6776595612850894
  0.7339811411216475  0.8662066369448203  0.6782987380837923
  0.9346371029138897  0.0671092456712058  0.6780782733863117
  0.9346428100553534  0.2661689033259680  0.6784583725169641
  0.9337840090987709  0.4657687255692873  0.6781479750016602
  0.9338267553587641  0.6661750979813679  0.6778986986528448
  0.9340292622536746  0.8666916834195240  0.6779369501606778
  0.0675242852747800  0.1341474798530330  0.5616586174190582
  0.0717613461418439  0.1384750819565871  0.7915824982326451
  0.0664435159860659  0.3314865363884507  0.5606815937999612
  0.0719181937816165  0.3338663687049265  0.7923823696631938
  0.0668498455934386  0.5326981970458302  0.5626137541498744
  0.0675128756627695  0.5318680518354741  0.7922731259761950
  0.0675738809077237  0.7333114726959697  0.5633067315803367
  0.0669090769464126  0.7326307717179747  0.7931833671830039
  0.0678011416831783  0.9338461812179985  0.5633852954361616
  0.0674625188696303  0.9344460685652093  0.7927473661054361
  0.2682052107179872  0.1333418230772610  0.5622028741719367
  0.2670387464034804  0.1377506818398829  0.7929751348579430
  0.2671752731184369  0.3317579154880444  0.5596076784832702
  0.2678841425350056  0.5324414852208913  0.5610412240436073
  0.2650790872544784  0.5273957093015483  0.7928416311973389
  0.2674895791204525  0.7327686101734129  0.5640685817612739
  0.2664027234533926  0.7312491097496668  0.7939641221112816
  0.2676654617519501  0.9334952746094100  0.5646786554169427
  0.2664323307292983  0.9330455708301131  0.7946268008267930
  0.4669957929262858  0.1324784120695328  0.5653304669939005
  0.4666895232940223  0.1325996502390362  0.7954222527154586
  0.4675438905117021  0.3312654496601028  0.5625247383877540
  0.4641957472299116  0.3332364129563672  0.7927904772087710
  0.4650146273385817  0.5321865197614958  0.5626739974080746
  0.4617901179492346  0.5287239154388012  0.7902898753714631
  0.4664546944777100  0.7328364159377111  0.5636418840790731
  0.4664758918859385  0.7319322419270234  0.7939078754623563
  0.4667045269773567  0.9329102389053680  0.5648493101576325
  0.4666017925050305  0.9320527236811944  0.7949122788663107
  0.6665410595838394  0.1326070876904727  0.5647953691591698
  0.6674982933026984  0.1326550498923152  0.7948731458671420
  0.6670075960402113  0.3319874766624212  0.5644361856377274
  0.6677454479865143  0.3332822722670468  0.7947486384467825
  0.6674282776823162  0.5326836929006534  0.5623928839087753
  0.6658193266701132  0.5325573095443392  0.7920290646123561
  0.6668124566417496  0.7328803514864355  0.5628298221219808
  0.6668136877313486  0.7324342400478385  0.7928818152395160
  0.6666093337639747  0.9327892332023082  0.5638984187625943
  0.6672619751533032  0.9324233331884916  0.7937833533262897
  0.8669135683454413  0.1327701296983569  0.5637330182863940
  0.8678767549909893  0.1330103802575999  0.7936096670628888
  0.8667095900629691  0.3319960236806381  0.5637743017687871
  0.8684897708442080  0.3330420436496528  0.7939086689479506
  0.8668483836136369  0.5323846873204870  0.5631784336027769
  0.8673659477417044  0.5329269411650136  0.7930668285156645
  0.8673608188528210  0.7331291481765893  0.5627903152363555
  0.8671535895807122  0.7329743953716648  0.7926753659902060
  0.8673663118685453  0.9334905014211757  0.5630325205019200
  0.8679388311157160  0.9336007341110312  0.7930993584392482
  0.2864280197240933  0.3545268441884410  0.9854067202969732
  0.4327045037538758  0.3498658304257889  0.9448754032210168
  0.4225929449355120  0.4836258313226776  0.9386406694112085
  0.3990433618749827  0.3895721191496778  0.0891076291413943
 
  0.00000000E+00  0.00000000E+00  0.00000000E+00
  0.00000000E+00  0.00000000E+00  0.00000000E+00
  0.00000000E+00  0.00000000E+00  0.00000000E+00
  0.00000000E+00  0.00000000E+00  0.00000000E+00
  0.00000000E+00  0.00000000E+00  0.00000000E+00
  0.00000000E+00  0.00000000E+00  0.00000000E+00
  0.00000000E+00  0.00000000E+00  0.00000000E+00
  0.00000000E+00  0.00000000E+00  0.00000000E+00
  0.00000000E+00  0.00000000E+00  0.00000000E+00
  0.00000000E+00  0.00000000E+00  0.00000000E+00
  0.00000000E+00  0.00000000E+00  0.00000000E+00
  0.00000000E+00  0.00000000E+00  0.00000000E+00
  0.00000000E+00  0.00000000E+00  0.00000000E+00
  0.00000000E+00  0.00000000E+00  0.00000000E+00
  0.00000000E+00  0.00000000E+00  0.00000000E+00
  0.00000000E+00  0.00000000E+00  0.00000000E+00
  0.00000000E+00  0.00000000E+00  0.00000000E+00
  0.00000000E+00  0.00000000E+00  0.00000000E+00
  0.00000000E+00  0.00000000E+00  0.00000000E+00
  0.00000000E+00  0.00000000E+00  0.00000000E+00
  0.00000000E+00  0.00000000E+00  0.00000000E+00
  0.00000000E+00  0.00000000E+00  0.00000000E+00
  0.00000000E+00  0.00000000E+00  0.00000000E+00
  0.00000000E+00  0.00000000E+00  0.00000000E+00
  0.00000000E+00  0.00000000E+00  0.00000000E+00
  0.00000000E+00  0.00000000E+00  0.00000000E+00
  0.00000000E+00  0.00000000E+00  0.00000000E+00
  0.00000000E+00  0.00000000E+00  0.00000000E+00
  0.00000000E+00  0.00000000E+00  0.00000000E+00
  0.00000000E+00  0.00000000E+00  0.00000000E+00
  0.00000000E+00  0.00000000E+00  0.00000000E+00
  0.00000000E+00  0.00000000E+00  0.00000000E+00
  0.00000000E+00  0.00000000E+00  0.00000000E+00
  0.00000000E+00  0.00000000E+00  0.00000000E+00
  0.00000000E+00  0.00000000E+00  0.00000000E+00
  0.00000000E+00  0.00000000E+00  0.00000000E+00
  0.00000000E+00  0.00000000E+00  0.00000000E+00
  0.00000000E+00  0.00000000E+00  0.00000000E+00
  0.00000000E+00  0.00000000E+00  0.00000000E+00
  0.00000000E+00  0.00000000E+00  0.00000000E+00
  0.00000000E+00  0.00000000E+00  0.00000000E+00
  0.00000000E+00  0.00000000E+00  0.00000000E+00
  0.00000000E+00  0.00000000E+00  0.00000000E+00
  0.00000000E+00  0.00000000E+00  0.00000000E+00
  0.00000000E+00  0.00000000E+00  0.00000000E+00
  0.00000000E+00  0.00000000E+00  0.00000000E+00
  0.00000000E+00  0.00000000E+00  0.00000000E+00
  0.00000000E+00  0.00000000E+00  0.00000000E+00
  0.00000000E+00  0.00000000E+00  0.00000000E+00
  0.00000000E+00  0.00000000E+00  0.00000000E+00
  0.00000000E+00  0.00000000E+00  0.00000000E+00
  0.00000000E+00  0.00000000E+00  0.00000000E+00
  0.00000000E+00  0.00000000E+00  0.00000000E+00
  0.00000000E+00  0.00000000E+00  0.00000000E+00
  0.00000000E+00  0.00000000E+00  0.00000000E+00
  0.00000000E+00  0.00000000E+00  0.00000000E+00
  0.00000000E+00  0.00000000E+00  0.00000000E+00
  0.00000000E+00  0.00000000E+00  0.00000000E+00
  0.00000000E+00  0.00000000E+00  0.00000000E+00
  0.00000000E+00  0.00000000E+00  0.00000000E+00
  0.00000000E+00  0.00000000E+00  0.00000000E+00
  0.00000000E+00  0.00000000E+00  0.00000000E+00
  0.00000000E+00  0.00000000E+00  0.00000000E+00
  0.00000000E+00  0.00000000E+00  0.00000000E+00
  0.00000000E+00  0.00000000E+00  0.00000000E+00
  0.00000000E+00  0.00000000E+00  0.00000000E+00
  0.00000000E+00  0.00000000E+00  0.00000000E+00
  0.00000000E+00  0.00000000E+00  0.00000000E+00
  0.00000000E+00  0.00000000E+00  0.00000000E+00
  0.00000000E+00  0.00000000E+00  0.00000000E+00
  0.00000000E+00  0.00000000E+00  0.00000000E+00
  0.00000000E+00  0.00000000E+00  0.00000000E+00
  0.00000000E+00  0.00000000E+00  0.00000000E+00
  0.00000000E+00  0.00000000E+00  0.00000000E+00
  0.00000000E+00  0.00000000E+00  0.00000000E+00
  0.00000000E+00  0.00000000E+00  0.00000000E+00
  0.00000000E+00  0.00000000E+00  0.00000000E+00
  0.00000000E+00  0.00000000E+00  0.00000000E+00
