Cu	N	Ru	Ta                              
   1.00000000000000     
    18.1096308199999996    0.0000000000000000    0.0000000000000000
     0.0000000000000000   23.3551997799999995    0.0000000000000000
     0.0000000000000000    0.0000000000000000   30.4818171199999988
   Cu   N    Ru   Ta
     3   240    12   228
Selective dynamics
Direct
  0.5676265426621897  0.4383628867406143  0.6120311146164178   T   T   T
  0.4323565684356823  0.4382947245157853  0.6120058237464112   T   T   T
  0.4999698550833953  0.4317295576935771  0.6771108241009939   T   T   T
  0.0000000000000000  0.0002658024790421  0.3027806050297599   F   F   F
  0.0000000000000000  0.5002658024790421  0.3027806050297599   F   F   F
  0.0000000000000000  0.6252068313499990  0.3027729437410898   F   F   F
  0.0000000000000000  0.7502658026931286  0.3027806050297599   F   F   F
  0.0000000000000000  0.8752068315640855  0.3027729437410898   F   F   F
  0.0000000000000000  0.1252068313499990  0.3027729437410898   F   F   F
  0.0000000000000000  0.2502658026931286  0.3027806050297599   F   F   F
  0.0000000000000000  0.3752068315640855  0.3027729437410898   F   F   F
  0.5928073747777167  0.7496715172674037  0.5685273900517974   T   T   T
  0.5928055459512687  0.9997104428827850  0.5685502861692527   T   T   T
  0.5929042206146283  0.2501775888091761  0.5684864504652563   T   T   T
  0.5940493004484111  0.9998103570065027  0.2323399901691943   F   F   F
  0.5940493004484111  0.4998103570065027  0.2323399901691943   F   F   F
  0.5940493004484111  0.7498103572205892  0.2323399901691943   F   F   F
  0.5940493004484111  0.2498103572205892  0.2323399901691943   F   F   F
  0.5941034351798038  0.6248444726427422  0.2323487498175751   F   F   F
  0.5941034351798038  0.8748444728568288  0.2323487498175751   F   F   F
  0.5941034351798038  0.1248444726427422  0.2323487498175751   F   F   F
  0.5941034351798038  0.3748444728568288  0.2323487498175751   F   F   F
  0.5956815531011027  0.4995250606455743  0.5709781324376405   T   T   T
  0.5979799809075299  0.6210660266432281  0.5715701930415961   T   T   T
  0.5980202996277878  0.1214095866703232  0.5715986628910151   T   T   T
  0.5980492855625761  0.8712559508314414  0.5715730294310609   T   T   T
  0.5987552762370733  0.6240850466858889  0.4025837534427957   T   T   T
  0.5987700853728951  0.3742048898556283  0.4025188690980587   T   T   T
  0.5987891376266637  0.8741836722942818  0.4025339172722905   T   T   T
  0.5987912150973451  0.1241887235426740  0.4025327679918764   T   T   T
  0.5990978123521832  0.7490595949910693  0.4023097046866316   T   T   T
  0.5991144199984377  0.2490878137109500  0.4023227144564870   T   T   T
  0.5991515718714862  0.9990827030018443  0.4022986315886902   T   T   T
  0.5991383429267700  0.4991116647875538  0.4023417767540716   T   T   T
  0.5994586871392215  0.3718575592004221  0.5723866083497198   T   T   T
  0.6508425559744412  0.6230777272864132  0.4882629311598470   T   T   T
  0.6509697475399707  0.1230102538233596  0.4882219411136394   T   T   T
  0.6509754088163103  0.8730223266870597  0.4882291094785975   T   T   T
  0.6510328884468568  0.3726220653233847  0.4881202478350734   T   T   T
  0.6516760927359724  0.9990650791075443  0.4883932082548481   T   T   T
  0.6516904301572268  0.2490923433970438  0.4883825435608422   T   T   T
  0.6517028769610649  0.7490777993081391  0.4883691276065384   T   T   T
  0.6517519818846100  0.4992470878195434  0.4886741976481676   T   T   T
  0.6547396409045092  0.9997083480310920  0.3159103144045119   F   F   F
  0.6547396409045092  0.4997083480310920  0.3159103144045119   F   F   F
  0.6547396409045092  0.7497083482451785  0.3159103144045119   F   F   F
  0.6547396409045092  0.2497083482451785  0.3159103144045119   F   F   F
  0.6547625022209047  0.6246790182669955  0.3159667218028375   F   F   F
  0.6547625022209047  0.8746790184810820  0.3159667218028375   F   F   F
  0.6547625022209047  0.1246790182669955  0.3159667218028375   F   F   F
  0.6547625022209047  0.3746790184810820  0.3159667218028375   F   F   F
  0.7407424849349372  0.7416559719742970  0.5623768430570953   T   T   T
  0.7408066297270972  0.2421358126088282  0.5620835589210763   T   T   T
  0.7408336226289406  0.9918198507831204  0.5623592054726888   T   T   T
  0.7429918734220370  0.4921995476247178  0.5620181233474497   T   T   T
  0.7497181855858486  0.0000100119032282  0.1992701427899632   F   F   F
  0.7497181855858486  0.5000100119032282  0.1992701427899632   F   F   F
  0.7497181855858486  0.7500100121173077  0.1992701427899632   F   F   F
  0.7497181855858486  0.2500100121173077  0.1992701427899632   F   F   F
  0.7497340914871273  0.6250292589019324  0.1993221157413743   F   F   F
  0.7497340914871273  0.8750292591160189  0.1993221157413743   F   F   F
  0.7497340914871273  0.1250292589019324  0.1993221157413743   F   F   F
  0.7497340914871273  0.3750292591160189  0.1993221157413743   F   F   F
  0.7501125656237763  0.6249412304087749  0.3879169919181852   T   T   T
  0.7501329102355566  0.7498645549278250  0.3872604514494651   T   T   T
  0.7501519761204642  0.9998912236355438  0.3872620806522058   T   T   T
  0.7501566944120878  0.8748909965166207  0.3878645645917354   T   T   T
  0.7501172171346444  0.4998967312279740  0.3873224017665492   T   T   T
  0.7501336741068172  0.2498385371552916  0.3872375573782695   T   T   T
  0.7501538111405738  0.1248951725872973  0.3878451630479329   T   T   T
  0.7501351828675696  0.3748989998839851  0.3878360239104173   T   T   T
  0.7522858367438127  0.6219671624144655  0.5561265231590057   T   T   T
  0.7523490894272709  0.1223681542457547  0.5562712312993404   T   T   T
  0.7525487870000765  0.8721052983317432  0.5562527967832721   T   T   T
  0.7533546747372510  0.3722673587817020  0.5559860742439049   T   T   T
  0.8451499272473839  0.6251896283286698  0.3155471503596488   F   F   F
  0.8451499272473839  0.8751896285427563  0.3155471503596488   F   F   F
  0.8451499272473839  0.1251896283286698  0.3155471503596488   F   F   F
  0.8451499272473839  0.3751896285427563  0.3155471503596488   F   F   F
  0.8451807898312538  0.0001939208417241  0.3155011134060643   F   F   F
  0.8451807898312538  0.5001939208417241  0.3155011134060643   F   F   F
  0.8451807898312538  0.7501939210558106  0.3155011134060643   F   F   F
  0.8451807898312538  0.2501939210558106  0.3155011134060643   F   F   F
  0.8466678641481789  0.9986336771342461  0.4860381225246554   T   T   T
  0.8466964714048709  0.7486203804232056  0.4860563626103249   T   T   T
  0.8467329459516838  0.2486591910123612  0.4859930315757634   T   T   T
  0.8470838858646710  0.4987432098199462  0.4858035504746810   T   T   T
  0.8489281466957612  0.1292665934239150  0.4862286006958361   T   T   T
  0.8489778270297049  0.8792878602920816  0.4862594053437853   T   T   T
  0.8489974014175988  0.6291909955303795  0.4862333449510760   T   T   T
  0.8492544557346515  0.3791775494469288  0.4860820539899182   T   T   T
  0.9009115226363816  0.7589917031140795  0.5677620140221534   T   T   T
  0.9009322800296454  0.0090110579364754  0.5677790563733403   T   T   T
  0.9009195686162927  0.5008832527509213  0.4016987846371429   T   T   T
  0.9009472897827721  0.2508096204784576  0.4017954707879289   T   T   T
  0.9010021283092415  0.2587425423306227  0.5677614763569093   T   T   T
  0.9009896704422387  0.7508645777233515  0.4018529615491779   T   T   T
  0.9009914010289554  0.0008274781317835  0.4018565402509330   T   T   T
  0.9010525303610504  0.6258247615781658  0.4018250500742268   T   T   T
  0.9010993113667010  0.3756988350919345  0.4017571612511915   T   T   T
  0.9011176451840314  0.1257257649592622  0.4018709866785030   T   T   T
  0.9011505739441922  0.8757552724960947  0.4018977475831992   T   T   T
  0.9013940941964974  0.5089006920198782  0.5678766865196790   T   T   T
  0.9024540411883397  0.6349261255013203  0.5710750976492643   T   T   T
  0.9025618818005480  0.1349254382475937  0.5711206818182523   T   T   T
  0.9025857570856674  0.8850190344311266  0.5711669602424242   T   T   T
  0.9030141327378305  0.3844746459790049  0.5713239682958456   T   T   T
  0.9057164253114252  0.6251516265128672  0.2320045249323357   F   F   F
  0.9057164253114252  0.8751516267269537  0.2320045249323357   F   F   F
  0.9057164253114252  0.1251516265128672  0.2320045249323357   F   F   F
  0.9057164253114252  0.3751516267269537  0.2320045249323357   F   F   F
  0.9057548087553968  0.0001403618907503  0.2320193078436787   F   F   F
  0.9057548087553968  0.5001403618907503  0.2320193078436787   F   F   F
  0.9057548087553968  0.7501403621048368  0.2320193078436787   F   F   F
  0.9057548087553968  0.2501403621048368  0.2320193078436787   F   F   F
  0.0942451912446032  0.0001403618907503  0.2320193078436787   F   F   F
  0.0942451912446032  0.5001403618907503  0.2320193078436787   F   F   F
  0.0942451912446032  0.7501403621048368  0.2320193078436787   F   F   F
  0.0942451912446032  0.2501403621048368  0.2320193078436787   F   F   F
  0.0942835746885748  0.6251516265128672  0.2320045249323357   F   F   F
  0.0942835746885748  0.8751516267269537  0.2320045249323357   F   F   F
  0.0942835746885748  0.1251516265128672  0.2320045249323357   F   F   F
  0.0942835746885748  0.3751516267269537  0.2320045249323357   F   F   F
  0.0969168968016538  0.3844571777173043  0.5713142039679439   T   T   T
  0.0974134590953542  0.8850124830546279  0.5711698449470460   T   T   T
  0.0974061779255741  0.1348991362297683  0.5711204085546044   T   T   T
  0.0974875278600147  0.6349394729050346  0.5710758402317480   T   T   T
  0.0984913259796913  0.5088941624289721  0.5678648336753195   T   T   T
  0.0988363723287645  0.8757552626617213  0.4018977254338411   T   T   T
  0.0988598942249924  0.3756993947483293  0.4017539472577132   T   T   T
  0.0988566205133827  0.1257260776134602  0.4018673520385420   T   T   T
  0.0989196476377678  0.6258258130406381  0.4018253894790966   T   T   T
  0.0989909473418071  0.7508646350240241  0.4018521823243263   T   T   T
  0.0989744809562684  0.2587222447942246  0.5677684632279995   T   T   T
  0.0989913186171053  0.0008268282499924  0.4018554723628697   T   T   T
  0.0990201095994922  0.2508105568980432  0.4017929984248088   T   T   T
  0.0990428628124405  0.5008843185566958  0.4016965620203946   T   T   T
  0.0990682914391153  0.0090012500904790  0.5677800009201595   T   T   T
  0.0990881731685003  0.7589935929769117  0.5677658285909223   T   T   T
  0.9999762385767326  0.3753729723969012  0.4734350292859218   T   T   T
  0.9999739081997183  0.5024846792210799  0.4732634792715901   T   T   T
  0.9999803739026917  0.2522350628955548  0.4735206577941282   T   T   T
  0.9999808031088743  0.6254312894498689  0.4736792826861902   T   T   T
  0.9999840225057938  0.1254018851455054  0.4736735928943486   T   T   T
  0.9999917714027325  0.7523203962934852  0.4736013822087817   T   T   T
  0.9999929066415647  0.0023555855385853  0.4736453918258054   T   T   T
  0.9999940299318526  0.8754057219053675  0.4737496301876487   T   T   T
  0.1507042016361805  0.3791760858623348  0.4860792222263898   T   T   T
  0.1509602935097840  0.6291873613071306  0.4862366430060903   T   T   T
  0.1510146644403445  0.8792847998387959  0.4862604717537805   T   T   T
  0.1510425963726436  0.1292728348921301  0.4862229283507501   T   T   T
  0.1528670559149748  0.4987324836563560  0.4857985167241581   T   T   T
  0.1532189376346476  0.2486601903478380  0.4859897919256175   T   T   T
  0.1532838841571442  0.7486177606473561  0.4860570422103751   T   T   T
  0.1533174823384500  0.9986344387974879  0.4860377009659588   T   T   T
  0.1548192101687462  0.0001939208417241  0.3155011134060643   F   F   F
  0.1548192101687462  0.5001939208417241  0.3155011134060643   F   F   F
  0.1548192101687462  0.7501939210558106  0.3155011134060643   F   F   F
  0.1548192101687462  0.2501939210558106  0.3155011134060643   F   F   F
  0.1548500727526161  0.6251896283286698  0.3155471503596488   F   F   F
  0.1548500727526161  0.8751896285427563  0.3155471503596488   F   F   F
  0.1548500727526161  0.1251896283286698  0.3155471503596488   F   F   F
  0.1548500727526161  0.3751896285427563  0.3155471503596488   F   F   F
  0.2465799756392669  0.3722623019681773  0.5559887703964479   T   T   T
  0.2474476680017431  0.8721003680922967  0.5562569616904929   T   T   T
  0.2476180514170413  0.1223615853839737  0.5562665429615957   T   T   T
  0.2476678114778942  0.6219676662588099  0.5561259551750214   T   T   T
  0.2498400072289652  0.3748998228445877  0.3878308919353872   T   T   T
  0.2498423006014834  0.2498404225041149  0.3872331938013704   T   T   T
  0.2498269637687799  0.1248947057963523  0.3878418499197759   T   T   T
  0.2498597524990379  0.4998965258656530  0.3873195733592392   T   T   T
  0.2498359788637692  0.9998903734045739  0.3872606801381847   T   T   T
  0.2498349973101982  0.8748908709757887  0.3878628620817899   T   T   T
  0.2498578583358793  0.7498686907823622  0.3872606832706829   T   T   T
  0.2498695517616757  0.6249421208041932  0.3879204351524925   T   T   T
  0.2502659079606815  0.6250292589019324  0.1993221157413743   F   F   F
  0.2502659079606815  0.8750292591160189  0.1993221157413743   F   F   F
  0.2502659079606815  0.1250292589019324  0.1993221157413743   F   F   F
  0.2502659079606815  0.3750292591160189  0.1993221157413743   F   F   F
  0.2502818138619602  0.0000100119032282  0.1992701427899632   F   F   F
  0.2502818138619602  0.5000100119032282  0.1992701427899632   F   F   F
  0.2502818138619602  0.7500100121173077  0.1992701427899632   F   F   F
  0.2502818138619602  0.2500100121173077  0.1992701427899632   F   F   F
  0.2569335381497269  0.4921952590024283  0.5620114386382804   T   T   T
  0.2591249566553704  0.2421310532781770  0.5620814473770448   T   T   T
  0.2591635056328833  0.9918098571694596  0.5623651759935863   T   T   T
  0.2592418146817842  0.7416558764079482  0.5623770918154954   T   T   T
  0.3452374977790953  0.6246790182669955  0.3159667218028375   F   F   F
  0.3452374977790953  0.8746790184810820  0.3159667218028375   F   F   F
  0.3452374977790953  0.1246790182669955  0.3159667218028375   F   F   F
  0.3452374977790953  0.3746790184810820  0.3159667218028375   F   F   F
  0.3452603590954908  0.9997083480310920  0.3159103144045119   F   F   F
  0.3452603590954908  0.4997083480310920  0.3159103144045119   F   F   F
  0.3452603590954908  0.7497083482451785  0.3159103144045119   F   F   F
  0.3452603590954908  0.2497083482451785  0.3159103144045119   F   F   F
  0.3481962370844160  0.4992475613408787  0.4886753033025883   T   T   T
  0.3482552407108261  0.2490888782760728  0.4883820271998029   T   T   T
  0.3482778303304419  0.7490796196184828  0.4883695147726698   T   T   T
  0.3483057726354677  0.9990636825699188  0.4883945334785382   T   T   T
  0.3489143194587782  0.3726195752052047  0.4881169910514585   T   T   T
  0.3489951386250435  0.1230069180203667  0.4882209490722170   T   T   T
  0.3490119360349527  0.8730232663512396  0.4882303938582735   T   T   T
  0.3491256768725919  0.6230771990564958  0.4882654802954141   T   T   T
  0.4004790151805627  0.3718440708422077  0.5723774449993090   T   T   T
  0.4008320334813231  0.4991097344264590  0.4023430959221027   T   T   T
  0.4008325403077206  0.9990827682957882  0.4022984531234062   T   T   T
  0.4008526315233855  0.2490878707501764  0.4023237624767809   T   T   T
  0.4008895127801637  0.7490604044896212  0.4023088992321840   T   T   T
  0.4011876407266614  0.1241882138241456  0.4025318881446208   T   T   T
  0.4011995438730660  0.3742063757597847  0.4025217759644474   T   T   T
  0.4012003530469352  0.8741872830405985  0.4025351831019688   T   T   T
  0.4012205831575585  0.6240854443473615  0.4025847803522149   T   T   T
  0.4019329439218060  0.1214076718151533  0.5716020341674688   T   T   T
  0.4019450064193773  0.8712539176718496  0.5715734714035475   T   T   T
  0.4019746355228914  0.6210583045579268  0.5715743602120884   T   T   T
  0.4042606879796802  0.4995127822831177  0.5709825350376057   T   T   T
  0.4058965648201962  0.6248444726427422  0.2323487498175751   F   F   F
  0.4058965648201962  0.8748444728568288  0.2323487498175751   F   F   F
  0.4058965648201962  0.1248444726427422  0.2323487498175751   F   F   F
  0.4058965648201962  0.3748444728568288  0.2323487498175751   F   F   F
  0.4059506995515889  0.9998103570065027  0.2323399901691943   F   F   F
  0.4059506995515889  0.4998103570065027  0.2323399901691943   F   F   F
  0.4059506995515889  0.7498103572205892  0.2323399901691943   F   F   F
  0.4059506995515889  0.2498103572205892  0.2323399901691943   F   F   F
  0.4070110955545505  0.2501732642348612  0.5684995049634104   T   T   T
  0.4071796429174921  0.7496678177668498  0.5685283064691906   T   T   T
  0.4071811519376561  0.9997114142215036  0.5685486171800154   T   T   T
  0.4999759611869808  0.2492566054741329  0.4730716768474032   T   T   T
  0.4999790848404880  0.4989870194745175  0.4731089899641265   T   T   T
  0.4999784844802255  0.3730325695337493  0.4753031442415777   T   T   T
  0.4999835205245129  0.6230924076447663  0.4757597300484929   T   T   T
  0.4999830206706403  0.1231233138859020  0.4755404188907607   T   T   T
  0.4999910234126549  0.7490588766204028  0.4727653910095234   T   T   T
  0.4999906728019408  0.9991563001907841  0.4727718853512224   T   T   T
  0.4999931439748964  0.8730449587231572  0.4755849061579625   T   T   T
  0.5000000000000000  0.9996370422826644  0.3031199056678844   F   F   F
  0.5000000000000000  0.4996370422826644  0.3031199056678844   F   F   F
  0.5000000000000000  0.6247350156471256  0.3031143997625279   F   F   F
  0.5000000000000000  0.7496370424967509  0.3031199056678844   F   F   F
  0.5000000000000000  0.8747350158612122  0.3031143997625279   F   F   F
  0.5000000000000000  0.1247350156471256  0.3031143997625279   F   F   F
  0.5000000000000000  0.2496370424967509  0.3031199056678844   F   F   F
  0.5000000000000000  0.3747350158612122  0.3031143997625279   F   F   F
  0.8470940214629149  0.8198296545985153  0.5368018615816658   T   T   T
  0.8470676234473337  0.0697312873996475  0.5367404793110762   T   T   T
  0.8471446460487866  0.5695689932892556  0.5367092432581569   T   T   T
  0.8476277879648489  0.3196373927789392  0.5366917908889106   T   T   T
  0.1523443292060107  0.3196136255281669  0.5366818441367484   T   T   T
  0.1527174501822179  0.5695674671709625  0.5367242384203640   T   T   T
  0.1529226045071059  0.0697361446519024  0.5367341752791341   T   T   T
  0.1529116684553390  0.8198277472002359  0.5368017963921045   T   T   T
  0.4999455172337207  0.2580556226285927  0.5393356149543079   T   T   T
  0.4999606391432272  0.5048104435644950  0.5393338455263733   T   T   T
  0.5000117377630527  0.0066292724301068  0.5390285669230246   T   T   T
  0.4999974366294702  0.7563140398776522  0.5390394238783650   T   T   T
  0.0000000000000000  0.0000718854908470  0.1971343718238288   F   F   F
  0.0000000000000000  0.5000718854908470  0.1971343718238288   F   F   F
  0.0000000000000000  0.6251997477026094  0.1971274191543344   F   F   F
  0.0000000000000000  0.7500718857049335  0.1971343718238288   F   F   F
  0.0000000000000000  0.8751997479166960  0.1971274191543344   F   F   F
  0.0000000000000000  0.1251997477026094  0.1971274191543344   F   F   F
  0.0000000000000000  0.2500718857049335  0.1971343718238288   F   F   F
  0.0000000000000000  0.3751997479166960  0.1971274191543344   F   F   F
 -0.0000007473436181  0.8784511186783698  0.5422192084501577   T   T   T
 -0.0000092360033213  0.7509806630869771  0.5415242470541207   T   T   T
  0.0000035661320200  0.0010788851706889  0.5415403922153751   T   T   T
  0.5826617485954912  0.5622475047824267  0.2840383746124928   F   F   F
  0.5826617485954912  0.0622475047824267  0.2840383746124928   F   F   F
  0.5826617485954912  0.8122475045683402  0.2840383746124928   F   F   F
  0.5826617485954912  0.3122475045683402  0.2840383746124928   F   F   F
  0.5827027102256537  0.4372504995116770  0.2840867749422387   F   F   F
  0.5827027102256537  0.6872504992975905  0.2840867749422387   F   F   F
  0.5827027102256537  0.9372504995116770  0.2840867749422387   F   F   F
  0.5827027102256537  0.1872504992975905  0.2840867749422387   F   F   F
  0.5837421358208964  0.4362387557927610  0.4542907547306269   T   T   T
  0.5838526701908001  0.6861498766036634  0.4541407299355342   T   T   T
  0.5838620906985607  0.1861782257705031  0.4541747172061804   T   T   T
  0.5839084061078059  0.9361804239283027  0.4541504666684410   T   T   T
  0.5839990792571672  0.5610765926545277  0.4545476093296539   T   T   T
  0.5840139882274392  0.3111044742402950  0.4543739173774538   T   T   T
  0.5840641238217377  0.0611633332857280  0.4543687798934499   T   T   T
  0.5840993488641920  0.8111838606168985  0.4543891324992577   T   T   T
  0.6601440160454127  0.6853922125804572  0.5423534529256794   T   T   T
  0.6601826170466822  0.1849292142997295  0.5422807165636394   T   T   T
  0.6602430325672776  0.9352075909595277  0.5423734575742053   T   T   T
  0.6639677734682453  0.4354152317647513  0.5409150934605111   T   T   T
  0.6656630292367254  0.4374555758991647  0.2027209846340057   F   F   F
  0.6656630292367254  0.6874555756850853  0.2027209846340057   F   F   F
  0.6656630292367254  0.9374555758991647  0.2027209846340057   F   F   F
  0.6656630292367254  0.1874555756850853  0.2027209846340057   F   F   F
  0.6657072857987743  0.5624132520265661  0.2026937805471647   F   F   F
  0.6657072857987743  0.0624132520265661  0.2026937805471647   F   F   F
  0.6657072857987743  0.8124132518124867  0.2026937805471647   F   F   F
  0.6657072857987743  0.3124132518124867  0.2026937805471647   F   F   F
  0.6676289275885648  0.8121299813265899  0.3685734283257749   T   T   T
  0.6676332138024041  0.4369956531823832  0.3685473476714342   T   T   T
  0.6676575069480821  0.6869600807980775  0.3684857010614498   T   T   T
  0.6676726706502658  0.0621297816072723  0.3685504842771830   T   T   T
  0.6676673048554508  0.3121305222614604  0.3685649643445416   T   T   T
  0.6676653432033687  0.1869746027295675  0.3684734629510671   T   T   T
  0.6676721874307054  0.9369727479627287  0.3684751884136981   T   T   T
  0.6676984586662399  0.5621379503225982  0.3685338592632956   T   T   T
  0.6688041585997467  0.0592308351172640  0.5438150207062236   T   T   T
  0.6689247231989917  0.8094679133664664  0.5437497932932630   T   T   T
  0.6692545861799095  0.5598389274411846  0.5440787329630478   T   T   T
  0.6697118926756456  0.3088177196066190  0.5438227287549326   T   T   T
  0.7493228458246181  0.9982473145303891  0.4550376242327114   T   T   T
  0.7493603868784765  0.2482570514954796  0.4549989125038589   T   T   T
  0.7493667330360645  0.7482978347068870  0.4550458641737448   T   T   T
  0.7493832053550695  0.6263819103868525  0.4559891624409056   T   T   T
  0.7494288700884764  0.1263383106784166  0.4558962956498350   T   T   T
  0.7494717888491440  0.4983237603047874  0.4551011575795956   T   T   T
  0.7494789482551548  0.8763312518238957  0.4559270505920038   T   T   T
  0.7496225453270391  0.3762295630734293  0.4558492921651850   T   T   T
  0.7497932119634427  0.6250918038603928  0.2779408447549940   F   F   F
  0.7497932119634427  0.8750918040744793  0.2779408447549940   F   F   F
  0.7497932119634427  0.1250918038603928  0.2779408447549940   F   F   F
  0.7497932119634427  0.3750918040744793  0.2779408447549940   F   F   F
  0.7498000177344295  0.9998887643854673  0.2779024730268418   F   F   F
  0.7498000177344295  0.4998887643854673  0.2779024730268418   F   F   F
  0.7498000177344295  0.7498887645995538  0.2779024730268418   F   F   F
  0.7498000177344295  0.2498887645995538  0.2779024730268418   F   F   F
  0.0821907424054163  0.4387963896997766  0.4534214831569713   T   T   T
  0.0822937489663852  0.1887862822075511  0.4535582841291177   T   T   T
  0.0823029376176157  0.9387796660809482  0.4536175473086914   T   T   T
  0.0823056164202213  0.6887811803068921  0.4535925256570711   T   T   T
  0.0825727650034978  0.4376830284600572  0.2837096284632494   F   F   F
  0.0825727650034978  0.6876830282459707  0.2837096284632494   F   F   F
  0.0825727650034978  0.9376830284600572  0.2837096284632494   F   F   F
  0.0825727650034978  0.1876830282459707  0.2837096284632494   F   F   F
  0.0826029583302130  0.5626929404925889  0.2836274496354534   F   F   F
  0.0826029583302130  0.0626929404925889  0.2836274496354534   F   F   F
  0.0826029583302130  0.8126929402785024  0.2836274496354534   F   F   F
  0.0826029583302130  0.3126929402785024  0.2836274496354534   F   F   F
  0.8294046465729015  0.6916907416293891  0.5429019510526104   T   T   T
  0.8294265084410866  0.9417131762599522  0.5429553000710312   T   T   T
  0.8296851935100155  0.1915663301608299  0.5428428146630618   T   T   T
  0.8312145176200303  0.4417115478913894  0.5427737016294657   T   T   T
  0.8320908463794735  0.6877692881272602  0.3677837396883987   T   T   T
  0.8320847464830652  0.4377669504843311  0.3677470765691038   T   T   T
  0.8321120135222185  0.9377466263700922  0.3677889636384878   T   T   T
  0.8321054901991985  0.1877295644885991  0.3677600870529306   T   T   T
  0.8322497738702190  0.5628331045745250  0.3679605348142516   T   T   T
  0.8323157469607572  0.3127752685494971  0.3679834282250285   T   T   T
  0.8323769789714567  0.8128004756833495  0.3680557765162273   T   T   T
  0.8323777286994148  0.0627800087702613  0.3680359818405288   T   T   T
  0.8336793151700448  0.5625684457322180  0.2026879705260853   F   F   F
  0.8336793151700448  0.0625684457322180  0.2026879705260853   F   F   F
  0.8336793151700448  0.8125684455181315  0.2026879705260853   F   F   F
  0.8336793151700448  0.3125684455181315  0.2026879705260853   F   F   F
  0.8337395527315365  0.4376312579759087  0.2027221981443361   F   F   F
  0.8337395527315365  0.6876312577618222  0.2027221981443361   F   F   F
  0.8337395527315365  0.9376312579759087  0.2027221981443361   F   F   F
  0.8337395527315365  0.1876312577618222  0.2027221981443361   F   F   F
  0.0851003742950376  0.3136356424154209  0.4541939006885858   T   T   T
  0.0851251027710211  0.5637344714549262  0.4541286329704253   T   T   T
  0.0851981951502848  0.8136692519916838  0.4543455241023728   T   T   T
  0.0852052382458081  0.0636720284238848  0.4543150665757515   T   T   T
  0.9147737874441377  0.0636702163804197  0.4543177889612535   T   T   T
  0.9147866869684025  0.8136708391155416  0.4543455290225360   T   T   T
  0.9148334694036164  0.5637353332613951  0.4541275035255872   T   T   T
  0.9148591893156699  0.3136342186524997  0.4541971434024028   T   T   T
  0.9173970416697870  0.5626929404925889  0.2836274496354534   F   F   F
  0.9173970416697870  0.0626929404925889  0.2836274496354534   F   F   F
  0.9173970416697870  0.8126929402785024  0.2836274496354534   F   F   F
  0.9173970416697870  0.3126929402785024  0.2836274496354534   F   F   F
  0.9174272349965022  0.4376830284600572  0.2837096284632494   F   F   F
  0.9174272349965022  0.6876830282459707  0.2837096284632494   F   F   F
  0.9174272349965022  0.9376830284600572  0.2837096284632494   F   F   F
  0.9174272349965022  0.1876830282459707  0.2837096284632494   F   F   F
  0.9176601012129216  0.1887855613624658  0.4535629298195134   T   T   T
  0.9176648403751564  0.6887825139072441  0.4535930322689122   T   T   T
  0.9176820322150145  0.9387807306862228  0.4536168534455544   T   T   T
  0.9177595557530474  0.4387976333316507  0.4534259715795906   T   T   T
  0.9999358920677105  0.5011630845464803  0.5411296174029213   T   T   T
  0.9999637786835308  0.3785969043018362  0.5418943016979237   T   T   T
  0.9999673981004622  0.6286071307460179  0.5421772273654524   T   T   T
  0.9999828650258736  0.2506264679077203  0.3693647225984436   T   T   T
  0.9999803792730450  0.5007171854458561  0.3693421814017754   T   T   T
  0.9999795048686394  0.3756127278970947  0.3692924746368579   T   T   T
  0.9999860986245817  0.1255741756195911  0.3693445599022027   T   T   T
  0.9999946969360349  0.0006532589854900  0.3693864198681023   T   T   T
  0.9999865289695472  0.6256271504287326  0.3693376968599325   T   T   T
  0.9999924902043069  0.8756182664617812  0.3693452319107267   T   T   T
  0.9999935114510696  0.2509169840999771  0.5414478236721675   T   T   T
  0.9999811053513252  0.1285171305568252  0.5421244074306063   T   T   T
  0.9999947699319413  0.7506670985331115  0.3693891616102573   T   T   T
  0.1662604174500757  0.4376312579759087  0.2027221981443361   F   F   F
  0.1662604174500757  0.6876312577618222  0.2027221981443361   F   F   F
  0.1662604174500757  0.9376312579759087  0.2027221981443361   F   F   F
  0.1662604174500757  0.1876312577618222  0.2027221981443361   F   F   F
  0.1663206550115603  0.5625684457322180  0.2026879705260853   F   F   F
  0.1663206550115603  0.0625684457322180  0.2026879705260853   F   F   F
  0.1663206550115603  0.8125684455181315  0.2026879705260853   F   F   F
  0.1663206550115603  0.3125684455181315  0.2026879705260853   F   F   F
  0.1676081000204059  0.0627791835619554  0.3680331797277729   T   T   T
  0.1676137898657276  0.8127994494973474  0.3680568771078903   T   T   T
  0.1676553980581933  0.3127771197241528  0.3679840698279326   T   T   T
  0.1677348295445857  0.5628350935010282  0.3679639736430017   T   T   T
  0.1678694157652754  0.1877301291219647  0.3677613473134621   T   T   T
  0.1678897255229443  0.4377680988506779  0.3677468026328343   T   T   T
  0.1678777916464922  0.9377466548510075  0.3677896581002874   T   T   T
  0.1678926807175649  0.6877706575491371  0.3677849961795475   T   T   T
  0.1686982634909943  0.4417066718691363  0.5427673785317689   T   T   T
  0.1702671190125606  0.1915590946912384  0.5428385086948918   T   T   T
  0.1705675236080667  0.9417046418581748  0.5429569231409165   T   T   T