Ta  N Ru Cu                             
   1.00000000000000     
    18.1096308199999996    0.0000000000000000    0.0000000000000000
     0.0000000000000000   23.3551997799999995    0.0000000000000000
     0.0000000000000000    0.0000000000000000   30.4818171199999988
   Ta   N    Ru   Cu
   216   240    24    29
Direct
  0.9918247343416091  0.9964573889169033  0.1938728722711041
  0.3228923867480911  0.0661684535739300  0.2017329760223529
  0.1690754695197736  0.0634103751347148  0.2025007206974660
  0.2524981710904402  0.1261320182061104  0.2759679987879184
  0.0812684869700885  0.0629666934099182  0.2839311992696538
  0.4142548958321651  0.0628269514266485  0.2812763518569786
  0.9975758925579736  0.1280519696703075  0.3682563922179899
  0.3307775075072822  0.0631559691469575  0.3678849293483798
  0.1644243515021480  0.0625497322333538  0.3665535909118944
  0.2469856664563703  0.1222405271858646  0.4517885492423324
  0.0786078435786848  0.0608841576208839  0.4520242925737021
  0.4135961210625760  0.0588226767142579  0.4487885315400130
  0.0036908285011022  0.1194954980379068  0.1960145388793970
  0.3209854921598132  0.1840754699622205  0.2028577902457090
  0.1646669980436750  0.1812726045262863  0.1989110615661833
  0.2457677907121648  0.2472302688373975  0.2807128753059290
  0.0806966286258724  0.1877102581913635  0.2795542397380149
  0.4086045171125781  0.1905845339161401  0.2822477947746521
  0.9979826186364696  0.2558730711005232  0.3656536859786025
  0.3285893384702936  0.1909630047486908  0.3658218377841781
  0.1682090949858221  0.1845900523356427  0.3676030116560587
  0.2409315331212160  0.2456714121295175  0.4522376202994206
  0.0809183928074669  0.1825425979621195  0.4489330893510790
  0.4133282460261749  0.1876811707564519  0.4514248521631238
  0.3354594117318955  0.1822066409953768  0.5368464175234998
  0.9974082461404534  0.2463832238784925  0.1925609236394339
  0.3217291858244173  0.3152237174616349  0.2039584080134337
  0.1698418902443433  0.3152874993536238  0.1962643036425933
  0.2514761718625657  0.3748235189748150  0.2789012381717790
  0.0833260191479887  0.3147634061399414  0.2787825407270533
  0.4179977153029259  0.3153692817800412  0.2820847741251341
  0.0022952235064057  0.3759668936795268  0.3640807291229866
  0.3332320890825887  0.3131814831422819  0.3665093205590341
  0.1628239233566049  0.3132216204039110  0.3695409119704267
  0.2504263597901115  0.3731895972204793  0.4519915163881599
  0.0840297598237627  0.3110502919779740  0.4574878072825861
  0.4095358366641320  0.3147718127480306  0.4535236386591095
  0.9969018379045776  0.3763345740569053  0.1916519146399568
  0.3152829791506931  0.4306375791018897  0.2016538585300582
  0.1634064881826462  0.4349032057424626  0.1977840743024144
  0.2404735947925996  0.0041110579237430  0.2763636536477418
  0.0856925303666016  0.4375871646377245  0.2808718902218936
  0.4126613008333134  0.4430608401686458  0.2848215491815717
  0.9960682497459670  0.9980070145027329  0.3664595172983177
  0.3338820816720511  0.4365352089475676  0.3682973860924139
  0.1669773996588877  0.4393617158156565  0.3637670165414456
  0.2542759835609515  0.0012775005499057  0.4552672610245742
  0.0844193893439100  0.4355209996601705  0.4505208298990067
  0.4195935099724617  0.4385265074519628  0.4559522830607947
  0.3311234838253376  0.4402384735148442  0.5453229081516113
  0.9983004291778406  0.4958535692344981  0.1966647804648012
  0.3308805021523084  0.5641582062791886  0.2050237886799255
  0.1664156357591451  0.5647791626152884  0.1995587659098375
  0.2544286403430354  0.6211751088449270  0.2789101665202244
  0.0822185408198184  0.5614091563085345  0.2804332133216721
  0.4092949349986228  0.5623767450781193  0.2861747642437567
  0.0012776545325286  0.6235143265140207  0.3676259696792167
  0.3289913910598209  0.5638822989890160  0.3713320739806802
  0.1631819575494813  0.5613084623217725  0.3663096054116523
  0.2498926442550854  0.6239998513445473  0.4552890879632840
  0.0861648727035138  0.5643257560338438  0.4512250228911716
  0.4190445568969123  0.5652430759048387  0.4553711544994709
  0.9952572877135927  0.6224436454269326  0.1950639368259227
  0.3243857082515528  0.6843258524422456  0.2007808852496090
  0.1655168345500387  0.6854526260971631  0.1978743494427192
  0.2490262964649004  0.7507536767592217  0.2798670612767856
  0.0841978749359384  0.6852612594697088  0.2819925615395871
  0.4128604669652282  0.6921370822536957  0.2826741000072832
  0.9971659432418075  0.7532344955771819  0.3676986248811281
  0.3267548297202222  0.6883657238293707  0.3714578005316143
  0.1627647917735868  0.6854286693355149  0.3642612433043230
  0.2530415022171356  0.7549489199561069  0.4548563325937419
  0.0920360108680062  0.6916973534711067  0.4524783230113716
  0.4185510111355968  0.6864422731046181  0.4552745270511724
  0.3244514750140536  0.6925346775933805  0.5465285467188036
  0.9950158840155325  0.7512563654533168  0.1948360892703595
  0.3232586196459424  0.8141110509266647  0.1983165034605459
  0.1670737365967993  0.8181732338217602  0.2039695218841364
  0.2471342722673834  0.8726067134807712  0.2796349249903979
  0.0769759164680170  0.8122206024343374  0.2822752943672850
  0.4098588561699448  0.8113867697562580  0.2832365302957607
  0.9980970132620375  0.8742708197272123  0.3692544802032379
  0.3257291703680943  0.8113173575635230  0.3658407283271469
  0.1657419453463308  0.8116948736824876  0.3669384103015252
  0.2561109921646278  0.8729915591493498  0.4556719951352032
  0.0871577481936255  0.8185324571038339  0.4526328912414883
  0.4191403369262880  0.8131218539245205  0.4542302541592057
  0.9947922298972947  0.8733839906968950  0.1920709114432391
  0.3288404659246553  0.9347818771430758  0.1976242862722028
  0.1647142020270114  0.9384319541260184  0.1997316860826933
  0.2497683629062408  0.5003298538600841  0.2769131833105476
  0.0765013343709244  0.9375959018652961  0.2834561394224093
  0.4104125121618347  0.9350987177215815  0.2818106213372595
  0.0021410648009319  0.5004113842783033  0.3645153209948948
  0.3296580211737724  0.9348823882123436  0.3648949470407646
  0.1645513743935670  0.9370587527144304  0.3655636360789151
  0.2594206818266752  0.5015263098633650  0.4497276919510578
  0.0793085348591201  0.9405259688156254  0.4536221329053973
  0.4183664086775191  0.9336400659118907  0.4484853705135836
  0.3460155842115972  0.9357573190362551  0.5428723972474668
  0.1624208879376164  0.9455758037701069  0.5398978422428726
  0.4932603488294379  0.0014550900023208  0.1920323510973738
  0.8349986944558363  0.0604414971486255  0.2022680379030176
  0.6599490581765137  0.0642672268105969  0.2020450022886686
  0.7427385599405719  0.1280897392064674  0.2795423571913193
  0.5769304223423071  0.0624133330889784  0.2805988896461147
  0.9171073994152547  0.0616545486322023  0.2820249872784192
  0.4976526267967413  0.1277530947816989  0.3679462677470322
  0.8325655026679624  0.0630351394837211  0.3685452999160842
  0.6615099298960897  0.0606377174948383  0.3641039090370739
  0.7531781306697759  0.1251395708380706  0.4504915525918495
  0.5807598073316382  0.0628084520023485  0.4537622951792741
  0.9155828182698544  0.0646381051325758  0.4531846065914569
  0.5048842761883944  0.1254709249077557  0.1956397692622844
  0.8399147194591743  0.1858222656740343  0.2014745040292234
  0.6677405352764696  0.1862718207432044  0.2031546019542514
  0.7535599155090208  0.2504979428255062  0.2817138716197458
  0.5802157524630887  0.1909715680500050  0.2841601682236851
  0.9123962211892521  0.1838393538918914  0.2850283017319772
  0.4907312936267317  0.2524485366063500  0.3675604357615413
  0.8250369631941464  0.1869607486561305  0.3650791335474992
  0.6602121097011729  0.1879565694197922  0.3685863737528822
  0.7443898619349684  0.2489356854463160  0.4504609602890975
  0.5818560737769115  0.1873305700835283  0.4519606943119115
  0.9104586421348642  0.1861872598810051  0.4500056560971936
  0.8218310341683732  0.1890446593848818  0.5407044045337384
  0.4967251956550174  0.2439018824537912  0.1941054977667947
  0.8239737432044018  0.3157108036495609  0.1977089907170060
  0.6644893940040134  0.3169038151709004  0.1984061097679696
  0.7505292172873010  0.3731333523489018  0.2785045714242915
  0.5823618946588647  0.3141614639328387  0.2841982291964675
  0.9146028835945946  0.3124238920199650  0.2783259841628792
  0.5005095378917136  0.3792386289095688  0.3704140666803573
  0.8344712329361683  0.3119396693533216  0.3686317074022863
  0.6665072569624955  0.3113276640209591  0.3670031744855219
  0.7491045062889364  0.3692090860117588  0.4540750422376066
  0.5840644662540825  0.3107832849085463  0.4528716623734540
  0.9127372294135351  0.3083741550050013  0.4549548999149358
  0.5000428264077865  0.3677707359374209  0.1980156945514392
  0.8260495425738169  0.4382800390398763  0.2024895709968910
  0.6648308857860514  0.4379597631313217  0.2020567572287353
  0.7495797249548284  0.9944274921145392  0.2828911301006676
  0.5809014932339684  0.4378570317490846  0.2840414945807191
  0.9204220950880726  0.4368067731476461  0.2826381885727627
  0.4995051047009472  0.9998309134683739  0.3676767208012470
  0.8320032818413230  0.4392659325893761  0.3692300719285663
  0.6652145958420946  0.4398471212127977  0.3717175251467880
  0.7482718245718574  0.0027836363393745  0.4536118178451469
  0.5863338284246489  0.4376059004102903  0.4546503840961552
  0.9166547366012060  0.4353274923323355  0.4559470169764713
  0.8454548088432765  0.4425750983525930  0.5464728824132967
  0.4962544869339292  0.4959417752780880  0.1992056614372175
  0.8221386053277300  0.5649496091012617  0.2006007838033874
  0.6642924294132848  0.5677903835081302  0.2025421882552976
  0.7417516986895338  0.6259025140772129  0.2828852525169963
  0.5769044715389580  0.5635274279152757  0.2832553757774360
  0.9210169710357986  0.5605853104367731  0.2793104677216631
  0.4960846291633895  0.6254695028180127  0.3704686041707416
  0.8345399379546604  0.5613644171923262  0.3631417926650112
  0.6688011101890664  0.5615470830289362  0.3725670289782624
  0.7551399393806582  0.6291449709059134  0.4549212365077450
  0.5887596039690151  0.5626878847400208  0.4578539164490567
  0.9159865517894736  0.5639587859081849  0.4507492067725332
  0.5007097596413544  0.6206634641967844  0.1987479076922086
  0.8204359691538492  0.6806128617629895  0.2010484732608271
  0.6725491439851573  0.6830398489482994  0.2046508742685006
  0.7453049189694242  0.7473491122480513  0.2798010294276300
  0.5809133688508111  0.6872285097168942  0.2827242006223896
  0.9160987677944005  0.6844582526360434  0.2812779444126841
  0.4957830884264336  0.7484786613250445  0.3707460094061754
  0.8338382167056471  0.6862642086999357  0.3670461388356325
  0.6660115250128389  0.6870683863282266  0.3702657067263153
  0.7511984461680075  0.7472554308556909  0.4501326832494458
  0.5842395552771208  0.6916075303517495  0.4565832422209294
  0.9195669221214932  0.6870917703166729  0.4521415679287791
  0.8556092974266962  0.6913839305690018  0.5418687524559828
  0.4951993199639584  0.7466683660976882  0.1913926725887390
  0.8283682710616150  0.8082317444462247  0.1974555241111648
  0.6613224039760693  0.8147400992187011  0.2008037318749801
  0.7451852595858252  0.8763132948828923  0.2852657958085948
  0.5787484013169716  0.8134666848802263  0.2866124577993030
  0.9140659598509414  0.8082334752201871  0.2801582460764997
  0.4929192523427177  0.8756186976149360  0.3707944603515944
  0.8309187704567494  0.8142810132550198  0.3674237158087847
  0.6608151720587906  0.8120642098186780  0.3685054596696001
  0.7510145149300085  0.8767029699483415  0.4533892969612976
  0.5845173962320221  0.8108261755455763  0.4530218587346966
  0.9168269892322911  0.8127844438895279  0.4511789938264348
  0.4889560249272257  0.8734235107982646  0.1980154197807652
  0.8279984159146998  0.9357019672878011  0.2006622140208912
  0.6637340078091633  0.9325981979022867  0.2020957505549477
  0.7472395202079805  0.5024520535734436  0.2815090678054423
  0.5781180132450748  0.9389530289940922  0.2825870470008203
  0.9135591052234567  0.9343945022108028  0.2848109271634606
  0.5035115236038089  0.5014693666150218  0.3731295956878441
  0.8275688473315919  0.9343253656331096  0.3688488278503947
  0.6599667241988161  0.9390529377613089  0.3670928928369895
  0.7481168285744034  0.5021794620580278  0.4520349451067393
  0.5813897025387813  0.9382028631246656  0.4553527105818430
  0.9156098747240650  0.9382631101183473  0.4546337785619772
  0.8301201565932200  0.9444426837871810  0.5426481038151157
  0.6664323882365287  0.9329226913432087  0.5438014921500510
  0.3408455800935422  0.0592640359082657  0.5381989403416479
  0.1618997106463538  0.0654337568088462  0.5400615694296437
  0.3366883599573426  0.3090568358115863  0.5413495161266009
  0.3269004786814684  0.5634387590257151  0.5450436662804203
  0.3350798519594733  0.8134114235090787  0.5442519024745137
  0.8350695367780843  0.0683375352232854  0.5418074150892757
  0.6597335395373513  0.0604881053192487  0.5390323190442922
  0.8128478894093274  0.3142828325893693  0.5414043738729760
  0.8623454242762338  0.5677277972267460  0.5411803192770164
  0.8406549891728360  0.8172266616690699  0.5391035275121170
  0.1612533005356198  0.1909621487336333  0.5397606110289650
  0.6595296128577249  0.1850697912366921  0.5376127134621310
  0.1643995130280244  0.8261830384940443  0.5403509199886914
  0.6660160161519442  0.8060668373554317  0.5462341224840638
  0.3986375775201991  0.9988376697014655  0.2294317925160739
  0.2486495328597564  0.9982902532311061  0.2069780831156836
  0.0872775677288541  0.9978911587082420  0.2293522149568409
  0.1598250577182992  0.1249644600097773  0.3136406906892556
  0.9993047132262511  0.1259772155091043  0.3004346899268719
  0.3443527836716398  0.1249581868105242  0.3129728977323452
  0.3966807068166502  0.1245639654015339  0.4008467262431608
  0.2494003250550666  0.1217325219855238  0.3847718353629254
  0.0969349494590425  0.1216050004222930  0.4015657689544518
  0.1519148172965057  0.1257764671235017  0.4852440615956993
  0.9947874679722911  0.1303845188021795  0.4747131125099667
  0.3446077764355578  0.1198820697991602  0.4836147797298658
  0.4043608307105282  0.1293252132497517  0.5689275963809194
  0.2513503731005553  0.1209756686638853  0.5552285579098981
  0.1045116710745320  0.1228850781844787  0.5715599881184837
  0.4011736751113852  0.1241961202176524  0.2294271208822918
  0.2431630324413405  0.1229444445860850  0.1750022404776226
  0.0968667467380675  0.1216219638923098  0.2319900181559971
  0.1522238077123892  0.2509251888298065  0.3180564107487779
  0.9967411585981153  0.2491916578653002  0.3008010697746868
  0.3429106831685845  0.2519288412380264  0.3142903474247429
  0.3967605527696511  0.2518552315408137  0.4030773072937137
  0.2442459713522921  0.2476958463918200  0.3835646490020579
  0.0920951987379187  0.2478183896338086  0.4017247928194903
  0.1447499809581677  0.2491094649803476  0.4856487067801472
  0.9959812267931043  0.2511736197341859  0.4717656579218143
  0.3393838712774571  0.2448586345726193  0.4853560262654266
  0.4051242942946012  0.2459300082075586  0.5691043126244313
  0.2478207883390322  0.2417992400887242  0.5613741175355198
  0.0490161149679005  0.2146607587765867  0.5557127703065451
  0.3985660098248779  0.2493001469632686  0.2305585341989889
  0.2462732202659752  0.2497977338170267  0.2060816334299000
  0.0918086076366759  0.2491460657229867  0.2287752054980482
  0.1537504960973834  0.3731395870615641  0.3144613827322933
  0.0040257077369436  0.3740377706707405  0.2987974014503065
  0.3430260382451488  0.3741024992976488  0.3169793215025506
  0.4020026615371650  0.3774733881096134  0.4016715486250123
  0.2476087838449110  0.3708422979755623  0.3858383303879674
  0.0964418178738468  0.3763989959812210  0.4035597848746157
  0.1517228017676792  0.3814105386434449  0.4864034537825057
  0.9975354022553574  0.3724870665155907  0.4698726269135001
  0.3454287465252957  0.3745804991985503  0.4900067836708013
  0.3975857800232201  0.3755763501491916  0.5699413886890282
  0.2544338846446099  0.3740092872740987  0.5620664759766696
  0.0697303229870655  0.3776396102741986  0.5759720411920863
  0.4048182916865679  0.3784153037075452  0.2341574929449568
  0.2464390860785574  0.3766338098100075  0.1715133444405436
  0.0916853823864096  0.3751823988529129  0.2284883089198873
  0.1478387231760180  0.9990628193197879  0.3156870033282458
  0.9963982682629331  0.9976130598924215  0.2994069163295004
  0.3370349723143742  0.0012161561677664  0.3107578022559505
  0.3975396702743454  0.9964705139617753  0.3988888402433270
  0.2496837505324225  0.9999040974404130  0.3859845975169484
  0.0933885108320022  0.0003198819549452  0.4007825703484862
  0.1533069219669189  0.0029627265776040  0.4821473969243141
  0.9910381989601444  0.9996437726621320  0.4766711293971794
  0.3494002983009680  0.9964025940591220  0.4874501497051521
  0.4072310269120161  0.0040468745414708  0.5719151120317806
  0.2540278423418446  0.0047161421932297  0.5563817980658904
  0.0950562035352583  0.9982562458661326  0.5693616439304209
  0.4022583055135360  0.5000678351126935  0.2332012769189155
  0.2452717876952319  0.5000707186252402  0.2088261595012585
  0.0961672792041641  0.4974220250980667  0.2298648629345093
  0.1557772751008088  0.6218996801429758  0.3146500059900271
  0.0035924946162230  0.6239510483012856  0.3004032099012880
  0.3415011406628299  0.6227930707063845  0.3166507184828040
  0.3981583513230311  0.6276344938815732  0.4036899970823446
  0.2464309701419065  0.6272531806377808  0.3883805335318298
  0.0976002211363846  0.6255924100746371  0.4009072617022506
  0.1524485359871998  0.6260053479671172  0.4826786390060255
  0.0093851754260459  0.6293772768681674  0.4680153022177566
  0.3532192420663844  0.6252430149870031  0.4924286865581357
  0.3780859010167168  0.6283637441221617  0.5806559166459524
  0.2442117135263010  0.6297323754950622  0.5519580670079839
  0.0968587018027088  0.6481512625233868  0.5795330995413359
  0.3978518697631029  0.6264105044645274  0.2333959647824277
  0.2411027618015442  0.6267701413671057  0.1802167986155145
  0.0972533248553481  0.6228938081376016  0.2316032040621848
  0.1501746292863924  0.7475953629956696  0.3156980278382501
  0.9978995876500342  0.7484267843647550  0.3015852012821114
  0.3417509932541404  0.7475473384436466  0.3178567262965116
  0.3914426628778582  0.7521790467261065  0.4055528554625481
  0.2469142988157124  0.7470635308365434  0.3879750820634413
  0.0963695071582250  0.7525611157440604  0.4007749115585919
  0.1589519937131370  0.7605052179589497  0.4877859555012826
  0.0043104873054084  0.7517963876907052  0.4708648337770134
  0.3452301644620664  0.7555665396050383  0.4929051036459725
  0.4024600843349665  0.7514315179822562  0.5766968489061244
  0.2537569336674851  0.7566357356773947  0.5571509105479883
  0.0866703054766923  0.7687875676482193  0.5691475639776331
  0.4029559585129353  0.7479232723242395  0.2284665923443829
  0.2442129213493011  0.7477790935604283  0.2090543994625784
  0.0919659427359425  0.7537417917726154  0.2304752653851601
  0.1488035669216974  0.8757758843200512  0.3147419626153206
  0.9951869727583504  0.8716946459406446  0.3001424693395242
  0.3422479511628679  0.8755181658975371  0.3151330862258845
  0.3927513943096764  0.8697074519718290  0.4007176771630756
  0.2472726963940965  0.8747139037316737  0.3842907609468642
  0.0981823039178425  0.8791552010947465  0.4001090101669256
  0.1505621477222065  0.8797182430589594  0.4852443511604485
  0.0002572779225534  0.8734010574135583  0.4702929270204552
  0.3514250625954223  0.8739013401885074  0.4877079483243857
  0.4174915771242098  0.8812102998527139  0.5759978979144512
  0.2538500853561509  0.8842852993067881  0.5548756765520283
  0.0941724420713055  0.8778762644666989  0.5675418471953440
  0.3914741263412717  0.8747408499014800  0.2323463303207907
  0.2412755012240946  0.8794915563535377  0.1724200610815567
  0.0856582909038219  0.8740140001661232  0.2318964649172141
  0.1545438542527300  0.5011320242070525  0.3117662546937071
  0.0043030406449281  0.4973132432860898  0.2998561154013782
  0.3412168525267065  0.5002979637457394  0.3171113416735614
  0.4017240630346163  0.5027196470135719  0.4019907155823986
  0.2477882538494099  0.4983127649404810  0.3826966173143364
  0.0992546626752364  0.5026415227903442  0.3972804932556527
  0.1592970391676004  0.4979731967162380  0.4752216330207826
  0.0016545701541506  0.5017929864420214  0.4694740328325890
  0.3494735185939790  0.5011195054221897  0.4905986938528749
  0.3950629729744358  0.5025964311736968  0.5729099868657965
  0.2536916626234815  0.5042425314350579  0.5620108767516246
  0.1200790913052742  0.5112683103826496  0.5591911060081924
  0.9035016254789505  0.9954898870136815  0.2298997345546324
  0.7426678818378166  0.9990124380679205  0.2052228901739283
  0.5890313963076583  0.9973668599004621  0.2263420956136376
  0.6480683723916350  0.1243773694342215  0.3161264230654869
  0.4920803042414726  0.1258912600876999  0.3022084920750587
  0.8411402356598254  0.1218709477938379  0.3131312726909312
  0.8989873185038453  0.1274213068379248  0.4004873797720345
  0.7438975726619406  0.1212395032343100  0.3838342862604334
  0.5980269959627386  0.1238639741243980  0.4015487203062833
  0.6539819734390394  0.1250368101353244  0.4833153386763815
  0.4981149062620733  0.1258394212098546  0.4717334149643995
  0.8474885207788964  0.1259235661120278  0.4849840337101348
  0.9009247946905355  0.1305648567475905  0.5664124722333801
  0.7446295902061471  0.1258182051659065  0.5542990139993157
  0.5971671211010349  0.1181811618731533  0.5675418548587342
  0.9036348154376390  0.1222315994796687  0.2299007466233558
  0.7516800089456160  0.1231835631047873  0.1928748687665457
  0.5873450492139765  0.1288122269927540  0.2335496806944775
  0.6524943276194431  0.2490927159026921  0.3167199103472532
  0.4962864793751968  0.2534516028966654  0.3005161625613988
  0.8500091843276695  0.2519318105908451  0.3162962348451550
  0.8963664467947123  0.2487814581883545  0.3990999815436046
  0.7458472495922381  0.2483156831649373  0.3854585208897142
  0.5966367503943990  0.2483476904588866  0.4002700916343946
  0.6484278746720307  0.2449686093379204  0.4861452791153218
  0.4989930132001972  0.2517609678863786  0.4684261478685727
  0.8374950562286988  0.2472901762585865  0.4854874732432546
  0.8809416338013879  0.2580244485510674  0.5715811431636894
  0.7404371527307141  0.2473745614050399  0.5632518546004598
  0.5819686235416566  0.2378910018906674  0.5704434271584368
  0.9122828010472803  0.2500520914984681  0.2299269110363968
  0.7469502592300439  0.2516114589751688  0.2108920459520155
  0.5905589692429575  0.2500815943324039  0.2302576371838663
  0.6527488627729116  0.3748264121304141  0.3151161336383464
  0.4972662864660783  0.3779547602884943  0.3021452624474791
  0.8424222157249905  0.3776348813007157  0.3159739586162006
  0.9027407881201815  0.3760612619236574  0.4012430458657362
  0.7493301037141767  0.3773270778748590  0.3869363610778462
  0.5978008862929010  0.3769557934118672  0.4020778609129630
  0.6508422292775338  0.3719492204762632  0.4863754221248603
  0.5016649295387021  0.3731282604876254  0.4682949044912435
  0.8425716809455660  0.3710421115767931  0.4903864473518923
  0.9045891144235444  0.3722269288016143  0.5729580061862397
  0.7540937901156148  0.3842863042486171  0.5642109118911662
  0.5809594817126102  0.3710049038820057  0.5742049889454638
  0.9002842434536471  0.3733765890173975  0.2292779766776869
  0.7464087945649730  0.3792038498345184  0.1790397176654615
  0.5893780026566432  0.3704747384229795  0.2331120757542839
  0.6482652119128847  0.9997655542159397  0.3138348878442200
  0.4979692051508934  0.0013216424008175  0.3011609345179048
  0.8476257116815473  0.9990775507998211  0.3162112960537012
  0.8956431028269735  0.9954475321814925  0.4016503684399621
  0.7432904951592351  0.0003565554414928  0.3834019911629672
  0.5970182321004966  0.0011509977389783  0.4030407268573229
  0.6505479790092399  0.0013952612353064  0.4874988906871480
  0.5023207675064869  0.9983280974421066  0.4760591573747942
  0.8444633285517641  0.0023599045820860  0.4872760222506360
  0.9000508110221416  0.0091008027222154  0.5711833776504728
  0.7453995157033868  0.0044606031311223  0.5625441066863076
  0.5899579716713372  0.0015102057513342  0.5655020988889369
  0.9055520684036859  0.4980541692215494  0.2330781235015831
  0.7418487102889922  0.5005875953835304  0.2109473736083117
  0.5923752009058877  0.5012750890109217  0.2319877063790591
  0.6455428680502016  0.6225972540994577  0.3191478614997534
  0.4939139768879469  0.6276431286926313  0.3039958580254074
  0.8435767334846533  0.6232135896584384  0.3123473701506708
  0.9055978541114484  0.6272441870986305  0.3994317033587330
  0.7512858756933278  0.6270747938421312  0.3858933746381727
  0.5974629871654276  0.6222445555804871  0.4067799515481821
  0.6551844448561344  0.6304162151006637  0.4850054859407085
  0.5048857522346646  0.6329316762553984  0.4778284170338092
  0.8571596414114719  0.6222591820325792  0.4839003930493239
  0.9159729054393929  0.6296745563589966  0.5728649002872900
  0.7706656725618478  0.6290942393404635  0.5638631945592792
  0.5559641940628546  0.6479931970291826  0.5733065176162939
  0.9024896475176436  0.6244326644260632  0.2293282556932469
  0.7474468629308877  0.6220356266531115  0.1729137871910128
  0.5929750804313346  0.6272721005732248  0.2349503534042519
  0.6488235822684900  0.7468842934175528  0.3179137585548238
  0.4975394950793297  0.7543959786651347  0.3019993451967310
  0.8420068302061051  0.7502839759379885  0.3165287712555310
  0.9017144432179321  0.7492696754318663  0.4024568591504154
  0.7490254168733254  0.7500399626062839  0.3821408282094905
  0.5986074602523084  0.7480117244606617  0.4027726404161919
  0.6558926075529983  0.7509472271641140  0.4859568053060315
  0.4999089660984680  0.7490432015001961  0.4762767551082167
  0.8489010931525751  0.7512195559081902  0.4837562054554475
  0.9071408176498210  0.7595426134695846  0.5666291896023660
  0.7562701410476468  0.7548588467582436  0.5579003224898474
  0.5792238768452899  0.7591906387081186  0.5761130659490558
  0.8995257649560440  0.7415711656569955  0.2280501831813417
  0.7461575872868826  0.7496286668229798  0.2133774938179575
  0.5836590347302084  0.7460431021908372  0.2302129127158740
  0.6477617005334003  0.8781602648382011  0.3165534376421230
  0.4919662714160119  0.8740994583506309  0.3048082413177822
  0.8485314356472540  0.8744492779505599  0.3171374161812878
  0.9032024209285002  0.8757253939903045  0.4005150578190127
  0.7440054021762070  0.8748530530519821  0.3854799443588606
  0.5972066772061962  0.8736677006439396  0.4038504991451969
  0.6585292433419365  0.8704814123350724  0.4874194436566114
  0.4988447625299391  0.8720239005958879  0.4687722319083526
  0.8513196977264379  0.8785517227761221  0.4847207780609871
  0.9090212874815435  0.8883211674382036  0.5632977953559865
  0.7540697530754049  0.8757333839792715  0.5592585300769979
  0.5973305315993293  0.8683488356253565  0.5684171750728776
  0.9010767266151519  0.8692763515908426  0.2301072387324669
  0.7510174497589577  0.8709696835941169  0.1781400424456181
  0.5907681401326039  0.8741850731349982  0.2326152390842635
  0.6529555907978216  0.5005868050992359  0.3173236540532831
  0.4956350428910149  0.5021127598642778  0.3046353871591469
  0.8476956503485530  0.4998343044627019  0.3143922637826190
  0.9054930802405932  0.5009034890142205  0.3987953714532078
  0.7538278067689883  0.5022493733827762  0.3846620476623473
  0.6006142053401845  0.4997468989287012  0.4036189354704138
  0.6543900121260374  0.4990929240800420  0.4899258627382636
  0.5040431127621728  0.4986224913899402  0.4736150849306836
  0.8536885333822481  0.4965795252950875  0.4829976989770616
  0.9232706801337200  0.5003623240126622  0.5651492927012053
  0.7778513033208463  0.5152120357042376  0.5560830360017047
  0.5730028845151911  0.4975422252245250  0.5769978901955105
  0.0008031162543864  0.8843392692175420  0.5374740688576967
  0.5001004464582756  0.8712974421747740  0.5411030022271509
  0.9974782934156597  0.9999694706050788  0.5424730488536195
  0.4969438962291953  0.0129553752833209  0.5412239331502577
  0.0036240760076342  0.1382874301720398  0.5453073422701499
  0.9958687247423833  0.3629600812114143  0.5408965492948388
  0.1776759474973542  0.4525850547273322  0.5315304311573110
  0.0063983131035116  0.6365343742064588  0.5391312231214558
  0.1365692206660175  0.7023821074586101  0.5410421757842239
  0.4974459323778750  0.1226851170265014  0.5389752250845277
  0.4915775948107853  0.3782658497800889  0.5357189135469903
  0.6265690400162685  0.4380145594935688  0.5462896666213898
  0.4725673458583847  0.6337643597674278  0.5411410919073043
  0.7016987686436582  0.6856200771398084  0.5279365416423096
  0.9640172754231321  0.2587790683001253  0.5365253724471404
  0.1889444359427045  0.3089424473254528  0.5269055147001942
  0.1478229775555343  0.5910499599717045  0.5425870474039051
  0.0055856938354452  0.7626520755332854  0.5370616938403668
  0.0172243601522194  0.5042840237238194  0.5344807026466395
  0.4900181113747260  0.2479305356274167  0.5347388417004757
  0.6192652886169560  0.3047864381980914  0.5403690408594253
  0.7090851214697295  0.5662536998490596  0.5282298489350441
  0.4920043881390843  0.7591247779941258  0.5461355880636560
  0.4918477258900409  0.5042598972902572  0.5378256132539216
  0.4546116618434485  0.3717934456375532  0.6255119390431432
  0.6170826862131367  0.4670520184531751  0.6274886769353465
  0.5302126407961746  0.5375023955687739  0.6787257282237622
  0.6540160774746878  0.4298169230912590  0.6932413616813746
  0.6565298806591108  0.3078138661819035  0.6868247689885000
  0.2879833364643704  0.3772140919905340  0.6304985552238698