Ta  N  W Cu                             
   1.00000000000000     
    18.1096308199999996    0.0000000000000000    0.0000000000000000
     0.0000000000000000   23.3551997799999995    0.0000000000000000
     0.0000000000000000    0.0000000000000000   30.4818171199999988
   Ta   N    W    Cu
   216   240    24     2
Direct
  0.0002242000601669  0.9999807678744119  0.1977783140956149
  0.3343990803636387  0.0625379028123447  0.2032213473617546
  0.1656870284922434  0.0625492925996980  0.2030981672729126
  0.2500508335059806  0.1250385404880916  0.2783567245747278
  0.0827427938431455  0.0624788891138621  0.2844598806398650
  0.4173740360699796  0.0624719213140494  0.2844690302015991
  0.0001170564083921  0.1249731703611090  0.3701733394750946
  0.3325385369513327  0.0625013403807060  0.3689445006959957
  0.1675312568070169  0.0624721477274832  0.3689996264100444
  0.2498670091516928  0.1253510650519871  0.4556106731360501
  0.0836338014499844  0.0625599438346640  0.4550743070615013
  0.4160668970135717  0.0625994869933635  0.4546876849401897
  0.3363504600027127  0.0626031576778487  0.5417985227657454
  0.1660430947956257  0.0628594637666993  0.5423005821722882
  0.9999479299858507  0.1249194649950454  0.1977537261452227
  0.3342787602365007  0.1872625743408065  0.2030239650649364
  0.1658613981584267  0.1872005165647224  0.2029756248374710
  0.2502158984627414  0.2499231845299761  0.2781632946458998
  0.0829494060822853  0.1874624502761861  0.2842901633051156
  0.4175055810166484  0.1874486439950402  0.2842485344247976
  0.0001321596776904  0.2502483576841357  0.3697780102020403
  0.3324322771255126  0.1874429282771288  0.3686157772076157
  0.1674395716645662  0.1875076556852164  0.3687557310536889
  0.2500978708110111  0.2503596300727011  0.4548928729956287
  0.0842301598481257  0.1878928138857177  0.4545750692913373
  0.4164583664649228  0.1877725175915117  0.4547410401507577
  0.3335914754648854  0.1876216719935044  0.5415943123944800
  0.1632006065306513  0.1889831723802402  0.5416586776288383
  0.0002854130699603  0.2499098030119455  0.1974974506790730
  0.3342806815905206  0.3124562374868276  0.2027217730031268
  0.1659385412922347  0.3124670799564555  0.2026517513986335
  0.2502222695813572  0.3750139476250141  0.2777314050054116
  0.0826937620593853  0.3124314254435845  0.2839669964481644
  0.4174080348858595  0.3124383896486052  0.2839397479436130
  0.0000360461899476  0.3749631842471857  0.3694723887934899
  0.3327890637507096  0.3125047854402467  0.3683612663881917
  0.1675848250314402  0.3125413472160972  0.3682885023291362
  0.2503523662280926  0.3753307826933963  0.4541816437296049
  0.0837795323876804  0.3127655778312857  0.4540558292827797
  0.4155113674156823  0.3127616054076512  0.4542435400165843
  0.3352620426061961  0.3128452549569261  0.5407654097820256
  0.9999169143981135  0.3748269569459168  0.1972621552209119
  0.3343593906466324  0.4373353537625704  0.2024561342685445
  0.1658896639370937  0.4372909930178395  0.2025161691278683
  0.2500718389354617  0.0000472309303987  0.2785433602669158
  0.0829609274987817  0.4374807254281663  0.2837591032880482
  0.4175571275943071  0.4374720209794063  0.2836629553167214
  0.0001268726516699  0.0000837660786814  0.3702771546117987
  0.3325988531716320  0.4375275787937127  0.3679416898803112
  0.1674348563796144  0.4375270201496591  0.3679666826497865
  0.2499219435225655  0.9999618613550822  0.4558540061225003
  0.0839984196770516  0.4377135898129509  0.4539651117397199
  0.4160162933174334  0.4375945513475230  0.4540750210426765
  0.3337694935781101  0.4377425648620914  0.5407244558543383
  0.0002376467405938  0.5000269171161094  0.1971605452528280
  0.3343640708251101  0.5626213797035575  0.2024605504206818
  0.1658899305168688  0.5626340353074966  0.2024368732887112
  0.2502070920929071  0.6250404711066366  0.2776876159331181
  0.0826940299003240  0.5625128459141209  0.2837175088235497
  0.4174109788083200  0.5625158344676890  0.2836892719197266
  0.0000557441191944  0.6248103265011338  0.3694460068117493
  0.3328337423767778  0.5625157916040493  0.3680816140147769
  0.1675134751032559  0.5625123749083230  0.3680463283742625
  0.2502638880919790  0.6247005618536505  0.4541863150614347
  0.0834490381786210  0.5623722507203013  0.4537569102044046
  0.4153897318595909  0.5624797300872473  0.4540520339898393
  0.3360129362586761  0.5622555910448312  0.5403988502208890
  0.9999241728827073  0.6250631538226799  0.1972704139271357
  0.3343317990429924  0.6875408190989560  0.2026047383256042
  0.1658939680163485  0.6875415303940073  0.2026289827748045
  0.2501412580403795  0.7499598583799809  0.2780970272610332
  0.0829822671935432  0.6875387936957225  0.2839550891938032
  0.4174907416425171  0.6875479646592382  0.2838317392930989
  0.0000562151703178  0.7499383750822517  0.3697627216647987
  0.3324408466355351  0.6875689352153955  0.3681358903958767
  0.1673344202074674  0.6874877758361606  0.3682401510653079
  0.2501029982674723  0.7497340637629293  0.4547537786324014
  0.0841665105422251  0.6871181697130737  0.4542325976544248
  0.4159552096620303  0.6872925274132200  0.4541630263192857
  0.3329212555073724  0.6871518335404829  0.5410350918941589
  0.0002487183799218  0.7500877409183033  0.1974828188054119
  0.3342357614983058  0.8127523426864727  0.2029746687629270
  0.1658890567985694  0.8127563982383492  0.2028654330734554
  0.2500999148361061  0.8750223199462113  0.2781900554574008
  0.0828197392085173  0.8125507753659278  0.2842169568573070
  0.4173422731704548  0.8125615589930817  0.2841785461417032
  0.0001233230156785  0.8747949906294537  0.3701258401620180
  0.3326005151106912  0.8125416624236266  0.3686267964249268
  0.1674509935466588  0.8125216373220923  0.3687024599584845
  0.2498709821708474  0.8747360301329650  0.4555824164955951
  0.0835988117371400  0.8122668806026780  0.4547209224982538
  0.4158985536998756  0.8122912311963972  0.4544496118604826
  0.3361673793755244  0.8128209871265497  0.5410280337603126
  0.1658968732069752  0.8112135035573758  0.5419467278262431
  0.9999520904193417  0.8751079246592681  0.1977139178945464
  0.3344402983086923  0.9374962160956173  0.2032152660612141
  0.1656882474370676  0.9374930464155824  0.2031261870330638
  0.2502238614333550  0.4999618286046967  0.2777773548686255
  0.0829255230692922  0.9375305508949836  0.2844462960637699
  0.4174823097132290  0.9375322235894004  0.2845137176536312
  0.0000549518949740  0.5001236040854593  0.3693398227836155
  0.3324719504736464  0.9375303380686617  0.3689461488340768
  0.1674681158834019  0.9375216733379546  0.3689740014457499
  0.2503700250793912  0.5000965607276484  0.4539896425239576
  0.0843145459907504  0.9373442196420640  0.4548102464060406
  0.4167007951295858  0.9374463308643683  0.4549923089226553
  0.3335903192564302  0.9375080882528550  0.5420594038399855
  0.1631369575635020  0.9370965703382268  0.5419613960548588
  0.5000394635469334  0.0000179779623082  0.1978443174512634
  0.8343012007354957  0.0623485280614275  0.2032268583195957
  0.6657201592330111  0.0623239605181638  0.2032136716429562
  0.7500944520141388  0.1250569685163327  0.2785615958483803
  0.5829533822729829  0.0624901481077060  0.2845759052145596
  0.9174473538798864  0.0624767662121570  0.2845100620003223
  0.5001706797658514  0.1252009493201314  0.3702380137931627
  0.8325115024051186  0.0624553579645237  0.3690127122870379
  0.6674913312386153  0.0624889163921551  0.3691108331819493
  0.7500246458241264  0.1252866485733648  0.4557264457073487
  0.5842032535108856  0.0625733032853617  0.4548908029746812
  0.9168094667527313  0.0625395075296993  0.4550149144861066
  0.8338359670824502  0.0624716608937348  0.5421352872519876
  0.6631791771409468  0.0624209333389203  0.5420521500070947
  0.5003744613357526  0.1249051293116210  0.1977722591374871
  0.8342551361930859  0.1874889540245235  0.2030400559481365
  0.6657515153012525  0.1874940081844798  0.2029951498947753
  0.7501018010087321  0.2499302905996998  0.2781563111961276
  0.5828334227958791  0.1874483565144089  0.2843735501316260
  0.9172477220402087  0.1874200372936770  0.2842459913086302
  0.5001546939506198  0.2500305057621688  0.3698947485429187
  0.8326258974036520  0.1874568067383677  0.3687468127138018
  0.6676094841905638  0.1874804923284472  0.3688792493319042
  0.7501297761582464  0.2501961735238183  0.4551603853083606
  0.5834797096299553  0.1876770568395827  0.4549980012469916
  0.9159943164467848  0.1877080317985502  0.4544891714470083
  0.8372359866550596  0.1874388254766686  0.5413760863192465
  0.6665889455883729  0.1876453754915914  0.5422851307008614
  0.5001091322871858  0.2498923330745697  0.1975357039416537
  0.8342065529791185  0.3121801812676424  0.2027025734373069
  0.6658984817759901  0.3121806383774128  0.2027856008229421
  0.7502151327709470  0.3749611124816070  0.2780459783406357
  0.5829912220466298  0.3124602154149798  0.2841472650496470
  0.9175273402588005  0.3124364932495070  0.2838912265736866
  0.5001651682250454  0.3751466158828975  0.3695513184336221
  0.8325488695834053  0.3124230056168926  0.3683985179617082
  0.6673756607983989  0.3124890247058048  0.3686377560814194
  0.7502549456269065  0.3752123114872390  0.4545468376610557
  0.5840491289333656  0.3127692776930360  0.4545679562858709
  0.9164550442164980  0.3126505456617465  0.4543674445996118
  0.8347783058913336  0.3126863399007433  0.5413709283235519
  0.5004675313541611  0.3749786274435678  0.1973125656318899
  0.8342934121204379  0.4375380740093107  0.2025504871778026
  0.6658696298458793  0.4375824397291268  0.2025599884457066
  0.7500643195094696  0.9999636452884886  0.2784206841697525
  0.5828555591269406  0.4374415610817550  0.2839075178237991
  0.9172929702466419  0.4374462503755510  0.2837604915919343
  0.5001422311747277  0.9998951717251146  0.3703260044416226
  0.8329048085194586  0.4374508960875900  0.3681875357888700
  0.6677032525857811  0.4374650005066840  0.3682353609242526
  0.7499639460455469  0.9999618393840564  0.4558926134851191
  0.5832243328829279  0.4376381395703461  0.4539224432413249
  0.9154046779130809  0.4375699957576131  0.4541425318365953
  0.8373504311858184  0.4375244818015958  0.5406817213003521
  0.5001404427262344  0.4999537551817355  0.1971997126217673
  0.8342704250022308  0.5624039270514274  0.2024974253373628
  0.6658963493964265  0.5623945370209569  0.2025720421709920
  0.7502257525680491  0.6249925534017180  0.2780255636734665
  0.5830201939642805  0.5625224344659756  0.2838990018618333
  0.9175366803757541  0.5625216745058879  0.2836828145342736
  0.5001001692472968  0.6250032516347446  0.3694748653222391
  0.8326191020790290  0.5625161951659692  0.3681327008508148
  0.6675736650721618  0.5624770482064108  0.3682136329041938
  0.7501136245279767  0.6246471877244559  0.4544913773622667
  0.5836638081401802  0.5622942236782791  0.4540840278337726
  0.9159413939762757  0.5624040454663088  0.4541839087944339
  0.8343801277969902  0.5624262358393679  0.5408942432912625
  0.5004387147753491  0.6250686717986795  0.1972861250656877
  0.8342378423335290  0.6877650220944602  0.2027223258525268
  0.6658727450110149  0.6877739212708107  0.2027158307995975
  0.7501486725248725  0.7499863631698673  0.2781283780588382
  0.5828917250144201  0.6875600315048089  0.2840787225991690
  0.9172711685311867  0.6875411746407494  0.2839378069732987
  0.5001448812667064  0.7497798856307085  0.3698020034176537
  0.8327639300570979  0.6875055709163505  0.3683867084353665
  0.6676224801563819  0.6874856064453994  0.3684600285063908
  0.7497120028564481  0.7497286730730153  0.4551920480535330
  0.5837512564410332  0.6872104650112973  0.4541928998812850
  0.9155385698171088  0.6872776150788269  0.4543021272816361
  0.8374283874545867  0.6872644432354846  0.5409465286522774
  0.5001371467407836  0.7500588938990234  0.1974955783807033
  0.8342764649564884  0.8125186603654484  0.2029689721684917
  0.6657542502833849  0.8125573762619780  0.2030024197225799
  0.7500478387956449  0.8749722224408032  0.2785443616869401
  0.5829642663781271  0.8125573676146800  0.2843840864606264
  0.9174703329375760  0.8125563473378890  0.2842135411636093
  0.5001427443917166  0.8750325963162098  0.3701832207350932
  0.8324765613447767  0.8125264392534461  0.3687318229326308
  0.6674292197707388  0.8124831521932805  0.3689893576587053
  0.7498183685739050  0.8746645471634693  0.4556913191663838
  0.5838184671478004  0.8121921708251634  0.4548047578940100
  0.9164672252260786  0.8122698739740883  0.4546922646286689
  0.8342066030035937  0.8123871841188262  0.5416270221172113
  0.6638307567048898  0.8123051248729993  0.5419294133645991
  0.5003509418754462  0.8751093663011531  0.1977189237818067
  0.8342764847751099  0.9376667422353506  0.2032332013298870
  0.6657097758966657  0.9376727414856703  0.2031908928414410
  0.7502489355144419  0.4999930031027020  0.2777359253399680
  0.5828315976666545  0.9375120705326196  0.2845612384498537
  0.9173020777547407  0.9375039647866998  0.2844604978977969
  0.5001664049357828  0.4999490188075981  0.3693733886303576
  0.8326020420822715  0.9374916853543098  0.3689573811065827
  0.6675704752598151  0.9375170950380678  0.3690776988025419
  0.7503641098408451  0.4999879618650667  0.4541703211440691
  0.5835800099311470  0.9374480454085230  0.4551242348346847
  0.9160269780806871  0.9373640417477134  0.4547339237490462
  0.8367355355717834  0.9374050019548577  0.5418003056672376
  0.6658640157766413  0.9373716452003080  0.5422961894312053
  0.4058555690351255  0.9999840169274634  0.2328917578720464
  0.2500350156954028  0.0000289857241498  0.2010018379533278
  0.0943582375471834  0.0000263653607959  0.2328545801310469
  0.1549723225849107  0.1249178829592807  0.3162654748132780
  0.0000893905335388  0.1250721765881480  0.3034972327096170
  0.3452143741092115  0.1249858388406722  0.3162455669540734
  0.4012655787111186  0.1251506864969087  0.4027274054302055
  0.2500283211551633  0.1249925799315648  0.3878524897562556
  0.0989593363615029  0.1250436156543202  0.4027901450131068
  0.1516782703494215  0.1254427560359446  0.4883319555914483
  0.0001151315740131  0.1255267681726480  0.4739547966119630
  0.3481571125010561  0.1253654879904005  0.4880872402075838
  0.4059888349577392  0.1265151527908017  0.5692235093877471
  0.2498531179816865  0.1263657091200443  0.5583246070325174
  0.0943919317675324  0.1258270136339661  0.5699010799003261
  0.4059646752734949  0.1249268575039224  0.2326684570138511
  0.2500779747176338  0.1248397147952858  0.1994095690027535
  0.0942522803767716  0.1249118035756993  0.2326866003989210
  0.1549535066614354  0.2500221079483111  0.3159274005708284
  0.0000916173929255  0.2499011206893442  0.3031633146431219
  0.3453452766877803  0.2499219951071368  0.3159652461472859
  0.4012218436278943  0.2500587850137350  0.4024035404200674
  0.2500968342540233  0.2500424016218403  0.3873220053669044
  0.0990020458735330  0.2502402401043824  0.4023918653071590
  0.1521599329633005  0.2514146909948636  0.4877571810097265
  0.0001527835938120  0.2507110228268843  0.4738118118840973
  0.3478602322015476  0.2501203018521139  0.4877907815945264
  0.4045431911893473  0.2506753015245948  0.5692183445642982
  0.2482850353745363  0.2533526543734510  0.5578346376756400
  0.0970660489362416  0.2547364053569154  0.5693372889830854
  0.4058450764342467  0.2498878833597900  0.2324383843971276
  0.2500761480952889  0.2498338597571532  0.2003624660357559
  0.0945164792185480  0.2498889130436623  0.2324466124335203
  0.1549648316753007  0.3749023329688939  0.3155686961474586
  0.0000867773674713  0.3750694227449145  0.3028953703191277
  0.3453764017842218  0.3749731381811827  0.3155942706590693
  0.4012003451505990  0.3751823909073195  0.4020476416188075
  0.2501131062336199  0.3751094651998770  0.3868127091451257
  0.0989481253405202  0.3752141482591753  0.4020725258738906
  0.1527747543835503  0.3754031591283322  0.4870649272518435
  0.0001499101765532  0.3754143283643288  0.4732451491350034
  0.3477296034943933  0.3755602129711590  0.4874366093001328
  0.4049360411906235  0.3759886869643481  0.5686802870804328
  0.2470340343369841  0.3764783339162250  0.5574530644244717
  0.0982610430028359  0.3761330166310444  0.5682071435139733
  0.4060031463495122  0.3749017698953665  0.2320893778262274
  0.2501268812928856  0.3749211642049417  0.1988402613941602
  0.0942896866054497  0.3748611777815256  0.2321288716879408
  0.1549947205879150  0.0000233273486927  0.3164395449648083
  0.0000939905176551  0.9999186845603205  0.3036014178843871
  0.3452394629147904  0.9999821033957730  0.3164101839324260
  0.4012067151747729  0.0000092964161880  0.4028446312997929
  0.2500282275386780  0.0000254569168092  0.3880363131891400
  0.0989644392694942  0.9999982440281059  0.4029064705544485
  0.1517613560950579  0.0001852221172882  0.4885034403317334
  0.0001497763240579  0.9998330067877035  0.4741113106696559
  0.3482669800252438  0.9998925565898560  0.4883022032366924
  0.4059010579284461  0.9994689517068096  0.5696873921937282
  0.2499826227337891  0.0000274670969702  0.5584535448112078
  0.0941481363582426  0.0005572832237490  0.5699469635368857
  0.4058342663068828  0.4999996993358877  0.2320287627245179
  0.2501109483263662  0.4999821308241437  0.2002251204014058
  0.0944615634122741  0.5000037164971189  0.2320658247568375
  0.1549755911327466  0.6249421604458405  0.3155565643921463
  0.0000896569462512  0.6250764853215571  0.3028603007741495
  0.3453534854994373  0.6250753934753206  0.3155392769258114
  0.4010987284209762  0.6250086658093466  0.4019830049403197
  0.2500289798883983  0.6249988301999991  0.3868114036518548
  0.0988915763988558  0.6248681989682083  0.4020769197460936
  0.1527401768333689  0.6240896785369898  0.4870967515068827
  0.0000460814444807  0.6244473041633398  0.4734456930961315
  0.3477040776499436  0.6250793647792250  0.4874467297559093
  0.4051164013592725  0.6245228060385131  0.5687613657741224
  0.2473223448333712  0.6234441027505966  0.5574361122763278
  0.0985339225861779  0.6231158658600151  0.5683581246466787
  0.4059780420439836  0.6250654720813742  0.2320505820263463
  0.2501267999068659  0.6250677050681759  0.1989705098307866
  0.0943648100825456  0.6250618831759809  0.2321084496463754
  0.1549152344704865  0.7501081555620388  0.3158754719382486
  0.0001170508030341  0.7499372457845439  0.3031421082125121
  0.3452803508630993  0.7500475666697710  0.3158714250501902
  0.4011819771461944  0.7498629495055198  0.4022845023239228
  0.2500336443321345  0.7499924128666038  0.3872318683075733
  0.0989304348664461  0.7498162105650223  0.4024162864900944
  0.1522424668535294  0.7490716967288904  0.4876863278760482
  0.9999747083786517  0.7492932559210601  0.4735035933444394
  0.3477773186860063  0.7495173315923651  0.4876991299075186
  0.4059584307485977  0.7486074411935277  0.5686088539086995
  0.2483023580583463  0.7467026183411392  0.5579421414615453
  0.0960021781632179  0.7463439112406505  0.5688757568511207
  0.4058175863323399  0.7501173106082319  0.2323580515974015
  0.2500773951324788  0.7501224823070274  0.2001472218382290
  0.0944931840042926  0.7501306417769342  0.2323997914828126
  0.1551013797127254  0.8750200050446750  0.3162359938088173
  0.0001294025843066  0.8750503115615160  0.3034575351487803
  0.3451501999325117  0.8750818566662346  0.3162006357522955
  0.4011994673791435  0.8749577072415278  0.4026937442302199
  0.2500234975356150  0.8749622379583641  0.3878099455273656
  0.0989400440080743  0.8748843135819371  0.4027500514234674
  0.1517287613521603  0.8742119644661557  0.4883168821560204
  0.0000795405846716  0.8745848482730381  0.4740902222806582
  0.3481581769239810  0.8750484970190655  0.4880989979812185
  0.4058964564415177  0.8748148065157793  0.5694927477688552
  0.2499609512498182  0.8735608814944484  0.5582289897570547
  0.0947293127511699  0.8729782238628800  0.5699319387453059
  0.4060061988036168  0.8751103375454221  0.2326530912694196
  0.2500693199466895  0.8751844286083568  0.1993839683616585
  0.0942979048568020  0.8750799142162080  0.2326484900023473
  0.1548595066383740  0.5000989528534276  0.3154860883479955
  0.0000951064515320  0.4999070888537673  0.3027686895717352
  0.3454739464898395  0.4999932620860719  0.3154784558962049
  0.4012322054673945  0.4999768483497178  0.4019425396180836
  0.2500864193263155  0.5000154092897446  0.3866490380366940
  0.0989189076454764  0.4999832842115737  0.4019802044167022
  0.1528178258318746  0.5002805745812822  0.4869058413639422
  0.0000363457074002  0.5001404356144334  0.4733632569829425
  0.3477197485542973  0.4998008318392380  0.4873039120073557
  0.4057252355121861  0.4996728894370648  0.5685866338507282
  0.2473520469772197  0.5001845531645301  0.5573147868967681
  0.0987532225305259  0.5004274042260377  0.5681668102227135
  0.9059248893188112  0.0000219671219384  0.2328028798936401
  0.7500010341027021  0.9999901742811090  0.1995620308349331
  0.5942736103658177  0.9999949922012235  0.2328922972870515
  0.6549972300108706  0.1249975323434356  0.3164365529264472
  0.5001473038739803  0.1249644942263046  0.3035595688656016
  0.8452500053169487  0.1248931025571167  0.3163357676785594
  0.9012485375826884  0.1250160992128713  0.4027478157365678
  0.7500705404422874  0.1249941157309209  0.3879480901985275
  0.5989286157956570  0.1251623222588023  0.4029373821703928
  0.6517522672447242  0.1255290220378598  0.4884258554135599
  0.5000436678401314  0.1253848308163157  0.4743142705480352
  0.8482237931285894  0.1248993231609958  0.4881970254722177
  0.9060889470450135  0.1249018729797626  0.5695237042547205
  0.7499480717828888  0.1265584581877519  0.5583558525206982
  0.5946343914919225  0.1268207597829303  0.5699988264366809
  0.9057428171788047  0.1248919997189617  0.2327676208690264
  0.7499808258619609  0.1248987040203104  0.2009729189835099
  0.5944776128305236  0.1249286188306300  0.2328666081615367
  0.6549923930594375  0.2499611894521081  0.3161315516513028
  0.5001334369972383  0.2500246139812248  0.3032655367653518
  0.8452551367232815  0.2499983457830623  0.3160017684606018
  0.9012759137140733  0.2501121247412996  0.4024105006955523
  0.7500921210554168  0.2499985890762915  0.3875982513119780
  0.5989576582476843  0.2501747441933446  0.4027022912939913
  0.6520057094958318  0.2506675701726664  0.4882971629920476
  0.4998509084410045  0.2507726099360212  0.4735436725920152
  0.8481620523648630  0.2504382618475844  0.4879176951930475
  0.9066677716901381  0.2510676741594935  0.5689951609438140
  0.7492021921397836  0.2534845104642756  0.5582433742542037
  0.5976321277397361  0.2511770828157438  0.5708104281397937
  0.9058688147372251  0.2498872285466902  0.2323755847299935
  0.7500154911411769  0.2498117186480329  0.1989819392109311
  0.5943312055291230  0.2498870059139264  0.2325354899200534
  0.6549654184951592  0.3749670750711189  0.3158629050794275
  0.5001419361792543  0.3749623098877208  0.3029736560512077
  0.8453743264955591  0.3748126064174855  0.3157451891040495
  0.9012236383145193  0.3749799475328714  0.4021557529968049
  0.7501341621407391  0.3749772045750959  0.3871291385552382
  0.5989416672546000  0.3750595856147783  0.4023420545934826
  0.6525345937568190  0.3760792323213167  0.4876031052395717
  0.4999029571074729  0.3754394903587368  0.4733282986611300
  0.8479295588974836  0.3748347808827930  0.4876177068165859
  0.9063494828508070  0.3752198151176458  0.5688534902400875
  0.7478586226504191  0.3763697077279531  0.5577175400222387
  0.5989151741188650  0.3783544411487370  0.5697927109453005
  0.9057201707615974  0.3748857583065686  0.2322054145137784
  0.7500401292215955  0.3748957603580507  0.2005902211691151
  0.5946029664339179  0.3748895476513638  0.2323734151166619
  0.6550764506621150  0.9999787260395010  0.3165052780487727
  0.5001370836957619  0.0000571454690217  0.3036537910685269
  0.8451422931801247  0.0000244278254726  0.3164017532807506
  0.9012598201295603  0.9999918026253880  0.4028627735315240
  0.7500829267749651  0.9999834635130824  0.3880984521766422
  0.5989768297558129  0.9999816606120007  0.4029819524288385
  0.6516817916621704  0.9998316493420205  0.4885123767238966
  0.5000116872096356  0.0001609387596986  0.4742306332577897
  0.8482767280697203  0.0001696653723045  0.4883298066568926
  0.9059129799568169  0.0004630518370021  0.5697054637230323
  0.7499454116120035  0.9999899100147260  0.5585004711241979
  0.5941261106212110  0.9993925627438145  0.5700174210556668
  0.9058815810298952  0.4999832611008088  0.2320254356774072
  0.7500803289891778  0.4999671759866473  0.1987657698703842
  0.5944400469298188  0.4999677685730646  0.2321875602865759
  0.6549298807398429  0.6250455860393416  0.3157886409798536
  0.5001372271403284  0.6249680342815154  0.3029050077655526
  0.8454082044076969  0.6249930501219225  0.3157244641229369
  0.9012103702979601  0.6248439631047944  0.4021313641435924
  0.7501499191738361  0.6250147760143605  0.3871174746640733
  0.5989789415794462  0.6247764051514579  0.4022278073991359
  0.6522980249225512  0.6241976007463350  0.4875680940615368
  0.4999071170674156  0.6248541623759962  0.4729014877250535
  0.8477503321312767  0.6244656254069127  0.4875898428075089
  0.9061647226018010  0.6239157734842351  0.5687019664171942
  0.7474600781697589  0.6239161071548551  0.5577300359137141
  0.5983380316923359  0.6215469822050892  0.5698595870956211
  0.9056923230741845  0.6250624491233694  0.2321832739907990
  0.7500422709343511  0.6250859018789185  0.2004179360644827
  0.5945973515950769  0.6250937745048901  0.2323157262224100
  0.6550443290329113  0.7500054554477700  0.3160769780139248
  0.5001056211835646  0.7500505921388054  0.3031810228564353
  0.8452572437309271  0.7501119792926261  0.3159745015752264
  0.9012204041284662  0.7499469835246373  0.4023895211989483
  0.7500602192759516  0.7499268894819338  0.3875633515192263
  0.5989129775762194  0.7497654570768049  0.4025568849298509
  0.6515721474371858  0.7489119700472742  0.4883023190412601
  0.4997909716881779  0.7490797431987133  0.4735326089683554
  0.8478476080205155  0.7500292688932646  0.4878429531163349
  0.9059193859857828  0.7499192583989114  0.5692247978038338
  0.7488187677518141  0.7462117594699933  0.5579706367540851
  0.5968783024316977  0.7476817677589338  0.5709022627304634
  0.9058819701244900  0.7501265264882022  0.2323658535602959
  0.7500203796464504  0.7501608040765788  0.1991531067974037
  0.5943906959054175  0.7501174967691497  0.2325031001348847
  0.6549433467318195  0.8750287026559462  0.3164296483995557
  0.5001101167921149  0.8749345082595070  0.3035234264223163
  0.8452440943493968  0.8749755234493648  0.3163168165986505
  0.9012528382123790  0.8748755058739377  0.4027251332543287
  0.7500327191695177  0.8749768140543424  0.3879453992737396
  0.5989208560170667  0.8749190985772088  0.4029451381195202
  0.6515387933949341  0.8746680804338780  0.4884768253388998
  0.4999594008278265  0.8745116201869862  0.4739456575955856
  0.8480844824913376  0.8745916633567461  0.4881819815024571
  0.9061054968707296  0.8736551250154605  0.5693367944452987
  0.7497007416471320  0.8732587630145972  0.5583952553601605
  0.5945583465473234  0.8746977601092567  0.5701375664329547
  0.9057241930215980  0.8750605336128956  0.2327257954615405
  0.7499969021735282  0.8751027439391166  0.2009025394110111
  0.5944132532030082  0.8750805583310211  0.2328420265957973
  0.6550143859631348  0.4999352040442986  0.3156614369568445
  0.5001592891195372  0.5000354830135052  0.3028331667454296
  0.8453757709931935  0.5000484964442506  0.3155638108943464
  0.9012226391858533  0.5000435217443311  0.4020420328186844
  0.7501526271910848  0.4999498606782140  0.3868266357479726
  0.5989428204900022  0.5000386347028893  0.4021357341403657
  0.6527573157259852  0.4997582278575834  0.4870585087521917
  0.4999719599603907  0.4999229616605163  0.4732734898475428
  0.8476813204646163  0.5002563217793252  0.4875132248400860
  0.9060396093565330  0.5004995013159714  0.5685854394678032
  0.7470982010435705  0.4998105984948964  0.5575185560850642
  0.5986648594862842  0.4993759954252113  0.5685690351664547
  0.0003543852115087  0.1187483156016000  0.5408964927913189
  0.0008737399301424  0.2590225816238458  0.5405181685331399
  0.0007913811165565  0.3696209273240925  0.5399116862693489
  0.1652329290587673  0.3136327206574236  0.5397661369187503
  0.0002006826391892  0.0071319158230025  0.5410344737220143
  0.1634497315468906  0.4379792476337485  0.5391596535494898
  0.0008873990316900  0.6172453053163522  0.5400655522890929
  0.1658097008683015  0.5620669525516035  0.5392807787241338
  0.0002435476518841  0.7546725926662532  0.5402870128039154
  0.1626582822803186  0.6861519377233023  0.5394760968460730
  0.0005096734287307  0.8665347606049068  0.5408926058630357
  0.0008296662777738  0.5068066846547126  0.5399706737679182
  0.5004546339829830  0.1336771590000012  0.5410687175960760
  0.4987390271743664  0.2466395252467635  0.5403069822352933
  0.4992904257479935  0.3812957405171531  0.5398582370528118
  0.6670717681915477  0.3136245023641777  0.5388039116102021
  0.5000516691750647  0.9927329880622011  0.5410964976355075
  0.6662416805045552  0.4387561484814810  0.5395579608430410
  0.4989646536894767  0.6278605709991183  0.5395404478551811
  0.6640434344310862  0.5610260665148559  0.5394295935264140
  0.4992940512612023  0.7419957941957094  0.5401383127222559
  0.6684288046128657  0.6862416146288055  0.5390526422444566
  0.5001441293474826  0.8808294716388403  0.5409198423108350
  0.5003938127199064  0.4951591102199302  0.5399329372936350
  0.5682174404931501  0.6840463138481141  0.6079001778737734
  0.5621091363565682  0.3149488194870216  0.6047354980526976
 
  0.00000000E+00  0.00000000E+00  0.00000000E+00
  0.00000000E+00  0.00000000E+00  0.00000000E+00
  0.00000000E+00  0.00000000E+00  0.00000000E+00
  0.00000000E+00  0.00000000E+00  0.00000000E+00
  0.00000000E+00  0.00000000E+00  0.00000000E+00