generated by phonopy                    
   1.00000000000000     
     5.1891420871854397    0.0000000000000000   -0.0000000000000000
    -2.5945710435927198    4.4939288713495928   -0.0000000000000000
    -0.0000000000000000   -0.0000000000000000    8.5631844482261332
   B    N    Al
    15    16     1
Direct
  0.1668771550165617  0.3331228449834383  0.0070395900820243
  0.6662456899668908  0.3331228449834383  0.0070395900820243
  0.1668771550165617  0.8337543100331092  0.0070395900820243
  0.6666666666666714  0.8333333333333286  0.0082412184221841
  0.1634914714423329  0.3365085285576669  0.5024475597903399
  0.6730170571153481  0.3365085285576669  0.5024475597903399
  0.1634914714423329  0.8269829428846519  0.5024475597903399
  0.3333333333333286  0.1666666666666714  0.2546446207864447
  0.8362415962552273  0.1724831925104686  0.2532882914894341
  0.3275168074895315  0.6637584037447727  0.2532882914894341
  0.8362415962552273  0.6637584037447727  0.2532882914894341
  0.3333333333333286  0.1666666666666714  0.7553047729485692
  0.8342915322309823  0.1685830644619787  0.7626108085016127
  0.3314169355380214  0.6657084677690177  0.7626108085016127
  0.8342915322309823  0.6657084677690177  0.7626108085016127
  0.3333333333333286  0.1666666666666714  0.9425273310024872
  0.8347445657628099  0.1694891315256339  0.9469740096494411
  0.3305108684743661  0.6652554342371901  0.9469740096494411
  0.8347445657628099  0.6652554342371901  0.9469740096494411
  0.3333333333333286  0.1666666666666714  0.4417852515766292
  0.8472999548829215  0.1945999097658571  0.4349739906299219
  0.3054000902341429  0.6527000451170785  0.4349739906299219
  0.8472999548829215  0.6527000451170786  0.4349739906299219
  0.1673920527221834  0.3326079472778167  0.1910186317834841
  0.6652158945556476  0.3326079472778167  0.1910186317834841
  0.1673920527221834  0.8347841054443524  0.1910186317834841
  0.6666666666666714  0.8333333333333286  0.1944223009909688
  0.1661777425044691  0.3338222574955308  0.6939570519226108
  0.6676445149910759  0.3338222574955308  0.6939570519226108
  0.1661777425044691  0.8323554850089241  0.6939570519226107
  0.6666666666666714  0.8333333333333286  0.7165248828579571
  0.6666666666666714  0.8333333333333286  0.5096198198681993
 
  0.00000000E+00  0.00000000E+00  0.00000000E+00
  0.00000000E+00  0.00000000E+00  0.00000000E+00
  0.00000000E+00  0.00000000E+00  0.00000000E+00
  0.00000000E+00  0.00000000E+00  0.00000000E+00
  0.00000000E+00  0.00000000E+00  0.00000000E+00
  0.00000000E+00  0.00000000E+00  0.00000000E+00
  0.00000000E+00  0.00000000E+00  0.00000000E+00
  0.00000000E+00  0.00000000E+00  0.00000000E+00
  0.00000000E+00  0.00000000E+00  0.00000000E+00
  0.00000000E+00  0.00000000E+00  0.00000000E+00
  0.00000000E+00  0.00000000E+00  0.00000000E+00
  0.00000000E+00  0.00000000E+00  0.00000000E+00
  0.00000000E+00  0.00000000E+00  0.00000000E+00
  0.00000000E+00  0.00000000E+00  0.00000000E+00
  0.00000000E+00  0.00000000E+00  0.00000000E+00
  0.00000000E+00  0.00000000E+00  0.00000000E+00
  0.00000000E+00  0.00000000E+00  0.00000000E+00
  0.00000000E+00  0.00000000E+00  0.00000000E+00
  0.00000000E+00  0.00000000E+00  0.00000000E+00
  0.00000000E+00  0.00000000E+00  0.00000000E+00
  0.00000000E+00  0.00000000E+00  0.00000000E+00
  0.00000000E+00  0.00000000E+00  0.00000000E+00
  0.00000000E+00  0.00000000E+00  0.00000000E+00
  0.00000000E+00  0.00000000E+00  0.00000000E+00
  0.00000000E+00  0.00000000E+00  0.00000000E+00
  0.00000000E+00  0.00000000E+00  0.00000000E+00
  0.00000000E+00  0.00000000E+00  0.00000000E+00
  0.00000000E+00  0.00000000E+00  0.00000000E+00
  0.00000000E+00  0.00000000E+00  0.00000000E+00
  0.00000000E+00  0.00000000E+00  0.00000000E+00
  0.00000000E+00  0.00000000E+00  0.00000000E+00
  0.00000000E+00  0.00000000E+00  0.00000000E+00
