Ta  N Ru                                
   1.00000000000000     
    10.4555999800000006    0.0000000000000000    0.0000000000000000
     0.0000000000000000   11.6775998899999998    0.0000000000000000
     0.0000000000000000    0.0000000000000000   24.0732377500000005
   Ta   N    Ru
    64    64     1
Selective dynamics
Direct
  0.4991785186325330  0.1250000003211298  0.3753726828051569   F   F   F
  0.2600588226580172  0.1250000003211298  0.3190980514078845   F   F   F
  0.2470962603561304  0.0000000000000000  0.4358978840493251   F   F   F
  0.2483234492551645  0.1250417974673391  0.5616397386695041   T   T   T
  0.9987555818763918  0.1249647690146685  0.5005230551297865   T   T   T
  0.9971937593595092  0.0000007250747955  0.6264660846863532   T   T   T
  0.5057679331629911  0.1313566844530350  0.7476303814970912   T   T   T
  0.2505641579311002  0.1250314012349659  0.6867910988958685   T   T   T
  0.4991785186325330  0.3750000001070433  0.3753726828051569   F   F   F
  0.2600588226580172  0.3750000001070433  0.3190980514078845   F   F   F
  0.2470962603561304  0.2499999997859135  0.4358978840493251   F   F   F
  0.2483172799926253  0.3749568682547466  0.5616338149009019   T   T   T
  0.9987412660223872  0.3750277610539007  0.5005228845449721   T   T   T
  0.9969103052078173  0.2499790645871883  0.6267385446607311   T   T   T
  0.5057774461217364  0.3686597497431294  0.7476143394971675   T   T   T
  0.2506767567580909  0.3749861458326718  0.6867850568368367   T   T   T
  0.4991785186325330  0.6249999998929567  0.3753726828051569   F   F   F
  0.2600588226580172  0.6249999998929567  0.3190980514078845   F   F   F
  0.2470962603561304  0.5000000004281731  0.4358978840493251   F   F   F
  0.2484588829532750  0.6250528440084265  0.5618245249555158   T   T   T
  0.9985721390378346  0.6251597882260271  0.5005779525929419   T   T   T
  0.9972021310877396  0.5000391317433116  0.6265008963605487   T   T   T
  0.5113798397837064  0.6232773123547677  0.7426084248399174   T   T   T
  0.2494211257239869  0.6250038138548800  0.6870372187933840   T   T   T
  0.4991785186325330  0.8750000005352163  0.3753726828051569   F   F   F
  0.2600588226580172  0.8750000005352163  0.3190980514078845   F   F   F
  0.2470962603561304  0.7500000002140865  0.4358978840493251   F   F   F
  0.2484566474843236  0.8749387028627531  0.5618280640311656   T   T   T
  0.9985898732204342  0.8748443839552529  0.5005713633374943   T   T   T
  0.9968684256006393  0.7499849381366989  0.6269528578134966   T   T   T
  0.5114080122380590  0.8767564909770624  0.7426201184030439   T   T   T
  0.2493371246158546  0.8750019219712653  0.6870335890518663   T   T   T
  0.9991784928090510  0.1250000003211298  0.3753726828051569   F   F   F
  0.7600587968345351  0.1250000003211298  0.3190980514078845   F   F   F
  0.7470962345326484  0.0000000000000000  0.4358978840493251   F   F   F
  0.7493657317607498  0.1249285604484779  0.5614720836873009   T   T   T
  0.4985884635068571  0.1249174089780064  0.5003969764116580   T   T   T
  0.4970762463760333  0.9999272721161891  0.6260955703199923   T   T   T
  0.0113922817798172  0.1244732212754726  0.7433088345129637   T   T   T
  0.7477788270728265  0.1245788164671855  0.6865427084010868   T   T   T
  0.9991784928090510  0.3750000001070433  0.3753726828051569   F   F   F
  0.7600587968345351  0.3750000001070433  0.3190980514078845   F   F   F
  0.7470962345326484  0.2499999997859135  0.4358978840493251   F   F   F
  0.7493760357803159  0.3750799045494853  0.5614787663987254   T   T   T
  0.4985802157789516  0.3750758653555465  0.5003947632170068   T   T   T
  0.4993083715101398  0.2499918393791659  0.6246074186495058   T   T   T
  0.0115805550617544  0.3753619488944126  0.7431704155208375   T   T   T
  0.7477674293184462  0.3754268405997502  0.6865490673320188   T   T   T
  0.9991784928090510  0.6249999998929567  0.3753726828051569   F   F   F
  0.7600587968345351  0.6249999998929567  0.3190980514078845   F   F   F
  0.7470962345326484  0.5000000004281731  0.4358978840493251   F   F   F
  0.7487032792763110  0.6250718062678513  0.5617988293042023   T   T   T
  0.4985457784972605  0.6250573802461539  0.5005968255463823   T   T   T
  0.4970838909888700  0.5000893551007661  0.6260904805936105   T   T   T
  0.0109838421126836  0.6240516249820716  0.7432275956653801   T   T   T
  0.7490154523089712  0.6239418731077667  0.6873796674344881   T   T   T
  0.9991784928090439  0.8750000005352163  0.3753726828051569   F   F   F
  0.7600587968345351  0.8750000005352163  0.3190980514078845   F   F   F
  0.7470962345326484  0.7500000002140865  0.4358978840493251   F   F   F
  0.7487011693591049  0.8749384689980756  0.5617919373475805   T   T   T
  0.4985457696467305  0.8749470932541469  0.5005968837396040   T   T   T
  0.4971541913847815  0.7500099737605951  0.6266094206662522   T   T   T
  0.0107765045858542  0.8761281670403116  0.7432809129585809   T   T   T
  0.7490062204749971  0.8761004881467073  0.6873706618729388   T   T   T
  0.1472195596423447  0.0000000000000000  0.3601606351366584   F   F   F
  0.4003222342624682  0.0000000000000000  0.3237632067519129   F   F   F
  0.4439214822817661  0.0000000000000000  0.4377276028165085   F   F   F
  0.4006390169360879  0.9999063321827096  0.5518446564598477   T   T   T
  0.1507481277655351  0.9998354420151032  0.5103315541014981   T   T   T
  0.1941094991759340  0.0001820920972558  0.6245261366470298   T   T   T
  0.1517684506665577  0.0000932247490387  0.7380852147846338   T   T   T
  0.3978902322940054  0.0015300234659800  0.7027824756164417   T   T   T
  0.1472195596423447  0.2499999997859135  0.3601606351366584   F   F   F
  0.4003222342624682  0.2499999997859135  0.3237632067519129   F   F   F
  0.4439214822817661  0.2499999997859135  0.4377276028165085   F   F   F
  0.4002109633671662  0.2499989971040674  0.5510871436226176   T   T   T
  0.1506529348576299  0.2499945679715265  0.5102655493260048   T   T   T
  0.1938537797384475  0.2499881614812132  0.6245353617953256   T   T   T
  0.1521614472880729  0.2499160612530863  0.7386692656030659   T   T   T
  0.3999156445836727  0.2500000251582984  0.6975370898344799   T   T   T
  0.1472195596423447  0.5000000004281731  0.3601606351366584   F   F   F
  0.4003222342624682  0.5000000004281731  0.3237632067519129   F   F   F
  0.4439214822817661  0.5000000004281731  0.4377276028165085   F   F   F
  0.4006271733406666  0.5000944355403805  0.5518442840546699   T   T   T
  0.1507409511264708  0.5001722674239983  0.5103324317023304   T   T   T
  0.1940822190798804  0.4998422769863821  0.6245168034291417   T   T   T
  0.1519416787545555  0.4999248321958044  0.7381283186987928   T   T   T
  0.3979084742454670  0.4984946722977524  0.7027679821505892   T   T   T
  0.1472195596423447  0.7500000002140865  0.3601606351366584   F   F   F
  0.4003222342624682  0.7500000002140865  0.3237632067519129   F   F   F
  0.4439214822817661  0.7500000002140865  0.4377276028165085   F   F   F
  0.4007488596220916  0.7499981291423623  0.5521509237232018   T   T   T
  0.1508257469915997  0.7499993584337648  0.5103654166977565   T   T   T
  0.1937467258480099  0.7499941445049840  0.6246486742552592   T   T   T
  0.1500032391255650  0.7500491095817137  0.7382841358821772   T   T   T
  0.3978179368875273  0.7500195176925548  0.7027332244580731   T   T   T
  0.6472195338188556  0.0000000000000000  0.3601606351366584   F   F   F
  0.9003222591295312  0.0000000000000000  0.3237632067519129   F   F   F
  0.9439215071488221  0.0000000000000000  0.4377276028165085   F   F   F
  0.9011491283424891  0.9997473754953839  0.5519344331060755   T   T   T
  0.6508120996906207  0.9997833935814475  0.5103209482189404   T   T   T
  0.6937062834650282  0.9998418206469342  0.6243224524408203   T   T   T
  0.6510755412707611  0.0000901591751166  0.7393600148105460   T   T   T
  0.8968048670658845  0.0007139999744233  0.7026367642530271   T   T   T
  0.6472195338188556  0.2499999997859135  0.3601606351366584   F   F   F
  0.9003222591295312  0.2499999997859135  0.3237632067519129   F   F   F
  0.9439215071488221  0.2499999997859135  0.4377276028165085   F   F   F
  0.9013797421400875  0.2499965127581636  0.5518356878674852   T   T   T
  0.6509734727454547  0.2500036082563086  0.5102274977479646   T   T   T
  0.6960983515358796  0.2500089902346048  0.6237574067975596   T   T   T
  0.6527755976786507  0.2499948079763431  0.7357028365540476   T   T   T
  0.8971370696844581  0.2499936171079276  0.7024411082393693   T   T   T
  0.6472195338188556  0.5000000004281731  0.3601606351366584   F   F   F
  0.9003222591295312  0.5000000004281731  0.3237632067519129   F   F   F
  0.9439215071488221  0.5000000004281731  0.4377276028165085   F   F   F
  0.9011591625541550  0.5002623876306052  0.5519454152947352   T   T   T
  0.6508187189576998  0.5002185996386029  0.5103219810296498   T   T   T
  0.6937226444142144  0.5001722014279002  0.6243321568895213   T   T   T
  0.6510583498968371  0.4999592508096855  0.7393496215783179   T   T   T
  0.8967745988924267  0.4993302632354126  0.7027131385509533   T   T   T
  0.6472195338188556  0.7500000002140865  0.3601606351366584   F   F   F
  0.9003222591295312  0.7500000002140865  0.3237632067519129   F   F   F
  0.9439215071488221  0.7500000002140865  0.4377276028165085   F   F   F
  0.9008910073513854  0.7500107086149516  0.5522378786213181   T   T   T
  0.6508329944500419  0.7500030271832187  0.5103830963378506   T   T   T
  0.6943597787869988  0.7500119751381511  0.6246937627348673   T   T   T
  0.6496274320983464  0.7500267388923901  0.7381792640704402   T   T   T
  0.8967847326487436  0.7499962083598294  0.7030236120518084   T   T   T
  0.4340313428429175  0.2501677513965139  0.8236048441230013   T   T   T
 
  0.00000000E+00  0.00000000E+00  0.00000000E+00
  0.00000000E+00  0.00000000E+00  0.00000000E+00
  0.00000000E+00  0.00000000E+00  0.00000000E+00
  0.00000000E+00  0.00000000E+00  0.00000000E+00
  0.00000000E+00  0.00000000E+00  0.00000000E+00
  0.00000000E+00  0.00000000E+00  0.00000000E+00
  0.00000000E+00  0.00000000E+00  0.00000000E+00
  0.00000000E+00  0.00000000E+00  0.00000000E+00
  0.00000000E+00  0.00000000E+00  0.00000000E+00
  0.00000000E+00  0.00000000E+00  0.00000000E+00
  0.00000000E+00  0.00000000E+00  0.00000000E+00
  0.00000000E+00  0.00000000E+00  0.00000000E+00
  0.00000000E+00  0.00000000E+00  0.00000000E+00
  0.00000000E+00  0.00000000E+00  0.00000000E+00
  0.00000000E+00  0.00000000E+00  0.00000000E+00
  0.00000000E+00  0.00000000E+00  0.00000000E+00
  0.00000000E+00  0.00000000E+00  0.00000000E+00
  0.00000000E+00  0.00000000E+00  0.00000000E+00
  0.00000000E+00  0.00000000E+00  0.00000000E+00
  0.00000000E+00  0.00000000E+00  0.00000000E+00
  0.00000000E+00  0.00000000E+00  0.00000000E+00
  0.00000000E+00  0.00000000E+00  0.00000000E+00
  0.00000000E+00  0.00000000E+00  0.00000000E+00
  0.00000000E+00  0.00000000E+00  0.00000000E+00
  0.00000000E+00  0.00000000E+00  0.00000000E+00
  0.00000000E+00  0.00000000E+00  0.00000000E+00
  0.00000000E+00  0.00000000E+00  0.00000000E+00
  0.00000000E+00  0.00000000E+00  0.00000000E+00
  0.00000000E+00  0.00000000E+00  0.00000000E+00
  0.00000000E+00  0.00000000E+00  0.00000000E+00
  0.00000000E+00  0.00000000E+00  0.00000000E+00
  0.00000000E+00  0.00000000E+00  0.00000000E+00
  0.00000000E+00  0.00000000E+00  0.00000000E+00
  0.00000000E+00  0.00000000E+00  0.00000000E+00
  0.00000000E+00  0.00000000E+00  0.00000000E+00
  0.00000000E+00  0.00000000E+00  0.00000000E+00
  0.00000000E+00  0.00000000E+00  0.00000000E+00
  0.00000000E+00  0.00000000E+00  0.00000000E+00
  0.00000000E+00  0.00000000E+00  0.00000000E+00
  0.00000000E+00  0.00000000E+00  0.00000000E+00
  0.00000000E+00  0.00000000E+00  0.00000000E+00
  0.00000000E+00  0.00000000E+00  0.00000000E+00
  0.00000000E+00  0.00000000E+00  0.00000000E+00
  0.00000000E+00  0.00000000E+00  0.00000000E+00
  0.00000000E+00  0.00000000E+00  0.00000000E+00
  0.00000000E+00  0.00000000E+00  0.00000000E+00
  0.00000000E+00  0.00000000E+00  0.00000000E+00
  0.00000000E+00  0.00000000E+00  0.00000000E+00
  0.00000000E+00  0.00000000E+00  0.00000000E+00
  0.00000000E+00  0.00000000E+00  0.00000000E+00
  0.00000000E+00  0.00000000E+00  0.00000000E+00
  0.00000000E+00  0.00000000E+00  0.00000000E+00
  0.00000000E+00  0.00000000E+00  0.00000000E+00
  0.00000000E+00  0.00000000E+00  0.00000000E+00
  0.00000000E+00  0.00000000E+00  0.00000000E+00
  0.00000000E+00  0.00000000E+00  0.00000000E+00
  0.00000000E+00  0.00000000E+00  0.00000000E+00
  0.00000000E+00  0.00000000E+00  0.00000000E+00
  0.00000000E+00  0.00000000E+00  0.00000000E+00
  0.00000000E+00  0.00000000E+00  0.00000000E+00
  0.00000000E+00  0.00000000E+00  0.00000000E+00
  0.00000000E+00  0.00000000E+00  0.00000000E+00
  0.00000000E+00  0.00000000E+00  0.00000000E+00
  0.00000000E+00  0.00000000E+00  0.00000000E+00
  0.00000000E+00  0.00000000E+00  0.00000000E+00
  0.00000000E+00  0.00000000E+00  0.00000000E+00
  0.00000000E+00  0.00000000E+00  0.00000000E+00
  0.00000000E+00  0.00000000E+00  0.00000000E+00
  0.00000000E+00  0.00000000E+00  0.00000000E+00
  0.00000000E+00  0.00000000E+00  0.00000000E+00
  0.00000000E+00  0.00000000E+00  0.00000000E+00
  0.00000000E+00  0.00000000E+00  0.00000000E+00
  0.00000000E+00  0.00000000E+00  0.00000000E+00
  0.00000000E+00  0.00000000E+00  0.00000000E+00
  0.00000000E+00  0.00000000E+00  0.00000000E+00
  0.00000000E+00  0.00000000E+00  0.00000000E+00
  0.00000000E+00  0.00000000E+00  0.00000000E+00
  0.00000000E+00  0.00000000E+00  0.00000000E+00
  0.00000000E+00  0.00000000E+00  0.00000000E+00
  0.00000000E+00  0.00000000E+00  0.00000000E+00
  0.00000000E+00  0.00000000E+00  0.00000000E+00
  0.00000000E+00  0.00000000E+00  0.00000000E+00
  0.00000000E+00  0.00000000E+00  0.00000000E+00
  0.00000000E+00  0.00000000E+00  0.00000000E+00
  0.00000000E+00  0.00000000E+00  0.00000000E+00
  0.00000000E+00  0.00000000E+00  0.00000000E+00
  0.00000000E+00  0.00000000E+00  0.00000000E+00
  0.00000000E+00  0.00000000E+00  0.00000000E+00
  0.00000000E+00  0.00000000E+00  0.00000000E+00
  0.00000000E+00  0.00000000E+00  0.00000000E+00
  0.00000000E+00  0.00000000E+00  0.00000000E+00
  0.00000000E+00  0.00000000E+00  0.00000000E+00
  0.00000000E+00  0.00000000E+00  0.00000000E+00
  0.00000000E+00  0.00000000E+00  0.00000000E+00
  0.00000000E+00  0.00000000E+00  0.00000000E+00
  0.00000000E+00  0.00000000E+00  0.00000000E+00
  0.00000000E+00  0.00000000E+00  0.00000000E+00
  0.00000000E+00  0.00000000E+00  0.00000000E+00
  0.00000000E+00  0.00000000E+00  0.00000000E+00
  0.00000000E+00  0.00000000E+00  0.00000000E+00
  0.00000000E+00  0.00000000E+00  0.00000000E+00
  0.00000000E+00  0.00000000E+00  0.00000000E+00
  0.00000000E+00  0.00000000E+00  0.00000000E+00
  0.00000000E+00  0.00000000E+00  0.00000000E+00
  0.00000000E+00  0.00000000E+00  0.00000000E+00
  0.00000000E+00  0.00000000E+00  0.00000000E+00
  0.00000000E+00  0.00000000E+00  0.00000000E+00
  0.00000000E+00  0.00000000E+00  0.00000000E+00
  0.00000000E+00  0.00000000E+00  0.00000000E+00
  0.00000000E+00  0.00000000E+00  0.00000000E+00
  0.00000000E+00  0.00000000E+00  0.00000000E+00
  0.00000000E+00  0.00000000E+00  0.00000000E+00
  0.00000000E+00  0.00000000E+00  0.00000000E+00
  0.00000000E+00  0.00000000E+00  0.00000000E+00
  0.00000000E+00  0.00000000E+00  0.00000000E+00
  0.00000000E+00  0.00000000E+00  0.00000000E+00
  0.00000000E+00  0.00000000E+00  0.00000000E+00
  0.00000000E+00  0.00000000E+00  0.00000000E+00
  0.00000000E+00  0.00000000E+00  0.00000000E+00
  0.00000000E+00  0.00000000E+00  0.00000000E+00
  0.00000000E+00  0.00000000E+00  0.00000000E+00
  0.00000000E+00  0.00000000E+00  0.00000000E+00
  0.00000000E+00  0.00000000E+00  0.00000000E+00
  0.00000000E+00  0.00000000E+00  0.00000000E+00
  0.00000000E+00  0.00000000E+00  0.00000000E+00
  0.00000000E+00  0.00000000E+00  0.00000000E+00
  0.00000000E+00  0.00000000E+00  0.00000000E+00
  0.00000000E+00  0.00000000E+00  0.00000000E+00
  0.00000000E+00  0.00000000E+00  0.00000000E+00
