Mo  S Ru                                
   1.00000000000000     
    15.9215000000000000    0.0000000000000000    0.0000000000000000
    -7.9622500000000000   13.7910219999999999    0.0000000000000000
     0.0000000000000000    0.0000000000000000   13.5822000000000003
   Mo   S    Ru
    25    50     2
Direct
  0.1324219555449417  0.0655576311492894  0.6791233304891833
  0.1287266871914596  0.2639827930207730  0.6779257845952316
  0.1324282550677651  0.4661147922863975  0.6791417968166016
  0.1326010114804674  0.6660429773727046  0.6779741232744598
  0.1325967750044441  0.8658122466222480  0.6779546429700787
  0.3325790358253613  0.0653585478694296  0.6786160764635625
  0.3333315363667424  0.2643013839188058  0.6859066600859762
  0.3333222591522542  0.4682462057809573  0.6858675372770904
  0.3325716321461982  0.6664449342485241  0.6785902690958920
  0.3325477526369767  0.8658912799390208  0.6767584074116186
  0.5328598195274381  0.0653488226816208  0.6757061116232350
  0.5344519994166390  0.2642755313153629  0.6781287937074936
  0.5312435367997992  0.4652176392110974  0.6893063405856310
  0.5344257356740485  0.6693640059509178  0.6780820261990499
  0.5328494596023603  0.8667205222548020  0.6756829162956706
  0.7327959287098835  0.0660122542462815  0.6752428107799631
  0.7333285670748779  0.2658233022817953  0.6764101458617091
  0.7331001757102769  0.4656801968900623  0.6804741679768114
  0.7330853441762812  0.6666424604793662  0.6804317147411822
  0.7333046603576108  0.8667208712131682  0.6763558561110301
  0.9321104577922839  0.0652951354972018  0.6762868272784246
  0.9321190054776878  0.2660674334925375  0.6763173137306495
  0.9327599134409041  0.4661047649416901  0.6777867232627344
  0.9326867294228904  0.6659734309946117  0.6787915680045771
  0.9327436178418438  0.8659020818075334  0.6777266489683385
  0.0661722904699076  0.1317674742118982  0.5622692259236004
  0.0632108972891103  0.1306198049341987  0.7928307311155010
  0.0661692220313341  0.3336589157041132  0.5622904391498551
  0.0632294065984951  0.3318434176990905  0.7928505528289591
  0.0664604485345563  0.5327042589428785  0.5630344193647758
  0.0656498486739778  0.5329816946650823  0.7934208096955970
  0.0655045187806422  0.7323767305761066  0.5631028222893235
  0.0663247512630605  0.7328029930060396  0.7933825834794064
  0.0664677936946845  0.9330222383999498  0.5629935110133886
  0.0656143780968534  0.9319134672673144  0.7933787056780304
  0.2676019266490641  0.1356593839943159  0.5662548766911328
  0.2645962352908384  0.1294176394704181  0.7967595068446869
  0.2683746724712748  0.3337850569802896  0.5716370396032815
  0.2525573409664830  0.3259322574865280  0.8014907916735012
  0.2675791285607119  0.5311642858833849  0.5662323813747747
  0.2646211942583534  0.5344219610914323  0.7967444975923073
  0.2656290576147526  0.7318879483148351  0.5625178828003499
  0.2659818347851299  0.7334825334571562  0.7929013792229966
  0.2656442255633280  0.9330004091444906  0.5625205897440253
  0.2659649923600540  0.9317271279149608  0.7929023975639424
  0.4653546426105919  0.1325299699766802  0.5621024314526153
  0.4668091764731415  0.1298187617729596  0.7925768935728001
  0.4661004315032002  0.3344491308907607  0.5708789240997447
  0.4718655151224667  0.3237165638197652  0.8054097410576944
  0.4660956801308842  0.5308253000781846  0.5708440562747938
  0.4718322087355276  0.5473009609337325  0.8053538976123562
  0.4653377506149852  0.7320365576103356  0.5620693243176476
  0.4668010553630211  0.7361869547459463  0.7925431480637499
  0.4652897315805262  0.9322638925722444  0.5605317715639160
  0.4663736644633332  0.9327902014237779  0.7911154610267630
  0.6662398616666749  0.1329832370819588  0.5603879932958833
  0.6662440217154781  0.1319218683850139  0.7907283577434967
  0.6668111069462341  0.3339497972040917  0.5629546359526785
  0.6680831900624327  0.3310535080705748  0.7935433414185269
  0.6620233450275066  0.5306068596602103  0.5695179763443363
  0.6692126950265234  0.5342343530689178  0.7975818296527706
  0.6667790344291475  0.7320639879842048  0.5629037754854664
  0.6680517929579537  0.7362431128224216  0.7934890501251104
  0.6662235587146554  0.9325010147381931  0.5603599839600122
  0.6662331235177845  0.9335269777219253  0.7907009740659134
  0.8665112037481109  0.1328952647740707  0.5606543234681780
  0.8652526476023041  0.1322405888493350  0.7909252403264659
  0.8664853545155040  0.3336192829528315  0.5614060245216734
  0.8658373748567527  0.3321554287436825  0.7919893685948622
  0.8650757927350980  0.5326845283639159  0.5638780950226732
  0.8671883216820859  0.5327973541341038  0.7942135600584237
  0.8650653653591860  0.7316231498895434  0.5638358034186481
  0.8671688808013869  0.7336670250134958  0.7941705234327401
  0.8664651818698985  0.9321224092696596  0.5613481813866912
  0.8658103577573826  0.9329139958139692  0.7919299635104338
  0.2582905344554902  0.3288768694490756  0.9624763087804382
  0.3990342959442259  0.3991101124798604  0.8729751887980086
 
  0.00000000E+00  0.00000000E+00  0.00000000E+00
  0.00000000E+00  0.00000000E+00  0.00000000E+00
  0.00000000E+00  0.00000000E+00  0.00000000E+00
  0.00000000E+00  0.00000000E+00  0.00000000E+00
  0.00000000E+00  0.00000000E+00  0.00000000E+00
  0.00000000E+00  0.00000000E+00  0.00000000E+00
  0.00000000E+00  0.00000000E+00  0.00000000E+00
  0.00000000E+00  0.00000000E+00  0.00000000E+00
  0.00000000E+00  0.00000000E+00  0.00000000E+00
  0.00000000E+00  0.00000000E+00  0.00000000E+00
  0.00000000E+00  0.00000000E+00  0.00000000E+00
  0.00000000E+00  0.00000000E+00  0.00000000E+00
  0.00000000E+00  0.00000000E+00  0.00000000E+00
  0.00000000E+00  0.00000000E+00  0.00000000E+00
  0.00000000E+00  0.00000000E+00  0.00000000E+00
  0.00000000E+00  0.00000000E+00  0.00000000E+00
  0.00000000E+00  0.00000000E+00  0.00000000E+00
  0.00000000E+00  0.00000000E+00  0.00000000E+00
  0.00000000E+00  0.00000000E+00  0.00000000E+00
  0.00000000E+00  0.00000000E+00  0.00000000E+00
  0.00000000E+00  0.00000000E+00  0.00000000E+00
  0.00000000E+00  0.00000000E+00  0.00000000E+00
  0.00000000E+00  0.00000000E+00  0.00000000E+00
  0.00000000E+00  0.00000000E+00  0.00000000E+00
  0.00000000E+00  0.00000000E+00  0.00000000E+00
  0.00000000E+00  0.00000000E+00  0.00000000E+00
  0.00000000E+00  0.00000000E+00  0.00000000E+00
  0.00000000E+00  0.00000000E+00  0.00000000E+00
  0.00000000E+00  0.00000000E+00  0.00000000E+00
  0.00000000E+00  0.00000000E+00  0.00000000E+00
  0.00000000E+00  0.00000000E+00  0.00000000E+00
  0.00000000E+00  0.00000000E+00  0.00000000E+00
  0.00000000E+00  0.00000000E+00  0.00000000E+00
  0.00000000E+00  0.00000000E+00  0.00000000E+00
  0.00000000E+00  0.00000000E+00  0.00000000E+00
  0.00000000E+00  0.00000000E+00  0.00000000E+00
  0.00000000E+00  0.00000000E+00  0.00000000E+00
  0.00000000E+00  0.00000000E+00  0.00000000E+00
  0.00000000E+00  0.00000000E+00  0.00000000E+00
  0.00000000E+00  0.00000000E+00  0.00000000E+00
  0.00000000E+00  0.00000000E+00  0.00000000E+00
  0.00000000E+00  0.00000000E+00  0.00000000E+00
  0.00000000E+00  0.00000000E+00  0.00000000E+00
  0.00000000E+00  0.00000000E+00  0.00000000E+00
  0.00000000E+00  0.00000000E+00  0.00000000E+00
  0.00000000E+00  0.00000000E+00  0.00000000E+00
  0.00000000E+00  0.00000000E+00  0.00000000E+00
  0.00000000E+00  0.00000000E+00  0.00000000E+00
  0.00000000E+00  0.00000000E+00  0.00000000E+00
  0.00000000E+00  0.00000000E+00  0.00000000E+00
  0.00000000E+00  0.00000000E+00  0.00000000E+00
  0.00000000E+00  0.00000000E+00  0.00000000E+00
  0.00000000E+00  0.00000000E+00  0.00000000E+00
  0.00000000E+00  0.00000000E+00  0.00000000E+00
  0.00000000E+00  0.00000000E+00  0.00000000E+00
  0.00000000E+00  0.00000000E+00  0.00000000E+00
  0.00000000E+00  0.00000000E+00  0.00000000E+00
  0.00000000E+00  0.00000000E+00  0.00000000E+00
  0.00000000E+00  0.00000000E+00  0.00000000E+00
  0.00000000E+00  0.00000000E+00  0.00000000E+00
  0.00000000E+00  0.00000000E+00  0.00000000E+00
  0.00000000E+00  0.00000000E+00  0.00000000E+00
  0.00000000E+00  0.00000000E+00  0.00000000E+00
  0.00000000E+00  0.00000000E+00  0.00000000E+00
  0.00000000E+00  0.00000000E+00  0.00000000E+00
  0.00000000E+00  0.00000000E+00  0.00000000E+00
  0.00000000E+00  0.00000000E+00  0.00000000E+00
  0.00000000E+00  0.00000000E+00  0.00000000E+00
  0.00000000E+00  0.00000000E+00  0.00000000E+00
  0.00000000E+00  0.00000000E+00  0.00000000E+00
  0.00000000E+00  0.00000000E+00  0.00000000E+00
  0.00000000E+00  0.00000000E+00  0.00000000E+00
  0.00000000E+00  0.00000000E+00  0.00000000E+00
  0.00000000E+00  0.00000000E+00  0.00000000E+00
  0.00000000E+00  0.00000000E+00  0.00000000E+00
  0.00000000E+00  0.00000000E+00  0.00000000E+00
  0.00000000E+00  0.00000000E+00  0.00000000E+00
