Mo  S Co                                
   1.00000000000000     
    15.9215000000000000    0.0000000000000000    0.0000000000000000
    -7.9622500000000000   13.7910219999999999    0.0000000000000000
     0.0000000000000000    0.0000000000000000   13.5822000000000003
   Mo   S    Co
    25    50     1
Direct
  0.1327411547416517  0.0658841831174044  0.6795926384507780
  0.1312517737698258  0.2650867309269600  0.6785927382048840
  0.1326192469772423  0.4657268527751555  0.6796408723438816
  0.1326520159655473  0.6658379428698140  0.6792000114008374
  0.1326793439893237  0.8657538334612553  0.6791554620917495
  0.3325617876171734  0.0655855876901086  0.6789730625904724
  0.3334764282991287  0.2650472464423217  0.6780525230268921
  0.3332747493296964  0.4669655384147546  0.6794734627553396
  0.3325355988993408  0.6658134907941573  0.6793907369865693
  0.3326862720617498  0.8657718102320899  0.6790312748409306
  0.5327116922010831  0.0657572412794707  0.6788308623539194
  0.5329274664271537  0.2659091279857151  0.6788949840756757
  0.5326669220615585  0.4656992099253756  0.6795290417273137
  0.5328276235290943  0.6658051248288785  0.6793585361870598
  0.5326675179526745  0.8657907718307811  0.6789641275063971
  0.7326180283058079  0.0657723261619694  0.6788501527372404
  0.7326855507502756  0.2658031921840802  0.6789326596969829
  0.7327635646538084  0.4658353982374521  0.6790751476406456
  0.7327316318022596  0.6658381238885838  0.6791764596343697
  0.7326321825750810  0.8657788096808616  0.6790109061163605
  0.9325973122574922  0.0655966450334518  0.6790799665362854
  0.9325660528656101  0.2659159657452861  0.6790697930390053
  0.9326339279989639  0.4658397298554462  0.6791162861941444
  0.9326812353440630  0.6658116681842827  0.6790270809222179
  0.9326236945037536  0.8657571764654080  0.6791611404530826
  0.0656888540164999  0.1318240522849621  0.5639181704871064
  0.0659781088930700  0.1326405269762532  0.7946388265754436
  0.0656683963934768  0.3328144198880310  0.5638907861144133
  0.0656867261238006  0.3321372967292930  0.7944901115946621
  0.0661407907391904  0.5324136889193767  0.5642378324604778
  0.0658650930224098  0.5325427615610820  0.7943522518576600
  0.0660518140246111  0.7324968359722988  0.5639539326534830
  0.0659181141524954  0.7324455436771871  0.7941716421618352
  0.0660766532503487  0.9326189913699210  0.5642520656974810
  0.0659443301075697  0.9323264108807905  0.7943538683137632
  0.2656097631891186  0.1316460755924780  0.5637022156387985
  0.2663557426095267  0.1328422021994982  0.7945371238793300
  0.2660434112048122  0.3327185014234715  0.5652455829771270
  0.2658070150586553  0.3314247053039310  0.7944425326551681
  0.2658395400719229  0.5326304599284342  0.5643470559232995
  0.2660575327409092  0.5326878117450917  0.7948191845671531
  0.2659782324141986  0.7323631495117269  0.5640695689941708
  0.2659445110902254  0.7326437404234838  0.7942692657900849
  0.2659324122870075  0.9323313031538945  0.5639508289110680
  0.2660256872446425  0.9323670425839481  0.7941581346227267
  0.4659391987938335  0.1324544111738390  0.5639063525508305
  0.4661346776092685  0.1324233044615539  0.7939960762292060
  0.4668711721828771  0.3328773840003052  0.5636103893657065
  0.4658589202334795  0.3320574025299621  0.7943263113347356
  0.4663287751294547  0.5326304363035987  0.5643067462090698
  0.4661997731781611  0.5326262151536625  0.7947998834280554
  0.4658681755763254  0.7322000282148409  0.5641865188136421
  0.4661138473914974  0.7326750346792039  0.7942830972484032
  0.4659616642435438  0.9323772076046808  0.5637928984691172
  0.4660841922156820  0.9325312613255434  0.7939714238182631
  0.6660407445765841  0.1325007752506764  0.5637324641984875
  0.6659884557320410  0.1324301090293787  0.7939196982538306
  0.6661777471763699  0.3325889978752059  0.5638517779690275
  0.6661618772111879  0.3325035648492687  0.7940849861338819
  0.6658731876484367  0.5324456008623599  0.5641946887046032
  0.6662007557087648  0.5325122593345029  0.7943080926463324
  0.6659493322734420  0.7323757004041198  0.5640508396431301
  0.6662440057177719  0.7326393204694526  0.7942465548392121
  0.6659748280131055  0.9323999232715252  0.5637939717463070
  0.6659953078874210  0.9325299661548030  0.7939690146095373
  0.8661296421247116  0.1325061104787650  0.5639706678865082
  0.8658109507977869  0.1324002885536331  0.7940743157282739
  0.8660371197255330  0.3325760029947631  0.5639113430130607
  0.8658617493925362  0.3325140721884736  0.7941333918874989
  0.8660419239283144  0.5325042498092500  0.5638919619936615
  0.8660436022835469  0.5325561508810210  0.7941314571578744
  0.8660022699362813  0.7325035805698903  0.5639546844393948
  0.8660666180594987  0.7324365320837813  0.7941658784065808
  0.8659839787504211  0.9323776335824263  0.5639698627276104
  0.8658571228455756  0.9323265136583458  0.7941664451255548
  0.2629745662402385  0.3141860196649731  0.9399453052689282
 
  0.00000000E+00  0.00000000E+00  0.00000000E+00
  0.00000000E+00  0.00000000E+00  0.00000000E+00
  0.00000000E+00  0.00000000E+00  0.00000000E+00
  0.00000000E+00  0.00000000E+00  0.00000000E+00
  0.00000000E+00  0.00000000E+00  0.00000000E+00
  0.00000000E+00  0.00000000E+00  0.00000000E+00
  0.00000000E+00  0.00000000E+00  0.00000000E+00
  0.00000000E+00  0.00000000E+00  0.00000000E+00
  0.00000000E+00  0.00000000E+00  0.00000000E+00
  0.00000000E+00  0.00000000E+00  0.00000000E+00
  0.00000000E+00  0.00000000E+00  0.00000000E+00
  0.00000000E+00  0.00000000E+00  0.00000000E+00
  0.00000000E+00  0.00000000E+00  0.00000000E+00
  0.00000000E+00  0.00000000E+00  0.00000000E+00
  0.00000000E+00  0.00000000E+00  0.00000000E+00
  0.00000000E+00  0.00000000E+00  0.00000000E+00
  0.00000000E+00  0.00000000E+00  0.00000000E+00
  0.00000000E+00  0.00000000E+00  0.00000000E+00
  0.00000000E+00  0.00000000E+00  0.00000000E+00
  0.00000000E+00  0.00000000E+00  0.00000000E+00
  0.00000000E+00  0.00000000E+00  0.00000000E+00
  0.00000000E+00  0.00000000E+00  0.00000000E+00
  0.00000000E+00  0.00000000E+00  0.00000000E+00
  0.00000000E+00  0.00000000E+00  0.00000000E+00
  0.00000000E+00  0.00000000E+00  0.00000000E+00
  0.00000000E+00  0.00000000E+00  0.00000000E+00
  0.00000000E+00  0.00000000E+00  0.00000000E+00
  0.00000000E+00  0.00000000E+00  0.00000000E+00
  0.00000000E+00  0.00000000E+00  0.00000000E+00
  0.00000000E+00  0.00000000E+00  0.00000000E+00
  0.00000000E+00  0.00000000E+00  0.00000000E+00
  0.00000000E+00  0.00000000E+00  0.00000000E+00
  0.00000000E+00  0.00000000E+00  0.00000000E+00
  0.00000000E+00  0.00000000E+00  0.00000000E+00
  0.00000000E+00  0.00000000E+00  0.00000000E+00
  0.00000000E+00  0.00000000E+00  0.00000000E+00
  0.00000000E+00  0.00000000E+00  0.00000000E+00
  0.00000000E+00  0.00000000E+00  0.00000000E+00
  0.00000000E+00  0.00000000E+00  0.00000000E+00
  0.00000000E+00  0.00000000E+00  0.00000000E+00
  0.00000000E+00  0.00000000E+00  0.00000000E+00
  0.00000000E+00  0.00000000E+00  0.00000000E+00
  0.00000000E+00  0.00000000E+00  0.00000000E+00
  0.00000000E+00  0.00000000E+00  0.00000000E+00
  0.00000000E+00  0.00000000E+00  0.00000000E+00
  0.00000000E+00  0.00000000E+00  0.00000000E+00
  0.00000000E+00  0.00000000E+00  0.00000000E+00
  0.00000000E+00  0.00000000E+00  0.00000000E+00
  0.00000000E+00  0.00000000E+00  0.00000000E+00
  0.00000000E+00  0.00000000E+00  0.00000000E+00
  0.00000000E+00  0.00000000E+00  0.00000000E+00
  0.00000000E+00  0.00000000E+00  0.00000000E+00
  0.00000000E+00  0.00000000E+00  0.00000000E+00
  0.00000000E+00  0.00000000E+00  0.00000000E+00
  0.00000000E+00  0.00000000E+00  0.00000000E+00
  0.00000000E+00  0.00000000E+00  0.00000000E+00
  0.00000000E+00  0.00000000E+00  0.00000000E+00
  0.00000000E+00  0.00000000E+00  0.00000000E+00
  0.00000000E+00  0.00000000E+00  0.00000000E+00
  0.00000000E+00  0.00000000E+00  0.00000000E+00
  0.00000000E+00  0.00000000E+00  0.00000000E+00
  0.00000000E+00  0.00000000E+00  0.00000000E+00
  0.00000000E+00  0.00000000E+00  0.00000000E+00
  0.00000000E+00  0.00000000E+00  0.00000000E+00
  0.00000000E+00  0.00000000E+00  0.00000000E+00
  0.00000000E+00  0.00000000E+00  0.00000000E+00
  0.00000000E+00  0.00000000E+00  0.00000000E+00
  0.00000000E+00  0.00000000E+00  0.00000000E+00
  0.00000000E+00  0.00000000E+00  0.00000000E+00
  0.00000000E+00  0.00000000E+00  0.00000000E+00
  0.00000000E+00  0.00000000E+00  0.00000000E+00
  0.00000000E+00  0.00000000E+00  0.00000000E+00
  0.00000000E+00  0.00000000E+00  0.00000000E+00
  0.00000000E+00  0.00000000E+00  0.00000000E+00
  0.00000000E+00  0.00000000E+00  0.00000000E+00
  0.00000000E+00  0.00000000E+00  0.00000000E+00
