Ta  N Cu                                
   1.00000000000000     
     9.0548154099999998    0.0000000000000000    0.0000000000000000
     0.0000000000000000   11.6775998899999998    0.0000000000000000
     0.0000000000000000    0.0000000000000000   23.4818170799999990
   Ta   N    Cu
    60    60     2
Selective dynamics
Direct
  0.0000000000000000  0.0000000000000000  0.2546926809530987   F   F   F
  0.6670845899906297  0.1250000003211298  0.2638822399803757   F   F   F
  0.3329153514769843  0.1250000003211298  0.2638822399803757   F   F   F
  0.4999999994478088  0.2499999997859135  0.3618861993156202   F   F   F
  0.1650707596845180  0.1250000003211298  0.3684425577811794   F   F   F
  0.8349292403154820  0.1250000003211298  0.3684425577811794   F   F   F
  0.0005899201585954  0.2501636336057627  0.4797971742078097   T   T   T
  0.6659242006089251  0.1250587101452654  0.4782434770099842   T   T   T
  0.3352105636708564  0.1250502188666439  0.4781524389360760   T   T   T
  0.5014465665293782  0.2504597638087339  0.5910507036827357   T   T   T
  0.1688034680482322  0.1251139130791790  0.5902561146477370   T   T   T
  0.8337413763661556  0.1251088595416351  0.5902787254821886   T   T   T
  0.0019604380047924  0.2487541692705352  0.7023693513055804   T   T   T
  0.6681216728208428  0.1251422860323274  0.7020875543910313   T   T   T
  0.3359356089886701  0.1251590841288013  0.7020065352972352   T   T   T
  0.0000000000000000  0.2499999997859135  0.2546926809530987   F   F   F
  0.6670845899906297  0.3750000001070433  0.2638822399803757   F   F   F
  0.3329153514769843  0.3750000001070433  0.2638822399803757   F   F   F
  0.4999999994478088  0.5000000004281731  0.3618861993156202   F   F   F
  0.1650707596845180  0.3750000001070433  0.3684425577811794   F   F   F
  0.8349292403154820  0.3750000001070433  0.3684425577811794   F   F   F
  0.0005139247297761  0.5000316158702315  0.4797561684105952   T   T   T
  0.6656940282620040  0.3749696167307062  0.4781922078064910   T   T   T
  0.3353835104407281  0.3750034125162878  0.4781104836361896   T   T   T
  0.5013461388902385  0.5002502220282837  0.5906896853334473   T   T   T
  0.1689736415557428  0.3752750988586018  0.5900191919764933   T   T   T
  0.8335646118054079  0.3752672616386369  0.5900797726893977   T   T   T
  0.0016281019237701  0.5004841616519509  0.7020015982657843   T   T   T
  0.6719592174949895  0.3767828072587402  0.7040862573298816   T   T   T
  0.3315413758895475  0.3768022957466328  0.7039633001024982   T   T   T
  0.0000000000000000  0.5000000004281731  0.2546926809530987   F   F   F
  0.6670845899906297  0.6249999998929567  0.2638822399803757   F   F   F
  0.3329153514769843  0.6249999998929567  0.2638822399803757   F   F   F
  0.4999999994478088  0.7500000002140865  0.3618861993156202   F   F   F
  0.1650707596845180  0.6249999998929567  0.3684425577811794   F   F   F
  0.8349292403154820  0.6249999998929567  0.3684425577811794   F   F   F
  0.0005694103051437  0.7500896897169848  0.4797597911127037   T   T   T
  0.6654498359362272  0.6250474183758330  0.4781235934248023   T   T   T
  0.3355333895016639  0.6250282906330007  0.4780471947845399   T   T   T
  0.5011345326181618  0.7500579946801793  0.5906778882717741   T   T   T
  0.1688956637934771  0.6251233368543440  0.5899145417527818   T   T   T
  0.8335177900745175  0.6251283840258501  0.5899531665633231   T   T   T
  0.0015283931697532  0.7497710339748381  0.7020159300971646   T   T   T
  0.6727391793361803  0.6251861373047610  0.7039163582806897   T   T   T
  0.3300999964049796  0.6251694446704668  0.7039088207782377   T   T   T
  0.0000000000000000  0.7500000002140865  0.2546926809530987   F   F   F
  0.6670845899906297  0.8750000005352163  0.2638822399803757   F   F   F
  0.3329153514769843  0.8750000005352163  0.2638822399803757   F   F   F
  0.4999999994478088  0.0000000000000000  0.3618861993156202   F   F   F
  0.1650707596845180  0.8750000005352163  0.3684425577811794   F   F   F
  0.8349292403154820  0.8750000005352163  0.3684425577811794   F   F   F
  0.0006465268563545 -0.0001145952866201  0.4797973420774798   T   T   T
  0.6656936936498468  0.8750651069945288  0.4781873379699480   T   T   T
  0.3353762288102113  0.8751072172620591  0.4781028040482097   T   T   T
  0.5013652983158142 -0.0001845996678924  0.5910294811205458   T   T   T
  0.1689822302901375  0.8749085127927797  0.5900594703781943   T   T   T
  0.8335137014491694  0.8749115792733725  0.5900571123944195   T   T   T
  0.0019799419003531  0.0014774092351547  0.7023658133251336   T   T   T
  0.6718495941309303  0.8735572643039100  0.7040567712093189   T   T   T
  0.3314982815782637  0.8735229506535460  0.7040467054232964   T   T   T
  0.8141011533980276  0.0000000000000000  0.3013105672926031   F   F   F
  0.4999999994478088  0.0000000000000000  0.2564174481620327   F   F   F
  0.1858988466019724  0.0000000000000000  0.3013105672926031   F   F   F
  0.3088456122590841  0.2499999997859135  0.4099867722441957   F   F   F
  0.0000000000000000  0.2499999997859135  0.3930971035158137   F   F   F
  0.6911543877409159  0.2499999997859135  0.4099867722441957   F   F   F
  0.8031884065045548  0.2501076004538748  0.5222400543318988   T   T   T
  0.5006213882648182  0.2499407183263058  0.5030622637811163   T   T   T
  0.1982298466753920  0.2500980485487928  0.5221624629849594   T   T   T
  0.3044029133718699  0.2509345514066446  0.6333914507115614   T   T   T
  0.0013815614613720  0.2503562815382810  0.6141518481943437   T   T   T
  0.6985555642049979  0.2509500342362388  0.6335119117153656   T   T   T
  0.8036079266996408  0.2515299005066602  0.7424615792670003   T   T   T
  0.5018513056720705  0.2497085863218219  0.7237685414847915   T   T   T
  0.2003264398886998  0.2515007919473110  0.7423944903364190   T   T   T
  0.8141011533980276  0.2499999997859135  0.3013105672926031   F   F   F
  0.4999999994478088  0.2499999997859135  0.2564174481620327   F   F   F
  0.1858988466019724  0.2499999997859135  0.3013105672926031   F   F   F
  0.3088456122590841  0.5000000004281731  0.4099867722441957   F   F   F
  0.0000000000000000  0.5000000004281731  0.3930971035158137   F   F   F
  0.6911543877409159  0.5000000004281731  0.4099867722441957   F   F   F
  0.8029763976524870  0.4999380191475965  0.5221067792917777   T   T   T
  0.5005463055605798  0.5000307153097759  0.5027327246033971   T   T   T
  0.1983068293296998  0.4999245880483590  0.5220327303612851   T   T   T
  0.3053634497433395  0.5002314352200251  0.6330794638470962   T   T   T
  0.0013099939098503  0.5003413740354897  0.6135211005057805   T   T   T
  0.6973870442649464  0.5002562599635271  0.6331653573516716   T   T   T
  0.8076760717995048  0.5004956182740908  0.7405726199421463   T   T   T
  0.5015720782113963  0.4991071366096284  0.7235985365846774   T   T   T
  0.1956102035491525  0.5003001704005059  0.7405667911357221   T   T   T
  0.8141011533980276  0.5000000004281731  0.3013105672926031   F   F   F
  0.4999999994478088  0.5000000004281731  0.2564174481620327   F   F   F
  0.1858988466019724  0.5000000004281731  0.3013105672926031   F   F   F
  0.3088456122590841  0.7500000002140865  0.4099867722441957   F   F   F
  0.0000000000000000  0.7500000002140865  0.3930971035158137   F   F   F
  0.6911543877409159  0.7500000002140865  0.4099867722441957   F   F   F
  0.8029907833052712  0.7502024959604305  0.5220920090715752   T   T   T
  0.5005561384908136  0.7500788512548231  0.5027186183758326   T   T   T
  0.1983771163516426  0.7502472908175516  0.5220492142322014   T   T   T
  0.3052485871540756  0.7500507278159420  0.6331250948331960   T   T   T
  0.0012514224859765  0.7498776013318358  0.6135390056565495   T   T   T
  0.6972204311579850  0.7500870190952731  0.6331563808615219   T   T   T
  0.8076288709922089  0.7499451366014988  0.7405844490042748   T   T   T
  0.5014663318765150  0.7512960283721936  0.7236766839389460   T   T   T
  0.1954648512779787  0.7499700114877049  0.7406281947929939   T   T   T
  0.8141011533980276  0.7500000002140865  0.3013105672926031   F   F   F
  0.4999999994478088  0.7500000002140865  0.2564174481620327   F   F   F
  0.1858988466019724  0.7500000002140865  0.3013105672926031   F   F   F
  0.3088456122590841  0.0000000000000000  0.4099867722441957   F   F   F
  0.0000000000000000  0.0000000000000000  0.3930971035158137   F   F   F
  0.6911543877409159  0.0000000000000000  0.4099867722441957   F   F   F
  0.8032575944726965 -0.0000030265580015  0.5222328675150844   T   T   T
  0.5006011029358403  0.0001953147725992  0.5030601481542650   T   T   T
  0.1982749570294596  0.0000383847945004  0.5221769404595290   T   T   T
  0.3043713009758078 -0.0006731683046915  0.6334534546965898   T   T   T
  0.0013416236710618 -0.0001477232695341  0.6141357767248395   T   T   T
  0.6984943892505842 -0.0006812001074458  0.6334756059314673   T   T   T
  0.8036916645685598 -0.0012340393855581  0.7423607700687508   T   T   T
  0.5018770210299901  0.0006854517258821  0.7238252403202972   T   T   T
  0.2003913673696192 -0.0010643690715649  0.7424494632491550   T   T   T
  0.1372368959948151  0.1251947500316427  0.7915220167361225   T   T   T
  0.8686596481495296  0.1249782405554426  0.7913096107852460   T   T   T
 
  0.00000000E+00  0.00000000E+00  0.00000000E+00
  0.00000000E+00  0.00000000E+00  0.00000000E+00
  0.00000000E+00  0.00000000E+00  0.00000000E+00
  0.00000000E+00  0.00000000E+00  0.00000000E+00
  0.00000000E+00  0.00000000E+00  0.00000000E+00
  0.00000000E+00  0.00000000E+00  0.00000000E+00
  0.00000000E+00  0.00000000E+00  0.00000000E+00
  0.00000000E+00  0.00000000E+00  0.00000000E+00
  0.00000000E+00  0.00000000E+00  0.00000000E+00
  0.00000000E+00  0.00000000E+00  0.00000000E+00
  0.00000000E+00  0.00000000E+00  0.00000000E+00
  0.00000000E+00  0.00000000E+00  0.00000000E+00
  0.00000000E+00  0.00000000E+00  0.00000000E+00
  0.00000000E+00  0.00000000E+00  0.00000000E+00
  0.00000000E+00  0.00000000E+00  0.00000000E+00
  0.00000000E+00  0.00000000E+00  0.00000000E+00
  0.00000000E+00  0.00000000E+00  0.00000000E+00
  0.00000000E+00  0.00000000E+00  0.00000000E+00
  0.00000000E+00  0.00000000E+00  0.00000000E+00
  0.00000000E+00  0.00000000E+00  0.00000000E+00
  0.00000000E+00  0.00000000E+00  0.00000000E+00
  0.00000000E+00  0.00000000E+00  0.00000000E+00
  0.00000000E+00  0.00000000E+00  0.00000000E+00
  0.00000000E+00  0.00000000E+00  0.00000000E+00
  0.00000000E+00  0.00000000E+00  0.00000000E+00
  0.00000000E+00  0.00000000E+00  0.00000000E+00
  0.00000000E+00  0.00000000E+00  0.00000000E+00
  0.00000000E+00  0.00000000E+00  0.00000000E+00
  0.00000000E+00  0.00000000E+00  0.00000000E+00
  0.00000000E+00  0.00000000E+00  0.00000000E+00
  0.00000000E+00  0.00000000E+00  0.00000000E+00
  0.00000000E+00  0.00000000E+00  0.00000000E+00
  0.00000000E+00  0.00000000E+00  0.00000000E+00
  0.00000000E+00  0.00000000E+00  0.00000000E+00
  0.00000000E+00  0.00000000E+00  0.00000000E+00
  0.00000000E+00  0.00000000E+00  0.00000000E+00
  0.00000000E+00  0.00000000E+00  0.00000000E+00
  0.00000000E+00  0.00000000E+00  0.00000000E+00
  0.00000000E+00  0.00000000E+00  0.00000000E+00
  0.00000000E+00  0.00000000E+00  0.00000000E+00
  0.00000000E+00  0.00000000E+00  0.00000000E+00
  0.00000000E+00  0.00000000E+00  0.00000000E+00
  0.00000000E+00  0.00000000E+00  0.00000000E+00
  0.00000000E+00  0.00000000E+00  0.00000000E+00
  0.00000000E+00  0.00000000E+00  0.00000000E+00
  0.00000000E+00  0.00000000E+00  0.00000000E+00
  0.00000000E+00  0.00000000E+00  0.00000000E+00
  0.00000000E+00  0.00000000E+00  0.00000000E+00
  0.00000000E+00  0.00000000E+00  0.00000000E+00
  0.00000000E+00  0.00000000E+00  0.00000000E+00
  0.00000000E+00  0.00000000E+00  0.00000000E+00
  0.00000000E+00  0.00000000E+00  0.00000000E+00
  0.00000000E+00  0.00000000E+00  0.00000000E+00
  0.00000000E+00  0.00000000E+00  0.00000000E+00
  0.00000000E+00  0.00000000E+00  0.00000000E+00
  0.00000000E+00  0.00000000E+00  0.00000000E+00
  0.00000000E+00  0.00000000E+00  0.00000000E+00
  0.00000000E+00  0.00000000E+00  0.00000000E+00
  0.00000000E+00  0.00000000E+00  0.00000000E+00
  0.00000000E+00  0.00000000E+00  0.00000000E+00
  0.00000000E+00  0.00000000E+00  0.00000000E+00
  0.00000000E+00  0.00000000E+00  0.00000000E+00
  0.00000000E+00  0.00000000E+00  0.00000000E+00
  0.00000000E+00  0.00000000E+00  0.00000000E+00
  0.00000000E+00  0.00000000E+00  0.00000000E+00
  0.00000000E+00  0.00000000E+00  0.00000000E+00
  0.00000000E+00  0.00000000E+00  0.00000000E+00
  0.00000000E+00  0.00000000E+00  0.00000000E+00
  0.00000000E+00  0.00000000E+00  0.00000000E+00
  0.00000000E+00  0.00000000E+00  0.00000000E+00
  0.00000000E+00  0.00000000E+00  0.00000000E+00
  0.00000000E+00  0.00000000E+00  0.00000000E+00
  0.00000000E+00  0.00000000E+00  0.00000000E+00
  0.00000000E+00  0.00000000E+00  0.00000000E+00
  0.00000000E+00  0.00000000E+00  0.00000000E+00
  0.00000000E+00  0.00000000E+00  0.00000000E+00
  0.00000000E+00  0.00000000E+00  0.00000000E+00
  0.00000000E+00  0.00000000E+00  0.00000000E+00
  0.00000000E+00  0.00000000E+00  0.00000000E+00
  0.00000000E+00  0.00000000E+00  0.00000000E+00
  0.00000000E+00  0.00000000E+00  0.00000000E+00
  0.00000000E+00  0.00000000E+00  0.00000000E+00
  0.00000000E+00  0.00000000E+00  0.00000000E+00
  0.00000000E+00  0.00000000E+00  0.00000000E+00
  0.00000000E+00  0.00000000E+00  0.00000000E+00
  0.00000000E+00  0.00000000E+00  0.00000000E+00
  0.00000000E+00  0.00000000E+00  0.00000000E+00
  0.00000000E+00  0.00000000E+00  0.00000000E+00
  0.00000000E+00  0.00000000E+00  0.00000000E+00
  0.00000000E+00  0.00000000E+00  0.00000000E+00
  0.00000000E+00  0.00000000E+00  0.00000000E+00
  0.00000000E+00  0.00000000E+00  0.00000000E+00
  0.00000000E+00  0.00000000E+00  0.00000000E+00
  0.00000000E+00  0.00000000E+00  0.00000000E+00
  0.00000000E+00  0.00000000E+00  0.00000000E+00
  0.00000000E+00  0.00000000E+00  0.00000000E+00
  0.00000000E+00  0.00000000E+00  0.00000000E+00
  0.00000000E+00  0.00000000E+00  0.00000000E+00
  0.00000000E+00  0.00000000E+00  0.00000000E+00
  0.00000000E+00  0.00000000E+00  0.00000000E+00
  0.00000000E+00  0.00000000E+00  0.00000000E+00
  0.00000000E+00  0.00000000E+00  0.00000000E+00
  0.00000000E+00  0.00000000E+00  0.00000000E+00
  0.00000000E+00  0.00000000E+00  0.00000000E+00
  0.00000000E+00  0.00000000E+00  0.00000000E+00
  0.00000000E+00  0.00000000E+00  0.00000000E+00
  0.00000000E+00  0.00000000E+00  0.00000000E+00
  0.00000000E+00  0.00000000E+00  0.00000000E+00
  0.00000000E+00  0.00000000E+00  0.00000000E+00
  0.00000000E+00  0.00000000E+00  0.00000000E+00
  0.00000000E+00  0.00000000E+00  0.00000000E+00
  0.00000000E+00  0.00000000E+00  0.00000000E+00
  0.00000000E+00  0.00000000E+00  0.00000000E+00
  0.00000000E+00  0.00000000E+00  0.00000000E+00
  0.00000000E+00  0.00000000E+00  0.00000000E+00
  0.00000000E+00  0.00000000E+00  0.00000000E+00
  0.00000000E+00  0.00000000E+00  0.00000000E+00
  0.00000000E+00  0.00000000E+00  0.00000000E+00
  0.00000000E+00  0.00000000E+00  0.00000000E+00
  0.00000000E+00  0.00000000E+00  0.00000000E+00
  0.00000000E+00  0.00000000E+00  0.00000000E+00
  0.00000000E+00  0.00000000E+00  0.00000000E+00
