Ta  N Cu                                
   1.00000000000000     
    18.1096308199999996    0.0000000000000000    0.0000000000000000
     0.0000000000000000   23.3551997799999995    0.0000000000000000
     0.0000000000000000    0.0000000000000000   30.4818170799999990
   Ta   N    Cu
   240   240     4
Selective dynamics
Direct
  0.0000000000000000  0.0000000000000000  0.1962037549895328   F   F   F
  0.3335422814544131  0.0625000001605613  0.2032829710819826   F   F   F
  0.1664576892793903  0.0625000001605613  0.2032829710819826   F   F   F
  0.2499999997239044  0.1249999998929567  0.2787808134173062   F   F   F
  0.0825353920715628  0.0625000001605613  0.2838315333135668   F   F   F
  0.4174646079284372  0.0625000001605613  0.2838315333135668   F   F   F
  0.0000353547990269  0.1250216984069836  0.3695676848240256   T   T   T
  0.3322779681979388  0.0624827096118440  0.3683809080012558   T   T   T
  0.1676773950178857  0.0624777704171875  0.3684766308720043   T   T   T
  0.2497426209080230  0.1250987470533967  0.4557915338862455   T   T   T
  0.0835807133740502  0.0624558550673579  0.4545495591472821   T   T   T
  0.4161463887486724  0.0624607387658618  0.4543907056320348   T   T   T
  0.9995034102288182  0.1248291759892477  0.5402067321826852   T   T   T
  0.3366649789766377  0.0623881214179419  0.5425604791684718   T   T   T
  0.1689863159855518  0.0624807374651829  0.5409342350355421   T   T   T
  0.0000000000000000  0.1249999998929567  0.1962037549895328   F   F   F
  0.3335422814544131  0.1875000000535181  0.2032829710819826   F   F   F
  0.1664576892793903  0.1875000000535181  0.2032829710819826   F   F   F
  0.2499999997239044  0.2500000002140865  0.2787808134173062   F   F   F
  0.0825353920715628  0.1875000000535181  0.2838315333135668   F   F   F
  0.4174646079284372  0.1875000000535181  0.2838315333135668   F   F   F
  0.0000204659391002  0.2499512032061462  0.3695492838657037   T   T   T
  0.3322844954754751  0.1874912225821392  0.3684423115687556   T   T   T
  0.1678046701471957  0.1874717097195383  0.3684677626276524   T   T   T
  0.2499109640411448  0.2499791594930985  0.4556531670116149   T   T   T
  0.0837333687703546  0.1875159711659221  0.4543899100012526   T   T   T
  0.4161614407682728  0.1874490588341566  0.4543513017381264   T   T   T
  0.0001507986540074  0.2499679097333808  0.5405339089105833   T   T   T
  0.3358687442033033  0.1872673039341326  0.5423597556244809   T   T   T
  0.1655424906679777  0.1887101199372991  0.5428451286501581   T   T   T
  0.0000000000000000  0.2500000002140865  0.1962037549895328   F   F   F
  0.3335422814544131  0.3124999999464819  0.2032829710819826   F   F   F
  0.1664576892793903  0.3124999999464819  0.2032829710819826   F   F   F
  0.2499999997239044  0.3750000001070433  0.2787808134173062   F   F   F
  0.0825353920715628  0.3124999999464819  0.2838315333135668   F   F   F
  0.4174646079284372  0.3124999999464819  0.2838315333135668   F   F   F
 -0.0000055085435344  0.3750072520150907  0.3695493661896578   T   T   T
  0.3322904031570964  0.3124976998098796  0.3684482502541981   T   T   T
  0.1677996676920450  0.3124899049172244  0.3683626429731385   T   T   T
  0.2499137101902134  0.3750144878336354  0.4556404729474244   T   T   T
  0.0837979908701634  0.3124480956438069  0.4542466977872442   T   T   T
  0.4162570431980101  0.3124293293149389  0.4544769885963899   T   T   T
 -0.0000049038114366  0.3750061088678547  0.5403403089569506   T   T   T
  0.3339025025504825  0.3118593611483651  0.5425003382372314   T   T   T
  0.1638665901796676  0.3132133003672052  0.5423170470054516   T   T   T
  0.0000000000000000  0.3750000001070433  0.1962037549895328   F   F   F
  0.3335422814544131  0.4375000002676046  0.2032829710819826   F   F   F
  0.1664576892793903  0.4375000002676046  0.2032829710819826   F   F   F
  0.2499999997239044  0.0000000000000000  0.2787808134173062   F   F   F
  0.0825353920715628  0.4375000002676046  0.2838315333135668   F   F   F
  0.4174646079284372  0.4375000002676046  0.2838315333135668   F   F   F
  0.0000409997446966  0.9999420173535967  0.3695829594738883   T   T   T
  0.3325280144494550  0.4375053318190880  0.3685452073634040   T   T   T
  0.1678298427509089  0.4374871482194896  0.3683165836446459   T   T   T
  0.2497348204088072  0.9998604244825484  0.4558183107116487   T   T   T
  0.0836417764312403  0.4375038806226328  0.4541928814628081   T   T   T
  0.4162841551166215  0.4374896156632045  0.4545382315102779   T   T   T
  0.9994862614576806  0.0001729853534463  0.5402676724872174   T   T   T
  0.3312165237058756  0.4377657852392879  0.5408696813758543   T   T   T
  0.1632765576402473  0.4376963160716926  0.5421898151722218   T   T   T
  0.0000000000000000  0.5000000000000000  0.1962037549895328   F   F   F
  0.3335422814544131  0.5625000001605613  0.2032829710819826   F   F   F
  0.1664576892793903  0.5625000001605613  0.2032829710819826   F   F   F
  0.2499999997239044  0.6249999998929567  0.2787808134173062   F   F   F
  0.0825353920715628  0.5625000001605613  0.2838315333135668   F   F   F
  0.4174646079284372  0.5625000001605613  0.2838315333135668   F   F   F
  0.9999812878505352  0.6250320921512832  0.3695443925030862   T   T   T
  0.3324225521055285  0.5624690753467807  0.3684847210254661   T   T   T
  0.1677949659842403  0.5625128505173154  0.3683271305644832   T   T   T
  0.2499220237063932  0.6250923735295151  0.4556233824540992   T   T   T
  0.0837371009279885  0.5625879319464243  0.4541977263790817   T   T   T
  0.4163263836949467  0.5625376768373458  0.4545608099268010   T   T   T
  0.9999689519561759  0.6249493860847180  0.5404834897470715   T   T   T
  0.3330865135436519  0.5634642364197555  0.5419778430989310   T   T   T
  0.1636149285798819  0.5622588446399445  0.5422481088303907   T   T   T
  0.0000000000000000  0.6249999998929567  0.1962037549895328   F   F   F
  0.3335422814544131  0.6875000000535181  0.2032829710819826   F   F   F
  0.1664576892793903  0.6875000000535181  0.2032829710819826   F   F   F
  0.2499999997239044  0.7500000002140865  0.2787808134173062   F   F   F
  0.0825353920715628  0.6875000000535181  0.2838315333135668   F   F   F
  0.4174646079284372  0.6875000000535181  0.2838315333135668   F   F   F
  0.0000003715991392  0.7500156637674614  0.3695398260497586   T   T   T
  0.3322718618263596  0.6874789458599775  0.3684527017406604   T   T   T
  0.1678189257191672  0.6875077294430807  0.3683817683016025   T   T   T
  0.2500048386263309  0.7499684100401988  0.4556778154585158   T   T   T
  0.0838472990822681  0.6875410225471592  0.4542430363080810   T   T   T
  0.4161404157617941  0.6875364678703583  0.4543593403409826   T   T   T
  0.9999534204111294  0.7499392499545947  0.5405742864549997   T   T   T
  0.3350361322747263  0.6878160210053790  0.5427195110385258   T   T   T
  0.1645845188261117  0.6870838668851658  0.5424455070169759   T   T   T
  0.0000000000000000  0.7500000002140865  0.1962037549895328   F   F   F
  0.3335422814544131  0.8124999999464819  0.2032829710819826   F   F   F
  0.1664576892793903  0.8124999999464819  0.2032829710819826   F   F   F
  0.2499999997239044  0.8750000001070433  0.2787808134173062   F   F   F
  0.0825353920715628  0.8124999999464819  0.2838315333135668   F   F   F
  0.4174646079284372  0.8124999999464819  0.2838315333135668   F   F   F
  0.0000283811020628  0.8749976112455421  0.3695640123950431   T   T   T
  0.3322815907357911  0.8124926450387114  0.3683876805040212   T   T   T
  0.1677865066760831  0.8124935834075676  0.3683873072924495   T   T   T
  0.2499870316672416  0.8750037127365130  0.4556884056172862   T   T   T
  0.0838757590961275  0.8124506033007117  0.4543484473789597   T   T   T
  0.4161435516826736  0.8124806893444674  0.4544454873891735   T   T   T
  0.0001518990585453  0.8749949148803542  0.5405945143198884   T   T   T
  0.3353214028372307  0.8124118643347290  0.5425521715304328   T   T   T
  0.1646634090297331  0.8118696101045475  0.5425174744176742   T   T   T
  0.0000000000000000  0.8750000001070433  0.1962037549895328   F   F   F
  0.3335422814544131  0.9375000002676046  0.2032829710819826   F   F   F
  0.1664576892793903  0.9375000002676046  0.2032829710819826   F   F   F
  0.2499999997239044  0.5000000000000000  0.2787808134173062   F   F   F
  0.0825353920715628  0.9375000002676046  0.2838315333135668   F   F   F
  0.4174646079284372  0.9375000002676046  0.2838315333135668   F   F   F
  0.9999830922867792  0.4999828614856685  0.3695554046013771   T   T   T
  0.3322559616106517  0.9374974689240007  0.3684282017001244   T   T   T
  0.1677904173031967  0.9374945226530315  0.3684999564962868   T   T   T
  0.2498941396599653  0.4999088059212285  0.4556051395085339   T   T   T
  0.0837735980820308  0.9373729784658952  0.4544519875542845   T   T   T
  0.4161813668281860  0.9374735578011231  0.4543345707133152   T   T   T
  0.9999885674101807  0.5000456532332235  0.5402748344564750   T   T   T
  0.3357528642847831  0.9374177874407866  0.5424183263395127   T   T   T
  0.1656647610751839  0.9362538023394860  0.5429683243247173   T   T   T
  0.5000000000000000  0.0000000000000000  0.1962037549895328   F   F   F
  0.8335422809022219  0.0625000001605613  0.2032829710819826   F   F   F
  0.6664576892793903  0.0625000001605613  0.2032829710819826   F   F   F
  0.7499999997239044  0.1249999998929567  0.2787808134173062   F   F   F
  0.5825353920715628  0.0625000001605613  0.2838315333135668   F   F   F
  0.9174646079284372  0.0625000001605613  0.2838315333135668   F   F   F
  0.4999986102049304  0.1249315589936719  0.3695839610012118   T   T   T
  0.8321794437318563  0.0624814872876902  0.3683520270647780   T   T   T
  0.6676323791475927  0.0624888623311825  0.3683578462182892   T   T   T
  0.7498156724079448  0.1250587708289119  0.4555936904184698   T   T   T
  0.5836854020442095  0.0624791374070229  0.4544274931920668   T   T   T
  0.9159951896844205  0.0624655386564076  0.4542212847434452   T   T   T
  0.5005456074991722  0.1250832141754152  0.5407270161596093   T   T   T
  0.8346773042481149  0.0625202462689148  0.5420278774242729   T   T   T
  0.6649261740792958  0.0624434008898498  0.5425889631213016   T   T   T
  0.5000000000000000  0.1249999998929567  0.1962037549895328   F   F   F
  0.8335422809022219  0.1875000000535181  0.2032829710819826   F   F   F
  0.6664576892793903  0.1875000000535181  0.2032829710819826   F   F   F
  0.7499999997239044  0.2500000002140865  0.2787808134173062   F   F   F
  0.5825353920715628  0.1875000000535181  0.2838315333135668   F   F   F
  0.9174646079284372  0.1875000000535181  0.2838315333135668   F   F   F
  0.4999753267793653  0.2500016043736436  0.3695906207145474   T   T   T
  0.8321048560829710  0.1874884145576394  0.3683343983481372   T   T   T
  0.6676782669556363  0.1875123850339449  0.3684141643327757   T   T   T
  0.7499115527489330  0.2499986362873012  0.4556482787115746   T   T   T
  0.5837445304180980  0.1874785056285226  0.4544038459813157   T   T   T
  0.9160383903062957  0.1874648643868764  0.4541271032358811   T   T   T
  0.5001150175348722  0.2502546413672190  0.5408692079712712   T   T   T
  0.8352369947455149  0.1875787599240867  0.5421710374529585   T   T   T
  0.6649553985679142  0.1874724860857304  0.5425450833832138   T   T   T
  0.5000000000000000  0.2500000002140865  0.1962037549895328   F   F   F
  0.8335422809022219  0.3124999999464819  0.2032829710819826   F   F   F
  0.6664576892793903  0.3124999999464819  0.2032829710819826   F   F   F
  0.7499999997239044  0.3750000001070433  0.2787808134173062   F   F   F
  0.5825353920715628  0.3124999999464819  0.2838315333135668   F   F   F
  0.9174646079284372  0.3124999999464819  0.2838315333135668   F   F   F
  0.4999682608894985  0.3749898818224952  0.3695855671688087   T   T   T
  0.8321204970796480  0.3124943271075231  0.3683301796482890   T   T   T
  0.6676734606309705  0.3125075193150546  0.3684637583638561   T   T   T
  0.7500499102389014  0.3750150378729548  0.4556431361168107   T   T   T
  0.5837156504441676  0.3124586891168355  0.4544920955877274   T   T   T
  0.9161847920710632  0.3124066742703756  0.4541642156080062   T   T   T
  0.5001986607884941  0.3756120164746837  0.5411512189132894   T   T   T
  0.8359837083431962  0.3127524626674605  0.5422865802599551   T   T   T
  0.6662321886795169  0.3119738253445122  0.5426424962538013   T   T   T
  0.5000000000000000  0.3750000001070433  0.1962037549895328   F   F   F
  0.8335422809022219  0.4375000002676046  0.2032829710819826   F   F   F
  0.6664576892793903  0.4375000002676046  0.2032829710819826   F   F   F
  0.7499999997239044  0.0000000000000000  0.2787808134173062   F   F   F
  0.5825353920715628  0.4375000002676046  0.2838315333135668   F   F   F
  0.9174646079284372  0.4375000002676046  0.2838315333135668   F   F   F
  0.4999974467429543  0.0000013796092530  0.3695834591091172   T   T   T
  0.8321216452570871  0.4374929607875745  0.3683046571059941   T   T   T
  0.6674410932083060  0.4375182976607559  0.3685199626379929   T   T   T
  0.7498216918572382  0.9999316307116409  0.4556222071351634   T   T   T
  0.5836591316937894  0.4375198758469490  0.4544787831007361   T   T   T
  0.9163392521151819  0.4374736876268420  0.4541700639890731   T   T   T
  0.5005703705024498  0.0000044470201570  0.5407389024782275   T   T   T
  0.8367463100443286  0.4375537495036247  0.5421675901733173   T   T   T
  0.6688918329018534  0.4378004970460120  0.5407377750318121   T   T   T
  0.5000000000000000  0.5000000000000000  0.1962037549895328   F   F   F
  0.8335422809022219  0.5625000001605613  0.2032829710819826   F   F   F
  0.6664576892793903  0.5625000001605613  0.2032829710819826   F   F   F
  0.7499999997239044  0.6249999998929567  0.2787808134173062   F   F   F
  0.5825353920715628  0.5625000001605613  0.2838315333135668   F   F   F
  0.9174646079284372  0.5625000001605613  0.2838315333135668   F   F   F
  0.4999476455915750  0.6250507010517462  0.3695770433148846   T   T   T
  0.8321770454337321  0.5625219300610237  0.3683182971596234   T   T   T
  0.6675475828733987  0.5624829090125160  0.3684701773020713   T   T   T
  0.7500783540468978  0.6251213672808179  0.4556046764714878   T   T   T
  0.5836141219864328  0.5625581245739630  0.4544887287968982   T   T   T
  0.9162572773439603  0.5626072898055791  0.4542046457475030   T   T   T
  0.5000003448531367  0.6233117774992766  0.5411530599334460   T   T   T
  0.8364036986980087  0.5622897235193498  0.5421924214261378   T   T   T
  0.6669369411294275  0.5635362086192410  0.5418895214947569   T   T   T
  0.5000000000000000  0.6249999998929567  0.1962037549895328   F   F   F
  0.8335422809022219  0.6875000000535181  0.2032829710819826   F   F   F
  0.6664576892793903  0.6875000000535181  0.2032829710819826   F   F   F
  0.7499999997239044  0.7500000002140865  0.2787808134173062   F   F   F
  0.5825353920715628  0.6875000000535181  0.2838315333135668   F   F   F
  0.9174646079284372  0.6875000000535181  0.2838315333135668   F   F   F
  0.4999603763462872  0.7499957564419145  0.3695839527132728   T   T   T
  0.8321291727194714  0.6875200674412923  0.3683667350623865   T   T   T
  0.6676971947775338  0.6874875688434889  0.3684388545743631   T   T   T
  0.7499589808355112  0.7499919909725639  0.4556824219440757   T   T   T
  0.5837604166682029  0.6875405128665446  0.4543280299150811   T   T   T
  0.9161373315492919  0.6875974249883909  0.4542175280110108   T   T   T
  0.5000115539055903  0.7495999068943722  0.5408568883348905   T   T   T
  0.8353409434641689  0.6873101542694894  0.5424255429942458   T   T   T
  0.6649501736254759  0.6878856040192985  0.5426279064575293   T   T   T
  0.5000000000000000  0.7500000002140865  0.1962037549895328   F   F   F
  0.8335422809022219  0.8124999999464819  0.2032829710819826   F   F   F
  0.6664576892793903  0.8124999999464819  0.2032829710819826   F   F   F
  0.7499999997239044  0.8750000001070433  0.2787808134173062   F   F   F
  0.5825353920715628  0.8124999999464819  0.2838315333135668   F   F   F
  0.9174646079284372  0.8124999999464819  0.2838315333135668   F   F   F
  0.4999639610215508  0.8750208974880350  0.3695687584242943   T   T   T
  0.8321478776005672  0.8124989885583674  0.3683516702983150   T   T   T
  0.6676827896293099  0.8124929337754571  0.3684052406349955   T   T   T
  0.7498685306725700  0.8750217779674849  0.4556691571355876   T   T   T
  0.5837928434235583  0.8124838385995904  0.4544294206113027   T   T   T
  0.9161354925570853  0.8125080851465888  0.4542653525582408   T   T   T
  0.5001017440783431  0.8748213900503816  0.5407816024653861   T   T   T
  0.8351739268886657  0.8124901524130175  0.5425052160298222   T   T   T
  0.6649124167910281  0.8124820064796795  0.5425464191411558   T   T   T
  0.5000000000000000  0.8750000001070433  0.1962037549895328   F   F   F
  0.8335422809022219  0.9375000002676046  0.2032829710819826   F   F   F
  0.6664576892793903  0.9375000002676046  0.2032829710819826   F   F   F
  0.7499999997239044  0.5000000000000000  0.2787808134173062   F   F   F
  0.5825353920715628  0.9375000002676046  0.2838315333135668   F   F   F
  0.9174646079284372  0.9375000002676046  0.2838315333135668   F   F   F
  0.4999614558112007  0.4999489474545923  0.3695802700558785   T   T   T
  0.8321408137712509  0.9374855193874849  0.3683668532154430   T   T   T
  0.6677217497220391  0.9374903201727094  0.3683942453567083   T   T   T
  0.7501556079281824  0.4999364858654589  0.4555633062189806   T   T   T
  0.5837335458823156  0.9374683288436225  0.4543636739969423   T   T   T
  0.9160128426498091  0.9374430991033502  0.4541975997453646   T   T   T
  0.5000847795380403  0.4990690607952371  0.5410844739283885   T   T   T
  0.8351106008212124  0.9374982881857369  0.5422647080035080   T   T   T
  0.6651114417719433  0.9373065137725011  0.5425764757200450   T   T   T
  0.4070505905542277  0.0000000000000000  0.2321160648471405   F   F   F
  0.2499999997239044  0.0000000000000000  0.1975324349659786   F   F   F
  0.0929494094457723  0.0000000000000000  0.2321160648471405   F   F   F
  0.1544227962345630  0.1249999998929567  0.3158353176496362   F   F   F
  0.0000000000000000  0.1249999998929567  0.3028242704748862   F   F   F
  0.3455772037654370  0.1249999998929567  0.3158353176496362   F   F   F
  0.4009958748526077  0.1249667358226149  0.4020829117202242   T   T   T
  0.2499674370411014  0.1249145928373051  0.3876981881515839   T   T   T
  0.0990209029888344  0.1249716645851719  0.4021616558138275   T   T   T
  0.1509991358455729  0.1253369675751023  0.4883153821609985   T   T   T
  0.9997474918798059  0.1250296979693429  0.4721988550088589   T   T   T
  0.3486328067668062  0.1250152722012476  0.4876792762100221   T   T   T
  0.4035175702284893  0.1251782984689569  0.5703351941669392   T   T   T
  0.2506190472826975  0.1248723936666724  0.5577764303779605   T   T   T
  0.0973334723710027  0.1258354949473320  0.5724185078439959   T   T   T
  0.4070505905542277  0.1249999998929567  0.2321160648471405   F   F   F
  0.2499999997239044  0.1249999998929567  0.1975324349659786   F   F   F
  0.0929494094457723  0.1249999998929567  0.2321160648471405   F   F   F
  0.1544227962345630  0.2500000002140865  0.3158353176496362   F   F   F
  0.0000000000000000  0.2500000002140865  0.3028242704748862   F   F   F
  0.3455772037654370  0.2500000002140865  0.3158353176496362   F   F   F
  0.4010605354687542  0.2500138010946882  0.4021612304665214   T   T   T
  0.2500624938107441  0.2499870007412891  0.3875696835329197   T   T   T
  0.0990397510041773  0.2499339569882829  0.4020745572656761   T   T   T
  0.1513620628320234  0.2499333863704691  0.4877780702792637   T   T   T
  0.9999342136444866  0.2498714734391601  0.4723342691403727   T   T   T
  0.3485493326914900  0.2499997125055199  0.4877527771287916   T   T   T
  0.4027988462785514  0.2503989716006711  0.5703695980811858   T   T   T
  0.2499489671791005  0.2499706500883658  0.5574656653843553   T   T   T
  0.0970601560138933  0.2500110175539298  0.5704595471640116   T   T   T
  0.4070505905542277  0.2500000002140865  0.2321160648471405   F   F   F
  0.2499999997239044  0.2500000002140865  0.1975324349659786   F   F   F
  0.0929494094457723  0.2500000002140865  0.2321160648471405   F   F   F
  0.1544227962345630  0.3750000001070433  0.3158353176496362   F   F   F
  0.0000000000000000  0.3750000001070433  0.3028242704748862   F   F   F
  0.3455772037654370  0.3750000001070433  0.3158353176496362   F   F   F
  0.4010930256862874  0.3749406845313708  0.4022285378359931   T   T   T
  0.2500980901665840  0.3750018678076540  0.3876080789053541   T   T   T
  0.0990620033164850  0.3749711077769451  0.4019628957631203   T   T   T
  0.1511525094535567  0.3749362936641678  0.4876225034919392   T   T   T
  0.9999634879635271  0.3748530610675286  0.4721208146137000   T   T   T
  0.3486960191429940  0.3747135025182062  0.4879942947146642   T   T   T
  0.4008308087350724  0.3750283638609899  0.5715787107230516   T   T   T
  0.2486890255770331  0.3749451862918979  0.5579929910914105   T   T   T
  0.0962295116003003  0.3750279484339967  0.5703760297106156   T   T   T
  0.4070505905542277  0.3750000001070433  0.2321160648471405   F   F   F
  0.2499999997239044  0.3750000001070433  0.1975324349659786   F   F   F
  0.0929494094457723  0.3750000001070433  0.2321160648471405   F   F   F
  0.1544227962345630  0.0000000000000000  0.3158353176496362   F   F   F
  0.0000000000000000  0.0000000000000000  0.3028242704748862   F   F   F
  0.3455772037654370  0.0000000000000000  0.3158353176496362   F   F   F
  0.4009838168827236 -0.0000133500553288  0.4020806478721564   T   T   T
  0.2499652967468088  0.0000584352143124  0.3877118331245445   T   T   T
  0.0990128852449555  0.9999673332845863  0.4021827745489577   T   T   T
  0.1509854765934512  0.9996120624215844  0.4883644619728020   T   T   T
  0.9997552548889984  0.9998618718287005  0.4722396364981415   T   T   T
  0.3486093611699685  0.9998712959424624  0.4876762143056174   T   T   T
  0.4035239054565187  0.9997754884287193  0.5703028797832340   T   T   T
  0.2505954477182336  0.0002480618921431  0.5578097363155894   T   T   T
  0.0973033565292204  0.9991376332331308  0.5724847968531360   T   T   T
  0.4070505905542277  0.5000000000000000  0.2321160648471405   F   F   F
  0.2499999997239044  0.5000000000000000  0.1975324349659786   F   F   F
  0.0929494094457723  0.5000000000000000  0.2321160648471405   F   F   F
  0.1544227962345630  0.6249999998929567  0.3158353176496362   F   F   F
  0.0000000000000000  0.6249999998929567  0.3028242704748862   F   F   F
  0.3455772037654370  0.6249999998929567  0.3158353176496362   F   F   F
  0.4010537085486531  0.6249767129615689  0.4021796771836094   T   T   T
  0.2500726229302831  0.6249814571734092  0.3875577362154990   T   T   T
  0.0990333647087706  0.6250706549085576  0.4019842328353960   T   T   T
  0.1513247538026311  0.6251421256826808  0.4876406922538118   T   T   T
  0.9999831381316311  0.6251356541595613  0.4722520067772382   T   T   T
  0.3485507909017375  0.6253140744263013  0.4878032734484246   T   T   T
  0.4026174844001947  0.6241368827474757  0.5707485815025403   T   T   T
  0.2495209724146179  0.6246841819071796  0.5577980154295364   T   T   T
  0.0965617759044809  0.6250169157853814  0.5702719321208193   T   T   T
  0.4070505905542277  0.6249999998929567  0.2321160648471405   F   F   F
  0.2499999997239044  0.6249999998929567  0.1975324349659786   F   F   F
  0.0929494094457723  0.6249999998929567  0.2321160648471405   F   F   F
  0.1544227962345630  0.7500000002140865  0.3158353176496362   F   F   F
  0.0000000000000000  0.7500000002140865  0.3028242704748862   F   F   F
  0.3455772037654370  0.7500000002140865  0.3158353176496362   F   F   F
  0.4010261875767658  0.7500191096827912  0.4021749533837848   T   T   T
  0.2500301350404425  0.7500189975363267  0.3875850208420650   T   T   T
  0.0990180293405946  0.7500066218468077  0.4020509796486351   T   T   T
  0.1514259084007126  0.7499128207157398  0.4876793561306869   T   T   T
  0.9999644763601556  0.7500879261856264  0.4723885113323413   T   T   T
  0.3485606687438440  0.7499887077704629  0.4878397331945398   T   T   T
  0.4030122059348282  0.7497770235842065  0.5704143049420261   T   T   T
  0.2500620612016649  0.7498501586548744  0.5577978180605744   T   T   T
  0.0968854830377410  0.7497720493738921  0.5701799464498136   T   T   T
  0.4070505905542277  0.7500000002140865  0.2321160648471405   F   F   F
  0.2499999997239044  0.7500000002140865  0.1975324349659786   F   F   F
  0.0929494094457723  0.7500000002140865  0.2321160648471405   F   F   F
  0.1544227962345630  0.8750000001070433  0.3158353176496362   F   F   F
  0.0000000000000000  0.8750000001070433  0.3028242704748862   F   F   F
  0.3455772037654370  0.8750000001070433  0.3158353176496362   F   F   F
  0.4010192795879131  0.8749799870062305  0.4021194543611456   T   T   T
  0.2500566303891872  0.8749767037548599  0.3876077766967533   T   T   T
  0.0990351090718155  0.8749928078789657  0.4021321962327122   T   T   T
  0.1514409264574435  0.8748903742110087  0.4878559874183138   T   T   T
  0.9999451654821360  0.8750189169068903  0.4724414861108386   T   T   T
  0.3485846213920813  0.8749822406126730  0.4877635801134391   T   T   T
  0.4029852347301611  0.8748362283897025  0.5702974723849051   T   T   T
  0.2498570071172322  0.8753748835311187  0.5576853296401588   T   T   T
  0.0971704355457895  0.8747548079664134  0.5704197708225874   T   T   T
  0.4070505905542277  0.8750000001070433  0.2321160648471405   F   F   F
  0.2499999997239044  0.8750000001070433  0.1975324349659786   F   F   F
  0.0929494094457723  0.8750000001070433  0.2321160648471405   F   F   F
  0.1544227962345630  0.5000000000000000  0.3158353176496362   F   F   F
  0.0000000000000000  0.5000000000000000  0.3028242704748862   F   F   F
  0.3455772037654370  0.5000000000000000  0.3158353176496362   F   F   F
  0.4010572640902789  0.4999966244718519  0.4022108656183051   T   T   T
  0.2501029558897320  0.4999912566809838  0.3876206495666975   T   T   T
  0.0990754828677549  0.4999983035636107  0.4019291240389265   T   T   T
  0.1510873254988595  0.5000574281995377  0.4875578791380475   T   T   T
  0.9999911176065762  0.5000619568225889  0.4720555959305137   T   T   T
  0.3488017144353723  0.5001382553320411  0.4878157621856496   T   T   T
  0.3978971095698733  0.5004990508895863  0.5709182334116600   T   T   T
  0.2481595255309276  0.4999150092474476  0.5576427487590278   T   T   T
  0.0961233349943700  0.5000336158815941  0.5703303017192176   T   T   T
  0.9070505905542277  0.0000000000000000  0.2321160648471405   F   F   F
  0.7499999997239044  0.0000000000000000  0.1975324349659786   F   F   F
  0.5929494094457723  0.0000000000000000  0.2321160648471405   F   F   F
  0.6544227962345630  0.1249999998929567  0.3158353176496362   F   F   F
  0.5000000000000000  0.1249999998929567  0.3028242704748862   F   F   F
  0.8455772037654370  0.1249999998929567  0.3158353176496362   F   F   F
  0.9008968454769314  0.1249780552358187  0.4019514491441549   T   T   T
  0.7498822502509983  0.1249624366355030  0.3875425384786340   T   T   T
  0.5989515825160905  0.1250066961440596  0.4021300931476944   T   T   T
  0.6512945497278745  0.1249787169090100  0.4877768616722886   T   T   T
  0.4999926490976293  0.1250426497241164  0.4725408929316771   T   T   T
  0.8483912296390914  0.1250693498086563  0.4875474946520431   T   T   T
  0.9034168365046175  0.1248075794967083  0.5698326303209551   T   T   T
  0.7501589741917495  0.1251300443559579  0.5576763234718423   T   T   T
  0.5972762729210752  0.1250914154802970  0.5703835848420173   T   T   T
  0.9070505905542277  0.1249999998929567  0.2321160648471405   F   F   F
  0.7499999997239044  0.1249999998929567  0.1975324349659786   F   F   F
  0.5929494094457723  0.1249999998929567  0.2321160648471405   F   F   F
  0.6544227962345630  0.2500000002140865  0.3158353176496362   F   F   F
  0.5000000000000000  0.2500000002140865  0.3028242704748862   F   F   F
  0.8455772037654370  0.2500000002140865  0.3158353176496362   F   F   F
  0.9009185361843556  0.2499582732902103  0.4019391041271638   T   T   T
  0.7498886106515354  0.2499919897957553  0.3875458761808628   T   T   T
  0.5988719506073572  0.2500213532937629  0.4021877598921151   T   T   T
  0.6513852734138081  0.2500468882283422  0.4878266704972981   T   T   T
  0.4999774398285280  0.2500821030657591  0.4726821270073563   T   T   T
  0.8485680111242333  0.2498921708473753  0.4875461758394882   T   T   T
  0.9033618953388337  0.2497324359958038  0.5700750431418912   T   T   T
  0.7499638116331596  0.2504438261674913  0.5575376676790126   T   T   T
  0.5971340563329119  0.2504063865488368  0.5704231477513850   T   T   T
  0.9070505905542277  0.2500000002140865  0.2321160648471405   F   F   F
  0.7499999997239044  0.2500000002140865  0.1975324349659786   F   F   F
  0.5929494094457723  0.2500000002140865  0.2321160648471405   F   F   F
  0.6544227962345630  0.3750000001070433  0.3158353176496362   F   F   F
  0.5000000000000000  0.3750000001070433  0.3028242704748862   F   F   F
  0.8455772037654370  0.3750000001070433  0.3158353176496362   F   F   F
  0.9009200698675797  0.3749666584624342  0.4019272017195146   T   T   T
  0.7498514555285231  0.3750172700362479  0.3876000749139090   T   T   T
  0.5988432085474289  0.3749499677447447  0.4022132372389982   T   T   T
  0.6512398308640116  0.3747517802773721  0.4879823182109962   T   T   T
  0.4999956754422417  0.3748750320270420  0.4730946116188901   T   T   T
  0.8488211484968782  0.3748198621802487  0.4875889883641764   T   T   T
  0.9038006693615592  0.3748210540156319  0.5703060397410621   T   T   T
  0.7513976536590291  0.3750144086610186  0.5579336702739847   T   T   T
  0.5991276543184993  0.3756393887423161  0.5717998551791507   T   T   T
  0.9070505905542277  0.3750000001070433  0.2321160648471405   F   F   F