Cu	N	Ru	Ta                              
   1.00000000000000     
    18.1096308199999996    0.0000000000000000    0.0000000000000000
     0.0000000000000000   23.3551997799999995    0.0000000000000000
     0.0000000000000000    0.0000000000000000   30.4818171199999988
   Cu   N    Ru   Ta
     1   240    48   192
Selective dynamics
Direct
  0.6091602698139401  0.4382578972963735  0.5846733414582573   T   T   T
  0.0000000000000000  0.0000000000000000  0.3032267788896164   F   F   F
  0.0000000000000000  0.5000000000000000  0.3032267788896164   F   F   F
  0.0000000000000000  0.6249999998929567  0.3032267788896164   F   F   F
  0.0000000000000000  0.7500000002140865  0.3032267788896164   F   F   F
  0.0000000000000000  0.8750000001070433  0.3032267788896164   F   F   F
  0.0000000000000000  0.1249999998929567  0.3032267788896164   F   F   F
  0.0000000000000000  0.2500000002140865  0.3032267788896164   F   F   F
  0.0000000000000000  0.3750000001070433  0.3032267788896164   F   F   F
  0.9993663555056872  0.8746340927118919  0.4730486150351346   T   T   T
 -0.0001815454783827  0.7495781326312645  0.4734548890194880   T   T   T
  0.0000958189473860  0.5014793215095745  0.4727557571115716   T   T   T
  0.0003976235898616  0.9998285531763165  0.4739439262533874   T   T   T
  0.0003328858006076  0.3734416772834139  0.4728898345417524   T   T   T
  0.0012950642186260  0.1244525816962143  0.4741220559615337   T   T   T
  0.0288409218606631  0.6601577815070847  0.5528326711960927   T   T   T
  0.0312718133290239  0.2102670976215416  0.5520600726224847   T   T   T
  0.5834341647543853  0.1264370756280414  0.5700326124251085   T   T   T
  0.5822506076995276  0.7503746174444915  0.5705411049298057   T   T   T
  0.5941133989389655  0.0000000000000000  0.2322132027803434   F   F   F
  0.5941133989389655  0.5000000000000000  0.2322132027803434   F   F   F
  0.5941133989389655  0.6249999998929567  0.2322132027803434   F   F   F
  0.5941133989389655  0.7500000002140865  0.2322132027803434   F   F   F
  0.5941133989389655  0.8750000001070433  0.2322132027803434   F   F   F
  0.5941133989389655  0.1249999998929567  0.2322132027803434   F   F   F
  0.5941133989389655  0.2500000002140865  0.2322132027803434   F   F   F
  0.5941133989389655  0.3750000001070433  0.2322132027803434   F   F   F
  0.5985332143133533  0.6245709180889023  0.4029384152644191   T   T   T
  0.5987927395611699  0.2506244449542509  0.4029362031881053   T   T   T
  0.5990384247768387  0.4996764756158413  0.4020615924821004   T   T   T
  0.5991828003298423  0.3753833820606386  0.4020268426203037   T   T   T
  0.5997915747108017  0.9998271341046318  0.4018544304150505   T   T   T
  0.5999282338211627  0.1259315501674865  0.4024170444351790   T   T   T
  0.5998157888116010  0.7491722089051059  0.4024752354322662   T   T   T
  0.5999517742526846  0.8754972287230927  0.4018857619075387   T   T   T
  0.6135066544736568  0.5165262676252955  0.5806310823597503   T   T   T
  0.6198942567342128  0.9953136478503749  0.5703538002737558   T   T   T
  0.6200735834552179  0.8808834153960154  0.5702720199867993   T   T   T
  0.6150762164534253  0.3600283396941182  0.5803437981280914   T   T   T
  0.6492586969132080  0.6211551317096944  0.4862129752244821   T   T   T
  0.6496687143543660  0.2540783698044393  0.4863907262477047   T   T   T
  0.6506549799466030  0.7513019144667714  0.4862633354051036   T   T   T
  0.6510737255454735  0.1241176943396096  0.4860114523387389   T   T   T
  0.6512678340922847  0.4979683016057814  0.4869860886384079   T   T   T
  0.6516336961434377  0.3773158373987565  0.4868501316759960   T   T   T
  0.6545990963497701  0.0000000000000000  0.3156671842141137   F   F   F
  0.6545990963497701  0.5000000000000000  0.3156671842141137   F   F   F
  0.6545990963497701  0.6249999998929567  0.3156671842141137   F   F   F
  0.6545990963497701  0.7500000002140865  0.3156671842141137   F   F   F
  0.6545990963497701  0.8750000001070433  0.3156671842141137   F   F   F
  0.6545990963497701  0.1249999998929567  0.3156671842141137   F   F   F
  0.6545990963497701  0.2500000002140865  0.3156671842141137   F   F   F
  0.6545990963497701  0.3750000001070433  0.3156671842141137   F   F   F
  0.6533144441892226  0.8756858927177168  0.4857174907649522   T   T   T
  0.6535663415510365  0.9997867593596669  0.4856522380120248   T   T   T
  0.6881077319307508  0.6373613051515540  0.5681443550982792   T   T   T
  0.6903980470972029  0.2386976667882050  0.5682278971321876   T   T   T
  0.7499999997239044  0.0000000000000000  0.1996562654398630   F   F   F
  0.7499999997239044  0.5000000000000000  0.1996562654398630   F   F   F
  0.7499999997239044  0.6249999998929567  0.1996562654398630   F   F   F
  0.7499999997239044  0.7500000002140865  0.1996562654398630   F   F   F
  0.7499999997239044  0.8750000001070433  0.1996562654398630   F   F   F
  0.7499999997239044  0.1249999998929567  0.1996562654398630   F   F   F
  0.7499999997239044  0.2500000002140865  0.1996562654398630   F   F   F
  0.7499999997239044  0.3750000001070433  0.1996562654398630   F   F   F
  0.7497227160939279  0.7499341353798988  0.3883711557738114   T   T   T
  0.7496316914657541  0.6250165039640487  0.3888851413892748   T   T   T
  0.7499513725470074  0.8747134877121557  0.3867744419077512   T   T   T
  0.7498607969578551  0.2499790277402169  0.3889545017845773   T   T   T
  0.7500852797321849  0.0003895985077845  0.3868168784459849   T   T   T
  0.7499574343615435  0.1250777701201665  0.3883353263815629   T   T   T
  0.7500135143709709  0.4999784645640830  0.3878051528611323   T   T   T
  0.7500911271611314  0.3749324970338839  0.3877581706226665   T   T   T
  0.7521618683350816  0.5065037622947897  0.5578455499638115   T   T   T
  0.7543866010125816  0.3686680753054865  0.5578194368378407   T   T   T
  0.7648692036301723  0.8827165037197039  0.5580557009578058   T   T   T
  0.7656483590268458  0.9931610647948855  0.5580008574543409   T   T   T
  0.7661389589748488  0.7426761339526773  0.5520598567397357   T   T   T
  0.7681423530554728  0.1335323655215395  0.5517573902006196   T   T   T
  0.0783537810405405  0.8788397246743996  0.5769458006028071   T   T   T
  0.0839153691323265  0.9903409967816821  0.5790533881066710   T   T   T
  0.8454009036502299  0.0000000000000000  0.3156671842141137   F   F   F
  0.8454009036502299  0.5000000000000000  0.3156671842141137   F   F   F
  0.8454009036502299  0.6249999998929567  0.3156671842141137   F   F   F
  0.8454009036502299  0.7500000002140865  0.3156671842141137   F   F   F
  0.8454009036502299  0.8750000001070433  0.3156671842141137   F   F   F
  0.8454009036502299  0.1249999998929567  0.3156671842141137   F   F   F
  0.8454009036502299  0.2500000002140865  0.3156671842141137   F   F   F
  0.8454009036502299  0.3750000001070433  0.3156671842141137   F   F   F
  0.8491568002029801  0.8748459874190947  0.4855784085425590   T   T   T
  0.8496589606313835  0.0007163505508203  0.4857180125592917   T   T   T
  0.8500266828987588  0.5019928621888602  0.4872275368018388   T   T   T
  0.8503570717854817  0.3727332620110770  0.4874278943959094   T   T   T
  0.8514269545542464  0.7538767535047604  0.4846430960252787   T   T   T
  0.8542878828904855  0.2466061036824131  0.4852420770104045   T   T   T
  0.8522136616180052  0.1209828713048270  0.4845197063545150   T   T   T
  0.8534473736286946  0.6277190667036644  0.4846871130408499   T   T   T
  0.8590866238631248  0.6194070605985501  0.5732573248384758   T   T   T
  0.8617089477446158  0.2556711320703691  0.5733698218820650   T   T   T
  0.8995526987371765  0.6253978338231915  0.4006126220365809   T   T   T
  0.8999488043729817  0.4999621479030817  0.4019175939500175   T   T   T
  0.9000868451503252  0.3747985148540280  0.4021209995036876   T   T   T
  0.8999483074128783  0.2494868337913614  0.4009284314131084   T   T   T
  0.9007610066470390  0.7512594847234815  0.4008409960021135   T   T   T
  0.9014635514581150  0.8752811956363026  0.4014405697436124   T   T   T
  0.9018025980197339  0.9996730592726437  0.4015415019276946   T   T   T
  0.9014494231728927  0.1235563060217575  0.4009760839653775   T   T   T
  0.9058866010610345  0.0000000000000000  0.2322132027803434   F   F   F
  0.9058866010610345  0.5000000000000000  0.2322132027803434   F   F   F
  0.9058866010610345  0.6249999998929567  0.2322132027803434   F   F   F
  0.9058866010610345  0.7500000002140865  0.2322132027803434   F   F   F
  0.9058866010610345  0.8750000001070433  0.2322132027803434   F   F   F
  0.9058866010610345  0.1249999998929567  0.2322132027803434   F   F   F
  0.9058866010610345  0.2500000002140865  0.2322132027803434   F   F   F
  0.9058866010610345  0.3750000001070433  0.2322132027803434   F   F   F
  0.9073389823554273  0.8797792862900248  0.5715848100366583   T   T   T
  0.9126752773330797  0.9915182987979176  0.5720400792741673   T   T   T
  0.9202128156151808  0.4981205302324300  0.5766396870076738   T   T   T
  0.9217109054201773  0.3780292641910898  0.5768647319652458   T   T   T
  0.9326198675862409  0.7589883924827697  0.5847957410008225   T   T   T
  0.0941133989389655  0.0000000000000000  0.2322132027803434   F   F   F
  0.0941133989389655  0.5000000000000000  0.2322132027803434   F   F   F
  0.0941133989389655  0.6249999998929567  0.2322132027803434   F   F   F
  0.0941133989389655  0.7500000002140865  0.2322132027803434   F   F   F
  0.0941133989389655  0.8750000001070433  0.2322132027803434   F   F   F
  0.0941133989389655  0.1249999998929567  0.2322132027803434   F   F   F
  0.0941133989389655  0.2500000002140865  0.2322132027803434   F   F   F
  0.0941133989389655  0.3750000001070433  0.2322132027803434   F   F   F
  0.9406500320639222  0.1110803552042914  0.5848042991071689   T   T   T
  0.0957260923610895  0.7493177827596817  0.5726256806180368   T   T   T
  0.0948685906750973  0.5101242209874148  0.5660670395221257   T   T   T
  0.9973231843526157  0.6255418145050486  0.4698953711177239   T   T   T
  0.9980032831972948  0.2491818255103277  0.4704130756500592   T   T   T
  0.0991650342701618  0.2505826548763520  0.4010620918141167   T   T   T
  0.0989669179101155  0.3747154791890863  0.4010104440014293   T   T   T
  0.0989707931206202  0.5001678634801449  0.4010830102583051   T   T   T
  0.0990253128036748  0.6242677588537929  0.4010655168221527   T   T   T
  0.0997419434642251  0.8745560068582313  0.4023386234401913   T   T   T
  0.0998875847801134  0.7497380732462635  0.4014869385610961   T   T   T
  0.1000661320903903  0.1246792834656341  0.4017557666647422   T   T   T
  0.0998071332901829  0.0002909473807993  0.4025757862140015   T   T   T
  0.0966242740233748  0.3678194210731713  0.5659133414254331   T   T   T
  0.1060038007984691  0.1201911732311364  0.5706931824343879   T   T   T
  0.1476465619073296  0.6225864524348446  0.4853416922439357   T   T   T
  0.1487182022933098  0.2523936716296989  0.4851744231279056   T   T   T
  0.1494375717488945  0.7474625679981192  0.4871576804233066   T   T   T
  0.1495045032211763  0.8713932482728666  0.4880970037605257   T   T   T
  0.1497404621849064  0.0009376784752927  0.4874051843151355   T   T   T
  0.1515142405214006  0.4987800774200817  0.4845435196680430   T   T   T
  0.1516821540845124  0.3757319042501540  0.4839172860920158   T   T   T
  0.1516003549545929  0.1283047314988883  0.4861341817155385   T   T   T
  0.1545990963497701  0.0000000000000000  0.3156671842141137   F   F   F
  0.1545990963497701  0.5000000000000000  0.3156671842141137   F   F   F
  0.1545990963497701  0.6249999998929567  0.3156671842141137   F   F   F
  0.1545990963497701  0.7500000002140865  0.3156671842141137   F   F   F
  0.1545990963497701  0.8750000001070433  0.3156671842141137   F   F   F
  0.1545990963497701  0.1249999998929567  0.3156671842141137   F   F   F
  0.1545990963497701  0.2500000002140865  0.3156671842141137   F   F   F
  0.1545990963497701  0.3750000001070433  0.3156671842141137   F   F   F
  0.1916941524678252  0.6277433289614380  0.5674981281117554   T   T   T
  0.1903362231426503  0.2490926005005513  0.5672651539190511   T   T   T
  0.2424839084610443  0.0174269753970417  0.5538924092379928   T   T   T
  0.2499999997239044  0.0000000000000000  0.1996562654398630   F   F   F
  0.2499999997239044  0.5000000000000000  0.1996562654398630   F   F   F
  0.2499999997239044  0.6249999998929567  0.1996562654398630   F   F   F
  0.2499999997239044  0.7500000002140865  0.1996562654398630   F   F   F
  0.2499999997239044  0.8750000001070433  0.1996562654398630   F   F   F
  0.2499999997239044  0.1249999998929567  0.1996562654398630   F   F   F
  0.2499999997239044  0.2500000002140865  0.1996562654398630   F   F   F
  0.2499999997239044  0.3750000001070433  0.1996562654398630   F   F   F
  0.2499372532098678  0.3749924187160146  0.3877786396158939   T   T   T
  0.2498847802274617  0.5001083930045855  0.3878568099317582   T   T   T
  0.2502236907397841  0.2499266516348580  0.3881109507809501   T   T   T
  0.2499576174436633  0.8750376737231880  0.3889110192158670   T   T   T
  0.2501996788194031  0.6252259474897798  0.3883733755684026   T   T   T
  0.2499903088798587  0.9998749071782551  0.3880040760162131   T   T   T
  0.2502321263915940  0.1249629990182012  0.3877804221636247   T   T   T
  0.2501995571895325  0.7501744927521551  0.3885311809625026   T   T   T
  0.2573565106866388  0.5055341000357418  0.5598033243240605   T   T   T
  0.2570570826367029  0.3709685585931518  0.5593632520750484   T   T   T
  0.2762632991078601  0.1426151712527924  0.5539267383552602   T   T   T
  0.2656743219465451  0.8734973162547074  0.5555335415151341   T   T   T
  0.2746896767518620  0.7396051109246229  0.5548379758760872   T   T   T
  0.3454009036502299  0.0000000000000000  0.3156671842141137   F   F   F
  0.3454009036502299  0.5000000000000000  0.3156671842141137   F   F   F
  0.3454009036502299  0.6249999998929567  0.3156671842141137   F   F   F
  0.3454009036502299  0.7500000002140865  0.3156671842141137   F   F   F
  0.3454009036502299  0.8750000001070433  0.3156671842141137   F   F   F
  0.3454009036502299  0.1249999998929567  0.3156671842141137   F   F   F
  0.3454009036502299  0.2500000002140865  0.3156671842141137   F   F   F
  0.3454009036502299  0.3750000001070433  0.3156671842141137   F   F   F
  0.3482832644804481  0.9990071787969993  0.4885682840287708   T   T   T
  0.3503206418643903  0.5012672234343869  0.4899769140364559   T   T   T
  0.3505462848990585  0.3745315686015619  0.4900822566377396   T   T   T
  0.3513697418087133  0.1228594194547903  0.4818844742526612   T   T   T
  0.3509705310484271  0.7532570879483619  0.4821218036725645   T   T   T
  0.3510142464343501  0.8754157811258176  0.4868070922435942   T   T   T
  0.3518714617073199  0.6300157315345666  0.4853481254004888   T   T   T
  0.3524659011029921  0.2459318892575744  0.4855510047073048   T   T   T
  0.3591656385316440  0.6203091810724859  0.5746061795801493   T   T   T
  0.3623672964055522  0.2578295386743699  0.5751168120356681   T   T   T
  0.3996684182628319  0.4998656702136035  0.4028399658195370   T   T   T
  0.3997275006085709  0.3755043712327697  0.4028124204759979   T   T   T
  0.4003619459867320  0.6249297690794724  0.4015172250862005   T   T   T
  0.4004844286219963  0.2503847601228875  0.4014786194594560   T   T   T
  0.4016569715894471  0.7514435734515074  0.4006100024717636   T   T   T
  0.4015655655166316  0.9991581446527402  0.4026932972007728   T   T   T
  0.4017426268959711  0.1237099415057491  0.4007313100039144   T   T   T
  0.4020121410815790  0.8762424176592597  0.4022048147702355   T   T   T
  0.4087682348254612  0.1010158891524498  0.5645905799886995   T   T   T
  0.4058866010610345  0.0000000000000000  0.2322132027803434   F   F   F
  0.4058866010610345  0.5000000000000000  0.2322132027803434   F   F   F
  0.4058866010610345  0.6249999998929567  0.2322132027803434   F   F   F
  0.4058866010610345  0.7500000002140865  0.2322132027803434   F   F   F
  0.4058866010610345  0.8750000001070433  0.2322132027803434   F   F   F
  0.4058866010610345  0.1249999998929567  0.2322132027803434   F   F   F
  0.4058866010610345  0.2500000002140865  0.2322132027803434   F   F   F
  0.4058866010610345  0.3750000001070433  0.2322132027803434   F   F   F
  0.4099368231680819  0.7783827460622279  0.5657491686606678   T   T   T
  0.4380303906300838  0.5133960644814863  0.5792144517762472   T   T   T
  0.4396627399566083  0.3639279674312393  0.5784812365071773   T   T   T
  0.4604615588863190  0.9971719238639632  0.5846572041280632   T   T   T
  0.4616643115731928  0.8802907732076528  0.5848905293050449   T   T   T
  0.4975364420364116  0.6253973889581591  0.4726996720832842   T   T   T
  0.4979725880078905  0.2501640036021494  0.4724754977705855   T   T   T
  0.5000000000000000  0.0000000000000000  0.3032267788896164   F   F   F
  0.5000000000000000  0.5000000000000000  0.3032267788896164   F   F   F
  0.5000000000000000  0.6249999998929567  0.3032267788896164   F   F   F
  0.5000000000000000  0.7500000002140865  0.3032267788896164   F   F   F
  0.5000000000000000  0.8750000001070433  0.3032267788896164   F   F   F
  0.5000000000000000  0.1249999998929567  0.3032267788896164   F   F   F
  0.5000000000000000  0.2500000002140865  0.3032267788896164   F   F   F
  0.5000000000000000  0.3750000001070433  0.3032267788896164   F   F   F
  0.4995383008143128  0.4989534579935641  0.4714115187733602   T   T   T
  0.4996811402515192  0.3763476449649353  0.4712369411356983   T   T   T
  0.5008050099368530  0.1242625619313251  0.4718389377578178   T   T   T
  0.5007783122925908  0.7510253837332910  0.4720555682645740   T   T   T
  0.5013120283322029  0.9991863212717569  0.4750482890472551   T   T   T
  0.5017086447252708  0.8763631566860451  0.4747022209402274   T   T   T
  0.5181120901681477  0.6300344011793150  0.5784667770188764   T   T   T
  0.5203607136137881  0.2467441927453180  0.5781336756299672   T   T   T
  0.0005527595944946  0.5101903894917681  0.5402828768779764   T   T   T
  0.0021730053477394  0.3660327526043696  0.5404354371472564   T   T   T
  0.0029099068331640  0.1249022527276738  0.5470298352531416   T   T   T
  0.5951988868537783  0.6732126749853997  0.5565291705981934   T   T   T
  0.5971770429672147  0.2035012181125294  0.5557832520166339   T   T   T
  0.6301940265935957  0.0671207605652433  0.5397133507555986   T   T   T
  0.6298891834565431  0.8088804855400095  0.5397203058261070   T   T   T
  0.6728137664483728  0.5635041305474214  0.5378618966875151   T   T   T
  0.6746646779922971  0.3123807193510799  0.5378899652061812   T   T   T
  0.6902175087606212  0.9380085726513109  0.5371241342492077   T   T   T
  0.7171770316056459  0.4372632724101970  0.5335285802702233   T   T   T
  0.7780248947257128  0.6656940798764299  0.5484666948250575   T   T   T
  0.7800912803178162  0.2104985241710725  0.5478498356552899   T   T   T
  0.7991626762572539  0.8108859192837874  0.5316833168059394   T   T   T
  0.7993663951856611  0.0648426430775598  0.5312747693724426   T   T   T
  0.8421889594081047  0.5455266440734937  0.5513735069953655   T   T   T
  0.8442485571832190  0.9373510003577934  0.5379502034784223   T   T   T
  0.8450966575805138  0.3297109783481610  0.5513345629331030   T   T   T
  0.8792037688624785  0.4376793225860170  0.5375400697306164   T   T   T
  0.9425151846063602  0.6312052659032296  0.5324617070811081   T   T   T
  0.9455254877983831  0.2415257935198308  0.5331228725350498   T   T   T
  0.9894596473191294  0.8797836911758208  0.5417810574412365   T   T   T
  0.9952042686649930  0.9933259506739736  0.5432844829969087   T   T   T
  0.9955237952674798  0.7439171622381160  0.5476235304761654   T   T   T
  0.1103518153483573  0.8168099059773136  0.5423244434593194   T   T   T
  0.1155594668019272  0.4395211046964056  0.5385467709002337   T   T   T
  0.1273953718629628  0.9339276279230417  0.5380126067473360   T   T   T
  0.1306369556122770  0.6840141174946157  0.5377252692530126   T   T   T
  0.1262874988454133  0.0498027868251233  0.5453751718450195   T   T   T
  0.1339467634121136  0.1887174421184570  0.5371400345929204   T   T   T
  0.1855214060948589  0.5568201508039758  0.5377042691716645   T   T   T
  0.1834694229935668  0.3199089616252481  0.5378792962217767   T   T   T
  0.2794280256678391  0.6640970738058859  0.5448219506021126   T   T   T
  0.2867657042624344  0.9456634100784886  0.5340274094144126   T   T   T
  0.2810567980535236  0.2178583552882137  0.5452715873823787   T   T   T
  0.2925670600016722  0.4382049944991241  0.5321101542327462   T   T   T
  0.3124348144237809  0.0733412820394777  0.5354767784711361   T   T   T
  0.3131197476789481  0.8083092727927158  0.5337849232874371   T   T   T
  0.3521572405265291  0.5434198441402791  0.5575962505930254   T   T   T
  0.3530410022947237  0.3342601315617361  0.5570879088122770   T   T   T
  0.4398057932130578  0.6373375902022248  0.5359617920795378   T   T   T
  0.4419958418474166  0.2397441574937669  0.5358718832627991   T   T   T
  0.4891185303006736  0.1157842028017562  0.5382267248421346   T   T   T
  0.4880446751543542  0.7610121494725300  0.5387081746319456   T   T   T
  0.5218177733929336  0.9948597793663838  0.5449129320747431   T   T   T
  0.5222291250240104  0.8818569842133143  0.5446994650626859   T   T   T
  0.5242602145974508  0.5502895895260360  0.5750096731650285   T   T   T
  0.5256686624646886  0.3265889109712983  0.5749062799493265   T   T   T
  0.0000000000000000  0.0000000000000000  0.1972002481458333   F   F   F
  0.0000000000000000  0.5000000000000000  0.1972002481458333   F   F   F
  0.0000000000000000  0.6249999998929567  0.1972002481458333   F   F   F
  0.0000000000000000  0.7500000002140865  0.1972002481458333   F   F   F
  0.0000000000000000  0.8750000001070433  0.1972002481458333   F   F   F
  0.0000000000000000  0.1249999998929567  0.1972002481458333   F   F   F
  0.0000000000000000  0.2500000002140865  0.1972002481458333   F   F   F
  0.0000000000000000  0.3750000001070433  0.1972002481458333   F   F   F
  0.9991806878377490  0.6249459982066167  0.3696068340891487   T   T   T
  0.9993273457084971  0.4999257082672783  0.3697175241589938   T   T   T
  0.9994160380802858  0.3749490398495363  0.3697291668106865   T   T   T
  0.9994551483842027  0.2499855257612621  0.3696472781403070   T   T   T
  0.0001915561879551  0.7500497785535222  0.3696861819437570   T   T   T
  0.0006856540337491  0.1247211786734480  0.3697093704585582   T   T   T
  0.0009025078953330  0.8751150709132710  0.3697151883632525   T   T   T
  0.0011464526955072  0.9998275362780732  0.3697759487645847   T   T   T
  0.5825346300460907  0.4375000002676046  0.2838671249793236   F   F   F
  0.5825346300460907  0.5625000001605613  0.2838671249793236   F   F   F
  0.5825346300460907  0.0625000001605613  0.2838671249793236   F   F   F
  0.5825346300460907  0.6875000000535181  0.2838671249793236   F   F   F
  0.5825346300460907  0.8124999999464819  0.2838671249793236   F   F   F
  0.5825346300460907  0.9375000002676046  0.2838671249793236   F   F   F
  0.5825346300460907  0.1875000000535181  0.2838671249793236   F   F   F
  0.5825346300460907  0.3124999999464819  0.2838671249793236   F   F   F
  0.5814681180326668  0.4376675746273460  0.4548003208179688   T   T   T
  0.5830374937144055  0.5607136782526242  0.4549643695503200   T   T   T
  0.5832499154002818  0.3145650907272091  0.4549874117954256   T   T   T
  0.5853271340357333  0.6866460969584870  0.4571843971637670   T   T   T
  0.5855285168274842  0.1886538628022032  0.4569917296016785   T   T   T
  0.5855909502166905  0.0630032050077034  0.4540643984488605   T   T   T
  0.5854704568803435  0.9377209105720051  0.4542080616877235   T   T   T
  0.5855938193546036  0.8122701898721403  0.4540251786872226   T   T   T
  0.6657105641648826  0.4375000002676046  0.2025710526275901   F   F   F
  0.6657105641648826  0.5625000001605613  0.2025710526275901   F   F   F
  0.6657105641648826  0.0625000001605613  0.2025710526275901   F   F   F
  0.6657105641648826  0.6875000000535181  0.2025710526275901   F   F   F
  0.6657105641648826  0.8124999999464819  0.2025710526275901   F   F   F
  0.6657105641648826  0.9375000002676046  0.2025710526275901   F   F   F
  0.6657105641648826  0.1875000000535181  0.2025710526275901   F   F   F
  0.6657105641648826  0.3124999999464819  0.2025710526275901   F   F   F
  0.6673570962902686  0.6871612832135752  0.3689705708300641   T   T   T
  0.6672579825686772  0.5625186369945416  0.3687699405763709   T   T   T
  0.6674341580871260  0.3125063938873369  0.3686784577956805   T   T   T
  0.6676219637886938  0.1878731113491850  0.3688972505069231   T   T   T
  0.6677005490434192  0.8122256790268428  0.3680333020282934   T   T   T
  0.6678800342351147  0.0628498447626976  0.3679909000355172   T   T   T
  0.6680536669917094  0.9375785470535701  0.3678617277066329   T   T   T
  0.6678221072670986  0.4375072086147341  0.3685920422780609   T   T   T
  0.7499999997239044  0.0000000000000000  0.2777865629422820   F   F   F
  0.7499999997239044  0.5000000000000000  0.2777865629422820   F   F   F
  0.7499999997239044  0.6249999998929567  0.2777865629422820   F   F   F
  0.7499999997239044  0.7500000002140865  0.2777865629422820   F   F   F
  0.7499999997239044  0.8750000001070433  0.2777865629422820   F   F   F
  0.7499999997239044  0.1249999998929567  0.2777865629422820   F   F   F
  0.7499999997239044  0.2500000002140865  0.2777865629422820   F   F   F
  0.7499999997239044  0.3750000001070433  0.2777865629422820   F   F   F
  0.7498089349952372  0.5002550563385607  0.4558785991203999   T   T   T
  0.7509764430177920  0.2498441832240971  0.4582541605363536   T   T   T
  0.7503256670442098  0.6251966309960187  0.4581504562298973   T   T   T
  0.7500850117530181  0.3746591462723419  0.4558027864527905   T   T   T
  0.7508337014936050  0.7490797047805131  0.4569403435456819   T   T   T
  0.7508053117596424  0.8753853283045449  0.4544152892364935   T   T   T
  0.7512311864250426  0.9998431017587788  0.4544595385160081   T   T   T
  0.7514421126644557  0.1261154092455298  0.4568584309401099   T   T   T
  0.0825346300460907  0.4375000002676046  0.2838671249793236   F   F   F
  0.0825346300460907  0.5625000001605613  0.2838671249793236   F   F   F
  0.0825346300460907  0.0625000001605613  0.2838671249793236   F   F   F
  0.0825346300460907  0.6875000000535181  0.2838671249793236   F   F   F
  0.0825346300460907  0.8124999999464819  0.2838671249793236   F   F   F
  0.0825346300460907  0.9375000002676046  0.2838671249793236   F   F   F
  0.0825346300460907  0.1875000000535181  0.2838671249793236   F   F   F
  0.0825346300460907  0.3124999999464819  0.2838671249793236   F   F   F
  0.8313924334345116  0.6876406983720228  0.3680151684929566   T   T   T
  0.8316715630346693  0.5626048952591116  0.3680274914546880   T   T   T
  0.8319750698539464  0.8126406313182397  0.3679915970956797   T   T   T
  0.8318274684586714  0.1872836638789287  0.3682725952555765   T   T   T
  0.8323478993530896  0.0623502566012850  0.3680946053188096   T   T   T
  0.8320321153747455  0.3122985196563248  0.3682283524082687   T   T   T
  0.8325469998314690  0.9375081776619753  0.3681656300556759   T   T   T
  0.8342894060167296  0.4375000002676046  0.2025710526275901   F   F   F
  0.8342894060167296  0.5625000001605613  0.2025710526275901   F   F   F
  0.8342894060167296  0.0625000001605613  0.2025710526275901   F   F   F
  0.8342894060167296  0.6875000000535181  0.2025710526275901   F   F   F
  0.8342894060167296  0.8124999999464819  0.2025710526275901   F   F   F
  0.8342894060167296  0.9375000002676046  0.2025710526275901   F   F   F
  0.8342894060167296  0.1875000000535181  0.2025710526275901   F   F   F
  0.8342894060167296  0.3124999999464819  0.2025710526275901   F   F   F
  0.8324094356451476  0.4374191208913474  0.3683124258713818   T   T   T
  0.0829640664948687  0.4373711084315027  0.4531330128693752   T   T   T
  0.0831263803307097  0.5620660583626209  0.4533279388769968   T   T   T
  0.0836866918769390  0.8111425148509888  0.4545074740586789   T   T   T
  0.0834305687567682  0.3126731154333854  0.4533517427862024   T   T   T
  0.0842943378405614  0.6869930334326187  0.4529197910416489   T   T   T
  0.0849113682578144  0.1877635229008290  0.4528760004995770   T   T   T
  0.0849048411051003  0.0631772623610178  0.4556193439383409   T   T   T
  0.0854771540201940  0.9368519226691423  0.4549354891757307   T   T   T
  0.9159638714058765  0.3114121710103769  0.4539011591804482   T   T   T
  0.9174653699539093  0.4375000002676046  0.2838671249793236   F   F   F
  0.9174653699539093  0.5625000001605613  0.2838671249793236   F   F   F
  0.9174653699539093  0.0625000001605613  0.2838671249793236   F   F   F
  0.9174653699539093  0.6875000000535181  0.2838671249793236   F   F   F
  0.9174653699539093  0.8124999999464819  0.2838671249793236   F   F   F
  0.9174653699539093  0.9375000002676046  0.2838671249793236   F   F   F
  0.9174653699539093  0.1875000000535181  0.2838671249793236   F   F   F
  0.9174653699539093  0.3124999999464819  0.2838671249793236   F   F   F
  0.9165769570574911  0.1852874589307134  0.4534778116622817   T   T   T
  0.9156237141447012  0.5632833067957176  0.4534683355198102   T   T   T
  0.9158772909144323  0.6893720465933569  0.4532633464901958   T   T   T
  0.9157287694781069  0.4374385949663794  0.4548558463582896   T   T   T
  0.9171391512804428  0.8127892916294355  0.4534742280363218   T   T   T
  0.9172485478772293  0.9375149119230345  0.4537062170473377   T   T   T
  0.9178371444742579  0.0619342691892558  0.4535932549054913   T   T   T
  0.1657105641648826  0.4375000002676046  0.2025710526275901   F   F   F
  0.1657105641648826  0.5625000001605613  0.2025710526275901   F   F   F
  0.1657105641648826  0.0625000001605613  0.2025710526275901   F   F   F
  0.1657105641648826  0.6875000000535181  0.2025710526275901   F   F   F
  0.1657105641648826  0.8124999999464819  0.2025710526275901   F   F   F