Ta  N Co Cu                             
   1.00000000000000     
    18.1096308199999996    0.0000000000000000    0.0000000000000000
     0.0000000000000000   23.3551997799999995    0.0000000000000000
     0.0000000000000000    0.0000000000000000   30.4818171199999988
   Ta   N    Co   Cu
   216   240    24     1
Direct
  0.9999990912680303  0.0000031051799283  0.1978602404848075
  0.3338523095196919  0.0624509942897262  0.2029038666289438
  0.1661648334549355  0.0624455166184674  0.2029074823331811
  0.2499962311906003  0.1249344294555712  0.2783800908138332
  0.0829516994903727  0.0625040785307718  0.2841912915788356
  0.4170505456989062  0.0625061588641813  0.2841888781878055
  0.0000042336080597  0.1248563374007290  0.3697483188402444
  0.3312949511922199  0.0622722243389902  0.3689392152644615
  0.1687036633196257  0.0622718650800849  0.3689383374437085
  0.2500115728591794  0.1267304683105834  0.4598570451479134
  0.0829360442179095  0.0617382680970309  0.4534703452306061
  0.4170664652324589  0.0617294837935916  0.4534739672770627
  0.9999081616249441  0.1291580105721408  0.5416386796045884
  0.3394443365854301  0.0665204095882928  0.5471970526180101
  0.1605513339341229  0.0665206416872621  0.5471995247265511
  0.9999981886930058  0.1254163648247513  0.1979153274165952
  0.3343734390223219  0.1876385690946734  0.2028118804220824
  0.1656528887357425  0.1876264348097223  0.2028137446977709
  0.2499921130316594  0.2499069978586022  0.2783911959137839
  0.0828729755093960  0.1874295595036415  0.2843485571399498
  0.4171308811005972  0.1874326559512696  0.2843428035365676
  0.0000012556166382  0.2493583021048664  0.3694730242478172
  0.3315696438832276  0.1872818678782338  0.3690225537064293
  0.1684180882018467  0.1872900953018046  0.3690321101944960
  0.2500281637531856  0.2487573266721341  0.4600499205906274
  0.0842229822324896  0.1869838384746529  0.4544275741034340
  0.4157726924271898  0.1869779005805370  0.4544643889665281
  0.9997794090179042  0.2522949831597785  0.5400896429018971
  0.9999949378543960  0.2498755430151292  0.1981028046342672
  0.3334987833235346  0.3126778649733524  0.2032018548236252
  0.1665475684854059  0.3126727412072583  0.2032057287137192
  0.2500046207015458  0.3750031285088085  0.2787162573124675
  0.0830961565643591  0.3125404880137665  0.2843939215763243
  0.4169010079929691  0.3125397811633874  0.2843866838002782
  0.9999956093043494  0.3749977433837088  0.3696554991761900
  0.3315768275427757  0.3124024639139549  0.3688509023203252
  0.1684185091043631  0.3124104178658484  0.3688481357067275
  0.2500795446061730  0.3756626327030759  0.4614456924074304
  0.0829731064701207  0.3118678636159373  0.4523464174549687
  0.4169731197982287  0.3118925401658785  0.4524758785385288
  0.9999077374030350  0.3785665894509407  0.5417034711079936
  0.0000052825481518  0.3756292490878508  0.1984286378467672
  0.3343759847589283  0.4374838206695912  0.2033498478582700
  0.1656471596208391  0.4374910545405868  0.2033499004501351
  0.2499954668178077  0.0000117729557303  0.2783145393844322
  0.0830860635785413  0.4375905414992332  0.2850012527286196
  0.4169077071621246  0.4375949937430477  0.2849890270670983
  0.9999962664917845  0.9999928702849914  0.3692093377299130
  0.3312613690022417  0.4377404368759272  0.3701558266022289
  0.1687370473975847  0.4377484886129750  0.3701390402558289
  0.2499945371793828  0.9999809232840775  0.4624563850072079
  0.0856221980688403  0.4372139363556045  0.4550256028776403
  0.4143189982980857  0.4371603857010840  0.4550098989464715
  0.0000396518427479  0.9999112972689446  0.5436367495609815
  0.0000070200821085  0.4999969123795154  0.1986612485651662
  0.3343657280757597  0.5625308353203309  0.2033444161881235
  0.1656625944621197  0.5625335428283336  0.2033518232968774
  0.2499911847109573  0.6250012081910157  0.2787176336203103
  0.0830936401211773  0.5624051925011813  0.2849959214197071
  0.4169224803108449  0.5624033801389743  0.2849982541782197
  0.9999993581479316  0.6250024628601878  0.3696576860921681
  0.3312319694865522  0.5622263228227737  0.3700906807381941
  0.1687557564511621  0.5622163213147360  0.3701093527072103
  0.2499161130677123  0.6250112082323085  0.4620070035002399
  0.0857765792642482  0.5627449431827642  0.4550151693294637
  0.4142906972305980  0.5627345653538072  0.4550595331431708
  0.9996734551794759  0.6214114191241222  0.5416901387678337
  0.0000034364297221  0.6243818551652396  0.1984268849808544
  0.3334802860582755  0.6873025860242876  0.2031946982954835
  0.1665473076542554  0.6873071323837650  0.2031989835957333
  0.2499999652964178  0.7500755711558753  0.2783936114320014
  0.0830641461832826  0.6874520976270091  0.2843946343773425
  0.4169339146574771  0.6874520271690088  0.2843860752357728
  0.9999918718566434  0.7506270209243553  0.3694655103249715
  0.3314878111777446  0.6875772947568706  0.3688819133206991
  0.1685032336304815  0.6875795716782136  0.3688890927983977
  0.2499916726766855  0.7506467227819513  0.4605448333344384
  0.0831890716774453  0.6881107786626259  0.4524823907433060
  0.4168879414532327  0.6881567744310502  0.4523219579775386
  0.0001982250336283  0.7475698741364027  0.5401453180440043
  0.0000024499087772  0.7501184434128589  0.1981092016258970
  0.3343700539476018  0.8123649844868339  0.2028263731897297
  0.1656522326345780  0.8123685176719420  0.2028336074561352
  0.2499998219724588  0.8750497419552445  0.2783829224483512
  0.0828559264152133  0.8125653616495967  0.2843458885646157
  0.4171491872696080  0.8125670079736622  0.2843459481191957
  0.0000120194510629  0.8751487351899172  0.3697558276203878
  0.3314773437879808  0.8127501964135746  0.3690170495150724
  0.1685296098610252  0.8127543313149772  0.3690104644778245
  0.2499883592189676  0.8733267112687173  0.4597743403609087
  0.0842431494405744  0.8130943438886220  0.4544697534734397
  0.4157825880895629  0.8130891051540488  0.4544502617103063
  0.0000306122285849  0.8710403781392202  0.5416283740712160
  0.9999984165331881  0.8745802362314237  0.1979211751363508
  0.3338467737987614  0.9375459658110898  0.2029059669711515
  0.1661698372697344  0.9375487777728537  0.2029101670661717
  0.2499906980162763  0.5000242809056132  0.2792877933677431
  0.0829498000417317  0.9374965166069131  0.2841962471888237
  0.4170530506028882  0.9374965793351251  0.2841956082446373
  0.0000061076211040  0.5000100541165722  0.3703354468418709
  0.3312854715308760  0.9377346536152729  0.3689635631885082
  0.1687217157223060  0.9377361325772213  0.3689668228791376
  0.2500075335484553  0.4998913061334775  0.4693554122008194
  0.0829215501477520  0.9382962737528757  0.4534574215309277
  0.4170840291927647  0.9382921891372078  0.4534589928192503
  0.0001390024080052  0.5000979759876856  0.5411368133711676
  0.3394973553399367  0.9335051938902126  0.5471786622058303
  0.1605129609311930  0.9335117937778890  0.5471757069371321
  0.5000017176776623  0.0000032875222402  0.1978587116547033
  0.8338323163765153  0.0624344560868622  0.2029099848403533
  0.6661489986061895  0.0624422041607744  0.2029065121036524
  0.7500025543794990  0.1249413971761442  0.2783587391299918
  0.5829516797431324  0.0624989462356638  0.2841854926637311
  0.9170492843570131  0.0625008885873939  0.2841885457843816
  0.5000004724005933  0.1248581194851255  0.3697467394820890
  0.8313114727359121  0.0622714371580315  0.3689463401508206
  0.6686937074464225  0.0622710373151847  0.3689544240513669
  0.7500122536241420  0.1267273863517389  0.4598622107365884
  0.5829467261630654  0.0617528752509813  0.4534750993238319
  0.9170659378327244  0.0617447830183906  0.4534688911198472
  0.4999816915326392  0.1290849823435138  0.5416365301666630
  0.8394956314850361  0.0665401238148817  0.5472163245118367
  0.6605135369126742  0.0665292188094782  0.5471989892379128
  0.5000050295575065  0.1254215257547315  0.1979139350871293
  0.8343671817371785  0.1876124056166972  0.2028389380633726
  0.6656139189228369  0.1876250660580752  0.2028377757195869
  0.7500075348601456  0.2499072974635652  0.2783786012408669
  0.5828737245490458  0.1874303990174582  0.2843354699368632
  0.9171287285515888  0.1874345493456175  0.2843446027168923
  0.4999990179900635  0.2493564703144742  0.3694750844230370
  0.8315639281435239  0.1872835497285124  0.3690184145462183
  0.6684334052341683  0.1872817445192041  0.3690178629887910
  0.7499663564357917  0.2487554577166406  0.4600513143510128
  0.5842710776613274  0.1869805075935602  0.4544566662500173
  0.9157218035806096  0.1869774660549268  0.4545007575000071
  0.4998367193743292  0.2524945267974132  0.5400570745771489
  0.5000010487121145  0.2498799861222949  0.1981022095981260
  0.8334601916389772  0.3126720570963144  0.2032069566641113
  0.6665021653031573  0.3126766201883910  0.2032047270480675
  0.7500038365314268  0.3750019505215434  0.2787083676465585
  0.5830980393585108  0.3125443502784648  0.2843853146101196
  0.9168991397272208  0.3125450635930136  0.2843870243973328
  0.5000216447255568  0.3749801486173467  0.3696822010782839
  0.8315637759416958  0.3124099332018915  0.3688405205780114
  0.6684212786782879  0.3124028244639732  0.3688380707443173
  0.7499882490518957  0.3756776626098102  0.4614962152416808
  0.5829819245755417  0.3119289794824596  0.4524439160973586
  0.9170099143456696  0.3118594259200407  0.4523804346943621
  0.5000423689226636  0.3786126012014961  0.5416965736266732
  0.5000040704373703  0.3756225025544353  0.1984299221876498
  0.8343553674034396  0.4374699345105526  0.2033441406453562
  0.6656148711410879  0.4374710269559472  0.2033456869260988
  0.7500083443680694  0.0000020369100824  0.2783026056764157
  0.5831006632494464  0.4375991704270064  0.2849941828415439
  0.9169194978825814  0.4375989496880450  0.2850090841220592
  0.4999991851344845  0.9999923225827061  0.3692102630503271
  0.8312957510881418  0.4377537063010948  0.3701503583809611
  0.6686882748075575  0.4377632032984877  0.3701511875459857
  0.7499918109206050  0.0000111948903196  0.4624343327403153
  0.5856203067436567  0.4372086089077527  0.4550724316498673
  0.9144046561234163  0.4372506777721199  0.4550355735481020
  0.4999859391988579  0.9999270376211555  0.5436340456997328
  0.4999977716246207  0.5000009323106909  0.1986632230732752
  0.8343434038125466  0.5625410704454197  0.2033476608817466
  0.6656253124531091  0.5625337246213391  0.2033394045665915
  0.7500112617924231  0.6249921324193366  0.2787172495372729
  0.5830975515931911  0.5623991516535014  0.2849971359168961
  0.9168949285979622  0.5623957490787888  0.2850054859841720
  0.4999878359653351  0.6250086909855028  0.3696485316835521
  0.8312960149774611  0.5622650656180355  0.3701470337138062
  0.6687267113990671  0.5622492653457343  0.3701587336458871
  0.7500055365187919  0.6243287691169854  0.4614482342632513
  0.5856662483812940  0.5627108859802874  0.4549979692692503
  0.9143658265957129  0.5627858372784118  0.4550612284886810
  0.5005677781201427  0.6215225204839712  0.5417258506380023
  0.4999994279824733  0.6243770200166381  0.1984245473981403
  0.8334503857672360  0.6873166273545408  0.2032042926187785
  0.6665231623892893  0.6873107859579548  0.2032011727573106
  0.7500068993251574  0.7500813559304476  0.2783760977262162
  0.5830917999070593  0.6874568183525511  0.2843905614999400
  0.9169113649152294  0.6874565021823003  0.2843915457929498
  0.5000091252203660  0.7506191381052858  0.3694637157322731
  0.8315662915149531  0.6875970505568390  0.3688316255501221
  0.6684281324011963  0.6875906053864611  0.3688437211548461
  0.7500332492405306  0.7512370792456835  0.4600414466234355
  0.5829857910045604  0.6881434202971946  0.4523619547142559
  0.9170381974081891  0.6880870294767121  0.4523581720839047
  0.5001977833297957  0.7476299548517673  0.5401356256825025
  0.4999983239358130  0.7501118281647265  0.1981066862450049
  0.8343566928172734  0.8123780381093013  0.2028465030739497
  0.6656231299545823  0.8123702136248454  0.2028387621528083
  0.7500044568019533  0.8750570063536713  0.2783634152468935
  0.5828654668158038  0.8125703351194957  0.2843509883587458
  0.9171346970962091  0.8125721683637721  0.2843523179095229
  0.4999983005407671  0.8751509716146586  0.3697594351305398
  0.8315623449091589  0.8127081240894611  0.3690109327838442
  0.6684280573111039  0.8127118181766377  0.3690208370210115
  0.7499944149387687  0.8732797434837849  0.4598660037013289
  0.5842044756951310  0.8130185106938654  0.4544083599436135
  0.9157585900261651  0.8130156873527596  0.4544735842570091
  0.4999616924953472  0.8710385190892254  0.5416260747314112
  0.5000034276496805  0.8745782943147731  0.1979168047830981
  0.8338312165052812  0.9375707816547276  0.2029135044645116
  0.6661518529794961  0.9375684724009403  0.2029098583298179
  0.7499970112994845  0.5000103392460247  0.2792819406156397
  0.5829549526873308  0.9374992358524636  0.2841837340781197
  0.9170458157801633  0.9375020349414527  0.2841836561115869
  0.5000027356698666  0.5000178975944323  0.3703330141917363
  0.8313153522807895  0.9377361140950455  0.3689510374885216
  0.6686848840309807  0.9377348846797133  0.3689551362692285
  0.7500056769996490  0.4999743939864345  0.4696030969546001
  0.5829425406579460  0.9382347671893569  0.4534629954209635
  0.9170582822199478  0.9382469499496651  0.4534706468870766
  0.5002769735193624  0.4996449439077253  0.5412318810359977
  0.8395135079636376  0.9334554911732482  0.5472063635168070
  0.6605283088813323  0.9334783510108622  0.5472060218287496
  0.4054256487182215  0.0000007914027975  0.2324104618262481
  0.2499948209625416  0.0000043035103729  0.1984026561839585
  0.0945771224164886  0.9999997409508765  0.2324104032529846
  0.1553029056501884  0.1248262327249776  0.3162098177556629
  0.0000006974447970  0.1248858426469184  0.3030884871686084
  0.3447004774467501  0.1248276756987039  0.3162127633163507
  0.4007708045183804  0.1247020111726016  0.4019279335382677
  0.2500095405863689  0.1248870707811065  0.3898334524879559
  0.0992259202085890  0.1247017065517966  0.4019212103210918
  0.1483889857904046  0.1214644031308509  0.4884982831741382
  0.9999987544939870  0.1244044302516514  0.4732440756533194
  0.3515885287974569  0.1214709279020312  0.4885166949341269
  0.4049113902230133  0.1287537832365402  0.5711834010564303
  0.2500143840520508  0.0895380520834266  0.5766140552156713
  0.0951242097267908  0.1287266061250705  0.5711865556814644
  0.4053744334345524  0.1250424009416591  0.2325713997758143
  0.2499940423696074  0.1251686465264754  0.2000823055893832
  0.0946294751250036  0.1250463889767062  0.2325702897783586
  0.1553530693201566  0.2497656961298489  0.3161192610612389
  0.9999998335814055  0.2499029236878414  0.3029457771067285
  0.3446512043157171  0.2497666460241419  0.3161210172374638
  0.4009663664016614  0.2487583239233402  0.4014098157674653
  0.2500093488661577  0.2497507404837478  0.3899856775538524
  0.0990378191978394  0.2487503376884845  0.4014128074758787
  0.1476233516631282  0.2517596978582120  0.4866022260352025
  0.9999907166303856  0.2490309387323038  0.4727079777346574
  0.3523863289110807  0.2517265788235861  0.4866320615587156
  0.3986045081634444  0.2522337375605588  0.5649386143856532
  0.2499392278779240  0.1887894410774678  0.5116263273873471
  0.1015837302554914  0.2522778542571942  0.5648058970381626
  0.4053255653467005  0.2500612000165106  0.2326381104106048
  0.2499885295424065  0.2498741449863005  0.1993265045905446
  0.0946799760164794  0.2500616986564239  0.2326392838696307
  0.1556863951711236  0.3752290167517387  0.3165019985554878
  0.0000053524989667  0.3749954244616376  0.3031138874232440
  0.3443177240505406  0.3752276666852765  0.3165036848718259
  0.4010323332194545  0.3750631117661740  0.4012676137428315
  0.2499959746926024  0.3751777554475240  0.3913622191036197
  0.0989903778080219  0.3750599871527953  0.4012684515371845
  0.1471667354367483  0.3699510906628092  0.4849474808813454
  0.0000064731736842  0.3760950688695601  0.4741342485065161
  0.3528090931951269  0.3700183735383078  0.4849753951847688
  0.3944702518263057  0.3864564291129255  0.5632508963465455
  0.2501444215935109  0.4334199334723863  0.5188418859753057
  0.1056437120291775  0.3863819060051910  0.5631381674667466
  0.4052796353020582  0.3751795161507303  0.2329209439680895
  0.2499910024122940  0.3753904160805064  0.1989666525605855
  0.0947297662456350  0.3751774298486410  0.2329211876948207
  0.1552000562548059  0.9999987623053386  0.3160798489547574
  0.0000036339567018  0.0000000816519261  0.3026911971740702
  0.3448046541457401  0.9999974297477223  0.3160795354341133
  0.4012491928644337  0.0000100754373378  0.4015999269866271
  0.2499982866006576  0.9999779442103929  0.3900758768254917
  0.0987510402516421  0.0000036111754511  0.4016018753531725
  0.1446777820848695  0.9999801153451315  0.4873819690135690
  0.9999931169913481  0.0000126014528092  0.4743165929512116
  0.3553293836163718  0.9999863156099877  0.4873776892963235
  0.4033644870696307  0.9999997986725120  0.5732374028956713
  0.2500030411479344  0.9999955672146967  0.5347817381075686
  0.0966308247194831  0.9999974679967067  0.5732330730110604
  0.4052227948626523  0.5000016070128339  0.2333399404675873
  0.2499972283713632  0.4999961645035569  0.2017884183893415
  0.0947830069592897  0.5000000331449854  0.2333417975951875
  0.1556518572677206  0.6247729505751352  0.3164951393499251
  0.0000092442381217  0.6250113532423782  0.3031264887319338
  0.3443456097505688  0.6247685361932866  0.3164992351726212
  0.4009615533858764  0.6249524120597059  0.4012429125946184
  0.2500206191748049  0.6248512449610715  0.3913410280924481
  0.0990429104685617  0.6249704454231164  0.4012372034250689
  0.1462354206807106  0.6297923407181187  0.4847180949656007
  0.0000210857156873  0.6239135087385250  0.4741493271793402
  0.3537410000781307  0.6298031188456150  0.4847043950272791
  0.3942493335427599  0.6137251538477102  0.5632867618409634
  0.2498501465287362  0.5664302391309377  0.5189588783750239
  0.1056231734022504  0.6136031106190671  0.5633995526088285
  0.4052678892906130  0.6248201649722276  0.2329249704192620
  0.2499937938120027  0.6246058359740019  0.1989614662218600
  0.0947361529128372  0.6248236684354751  0.2329227209613833
  0.1553425543549594  0.7502423439083827  0.3161208149437158
  0.0000033525744314  0.7500986340358367  0.3029533557056041
  0.3446637237660966  0.7502415119231074  0.3161170783083804
  0.4009418102991376  0.7512461358210984  0.4013962039018111
  0.2499996863029565  0.7502424892012414  0.3899702511002658
  0.0990586993158118  0.7512375031096710  0.4013930575154845
  0.1468680341086355  0.7486182596600415  0.4863848436172731
  0.0000669796243002  0.7510238129701747  0.4727122167198274
  0.3530768814211811  0.7485554422159595  0.4863648749992819
  0.3983177792877299  0.7475561277645966  0.5647874199990923
  0.2500738233479112  0.8112519549654209  0.5118207319079389
  0.1014846305343653  0.7476096902266320  0.5649744609733247
  0.4053134291080482  0.7499394870469658  0.2326342058156641
  0.2499953987484602  0.7501279973913597  0.1993368565706106
  0.0946878119956196  0.7499388531201987  0.2326347339611132
  0.1553155054783488  0.8751737954796610  0.3162132349401574
  0.0000028063558162  0.8751004317120419  0.3030886728315068
  0.3446838662974230  0.8751742333807968  0.3162147325730515
  0.4007705483142203  0.8752711774401192  0.4019478590340881
  0.2499999746291550  0.8751566662684453  0.3898091013962457
  0.0992320650741618  0.8752703809709104  0.4019466520883270
  0.1484664123349830  0.8784446083336448  0.4885337263188774
  0.0000064950971606  0.8755606981905544  0.4732373809085786
  0.3515745858969979  0.8784505106321205  0.4885205309021643
  0.4048616110266750  0.8712529185719120  0.5711826525623565
  0.2499981490300840  0.9104618131526578  0.5766290842754671
  0.0951084384863563  0.8712282189068219  0.5711821021304644
  0.4053700888744913  0.8749493171926161  0.2325728573329116
  0.2499947049760252  0.8748326490973639  0.2000735470299588
  0.0946315189957474  0.8749491985691904  0.2325710755473622
  0.1555449966993976  0.4999910483059722  0.3171460077946548
  0.0000088370259448  0.5000046253020471  0.3037044069311037
  0.3444706335914560  0.4999942788886145  0.3171428133999967
  0.4010101663044665  0.5000220616363293  0.4019345624636088
  0.2500009623233836  0.4999843134410469  0.3939909518416442
  0.0989810175415045  0.5000347205232316  0.4019394208366265
  0.1408098252989021  0.4999671839532596  0.4860297684940207
  0.0000193003349622  0.5000167614872879  0.4726131958611077
  0.3591670376852392  0.5000787088008067  0.4860387358425271
  0.4028989837459633  0.4999021608140239  0.5734754918155289
  0.2499644864891977  0.5002022975636606  0.5826291971010065
  0.0970609251950449  0.5002439667139811  0.5734755886609548
  0.9054259685094266  0.9999973793112247  0.2324143267599936
  0.7500103900835384  0.9999993785104664  0.1983851033081834
  0.5945731863538271  0.0000003660990515  0.2324146451322093
  0.6553048162088473  0.1248326472345269  0.3162188732687454
  0.5000018700740938  0.1248887156378800  0.3030916442563480
  0.8446965714592025  0.1248267430443377  0.3162200239982269
  0.9007755138619515  0.1246993678457926  0.4019269066807496
  0.7499978631426174  0.1248806425130553  0.3898383429340413
  0.5992329801842331  0.1247078697306776  0.4019259759195108
  0.6484121579775319  0.1214614974765240  0.4884931399989654
  0.4999868936981002  0.1244107038244877  0.4732558915586296
  0.8515975938000082  0.1214789971184302  0.4884980963023651
  0.9048678679779130  0.1287069885954537  0.5711831483477567
  0.7500098208858930  0.0895385453440909  0.5766083838681979
  0.5951330802692638  0.1287325777313910  0.5711693175859480
  0.9053676637129087  0.1250525189594569  0.2325658996803170
  0.7500081970441101  0.1251686778498424  0.2000658862744089
  0.5946301775544143  0.1250473511424204  0.2325652016417834
  0.6553413724974604  0.2497666727393479  0.3161308668440483
  0.5000016477120326  0.2499054780177730  0.3029482031749069
  0.8446619458895839  0.2497611273715492  0.3161276682670930
  0.9009670481369056  0.2487497814352082  0.4014197164313416
  0.7499844981664694  0.2497454795933010  0.3899972943508416
  0.5990398840532052  0.2487550519726511  0.4014037131981780
  0.6476671203725601  0.2517172368531035  0.4866040519351174
  0.4999689441142294  0.2490221869695972  0.4727229631794074
  0.8523728625379476  0.2516884961026733  0.4866411096018055
  0.8986189028076339  0.2523381335355666  0.5648632361269748
  0.7498592960142503  0.1887871091409465  0.5116294436819473
  0.6015788502999939  0.2522581586709265  0.5648599382602484
  0.9053239727838687  0.2500540499527162  0.2326282371905322
  0.7500081555801614  0.2498821944973244  0.1993207848573633
  0.5946733353360401  0.2500563325977794  0.2326290552240806
  0.6556883708173800  0.3752183875597126  0.3165082368546379
  0.4999955142988668  0.3749977004973601  0.3031142730536232
  0.8443091766997242  0.3752220274326703  0.3165100739287396
  0.9010245322286892  0.3750559119488699  0.4012745098383732
  0.7499844724231650  0.3751790417299503  0.3913685615642279
  0.5989704179580784  0.3750449268798306  0.4012504090492328
  0.6472347345945408  0.3699164203788854  0.4849344970073446
  0.5000202379476448  0.3760302980899581  0.4741067209879688
  0.8528626063211178  0.3699329606454640  0.4849589716033620
  0.8945919249586254  0.3863541262979950  0.5631815867900940
  0.7500215707193192  0.4333876488044481  0.5186731207577679
  0.6051426266493394  0.3861917038270803  0.5632202911041588
  0.9052831812743918  0.3751824867192397  0.2329254509192040
  0.7500082576132954  0.3753926118003434  0.1989550497729553
  0.5947128317411199  0.3751825326041072  0.2329232397149070
  0.6551994729855721  0.9999996562385505  0.3160845801556462
  0.4999990022061027  0.0000004796163040  0.3026930384845699
  0.8447982517379273  0.9999968003111306  0.3160844094032313
  0.9012484892584709  0.0000018710229028  0.4015965956286252
  0.7500027570469214  0.9999888733520095  0.3900792122455172
  0.5987508764919482  0.9999984435432552  0.4015986428543101
  0.6446503012810751  0.9999988321604931  0.4873794145152957
  0.4999967777212149  0.0000196415049558  0.4743200580382876
  0.8553556780796754  0.9999962728001464  0.4873793363812524
  0.9033413023409480  0.0000116974399873  0.5732317473632804
  0.7499916216806213  0.9999932232445445  0.5347766646029228
  0.5966362459003989  0.9999980800736381  0.5732297505283910
  0.9052150792741429  0.5000027344878362  0.2333440924089700
  0.7500065343177482  0.5000029174833571  0.2017958767975401
  0.5947838151183689  0.5000021619733133  0.2333418258719391
  0.6556720700341998  0.6247827922475579  0.3164994568625374
  0.4999968017720064  0.6250086803783077  0.3031280620018109
  0.8443190302064636  0.6247828293505009  0.3165015615764872
  0.9010153483750614  0.6249565317128116  0.4012466421259546
  0.7500274585183533  0.6248300231917199  0.3913635848754140
  0.5989854349215875  0.6249478318701662  0.4012573817725027
  0.6471657429531135  0.6300038538394901  0.4849447435089544
  0.5000362821969873  0.6238552102627608  0.4741469246029482
  0.8528182914858746  0.6300063465435883  0.4849325746381226
  0.8942531168213890  0.6135064978804365  0.5630079564110488
  0.7503432278141347  0.5667014399645041  0.5188571464613645
  0.6053262555446892  0.6136327831358557  0.5631571387667833
  0.9052782140526219  0.6248176265670153  0.2329240336717433
  0.7500089209878311  0.6246035604326252  0.1989502654083566
  0.5947245981619460  0.6248181404511897  0.2329219512616945
  0.6553405141366753  0.7502418136161992  0.3161289737813178
  0.4999999045674102  0.7500976443785987  0.3029559741455401
  0.8446548641624858  0.7502403703763676  0.3161292876309503
  0.9009527170196350  0.7512522545260580  0.4013990310627165
  0.7500145245902345  0.7502558362885310  0.3899984563471790
  0.5990477855283700  0.7512524500712061  0.4014045959502326
  0.6475924359185328  0.7482207397141494  0.4866225222693146
  0.4999908665690427  0.7510241610663329  0.4727138801010184
  0.8523707121456638  0.7482724565512058  0.4866190323575452
  0.8982973200268844  0.7476626263554849  0.5646998062609825
  0.7498905902877553  0.8112200112711960  0.5116242557583917
  0.6014963008007186  0.7477708852800902  0.5647051940896048
  0.9053140087682507  0.7499458519779694  0.2326261640478151
  0.7500093356634849  0.7501254777781483  0.1993198048277094
  0.5946821119715722  0.7499470975710665  0.2326251484286956
  0.6553070054766579  0.8751715402734206  0.3162183498355873
  0.4999999706863889  0.8751027493486632  0.3030893521312450
  0.8446934805069688  0.8751701105844560  0.3162170280265428
  0.9007587782513937  0.8752878569801084  0.4019326875260489
  0.7500025164222137  0.8751171782897345  0.3898356823998625
  0.5992373801930739  0.8752916751795041  0.4019233293947693
  0.6483776529754479  0.8785295884007311  0.4885024274043559
  0.4999977396942867  0.8755705326852663  0.4732360247146516
  0.8516198379989248  0.8785390628782963  0.4884852007668954
  0.9048891033983040  0.8712875236032502  0.5711857095780957
  0.7500043072773366  0.9104677277105111  0.5766146636771339
  0.5951061808015510  0.8712659062474160  0.5711803159589621
  0.9053635016556711  0.8749458458451826  0.2325674438008676
  0.7500085105728687  0.8748212222372729  0.2000682662897972
  0.5946360990472357  0.8749466165722808  0.2325684058628781
  0.6555331428297038  0.4999937686891158  0.3171405811634145
  0.4999868792339868  0.4999978279838757  0.3037075649317771
  0.8444693904301346  0.4999990378735788  0.3171318761359032
  0.9010111540452783  0.5000223299622348  0.4019400504934509
  0.7500108581539564  0.4999910700453114  0.3939639816366025
  0.5989815846247311  0.4999880230722908  0.4019376364905227
  0.6407223427606112  0.5001284839362512  0.4860051329794999
  0.4999627845477761  0.5000205016600816  0.4726212130270753
  0.8592389915554364  0.4998706444648064  0.4860684559231885
  0.9030866922378351  0.5003736411226285  0.5734960113249272
  0.7499526535460532  0.4999903925361977  0.5820959993898427
  0.5965692661934412  0.4998713325196888  0.5735806290059884
  0.3624945646339057  0.1916406138755988  0.5327133583152133
  0.1375167769178987  0.1916101678529856  0.5327809712028895
  0.3753179794186536  0.3181204094894667  0.5342267352442676
  0.1243830701258233  0.3182730820339401  0.5345467555216032
  0.3277563744288727  0.4484732782456646  0.5630674899961718
  0.1724068469786246  0.4484573481196534  0.5630180870469843
  0.3272299607650027  0.5513289010013906  0.5630389578301944
  0.1725917109901545  0.5514137799482555  0.5630664687862676
  0.3758750064800012  0.6814680850906711  0.5345244966232983
  0.1238635335471727  0.6815983427657244  0.5340198633729685
  0.3626231941547786  0.8086627604701704  0.5327411236706965
  0.1373195264785778  0.8086326350076121  0.5326637220501311
  0.8625584767698129  0.1915105806609390  0.5326855636297267
  0.6374401572043453  0.1916259386458989  0.5327686895925723
  0.8754889207268661  0.3182348030903484  0.5344543552772905
  0.6244267642236991  0.3183257538911803  0.5343964466403008
  0.8273162513777024  0.4484586259644914  0.5628965656332525
  0.6725243340359199  0.4485806352901136  0.5633440832893797
  0.8272753274700833  0.5516653120486765  0.5634852006462623
  0.6727391488879917  0.5516072315097844  0.5628969556356438
  0.8758514001352253  0.6816549532936946  0.5346475932164978
  0.6244708747165006  0.6817809010210993  0.5345157137254759
  0.8624839258125263  0.8083911379587363  0.5327704829738238
  0.6376313481032909  0.8083730007019767  0.5327997441006573
  0.2490864033452667  0.6852060341288677  0.5508856291847906
 
  0.00000000E+00  0.00000000E+00  0.00000000E+00
  0.00000000E+00  0.00000000E+00  0.00000000E+00
  0.00000000E+00  0.00000000E+00  0.00000000E+00
  0.00000000E+00  0.00000000E+00  0.00000000E+00
  0.00000000E+00  0.00000000E+00  0.00000000E+00
  0.00000000E+00  0.00000000E+00  0.00000000E+00