Ta  N  W Cu                             
   1.00000000000000     
    18.1096308199999996    0.0000000000000000    0.0000000000000000
     0.0000000000000000   23.3551997799999995    0.0000000000000000
     0.0000000000000000    0.0000000000000000   30.4818171199999988
   Ta   N    W    Cu
   192   240    48     1
Direct
  0.0000115964231782  0.9997585355435490  0.1967951700368147
  0.3336964980966641  0.0624329460990865  0.2025093212185993
  0.1662800216368296  0.0624326470369923  0.2025101797253441
  0.2499963631728122  0.1250194760675498  0.2777081472082443
  0.0823296620876661  0.0624962862626859  0.2835438631435849
  0.4176727387146002  0.0624813676054146  0.2835476864031747
  0.9999608489818073  0.1248985422745221  0.3693112750776493
  0.3324733354898939  0.0625352354986006  0.3676062700704179
  0.1675219568758877  0.0625324434272088  0.3676040097401980
  0.2500022414017806  0.1248063348879427  0.4534547373957096
  0.0837007627229625  0.0626502520386438  0.4537020400697784
  0.4162873662786879  0.0626510310514803  0.4537102226751770
  0.9999938495111138  0.1251248122113253  0.1966678527649108
  0.3337025806939238  0.1875099001537919  0.2024516977442374
  0.1662732456310962  0.1875105280611535  0.2024487900438032
  0.2499956596720452  0.2499837210016125  0.2777044307030394
  0.0822661213796749  0.1875017097542511  0.2833573310327111
  0.4177279764643842  0.1875013869489095  0.2833571782437403
  0.9999588111621520  0.2501055341923291  0.3692980274477193
  0.3325031890331758  0.1875001592681542  0.3674232075214121
  0.1674998082247328  0.1875003448645529  0.3674181792865525
  0.2500135467720455  0.2501946330347948  0.4534508057318192
  0.0837098429183953  0.1874958546591685  0.4540089174987330
  0.4162939847076501  0.1874961935407740  0.4540170862745327
  0.9999924400921998  0.2498907877000320  0.1966648402204072
  0.3336953555744273  0.3125791537867215  0.2025093710839840
  0.1662857806002123  0.3125800506520662  0.2025049157404624
  0.2499994983423974  0.3750780668115112  0.2778464137206953
  0.0823310769480301  0.3125127428312311  0.2835437532805898
  0.4176651058570684  0.3125171725571008  0.2835405463943630
  0.9999758153487690  0.3748578099770015  0.3693784019185387
  0.3324791346963849  0.3124630923544416  0.3676011340756418
  0.1675238886078532  0.3124618995852302  0.3675967741531991
  0.2500093175509406  0.3745035804919254  0.4536017974971500
  0.0837093198674381  0.3123512789875775  0.4536983810275856
  0.4162904600622994  0.3123463138439533  0.4537048783010036
  0.0000131956791520  0.3752570435800706  0.1967931298697820
  0.3337507863296025  0.4376405966656876  0.2026500880960711
  0.1662385461043314  0.4376418771896127  0.2026490777877470
  0.2499983120897085  0.9999283332558022  0.2778526853009211
  0.0823054722764311  0.4375197632129613  0.2835925450341819
  0.4176909403926317  0.4375192666001340  0.2835934274658243
  0.9999778734401659  0.0001435721692431  0.3693808960551550
  0.3324754163117873  0.4374719648628869  0.3677342593197395
  0.1675267219681587  0.4374691782360429  0.3677289484816697
  0.2500092292657641  0.0004837114666500  0.4535969723411881
  0.0836919567593455  0.4372434051927172  0.4542843553154441
  0.4163141291440624  0.4372508428479165  0.4542923380355148
  0.0000349344993751  0.4999884004815058  0.1969379597775855
  0.3337741867401149  0.5625972869303055  0.2028234981961177
  0.1662181962987432  0.5626004109095106  0.2028217156242818
  0.2500002112562001  0.6250559393949473  0.2783171295694089
  0.0823544713645390  0.5625215266741606  0.2839344513857327
  0.4176453857033593  0.5625207699143928  0.2839369422430025
  0.0000896421531849  0.6248671818610347  0.3697043115731304
  0.3324812070455962  0.5624752863183531  0.3680780605305642
  0.1675258913278270  0.5624758653045916  0.3680711306305540
  0.2499799025092386  0.6246306448500860  0.4540927394901004
  0.0836202395216930  0.5621712604223532  0.4541437753342521
  0.4163805327334984  0.5621718900568524  0.4541549020574749
  0.0000710384126705  0.6252079164535118  0.1970691129557878
  0.3338027055969874  0.6875085603287019  0.2028995526668638
  0.1661945997060883  0.6875080841072432  0.2028970130095047
  0.2500010335543692  0.7499543018725845  0.2783174778456043
  0.0822906631185631  0.6875027483713723  0.2839030819354846
  0.4177120506834555  0.6875051542950601  0.2839053923139474
  0.0000878739945023  0.7501338876638783  0.3697111186725195
  0.3325137631213693  0.6874976013874416  0.3681342320098366
  0.1674865546298108  0.6874945618197685  0.3681244955389502
  0.2499904978405567  0.7503579802828071  0.4540898091819514
  0.0837346627486824  0.6874966357640204  0.4547598212137913
  0.4162486519085178  0.6874918998660320  0.4547749783267676
  0.0000707735825429  0.7498151913347399  0.1970700358672275
  0.3337854840318357  0.8124147501159129  0.2028275537129787
  0.1662130750132178  0.8124135826585217  0.2028277130645293
  0.2499990038252804  0.8749781110095611  0.2781183177523161
  0.0823554493651599  0.8124889599399552  0.2839383231467352
  0.4176403006772702  0.8124879550944968  0.2839425794558537
  0.0000301844212132  0.8748994810056132  0.3695582329357450
  0.3324775307614161  0.8125156225371484  0.3680829948364988
  0.1675196894327726  0.8125169038810398  0.3680758816866572
  0.2500037111110203  0.8749805889539815  0.4539339465096290
  0.0836142601127818  0.8128233630102102  0.4541493810230932
  0.4163717506064657  0.8128141527820674  0.4541611531766847
  0.0000384945355378  0.8750319002507752  0.1969424964969093
  0.3337487589159949  0.9373765187489838  0.2026549998695728
  0.1662401996979312  0.9373781583253518  0.2026546483763880
  0.2500014841509213  0.5000255370448059  0.2781077552717832
  0.0823029364666041  0.9374872091870259  0.2835965940696497
  0.4176992506352093  0.9374788273104286  0.2835976848306672
  0.0000143864123885  0.5000942668023285  0.3695608619682815
  0.3324704601967667  0.9375232974580143  0.3677402957095239
  0.1675293173943402  0.9375241533423733  0.3677357681388216
  0.2500097788923128  0.5000062049694378  0.4539251692313329
  0.0836810479595940  0.9377473691734082  0.4542836019506140
  0.4163175924997518  0.9377423881863365  0.4542945509305625
  0.4999728117691333  0.9997581972467486  0.1967978092568501
  0.8336958305964899  0.0624418530329507  0.2024959390805279
  0.6662859540021770  0.0624397901340359  0.2024978695620021
  0.7499932097444244  0.1250197619975211  0.2777287362964103
  0.5823316037847022  0.0624991333672043  0.2835374580686718
  0.9176657051727375  0.0624888813570479  0.2835359274305702
  0.5000281312830026  0.1249011185281219  0.3693011562617201
  0.8324370415680846  0.0625207436394390  0.3675788444313426
  0.6675544472559523  0.0625199062894808  0.3675811977888301
  0.7499985105005678  0.1247740527684300  0.4534648864503339
  0.5837678233017698  0.0626003044448993  0.4537200313288992
  0.9162233507876891  0.0625979854180585  0.4537172647533652
  0.4999843037895033  0.1251240769042425  0.1966711545626723
  0.8337200057766196  0.1875054614454967  0.2024354921949154
  0.6662598539708071  0.1875078666527799  0.2024343057619262
  0.7499958821247787  0.2499895423212948  0.2777304105924969
  0.5823022739776178  0.1875064520514300  0.2833729235578133
  0.9176968063925983  0.1875074324924029  0.2833687664132825
  0.5000329014881970  0.2501055669155647  0.3693029757930617
  0.8324894769175941  0.1875077977822457  0.3674592787786537
  0.6675004210959727  0.1875058552520699  0.3674625045830595
  0.7499983991745935  0.2502327820935193  0.4534615935446737
  0.5837670372309631  0.1875026148757399  0.4540682688266600
  0.9162153957694841  0.1875028842049105  0.4540662491993785
  0.4999866031729567  0.2498898467891379  0.1966683372116549
  0.8336919397634546  0.3125654808517808  0.2024897832782599
  0.6662929551521302  0.3125664086969238  0.2024890643397654
  0.7499963829063887  0.3750568001674850  0.2778242816483996
  0.5823284439463521  0.3125091098506729  0.2835347745967525
  0.9176530621306824  0.3125068605776207  0.2835349547887347
  0.5000153656600261  0.3748594644743193  0.3693802450080312
  0.8324367663581143  0.3124905599208532  0.3675772520948684
  0.6675622494503557  0.3124900314906611  0.3675792982467598
  0.7500127880406993  0.3746261198554350  0.4535921081180874
  0.5837782360228090  0.3124095492783923  0.4537149982382402
  0.9162263638189430  0.3124072305578736  0.4537116288660030
  0.4999734126330537  0.3752567002441083  0.1967953010264694
  0.8337004027017372  0.4376072393352644  0.2026417906976832
  0.6662873024234912  0.4376076443098924  0.2026405668467248
  0.7499926723509276  0.9999510832590701  0.2778266346901930
  0.5822784809821115  0.4375270468247976  0.2835800605898271
  0.9177209054513256  0.4375152474509747  0.2835744057673608
  0.5000150739972469  0.0001420839816078  0.3693847826214807
  0.8325328199074420  0.4374896883590367  0.3677109445820150
  0.6674688516259764  0.4374912730485576  0.3677125570347144
  0.7500088610213922  0.0003843147179126  0.4535933272852688
  0.5837760917103552  0.4373625973179855  0.4542686384482693
  0.9162226806941050  0.4373625256752689  0.4542622837584958
  0.4999581026396811  0.4999885341099386  0.1969419772184224
  0.8337467614190857  0.5625808150232388  0.2028061806505335
  0.6662523971738707  0.5625806563244495  0.2028062915021707
  0.7500009881156799  0.6250654253985104  0.2781527419869576
  0.5823233110242967  0.5625232062375431  0.2838701349748334
  0.9176755691214851  0.5625264649622039  0.2838676982680610
  0.4999160757527932  0.6248711410688017  0.3697134943287779
  0.8324374421678726  0.5624927951502841  0.3679604154175919
  0.6675643414551615  0.5624918679248836  0.3679642998549610
  0.7500187444756534  0.6246753928709055  0.4538871496611350
  0.5837367651699381  0.5623755145781786  0.4540790676244555
  0.9162662528005114  0.5623758138776367  0.4540739571835317
  0.4999245867911384  0.6252084099752224  0.1970723492458788
  0.8337982135024262  0.6875135832121018  0.2028425495500414
  0.6662010434146808  0.6875133923297128  0.2028444409676382
  0.7499990155897365  0.7499468707523675  0.2781582805446590
  0.5822642304386179  0.6875080905561646  0.2838297518594217
  0.9177336016761330  0.6875051977419062  0.2838252715688654
  0.4998983968261754  0.7501301384296681  0.3697131846395507
  0.8325825777430893  0.6875085943342256  0.3680077724677631
  0.6674099898335584  0.6875059377805925  0.3680113486784862
  0.7499718928538357  0.7503298538982790  0.4538941212147378
  0.5837117866726658  0.6874988658925645  0.4545399148697200
  0.9162741035296946  0.6875025948299438  0.4545303362436144
  0.4999244611548903  0.7498133905568523  0.1970728636945012
  0.8337498985533855  0.8124330456032283  0.2028047675446487
  0.6662443745382873  0.8124328872855457  0.2028062862544004
  0.7499968387124412  0.8749775973004787  0.2780140128823305
  0.5823248304324835  0.8124875012419963  0.2838752337334753
  0.9176707388154384  0.8124892671435262  0.2838724011496581
  0.4999694106846846  0.8748986766645572  0.3695670001735678
  0.8324329653582723  0.8125219910917565  0.3679654094274838
  0.6675603822934661  0.8125215920875348  0.3679708834889581
  0.7500048058476025  0.8748410352748976  0.4537973375176918
  0.5837302325878966  0.8126213186193567  0.4540797782514048
  0.9162674617033275  0.8126225838856342  0.4540759736720759
  0.4999488043213702  0.8750308829850795  0.1969449690123000
  0.8337084085769462  0.9374083739140602  0.2026433145931534
  0.6662834484111713  0.9374132699128239  0.2026449968711432
  0.7500007850659571  0.5000373746663911  0.2780075895255152
  0.5822764393015873  0.9374965558946542  0.2835868805301729
  0.9177205641218649  0.9374878808312701  0.2835800041151018
  0.4999797233097425  0.5001021364836689  0.3695629053786433
  0.8325295451666790  0.9375229881320664  0.3677156846283083
  0.6674618314079197  0.9375221036778072  0.3677185942845966
  0.7500064300451328  0.5001680274330838  0.4537904849856673
  0.5837667950550269  0.9376394013007214  0.4542740939874221
  0.9162217095795810  0.9376471196805127  0.4542671959976943
  0.4059827442271100  0.9999803573112658  0.2318819912089509
  0.2499926972225452  0.9998931125976043  0.1991088662051794
  0.0940025270010949  0.9999786495008252  0.2318816719033165
  0.1543438683592839  0.1249646272174516  0.3152353742824303
  0.9999888590837074  0.1249558810960067  0.3027522065563772
  0.3456530521863854  0.1249639535190710  0.3152365538746196
  0.4011690229819891  0.1251850114924196  0.4021405901676331
  0.2499969461786620  0.1250078529672578  0.3861758208627606
  0.0988196885934656  0.1251812036494826  0.4021371881097480
  0.1533905322541429  0.1250853312429427  0.4868404392586712
  0.9999577328319873  0.1245998051834505  0.4748051511496172
  0.3466115135437278  0.1250814527081090  0.4868450775787210
  0.4001545391856425  0.1247508579394818  0.5672532416106861
  0.2499948223398434  0.1254968168456116  0.5571054412339862
  0.0998477815820067  0.1247529633958635  0.5672507625878183
  0.4059961580235054  0.1249198527664532  0.2317509584891795
  0.2499910379796617  0.1249473818984868  0.1989745478577873
  0.0939809389173618  0.1249157008069517  0.2317502047249533
  0.1543448951308193  0.2500382563864179  0.3152322385627073
  0.9999900100435468  0.2500512597138282  0.3027510165427216
  0.3456551988256038  0.2500400357989818  0.3152326853010265
  0.4011756886416791  0.2498116765462228  0.4021376259217959
  0.2499982160872136  0.2499883581031668  0.3861747535271007
  0.0988206157869058  0.2498117383367671  0.4021341493389272
  0.1533863756388669  0.2499046623854468  0.4868446887890840
  0.9999573012627962  0.2504031170709382  0.4748009157902118
  0.3466088881076672  0.2499087151829329  0.4868431527868680
  0.4001574102686334  0.2502337898381413  0.5672495638581623
  0.2499959760457742  0.2494845667718479  0.5571058437124137
  0.0998385930828292  0.2502297054977589  0.5672426791036855
  0.4059989858147333  0.2500928802020326  0.2317458213180927
  0.2499882976285335  0.2500632202390420  0.1989479671480865
  0.0939820538339120  0.2500930426016552  0.2317463019797259
  0.1543612338897944  0.3750002636717369  0.3153965689831395
  0.9999948035918393  0.3749454577229940  0.3028437255909395
  0.3456425794233198  0.3749972972815954  0.3153960278818886
  0.4012079771827644  0.3750751071117691  0.4022740666242655
  0.2499989619563436  0.3749111713741442  0.3863355175216938
  0.0987928391341839  0.3750706654061702  0.4022717328913927
  0.1533251879789859  0.3746538860853477  0.4869479118245934
  0.9999795607902229  0.3742667623425717  0.4749055019885162
  0.3466769362776390  0.3746581417749439  0.4869423163104756
  0.4000455004263941  0.3740239505247303  0.5673951400831854
  0.2500030337817662  0.3741631953515920  0.5572858922392001
  0.0999516597425014  0.3740274964982078  0.5674002495818087
  0.4059823038644197  0.3750319626476539  0.2318776688366810
  0.2499925704681303  0.3751224821468995  0.1991275733095108
  0.0940058205058136  0.3750363221685262  0.2318760375228166
  0.1543605216115651  0.0000019935601827  0.3154028788067293
  0.9999954326320122  0.0000624674442307  0.3028474322825474
  0.3456362757221356  0.0000029471950285  0.3154045043233040
  0.4012035841176527  0.9999198248931904  0.4022765955541132
  0.2499952008732507  0.0000807871086934  0.3863471805964949
  0.0987854968087021  0.9999246079033597  0.4022743097900658
  0.1533111837642664  0.0003345489082420  0.4869472000387773
  0.9999735401793757  0.0007293431715922  0.4749098295216569
  0.3466826497860680  0.0003287099170137  0.4869493608868325
  0.4000433923413524  0.0009739306492449  0.5674054991566493
  0.2499994269084809  0.0008203970221388  0.5572860345930408
  0.0999519179778616  0.0009729614252052  0.5674057730989119
  0.4060060159990186  0.5001547595834595  0.2320816383860489
  0.2499958237223154  0.5001646256331185  0.1993332522519182
  0.0939889451529510  0.5001544937525040  0.2320819475188358
  0.1543277979537550  0.6250215437415534  0.3158149757788777
  0.9999961439182812  0.6249477203070342  0.3031769965093645
  0.3456742794514085  0.6250200416866392  0.3158160367951126
  0.4011582294101572  0.6251252538933514  0.4027641803231816
  0.2500011776522229  0.6249633045668688  0.3867724623485245
  0.0988356311985115  0.6251160557667390  0.4027550994548150
  0.1534970076811248  0.6242592542441869  0.4875921719522509
  0.0001091470840535  0.6242815467006864  0.4751997836021005
  0.3465050271605818  0.6242647054537400  0.4876084651523911
  0.4000892021010429  0.6238068761712867  0.5678833614671319
  0.2499791261237476  0.6231438142792882  0.5613411211051798
  0.0998775604703894  0.6238156622644269  0.5678837287371508
  0.4060127850180848  0.6249892783980755  0.2322590098050412
  0.2500015390015804  0.6250526974958959  0.1995332141161157
  0.0939852201911577  0.6249887087705375  0.2322578769494967
  0.1543272676416123  0.7499814600915897  0.3158164273025363
  0.9999937080836290  0.7500578728593936  0.3031801341250997
  0.3456736527480473  0.7499820959686758  0.3158180168146316
  0.4011605584352651  0.7498644418786782  0.4027658796973910
  0.2499974620393175  0.7500242308845699  0.3867663345874846
  0.0988365142739411  0.7498737492399528  0.4027592967447262
  0.1534942871778853  0.7507224157889922  0.4876003651725753
  0.0001030402962598  0.7507059760070973  0.4752022000181526
  0.3464832096020487  0.7507106560503232  0.4876161619672459
  0.4001005121232311  0.7511532789098041  0.5678848363672628
  0.2499760651453187  0.7521204745886791  0.5613325222172563
  0.0998590364677980  0.7511558135774408  0.5678811574000306
  0.4060151552855160  0.7500283153786995  0.2322612013732410
  0.2499996607302748  0.7499680005727427  0.1995124731646527
  0.0939835536151463  0.7500260423836451  0.2322577702381494
  0.1543486362185220  0.8749626743484953  0.3156290571657792
  0.0000006231263754  0.8749643945726717  0.3030253905859013
  0.3456478452599114  0.8749634815963319  0.3156326063960009
  0.4011678596611787  0.8752443853976928  0.4024923639775722
  0.2499959490875128  0.8749992684758467  0.3866329992023481
  0.0988269360692016  0.8752503054888834  0.4024821008952628
  0.1533098196077631  0.8754512976888833  0.4872437502392302
  0.9999537608223861  0.8747876151360003  0.4752262273407197
  0.3466716193570250  0.8754356641877692  0.4872450002260180
  0.4001126455183908  0.8753251652084515  0.5676428797541249
  0.2499964289177115  0.8770889128181096  0.5582226146798419
  0.0998731940926376  0.8753431100173117  0.5676231350652685
  0.4060012762794685  0.8748596463222285  0.2320907666782048
  0.2499986581683515  0.8748503355988291  0.1993630865445368
  0.0939896250997379  0.8748593088496435  0.2320896872728184
  0.1543484313915187  0.5000379387517597  0.3156215611446171
  0.9999992469913295  0.5000422693938518  0.3030250291636065
  0.3456530864695182  0.5000393945777617  0.3156234915157015
  0.4011668644488182  0.4997462198208282  0.4024867785080346
  0.2499982701293888  0.4999923265957804  0.3866315076958813
  0.0988373995573681  0.4997456837561600  0.4024796579296392
  0.1533077022629428  0.4995548941962156  0.4872517087781318
  0.9999619737505654  0.5002089359742570  0.4752150564004438
  0.3466627801606705  0.4995632366593341  0.4872470702392988
  0.4001213956843230  0.4996589840332817  0.5676386445057702
  0.2499980653573743  0.4979628559924620  0.5582255967319227
  0.0998655065677312  0.4996463662598813  0.5676272650610272
  0.9059980269187307  0.9999818022765226  0.2318629839714106
  0.7499934909487322  0.9999260967918033  0.1990365329910944
  0.5939900547008037  0.9999820413862324  0.2318606249720858
  0.6543219676158856  0.1249669499646942  0.3152487734125984
  0.4999976017754335  0.1249567779388983  0.3027561998724195
  0.8456588141987993  0.1249683889150859  0.3152499830258790
  0.9011327230987689  0.1251566050722346  0.4021790455577019
  0.7499952542566604  0.1249984775732145  0.3861994792551826
  0.5988609246880330  0.1251586444056798  0.4021816489611467
  0.6534424547848161  0.1250189362933156  0.4868918499427579
  0.5000359403804921  0.1246008603136417  0.4748067303982779
  0.8465458130203416  0.1250167057798919  0.4868919642005594
  0.9000444530240088  0.1246756018454391  0.5672729238580629
  0.7499985468560411  0.1253037208172287  0.5571734981563594
  0.5999632722154402  0.1246771740128239  0.5672789576851898
  0.9059895320435487  0.1249286376003909  0.2317490328013676
  0.7499925143038340  0.1249658729015053  0.1989955849638534
  0.5939928281430795  0.1249266048091684  0.2317485717886001
  0.6543259491234181  0.2500400434192613  0.3152472064471326
  0.5000052236032104  0.2500505123403087  0.3027507538425240
  0.8456639736750660  0.2500407932674307  0.3152498544412694
  0.9011313396581855  0.2498505719910895  0.4021779669150547
  0.7499970159216574  0.2500105387621829  0.3861975733157550
  0.5988674709730972  0.2498498965920746  0.4021784309378162
  0.6534414365281478  0.2499889886579325  0.4868938287265365
  0.5000381611150004  0.2504004658068197  0.4747994515644152
  0.8465423688508835  0.2499897414778758  0.4868906095071495
  0.9000337860483469  0.2503316080580120  0.5672762686981798
  0.7500003563877655  0.2497080329139152  0.5571747244457868
  0.5999641343109658  0.2503299325965571  0.5672786491741277
  0.9059892305328887  0.2500819734068713  0.2317477769910141
  0.7499897327913132  0.2500468150733610  0.1989885034912788
  0.5939942738345394  0.2500827346638772  0.2317473198382345
  0.6543528778268453  0.3750203945896189  0.3153675303391594
  0.4999992510010216  0.3749459577580510  0.3028456468645544
  0.8456418348024144  0.3750199496987037  0.3153682085245606
  0.9011966645855765  0.3750909973248966  0.4022720765805445
  0.7500018813036249  0.3749555517047085  0.3863148042642663
  0.5988043687051388  0.3750955653251467  0.4022714814484374
  0.6533798938784940  0.3748199107223726  0.4869700735144278
  0.5000255983773698  0.3742666718461862  0.4749134129948658
  0.8466126121328088  0.3748196076977521  0.4869677097898801
  0.9000966100335290  0.3742832330902246  0.5673696326613040
  0.7500010936490753  0.3749031137407144  0.5572415327336486
  0.5999022958345108  0.3742698015642603  0.5673673932385270
  0.9059934930718754  0.3750276699759141  0.2318577370075232
  0.7499934401055270  0.3750889678238067  0.1990449297708494
  0.5939946242519767  0.3750270730680398  0.2318566947390863
  0.6543454975436092  0.9999871994845222  0.3153690931671917
  0.4999900031106037  0.0000606912792662  0.3028508243883863
  0.8456420965352152  0.9999915739318936  0.3153718291757812
  0.9011939248922189  0.9999160403064877  0.4022757762922993
  0.7499981299926759  0.0000591381147217  0.3863181964192179
  0.5987969416841707  0.9999122569274093  0.4022779045073861
  0.6533720036501691  0.0001886497884129  0.4869687673815051
  0.5000204581340668  0.0007312768832080  0.4749148286816833
  0.8466138145851545  0.0001866190792370  0.4869678329677214
  0.9000864857064528  0.0007204736419411  0.5673690919831884
  0.7499930306715470  0.0001033230018734  0.5572406060082855
  0.5999016492365783  0.0007342440222189  0.5673691854733889
  0.9060453445243510  0.5001314473149066  0.2320248260367848
  0.7499971075880580  0.5001474426748516  0.1992303108457492
  0.5939505958124656  0.5001331378719556  0.2320253247155151
  0.6543466100758835  0.6249971783879502  0.3156958976135869
  0.5000017809261408  0.6249477619662898  0.3031823500768098
  0.8456532426841505  0.6249972632279821  0.3156944689714081
  0.9012978295345064  0.6250852365864716  0.4025790097383748
  0.7499986145053228  0.6250066387886406  0.3866229990714345
  0.5986991389352099  0.6250884862826851  0.4025849741304768
  0.6533659527062952  0.6249259670503022  0.4872581731590699
  0.4998872271026613  0.6242806809029773  0.4751994659142866
  0.8466207551860450  0.6249234174009999  0.4872516938903857
  0.8996990090045642  0.6243092770673542  0.5677631198847166
  0.7500009234745022  0.6249649565001718  0.5579201660713196
  0.6003101437966123  0.6242991388057106  0.5677646171142143
  0.9060704733877216  0.6249919778390023  0.2321555623130749
  0.7499971844144611  0.6250582971245819  0.1993937157096184
  0.5939263538172455  0.6249917770682671  0.2321564525226449
  0.6543453104477592  0.7500132605834082  0.3156969979660502
  0.5000029594516917  0.7500576335569775  0.3031818133340707
  0.8456514254823944  0.7500156890939706  0.3156963586514934
  0.9013013503875555  0.7499259074956512  0.4025797521721373
  0.7499975809414821  0.7500073762580399  0.3866282018642906
  0.5986941777872232  0.7499242597110012  0.4025861356722018
  0.6533744231059444  0.7500750549049826  0.4872565480858242
  0.4998803003193899  0.7507034734214528  0.4752057517450439
  0.8466305791623725  0.7500781418214828  0.4872540287400042
  0.8996709520504425  0.7506830818519958  0.5677604334201405
  0.7499979510700356  0.7500404669045793  0.5579240606936438
  0.6003168052379237  0.7506857302459977  0.5677595310819257
  0.9060700547753768  0.7500220144811465  0.2321567321426841
  0.7499976492524496  0.7499645404107085  0.1993819957527521
  0.5939249266607263  0.7500213143618950  0.2321579383784140
  0.6543494302942321  0.8749563917296612  0.3155644906860289
  0.4999912945991341  0.8749620617388416  0.3030315953414373
  0.8456440561464049  0.8749588101949968  0.3155637421062281
  0.9012308183296867  0.8751722203084000  0.4024601234522223
  0.7499988738747589  0.8750434591808016  0.3865174209542772
  0.5987660424843426  0.8751717868698563  0.4024662515506918
  0.6533875198670600  0.8751602788071366  0.4871536575908806
  0.5000390414723483  0.8747810324210619  0.4752341302833187
  0.8466067741344077  0.8751593991698599  0.4871523802303130
  0.8997582163285855  0.8748091474660953  0.5676678703683393
  0.7499993253122454  0.8757329216914087  0.5575836204544160
  0.6002379601706096  0.8748089826581236  0.5676697203734662
  0.9060468045569650  0.8748833207786291  0.2320293601598635
  0.7499965153825485  0.8748728608411085  0.1992431990830426
  0.5939461741109326  0.8748800724158272  0.2320291178001028
  0.6543544375743409  0.5000559999622567  0.3155592157466600
  0.5000001607250724  0.5000444291465129  0.3030274705928306
  0.8456461485994495  0.5000553361496358  0.3155594574681970
  0.9012321950756501  0.4998367102170107  0.4024613863086870
  0.7500019768505553  0.4999711964882181  0.3865118469022804
  0.5987692845166492  0.4998368682478400  0.4024621021646908
  0.6533979554561498  0.4998444263941266  0.4871488284542167
  0.5000407713816699  0.5002137837770348  0.4752229063601092
  0.8466101299091875  0.4998447536789143  0.4871529510987642
  0.8997723809585807  0.5001919554538574  0.5676658553732850
  0.7500025151128185  0.4992755770155881  0.5575809545646848
  0.6002349047457685  0.5001927101358916  0.5676635788604827
  0.9999508582685337  0.1147557712408087  0.5413206056356827
  0.3342315798712363  0.0627346990495852  0.5387039150400312
  0.1657548232471413  0.0627426560233602  0.5387075963327632
  0.9999755024363282  0.2602381421433080  0.5413075161358663
  0.3351159028151898  0.1874924981945725  0.5390715701653903
  0.1649042121912174  0.1874945348216599  0.5390668947798503
  0.0000087603071535  0.3643470529134021  0.5413957491550292
  0.3342329337402106  0.3122549247644457  0.5386971235548259
  0.1657593366356522  0.3122431225350653  0.5387013399215732
  0.0000164645306526  0.0106467655049940  0.5413989804892623
  0.3348511656111981  0.4369973565080727  0.5393165138454705
  0.1651484587910730  0.4369874079002827  0.5393103567439397
  0.9998708405003995  0.6142399828495471  0.5416025760883514
  0.3342589959882929  0.5616353480646836  0.5393750631549139
  0.1657283177069218  0.5616423375791371  0.5393693290362975
  0.9998456346680697  0.7607589182960552  0.5416191547321532
  0.3371469998411811  0.6874769341099167  0.5392075922099835
  0.1627997437199298  0.6874901896374226  0.5392030422407856
  0.9996974865746893  0.8650082223416504  0.5417072247578432
  0.3342905984072360  0.8133662948812130  0.5393699448976719
  0.1656733094660652  0.8133816030928713  0.5393658775907184
  0.9996913482329361  0.5099813138584821  0.5417005862317410
  0.3348428279793580  0.9380024002113956  0.5393141138142354
  0.1651486932300372  0.9380073938469948  0.5393102095853877
  0.5000237945057506  0.1147735206281411  0.5413157656019223
  0.8342453291178131  0.0625629296186432  0.5387174458052613
  0.6657485981766627  0.0625552947482149  0.5387172568019665
  0.5000290872659292  0.2602239778140358  0.5413062437596139
  0.8351025416527094  0.1875090237876549  0.5391220996970816
  0.6648905524971127  0.1875108681281290  0.5391259000073845
  0.4999919379922630  0.3643479003150389  0.5413946713392619
  0.8342453501158005  0.3124424756325652  0.5387169080841403
  0.6657527928433424  0.3124496901800953  0.5387153299392793
  0.4999731895706461  0.0106433265647681  0.5413996368856147
  0.8350744243253772  0.4373531616562829  0.5392758124853003
  0.6649335207204814  0.4373602236592689  0.5392723494003917
  0.5001202193916896  0.6142434520468996  0.5416186574831983
  0.8341506346445726  0.5624447005873847  0.5389697941300184
  0.6658557787119150  0.5624425801730482  0.5389669867016096
  0.5001325626326576  0.7607469082737879  0.5416185552309116
  0.8352830575421848  0.6875030345991249  0.5394403780022472
  0.6647251076691774  0.6875019132906459  0.5394439916421661
  0.5002943828370263  0.8650092574137247  0.5417197128127569
  0.8341324462970192  0.8125504565993467  0.5389748932062375
  0.6658667966339067  0.8125527000401931  0.5389695338122067
  0.5002997628072166  0.5099815309468312  0.5417179184031298
  0.8350746566794243  0.9376556247403016  0.5392772807531898
  0.6649175683271480  0.9376475153306529  0.5392734141021265
  0.2499140808795133  0.6880757253734870  0.6080413150071280
 
  0.00000000E+00  0.00000000E+00  0.00000000E+00
  0.00000000E+00  0.00000000E+00  0.00000000E+00
  0.00000000E+00  0.00000000E+00  0.00000000E+00
  0.00000000E+00  0.00000000E+00  0.00000000E+00
  0.00000000E+00  0.00000000E+00  0.00000000E+00
  0.00000000E+00  0.00000000E+00  0.00000000E+00