Ta  N Ru                                
   1.00000000000000     
     9.0548154099999998    0.0000000000000000    0.0000000000000000
     0.0000000000000000   11.6775998899999998    0.0000000000000000
     0.0000000000000000    0.0000000000000000   23.4818170799999990
   Ta   N    Ru
    60    60     1
Selective dynamics
Direct
  0.0000000000000000  0.0000000000000000  0.2546926809530987   F   F   F
  0.6670845899906297  0.1250000003211298  0.2638822399803757   F   F   F
  0.3329153514769843  0.1250000003211298  0.2638822399803757   F   F   F
  0.4999999994478088  0.2499999997859135  0.3618861993156202   F   F   F
  0.1650707596845180  0.1250000003211298  0.3684425577811794   F   F   F
  0.8349292403154820  0.1250000003211298  0.3684425577811794   F   F   F
 -0.0004648909597070  0.2500603096084181  0.4799124696369114   T   T   T
  0.6643345395875604  0.1250711949343581  0.4781966939377189   T   T   T
  0.3344096477139877  0.1250647380014048  0.4783164255140746   T   T   T
  0.4996436291061038  0.2501166598833617  0.5906233364845621   T   T   T
  0.1673089173630949  0.1253400744089530  0.5905662813025471   T   T   T
  0.8310686049889835  0.1250894017695508  0.5904484808605815   T   T   T
  0.9982943552505316  0.2500638979986150  0.7035655471731244   T   T   T
  0.6669068124579864  0.1208174724110810  0.7036071867967528   T   T   T
  0.3253808020095028  0.1226491130804870  0.7046003914939168   T   T   T
  0.0000000000000000  0.2499999997859135  0.2546926809530987   F   F   F
  0.6670845899906297  0.3750000001070433  0.2638822399803757   F   F   F
  0.3329153514769843  0.3750000001070433  0.2638822399803757   F   F   F
  0.4999999994478088  0.5000000004281731  0.3618861993156202   F   F   F
  0.1650707596845180  0.3750000001070433  0.3684425577811794   F   F   F
  0.8349292403154820  0.3750000001070433  0.3684425577811794   F   F   F
 -0.0003886868508878  0.4998361726189411  0.4798158115800113   T   T   T
  0.6643377971141579  0.3750427459493738  0.4782011968251605   T   T   T
  0.3344136325755701  0.3750086582231504  0.4783238775799205   T   T   T
  0.4986115387285913  0.5000431674855215  0.5907820162610133   T   T   T
  0.1673187025334688  0.3748519927292655  0.5905935539781404   T   T   T
  0.8310702546350895  0.3751364784147105  0.5904552372407894   T   T   T
  0.9973198689089707  0.4994371297514825  0.7024381190394070   T   T   T
  0.6669764034153535  0.3794042199913847  0.7036569545750018   T   T   T
  0.3253643938512943  0.3775249794049063  0.7046411110927813   T   T   T
  0.0000000000000000  0.5000000004281731  0.2546926809530987   F   F   F
  0.6670845899906297  0.6249999998929567  0.2638822399803757   F   F   F
  0.3329153514769843  0.6249999998929567  0.2638822399803757   F   F   F
  0.4999999994478088  0.7500000002140865  0.3618861993156202   F   F   F
  0.1650707596845180  0.6249999998929567  0.3684425577811794   F   F   F
  0.8349292403154820  0.6249999998929567  0.3684425577811794   F   F   F
 -0.0004443256014661  0.7500374910591961  0.4797060462565461   T   T   T
  0.6641185940247387  0.6249895718694995  0.4779813977378550   T   T   T
  0.3343286152984118  0.6250004805796084  0.4782487225577832   T   T   T
  0.4983075366866939  0.7500795321705730  0.5906995665708480   T   T   T
  0.1663121668825071  0.6250154913873815  0.5900872381295181   T   T   T
  0.8314609427669827  0.6253829187348026  0.5894924656572478   T   T   T
  0.9984923222548328  0.7501221128622770  0.7021357709691376   T   T   T
  0.6686732459635150  0.6262823326865571  0.7039257233139261   T   T   T
  0.3270794964491224  0.6257552023832285  0.7041720116807419   T   T   T
  0.0000000000000000  0.7500000002140865  0.2546926809530987   F   F   F
  0.6670845899906297  0.8750000005352163  0.2638822399803757   F   F   F
  0.3329153514769843  0.8750000005352163  0.2638822399803757   F   F   F
  0.4999999994478088  0.0000000000000000  0.3618861993156202   F   F   F
  0.1650707596845180  0.8750000005352163  0.3684425577811794   F   F   F
  0.8349292403154820  0.8750000005352163  0.3684425577811794   F   F   F
 -0.0004172183960196  0.0002534444014522  0.4798115634890945   T   T   T
  0.6641150252049989  0.8751017860933935  0.4779737456236003   T   T   T
  0.3343381464172186  0.8750661038039755  0.4782354758727839   T   T   T
  0.4986612179317704  0.0001708397673307  0.5907532551627663   T   T   T
  0.1663485476441973  0.8751375967767170  0.5900575594407518   T   T   T
  0.8314873516779395  0.8748175591823479  0.5894932997430488   T   T   T
  0.9973386011684574  0.0007632824210130  0.7024092702470924   T   T   T
  0.6686796500816823  0.8739906279875329  0.7039148172698411   T   T   T
  0.3271340536636180  0.8744748709077816  0.7041285341613036   T   T   T
  0.8141011533980276  0.0000000000000000  0.3013105672926031   F   F   F
  0.4999999994478088  0.0000000000000000  0.2564174481620327   F   F   F
  0.1858988466019724  0.0000000000000000  0.3013105672926031   F   F   F
  0.3088456122590841  0.2499999997859135  0.4099867722441957   F   F   F
  0.0000000000000000  0.2499999997859135  0.3930971035158137   F   F   F
  0.6911543877409159  0.2499999997859135  0.4099867722441957   F   F   F
  0.8017310184921538  0.2500861692342877  0.5223074635148837   T   T   T
  0.4995160617402544  0.2500601903540364  0.5028199405309977   T   T   T
  0.1971134667444653  0.2500544025184822  0.5224997680774675   T   T   T
  0.3053338712757553  0.2501192976734881  0.6344738947496660   T   T   T
 -0.0009236400300510  0.2500945925608796  0.6144918107473061   T   T   T
  0.6947224167118987  0.2501358167422024  0.6348122547471828   T   T   T
  0.8077078959854115  0.2499778005948428  0.7464272187965191   T   T   T
  0.4979811083325331  0.2501012102328268  0.7288155243877193   T   T   T
  0.1899619587910360  0.2500686711509784  0.7408308542190279   T   T   T
  0.8141011533980276  0.2499999997859135  0.3013105672926031   F   F   F
  0.4999999994478088  0.2499999997859135  0.2564174481620327   F   F   F
  0.1858988466019724  0.2499999997859135  0.3013105672926031   F   F   F
  0.3088456122590841  0.5000000004281731  0.4099867722441957   F   F   F
  0.0000000000000000  0.5000000004281731  0.3930971035158137   F   F   F
  0.6911543877409159  0.5000000004281731  0.4099867722441957   F   F   F
  0.8018669484057248  0.4997542184530848  0.5220332610602485   T   T   T
  0.4993108206443195  0.5001410264370728  0.5028645914907955   T   T   T
  0.1969388022646100  0.4996432063567202  0.5223656139608441   T   T   T
  0.3026082767547469  0.5005452715251150  0.6335139717045424   T   T   T
 -0.0014310566337659  0.4999417252291765  0.6138458240131841   T   T   T
  0.6947940571507515  0.5028111675706582  0.6325681351757242   T   T   T
  0.8039834960004796  0.5025982758042312  0.7404818441092565   T   T   T
  0.4969314354930213  0.5013514990668269  0.7240635211215821   T   T   T
  0.1914526407769613  0.4997013774089770  0.7409254631272613   T   T   T
  0.8141011533980276  0.5000000004281731  0.3013105672926031   F   F   F
  0.4999999994478088  0.5000000004281731  0.2564174481620327   F   F   F
  0.1858988466019724  0.5000000004281731  0.3013105672926031   F   F   F
  0.3088456122590841  0.7500000002140865  0.4099867722441957   F   F   F
  0.0000000000000000  0.7500000002140865  0.3930971035158137   F   F   F
  0.6911543877409159  0.7500000002140865  0.4099867722441957   F   F   F
  0.8015226588387858  0.7500737688103234  0.5217678609335490   T   T   T
  0.4992522879964248  0.7500410731698933  0.5028053107275525   T   T   T
  0.1969383430159821  0.7500391049131429  0.5221567695040550   T   T   T
  0.3022049922115292  0.7500937305452637  0.6332036662661842   T   T   T
 -0.0012271535109366  0.7500894269419732  0.6135831708849702   T   T   T
  0.6947649109481552  0.7501030283783612  0.6328429908116618   T   T   T
  0.8047875612506217  0.7501184980311369  0.7402291694967809   T   T   T
  0.4976665441665432  0.7500949863128958  0.7238667265653808   T   T   T
  0.1916877519333233  0.7501984347903883  0.7408602949468517   T   T   T
  0.8141011533980276  0.7500000002140865  0.3013105672926031   F   F   F
  0.4999999994478088  0.7500000002140865  0.2564174481620327   F   F   F
  0.1858988466019724  0.7500000002140865  0.3013105672926031   F   F   F
  0.3088456122590841  0.0000000000000000  0.4099867722441957   F   F   F
  0.0000000000000000  0.0000000000000000  0.3930971035158137   F   F   F
  0.6911543877409159  0.0000000000000000  0.4099867722441957   F   F   F
  0.8018376579282767  0.0003961194990170  0.5220253811160279   T   T   T
  0.4993263855472075 -0.0000535689766110  0.5028426521411813   T   T   T
  0.1969299584683128  0.0004587198531594  0.5223292987228612   T   T   T
  0.3026709188616961  0.9996569256177369  0.6334715288334204   T   T   T
 -0.0014226647031336  0.0002621392278143  0.6138121643496635   T   T   T
  0.6947919625270079  0.9974234386543487  0.6325686905179727   T   T   T
  0.8039985765392580  0.9976785217622466  0.7404617866180538   T   T   T
  0.4969315400218775  0.9988513201175300  0.7240419643761339   T   T   T
  0.1915036791081895  0.0005615660302499  0.7408572423601691   T   T   T
  0.6379507024652217  0.2500755233041234  0.7957694606162988   T   T   T
 
  0.00000000E+00  0.00000000E+00  0.00000000E+00
  0.00000000E+00  0.00000000E+00  0.00000000E+00
  0.00000000E+00  0.00000000E+00  0.00000000E+00
  0.00000000E+00  0.00000000E+00  0.00000000E+00
  0.00000000E+00  0.00000000E+00  0.00000000E+00
  0.00000000E+00  0.00000000E+00  0.00000000E+00
  0.00000000E+00  0.00000000E+00  0.00000000E+00
  0.00000000E+00  0.00000000E+00  0.00000000E+00
  0.00000000E+00  0.00000000E+00  0.00000000E+00
  0.00000000E+00  0.00000000E+00  0.00000000E+00
  0.00000000E+00  0.00000000E+00  0.00000000E+00
  0.00000000E+00  0.00000000E+00  0.00000000E+00
  0.00000000E+00  0.00000000E+00  0.00000000E+00
  0.00000000E+00  0.00000000E+00  0.00000000E+00
  0.00000000E+00  0.00000000E+00  0.00000000E+00
  0.00000000E+00  0.00000000E+00  0.00000000E+00
  0.00000000E+00  0.00000000E+00  0.00000000E+00
  0.00000000E+00  0.00000000E+00  0.00000000E+00
  0.00000000E+00  0.00000000E+00  0.00000000E+00
  0.00000000E+00  0.00000000E+00  0.00000000E+00
  0.00000000E+00  0.00000000E+00  0.00000000E+00
  0.00000000E+00  0.00000000E+00  0.00000000E+00
  0.00000000E+00  0.00000000E+00  0.00000000E+00
  0.00000000E+00  0.00000000E+00  0.00000000E+00
  0.00000000E+00  0.00000000E+00  0.00000000E+00
  0.00000000E+00  0.00000000E+00  0.00000000E+00
  0.00000000E+00  0.00000000E+00  0.00000000E+00
  0.00000000E+00  0.00000000E+00  0.00000000E+00
  0.00000000E+00  0.00000000E+00  0.00000000E+00
  0.00000000E+00  0.00000000E+00  0.00000000E+00
  0.00000000E+00  0.00000000E+00  0.00000000E+00
  0.00000000E+00  0.00000000E+00  0.00000000E+00
  0.00000000E+00  0.00000000E+00  0.00000000E+00
  0.00000000E+00  0.00000000E+00  0.00000000E+00
  0.00000000E+00  0.00000000E+00  0.00000000E+00
  0.00000000E+00  0.00000000E+00  0.00000000E+00
  0.00000000E+00  0.00000000E+00  0.00000000E+00
  0.00000000E+00  0.00000000E+00  0.00000000E+00
  0.00000000E+00  0.00000000E+00  0.00000000E+00
  0.00000000E+00  0.00000000E+00  0.00000000E+00
  0.00000000E+00  0.00000000E+00  0.00000000E+00
  0.00000000E+00  0.00000000E+00  0.00000000E+00
  0.00000000E+00  0.00000000E+00  0.00000000E+00
  0.00000000E+00  0.00000000E+00  0.00000000E+00
  0.00000000E+00  0.00000000E+00  0.00000000E+00
  0.00000000E+00  0.00000000E+00  0.00000000E+00
  0.00000000E+00  0.00000000E+00  0.00000000E+00
  0.00000000E+00  0.00000000E+00  0.00000000E+00
  0.00000000E+00  0.00000000E+00  0.00000000E+00
  0.00000000E+00  0.00000000E+00  0.00000000E+00
  0.00000000E+00  0.00000000E+00  0.00000000E+00
  0.00000000E+00  0.00000000E+00  0.00000000E+00
  0.00000000E+00  0.00000000E+00  0.00000000E+00
  0.00000000E+00  0.00000000E+00  0.00000000E+00
  0.00000000E+00  0.00000000E+00  0.00000000E+00
  0.00000000E+00  0.00000000E+00  0.00000000E+00
  0.00000000E+00  0.00000000E+00  0.00000000E+00
  0.00000000E+00  0.00000000E+00  0.00000000E+00
  0.00000000E+00  0.00000000E+00  0.00000000E+00
  0.00000000E+00  0.00000000E+00  0.00000000E+00
  0.00000000E+00  0.00000000E+00  0.00000000E+00
  0.00000000E+00  0.00000000E+00  0.00000000E+00
  0.00000000E+00  0.00000000E+00  0.00000000E+00
  0.00000000E+00  0.00000000E+00  0.00000000E+00
  0.00000000E+00  0.00000000E+00  0.00000000E+00
  0.00000000E+00  0.00000000E+00  0.00000000E+00
  0.00000000E+00  0.00000000E+00  0.00000000E+00
  0.00000000E+00  0.00000000E+00  0.00000000E+00
  0.00000000E+00  0.00000000E+00  0.00000000E+00
  0.00000000E+00  0.00000000E+00  0.00000000E+00
  0.00000000E+00  0.00000000E+00  0.00000000E+00
  0.00000000E+00  0.00000000E+00  0.00000000E+00
  0.00000000E+00  0.00000000E+00  0.00000000E+00
  0.00000000E+00  0.00000000E+00  0.00000000E+00
  0.00000000E+00  0.00000000E+00  0.00000000E+00
  0.00000000E+00  0.00000000E+00  0.00000000E+00
  0.00000000E+00  0.00000000E+00  0.00000000E+00
  0.00000000E+00  0.00000000E+00  0.00000000E+00
  0.00000000E+00  0.00000000E+00  0.00000000E+00
  0.00000000E+00  0.00000000E+00  0.00000000E+00
  0.00000000E+00  0.00000000E+00  0.00000000E+00
  0.00000000E+00  0.00000000E+00  0.00000000E+00
  0.00000000E+00  0.00000000E+00  0.00000000E+00
  0.00000000E+00  0.00000000E+00  0.00000000E+00
  0.00000000E+00  0.00000000E+00  0.00000000E+00
  0.00000000E+00  0.00000000E+00  0.00000000E+00
  0.00000000E+00  0.00000000E+00  0.00000000E+00
  0.00000000E+00  0.00000000E+00  0.00000000E+00
  0.00000000E+00  0.00000000E+00  0.00000000E+00
  0.00000000E+00  0.00000000E+00  0.00000000E+00
  0.00000000E+00  0.00000000E+00  0.00000000E+00
  0.00000000E+00  0.00000000E+00  0.00000000E+00
  0.00000000E+00  0.00000000E+00  0.00000000E+00
  0.00000000E+00  0.00000000E+00  0.00000000E+00
  0.00000000E+00  0.00000000E+00  0.00000000E+00
  0.00000000E+00  0.00000000E+00  0.00000000E+00
  0.00000000E+00  0.00000000E+00  0.00000000E+00
  0.00000000E+00  0.00000000E+00  0.00000000E+00
  0.00000000E+00  0.00000000E+00  0.00000000E+00
  0.00000000E+00  0.00000000E+00  0.00000000E+00
  0.00000000E+00  0.00000000E+00  0.00000000E+00
  0.00000000E+00  0.00000000E+00  0.00000000E+00
  0.00000000E+00  0.00000000E+00  0.00000000E+00
  0.00000000E+00  0.00000000E+00  0.00000000E+00
  0.00000000E+00  0.00000000E+00  0.00000000E+00
  0.00000000E+00  0.00000000E+00  0.00000000E+00
  0.00000000E+00  0.00000000E+00  0.00000000E+00
  0.00000000E+00  0.00000000E+00  0.00000000E+00
  0.00000000E+00  0.00000000E+00  0.00000000E+00
  0.00000000E+00  0.00000000E+00  0.00000000E+00
  0.00000000E+00  0.00000000E+00  0.00000000E+00
  0.00000000E+00  0.00000000E+00  0.00000000E+00
  0.00000000E+00  0.00000000E+00  0.00000000E+00
  0.00000000E+00  0.00000000E+00  0.00000000E+00
  0.00000000E+00  0.00000000E+00  0.00000000E+00
  0.00000000E+00  0.00000000E+00  0.00000000E+00
  0.00000000E+00  0.00000000E+00  0.00000000E+00
  0.00000000E+00  0.00000000E+00  0.00000000E+00
  0.00000000E+00  0.00000000E+00  0.00000000E+00
  0.00000000E+00  0.00000000E+00  0.00000000E+00
  0.00000000E+00  0.00000000E+00  0.00000000E+00
