Ta  N Ru Cu                             
   1.00000000000000     
     9.0548154099999998    0.0000000000000000    0.0000000000000000
     0.0000000000000000   11.6775998899999998    0.0000000000000000
     0.0000000000000000    0.0000000000000000   23.4818170799999990
   Ta   N    Ru   Cu
    60    60    16     1
Selective dynamics
Direct
  0.0000000000000000  0.0000000000000000  0.2546926809530987   F   F   F
  0.6670845899906297  0.1250000003211298  0.2638822399803757   F   F   F
  0.3329153514769843  0.1250000003211298  0.2638822399803757   F   F   F
  0.4999999994478088  0.2499999997859135  0.3618861993156202   F   F   F
  0.1650707596845180  0.1250000003211298  0.3684425577811794   F   F   F
  0.8349292403154820  0.1250000003211298  0.3684425577811794   F   F   F
  0.0011733207645284  0.2502059551877326  0.4799208254594516   T   T   T
  0.6651774655855401  0.1251178221964962  0.4780520526382337   T   T   T
  0.3361146852066884  0.1251607703347942  0.4778955727537845   T   T   T
  0.5008252941161737  0.2500424567959164  0.5903512256034323   T   T   T
  0.1698216431746297  0.1254692194641174  0.5898101347951566   T   T   T
  0.8338197839830392  0.1253636729608303  0.5895322023391111   T   T   T
  0.9965995982099856  0.2493964497477081  0.6996899662125586   T   T   T
  0.6678953098268636  0.1255567922079293  0.7012935496720056   T   T   T
  0.3327038003058351  0.1257781707402639  0.7031180743281110   T   T   T
  0.0000000000000000  0.2499999997859135  0.2546926809530987   F   F   F
  0.6670845899906297  0.3750000001070433  0.2638822399803757   F   F   F
  0.3329153514769843  0.3750000001070433  0.2638822399803757   F   F   F
  0.4999999994478088  0.5000000004281731  0.3618861993156202   F   F   F
  0.1650707596845180  0.3750000001070433  0.3684425577811794   F   F   F
  0.8349292403154820  0.3750000001070433  0.3684425577811794   F   F   F
  0.0011770541833771  0.5001190773210651  0.4799580284637051   T   T   T
  0.6651010754408234  0.3751398515324118  0.4780935513492688   T   T   T
  0.3360422652881880  0.3751484940057640  0.4779244429731619   T   T   T
  0.5010268590194623  0.5006137655892197  0.5904655480750108   T   T   T
  0.1703769582466317  0.3754937371254345  0.5902691650805193   T   T   T
  0.8339175711058766  0.3752770129723442  0.5895948995560013   T   T   T
  0.9968252535806109  0.4995034025432753  0.6996727651032054   T   T   T
  0.6681640459076572  0.3748630350971689  0.7019565064634231   T   T   T
  0.3328206900932871  0.3762688635358558  0.7056117669148447   T   T   T
  0.0000000000000000  0.5000000004281731  0.2546926809530987   F   F   F
  0.6670845899906297  0.6249999998929567  0.2638822399803757   F   F   F
  0.3329153514769843  0.6249999998929567  0.2638822399803757   F   F   F
  0.4999999994478088  0.7500000002140865  0.3618861993156202   F   F   F
  0.1650707596845180  0.6249999998929567  0.3684425577811794   F   F   F
  0.8349292403154820  0.6249999998929567  0.3684425577811794   F   F   F
  0.0011235568596213  0.7500756425794631  0.4799221649365638   T   T   T
  0.6653096145069688  0.6250763417418136  0.4781003554481418   T   T   T
  0.3361894360738061  0.6251085314125733  0.4779121790446893   T   T   T
  0.5005997936406199  0.7500110542528691  0.5903331352017318   T   T   T
  0.1698403603490293  0.6254550714652524  0.5898793317261680   T   T   T
  0.8339475345653677  0.6251924309662269  0.5897198269634364   T   T   T
  0.9948494779143017  0.7505540808029633  0.6999607024313140   T   T   T
  0.6697783116229060  0.6250992379989543  0.7016974001853077   T   T   T
  0.3335158924591473  0.6260095581106723  0.7033209776196327   T   T   T
  0.0000000000000000  0.7500000002140865  0.2546926809530987   F   F   F
  0.6670845899906297  0.8750000005352163  0.2638822399803757   F   F   F
  0.3329153514769843  0.8750000005352163  0.2638822399803757   F   F   F
  0.4999999994478088  0.0000000000000000  0.3618861993156202   F   F   F
  0.1650707596845180  0.8750000005352163  0.3684425577811794   F   F   F
  0.8349292403154820  0.8750000005352163  0.3684425577811794   F   F   F
  0.0012021117863284  0.0001449155567181  0.4799211549720135   T   T   T
  0.6650341955196916  0.8750778177284797  0.4780548463549805   T   T   T
  0.3361065683895297  0.8751131261610701  0.4779089997300209   T   T   T
  0.5004455647623526  0.0005997579806776  0.5902731542251660   T   T   T
  0.1696948146839922  0.8753156322801301  0.5900947269515405   T   T   T
  0.8337334690768986  0.8752114755915703  0.5894072562709396   T   T   T
  0.9953196880585541 -0.0004211275705534  0.6992421451825059   T   T   T
  0.6666563132213122  0.8752700150128094  0.7010066724362022   T   T   T
  0.3298390681131690  0.8760293420002930  0.7052474722600998   T   T   T
  0.8141011533980276  0.0000000000000000  0.3013105672926031   F   F   F
  0.4999999994478088  0.0000000000000000  0.2564174481620327   F   F   F
  0.1858988466019724  0.0000000000000000  0.3013105672926031   F   F   F
  0.3088456122590841  0.2499999997859135  0.4099867722441957   F   F   F
  0.0000000000000000  0.2499999997859135  0.3930971035158137   F   F   F
  0.6911543877409159  0.2499999997859135  0.4099867722441957   F   F   F
  0.8023276345300430  0.2502321518339021  0.5218279438805101   T   T   T
  0.5005172983003653  0.2501992114644866  0.5026698613609762   T   T   T
  0.1998410993319932  0.2503779899998994  0.5221419286415238   T   T   T
  0.3059940217867397  0.2510014194724625  0.6345569659606396   T   T   T
  0.0014212969449392  0.2503753803882164  0.6118235102474754   T   T   T
  0.6973948827607287  0.2506319947227121  0.6334288457802241   T   T   T
  0.8049884177182278  0.2528567733609295  0.7453771917310128   T   T   T
  0.5031365539014530  0.2494210824270951  0.7259328170140045   T   T   T
  0.1951844915359161  0.2492441094307633  0.7381424708756278   T   T   T
  0.8141011533980276  0.2499999997859135  0.3013105672926031   F   F   F
  0.4999999994478088  0.2499999997859135  0.2564174481620327   F   F   F
  0.1858988466019724  0.2499999997859135  0.3013105672926031   F   F   F
  0.3088456122590841  0.5000000004281731  0.4099867722441957   F   F   F
  0.0000000000000000  0.5000000004281731  0.3930971035158137   F   F   F
  0.6911543877409159  0.5000000004281731  0.4099867722441957   F   F   F
  0.8023932847187477  0.5001812094347460  0.5219028308061118   T   T   T
  0.5005416305490135  0.5001506120189136  0.5027531138370802   T   T   T
  0.1998641544922144  0.5002924497026636  0.5221801237070637   T   T   T
  0.3062340157808298  0.5005694075713382  0.6347657330314397   T   T   T
  0.0015898922648073  0.5002101425208407  0.6118185340347264   T   T   T
  0.6974233682270442  0.4999707695562782  0.6336028231541002   T   T   T
  0.8050825244582342  0.4943004411662370  0.7449871348986785   T   T   T
  0.5049570329182375  0.5017711264608276  0.7259145103369289   T   T   T
  0.1945178356556125  0.5037506049845897  0.7384570163331400   T   T   T
  0.8141011533980276  0.5000000004281731  0.3013105672926031   F   F   F
  0.4999999994478088  0.5000000004281731  0.2564174481620327   F   F   F
  0.1858988466019724  0.5000000004281731  0.3013105672926031   F   F   F
  0.3088456122590841  0.7500000002140865  0.4099867722441957   F   F   F
  0.0000000000000000  0.7500000002140865  0.3930971035158137   F   F   F
  0.6911543877409159  0.7500000002140865  0.4099867722441957   F   F   F
  0.8023509826129838  0.7500416883263059  0.5218333727061538   T   T   T
  0.5005326380448709  0.7500503147229862  0.5026657480137525   T   T   T
  0.1997570920030663  0.7502246712939663  0.5221411145061304   T   T   T
  0.3055056690693665  0.7508662885542937  0.6345588495985980   T   T   T
  0.0011911104733509  0.7502952685848886  0.6119608735794945   T   T   T
  0.6974893258077964  0.7501762800097213  0.6332697560152731   T   T   T
  0.8031711007768227  0.7541483141551923  0.7459623030004556   T   T   T
  0.5025733081774827  0.7508870052009261  0.7253559956815285   T   T   T
  0.1930758471472679  0.7490923381227412  0.7381466999275179   T   T   T
  0.8141011533980276  0.7500000002140865  0.3013105672926031   F   F   F
  0.4999999994478088  0.7500000002140865  0.2564174481620327   F   F   F
  0.1858988466019724  0.7500000002140865  0.3013105672926031   F   F   F
  0.3088456122590841  0.0000000000000000  0.4099867722441957   F   F   F
  0.0000000000000000  0.0000000000000000  0.3930971035158137   F   F   F
  0.6911543877409159  0.0000000000000000  0.4099867722441957   F   F   F
  0.8023144892801179  0.0002128840928023  0.5217343859816183   T   T   T
  0.5004512928982531  0.0001792807193435  0.5026257543512087   T   T   T
  0.1998618833680322  0.0002139208192761  0.5221173931758398   T   T   T
  0.3053306158595727  0.0003384876624922  0.6345883541927938   T   T   T
  0.0010802224499170  0.0002996703659749  0.6114409410361815   T   T   T
  0.6970198389368288  0.0004475047121276  0.6331096980419471   T   T   T
  0.8024904452387691  0.9979045468649782  0.7445275288332019   T   T   T
  0.5028592794580690  0.0005940379948570  0.7252965628880395   T   T   T
  0.1923586944468067  0.0035613714731497  0.7383263508491280   T   T   T
  0.1296466647542553  0.0236709477956484  0.8158861145101177   T   T   T
  0.5699965907381275  0.0012433053168194  0.8056155653366992   T   T   T
  0.8796850198106888  0.1216640627196950  0.7976003419875926   T   T   T
  0.1312434433413660  0.5241133520047981  0.8159495611815601   T   T   T
  0.5690258518639932  0.5229485517298414  0.8070387220375694   T   T   T
  0.8760035290299557  0.6222682548309815  0.7970399342011986   T   T   T
  0.1397273469905470  0.2504645340547289  0.8168228484768006   T   T   T
  0.5455510276973485  0.2367623500269950  0.8091726137746633   T   T   T
  0.9071036248121175  0.3740326211063437  0.8018570838296712   T   T   T
  0.1329982923750190  0.7487644159316778  0.8164734201271264   T   T   T
  0.5536348975828752  0.7526603560393517  0.8072684836801822   T   T   T
  0.8955088967332926  0.8794784154182924  0.8001890481411540   T   T   T
  0.3481250614059390  0.8749614463663337  0.8369412710184034   T   T   T
  0.3593972783725020  0.6127955687763038  0.8457894740698142   T   T   T
  0.3556918568968809  0.3770464334195642  0.8385618356332770   T   T   T
  0.3606549162716312  0.1022854702976326  0.8466716692385684   T   T   T
  0.6907827559502634  0.3761222055633943  0.8678032810744298   T   T   T
 
  0.00000000E+00  0.00000000E+00  0.00000000E+00
  0.00000000E+00  0.00000000E+00  0.00000000E+00
  0.00000000E+00  0.00000000E+00  0.00000000E+00
  0.00000000E+00  0.00000000E+00  0.00000000E+00
  0.00000000E+00  0.00000000E+00  0.00000000E+00
  0.00000000E+00  0.00000000E+00  0.00000000E+00
  0.00000000E+00  0.00000000E+00  0.00000000E+00
  0.00000000E+00  0.00000000E+00  0.00000000E+00
  0.00000000E+00  0.00000000E+00  0.00000000E+00
  0.00000000E+00  0.00000000E+00  0.00000000E+00
  0.00000000E+00  0.00000000E+00  0.00000000E+00
  0.00000000E+00  0.00000000E+00  0.00000000E+00
  0.00000000E+00  0.00000000E+00  0.00000000E+00
  0.00000000E+00  0.00000000E+00  0.00000000E+00
  0.00000000E+00  0.00000000E+00  0.00000000E+00
  0.00000000E+00  0.00000000E+00  0.00000000E+00
  0.00000000E+00  0.00000000E+00  0.00000000E+00
  0.00000000E+00  0.00000000E+00  0.00000000E+00
  0.00000000E+00  0.00000000E+00  0.00000000E+00
  0.00000000E+00  0.00000000E+00  0.00000000E+00
  0.00000000E+00  0.00000000E+00  0.00000000E+00
  0.00000000E+00  0.00000000E+00  0.00000000E+00
  0.00000000E+00  0.00000000E+00  0.00000000E+00
  0.00000000E+00  0.00000000E+00  0.00000000E+00
  0.00000000E+00  0.00000000E+00  0.00000000E+00
  0.00000000E+00  0.00000000E+00  0.00000000E+00
  0.00000000E+00  0.00000000E+00  0.00000000E+00
  0.00000000E+00  0.00000000E+00  0.00000000E+00
  0.00000000E+00  0.00000000E+00  0.00000000E+00
  0.00000000E+00  0.00000000E+00  0.00000000E+00
  0.00000000E+00  0.00000000E+00  0.00000000E+00
  0.00000000E+00  0.00000000E+00  0.00000000E+00
  0.00000000E+00  0.00000000E+00  0.00000000E+00
  0.00000000E+00  0.00000000E+00  0.00000000E+00
  0.00000000E+00  0.00000000E+00  0.00000000E+00
  0.00000000E+00  0.00000000E+00  0.00000000E+00
  0.00000000E+00  0.00000000E+00  0.00000000E+00
  0.00000000E+00  0.00000000E+00  0.00000000E+00
  0.00000000E+00  0.00000000E+00  0.00000000E+00
  0.00000000E+00  0.00000000E+00  0.00000000E+00
  0.00000000E+00  0.00000000E+00  0.00000000E+00
  0.00000000E+00  0.00000000E+00  0.00000000E+00
  0.00000000E+00  0.00000000E+00  0.00000000E+00
  0.00000000E+00  0.00000000E+00  0.00000000E+00
  0.00000000E+00  0.00000000E+00  0.00000000E+00
  0.00000000E+00  0.00000000E+00  0.00000000E+00
  0.00000000E+00  0.00000000E+00  0.00000000E+00
  0.00000000E+00  0.00000000E+00  0.00000000E+00
  0.00000000E+00  0.00000000E+00  0.00000000E+00
  0.00000000E+00  0.00000000E+00  0.00000000E+00
  0.00000000E+00  0.00000000E+00  0.00000000E+00
  0.00000000E+00  0.00000000E+00  0.00000000E+00
  0.00000000E+00  0.00000000E+00  0.00000000E+00
  0.00000000E+00  0.00000000E+00  0.00000000E+00
  0.00000000E+00  0.00000000E+00  0.00000000E+00
  0.00000000E+00  0.00000000E+00  0.00000000E+00
  0.00000000E+00  0.00000000E+00  0.00000000E+00
  0.00000000E+00  0.00000000E+00  0.00000000E+00
  0.00000000E+00  0.00000000E+00  0.00000000E+00
  0.00000000E+00  0.00000000E+00  0.00000000E+00
  0.00000000E+00  0.00000000E+00  0.00000000E+00
  0.00000000E+00  0.00000000E+00  0.00000000E+00
  0.00000000E+00  0.00000000E+00  0.00000000E+00
  0.00000000E+00  0.00000000E+00  0.00000000E+00
  0.00000000E+00  0.00000000E+00  0.00000000E+00
  0.00000000E+00  0.00000000E+00  0.00000000E+00
  0.00000000E+00  0.00000000E+00  0.00000000E+00
  0.00000000E+00  0.00000000E+00  0.00000000E+00
  0.00000000E+00  0.00000000E+00  0.00000000E+00
  0.00000000E+00  0.00000000E+00  0.00000000E+00
  0.00000000E+00  0.00000000E+00  0.00000000E+00
  0.00000000E+00  0.00000000E+00  0.00000000E+00
  0.00000000E+00  0.00000000E+00  0.00000000E+00
  0.00000000E+00  0.00000000E+00  0.00000000E+00
  0.00000000E+00  0.00000000E+00  0.00000000E+00
  0.00000000E+00  0.00000000E+00  0.00000000E+00
  0.00000000E+00  0.00000000E+00  0.00000000E+00
  0.00000000E+00  0.00000000E+00  0.00000000E+00
  0.00000000E+00  0.00000000E+00  0.00000000E+00
  0.00000000E+00  0.00000000E+00  0.00000000E+00
  0.00000000E+00  0.00000000E+00  0.00000000E+00
  0.00000000E+00  0.00000000E+00  0.00000000E+00
  0.00000000E+00  0.00000000E+00  0.00000000E+00
  0.00000000E+00  0.00000000E+00  0.00000000E+00
  0.00000000E+00  0.00000000E+00  0.00000000E+00
  0.00000000E+00  0.00000000E+00  0.00000000E+00
  0.00000000E+00  0.00000000E+00  0.00000000E+00
  0.00000000E+00  0.00000000E+00  0.00000000E+00
  0.00000000E+00  0.00000000E+00  0.00000000E+00
  0.00000000E+00  0.00000000E+00  0.00000000E+00
  0.00000000E+00  0.00000000E+00  0.00000000E+00
  0.00000000E+00  0.00000000E+00  0.00000000E+00
  0.00000000E+00  0.00000000E+00  0.00000000E+00
  0.00000000E+00  0.00000000E+00  0.00000000E+00
  0.00000000E+00  0.00000000E+00  0.00000000E+00
  0.00000000E+00  0.00000000E+00  0.00000000E+00
  0.00000000E+00  0.00000000E+00  0.00000000E+00
  0.00000000E+00  0.00000000E+00  0.00000000E+00
  0.00000000E+00  0.00000000E+00  0.00000000E+00
  0.00000000E+00  0.00000000E+00  0.00000000E+00
  0.00000000E+00  0.00000000E+00  0.00000000E+00
  0.00000000E+00  0.00000000E+00  0.00000000E+00
  0.00000000E+00  0.00000000E+00  0.00000000E+00
  0.00000000E+00  0.00000000E+00  0.00000000E+00
  0.00000000E+00  0.00000000E+00  0.00000000E+00
  0.00000000E+00  0.00000000E+00  0.00000000E+00
  0.00000000E+00  0.00000000E+00  0.00000000E+00
  0.00000000E+00  0.00000000E+00  0.00000000E+00
  0.00000000E+00  0.00000000E+00  0.00000000E+00
  0.00000000E+00  0.00000000E+00  0.00000000E+00
  0.00000000E+00  0.00000000E+00  0.00000000E+00
  0.00000000E+00  0.00000000E+00  0.00000000E+00
  0.00000000E+00  0.00000000E+00  0.00000000E+00
  0.00000000E+00  0.00000000E+00  0.00000000E+00
  0.00000000E+00  0.00000000E+00  0.00000000E+00
  0.00000000E+00  0.00000000E+00  0.00000000E+00
  0.00000000E+00  0.00000000E+00  0.00000000E+00
  0.00000000E+00  0.00000000E+00  0.00000000E+00
  0.00000000E+00  0.00000000E+00  0.00000000E+00
  0.00000000E+00  0.00000000E+00  0.00000000E+00
  0.00000000E+00  0.00000000E+00  0.00000000E+00
  0.00000000E+00  0.00000000E+00  0.00000000E+00
  0.00000000E+00  0.00000000E+00  0.00000000E+00
  0.00000000E+00  0.00000000E+00  0.00000000E+00
  0.00000000E+00  0.00000000E+00  0.00000000E+00
  0.00000000E+00  0.00000000E+00  0.00000000E+00
  0.00000000E+00  0.00000000E+00  0.00000000E+00
  0.00000000E+00  0.00000000E+00  0.00000000E+00
  0.00000000E+00  0.00000000E+00  0.00000000E+00
  0.00000000E+00  0.00000000E+00  0.00000000E+00
  0.00000000E+00  0.00000000E+00  0.00000000E+00
  0.00000000E+00  0.00000000E+00  0.00000000E+00
  0.00000000E+00  0.00000000E+00  0.00000000E+00
  0.00000000E+00  0.00000000E+00  0.00000000E+00
  0.00000000E+00  0.00000000E+00  0.00000000E+00
  0.00000000E+00  0.00000000E+00  0.00000000E+00
  0.00000000E+00  0.00000000E+00  0.00000000E+00
