generated by phonopy                    
   1.00000000000000     
     5.1758476749900950    0.0000000000000000    0.0000000000000000
    -2.5879238374950475    4.4824155726600425    0.0000000000000000
     0.0000000000000000   -0.0000000000000000    8.5469222764839188
   B    N    Al
    15    16     1
Direct
  0.1668893062790386  0.3331106937209615  0.0070370501297166
  0.6662213874419443  0.3331106937209615  0.0070370501297166
  0.1668893062790386  0.8337786125580557  0.0070370501297166
  0.6666666666666714  0.8333333333333286  0.0081927170783487
  0.1635807350119582  0.3364192649880417  0.5024762303603428
  0.6728385299760976  0.3364192649880417  0.5024762303603428
  0.1635807350119582  0.8271614700239024  0.5024762303603428
  0.3333333333333286  0.1666666666666714  0.2545845873016119
  0.8361777374130451  0.1723554748261042  0.2532579561927251
  0.3276445251738959  0.6638222625869549  0.2532579561927251
  0.8361777374130451  0.6638222625869549  0.2532579561927251
  0.3333333333333286  0.1666666666666714  0.7553737736759324
  0.8343201840037668  0.1686403680075406  0.7625843244376466
  0.3313596319924594  0.6656798159962332  0.7625843244376466
  0.8343201840037668  0.6656798159962332  0.7625843244376466
  0.3333333333333286  0.1666666666666714  0.9425412809059522
  0.8347377768890739  0.1694755537781621  0.9469903073871957
  0.3305244462218380  0.6652622231109261  0.9469903073871957
  0.8347377768890739  0.6652622231109261  0.9469903073871957
  0.3333333333333286  0.1666666666666714  0.4418199759624643
  0.8472944065440077  0.1945888130880300  0.4349296898548975
  0.3054111869119701  0.6527055934559923  0.4349296898548975
  0.8472944065440077  0.6527055934559923  0.4349296898548975
  0.1674120394486117  0.3325879605513883  0.1910262315276667
  0.6651759211027979  0.3325879605513883  0.1910262315276667
  0.1674120394486117  0.8348240788972021  0.1910262315276667
  0.6666666666666714  0.8333333333333286  0.1944032061164556
  0.1661900012667253  0.3338099987332747  0.6939789892855341
  0.6676199974665565  0.3338099987332747  0.6939789892855341
  0.1661900012667253  0.8323800025334435  0.6939789892855341
  0.6666666666666714  0.8333333333333286  0.7165719849896769
  0.6666666666666714  0.8333333333333286  0.5096701364424137
 
  0.00000000E+00  0.00000000E+00  0.00000000E+00
  0.00000000E+00  0.00000000E+00  0.00000000E+00
  0.00000000E+00  0.00000000E+00  0.00000000E+00
  0.00000000E+00  0.00000000E+00  0.00000000E+00
  0.00000000E+00  0.00000000E+00  0.00000000E+00
  0.00000000E+00  0.00000000E+00  0.00000000E+00
  0.00000000E+00  0.00000000E+00  0.00000000E+00
  0.00000000E+00  0.00000000E+00  0.00000000E+00
  0.00000000E+00  0.00000000E+00  0.00000000E+00
  0.00000000E+00  0.00000000E+00  0.00000000E+00
  0.00000000E+00  0.00000000E+00  0.00000000E+00
  0.00000000E+00  0.00000000E+00  0.00000000E+00
  0.00000000E+00  0.00000000E+00  0.00000000E+00
  0.00000000E+00  0.00000000E+00  0.00000000E+00
  0.00000000E+00  0.00000000E+00  0.00000000E+00
  0.00000000E+00  0.00000000E+00  0.00000000E+00
  0.00000000E+00  0.00000000E+00  0.00000000E+00
  0.00000000E+00  0.00000000E+00  0.00000000E+00
  0.00000000E+00  0.00000000E+00  0.00000000E+00
  0.00000000E+00  0.00000000E+00  0.00000000E+00
  0.00000000E+00  0.00000000E+00  0.00000000E+00
  0.00000000E+00  0.00000000E+00  0.00000000E+00
  0.00000000E+00  0.00000000E+00  0.00000000E+00
  0.00000000E+00  0.00000000E+00  0.00000000E+00
  0.00000000E+00  0.00000000E+00  0.00000000E+00
  0.00000000E+00  0.00000000E+00  0.00000000E+00
  0.00000000E+00  0.00000000E+00  0.00000000E+00
  0.00000000E+00  0.00000000E+00  0.00000000E+00
  0.00000000E+00  0.00000000E+00  0.00000000E+00
  0.00000000E+00  0.00000000E+00  0.00000000E+00
  0.00000000E+00  0.00000000E+00  0.00000000E+00
  0.00000000E+00  0.00000000E+00  0.00000000E+00
