Ta  N  W Cu                             
   1.00000000000000     
    18.1096308199999996    0.0000000000000000    0.0000000000000000
     0.0000000000000000   23.3551997799999995    0.0000000000000000
     0.0000000000000000    0.0000000000000000   30.4818171199999988
   Ta   N    W    Cu
   216   240    24    29
Direct
  0.0008196005623020  0.9999285047409074  0.1951791713602660
  0.3354844195282496  0.0616457980066301  0.2023268762424735
  0.1659089239569411  0.0615765246521534  0.2023200790022130
  0.2506407942586932  0.1260043325919753  0.2789685037844762
  0.0834140133506551  0.0626123174534641  0.2831751846944499
  0.4182153810189675  0.0625726883131890  0.2831754895015806
  0.0007156705488924  0.1252594492922086  0.3688473286734322
  0.3333265039925593  0.0623042495557300  0.3677008193733400
  0.1678357915309761  0.0623473356401334  0.3677486596742057
  0.2501161918095747  0.1248802873462935  0.4543986307188206
  0.0846539176610150  0.0623178862975777  0.4536331365364106
  0.4171256599182840  0.0621289958663525  0.4538318536483033
  0.3338661851715443  0.0612230500404678  0.5408634326126034
  0.1633490234772381  0.0618125980125086  0.5409581812450526
  0.0007454981198975  0.1250778433367259  0.1956331036045782
  0.3304595195690538  0.1908585280692563  0.2009453663439942
  0.1709950085739536  0.1909062513864228  0.2009834094211840
  0.2505402315633205  0.2502100519509582  0.2803113762608476
  0.0835829026142605  0.1874272179233856  0.2830392498808649
  0.4176416695237606  0.1874338823144228  0.2828992671125903
  0.0007462353343684  0.2500034081519047  0.3686276320005319
  0.3335239106584282  0.1872873066879990  0.3678478873143547
  0.1676143981271139  0.1874018751483320  0.3680405168329202
  0.2502906210531179  0.2496545715551264  0.4539135903157216
  0.0840567389564768  0.1873025817402194  0.4540796839653112
  0.4164337628673422  0.1871477415712164  0.4536782138605346
  0.3361788759826112  0.1843936059328399  0.5404197937389768
  0.1649755466291154  0.1867213460223809  0.5412275570167608
  0.0007713135692313  0.2504051297825924  0.1948516657815560
  0.3303938306930405  0.3096294858236135  0.2012138616307340
  0.1708675472333709  0.3096267358786449  0.2013513259798785
  0.2506651363966128  0.3750150071496421  0.2800537893042545
  0.0834009744271924  0.3126412694697791  0.2827598766101929
  0.4180356795577183  0.3126438187858582  0.2825976499197651
  0.0007826977789236  0.3749972731914255  0.3684619106102431
  0.3335567066862168  0.3122590907853393  0.3676573267972927
  0.1675148671192730  0.3123590114482369  0.3677328362308074
  0.2500990354358166  0.3749119163668126  0.4534742473699112
  0.0843237314218754  0.3124386359676734  0.4540705402775558
  0.4166181305897751  0.3119718497830988  0.4533850241911281
  0.3321060087667931  0.3112010298912793  0.5391488119062586
  0.0007074446025186  0.3750032492110407  0.1957503928211750
  0.3303468586429119  0.4402858161111709  0.2011865859542823
  0.1710402409540848  0.4402946633296168  0.2012596309086376
  0.2506206329439706  0.9998450635341172  0.2770586099205730
  0.0832100375217948  0.4372178372708575  0.2825060109973663
  0.4179097386159611  0.4372213510910115  0.2824776749286428
  0.0006754917990932  0.9997689686260784  0.3688689527964044
  0.3337394947165890  0.4372966276989629  0.3674763127265166
  0.1676102893659035  0.4373542821288865  0.3674363958824287
  0.2502636103255895  0.9996892608605421  0.4544710322314600
  0.0837172701501032  0.4374201697644722  0.4534021246204318
  0.4161055197761954  0.4372390921140692  0.4533110620361782
  0.3351016350723910  0.4369196065044960  0.5387827537937042
  0.0007188806994165  0.4997782082955951  0.1944727237708648
  0.3303936873893321  0.5594937602262320  0.2011294394565013
  0.1709923636918944  0.5594711392960221  0.2011921903319802
  0.2507243907778332  0.6247341269858211  0.2799366549721114
  0.0834177454665124  0.5625295905128311  0.2824674032118111
  0.4180620998938664  0.5625335960483184  0.2824453814977375
  0.0008021125380893  0.6248231282748264  0.3682906634211278
  0.3336946707399946  0.5623609236913509  0.3673940824327460
  0.1675602974829999  0.5623466078780694  0.3673436411774347
  0.2505792154251836  0.6248134657118740  0.4532324022089540
  0.0842292933796216  0.5625038643334861  0.4535160219075962
  0.4162503067600625  0.5624776998710246  0.4531046764306694
  0.3330852536921043  0.5628429552125240  0.5388938247445765
  0.0007321550733508  0.6246877825045090  0.1957266093387773
  0.3304454637735290  0.6901793990945961  0.2012253803269033
  0.1709099326741139  0.6901408511648128  0.2011185552724442
  0.2508323721895138  0.7495772872576509  0.2801935315949606
  0.0833907650790664  0.6870938558583504  0.2826081582380269
  0.4179437887258857  0.6870985974997694  0.2825753394326327
  0.0007752509543479  0.7496023238547451  0.3683354914476524
  0.3338843602899786  0.6873583565048662  0.3676653722951073
  0.1676898992201785  0.6873061992200888  0.3675861655502217
  0.2505769146667234  0.7498830695973098  0.4540101256020463
  0.0843094624895286  0.6873715502645084  0.4534687090190417
  0.4162836250447199  0.6874519392349612  0.4536445508148290
  0.3335276358272452  0.6888606690807251  0.5397237405240460
  0.0007531384962220  0.7493526902689709  0.1947227065311168
  0.3303611025042628  0.8087583890520378  0.2008584842649128
  0.1710119896844233  0.8088233798462952  0.2008778851788193
  0.2507628089911194  0.8737336601614274  0.2788903270616458
  0.0837645641948939  0.8123013991627772  0.2828711568947213
  0.4178878842481808  0.8123148689220230  0.2828562187961836
  0.0007187405807585  0.8746123758367261  0.3686657267207920
  0.3335777675150524  0.8122971951084637  0.3679106818823357
  0.1676902347718396  0.8122299354143578  0.3678654209195429
  0.2502575246974104  0.8745535409261223  0.4543596804094960
  0.0845220922769201  0.8121230795923040  0.4535527253187013
  0.4170669464661785  0.8123428874999448  0.4540040132600112
  0.3329321898899593  0.8140493834707527  0.5407891022284304
  0.1632160699392529  0.8115528860726542  0.5407461723035212
  0.0007804798840567  0.8746746150171560  0.1955576377006807
  0.3353429507960684  0.9381682328673122  0.2023504033524048
  0.1660839649171066  0.9381943910418258  0.2023185354387920
  0.2506589816279217  0.4998061204501809  0.2801027890405692
  0.0832941165740380  0.9371457370905532  0.2831364827407867
  0.4180477816343426  0.9371264324647939  0.2830663567583045
  0.0008168500931589  0.4998306429065877  0.3681393417101759
  0.3334502907457519  0.9372370008718676  0.3676292838252095
  0.1679629865377095  0.9372796402358361  0.3676905339995997
  0.2503160792110464  0.4999470641495734  0.4531615723709379
  0.0840752504192679  0.9372570614781921  0.4538516093079963
  0.4165676076989442  0.9372245453672861  0.4535323628526342
  0.3368437153630808  0.9375220736760141  0.5406180260450171
  0.1659871180901717  0.9370069164626642  0.5410629976736772
  0.5007539924645954  0.9999611241677684  0.1951964581812433
  0.8355610669333657  0.0616068990643228  0.2023184376886533
  0.6659192608048983  0.0616171287221405  0.2023120352081378
  0.7507408116036700  0.1259895785422671  0.2789993220576648
  0.5832699171694671  0.0625743721221426  0.2831803433911375
  0.9180729955400508  0.0626142544665385  0.2831567653066713
  0.5007654847014251  0.1250320549938877  0.3687546232112666
  0.8334086610360458  0.0623668450879862  0.3676751656221313
  0.6679623859248665  0.0623132737582921  0.3677338643751540
  0.7504367539955226  0.1249982158261318  0.4544323370455032
  0.5841211659661738  0.0621904818571508  0.4538283421489169
  0.9164963935820580  0.0623321232946239  0.4535742064487849
  0.8369646456759270  0.0618577683299151  0.5407586688418320
  0.6663799161990411  0.0616539468959942  0.5410678787579926
  0.5007577747844323  0.1250916800461184  0.1955558089628724
  0.8304139452073116  0.1908856357838005  0.2009832894896633
  0.6709761984322853  0.1907805696066092  0.2009512882407094
  0.7508683284609106  0.2502340537175414  0.2802862170047646
  0.5837385927111853  0.1874202424768541  0.2829678500507526
  0.9178897289904597  0.1874387989468076  0.2829971775597500
  0.5007937050441740  0.2499817718490718  0.3684404459812072
  0.8335969045969804  0.1873415235499536  0.3679856581389274
  0.6678395604116858  0.1873534023917429  0.3678861189195928
  0.7509012409691067  0.2496582986092406  0.4539638208712518
  0.5846451810199014  0.1872951445599966  0.4536937941303592
  0.9165990354054756  0.1872607540190643  0.4540901784889186
  0.8360757081883676  0.1860591299298022  0.5411701699489839
  0.6650475298642462  0.1858647676524967  0.5407624284675592
  0.5007415579071264  0.2503906000646410  0.1947823845853165
  0.8304991033131799  0.3095798021578773  0.2012722331997097
  0.6709561926603342  0.3096334924982926  0.2011926357817657
  0.7507554421468114  0.3749766857401156  0.2799524708325265
  0.5833237307483259  0.3126424350316057  0.2826149952380774
  0.9179604915649975  0.3126493578350562  0.2827153005289631
  0.5007868050922966  0.3747957914097739  0.3682579537242603
  0.8339136220152525  0.3123471947650884  0.3677015589643702
  0.6680068683355529  0.3123364123273049  0.3674971799260263
  0.7517290297792698  0.3750528477891706  0.4531689962834946
  0.5846187259940194  0.3120839699156051  0.4533772829888392
  0.9159681067317536  0.3122798732262027  0.4538768888792291
  0.8403313260628664  0.3117413971192633  0.5410302859748342
  0.5007012596819962  0.3750959451817550  0.1956739935870644
  0.8303015502385591  0.4402911561182137  0.2011845745023138
  0.6709405128836892  0.4402699629749804  0.2011485607876224
  0.7506898780877620  0.9999114807035383  0.2770413960116898
  0.5834463119287108  0.4372176430196646  0.2824314601910629
  0.9181518908423243  0.4372224451675919  0.2824870509629207
  0.5006998143362651  0.9998732425827939  0.3688337726538222
  0.8340132991974230  0.4373841878560611  0.3674524550283280
  0.6678633935412535  0.4373518318990222  0.3673099251527248
  0.7504183092329626  0.9997481209502013  0.4544596320296179
  0.5846317817496640  0.4374443836412425  0.4531615383804493
  0.9164003600509005  0.4373436073888186  0.4535033961137387
  0.8385842796485008  0.4377411485932186  0.5401385235778520
  0.5006974941967570  0.4998869731862783  0.1944655616760471
  0.8304044750009112  0.5594523664784319  0.2011345506833209
  0.6709963390318094  0.5595223267533598  0.2011125189657292
  0.7508349795681895  0.6246986424201282  0.2799139992443571
  0.5833570803980166  0.5625429017727086  0.2824156534338798
  0.9180105048026235  0.5625379148530314  0.2824397217419587
  0.5007962795621523  0.6246974402119676  0.3682463401559488
  0.8341375914755105  0.5624156032638794  0.3673936873423074
  0.6680929882458528  0.5624126055297225  0.3671547128354078
  0.7520382452198930  0.6250154810373161  0.4531994206963077
  0.5847083364322287  0.5625323719341750  0.4527699904097418
  0.9161793792116839  0.5625418045266244  0.4535859347799871
  0.8411693992024496  0.5630450761413854  0.5406746669421878
  0.5007299549092394  0.6247494207108062  0.1956873545997766
  0.8304082094376923  0.6901668281116713  0.2010420920190512
  0.6709832003859830  0.6901553451209068  0.2011814773511631
  0.7506987608986435  0.7495888168532048  0.2801502831415732
  0.5835462026815748  0.6871109680546610  0.2825718601537730
  0.9180557638814264  0.6871041870730394  0.2825457589230425
  0.5008304253555167  0.7497817606707287  0.3684042815048016
  0.8339174512410068  0.6874312021809104  0.3676506621795355
  0.6677944449648123  0.6873706896869010  0.3675418300634519
  0.7510241997180032  0.7500905855568263  0.4540076413321543
  0.5849609215920779  0.6874789194681981  0.4535550269803466
  0.9167338511583907  0.6874905863516787  0.4536484379697256
  0.8367671217633159  0.6884650440943005  0.5409861299761403
  0.5007703448564982  0.7493850059832070  0.1947341526956876
  0.8303742089308912  0.8088046170751539  0.2007971137188207
  0.6710901453566649  0.8087897629744134  0.2007490478486531
  0.7507010521341613  0.8737116425274891  0.2787762186645253
  0.5836669326852757  0.8123219805139428  0.2828540486054152
  0.9176684644790640  0.8123187063412303  0.2827551011897427
  0.5007466424612446  0.8744228671509973  0.3687526586222205
  0.8336457897671679  0.8123323398121727  0.3677500501480111
  0.6678514611146653  0.8123162756748314  0.3678597716337180
  0.7505118928215424  0.8747329806910074  0.4542893832372030
  0.5840317206621606  0.8124325954314244  0.4539231613138028
  0.9165121833490772  0.8123483908595404  0.4534966683646289
  0.8380169418651704  0.8129140318747332  0.5404907680741289
  0.6680158035049146  0.8131215655707464  0.5409445637044641
  0.5007266874341596  0.8746857128626786  0.1955821109692266
  0.8353853604476384  0.9382028937713756  0.2022751779542418
  0.6661117506332346  0.9382110372846313  0.2022921555428496
  0.7508740674142729  0.4998297013309312  0.2800458333763842
  0.5834265689353231  0.9371230582398624  0.2830624673195743
  0.9182249387898693  0.9371709002791277  0.2830803891472300
  0.5007651521677730  0.5000157937185747  0.3679933884236561
  0.8334013230698361  0.9373329515975612  0.3676362783811840
  0.6678721533989886  0.9372691500257204  0.3676237267764080
  0.7521036777980470  0.4999158741569971  0.4529814819580764
  0.5847634097131333  0.9372478821429340  0.4535713023211798
  0.9171820033779170  0.9373265845012639  0.4538575570886678
  0.8343029695127910  0.9373887203804827  0.5408728876010827
  0.6636004975536522  0.9373611198566749  0.5408217362165146
  0.4077019769778119  0.9999233157518148  0.2313964741729748
  0.2507240391137984  0.9999602869182169  0.1970782644231903
  0.0936822280115805  0.9998826541778882  0.2314646641039459
  0.1542995223293175  0.1250660187208226  0.3155307707798443
  0.0007336615539373  0.1250530375831858  0.3020388145739759
  0.3470306888259884  0.1249749838948588  0.3154509161502261
  0.4020307310445261  0.1247159111876783  0.4017536016043124
  0.2505644917216543  0.1247387474535699  0.3867196006203812
  0.0992860317025617  0.1249850142411404  0.4018976942362826
  0.1520169872738037  0.1249861767991405  0.4874001857238781
  0.0005077690005990  0.1249126460748755  0.4732286630895430
  0.3484510627847044  0.1240366086348885  0.4870372988004661
  0.4059959899773347  0.1238562763341093  0.5687302703949939
  0.2501395291932766  0.1253754479185716  0.5574715249270739
  0.0950680762293601  0.1257563751228901  0.5692909003391904
  0.4068026051811628  0.1255918993796286  0.2312606032958655
  0.2506756633064811  0.1255845493318404  0.2077741630001881
  0.0946999570648615  0.1256323991427593  0.2313172481431920
  0.1532402936521677  0.2499857849722105  0.3157769034714164
  0.0007054092996839  0.2499981502501498  0.3016520718510733
  0.3479688717826903  0.2500063397679284  0.3156255434593618
  0.4021794557834895  0.2497539095519556  0.4016774744429767
  0.2505608775257073  0.2498585871662158  0.3864916531348257
  0.0991531984456131  0.2500514933376081  0.4021475541845092
  0.1530378746277634  0.2502275496179607  0.4877547123188748
  0.0005534899206836  0.2501432051060632  0.4731181253766152
  0.3479828964562586  0.2493945375836262  0.4873903589218997
  0.4041194730896791  0.2488397105386682  0.5686477141319415
  0.2480992788939673  0.2510552695089316  0.5606691098944623
  0.0962231800013669  0.2520371824245515  0.5690495787987402
  0.4064971162274986  0.2501123121210469  0.2311591782152007
  0.2506931996813080  0.2501663029035797  0.1764985911678849
  0.0949020057439967  0.2500593020356519  0.2313239360415906
  0.1534325924961308  0.3749140253931245  0.3154214178249362
  0.0006895622395788  0.3749303265555852  0.3015980329378181
  0.3478633658952504  0.3748085615034853  0.3153387628620834
  0.4021978525955276  0.3747132161981881  0.4014972461513935
  0.2505270121981695  0.3749025716298036  0.3862088706830278
  0.0992523193064869  0.3748939402843945  0.4018641541311183
  0.1528699324999110  0.3752611711768949  0.4874254642765692
  0.0006621492974972  0.3751870828150814  0.4731505290077607
  0.3477560565309261  0.3742706428345528  0.4864701645060876
  0.4025585441635187  0.3742822440953049  0.5666368986927992
  0.2477592100248174  0.3753179814569094  0.5577133116894117
  0.0976604907063177  0.3758040393454678  0.5707133013617636
  0.4061077835353615  0.3749741433066944  0.2305408424497557
  0.2506810814794278  0.3749253511343511  0.2099387774058030
  0.0953184206086348  0.3749436656207337  0.2306415026301991
  0.1554684580746226  0.9998265023453570  0.3151553640994180
  0.0007500106302700  0.9999508438482110  0.3021392186859799
  0.3459634681684207  0.9998358920525874  0.3150959504876312
  0.4019890707608198  0.9998117673317992  0.4016227273336241
  0.2506555010791445  0.9997658383999521  0.3865973970972831
  0.0993871651229625  0.9997483959801912  0.4016872867756760
  0.1521399240284680  0.9994841167605202  0.4872802787024142
  0.0005234856990342  0.9999901227254782  0.4729549462018880
  0.3486229802217551  0.9998181470718208  0.4870156050371079
  0.4062270955711469  0.9999908544032436  0.5686731681796005
  0.2502397084581105  0.9994604896558883  0.5574088007089131
  0.0945617517382118  0.9989460118771092  0.5689661574757565
  0.4064780580489682  0.4998902925123687  0.2308217553874101
  0.2506866466872850  0.4999102866044041  0.1769135864890359
  0.0948832698008317  0.4998552444569739  0.2308763372679081
  0.1535410300416871  0.6248287502031999  0.3152865804089586
  0.0007340530888627  0.6247488342146994  0.3014576378560179
  0.3478665547869113  0.6248337154869077  0.3153056884191585
  0.4021326659778168  0.6247856892434172  0.4014474693214609
  0.2506801466540978  0.6248364840485792  0.3860164381657114
  0.0993338848757048  0.6247179263720639  0.4016577162088169
  0.1536649485571573  0.6250041847177243  0.4869662489898019
  0.0008116777849523  0.6248648115730262  0.4727997234569372
  0.3478426336919824  0.6249523745298120  0.4870122046719629
  0.4040767652472326  0.6252939168672427  0.5671874667661641
  0.2469277304191380  0.6242267768079444  0.5602885517157787
  0.0977668712325368  0.6248756706355678  0.5680549338219620
  0.4061210115056042  0.6247917623193402  0.2305300310666212
  0.2506637426351404  0.6248406683422729  0.2098713055582024
  0.0953230866962897  0.6247882092771917  0.2305635736691514
  0.1534303477597661  0.7496965339208899  0.3155732816118260
  0.0007065687061996  0.7498048405804667  0.3013667653170700
  0.3481420256528196  0.7497941607744210  0.3156489468982144
  0.4023748507518619  0.7499176913447485  0.4018251853217052
  0.2507660646200520  0.7497631652357413  0.3865073200416091
  0.0992034231856422  0.7495954836776733  0.4016695478373435
  0.1526220554543372  0.7490777815315113  0.4869775750798553
  0.0006724966466791  0.7495004396213290  0.4729732527266322
  0.3484665057018077  0.7504326599235682  0.4874711892397627
  0.4032747010385833  0.7513366244118345  0.5698605127130065
  0.2479783473592292  0.7472652586110726  0.5575244855949961
  0.0969242805741786  0.7461031175493815  0.5687692182645776
  0.4065530225176346  0.7496815863841775  0.2311373184527952
  0.2506590502539225  0.7495208222035856  0.1761698800479436
  0.0949758720146576  0.7496250563692541  0.2311332568536102
  0.1543948742547343  0.8746720228555347  0.3153958855251133
  0.0007077848461208  0.8745645112258629  0.3018684638116582
  0.3471126487392766  0.8746048540473055  0.3154443666415432
  0.4021480888301170  0.8746243133394529  0.4018028477098596
  0.2506657936129244  0.8748610821586666  0.3866629619638928
  0.0993030615464860  0.8747964514123652  0.4017195997626501
  0.1520787951524838  0.8745065841120194  0.4872197754662295
  0.0005736261280944  0.8744452721980878  0.4728955923400022
  0.3485929323801358  0.8746790730425360  0.4871306160263771
  0.4060956886124458  0.8738521394252530  0.5686410633727874
  0.2499700448483750  0.8737414922952311  0.5574017075918647
  0.0947100017650229  0.8742948678150171  0.5689702084715833
  0.4066672693452276  0.8741024616531945  0.2311989013888223
  0.2507014647313071  0.8741357893738737  0.2075664275746973
  0.0947564153951532  0.8741549567330864  0.2312057585017229
  0.1532559495668977  0.4998058329220498  0.3153459724121674
  0.0007278354523166  0.4999587798094893  0.3011909731371389
  0.3480843332182388  0.4998844188387963  0.3153267389117147
  0.4023000149145446  0.4998537510439576  0.4014112875909603
  0.2505789027783933  0.4998040382901721  0.3859025303474581
  0.0990977090516765  0.4999361734271446  0.4016269822940544
  0.1530806159333125  0.5001916613209971  0.4865417196245403
  0.0007844401621995  0.4996802251875394  0.4727998077353703
  0.3477893258609299  0.5000410313437555  0.4865155920867181
  0.4044612052717937  0.5003870954530143  0.5668644940102325
  0.2463037251397253  0.5001569783586461  0.5577009008438480
  0.0981278807073878  0.5006797998407464  0.5684495400563847
  0.9077835987597354  0.9998990209805214  0.2313870726536038
  0.7507388787099529  0.9999744266581132  0.1970909716504465
  0.5936943700917183  0.9999039662938927  0.2314138077155050
  0.6543198290327013  0.1250093847085125  0.3154740466405954
  0.5006922376894920  0.1251648592071675  0.3019838082065931
  0.8471093438647799  0.1250724804629115  0.3155020478187325
  0.9020267582401971  0.1249106747184499  0.4018402704628272
  0.7506416502356359  0.1247353158066389  0.3867431829848158
  0.5993452328775959  0.1248514534340899  0.4018548327593692
  0.6522964049799072  0.1246164459574928  0.4872684103318363
  0.5005541717410722  0.1249806271772300  0.4730140125550193
  0.8485986263836125  0.1247401686708614  0.4873019949227739
  0.9064664204783668  0.1251556646129970  0.5688635450258772
  0.7503730711476706  0.1257313634325286  0.5575813544675086
  0.5949649240108599  0.1251432030348951  0.5689148683365346
  0.9067514126733158  0.1256361549721063  0.2312993974187876
  0.7507374853376447  0.1255531828856391  0.2078074999637423
  0.5946528419544563  0.1255910935005531  0.2313014548920833
  0.6534034564573972  0.2500252073621922  0.3156171026765762
  0.5006870502031333  0.2498926313055421  0.3015112169676328
  0.8481442350934358  0.2499176094256939  0.3157031559085084
  0.9021276115551800  0.2497744454883630  0.4019578346274955
  0.7507606380129914  0.2498883942828698  0.3864661266513565
  0.5993625730421002  0.2499782405274829  0.4017561794215325
  0.6533714910266966  0.2501626639730645  0.4874057860081535
  0.5007927557282272  0.2499828608791859  0.4728991673925194
  0.8481631949482420  0.2493948803368795  0.4878359426939838
  0.9064699837513928  0.2490260455507212  0.5694599181617264
  0.7496168271805672  0.2523824871291680  0.5608347913667302
  0.5989022734459866  0.2523022419612104  0.5690984535415708
  0.9065492211939130  0.2500577348134527  0.2312520278501538
  0.7506360736256212  0.2501379600398579  0.1764981734033668
  0.5949652301787083  0.2500789793241935  0.2311874127521776
  0.6535588494100537  0.3748514906729952  0.3152582362253256
  0.5006924133667141  0.3750181111962405  0.3014763006123786
  0.8479591773900452  0.3749093875448324  0.3152995459774814
  0.9020974475440227  0.3749070536419765  0.4016729444987703
  0.7508634753544001  0.3748976028023776  0.3859343360519532
  0.5992801814741071  0.3748524265770001  0.4015367161489820
  0.6544413580109136  0.3748173965934640  0.4859656675180375
  0.5009039264231490  0.3747385923168736  0.4727570761297883
  0.8486866612389150  0.3749804418326690  0.4873550047085047
  0.9071404834136132  0.3753186647368665  0.5689479760929075
  0.7496899830525905  0.3759557585141309  0.5574396498474528
  0.6010755903534530  0.3764719974893396  0.5661925544914226
  0.9060357666580146  0.3749557727860306  0.2305758350579623
  0.7506692121419292  0.3749203934963106  0.2097855969091924
  0.5952636788898928  0.3749448065836489  0.2305527989323224
  0.6554505399019419  0.9998342329359247  0.3151063496963715
  0.5007275931113853  0.9997557423188326  0.3021174299534550
  0.8459707461617825  0.9998374245511528  0.3150943791381380
  0.9019535329886637  0.9997907010010181  0.4016394266025785
  0.7506538220790588  0.9998006853132253  0.3865812523582690
  0.5993826288208766  0.9997903561886119  0.4016507014088120
  0.6522074571689060  0.9999351981557254  0.4872209765965891
  0.5005478355323802  0.9995453989396950  0.4729392794411424
  0.8486174084132401  0.9995856012615363  0.4871050330831963
  0.9062302843136933  0.9991867411067901  0.5687208730563711
  0.7502828767721468  0.9996762607157095  0.5574174515222481
  0.5945584635334811  0.0001185909720576  0.5688912763667844
  0.9065126308171685  0.4998488163606893  0.2308086715222970
  0.7506084239597257  0.4999185796445147  0.1769078027519484
  0.5948952389294035  0.4999124154514689  0.2308177526974475
  0.6536742770549751  0.6248391643560893  0.3152260708832628
  0.5007420618582898  0.6248227311830306  0.3014599836675131
  0.8480172496658298  0.6249183212825642  0.3152555163511934
  0.9021622144681558  0.6249377138206071  0.4016260887967107
  0.7509322907953475  0.6248918608173710  0.3859508916465799
  0.5995009135490150  0.6248496285996552  0.4013705437348136
  0.6546348765778518  0.6249713368055509  0.4862362643572808
  0.5009437195915254  0.6245499018394369  0.4720663762962687
  0.8487575952331667  0.6254544433695060  0.4875525500602436
  0.9068962145615629  0.6256726629064744  0.5693191872112635
  0.7492587609147918  0.6239243331514004  0.5601173437009024
  0.6005727586220502  0.6244341145317875  0.5662521213856806
  0.9060602491736276  0.6247962800379554  0.2304773525773101
  0.7507449917643143  0.6248185857137329  0.2098653014436422
  0.5953229154848785  0.6248042489891006  0.2305254375131724
  0.6533714673899524  0.7497822028674719  0.3155906620765663
  0.5007759817269815  0.7497143595242619  0.3014448446750890
  0.8480666944487538  0.7497492420146301  0.3155309280301495
  0.9023085691404589  0.7497941431188906  0.4016364909498336
  0.7506948751486817  0.7498388730682350  0.3864742614383587
  0.5991972653923483  0.7497842536006161  0.4018425318293311
  0.6530183454005325  0.7499606701696280  0.4872453210447034
  0.5008132153007239  0.7493339285021818  0.4731776440024120
  0.8488360069252536  0.7498604351928506  0.4871495260538765
  0.9067901435458054  0.7498426760276615  0.5687810768118666
  0.7500649554639907  0.7471525943637687  0.5575305928076304
  0.5994765883288196  0.7484434430186937  0.5697504058680494
  0.9064257840973582  0.7496157433753510  0.2310388406014923
  0.7506752047079459  0.7495303111954570  0.1760148767103047
  0.5950204499704768  0.7496908652957757  0.2311195483896071
  0.6543956445096271  0.8746346723694813  0.3153835858950416
  0.5007531443711741  0.8746599202144623  0.3019025761264658
  0.8470255605904811  0.8747268233424705  0.3153165274558276
  0.9020181024763119  0.8749180423886358  0.4016261549245712
  0.7506641459212418  0.8749300635855164  0.3865777526031948
  0.5993063753480570  0.8746645351743112  0.4017984640227041
  0.6522951526343377  0.8745068323766390  0.4871968905876187
  0.5006111545805041  0.8746009686892791  0.4735247352603906
  0.8486866824868429  0.8751081599168558  0.4870759407472747
  0.9063575338216054  0.8754961236459877  0.5687329043834950
  0.7505918935295242  0.8737947787565759  0.5573333234876401
  0.5954742768492380  0.8732460623518747  0.5690294446541841
  0.9067150798287926  0.8741879625144549  0.2311242003039666
  0.7507215712270821  0.8741720314358545  0.2073694554212082
  0.5947764593104665  0.8741333583592450  0.2311630972997989
  0.6533891557390774  0.4999025619124140  0.3152302353192340
  0.5007055777482208  0.4998608273148406  0.3011170829305669
  0.8482467089101533  0.4998512764088616  0.3152939195179343
  0.9023308340741991  0.4998949923202360  0.4015250470905798
  0.7509126354377855  0.4999064094864707  0.3857433586895880
  0.5991454582090086  0.4998810741000597  0.4012950485627229
  0.6544259147769083  0.5003490181654442  0.4855433064466510
  0.5008806614518306  0.5002338266389899  0.4727956263790958
  0.8491145734680074  0.4998720435831387  0.4870949974894430
  0.9073420499645408  0.4996591653481488  0.5688717734300681
  0.7514465100805765  0.5004399132403918  0.5573308928370295
  0.6011072101694026  0.5010290326238263  0.5657542640913604
  0.0006366412692103  0.1327341067026282  0.5399936524529068
  0.0005302075067277  0.2441200220985635  0.5397892452785129
  0.0010851699633534  0.3823117436102166  0.5397024167272235
  0.1611892711545693  0.3122603103197932  0.5398885788175320
  0.0003610700312251  0.9925971847453923  0.5398759424412134
  0.1655618738122655  0.4384309103844828  0.5382254808356848
  0.0009120877378734  0.6314117636629035  0.5394105936976814
  0.1615885439299802  0.5627916427231128  0.5391003309216487
  0.0007508334577224  0.7414955638101333  0.5396383653486296
  0.1640161072262956  0.6877765305280477  0.5392584438279542
  0.0004681869557288  0.8813362680775469  0.5398561561906021
  0.0014530785243636  0.4930236213612460  0.5393331778815593
  0.5004359608288027  0.1182918781684990  0.5399420538614095
  0.5005546025970418  0.2580881641945396  0.5394853548030198
  0.5014286992511998  0.3673693200012238  0.5389073611942621
  0.6682381985372743  0.3125051354155417  0.5378737362840837
  0.5003368645450905  0.0065678756634000  0.5398488995577679
  0.6679022921245590  0.4381430026872906  0.5366806125052506
  0.5011414183840159  0.6181397477908632  0.5380495832518335
  0.6690999529465458  0.5628603181625351  0.5367413151364886
  0.5008703869864064  0.7543789105287004  0.5398174120414652
  0.6674112246015156  0.6881000988149708  0.5380904495559662
  0.5006536404639306  0.8660616148777294  0.5403357006326317
  0.5013748035649712  0.5080612789578609  0.5387428364629656
  0.4181817099308489  0.4016197933884484  0.6252665676761637
  0.5624415991608771  0.4012360872073515  0.6235071617739720
  0.4896606239531494  0.4639003579993428  0.6740069089543823
  0.5995660166887262  0.5076358609773806  0.6296602021884965
  0.6297611457786729  0.3354329040607524  0.6748076685972677
  0.3326426355479768  0.4437919497249538  0.6786758975893861