Cu	N	Ru	Ta                              
   1.00000000000000     
    18.1096308199999996    0.0000000000000000    0.0000000000000000
     0.0000000000000000   23.3551997799999995    0.0000000000000000
     0.0000000000000000    0.0000000000000000   30.4818171199999988
   Cu   N    Ru   Ta
     2   240    24   216
Selective dynamics
Direct
  0.6031808443897561  0.5627290228651922  0.5839799003332137   T   T   T
  0.5168766070840808  0.4405888355791194  0.6001056610254792   T   T   T
  0.0000000000000000  0.0000770226766207  0.3028264943543491   F   F   F
  0.0000000000000000  0.5000770226766207  0.3028264943543491   F   F   F
  0.0000000000000000  0.6248851796377153  0.3029475127301708   F   F   F
  0.0000000000000000  0.7500770228907001  0.3028264943543491   F   F   F
  0.0000000000000000  0.8748851798518018  0.3029475127301708   F   F   F
  0.0000000000000000  0.1248851796377153  0.3029475127301708   F   F   F
  0.0000000000000000  0.2500770228907001  0.3028264943543491   F   F   F
  0.0000000000000000  0.3748851798518018  0.3029475127301708   F   F   F
  0.0008925058978784  0.0011373532294895  0.4728337495775631   T   T   T
  0.0008055920812916  0.4989255856341968  0.4695946771085744   T   T   T
  0.0011884099339623  0.3737234767014158  0.4747129927872180   T   T   T
  0.0031833184859524  0.8762637612264794  0.4751148819452137   T   T   T
  0.0032259435145203  0.7500822162057471  0.4746526256326696   T   T   T
  0.0035021693447100  0.6233640144329360  0.4764519632897402   T   T   T
  0.5581979502878301  0.2338154409247632  0.5674427011993967   T   T   T
  0.5743336553387250  0.1233776097258682  0.5669566124899771   T   T   T
  0.5789121847264667  0.4901133038954688  0.5661361209564494   T   T   T
  0.5867636669349569  0.7571158547005985  0.5682898644566018   T   T   T
  0.5884421460191018  0.6411621957039135  0.5794477017148083   T   T   T
  0.5911325019773153  0.3781513770868832  0.5748982490629746   T   T   T
  0.5943504772119894  0.6250779795299195  0.2321437935324795   F   F   F
  0.5943504772119894  0.8750779797440060  0.2321437935324795   F   F   F
  0.5943504772119894  0.1250779795299195  0.2321437935324795   F   F   F
  0.5943504772119894  0.3750779797440060  0.2321437935324795   F   F   F
  0.5943930523482663  0.9999373617004466  0.2321734905809336   F   F   F
  0.5943930523482663  0.4999373617004466  0.2321734905809336   F   F   F
  0.5943930523482663  0.7499373619145331  0.2321734905809336   F   F   F
  0.5943930523482663  0.2499373619145331  0.2321734905809336   F   F   F
  0.5968910409837684  0.1251622327389908  0.4015960102842672   T   T   T
  0.5971521035013724  0.8781479177243069  0.5716053139478999   T   T   T
  0.5973450807080257  0.2506276929809761  0.4016870562002620   T   T   T
  0.5988321631622220  0.0008735272785983  0.5698387929912269   T   T   T
  0.5984377572153897  0.3747427045799681  0.4023695828875063   T   T   T
  0.5996127877353037  0.8751475693301007  0.4017360508066941   T   T   T
  0.5995582985578469  0.0004589991051800  0.4012786591496968   T   T   T
  0.5991400333131734  0.5008768379928865  0.4031138095049883   T   T   T
  0.5998164884375335  0.7502376214842171  0.4021988262522437   T   T   T
  0.5999908174640649  0.6239446563834458  0.4032524824047624   T   T   T
  0.6451571333772336  0.1293871060506221  0.4849906154332366   T   T   T
  0.6461414386877263  0.2470482965339619  0.4881543014290038   T   T   T
  0.6499304958432904  0.7463051191239010  0.4874457763202025   T   T   T
  0.6503198988553744  0.8805939788874966  0.4860894500518516   T   T   T
  0.6511796712692736  0.3755321936823904  0.4878128342722134   T   T   T
  0.6523099473155266  0.4972973012948997  0.4894483948718257   T   T   T
  0.6535902564763891  0.6266431620035955  0.4909196179917252   T   T   T
  0.6550053226111325  0.9987153540016249  0.4866058481991945   T   T   T
  0.6547082680948861  0.6251230654212776  0.3157550047659328   F   F   F
  0.6547082680948861  0.8751230656353641  0.3157550047659328   F   F   F
  0.6547082680948861  0.1251230654212776  0.3157550047659328   F   F   F
  0.6547082680948861  0.3751230656353641  0.3157550047659328   F   F   F
  0.6547523877132235  0.9998547719551993  0.3156484409089586   F   F   F
  0.6547523877132235  0.4998547719551993  0.3156484409089586   F   F   F
  0.6547523877132235  0.7498547721692859  0.3156484409089586   F   F   F
  0.6547523877132235  0.2498547721692859  0.3156484409089586   F   F   F
  0.0700380042027377  0.2921734077450175  0.5432534739043779   T   T   T
  0.7335633173262214  0.2383804979858293  0.5618382852375796   T   T   T
  0.7354648940868918  0.1270006804585736  0.5549110521506655   T   T   T
  0.7474963700481948  0.4780212307104598  0.5638935591312043   T   T   T
  0.7486965624972836  0.2501259583434161  0.3869750107857327   T   T   T
  0.7489751570085128  0.1248332439050273  0.3879787226274924   T   T   T
  0.7495288403161050  0.3746461311118031  0.3872378602480218   T   T   T
  0.7500774270747691  0.0003550314100192  0.3877614720720984   T   T   T
  0.7499999997239044  0.0000513585844359  0.1992858820091215   F   F   F
  0.7499999997239044  0.5000513585844431  0.1992858820091215   F   F   F
  0.7499999997239044  0.6250070552811167  0.1993925282102751   F   F   F
  0.7499999997239044  0.7500513587985225  0.1992858820091215   F   F   F
  0.7499999997239044  0.8750070554952032  0.1993925282102751   F   F   F
  0.7499999997239044  0.1250070552811167  0.1993925282102751   F   F   F
  0.7499999997239044  0.2500513587985225  0.1992858820091215   F   F   F
  0.7499999997239044  0.3750070554952032  0.1993925282102751   F   F   F
  0.7501249081298282  0.5003475806553085  0.3871379421568274   T   T   T
  0.7505583352595909  0.7077314872795236  0.5723752829109167   T   T   T
  0.7507592037362097  0.8747517827657622  0.3886813399017260   T   T   T
  0.7504920707969286  0.6246756681593424  0.3884867465813334   T   T   T
  0.7508782788243951  0.7504046317177330  0.3894195970719689   T   T   T
  0.7523662463893888  0.8142572756673985  0.5112992084544280   T   T   T
  0.7560286889004625  0.9391192064174547  0.5740081869865811   T   T   T
  0.7662153619905494  0.3635489392455093  0.5560590932612842   T   T   T
  0.7851475064069138  0.6011659172064804  0.5617612031514116   T   T   T
  0.8431517342151360  0.2478429297994499  0.4865355568003512   T   T   T
  0.8460614957872682  0.1267195417047855  0.4873622076705094   T   T   T
  0.8452476122867765  0.9998547719551993  0.3156484409089586   F   F   F
  0.8452476122867765  0.4998547719551993  0.3156484409089586   F   F   F
  0.8452476122867765  0.7498547721692859  0.3156484409089586   F   F   F
  0.8452476122867765  0.2498547721692859  0.3156484409089586   F   F   F
  0.8452917319051139  0.6251230654212776  0.3157550047659328   F   F   F
  0.8452917319051139  0.8751230656353641  0.3157550047659328   F   F   F
  0.8452917319051139  0.1251230654212776  0.3157550047659328   F   F   F
  0.8452917319051139  0.3751230656353641  0.3157550047659328   F   F   F
  0.0845433918371808  0.5383511337515448  0.5643407402873428   T   T   T
  0.8494187481501003  0.9982477570616738  0.4893905123394082   T   T   T
  0.8496676431575783  0.3781854253100626  0.4851477277825055   T   T   T
  0.8494839208907548  0.4966560784178548  0.4864069421532242   T   T   T
  0.8511612307984210  0.6281537881896427  0.4864759248601436   T   T   T
  0.8532949692685061  0.7437145991839009  0.4887689403150224   T   T   T
  0.8545067971223025  0.8800110175719943  0.4873587639317567   T   T   T
  0.0861583517526825  0.1511474757738039  0.5759442698759001   T   T   T
  0.8964304271722336  0.2495513761788591  0.5692340420185127   T   T   T
  0.8979976530051809  0.1317455591769071  0.5729045592313777   T   T   T
  0.8987753459368705  0.2499477189493423  0.4014257697824482   T   T   T
  0.8989853653953195  0.1249765234496040  0.4019957863596809   T   T   T
  0.9004225053538381  0.0009785312660849  0.4020782103495818   T   T   T
  0.9008244359100643  0.3747275953673046  0.4014397562922785   T   T   T
  0.9012250829887999  0.5000245471942241  0.4011359552009204   T   T   T
  0.9023360995180627  0.8749106967314467  0.4022680109288580   T   T   T
  0.9021419392233552  0.6247129744530778  0.4019451678879510   T   T   T
  0.9023544150983203  0.7501578438571004  0.4025375527062124   T   T   T
  0.9056069476517337  0.9999373617004466  0.2321734905809336   F   F   F
  0.9056069476517337  0.4999373617004466  0.2321734905809336   F   F   F
  0.9056069476517337  0.7499373619145331  0.2321734905809336   F   F   F
  0.9056069476517337  0.2499373619145331  0.2321734905809336   F   F   F
  0.9056495227880106  0.6250779795299195  0.2321437935324795   F   F   F
  0.9056495227880106  0.8750779797440060  0.2321437935324795   F   F   F
  0.9056495227880106  0.1250779795299195  0.2321437935324795   F   F   F
  0.9056495227880106  0.3750779797440060  0.2321437935324795   F   F   F
  0.9105318816199540  0.4944216401804977  0.5688996124923742   T   T   T
  0.9154862704266015  0.8760420836351704  0.5724416506605333   T   T   T
  0.9163945754993528  0.7485542056546273  0.5675958530178530   T   T   T
  0.9176458799268916  0.9963462437276718  0.5710027682306286   T   T   T
  0.9209786312167174  0.3739968853319673  0.5646763370174076   T   T   T
  0.9242707469043052  0.6277517916351389  0.5689737361374192   T   T   T
  0.0943504772119894  0.6250779795299195  0.2321437935324795   F   F   F
  0.0943504772119894  0.8750779797440060  0.2321437935324795   F   F   F
  0.0943504772119894  0.1250779795299195  0.2321437935324795   F   F   F
  0.0943504772119894  0.3750779797440060  0.2321437935324795   F   F   F
  0.0943930523482663  0.9999373617004466  0.2321734905809336   F   F   F
  0.0943930523482663  0.4999373617004466  0.2321734905809336   F   F   F
  0.0943930523482663  0.7499373619145331  0.2321734905809336   F   F   F
  0.0943930523482663  0.2499373619145331  0.2321734905809336   F   F   F
  0.0962494215657325  0.0201883033623148  0.5713079539487341   T   T   T
  0.0976833882197944  0.1244118165863849  0.4012058059425663   T   T   T
  0.0980389054108876  0.2504921529729275  0.4001114579836159   T   T   T
  0.0992855141424242  0.0007702133463180  0.4019801040935750   T   T   T
  0.0995151588756847  0.3741940374013559  0.4024773707291179   T   T   T
  0.0998390193027492  0.8754592625353230  0.4030430045173061   T   T   T
  0.9970732814675209  0.2498429150016142  0.4691859999599400   T   T   T
  0.9976245928456117  0.1258560876092196  0.4726887259283826   T   T   T
  0.0998120162581698  0.7503492650853582  0.4021096123465464   T   T   T
  0.1001385578075179  0.4996895444686967  0.4012706728190007   T   T   T
  0.1003435004146804  0.6246675403683302  0.4027525729836668   T   T   T
  0.1009109712273287  0.6552524225974441  0.5731039748848316   T   T   T
  0.1015798409172754  0.7766331330582182  0.5692502713512914   T   T   T
  0.1050201586148343  0.8995863951340756  0.5739452150771228   T   T   T
  0.1144470951137337  0.4005695279937350  0.5734617869057832   T   T   T
  0.1468645757722723  0.1303476664009295  0.4857991093186583   T   T   T
  0.1486825462477824  0.2465064603369918  0.4814481486266582   T   T   T
  0.1508816601254221  0.3740830073441048  0.4882805908912736   T   T   T
  0.1507640970782767  0.4981919777349652  0.4840593929249617   T   T   T
  0.1522525171219334  0.6251823422255816  0.4903675773644781   T   T   T
  0.1523754523934369  0.8786914978138813  0.4887522977864353   T   T   T
  0.1528570410639254  0.7480214573818209  0.4838964322160122   T   T   T
  0.1532804155132050  0.0004464450732148  0.4860367835842512   T   T   T
  0.1547082680948861  0.6251230654212776  0.3157550047659328   F   F   F
  0.1547082680948861  0.8751230656353641  0.3157550047659328   F   F   F
  0.1547082680948861  0.1251230654212776  0.3157550047659328   F   F   F
  0.1547082680948861  0.3751230656353641  0.3157550047659328   F   F   F
  0.1547523877132235  0.9998547719551993  0.3156484409089586   F   F   F
  0.1547523877132235  0.4998547719551993  0.3156484409089586   F   F   F
  0.1547523877132235  0.7498547721692859  0.3156484409089586   F   F   F
  0.1547523877132235  0.2498547721692859  0.3156484409089586   F   F   F
  0.2268274575400529  0.2617343520849622  0.5663371088178903   T   T   T
  0.2287914537640647  0.1412792072419878  0.5569948590099769   T   T   T
  0.2465469056584665  0.5148432055318830  0.5612989055235791   T   T   T
  0.2492937128779383  0.1248364709934158  0.3880354590062955   T   T   T
  0.2495711349420669  0.2499671930875823  0.3860675030355056   T   T   T
  0.2497146105395085  0.0001357576975454  0.3862385867816013   T   T   T
  0.2501816702648471  0.3746756857194811  0.3879818976735799   T   T   T
  0.2499999997239044  0.0000513585844359  0.1992858820091215   F   F   F
  0.2499999997239044  0.5000513585844431  0.1992858820091215   F   F   F
  0.2499999997239044  0.6250070552811167  0.1993925282102751   F   F   F
  0.2499999997239044  0.7500513587985225  0.1992858820091215   F   F   F
  0.2499999997239044  0.8750070554952032  0.1993925282102751   F   F   F
  0.2499999997239044  0.1250070552811167  0.1993925282102751   F   F   F
  0.2499999997239044  0.2500513587985225  0.1992858820091215   F   F   F
  0.2499999997239044  0.3750070554952032  0.1993925282102751   F   F   F
  0.2501399492224531  0.8748789507402716  0.3884126697777374   T   T   T
  0.2506823555022509  0.5000562430075446  0.3866294602045356   T   T   T
  0.2504879469730253  0.7500934324441297  0.3865926221460829   T   T   T
  0.2506897447343178  0.6247285490768922  0.3886338267078349   T   T   T
  0.2539671054511473  0.7683983983459969  0.5601191849659722   T   T   T
  0.2556473655881480  0.8938182423973381  0.5574878502639949   T   T   T
  0.2609976932124721  0.6473872720500804  0.5591748714126593   T   T   T
  0.2641779735054395  0.0105524427859681  0.5651868714846905   T   T   T
  0.2689014259265162  0.3904821445727285  0.5648731552648328   T   T   T
  0.3443665186508075  0.2488357536716703  0.4857340532418333   T   T   T
  0.3456426715785444  0.1256645308591165  0.4888603626122895   T   T   T
  0.3452476122867765  0.9998547719551993  0.3156484409089586   F   F   F
  0.3452476122867765  0.4998547719551993  0.3156484409089586   F   F   F
  0.3452476122867765  0.7498547721692859  0.3156484409089586   F   F   F
  0.3452476122867765  0.2498547721692859  0.3156484409089586   F   F   F
  0.3452917319051139  0.6251230654212776  0.3157550047659328   F   F   F
  0.3452917319051139  0.8751230656353641  0.3157550047659328   F   F   F
  0.3452917319051139  0.1251230654212776  0.3157550047659328   F   F   F
  0.3452917319051139  0.3751230656353641  0.3157550047659328   F   F   F
  0.3479092067884840  0.4972037882845707  0.4845099448162083   T   T   T
  0.3486396579599642  0.3787086507168734  0.4867479596078666   T   T   T
  0.3488980395544957  0.9966689006057892  0.4814163723323241   T   T   T
  0.3501642841066850  0.6293471871004216  0.4875580150504151   T   T   T
  0.3505409429722234  0.8782376829567206  0.4881269522745614   T   T   T
  0.3506847560286405  0.7486641530740653  0.4832500351714606   T   T   T
  0.3804322376887282  0.1488100750117924  0.5745668542582208   T   T   T
  0.3879143985381840  0.2718088625354749  0.5735423292325709   T   T   T
  0.3933803466726324  0.5262340060183081  0.5776858279213140   T   T   T
  0.3992136578201856  0.1247005676263638  0.4031703639492787   T   T   T
  0.3991622429619029  0.2503202998619911  0.4021961101505288   T   T   T
  0.4005848085738246  0.0005085235802850  0.4005953395505004   T   T   T
  0.4010331091906186  0.3752001879524648  0.4026490714084403   T   T   T
  0.4011546331778671  0.8745297297132354  0.4016663835830613   T   T   T
  0.4015425880327279  0.5008637166795381  0.4024954887685989   T   T   T
  0.4017158975287255  0.7504995633323699  0.4013530242274350   T   T   T
  0.4022516504741316  0.6246628439241612  0.4026898294419902   T   T   T
  0.4065204687966082  0.7767366823257951  0.5711209413684226   T   T   T
  0.4056069476517337  0.9999373617004466  0.2321734905809336   F   F   F
  0.4056069476517337  0.4999373617004466  0.2321734905809336   F   F   F
  0.4056069476517337  0.7499373619145331  0.2321734905809336   F   F   F
  0.4056069476517337  0.2499373619145331  0.2321734905809336   F   F   F
  0.4056495227880106  0.6250779795299195  0.2321437935324795   F   F   F
  0.4056495227880106  0.8750779797440060  0.2321437935324795   F   F   F
  0.4056495227880106  0.1250779795299195  0.2321437935324795   F   F   F
  0.4056495227880106  0.3750779797440060  0.2321437935324795   F   F   F
  0.4077118913578154  0.9018053590854759  0.5740406049500794   T   T   T
  0.4077428594116767  0.6536122533569323  0.5718944415763295   T   T   T
  0.4237154139700898  0.0422860710746894  0.5448612643598486   T   T   T
  0.4196005376757178  0.4061250653743421  0.5683184197465994   T   T   T
  0.4953136517549769  0.1251005662620964  0.4764276054549152   T   T   T
  0.4959943428583746  0.2502188244357921  0.4735410813112094   T   T   T
  0.4997544125369031  0.0000471690218247  0.4698323087864317   T   T   T
  0.5002309387927192  0.8756054175041548  0.4726729481816624   T   T   T
  0.5002922302923553  0.7512590368218015  0.4732792930886411   T   T   T
  0.5000000000000000  0.0000770226766207  0.3028264943543491   F   F   F
  0.5000000000000000  0.5000770226766207  0.3028264943543491   F   F   F
  0.5000000000000000  0.6248851796377153  0.3029475127301708   F   F   F
  0.5000000000000000  0.7500770228907001  0.3028264943543491   F   F   F
  0.5000000000000000  0.8748851798518018  0.3029475127301708   F   F   F
  0.5000000000000000  0.1248851796377153  0.3029475127301708   F   F   F
  0.5000000000000000  0.2500770228907001  0.3028264943543491   F   F   F
  0.5000000000000000  0.3748851798518018  0.3029475127301708   F   F   F
  0.5003507278002696  0.5009414823577024  0.4761607789023013   T   T   T
  0.5010641898159179  0.3743598187233784  0.4757655324770761   T   T   T
  0.5020577576588585  0.6269308433053261  0.4755581342340213   T   T   T
  0.0087751587746586  0.0029385408498509  0.5400362806294258   T   T   T
  0.0097668636519372  0.7631445975230169  0.5410937353815483   T   T   T
  0.6369703217054173  0.0643056878983576  0.5353119854836538   T   T   T
  0.6403460548302087  0.8143468410540993  0.5341969905240542   T   T   T
  0.7016950823661272  0.3081760446228035  0.5323479858086358   T   T   T
  0.7188584977627746  0.5525818235794894  0.5356837984272288   T   T   T
  0.8538613286135452  0.3126767876539714  0.5362163722487128   T   T   T
  0.8669610491565459  0.5581704614913294  0.5369616522286068   T   T   T
  0.8691564581801841  0.8103654055866100  0.5352479084591687   T   T   T
  0.8802240790790627  0.0614262195972457  0.5408303936007981   T   T   T
  0.9813094503379850  0.2421168206764034  0.5353381287387523   T   T   T
  0.9970781397210932  0.4986495894586717  0.5356129527964854   T   T   T
  0.1411614418661748  0.0859943115606256  0.5438072769053899   T   T   T
  0.1701937392073977  0.8374228805706387  0.5471688517666420   T   T   T
  0.1762540101704589  0.5964314029200674  0.5536556980700712   T   T   T
  0.1888933500167164  0.3400391243143170  0.5492142748123732   T   T   T
  0.3115809784001435  0.0894425053636799  0.5477626084152434   T   T   T
  0.3405366007646822  0.8372892418692923  0.5480138541418522   T   T   T
  0.3423687792582274  0.5892811725048698  0.5479946984125020   T   T   T
  0.3447777176941164  0.3397942727343367  0.5464397804961937   T   T   T
  0.4783094655463097  0.2543080859386007  0.5412255551529525   T   T   T
  0.4835478219246939  0.5208519534738867  0.5433646992138698   T   T   T
  0.4951576217116294  0.7656541830959848  0.5400061293149289   T   T   T
  0.5123973629233225  0.9917876886966794  0.5360953633655371   T   T   T
  0.0000000000000000  0.9999830748611132  0.1973415402473861   F   F   F
  0.0000000000000000  0.4999830748611132  0.1973415402473861   F   F   F
  0.0000000000000000  0.6250597900044994  0.1972695212469660   F   F   F
  0.0000000000000000  0.7499830750751997  0.1973415402473861   F   F   F
  0.0000000000000000  0.8750597902185859  0.1972695212469660   F   F   F
  0.0000000000000000  0.1250597900044994  0.1972695212469660   F   F   F
  0.0000000000000000  0.2499830750751997  0.1973415402473861   F   F   F
  0.0000000000000000  0.3750597902185859  0.1972695212469660   F   F   F
  0.0007759188064925  0.4998936573633747  0.3693001606844414   T   T   T
  0.0010840720293719  0.8752485760830303  0.3697894753060044   T   T   T
  0.0008815128915125  0.7502284820521102  0.3696373554597086   T   T   T
  0.0011841472194198  0.6247806158059471  0.3696049307821116   T   T   T
  0.0121501020342339  0.8767892844212780  0.5443020755133159   T   T   T
  0.0194323668383323  0.6111405560784801  0.5453458169002653   T   T   T
  0.0234222969117194  0.3685637458566424  0.5434248756623351   T   T   T
  0.5788436441366075  0.1883056588256489  0.4522663623058087   T   T   T
  0.5824959423441172  0.4374754614066489  0.2839355729984092   F   F   F
  0.5824959423441172  0.6874754611925624  0.2839355729984092   F   F   F
  0.5824959423441172  0.9374754614066489  0.2839355729984092   F   F   F
  0.5824959423441172  0.1874754611925624  0.2839355729984092   F   F   F
  0.5834081503195725  0.0628348719192133  0.4536485436685475   T   T   T
  0.5827651808530874  0.5624885324787385  0.2838652796168972   F   F   F
  0.5827651808530874  0.0624885324787385  0.2838652796168972   F   F   F
  0.5827651808530874  0.8124885322646520  0.2838652796168972   F   F   F
  0.5827651808530874  0.3124885322646520  0.2838652796168972   F   F   F
  0.5838416630868533  0.9388786410987863  0.4531654112755400   T   T   T
  0.5838136609970522  0.3121444251495348  0.4544545252159484   T   T   T
  0.5846593036180827  0.4376514942545968  0.4538093556817268   T   T   T
  0.5851272110139224  0.8130075790063359  0.4542951649776085   T   T   T
  0.5857081984163973  0.6871335890190469  0.4535434066092910   T   T   T
  0.5859415215542897  0.5619751829834432  0.4573023196112131   T   T   T
  0.6520719373917481  0.1814646642106587  0.5426286407557915   T   T   T
  0.6571544369041262  0.6935042425489593  0.5465105764878938   T   T   T
  0.6603284542473332  0.4329815890745847  0.5426680291170829   T   T   T
  0.6640765424122073  0.9366455445466039  0.5433118063961720   T   T   T
  0.6659163253997278  0.5625456426731574  0.2025671506292426   F   F   F
  0.6659163253997278  0.0625456426731503  0.2025671506292426   F   F   F
  0.6659163253997278  0.8125456424590709  0.2025671506292426   F   F   F
  0.6659163253997278  0.3125456424590709  0.2025671506292426   F   F   F
  0.6659898017733283  0.4375125970341855  0.2025194438276969   F   F   F
  0.6659898017733283  0.6875125968200990  0.2025194438276969   F   F   F
  0.6659898017733283  0.9375125970341855  0.2025194438276969   F   F   F
  0.6659898017733283  0.1875125968200990  0.2025194438276969   F   F   F
  0.6670292178902671  0.1875092490852034  0.3682626519706317   T   T   T
  0.6669411002579474  0.3124914349279446  0.3681360027466677   T   T   T
  0.6672315039856597  0.0627377088427657  0.3680633205694438   T   T   T
  0.6678081809350903  0.4376418601037708  0.3685546484331653   T   T   T
  0.6677656395980953  0.5626047532803640  0.3687431854980997   T   T   T
  0.6685251505522736  0.9374188510632240  0.3683456659603849   T   T   T
  0.6686332245294361  0.8125191723891843  0.3686298541218994   T   T   T
  0.6688722397549918  0.6876144689063580  0.3688872365870580   T   T   T
  0.7452082671621589  0.2479106737190262  0.4549241053189182   T   T   T
  0.7468367225793325  0.1270093160667898  0.4561971878206992   T   T   T
  0.7488467933318651  0.3756158417207360  0.4549322198785250   T   T   T
  0.7498575029148304  0.4975639810753842  0.4550632464522171   T   T   T
  0.7499999997239044  0.0001643475558382  0.2779548773829816   F   F   F
  0.7499999997239044  0.5001643475558382  0.2779548773829816   F   F   F
  0.7499999997239044  0.6249264342623420  0.2780286426703711   F   F   F
  0.7499999997239044  0.7501643477699247  0.2779548773829816   F   F   F
  0.7499999997239044  0.8749264344764285  0.2780286426703711   F   F   F
  0.7499999997239044  0.1249264342623420  0.2780286426703711   F   F   F
  0.7499999997239044  0.2501643477699247  0.2779548773829816   F   F   F
  0.7499999997239044  0.3749264344764285  0.2780286426703711   F   F   F
  0.7501251840720575  0.6245839295531405  0.4565319723306637   T   T   T
  0.7519891067997433  0.9998858748478644  0.4553806963139400   T   T   T
  0.7520398854674593  0.7504807095171616  0.4590402842023197   T   T   T
  0.7527671865546557  0.8758028876419840  0.4581449568682824   T   T   T
  0.0797012354331237  0.1879669805899466  0.4510646305504546   T   T   T
  0.8195935420152380  0.1852042646481219  0.5424370703752200   T   T   T
  0.0824959423441172  0.4374754614066489  0.2839355729984092   F   F   F
  0.0824959423441172  0.6874754611925624  0.2839355729984092   F   F   F
  0.0824959423441172  0.9374754614066489  0.2839355729984092   F   F   F
  0.0824959423441172  0.1874754611925624  0.2839355729984092   F   F   F
  0.0827651808530874  0.5624885324787385  0.2838652796168972   F   F   F
  0.0827651808530874  0.0624885324787385  0.2838652796168972   F   F   F
  0.0827651808530874  0.8124885322646520  0.2838652796168972   F   F   F
  0.0827651808530874  0.3124885322646520  0.2838652796168972   F   F   F
  0.8307536990313633  0.1874399425583089  0.3682003553106394   T   T   T
  0.8314265100738150  0.3125164083153555  0.3677215777809451   T   T   T
  0.8317378779201797  0.0625900934016746  0.3680414019256295   T   T   T
  0.0838097962287190  0.0637394058502650  0.4550719768082544   T   T   T
  0.8317249074052000  0.4375054276032892  0.3679686446113635   T   T   T
  0.8325994908803259  0.9374793501659582  0.3687188065378322   T   T   T
  0.8324606549863600  0.5626408308077344  0.3681234994197052   T   T   T
  0.8324648426726742  0.6876977250250949  0.3687261518291239   T   T   T
  0.8331050054853102  0.8125033566697311  0.3690174784709433   T   T   T
  0.8340101684082839  0.4375125970341855  0.2025194438276969   F   F   F
  0.8340101684082839  0.6875125968200990  0.2025194438276969   F   F   F
  0.8340101684082839  0.9375125970341855  0.2025194438276969   F   F   F
  0.8340101684082839  0.1875125968200990  0.2025194438276969   F   F   F
  0.8340836447818845  0.5625456426731574  0.2025671506292426   F   F   F
  0.8340836447818845  0.0625456426731503  0.2025671506292426   F   F   F
  0.8340836447818845  0.8125456424590709  0.2025671506292426   F   F   F
  0.8340836447818845  0.3125456424590709  0.2025671506292426   F   F   F
  0.0843557844597245  0.3118050914256864  0.4548819668911790   T   T   T
  0.8403765246181777  0.4341064696650765  0.5419409094534389   T   T   T
  0.8434637893344435  0.6838706622419669  0.5459508326014139   T   T   T
  0.0846456469458385  0.9391144973494010  0.4545829849087721   T   T   T
  0.0847257985053061  0.4363960120800760  0.4539583475343222   T   T   T
  0.8487455470242204  0.9346647559711363  0.5451138769180450   T   T   T
  0.0859704349544943  0.6865895244803094  0.4543094873094757   T   T   T
  0.0863129372162533  0.5617119867881241  0.4535860600912744   T   T   T
  0.0867502985911351  0.8131418296455236  0.4555474474535776   T   T   T
  0.9132814635964411  0.1877391015436614  0.4536185773150453   T   T   T
  0.9134469223110196  0.3120604523153968  0.4535184273340879   T   T   T
  0.9141366825643474  0.0629668541477217  0.4551083393380749   T   T   T
  0.9164564834466387  0.5617279840270005  0.4537719387391378   T   T   T
  0.9172348191469126  0.5624885324787385  0.2838652796168972   F   F   F
  0.9172348191469126  0.0624885324787385  0.2838652796168972   F   F   F
  0.9172348191469126  0.8124885322646520  0.2838652796168972   F   F   F
  0.9172348191469126  0.3124885322646520  0.2838652796168972   F   F   F
  0.9175040576558828  0.4374754614066489  0.2839355729984092   F   F   F
  0.9175040576558828  0.6874754611925624  0.2839355729984092   F   F   F
  0.9175040576558828  0.9374754614066489  0.2839355729984092   F   F   F
  0.9175040576558828  0.1874754611925624  0.2839355729984092   F   F   F
  0.9178008829224283  0.4370461755896109  0.4524362631054419   T   T   T
  0.9180069146142202  0.9389949272586925  0.4530552168520871   T   T   T
  0.9178778497125585  0.8126134333809335  0.4554158658246127   T   T   T
  0.9188188281995591  0.6868968907125410  0.4534121333713125   T   T   T
  0.9947944000532686  0.1370341524315051  0.5424429040620277   T   T   T
  0.9983672764707657  0.1248676913368420  0.3694338180382084   T   T   T
  0.9984447025695935  0.2500749107154367  0.3691554367754905   T   T   T
 -0.0000796784076829  0.0004653667918336  0.3696268368675638   T   T   T
  0.0002720261903153  0.3745984783687142  0.3695535721202050   T   T   T
  0.1519558519215073  0.4748938043039746  0.5488374454739067   T   T   T
  0.1524703828752021  0.2058379897296835  0.5420060562902254   T   T   T
  0.1659163253997278  0.5625456426731574  0.2025671506292426   F   F   F
  0.1659163253997278  0.0625456426731503  0.2025671506292426   F   F   F
  0.1659163253997278  0.8125456424590709  0.2025671506292426   F   F   F
  0.1659163253997278  0.3125456424590709  0.2025671506292426   F   F   F
  0.1659898017733283  0.4375125970341855  0.2025194438276969   F   F   F
  0.1659898017733283  0.6875125968200990  0.2025194438276969   F   F   F
  0.1659898017733283  0.9375125970341855  0.2025194438276969   F   F   F
  0.1659898017733283  0.1875125968200990  0.2025194438276969   F   F   F
  0.1668654971399872  0.0626018030324850  0.3680310509730161   T   T   T
  0.1670134735236635  0.3124426042278116  0.3678499804443696   T   T   T
  0.1673626130862950  0.1872897201773684  0.3676962142259381   T   T   T
  0.1676799937826906  0.9374839994931191  0.3682579032461559   T   T   T
  0.1677032711912941  0.8126519260286386  0.3682893609969021   T   T   T
  0.1682642691987168  0.4371224497221851  0.3682799508210254   T   T   T