Mo  S Cu                                
   1.00000000000000     
    15.9214998300000001    0.0000000000000000    0.0000000000000000
    -7.9622501300000001   13.7910221699999997    0.0000000000000000
     0.0000000000000000    0.0000000000000000   13.5821998300000004
   Mo   S    Co
    25    50     2
Direct
  0.1313559129574173  0.0649328020146811  0.6795493493379894
  0.1319559980875127  0.2642467073416412  0.6795094329438385
  0.1330913550861368  0.4655122851372866  0.6788946958176965
  0.1329644686974234  0.6656506806358280  0.6781154311777371
  0.1322668776560647  0.8652025796932890  0.6787424687026444
  0.3322137344306739  0.0651767577466913  0.6804036873683899
  0.3325847302708240  0.2646704748901314  0.6797339107516649
  0.3344926937956956  0.4671689908945567  0.6794937723240011
  0.3328699423054573  0.6660928284105694  0.6782702124726399
  0.3323366280352715  0.8653192648850663  0.6783539136972863
  0.5314752330409647  0.0662873528936387  0.6800934540615984
  0.5316958952644839  0.2647581776530785  0.6807508455014215
  0.5328505275657491  0.4672554961109370  0.6796585711989067
  0.5330582132223043  0.6664629008840350  0.6787559907489324
  0.5328889325015069  0.8664194316680636  0.6785814312557861
  0.7341478933737164  0.0661372916684044  0.6790373017376226
  0.7331872986218428  0.2668987377351044  0.6791361088962518
  0.7327213757319839  0.4660105726616095  0.6797584627866584
  0.7328167656221964  0.6660246458601051  0.6781611262383365
  0.7326524318917578  0.8656944515917360  0.6781086360323911
  0.9325361061032780  0.0651726977411400  0.6791961426179824
  0.9329071740276689  0.2645129638825026  0.6788460991958516
  0.9330221482827810  0.4659821695083934  0.6791823637387040
  0.9325828805104805  0.6653501744626240  0.6786718280786772
  0.9323251037429685  0.8651140149555445  0.6782572194066390
  0.0658762311581782  0.1321868128418657  0.5640386574951535
  0.0651949094515700  0.1315093245158465  0.7948417465573314
  0.0665619283316303  0.3320243335484108  0.5638110246003905
  0.0661063143477136  0.3320455190491955  0.7938796288163488
  0.0661577287185722  0.5318289980323243  0.5635364851469262
  0.0669771766743636  0.5330000644314055  0.7935643829423569
  0.0657787222355495  0.7320431002644341  0.5633370022315702
  0.0659321842420511  0.7318296203251506  0.7935279497512369
  0.0659718304950943  0.9321917969952125  0.5635726752655899
  0.0647508780866914  0.9309422840558668  0.7939242800636848
  0.2659552136268601  0.1327379961094124  0.5656516404836367
  0.2618923515924365  0.1265317032196194  0.8005058618999428
  0.2669682225806724  0.3319034834668599  0.5662316386925639
  0.2640754504066507  0.3350559213885944  0.8000809265512885
  0.2664727725592257  0.5321176352711134  0.5637698036861138
  0.2665841008587151  0.5334455033371270  0.7938004016219011
  0.2661414052093463  0.7323964188191567  0.5628791199282119
  0.2659587462069126  0.7322135956788571  0.7934432271469447
  0.2657957723749220  0.9326329494450789  0.5639180090350564
  0.2652507531241000  0.9308043913291257  0.7940858491091873
  0.4652533643729910  0.1324431418036340  0.5650088408060796
  0.4650167966102998  0.1320406454498624  0.7959995295320965
  0.4651451284731891  0.3322234069886107  0.5660802901108895
  0.4706821285273790  0.3362902965377828  0.8007454971341517
  0.4662853752628422  0.5328745892838782  0.5639369439382378
  0.4669141927725846  0.5340603972072131  0.7948332505086313
  0.4663693276661505  0.7330461701151734  0.5634234190629570
  0.4661805526598286  0.7331271662565513  0.7935079760395354
  0.4662512592566159  0.9335220643344400  0.5638534097016787
  0.4651321936454309  0.9318377242649873  0.7937811887633828
  0.6661845638911927  0.1336738978857923  0.5660539955543769
  0.6644949100376394  0.1284992913676106  0.7996263272942770
  0.6656239758496767  0.3317176144018887  0.5655718833838890
  0.6634977079824793  0.3345947009576662  0.8003381423710252
  0.6657097862606847  0.5319212857027793  0.5638333336596659
  0.6668416535452195  0.5340894791955577  0.7940909312680091
  0.6659267636632720  0.7324696572508529  0.5630157650393102
  0.6664388643448262  0.7328977873584250  0.7934351963921742
  0.6661725155705227  0.9330993824164366  0.5633820580531577
  0.6663029031678178  0.9321269341535867  0.7934454878883059
  0.8661472081831150  0.1319383489292605  0.5635739777753699
  0.8663906340704344  0.1319836822425131  0.7944230254454538
  0.8653870237495553  0.3316899281159706  0.5649843277180793
  0.8718936837470181  0.3341992175302479  0.7997293068098017
  0.8656575934008046  0.5316178214401432  0.5640812744517518
  0.8663614610062567  0.5324208422295982  0.7943290737401156
  0.8660350363411240  0.7318790715140508  0.5630883818984103
  0.8659147373234504  0.7321144724868418  0.7934223906116529
  0.8661213134441113  0.9323792739887153  0.5632528013048628
  0.8655715127837098  0.9315343851029851  0.7935322578676320
  0.3327745747319426  0.2631927369062339  0.8680387031477395
  0.7344200613873326  0.2690480599541445  0.8677759269643062
 
  0.00000000E+00  0.00000000E+00  0.00000000E+00
  0.00000000E+00  0.00000000E+00  0.00000000E+00
  0.00000000E+00  0.00000000E+00  0.00000000E+00
  0.00000000E+00  0.00000000E+00  0.00000000E+00
  0.00000000E+00  0.00000000E+00  0.00000000E+00
  0.00000000E+00  0.00000000E+00  0.00000000E+00
  0.00000000E+00  0.00000000E+00  0.00000000E+00
  0.00000000E+00  0.00000000E+00  0.00000000E+00
  0.00000000E+00  0.00000000E+00  0.00000000E+00
  0.00000000E+00  0.00000000E+00  0.00000000E+00
  0.00000000E+00  0.00000000E+00  0.00000000E+00
  0.00000000E+00  0.00000000E+00  0.00000000E+00
  0.00000000E+00  0.00000000E+00  0.00000000E+00
  0.00000000E+00  0.00000000E+00  0.00000000E+00
  0.00000000E+00  0.00000000E+00  0.00000000E+00
  0.00000000E+00  0.00000000E+00  0.00000000E+00
  0.00000000E+00  0.00000000E+00  0.00000000E+00
  0.00000000E+00  0.00000000E+00  0.00000000E+00
  0.00000000E+00  0.00000000E+00  0.00000000E+00
  0.00000000E+00  0.00000000E+00  0.00000000E+00
  0.00000000E+00  0.00000000E+00  0.00000000E+00
  0.00000000E+00  0.00000000E+00  0.00000000E+00
  0.00000000E+00  0.00000000E+00  0.00000000E+00
  0.00000000E+00  0.00000000E+00  0.00000000E+00
  0.00000000E+00  0.00000000E+00  0.00000000E+00
  0.00000000E+00  0.00000000E+00  0.00000000E+00
  0.00000000E+00  0.00000000E+00  0.00000000E+00
  0.00000000E+00  0.00000000E+00  0.00000000E+00
  0.00000000E+00  0.00000000E+00  0.00000000E+00
  0.00000000E+00  0.00000000E+00  0.00000000E+00
  0.00000000E+00  0.00000000E+00  0.00000000E+00
  0.00000000E+00  0.00000000E+00  0.00000000E+00
  0.00000000E+00  0.00000000E+00  0.00000000E+00
  0.00000000E+00  0.00000000E+00  0.00000000E+00
  0.00000000E+00  0.00000000E+00  0.00000000E+00
  0.00000000E+00  0.00000000E+00  0.00000000E+00
  0.00000000E+00  0.00000000E+00  0.00000000E+00
  0.00000000E+00  0.00000000E+00  0.00000000E+00
  0.00000000E+00  0.00000000E+00  0.00000000E+00
  0.00000000E+00  0.00000000E+00  0.00000000E+00
  0.00000000E+00  0.00000000E+00  0.00000000E+00
  0.00000000E+00  0.00000000E+00  0.00000000E+00
  0.00000000E+00  0.00000000E+00  0.00000000E+00
  0.00000000E+00  0.00000000E+00  0.00000000E+00
  0.00000000E+00  0.00000000E+00  0.00000000E+00
  0.00000000E+00  0.00000000E+00  0.00000000E+00
  0.00000000E+00  0.00000000E+00  0.00000000E+00
  0.00000000E+00  0.00000000E+00  0.00000000E+00
  0.00000000E+00  0.00000000E+00  0.00000000E+00
  0.00000000E+00  0.00000000E+00  0.00000000E+00
  0.00000000E+00  0.00000000E+00  0.00000000E+00
  0.00000000E+00  0.00000000E+00  0.00000000E+00
  0.00000000E+00  0.00000000E+00  0.00000000E+00
  0.00000000E+00  0.00000000E+00  0.00000000E+00
  0.00000000E+00  0.00000000E+00  0.00000000E+00
  0.00000000E+00  0.00000000E+00  0.00000000E+00
  0.00000000E+00  0.00000000E+00  0.00000000E+00
  0.00000000E+00  0.00000000E+00  0.00000000E+00
  0.00000000E+00  0.00000000E+00  0.00000000E+00
  0.00000000E+00  0.00000000E+00  0.00000000E+00
  0.00000000E+00  0.00000000E+00  0.00000000E+00
  0.00000000E+00  0.00000000E+00  0.00000000E+00
  0.00000000E+00  0.00000000E+00  0.00000000E+00
  0.00000000E+00  0.00000000E+00  0.00000000E+00
  0.00000000E+00  0.00000000E+00  0.00000000E+00
  0.00000000E+00  0.00000000E+00  0.00000000E+00
  0.00000000E+00  0.00000000E+00  0.00000000E+00
  0.00000000E+00  0.00000000E+00  0.00000000E+00
  0.00000000E+00  0.00000000E+00  0.00000000E+00
  0.00000000E+00  0.00000000E+00  0.00000000E+00
  0.00000000E+00  0.00000000E+00  0.00000000E+00
  0.00000000E+00  0.00000000E+00  0.00000000E+00
  0.00000000E+00  0.00000000E+00  0.00000000E+00
  0.00000000E+00  0.00000000E+00  0.00000000E+00
  0.00000000E+00  0.00000000E+00  0.00000000E+00
  0.00000000E+00  0.00000000E+00  0.00000000E+00
  0.00000000E+00  0.00000000E+00  0.00000000E+00
