Cu	N	Ru	Ta                              
   1.00000000000000     
    18.1096308199999996    0.0000000000000000    0.0000000000000000
     0.0000000000000000   23.3551997799999995    0.0000000000000000
     0.0000000000000000    0.0000000000000000   30.4818171199999988
   Cu   N    Ru   Ta
     4   240    48   192
Selective dynamics
Direct
  0.5789894431171133  0.4429052020666822  0.5834852178728261   T   T   T
  0.2400115804899716  0.4483688143549857  0.5694044453951633   T   T   T
  0.4106278315020296  0.4222745164630177  0.6175396369260551   T   T   T
  0.4835975392247291  0.5071636996040103  0.6228123000077768   T   T   T
  0.0000000000000000  0.0000000000000000  0.3032267788896164   F   F   F
  0.0000000000000000  0.5000000000000000  0.3032267788896164   F   F   F
  0.0000000000000000  0.6249999998929567  0.3032267788896164   F   F   F
  0.0000000000000000  0.7500000002140865  0.3032267788896164   F   F   F
  0.0000000000000000  0.8750000001070433  0.3032267788896164   F   F   F
  0.0000000000000000  0.1249999998929567  0.3032267788896164   F   F   F
  0.0000000000000000  0.2500000002140865  0.3032267788896164   F   F   F
  0.0000000000000000  0.3750000001070433  0.3032267788896164   F   F   F
  0.0005374697416578  0.1252253297224999  0.4723590580023486   T   T   T
  0.0011736848909784  0.8764098997972453  0.4724593407399408   T   T   T
  0.0024371721134265  0.2486013895295500  0.4721289551881258   T   T   T
  0.5517076694809530  0.9987186138884120  0.5866016666697813   T   T   T
  0.5613354187946906  0.6385871667049402  0.5738948838353202   T   T   T
  0.5616463480135417  0.5204382551737660  0.5777902255828882   T   T   T
  0.5673394358009568  0.3656807702342671  0.5747379790248877   T   T   T
  0.5801571375410873  0.7468510605242852  0.5711230721628678   T   T   T
  0.5941133989389655  0.0000000000000000  0.2322132027803434   F   F   F
  0.5941133989389655  0.5000000000000000  0.2322132027803434   F   F   F
  0.5941133989389655  0.6249999998929567  0.2322132027803434   F   F   F
  0.5941133989389655  0.7500000002140865  0.2322132027803434   F   F   F
  0.5941133989389655  0.8750000001070433  0.2322132027803434   F   F   F
  0.5941133989389655  0.1249999998929567  0.2322132027803434   F   F   F
  0.5941133989389655  0.2500000002140865  0.2322132027803434   F   F   F
  0.5941133989389655  0.3750000001070433  0.2322132027803434   F   F   F
  0.5930367556038512  0.2526569602899575  0.5708568026856602   T   T   T
  0.6004029258111041  0.1154530142896701  0.5667989504855435   T   T   T
  0.5981202804788318  0.6243076948163799  0.4018909558018622   T   T   T
  0.5985520688198676  0.7492689726961633  0.4014336040318905   T   T   T
  0.5983064538958904  0.5003194237059505  0.4022624729831576   T   T   T
  0.5989066913904960  0.3758297220151666  0.4025210659938485   T   T   T
  0.5996896218837208  0.8744013175695944  0.4021135626123092   T   T   T
  0.5999743429976528  0.0001897980743162  0.4032086882192076   T   T   T
  0.6003373467468267  0.1245124622379783  0.4026293444266941   T   T   T
  0.6004484955031939  0.2503681746016038  0.4023709243695727   T   T   T
  0.6184578017204098  0.8873378456502103  0.5693006681126001   T   T   T
  0.6484105234501808  0.7470872646516417  0.4856117568645062   T   T   T
  0.6485737996165115 -0.0011268329096877  0.4898772922658723   T   T   T
  0.6493619269225640  0.6239636181168087  0.4860766142372866   T   T   T
  0.6498453960087661  0.8711829860249174  0.4853695455086444   T   T   T
  0.6503173049860249  0.5011216268511129  0.4869026674697212   T   T   T
  0.6501973180679462  0.3789583542160350  0.4872211920760977   T   T   T
  0.6538995763331050  0.1259271460408407  0.4862203147080328   T   T   T
  0.6534375574582000  0.2509318554190182  0.4878123868366155   T   T   T
  0.6545990963497701  0.0000000000000000  0.3156671842141137   F   F   F
  0.6545990963497701  0.5000000000000000  0.3156671842141137   F   F   F
  0.6545990963497701  0.6249999998929567  0.3156671842141137   F   F   F
  0.6545990963497701  0.7500000002140865  0.3156671842141137   F   F   F
  0.6545990963497701  0.8750000001070433  0.3156671842141137   F   F   F
  0.6545990963497701  0.1249999998929567  0.3156671842141137   F   F   F
  0.6545990963497701  0.2500000002140865  0.3156671842141137   F   F   F
  0.6545990963497701  0.3750000001070433  0.3156671842141137   F   F   F
  0.0608177435140896  0.0125338500314569  0.5733404636024108   T   T   T
  0.7124893414205367  0.3694102006050555  0.5696404366607760   T   T   T
  0.7169204800083119  0.0076071462177042  0.5705180329157380   T   T   T
  0.7213629819692002  0.6453266294803741  0.5614556347489679   T   T   T
  0.7303366613730781  0.5056203444421364  0.5584053461580620   T   T   T
  0.7494847475525952  0.7500951402835921  0.3874793587872256   T   T   T
  0.7497578835839240  0.6252374516566302  0.3876625287355934   T   T   T
  0.7499539608784679  0.8749396864397492  0.3875551724104527   T   T   T
  0.7498189977697284  0.9998663102589692  0.3880410726824829   T   T   T
  0.7499999997239044  0.0000000000000000  0.1996562654398630   F   F   F
  0.7499999997239044  0.5000000000000000  0.1996562654398630   F   F   F
  0.7499999997239044  0.6249999998929567  0.1996562654398630   F   F   F
  0.7499999997239044  0.7500000002140865  0.1996562654398630   F   F   F
  0.7499999997239044  0.8750000001070433  0.1996562654398630   F   F   F
  0.7499999997239044  0.1249999998929567  0.1996562654398630   F   F   F
  0.7499999997239044  0.2500000002140865  0.1996562654398630   F   F   F
  0.7499999997239044  0.3750000001070433  0.1996562654398630   F   F   F
  0.7498700503253272  0.5003189528448581  0.3874498937004882   T   T   T
  0.7497979346220025  0.3752779641367773  0.3870039429064341   T   T   T
  0.7503181629482584  0.1249856416868256  0.3871960136651778   T   T   T
  0.7501973411436630  0.2503548364352279  0.3879879538199388   T   T   T
  0.7550726937870752  0.7786885125838273  0.5579081705800234   T   T   T
  0.7743190022281308  0.1272479089540219  0.5607145041312949   T   T   T
  0.7896046940794245  0.8932614735494214  0.5636927380515122   T   T   T
  0.7933203529604648  0.2605592207756418  0.5599708218673857   T   T   T
  0.0799055045292373  0.3704415713878648  0.5706481434604316   T   T   T
  0.8454009036502299  0.0000000000000000  0.3156671842141137   F   F   F
  0.8454009036502299  0.5000000000000000  0.3156671842141137   F   F   F
  0.8454009036502299  0.6249999998929567  0.3156671842141137   F   F   F
  0.8454009036502299  0.7500000002140865  0.3156671842141137   F   F   F
  0.8454009036502299  0.8750000001070433  0.3156671842141137   F   F   F
  0.8454009036502299  0.1249999998929567  0.3156671842141137   F   F   F
  0.8454009036502299  0.2500000002140865  0.3156671842141137   F   F   F
  0.8454009036502299  0.3750000001070433  0.3156671842141137   F   F   F
  0.8469255329629659  0.3753554485059004  0.4857354762448484   T   T   T
  0.8470534490245404  0.9976867894935187  0.4848875077501135   T   T   T
  0.8468524278842585  0.7510383812633445  0.4876322463805427   T   T   T
  0.8474466570225341  0.6280892468807365  0.4880175206107517   T   T   T
  0.8469497087656892  0.4983472586572710  0.4853492837209908   T   T   T
  0.0839399894675341  0.1196249941782074  0.5722105355885698   T   T   T
  0.8503074046435077  0.1257174697982158  0.4855945282245526   T   T   T
  0.8507792051295374  0.8740454821202582  0.4849675942610093   T   T   T
  0.8534711286356030  0.2484323256470163  0.4841163798140377   T   T   T
  0.0831435269539537  0.5053353543891951  0.5719843255222696   T   T   T
  0.8880131017840324  0.0093876643434912  0.5677729717514309   T   T   T
  0.8853657098969889  0.3732581505787760  0.5687086281597309   T   T   T
  0.8999374267297996  0.6255845144255794  0.4027403247166101   T   T   T
  0.9001602061626238  0.7498475956690960  0.4023744809531297   T   T   T
  0.9003029132052647  0.5004840947081618  0.4017611354167056   T   T   T
  0.9004451178214183  0.9997270796452984  0.4019205518567902   T   T   T
  0.9009063146100679  0.8750023196550581  0.4016186998131538   T   T   T
  0.9007178495602670  0.3743857687060796  0.4019765590529480   T   T   T
  0.9011895859212703  0.1246909433549977  0.4014955702643955   T   T   T
  0.0910720417340130  0.6224438162204967  0.5703347983894846   T   T   T
  0.9019883602450787  0.2502766023892241  0.4013694800991915   T   T   T
  0.9058866010610345  0.0000000000000000  0.2322132027803434   F   F   F
  0.9058866010610345  0.5000000000000000  0.2322132027803434   F   F   F
  0.9058866010610345  0.6249999998929567  0.2322132027803434   F   F   F
  0.9058866010610345  0.7500000002140865  0.2322132027803434   F   F   F
  0.9058866010610345  0.8750000001070433  0.2322132027803434   F   F   F
  0.9058866010610345  0.1249999998929567  0.2322132027803434   F   F   F
  0.9058866010610345  0.2500000002140865  0.2322132027803434   F   F   F
  0.9058866010610345  0.3750000001070433  0.2322132027803434   F   F   F
  0.9044018422001229  0.5100470031466730  0.5695364946453267   T   T   T
  0.0919512526197884  0.7488849432202481  0.5706354809626170   T   T   T
  0.9148384443198083  0.1526288376781306  0.5675487852989135   T   T   T
  0.9178089040767280  0.6386003654852882  0.5743714132899382   T   T   T
  0.9201978377491477  0.7636791146612174  0.5727381344412096   T   T   T
  0.9278556472826051  0.8723319626877100  0.5726093237298157   T   T   T
  0.0941133989389655  0.0000000000000000  0.2322132027803434   F   F   F
  0.0941133989389655  0.5000000000000000  0.2322132027803434   F   F   F
  0.0941133989389655  0.6249999998929567  0.2322132027803434   F   F   F
  0.0941133989389655  0.7500000002140865  0.2322132027803434   F   F   F
  0.0941133989389655  0.8750000001070433  0.2322132027803434   F   F   F
  0.0941133989389655  0.1249999998929567  0.2322132027803434   F   F   F
  0.0941133989389655  0.2500000002140865  0.2322132027803434   F   F   F
  0.0941133989389655  0.3750000001070433  0.2322132027803434   F   F   F
  0.9689849174094471  0.2818876680261834  0.5697781452128341   T   T   T
  0.0982748978220186  0.6251931239068560  0.4019709004497382   T   T   T
  0.0987041251447068  0.7499755689280500  0.4019738529045533   T   T   T
  0.0986327147954105  0.4999437434110695  0.4020163209394058   T   T   T
  0.0989920486516315  0.3743100805781936  0.4024060700488968   T   T   T
  0.0992089108167061  0.9997844509688532  0.4018033893041529   T   T   T
  0.0996943357029374  0.8752373816894844  0.4017700729711271   T   T   T
  0.9982214243330926  0.6267493248608264  0.4730672399243295   T   T   T
  0.9985238965346627  0.5008615089500660  0.4723011224378822   T   T   T
  0.9985588823369921  0.9995353846011046  0.4727104754192843   T   T   T
  0.9980714430876630  0.3732849598912720  0.4747666298863737   T   T   T
  0.9992518623720092  0.7505699996345987  0.4729388737721025   T   T   T
  0.1002506857117157  0.1248726304511464  0.4020713269938690   T   T   T
  0.1004958082758898  0.2495561227735884  0.4023305743843203   T   T   T
  0.1026226493253476  0.8902247646139777  0.5652592589221090   T   T   T
  0.1286442074261245  0.2430799136521238  0.5692819446941354   T   T   T
  0.1486601567739796  0.7505195499565500  0.4850599981312000   T   T   T
  0.1484905641964452  0.6249589514733306  0.4863952358602895   T   T   T
  0.1485886121587015  0.9986584097334047  0.4867310354307163   T   T   T
  0.1510076672754487  0.1233898684823594  0.4881885383293002   T   T   T
  0.1505589912094167  0.4982641144354776  0.4871056011452972   T   T   T
  0.1503466373961672  0.3757012089626138  0.4871551140559788   T   T   T
  0.1544466175689741  0.2499017540418905  0.4859724622710992   T   T   T
  0.1542450829408544  0.8754091605636570  0.4855041569863324   T   T   T
  0.1545990963497701  0.0000000000000000  0.3156671842141137   F   F   F
  0.1545990963497701  0.5000000000000000  0.3156671842141137   F   F   F
  0.1545990963497701  0.6249999998929567  0.3156671842141137   F   F   F
  0.1545990963497701  0.7500000002140865  0.3156671842141137   F   F   F
  0.1545990963497701  0.8750000001070433  0.3156671842141137   F   F   F
  0.1545990963497701  0.1249999998929567  0.3156671842141137   F   F   F
  0.1545990963497701  0.2500000002140865  0.3156671842141137   F   F   F
  0.1545990963497701  0.3750000001070433  0.3156671842141137   F   F   F
  0.2125581729779792  0.0078832291328201  0.5643732952581021   T   T   T
  0.2273123448748175  0.7812522810656799  0.5558972213601588   T   T   T
  0.2312891068797223  0.3668817570516234  0.5709512350678532   T   T   T
  0.2365437530933077  0.5302674081548819  0.5669153664017816   T   T   T
  0.2489248609861522  0.6246280080924740  0.3878273891691894   T   T   T
  0.2493727679613203  0.7497449040761005  0.3868585153347119   T   T   T
  0.2494727498068643  0.5000467780808997  0.3885855949521985   T   T   T
  0.2499999997239044  0.0000000000000000  0.1996562654398630   F   F   F
  0.2499999997239044  0.5000000000000000  0.1996562654398630   F   F   F
  0.2499999997239044  0.6249999998929567  0.1996562654398630   F   F   F
  0.2499999997239044  0.7500000002140865  0.1996562654398630   F   F   F
  0.2499999997239044  0.8750000001070433  0.1996562654398630   F   F   F
  0.2499999997239044  0.1249999998929567  0.1996562654398630   F   F   F
  0.2499999997239044  0.2500000002140865  0.1996562654398630   F   F   F
  0.2499999997239044  0.3750000001070433  0.1996562654398630   F   F   F
  0.2497868840511429  0.3745979304691250  0.3879013721498381   T   T   T
  0.2501624882701319  0.8752690004027337  0.3867630778842184   T   T   T
  0.2501313700358946  0.0000303299765212  0.3879313841865056   T   T   T
  0.2505982092244230  0.1248098985323741  0.3887893980448566   T   T   T
  0.2507534343747597  0.2495797183644478  0.3877504364086754   T   T   T
  0.2675188405110800  0.1337994123589727  0.5589669023963423   T   T   T
  0.2657168512433387  0.6607030087733891  0.5569433287535197   T   T   T
  0.2786593458448396  0.8898839065717326  0.5566427737705190   T   T   T
  0.2847946093069816  0.2483197533589152  0.5599508440819031   T   T   T
  0.3454009036502299  0.0000000000000000  0.3156671842141137   F   F   F
  0.3454009036502299  0.5000000000000000  0.3156671842141137   F   F   F
  0.3454009036502299  0.6249999998929567  0.3156671842141137   F   F   F
  0.3454009036502299  0.7500000002140865  0.3156671842141137   F   F   F
  0.3454009036502299  0.8750000001070433  0.3156671842141137   F   F   F
  0.3454009036502299  0.1249999998929567  0.3156671842141137   F   F   F
  0.3454009036502299  0.2500000002140865  0.3156671842141137   F   F   F
  0.3454009036502299  0.3750000001070433  0.3156671842141137   F   F   F
  0.3462971286547346  0.7512079247441928  0.4851600453345898   T   T   T
  0.3463495754507027  0.6236703696442711  0.4851639189000422   T   T   T
  0.3467834925857763  0.3741132405696385  0.4866228669590215   T   T   T
  0.3493377075360179  0.9984942895201523  0.4834205154889823   T   T   T
  0.3480065300903376  0.4996491534589393  0.4868895361976436   T   T   T
  0.3523756607855020  0.8738453497183230  0.4840616768972500   T   T   T
  0.3521806707528554  0.1252223926798817  0.4863232359404676   T   T   T
  0.3534472621784434  0.2478415811122919  0.4858633075114029   T   T   T
  0.3831575238362184  0.0164049045161760  0.5644840307446450   T   T   T
  0.3927415448693945  0.6249021071083297  0.5706815478423747   T   T   T
  0.3920718776751184  0.3655227128707342  0.5725269211197720   T   T   T
  0.3992445597980920  0.7670493490631408  0.5645093720918249   T   T   T
  0.3994606324911485  0.6247084261495893  0.4018238126915606   T   T   T
  0.3998750006841980  0.7494647337762281  0.4014194326306550   T   T   T
  0.3998628904609053  0.5004208280053493  0.4016958828875029   T   T   T
  0.4005890384953743  0.3740343677123474  0.4020110529567201   T   T   T
  0.4012368727532686  0.8744421270770303  0.4007224959589261   T   T   T
  0.4016759990673900  0.0004889322529891  0.4013536529554757   T   T   T
  0.4020425823293938  0.1242171289196065  0.4018146876073407   T   T   T
  0.4020573119544426  0.2499583474121243  0.4017878259779564   T   T   T
  0.4058866010610345  0.0000000000000000  0.2322132027803434   F   F   F
  0.4058866010610345  0.5000000000000000  0.2322132027803434   F   F   F
  0.4058866010610345  0.6249999998929567  0.2322132027803434   F   F   F
  0.4058866010610345  0.7500000002140865  0.2322132027803434   F   F   F
  0.4058866010610345  0.8750000001070433  0.2322132027803434   F   F   F
  0.4058866010610345  0.1249999998929567  0.2322132027803434   F   F   F
  0.4058866010610345  0.2500000002140865  0.2322132027803434   F   F   F
  0.4058866010610345  0.3750000001070433  0.2322132027803434   F   F   F
  0.4018080966070121  0.4945267028075331  0.5811348619204666   T   T   T
  0.4236880811819869  0.1331611119815860  0.5730235531469868   T   T   T
  0.4220795469141371  0.2398807920857254  0.5744543452401435   T   T   T
  0.4456192895406348  0.9036031923418280  0.5630740701593703   T   T   T
  0.4975920857378026  0.7500928712559817  0.4727050149758840   T   T   T
  0.4974368265285016  0.6245548841060399  0.4728235973638695   T   T   T
  0.4984791599027173  0.5011179480522778  0.4729397854302865   T   T   T
  0.4995185285199148  0.0003803713748450  0.4739348767545943   T   T   T
  0.5000000000000000  0.0000000000000000  0.3032267788896164   F   F   F
  0.5000000000000000  0.5000000000000000  0.3032267788896164   F   F   F
  0.5000000000000000  0.6249999998929567  0.3032267788896164   F   F   F
  0.5000000000000000  0.7500000002140865  0.3032267788896164   F   F   F
  0.5000000000000000  0.8750000001070433  0.3032267788896164   F   F   F
  0.5000000000000000  0.1249999998929567  0.3032267788896164   F   F   F
  0.5000000000000000  0.2500000002140865  0.3032267788896164   F   F   F
  0.5000000000000000  0.3750000001070433  0.3032267788896164   F   F   F
  0.4991717746055301  0.3749008820061782  0.4737855829647768   T   T   T
  0.5011307484466967  0.8736977087890282  0.4714852491318827   T   T   T
  0.5019164185235334  0.2502008816392015  0.4730464445664706   T   T   T
  0.5025495077651192  0.1238807754264743  0.4732663471779309   T   T   T
  0.0025896514840776  0.8862950390324990  0.5394700788793471   T   T   T
  0.0074305083450057  0.6356578952781304  0.5414664664783905   T   T   T
  0.0064751879141677  0.1364769903265562  0.5398092655502944   T   T   T
  0.0345437314958390  0.2487565974312134  0.5384278316331915   T   T   T
  0.6205903849390190  0.1857862231358439  0.5414555862658648   T   T   T
  0.6274033194945112  0.9657278412061171  0.5540896533742719   T   T   T
  0.6320397264708436  0.6916499101593678  0.5400387160001290   T   T   T
  0.6366041531905771  0.3179388354548288  0.5409683794668126   T   T   T
  0.7024122119179365  0.0792798653852150  0.5402192182350765   T   T   T
  0.6995357979400143  0.5727350770014503  0.5347586337518111   T   T   T
  0.6997985559239147  0.4387373537167485  0.5351023826181395   T   T   T
  0.7090378892972713  0.8509771919189675  0.5434034522984625   T   T   T
  0.7797870204129874  0.7052037769364770  0.5387571151893796   T   T   T
  0.7939502251077957  0.3345532488550937  0.5422777624597119   T   T   T
  0.7983367167863278  0.9696533538790610  0.5443259267841021   T   T   T
  0.8215018095635749  0.1939499811933072  0.5353126850338357   T   T   T
  0.8575749149207386  0.8230163886325923  0.5412709207379961   T   T   T
  0.8757545898802320  0.5827636971603989  0.5437000505666862   T   T   T
  0.8773970361525221  0.4421440800722156  0.5389759006289075   T   T   T
  0.8735723041375937  0.0831529568609147  0.5447431794840596   T   T   T
  0.9842578468498747  0.3614644383369548  0.5441284436820454   T   T   T
  0.9864370040895849  0.0021688111741666  0.5401454818217387   T   T   T
  0.9978615700428969  0.7511117713439370  0.5413729529228186   T   T   T
  0.9962102080137688  0.5100522045332821  0.5397151149178315   T   T   T
  0.1064311449472686  0.4366571967361944  0.5413365824483480   T   T   T
  0.1201632768125415  0.8169502288939879  0.5427162438815102   T   T   T
  0.1327808551361503  0.0610806511891746  0.5400065664358833   T   T   T
  0.1423929539875536  0.5651232292483509  0.5397609430420309   T   T   T
  0.1539020253614751  0.3158594471700556  0.5454399721164003   T   T   T
  0.1925361917408293  0.7093541324611710  0.5398639820105074   T   T   T
  0.1966550916144887  0.9339054517521692  0.5388407448184079   T   T   T
  0.2105401659755760  0.1968010827675299  0.5391872644958691   T   T   T
  0.2886560557378229  0.0556743363440313  0.5467598679430258   T   T   T
  0.2976284635677912  0.5846378814065483  0.5435979098138347   T   T   T
  0.3042363832665588  0.3230145710623231  0.5422358867080732   T   T   T
  0.3113311857591504  0.8177298711714821  0.5359825735685648   T   T   T
  0.3584717701260546  0.9451719975972891  0.5357839779694190   T   T   T
  0.3590482725565327  0.1865911944733882  0.5390787543220298   T   T   T
  0.3709620125393593  0.6967200631340114  0.5417986518662141   T   T   T
  0.3761404094457996  0.4380663041849215  0.5365393735282814   T   T   T
  0.4846521139063016  0.0070037511467979  0.5442035090915981   T   T   T
  0.4861494212289175  0.6278248916698056  0.5412345663818428   T   T   T
  0.4851082318699338  0.5136784760171739  0.5402622919835635   T   T   T
  0.4855694965143562  0.3628327826948196  0.5409267356099139   T   T   T
  0.5008869030165966  0.1202277113947241  0.5411853700902365   T   T   T
  0.5000072048211494  0.7617320798312348  0.5397121395437731   T   T   T
  0.4977809995001776  0.2499783790331615  0.5416303797403683   T   T   T
  0.5245948083864754  0.8788245264809794  0.5369333512496791   T   T   T
  0.0000000000000000  0.0000000000000000  0.1972002481458333   F   F   F
  0.0000000000000000  0.5000000000000000  0.1972002481458333   F   F   F
  0.0000000000000000  0.6249999998929567  0.1972002481458333   F   F   F
  0.0000000000000000  0.7500000002140865  0.1972002481458333   F   F   F
  0.0000000000000000  0.8750000001070433  0.1972002481458333   F   F   F
  0.0000000000000000  0.1249999998929567  0.1972002481458333   F   F   F
  0.0000000000000000  0.2500000002140865  0.1972002481458333   F   F   F
  0.0000000000000000  0.3750000001070433  0.1972002481458333   F   F   F
  0.0002269272938002  0.8750857091508973  0.3697536872335734   T   T   T
  0.0000540607676362  0.3746830700949890  0.3699413374474595   T   T   T
  0.0006892272055883  0.1249151726554340  0.3697486162731741   T   T   T
  0.0013385945548035  0.2499416719767160  0.3697516798890035   T   T   T
  0.5820785319268231  0.6867850143500053  0.4539094410629796   T   T   T
  0.5825346300460907  0.4375000002676046  0.2838671249793236   F   F   F
  0.5825346300460907  0.5625000001605613  0.2838671249793236   F   F   F
  0.5825346300460907  0.0625000001605613  0.2838671249793236   F   F   F
  0.5825346300460907  0.6875000000535181  0.2838671249793236   F   F   F
  0.5825346300460907  0.8124999999464819  0.2838671249793236   F   F   F
  0.5825346300460907  0.9375000002676046  0.2838671249793236   F   F   F
  0.5825346300460907  0.1875000000535181  0.2838671249793236   F   F   F
  0.5825346300460907  0.3124999999464819  0.2838671249793236   F   F   F
  0.5827462541929292  0.5623789961314981  0.4547240824797918   T   T   T
  0.5827297005154843  0.4386162557834073  0.4548599506749131   T   T   T
  0.5844286423467421  0.8105009103954971  0.4545082961034523   T   T   T
  0.5854028141768970  0.0618747029014936  0.4557376001334154   T   T   T
  0.5849734989461057  0.9365392003165779  0.4560644926823547   T   T   T
  0.5855116084080988  0.3132523207519123  0.4548209350050929   T   T   T
  0.5862857882993284  0.1881180716070873  0.4547649739246499   T   T   T
  0.6657105641648826  0.4375000002676046  0.2025710526275901   F   F   F
  0.6657105641648826  0.5625000001605613  0.2025710526275901   F   F   F
  0.6657105641648826  0.0625000001605613  0.2025710526275901   F   F   F
  0.6657105641648826  0.6875000000535181  0.2025710526275901   F   F   F
  0.6657105641648826  0.8124999999464819  0.2025710526275901   F   F   F
  0.6657105641648826  0.9375000002676046  0.2025710526275901   F   F   F
  0.6657105641648826  0.1875000000535181  0.2025710526275901   F   F   F
  0.6657105641648826  0.3124999999464819  0.2025710526275901   F   F   F
  0.6671244085057313  0.6872875575608374  0.3682161054648190   T   T   T
  0.6672925155728833  0.8123153429020353  0.3682123719091719   T   T   T
  0.6672711524344849  0.5626729099373124  0.3685341138282845   T   T   T
  0.6672322010565004  0.4377818742853239  0.3685523513758330   T   T   T
  0.6673418958269417  0.9373881473563420  0.3688487935256391   T   T   T
  0.6677047511504445  0.3127423279876516  0.3683317899534333   T   T   T
  0.6679492377763918  0.0623313085381894  0.3685667905842085   T   T   T
  0.6682645054494460  0.1875558105603251  0.3683092922519194   T   T   T
  0.7473987544554102  0.0006555978698090  0.4568400772118323   T   T   T
  0.7479688580641370  0.7509766852247270  0.4556656671799947   T   T   T
  0.7485942978866263  0.3760344850189173  0.4548237432498159   T   T   T
  0.7485799924431656  0.5014444209095890  0.4555335006474144   T   T   T
  0.7499999997239044  0.0000000000000000  0.2777865629422820   F   F   F
  0.7499999997239044  0.5000000000000000  0.2777865629422820   F   F   F
  0.7499999997239044  0.6249999998929567  0.2777865629422820   F   F   F
  0.7499999997239044  0.7500000002140865  0.2777865629422820   F   F   F
  0.7499999997239044  0.8750000001070433  0.2777865629422820   F   F   F
  0.7499999997239044  0.1249999998929567  0.2777865629422820   F   F   F
  0.7499999997239044  0.2500000002140865  0.2777865629422820   F   F   F
  0.7499999997239044  0.3750000001070433  0.2777865629422820   F   F   F
  0.7497661543101225  0.8761381585204980  0.4559794866306719   T   T   T
  0.7498571120126849  0.6268802017620138  0.4558775596954984   T   T   T
  0.7514378633032439  0.1266793338687738  0.4551582491566533   T   T   T
  0.7520914031142576  0.2512993929416995  0.4565325441254319   T   T   T
  0.0826359136286218  0.6873274561391368  0.4546656009696986   T   T   T
  0.0825346300460907  0.4375000002676046  0.2838671249793236   F   F   F
  0.0825346300460907  0.5625000001605613  0.2838671249793236   F   F   F
  0.0825346300460907  0.0625000001605613  0.2838671249793236   F   F   F
  0.0825346300460907  0.6875000000535181  0.2838671249793236   F   F   F
  0.0825346300460907  0.8124999999464819  0.2838671249793236   F   F   F
  0.0825346300460907  0.9375000002676046  0.2838671249793236   F   F   F
  0.0825346300460907  0.1875000000535181  0.2838671249793236   F   F   F
  0.0825346300460907  0.3124999999464819  0.2838671249793236   F   F   F
  0.0825886368751476  0.5624737723599289  0.4542952568791067   T   T   T
  0.0825628042221163  0.4372116484602663  0.4544184500185516   T   T   T
  0.8320362846498078  0.6876712736025172  0.3684990063899532   T   T   T
  0.8319435310292493  0.9373537540866669  0.3682692316335441   T   T   T
  0.8323173085249727  0.8124693445514174  0.3682175723029776   T   T   T
  0.8322797617738162  0.5626872720988862  0.3683675083740582   T   T   T
  0.8320548251414612  0.0623209691126484  0.3680635875325579   T   T   T
  0.8322958617809210  0.4375919906788889  0.3681209393145315   T   T   T
  0.8324612514603407  0.3125409527845113  0.3683040002176883   T   T   T
  0.8323037542839068  0.1875029556642968  0.3681782391824984   T   T   T
  0.8342894060167296  0.4375000002676046  0.2025710526275901   F   F   F
  0.8342894060167296  0.5625000001605613  0.2025710526275901   F   F   F
  0.8342894060167296  0.0625000001605613  0.2025710526275901   F   F   F
  0.8342894060167296  0.6875000000535181  0.2025710526275901   F   F   F
  0.8342894060167296  0.8124999999464819  0.2025710526275901   F   F   F
  0.8342894060167296  0.9375000002676046  0.2025710526275901   F   F   F
  0.8342894060167296  0.1875000000535181  0.2025710526275901   F   F   F
  0.8342894060167296  0.3124999999464819  0.2025710526275901   F   F   F
  0.0837874913697363  0.8130872898464320  0.4544022977691048   T   T   T
  0.0838893790915530  0.0620750287051809  0.4541357143740273   T   T   T
  0.0849026855515126  0.3121765335828570  0.4551549176857497   T   T   T
  0.0851773831979358  0.9374830234966538  0.4540165669677467   T   T   T
  0.0862298218200322  0.1860521561865684  0.4548452259174871   T   T   T
  0.9135679264573345  0.5629904138508657  0.4557340576984329   T   T   T
  0.9144560591831379  0.6884848647300785  0.4553579405848921   T   T   T
  0.9150009063556528  0.4376881264752104  0.4538307448051748   T   T   T
  0.9153476675120644  0.9368934532074547  0.4545097553822320   T   T   T
  0.9152237562480395  0.8126254970518442  0.4544235590422572   T   T   T
  0.9157355710453031  0.0621606073209740  0.4546941030701536   T   T   T
  0.9161133520686129  0.3125119239541087  0.4550101771021324   T   T   T
  0.9174653699539093  0.4375000002676046  0.2838671249793236   F   F   F
  0.9174653699539093  0.5625000001605613  0.2838671249793236   F   F   F
  0.9174653699539093  0.0625000001605613  0.2838671249793236   F   F   F
  0.9174653699539093  0.6875000000535181  0.2838671249793236   F   F   F
  0.9174653699539093  0.8124999999464819  0.2838671249793236   F   F   F
  0.9174653699539093  0.9375000002676046  0.2838671249793236   F   F   F
  0.9174653699539093  0.1875000000535181  0.2838671249793236   F   F   F
  0.9174653699539093  0.3124999999464819  0.2838671249793236   F   F   F
  0.9177030091065713  0.1875144821659092  0.4526903114314526   T   T   T
  0.9989834924875858  0.6251236997830213  0.3699951155589234   T   T   T
  0.9995589466056525  0.7503504715522108  0.3699022847339613   T   T   T
  0.9995134639164847  0.5003738157409674  0.3698490693850668   T   T   T
  0.9996584495582805  0.9999834157580875  0.3698611903326501   T   T   T
  0.1657105641648826  0.4375000002676046  0.2025710526275901   F   F   F
  0.1657105641648826  0.5625000001605613  0.2025710526275901   F   F   F