Ta  N Cu                                
   1.00000000000000     
    18.1096308199999996    0.0000000000000000    0.0000000000000000
     0.0000000000000000   11.6775998899999998    0.0000000000000000
     0.0000000000000000    0.0000000000000000   23.4818170799999990
   Ta   N    Cu
   120   120     2
Direct
  0.0000557211252773  0.0000740390357774  0.2548548764149520
  0.3335898124400051  0.1250240952309625  0.2638238059344513
  0.1664479821001188  0.1250165405657534  0.2637982845717950
  0.2500086230526323  0.2500179892776146  0.3612878262753441
  0.0826043288240386  0.1250183656667952  0.3684852079305616
  0.4173864521717453  0.1250254991492430  0.3684870328575357
  0.9999812574947118  0.2499787315037489  0.4797788678808925
  0.3323217218009004  0.1250446673360501  0.4781843527963696
  0.1675067125576526  0.1250230955295197  0.4782514286419995
  0.2495436254842441  0.2502284479167929  0.5911962889840221
  0.0834082716309786  0.1250239922817322  0.5901057041769526
  0.4163389607924314  0.1251071513038602  0.5900308020276219
  0.9991292951088039  0.2503791641200479  0.7011928037062135
  0.3361056537161332  0.1250829637649405  0.7041021061759543
  0.1677369926135358  0.1252595791816720  0.7022731257900439
  0.0000566724344130  0.2499998001387914  0.2548936886960551
  0.3335432114872267  0.3749859822472507  0.2638449606171652
  0.1664435346409668  0.3750035973343176  0.2637969189370800
  0.2500889907628821  0.5000106557518280  0.3612602588583617
  0.0825979549340468  0.3750230635101355  0.3684556778885445
  0.4173912099198230  0.3750045262545609  0.3685229463175456
  0.0000060595105019  0.5000397233340432  0.4797943528499399
  0.3323251140806386  0.3750464036718082  0.4783345205558474
  0.1678758518077041  0.3749564193335676  0.4780883550095537
  0.2490490041446976  0.5002123781835889  0.5913460733402515
  0.0839294554808788  0.3748077987508470  0.5894121867431138
  0.4160888826247532  0.3751373289533581  0.5900123043733319
  0.0000486770578480  0.4996010976181892  0.6953504163939859
  0.3351549560619631  0.3751622548382039  0.7042068940025028
  0.1645548645756020  0.3754667779209374  0.7052759636986958
  0.0000520929450774  0.4999795624147887  0.2548740623698895
  0.3335371914377578  0.6249709335830842  0.2637819707059211
  0.1664641168252053  0.6250053618142820  0.2637767442001767
  0.2500594987431700  0.7500236831538390  0.3612713969589425
  0.0825990714091124  0.6250261697706317  0.3684087654362660
  0.4173951874519527  0.6249811236830609  0.3685138459248894
  0.9999911777802993  0.7502853577334047  0.4796738332691360
  0.3323329425870195  0.6250215453638599  0.4782379292853807
  0.1678451652404659  0.6251455679066172  0.4779261404740408
  0.2496977792364963  0.7500303684429619  0.5909664096141861
  0.0839456493352257  0.6255851301022288  0.5891853238211784
  0.4161876476433228  0.6249869755095284  0.5900818439729943
  0.9999399986099200  0.7491015281828771  0.7012392252048546
  0.3347763892843650  0.6250956338706516  0.7041725823756770
  0.1638053578742975  0.6262527545504309  0.7046755881007117
  0.0000623452947841  0.7499744682963262  0.2548213830346756
  0.3334851074211536  0.8750120633257956  0.2638533576715071
  0.1665079183799621  0.8749889590319361  0.2638159005553715
  0.2499865709327393  0.0000244273944885  0.3613015635393725
  0.0825810660619223  0.8750354422970809  0.3684171796143441
  0.4174101486697446  0.8749911916328568  0.3685161059984312
  0.9999820747065754  0.0000059714008221  0.4798017930152926
  0.3323620487895305  0.8750668063341652  0.4782614935997772
  0.1676691980040494  0.8752051762064214  0.4782032265705868
  0.2496261386167116  0.0000150343504685  0.5911000473426302
  0.0835313285115335  0.8751275510183613  0.5898151458673786
  0.4161715199372979  0.8749820979381119  0.5899273207036234
  0.9990183950612134  0.0009932755924846  0.7015490540614899
  0.3354306405965570  0.8752861091008051  0.7039761097827000
  0.1648208099571053  0.8737496359424369  0.7048206809868337
  0.4999220950151938  0.9999872411625316  0.2548633548736818
  0.8334923839322061  0.1250281436558364  0.2637078506689117
  0.6663646027055599  0.1250493736075747  0.2638239656349803
  0.7498332148865319  0.2500378826529467  0.3612078512260881
  0.5824410899108372  0.1250288379261355  0.3684471732122354
  0.9173565255016503  0.1250133203678034  0.3683503543579043
  0.4999375367740371  0.2500103866798872  0.4800236920735878
  0.8322852552253254  0.1249853041552896  0.4779023660963249
  0.6674964296846686  0.1250050612315147  0.4780998629455239
  0.7500008873139613  0.2502067446876379  0.5907965819091686
  0.5835250441230801  0.1250793965004859  0.5899820341755175
  0.9160818207250854  0.1249630703645013  0.5896633473500156
  0.5003950729915575  0.2500922534675275  0.7024225476460739
  0.8352031843279899  0.1252218889317716  0.7035582863984871
  0.6650046705943755  0.1249145633121229  0.7040392642055485
  0.4999113382318295  0.2499655858104253  0.2548866586988765
  0.8335090356284173  0.3749731434642808  0.2637361527757187
  0.6663640684674588  0.3749826900846745  0.2638130014806271
  0.7497538834732360  0.4999613691834610  0.3611903611435275
  0.5824648713490905  0.3750053821432899  0.3684768865889494
  0.9173694312076569  0.3750152920309180  0.3683543040900588
  0.4999316439320536  0.5000053397086341  0.4800163502852828
  0.8320060125198098  0.3749579595727978  0.4777904416352048
  0.6675267096340718  0.3750365730197239  0.4782166343640696
  0.7506639114266025  0.5000637593821988  0.5911640152312062
  0.5836646993108124  0.3751323604418497  0.5900496705316741
  0.9157082278177500  0.3747769311241462  0.5890272541895648
  0.5001130265487724  0.5001991648732755  0.7026402946335210
  0.8357406531210922  0.3735584275960194  0.7042932551734024
  0.6653627629949994  0.3752703866489311  0.7042940650119260
  0.4999297816291344  0.5000283910168862  0.2549015639807795
  0.8334992349971737  0.6250062602221707  0.2637232372313050
  0.6663830736934282  0.6249899152123622  0.2637698930816893
  0.7497791670505786  0.7500383858595081  0.3611974931873456
  0.5824461711731183  0.6249794666451725  0.3684900957938883
  0.9173990015678199  0.6250182516465749  0.3683037764272474
  0.4999291631578628  0.7499654651003845  0.4799764592969165
  0.8319897258105194  0.6250957031051939  0.4777514328874827
  0.6674794761151764  0.6249876972287414  0.4782166173315223
  0.7500469334998097  0.7500448498244071  0.5908000991537099
  0.5836395915182521  0.6249487215838304  0.5900948560290322
  0.9158712911479691  0.6255584662634819  0.5889818108201558
  0.5001233714032911  0.7498665103440146  0.7024759887927952
  0.8355167594392287  0.6263423348103951  0.7045713613071527
  0.6653373703849109  0.6250018018706124  0.7042335825325544
  0.4999176645524755  0.7499895429733582  0.2548505823698913
  0.8334236511690443  0.8749999214044182  0.2637507342057738
  0.6664103571916365  0.8749842916994354  0.2638129120194688
  0.7498511256437728  0.9999914436701177  0.3612168411302942
  0.5824347202675904  0.8749838731540350  0.3684679809475159
  0.9173871438283464  0.8750125636311613  0.3682989219850145
  0.4999345610823595  0.0000679097351589  0.4799644574128948
  0.8322276925436313  0.8751300129895535  0.4778950050018671
  0.6674842164494658  0.8750034942029704  0.4781487102084678
  0.7499370251042085  0.9999030033387889  0.5907005856565255
  0.5835813149334866  0.8749284456455947  0.5899844471114306
  0.9160259259700503  0.8751033652539443  0.5894274295484774
  0.5003552809357131  0.0001402678951448  0.7022649729537989
  0.8356268425312349  0.8755340486591090  0.7039857132365570
  0.6650718229177216  0.8750115622134451  0.7040271649186524
  0.4068092014156305  0.9999990384341516  0.3013052400090211
  0.2499890318746224  0.0000576194707958  0.2577970928271822
  0.0931954912097356  0.0000434085832714  0.3012421869111684
  0.1545557367199749  0.2499866417955608  0.4099726951946402
  0.9999756715248075  0.2500261510474430  0.3931480503883745
  0.3454302119256620  0.2500068007321603  0.4100727194560203
  0.4009124736251680  0.2500569421475154  0.5221959572432447
  0.2499842314486923  0.2498699693290576  0.5030636804994619
  0.0992059921465684  0.2498243366892332  0.5219587180555582
  0.1510087243073241  0.2510206325657637  0.6342676303322644
  0.9996644675425272  0.2499383067633265  0.6124963229197078
  0.3479530739713796  0.2503315923704592  0.6333182638590882
  0.4032595669240939  0.2505277763662297  0.7403541711649053
  0.2498716905926650  0.2505792523171266  0.7241943131317679
  0.0969645971323319  0.2520761352156173  0.7438371279352080
  0.4068002617055146  0.2500178097112218  0.3013137426184972
  0.2499693632591220  0.2499823567231267  0.2578165994378405
  0.0932202912617835  0.2499828002075018  0.3012606422908523
  0.1546512335618413  0.4999946908937259  0.4098668138418753
  0.9999877241017047  0.5000391494923253  0.3931874876276484
  0.3454913055013185  0.4999994727683452  0.4100745272840413
  0.4009125064187914  0.5000071139236935  0.5222403004873636
  0.2500119556036863  0.5001506825021111  0.5030952604055818
  0.0996479140773714  0.5000190932714934  0.5215026516323293
  0.1502369681256145  0.5002812453780987  0.6344967678844606
  0.9998346364739557  0.5002932295292232  0.6080865339387250
  0.3474223207091349  0.5001482316588115  0.6334631563975995
  0.4027013913965212  0.5004356253738433  0.7403887521360711
  0.2482620342975046  0.4993138470192500  0.7249243436834368
  0.0920066015601097  0.4999890418802903  0.7437631232179353
  0.4068000254446447  0.4999846104207832  0.3013068076467884
  0.2499875488847532  0.4999923471365828  0.2577363242817623
  0.0932290856083897  0.4999998080534476  0.3012380664042009
  0.1545418309687214  0.7501709968909905  0.4098942048275939
  0.9999818879888880  0.7500432338018610  0.3930409486498810
  0.3454932448576477  0.7500136709184650  0.4100266122121117
  0.4009234818819740  0.7499910991528147  0.5222047076517987
  0.2500597471206135  0.7500355517004681  0.5028688146038848
  0.0992229395842091  0.7505297862350174  0.5218097791110700
  0.1514069807992895  0.7501113747179401  0.6335635630341868
  0.9998207173691112  0.7505607422846631  0.6124200339719008
  0.3478700449212396  0.7499983624679658  0.6333471073282828
  0.4027422742399303  0.7498631968763507  0.7402641185452251
  0.2488190819066503  0.7501240994150861  0.7238541072290341
  0.0963797109737210  0.7497971843260990  0.7410803814651505
  0.4068120166158662  0.7499825759401222  0.3012967395102323
  0.2500099343954837  0.7499728795995347  0.2576678181358782
  0.0932094069038406  0.7500361669959273  0.3012081424918654
  0.1545251682276389  0.0000644176304014  0.4099942787563500
  0.9999709593794919  0.0000131064813120  0.3931325348180765
  0.3454359591956538  0.0000660062555584  0.4100521060673096
  0.4009148619297871  0.0001075275555523  0.5221675555381876
  0.2499712090393025  0.0002423733922618  0.5030034332444215
  0.0990770164164159  0.0000866914150560  0.5221003494321960
  0.1511005541480860  0.9992387844065646  0.6340427077020830
  0.9996393606717791  0.9996928256293028  0.6128917976067161
  0.3480629959526146  0.9999047378381497  0.6332583853929692
  0.4033429136104306  0.9998042374123425  0.7403087881620313
  0.2501478218773978  0.0006097871910016  0.7242775850126988
  0.0968605556887237  0.9983677659425914  0.7432766473868178
  0.9068120438691595  0.0000265400291148  0.3011010964184133
  0.7499375494465784  0.0000407373583982  0.2576961495007368
  0.5930617348100011  0.9999887024435195  0.3012436692279524
  0.6543586003007652  0.2500489394460935  0.4099769331102010
  0.4999193536757522  0.2500124602909144  0.3932906547099951
  0.8453696361743751  0.2500121683839525  0.4097232154353287
  0.9005852451517417  0.2497875660104676  0.5216221664520636
  0.7498187660525072  0.2499516440203917  0.5027004241474419
  0.5989607178831018  0.2501124825806613  0.5221892065534262
  0.6519031436259423  0.2501578936829199  0.6333100276351964
  0.4999394316071766  0.2502909483296006  0.6136243206595877
  0.8482690534742456  0.2503873313001652  0.6333099003789812
  0.9033657704346011  0.2498298139912034  0.7407299417147433
  0.7506512640175991  0.2509217181883994  0.7238650118930474
  0.5973098937010396  0.2501065983834264  0.7403789719702021
  0.9067952670931592  0.2499860071630030  0.3011275260398258
  0.7499676710539755  0.2500027496507072  0.2576805164929378
  0.5930612562723068  0.2500331489719477  0.3012550226322117
  0.6543493022413476  0.4999986357086356  0.4100164627350515
  0.4999238267223949  0.4999719735703344  0.3932888413353530
  0.8452688127583671  0.5000260588286572  0.4096628857195532
  0.9002538154799679  0.5001019212293600  0.5212489677825882
  0.7498602136115069  0.5000662160345309  0.5029157540867623
  0.5989302112638123  0.4999738764357140  0.5222285845376335
  0.6523410224787329  0.5000680709856004  0.6334066845289614
  0.4998798543352333  0.4999754095657781  0.6138136221662510
  0.8494857112726704  0.5004428032971037  0.6341663809983450
  0.9082138432085419  0.4996449972937560  0.7433519516980793
  0.7514227976761535  0.5000920658020659  0.7248166701526820
  0.5972054483243143  0.5001187295895699  0.7404707054207844
  0.9067945808566786  0.4999920946156748  0.3011227501057082
  0.7499567644583072  0.4999999482967263  0.2577401564402149
  0.5930799106590096  0.5000093592404818  0.3012627172319508
  0.6543441746167368  0.7499829377905370  0.4099678480920424
  0.4999213553956898  0.7499881951706996  0.3932555524291694
  0.8453713329073236  0.7500646235469495  0.4096853572686333
  0.9006425121487464  0.7503492716888909  0.5215588538837495
  0.7498114076722444  0.7500098603025386  0.5026931713130931
  0.5989185622475438  0.7499519935249928  0.5221984093310038
  0.6519163914236442  0.7499215039917634  0.6332987146831066
  0.4998820036852358  0.7498905157227530  0.6136765799455359
  0.8483102298633980  0.7498937021207213  0.6332394608661585
  0.9037165330094006  0.7497815543943359  0.7406352390461939
  0.7509336774025832  0.7493270776222817  0.7237488741477239
  0.5971814440069823  0.7499878991533923  0.7403533077574577
  0.9068175509056400  0.7500307664892911  0.3010812029196935
  0.7499399213105489  0.7499659424669340  0.2576316633802671
  0.5930494374179368  0.7499631450776205  0.3012477380419364
  0.6543492575429531  0.9999795166661876  0.4099507716592993
  0.4999209547051917  0.0000216192038105  0.3932611439600297
  0.8453951266193303  0.9999764595146070  0.4097387034820487
  0.9007077517307727  0.0000471559310775  0.5217539549919468
  0.7498318505777951  0.0000689948996580  0.5026486534082306
  0.5989505394389937  0.0000006138485649  0.5221585921325217
  0.6518190557039781  0.9999765093968723  0.6332449577784247
  0.4999306451028168  0.9999917144629358  0.6135006653239959
  0.8481828501045661  0.9997002125626234  0.6331091306615578
  0.9032254770611550  0.0007976758944704  0.7404031419925298
  0.7502968908472308  0.0000632958822588  0.7239835879056341
  0.5971621345943378  0.0000347552894395  0.7402995640130131
  0.0682274103219841  0.1248756891137288  0.7910444303529676
  0.9993060333682477  0.4977798550307990  0.7983851596611520
 
  0.00000000E+00  0.00000000E+00  0.00000000E+00
  0.00000000E+00  0.00000000E+00  0.00000000E+00
  0.00000000E+00  0.00000000E+00  0.00000000E+00
  0.00000000E+00  0.00000000E+00  0.00000000E+00
  0.00000000E+00  0.00000000E+00  0.00000000E+00
  0.00000000E+00  0.00000000E+00  0.00000000E+00
  0.00000000E+00  0.00000000E+00  0.00000000E+00
  0.00000000E+00  0.00000000E+00  0.00000000E+00
  0.00000000E+00  0.00000000E+00  0.00000000E+00
  0.00000000E+00  0.00000000E+00  0.00000000E+00
  0.00000000E+00  0.00000000E+00  0.00000000E+00
  0.00000000E+00  0.00000000E+00  0.00000000E+00
  0.00000000E+00  0.00000000E+00  0.00000000E+00
  0.00000000E+00  0.00000000E+00  0.00000000E+00
  0.00000000E+00  0.00000000E+00  0.00000000E+00
  0.00000000E+00  0.00000000E+00  0.00000000E+00
  0.00000000E+00  0.00000000E+00  0.00000000E+00
  0.00000000E+00  0.00000000E+00  0.00000000E+00
  0.00000000E+00  0.00000000E+00  0.00000000E+00
  0.00000000E+00  0.00000000E+00  0.00000000E+00
  0.00000000E+00  0.00000000E+00  0.00000000E+00
  0.00000000E+00  0.00000000E+00  0.00000000E+00
  0.00000000E+00  0.00000000E+00  0.00000000E+00
  0.00000000E+00  0.00000000E+00  0.00000000E+00
  0.00000000E+00  0.00000000E+00  0.00000000E+00
  0.00000000E+00  0.00000000E+00  0.00000000E+00
  0.00000000E+00  0.00000000E+00  0.00000000E+00
  0.00000000E+00  0.00000000E+00  0.00000000E+00
  0.00000000E+00  0.00000000E+00  0.00000000E+00
  0.00000000E+00  0.00000000E+00  0.00000000E+00
  0.00000000E+00  0.00000000E+00  0.00000000E+00
  0.00000000E+00  0.00000000E+00  0.00000000E+00
  0.00000000E+00  0.00000000E+00  0.00000000E+00
  0.00000000E+00  0.00000000E+00  0.00000000E+00
  0.00000000E+00  0.00000000E+00  0.00000000E+00
  0.00000000E+00  0.00000000E+00  0.00000000E+00
  0.00000000E+00  0.00000000E+00  0.00000000E+00
  0.00000000E+00  0.00000000E+00  0.00000000E+00
  0.00000000E+00  0.00000000E+00  0.00000000E+00
  0.00000000E+00  0.00000000E+00  0.00000000E+00
  0.00000000E+00  0.00000000E+00  0.00000000E+00
  0.00000000E+00  0.00000000E+00  0.00000000E+00
  0.00000000E+00  0.00000000E+00  0.00000000E+00
  0.00000000E+00  0.00000000E+00  0.00000000E+00
  0.00000000E+00  0.00000000E+00  0.00000000E+00
  0.00000000E+00  0.00000000E+00  0.00000000E+00
  0.00000000E+00  0.00000000E+00  0.00000000E+00
  0.00000000E+00  0.00000000E+00  0.00000000E+00
  0.00000000E+00  0.00000000E+00  0.00000000E+00
  0.00000000E+00  0.00000000E+00  0.00000000E+00
  0.00000000E+00  0.00000000E+00  0.00000000E+00
  0.00000000E+00  0.00000000E+00  0.00000000E+00
  0.00000000E+00  0.00000000E+00  0.00000000E+00
  0.00000000E+00  0.00000000E+00  0.00000000E+00
  0.00000000E+00  0.00000000E+00  0.00000000E+00
  0.00000000E+00  0.00000000E+00  0.00000000E+00
  0.00000000E+00  0.00000000E+00  0.00000000E+00
  0.00000000E+00  0.00000000E+00  0.00000000E+00
  0.00000000E+00  0.00000000E+00  0.00000000E+00
  0.00000000E+00  0.00000000E+00  0.00000000E+00
  0.00000000E+00  0.00000000E+00  0.00000000E+00
  0.00000000E+00  0.00000000E+00  0.00000000E+00
  0.00000000E+00  0.00000000E+00  0.00000000E+00
  0.00000000E+00  0.00000000E+00  0.00000000E+00
  0.00000000E+00  0.00000000E+00  0.00000000E+00
  0.00000000E+00  0.00000000E+00  0.00000000E+00
  0.00000000E+00  0.00000000E+00  0.00000000E+00
  0.00000000E+00  0.00000000E+00  0.00000000E+00
  0.00000000E+00  0.00000000E+00  0.00000000E+00
  0.00000000E+00  0.00000000E+00  0.00000000E+00
  0.00000000E+00  0.00000000E+00  0.00000000E+00
  0.00000000E+00  0.00000000E+00  0.00000000E+00
  0.00000000E+00  0.00000000E+00  0.00000000E+00
  0.00000000E+00  0.00000000E+00  0.00000000E+00
  0.00000000E+00  0.00000000E+00  0.00000000E+00
  0.00000000E+00  0.00000000E+00  0.00000000E+00
  0.00000000E+00  0.00000000E+00  0.00000000E+00
  0.00000000E+00  0.00000000E+00  0.00000000E+00
  0.00000000E+00  0.00000000E+00  0.00000000E+00
  0.00000000E+00  0.00000000E+00  0.00000000E+00
  0.00000000E+00  0.00000000E+00  0.00000000E+00
  0.00000000E+00  0.00000000E+00  0.00000000E+00
  0.00000000E+00  0.00000000E+00  0.00000000E+00
  0.00000000E+00  0.00000000E+00  0.00000000E+00
  0.00000000E+00  0.00000000E+00  0.00000000E+00
  0.00000000E+00  0.00000000E+00  0.00000000E+00
  0.00000000E+00  0.00000000E+00  0.00000000E+00
  0.00000000E+00  0.00000000E+00  0.00000000E+00
  0.00000000E+00  0.00000000E+00  0.00000000E+00
  0.00000000E+00  0.00000000E+00  0.00000000E+00
  0.00000000E+00  0.00000000E+00  0.00000000E+00
  0.00000000E+00  0.00000000E+00  0.00000000E+00
  0.00000000E+00  0.00000000E+00  0.00000000E+00
  0.00000000E+00  0.00000000E+00  0.00000000E+00
  0.00000000E+00  0.00000000E+00  0.00000000E+00
  0.00000000E+00  0.00000000E+00  0.00000000E+00
  0.00000000E+00  0.00000000E+00  0.00000000E+00
  0.00000000E+00  0.00000000E+00  0.00000000E+00
  0.00000000E+00  0.00000000E+00  0.00000000E+00
  0.00000000E+00  0.00000000E+00  0.00000000E+00
  0.00000000E+00  0.00000000E+00  0.00000000E+00
  0.00000000E+00  0.00000000E+00  0.00000000E+00
  0.00000000E+00  0.00000000E+00  0.00000000E+00
  0.00000000E+00  0.00000000E+00  0.00000000E+00
  0.00000000E+00  0.00000000E+00  0.00000000E+00
  0.00000000E+00  0.00000000E+00  0.00000000E+00
  0.00000000E+00  0.00000000E+00  0.00000000E+00
  0.00000000E+00  0.00000000E+00  0.00000000E+00
  0.00000000E+00  0.00000000E+00  0.00000000E+00
  0.00000000E+00  0.00000000E+00  0.00000000E+00
  0.00000000E+00  0.00000000E+00  0.00000000E+00
  0.00000000E+00  0.00000000E+00  0.00000000E+00
  0.00000000E+00  0.00000000E+00  0.00000000E+00
  0.00000000E+00  0.00000000E+00  0.00000000E+00
  0.00000000E+00  0.00000000E+00  0.00000000E+00
  0.00000000E+00  0.00000000E+00  0.00000000E+00
  0.00000000E+00  0.00000000E+00  0.00000000E+00
  0.00000000E+00  0.00000000E+00  0.00000000E+00
  0.00000000E+00  0.00000000E+00  0.00000000E+00
  0.00000000E+00  0.00000000E+00  0.00000000E+00
  0.00000000E+00  0.00000000E+00  0.00000000E+00
  0.00000000E+00  0.00000000E+00  0.00000000E+00
  0.00000000E+00  0.00000000E+00  0.00000000E+00
  0.00000000E+00  0.00000000E+00  0.00000000E+00
  0.00000000E+00  0.00000000E+00  0.00000000E+00
  0.00000000E+00  0.00000000E+00  0.00000000E+00
  0.00000000E+00  0.00000000E+00  0.00000000E+00
  0.00000000E+00  0.00000000E+00  0.00000000E+00
  0.00000000E+00  0.00000000E+00  0.00000000E+00
  0.00000000E+00  0.00000000E+00  0.00000000E+00
  0.00000000E+00  0.00000000E+00  0.00000000E+00
  0.00000000E+00  0.00000000E+00  0.00000000E+00
  0.00000000E+00  0.00000000E+00  0.00000000E+00
  0.00000000E+00  0.00000000E+00  0.00000000E+00
  0.00000000E+00  0.00000000E+00  0.00000000E+00
  0.00000000E+00  0.00000000E+00  0.00000000E+00
  0.00000000E+00  0.00000000E+00  0.00000000E+00
  0.00000000E+00  0.00000000E+00  0.00000000E+00
  0.00000000E+00  0.00000000E+00  0.00000000E+00
  0.00000000E+00  0.00000000E+00  0.00000000E+00
  0.00000000E+00  0.00000000E+00  0.00000000E+00
  0.00000000E+00  0.00000000E+00  0.00000000E+00
  0.00000000E+00  0.00000000E+00  0.00000000E+00
  0.00000000E+00  0.00000000E+00  0.00000000E+00
  0.00000000E+00  0.00000000E+00  0.00000000E+00
  0.00000000E+00  0.00000000E+00  0.00000000E+00
  0.00000000E+00  0.00000000E+00  0.00000000E+00
  0.00000000E+00  0.00000000E+00  0.00000000E+00
  0.00000000E+00  0.00000000E+00  0.00000000E+00
  0.00000000E+00  0.00000000E+00  0.00000000E+00
  0.00000000E+00  0.00000000E+00  0.00000000E+00
  0.00000000E+00  0.00000000E+00  0.00000000E+00
  0.00000000E+00  0.00000000E+00  0.00000000E+00
  0.00000000E+00  0.00000000E+00  0.00000000E+00
  0.00000000E+00  0.00000000E+00  0.00000000E+00
  0.00000000E+00  0.00000000E+00  0.00000000E+00
  0.00000000E+00  0.00000000E+00  0.00000000E+00
  0.00000000E+00  0.00000000E+00  0.00000000E+00
  0.00000000E+00  0.00000000E+00  0.00000000E+00
  0.00000000E+00  0.00000000E+00  0.00000000E+00
  0.00000000E+00  0.00000000E+00  0.00000000E+00
  0.00000000E+00  0.00000000E+00  0.00000000E+00
  0.00000000E+00  0.00000000E+00  0.00000000E+00
  0.00000000E+00  0.00000000E+00  0.00000000E+00
  0.00000000E+00  0.00000000E+00  0.00000000E+00
  0.00000000E+00  0.00000000E+00  0.00000000E+00
  0.00000000E+00  0.00000000E+00  0.00000000E+00
  0.00000000E+00  0.00000000E+00  0.00000000E+00
  0.00000000E+00  0.00000000E+00  0.00000000E+00
  0.00000000E+00  0.00000000E+00  0.00000000E+00
  0.00000000E+00  0.00000000E+00  0.00000000E+00
  0.00000000E+00  0.00000000E+00  0.00000000E+00
  0.00000000E+00  0.00000000E+00  0.00000000E+00
  0.00000000E+00  0.00000000E+00  0.00000000E+00
  0.00000000E+00  0.00000000E+00  0.00000000E+00
  0.00000000E+00  0.00000000E+00  0.00000000E+00
  0.00000000E+00  0.00000000E+00  0.00000000E+00
  0.00000000E+00  0.00000000E+00  0.00000000E+00
  0.00000000E+00  0.00000000E+00  0.00000000E+00
  0.00000000E+00  0.00000000E+00  0.00000000E+00
  0.00000000E+00  0.00000000E+00  0.00000000E+00
  0.00000000E+00  0.00000000E+00  0.00000000E+00
  0.00000000E+00  0.00000000E+00  0.00000000E+00
  0.00000000E+00  0.00000000E+00  0.00000000E+00
  0.00000000E+00  0.00000000E+00  0.00000000E+00
  0.00000000E+00  0.00000000E+00  0.00000000E+00
  0.00000000E+00  0.00000000E+00  0.00000000E+00
  0.00000000E+00  0.00000000E+00  0.00000000E+00
  0.00000000E+00  0.00000000E+00  0.00000000E+00
  0.00000000E+00  0.00000000E+00  0.00000000E+00
  0.00000000E+00  0.00000000E+00  0.00000000E+00
  0.00000000E+00  0.00000000E+00  0.00000000E+00
  0.00000000E+00  0.00000000E+00  0.00000000E+00
  0.00000000E+00  0.00000000E+00  0.00000000E+00
  0.00000000E+00  0.00000000E+00  0.00000000E+00
  0.00000000E+00  0.00000000E+00  0.00000000E+00
  0.00000000E+00  0.00000000E+00  0.00000000E+00
  0.00000000E+00  0.00000000E+00  0.00000000E+00
  0.00000000E+00  0.00000000E+00  0.00000000E+00
  0.00000000E+00  0.00000000E+00  0.00000000E+00
  0.00000000E+00  0.00000000E+00  0.00000000E+00
  0.00000000E+00  0.00000000E+00  0.00000000E+00
  0.00000000E+00  0.00000000E+00  0.00000000E+00
  0.00000000E+00  0.00000000E+00  0.00000000E+00
  0.00000000E+00  0.00000000E+00  0.00000000E+00
  0.00000000E+00  0.00000000E+00  0.00000000E+00
  0.00000000E+00  0.00000000E+00  0.00000000E+00
  0.00000000E+00  0.00000000E+00  0.00000000E+00
  0.00000000E+00  0.00000000E+00  0.00000000E+00
  0.00000000E+00  0.00000000E+00  0.00000000E+00
  0.00000000E+00  0.00000000E+00  0.00000000E+00
  0.00000000E+00  0.00000000E+00  0.00000000E+00
  0.00000000E+00  0.00000000E+00  0.00000000E+00
  0.00000000E+00  0.00000000E+00  0.00000000E+00
  0.00000000E+00  0.00000000E+00  0.00000000E+00
  0.00000000E+00  0.00000000E+00  0.00000000E+00
  0.00000000E+00  0.00000000E+00  0.00000000E+00
  0.00000000E+00  0.00000000E+00  0.00000000E+00
  0.00000000E+00  0.00000000E+00  0.00000000E+00
  0.00000000E+00  0.00000000E+00  0.00000000E+00
  0.00000000E+00  0.00000000E+00  0.00000000E+00
  0.00000000E+00  0.00000000E+00  0.00000000E+00
  0.00000000E+00  0.00000000E+00  0.00000000E+00
  0.00000000E+00  0.00000000E+00  0.00000000E+00
  0.00000000E+00  0.00000000E+00  0.00000000E+00
  0.00000000E+00  0.00000000E+00  0.00000000E+00
  0.00000000E+00  0.00000000E+00  0.00000000E+00
  0.00000000E+00  0.00000000E+00  0.00000000E+00
  0.00000000E+00  0.00000000E+00  0.00000000E+00
  0.00000000E+00  0.00000000E+00  0.00000000E+00
  0.00000000E+00  0.00000000E+00  0.00000000E+00
  0.00000000E+00  0.00000000E+00  0.00000000E+00
  0.00000000E+00  0.00000000E+00  0.00000000E+00
  0.00000000E+00  0.00000000E+00  0.00000000E+00
  0.00000000E+00  0.00000000E+00  0.00000000E+00
  0.00000000E+00  0.00000000E+00  0.00000000E+00
  0.00000000E+00  0.00000000E+00  0.00000000E+00
  0.00000000E+00  0.00000000E+00  0.00000000E+00
  0.00000000E+00  0.00000000E+00  0.00000000E+00
  0.00000000E+00  0.00000000E+00  0.00000000E+00
  0.00000000E+00  0.00000000E+00  0.00000000E+00
  0.00000000E+00  0.00000000E+00  0.00000000E+00
