Ta  N Ru Cu                             
   1.00000000000000     
     9.0548154099999998    0.0000000000000000    0.0000000000000000
     0.0000000000000000   11.6775998899999998    0.0000000000000000
     0.0000000000000000    0.0000000000000000   26.4818170799999990
   Ta   N    Ru   Cu
    60    60    32     2
Selective dynamics
Direct
  0.0000000000000000  0.0000000000000000  0.2258397498815228   F   F   F
  0.6670845899906297  0.1250000003211298  0.2339882671631202   F   F   F
  0.3329153514769843  0.1250000003211298  0.2339882671631202   F   F   F
  0.4999999994478088  0.2499999997859135  0.3208898207564346   F   F   F
  0.1650707596845180  0.1250000003211298  0.3267034403329916   F   F   F
  0.8349292403154820  0.1250000003211298  0.3267034403329916   F   F   F
  0.0007970666379675  0.2497960276531850  0.4254800381292951   T   T   T
  0.6647417758211120  0.1248958641465601  0.4239773165499924   T   T   T
  0.3350737320515430  0.1248986620346818  0.4239420262445172   T   T   T
  0.4972563443848254  0.2494629868112559  0.5232386994815781   T   T   T
  0.1670783474084361  0.1246945414781328  0.5235328007427650   T   T   T
  0.8334742838735802  0.1246873535194500  0.5227506660610125   T   T   T
  0.0037596060368836  0.2496360276119215  0.6221039576845279   T   T   T
  0.6644744666637984  0.1247427046282442  0.6208357039136121   T   T   T
  0.3280989147157210  0.1244495200455184  0.6248302979190412   T   T   T
  0.0000000000000000  0.2499999997859135  0.2258397498815228   F   F   F
  0.6670845899906297  0.3750000001070433  0.2339882671631202   F   F   F
  0.3329153514769843  0.3750000001070433  0.2339882671631202   F   F   F
  0.4999999994478088  0.5000000004281731  0.3208898207564346   F   F   F
  0.1650707596845180  0.3750000001070433  0.3267034403329916   F   F   F
  0.8349292403154820  0.3750000001070433  0.3267034403329916   F   F   F
  0.0008321191374288  0.4999723548346873  0.4254711165487974   T   T   T
  0.6648250747816282  0.3748723380406535  0.4239232298574797   T   T   T
  0.3350807923940779  0.3748721134883827  0.4239267517427636   T   T   T
  0.4972988693112176  0.4999167109043377  0.5232290039040267   T   T   T
  0.1671252959862652  0.3746700476029808  0.5234049061537938   T   T   T
  0.8335947751586399  0.3747070764317839  0.5226057150610121   T   T   T
  0.0022441523893366  0.4998956442374049  0.6227710390682000   T   T   T
  0.6650987383847256  0.3751010887458393  0.6201021409855563   T   T   T
  0.3292754716649867  0.3742176310270424  0.6238741576158470   T   T   T
  0.0000000000000000  0.5000000004281731  0.2258397498815228   F   F   F
  0.6670845899906297  0.6249999998929567  0.2339882671631202   F   F   F
  0.3329153514769843  0.6249999998929567  0.2339882671631202   F   F   F
  0.4999999994478088  0.7500000002140865  0.3208898207564346   F   F   F
  0.1650707596845180  0.6249999998929567  0.3267034403329916   F   F   F
  0.8349292403154820  0.6249999998929567  0.3267034403329916   F   F   F
  0.0008808894773468  0.7498723310636101  0.4254640611589576   T   T   T
  0.6647989518836097  0.6249240626950101  0.4239707147720888   T   T   T
  0.3351807879461594  0.6249229786772980  0.4239408367145877   T   T   T
  0.4974478305540855  0.7496374234947921  0.5232399722441721   T   T   T
  0.1670304822513946  0.6247773142185877  0.5234047514197532   T   T   T
  0.8338046284574013  0.6247120084257335  0.5226390072899381   T   T   T
  0.0047935626141425  0.7494218558282770  0.6223284373931645   T   T   T
  0.6654403362669166  0.6249319901111676  0.6206143622396159   T   T   T
  0.3295135448779110  0.6245965129203644  0.6240528958821889   T   T   T
  0.0000000000000000  0.7500000002140865  0.2258397498815228   F   F   F
  0.6670845899906297  0.8750000005352163  0.2339882671631202   F   F   F
  0.3329153514769843  0.8750000005352163  0.2339882671631202   F   F   F
  0.4999999994478088  0.0000000000000000  0.3208898207564346   F   F   F
  0.1650707596845180  0.8750000005352163  0.3267034403329916   F   F   F
  0.8349292403154820  0.8750000005352163  0.3267034403329916   F   F   F
  0.0007915492866516  0.9999098908298536  0.4254876123101124   T   T   T
  0.6648213243280485  0.8749330323484663  0.4239380066824074   T   T   T
  0.3351750611015565  0.8749214158890243  0.4239204889750408   T   T   T
  0.4973343657268794  0.9997985284681093  0.5233283405713633   T   T   T
  0.1670285377258321  0.8748182215823235  0.5233841983664493   T   T   T
  0.8337601176411492  0.8747646137082457  0.5226412072759447   T   T   T
  0.0005197238190880  0.9995155885576569  0.6229508426236327   T   T   T
  0.6660640460580164  0.8747407285045937  0.6201648724358115   T   T   T
  0.3295610649837721  0.8744722459655206  0.6238480262798370   T   T   T
  0.8141011533980276  0.0000000000000000  0.2671765160246267   F   F   F
  0.4999999994478088  0.0000000000000000  0.2273691263583544   F   F   F
  0.1858988466019724  0.0000000000000000  0.2671765160246267   F   F   F
  0.3088456122590841  0.2499999997859135  0.3635413069267344   F   F   F
  0.0000000000000000  0.2499999997859135  0.3485649890092901   F   F   F
  0.6911543877409159  0.2499999997859135  0.3635413069267344   F   F   F
  0.8023842167298295  0.2497089260363620  0.4626325095776903   T   T   T
  0.4997205507587324  0.2498611499477937  0.4456829881732991   T   T   T
  0.1986888217760722  0.2497795041973941  0.4632566705395561   T   T   T
  0.3017588013073941  0.2492547793783025  0.5630581710328451   T   T   T
  0.0002147670116081  0.2496042035283041  0.5437092186343645   T   T   T
  0.6949422125874609  0.2492766616632307  0.5603312996299210   T   T   T
  0.8045414663803735  0.2507278101517536  0.6551629106644611   T   T   T
  0.5011806463741683  0.2492006655965506  0.6428877030268028   T   T   T
  0.1967981343752137  0.2495635360405153  0.6601918716426870   T   T   T
  0.8141011533980276  0.2499999997859135  0.2671765160246267   F   F   F
  0.4999999994478088  0.2499999997859135  0.2273691263583544   F   F   F
  0.1858988466019724  0.2499999997859135  0.2671765160246267   F   F   F
  0.3088456122590841  0.5000000004281731  0.3635413069267344   F   F   F
  0.0000000000000000  0.5000000004281731  0.3485649890092901   F   F   F
  0.6911543877409159  0.5000000004281731  0.3635413069267344   F   F   F
  0.8024803433310193  0.4998404529375283  0.4625986736711353   T   T   T
  0.4997345132835381  0.4998381332530857  0.4456803245491193   T   T   T
  0.1986684756484478  0.4998302100121528  0.4632087869041773   T   T   T
  0.3014154257889177  0.4995660442829978  0.5626361418256451   T   T   T
  0.0000868474193600  0.4997490894551238  0.5439785898453473   T   T   T
  0.6955326494653068  0.5000102700142330  0.5602322106848479   T   T   T
  0.8026823287324732  0.4994828198988593  0.6567987177173149   T   T   T
  0.5005441254133274  0.4994739887941678  0.6399574942182530   T   T   T
  0.1989572580272905  0.4989633762775825  0.6602958693099698   T   T   T
  0.8141011533980276  0.5000000004281731  0.2671765160246267   F   F   F
  0.4999999994478088  0.5000000004281731  0.2273691263583544   F   F   F
  0.1858988466019724  0.5000000004281731  0.2671765160246267   F   F   F
  0.3088456122590841  0.7500000002140865  0.3635413069267344   F   F   F
  0.0000000000000000  0.7500000002140865  0.3485649890092901   F   F   F
  0.6911543877409159  0.7500000002140865  0.3635413069267344   F   F   F
  0.8024569852718927  0.7498201919611722  0.4626060260630636   T   T   T
  0.4997798975352515  0.7499440664543974  0.4456755724480752   T   T   T
  0.1987631195511007  0.7498662229181985  0.4632306158766138   T   T   T
  0.3018970896015370  0.7497738060593608  0.5630494191204788   T   T   T
  0.0004756676702065  0.7497411309319972  0.5437906125200658   T   T   T
  0.6955767373699135  0.7493667658305019  0.5601865930476257   T   T   T
  0.8056780011120335  0.7497490335367505  0.6552297522624699   T   T   T
  0.5026217313720798  0.7494775962256727  0.6429520228702468   T   T   T
  0.1983266102379913  0.7497136280749065  0.6607908317858942   T   T   T
  0.8141011533980276  0.7500000002140865  0.2671765160246267   F   F   F
  0.4999999994478088  0.7500000002140865  0.2273691263583544   F   F   F
  0.1858988466019724  0.7500000002140865  0.2671765160246267   F   F   F
  0.3088456122590841  0.0000000000000000  0.3635413069267344   F   F   F
  0.0000000000000000  0.0000000000000000  0.3485649890092901   F   F   F
  0.6911543877409159  0.0000000000000000  0.3635413069267344   F   F   F
  0.8024427854249506  0.9998845200708387  0.4626289472561840   T   T   T
  0.4997228038159038  0.9999192483999978  0.4457524832214885   T   T   T
  0.1986310359405624  0.9998717606365831  0.4632471331510373   T   T   T
  0.3014281573006276  0.9997708269228707  0.5627952138184613   T   T   T
  0.9999353320423316  0.9997174891223357  0.5441375206757453   T   T   T
  0.6955342709556452  0.0000124173263693  0.5603764653852572   T   T   T
  0.8012093828325700 -0.0001098640855778  0.6574157009776720   T   T   T
  0.5003747090071673  0.9988930214331661  0.6403194986920576   T   T   T
  0.1968548017631321  0.9988862974637446  0.6598561938784102   T   T   T
  0.0939459795465185  0.0059754406955613  0.7319128989551679   T   T   T
  0.5632373122170036  0.9832150872505265  0.7141938348536053   T   T   T
  0.8493630200451893  0.1309760230928874  0.7119958552160899   T   T   T
  0.0879004422474173  0.4978935979157358  0.7314290641714069   T   T   T
  0.5629606150745023  0.4927696195139138  0.7143451210926960   T   T   T
  0.8437733244906709  0.6293688308416499  0.7127306947469372   T   T   T
  0.1093350388615119  0.2445961938548100  0.7329362131774702   T   T   T
  0.5452421494914473  0.2539993454733991  0.7201668136449114   T   T   T
  0.8374848606968400  0.3693208008055149  0.7126813087472977   T   T   T
  0.0983866973641832  0.7477216193743521  0.7327345682533218   T   T   T
  0.5506371094683870  0.7511504745933919  0.7206879049686796   T   T   T
  0.8375011007072423  0.8681420545117674  0.7135851687371696   T   T   T
  0.3269612139452844  0.8844692984635187  0.7402506280380748   T   T   T
  0.3296456047290442  0.6138438397590191  0.7396741203711167   T   T   T
  0.3307767773880405  0.3922634994700892  0.7408243533055011   T   T   T
  0.3464236961269365  0.1088943449939027  0.7470115572953491   T   T   T
  0.1319910342891930  0.8791182221967377  0.8074524848348067   T   T   T
  0.6527405064272144  0.8790774388720922  0.7942566038213486   T   T   T
  0.8882592757240457  0.0150523177648324  0.7960838537047044   T   T   T
  0.1414505972523198  0.3751627424306661  0.8082959158927636   T   T   T
  0.6614327249196961  0.3774658580131906  0.7910121865001217   T   T   T
  0.8898424611048056  0.5164135881730993  0.7980435546816558   T   T   T
  0.1361820490960065  0.1212253828725471  0.8109881906379360   T   T   T
  0.6297110043234861  0.1057913028168412  0.7900215088422675   T   T   T
  0.8873042000844880  0.2391853888285491  0.7946584975635340   T   T   T
  0.1400963557820319  0.6167845564073081  0.8086688735247154   T   T   T
  0.6388606349417301  0.6058795380038295  0.7911050841520294   T   T   T
  0.8856479599835468  0.7412560093443470  0.7952208863613862   T   T   T
  0.4203860795414392  0.7501119716362965  0.8074050363053533   T   T   T
  0.3815746485929479  0.5052338291527770  0.8203634273963878   T   T   T
  0.4187684244678088  0.2641434423964445  0.8104648317611305   T   T   T
  0.3990671429495725  0.9710990070762012  0.8217751684444383   T   T   T
  0.6640714407912989  0.2455656201602170  0.8652479496971721   T   T   T
  0.6201410441035957  0.4736014062697421  0.8717262547246717   T   T   T
 
  0.00000000E+00  0.00000000E+00  0.00000000E+00
  0.00000000E+00  0.00000000E+00  0.00000000E+00
  0.00000000E+00  0.00000000E+00  0.00000000E+00
  0.00000000E+00  0.00000000E+00  0.00000000E+00
  0.00000000E+00  0.00000000E+00  0.00000000E+00
  0.00000000E+00  0.00000000E+00  0.00000000E+00
  0.00000000E+00  0.00000000E+00  0.00000000E+00
  0.00000000E+00  0.00000000E+00  0.00000000E+00
  0.00000000E+00  0.00000000E+00  0.00000000E+00
  0.00000000E+00  0.00000000E+00  0.00000000E+00
  0.00000000E+00  0.00000000E+00  0.00000000E+00
  0.00000000E+00  0.00000000E+00  0.00000000E+00
  0.00000000E+00  0.00000000E+00  0.00000000E+00
  0.00000000E+00  0.00000000E+00  0.00000000E+00
  0.00000000E+00  0.00000000E+00  0.00000000E+00
  0.00000000E+00  0.00000000E+00  0.00000000E+00
  0.00000000E+00  0.00000000E+00  0.00000000E+00
  0.00000000E+00  0.00000000E+00  0.00000000E+00
  0.00000000E+00  0.00000000E+00  0.00000000E+00
  0.00000000E+00  0.00000000E+00  0.00000000E+00
  0.00000000E+00  0.00000000E+00  0.00000000E+00
  0.00000000E+00  0.00000000E+00  0.00000000E+00
  0.00000000E+00  0.00000000E+00  0.00000000E+00
  0.00000000E+00  0.00000000E+00  0.00000000E+00
  0.00000000E+00  0.00000000E+00  0.00000000E+00
  0.00000000E+00  0.00000000E+00  0.00000000E+00
  0.00000000E+00  0.00000000E+00  0.00000000E+00
  0.00000000E+00  0.00000000E+00  0.00000000E+00
  0.00000000E+00  0.00000000E+00  0.00000000E+00
  0.00000000E+00  0.00000000E+00  0.00000000E+00
  0.00000000E+00  0.00000000E+00  0.00000000E+00
  0.00000000E+00  0.00000000E+00  0.00000000E+00
  0.00000000E+00  0.00000000E+00  0.00000000E+00
  0.00000000E+00  0.00000000E+00  0.00000000E+00
  0.00000000E+00  0.00000000E+00  0.00000000E+00
  0.00000000E+00  0.00000000E+00  0.00000000E+00
  0.00000000E+00  0.00000000E+00  0.00000000E+00
  0.00000000E+00  0.00000000E+00  0.00000000E+00
  0.00000000E+00  0.00000000E+00  0.00000000E+00
  0.00000000E+00  0.00000000E+00  0.00000000E+00
  0.00000000E+00  0.00000000E+00  0.00000000E+00
  0.00000000E+00  0.00000000E+00  0.00000000E+00
  0.00000000E+00  0.00000000E+00  0.00000000E+00
  0.00000000E+00  0.00000000E+00  0.00000000E+00
  0.00000000E+00  0.00000000E+00  0.00000000E+00
  0.00000000E+00  0.00000000E+00  0.00000000E+00
  0.00000000E+00  0.00000000E+00  0.00000000E+00
  0.00000000E+00  0.00000000E+00  0.00000000E+00
  0.00000000E+00  0.00000000E+00  0.00000000E+00
  0.00000000E+00  0.00000000E+00  0.00000000E+00
  0.00000000E+00  0.00000000E+00  0.00000000E+00
  0.00000000E+00  0.00000000E+00  0.00000000E+00
  0.00000000E+00  0.00000000E+00  0.00000000E+00
  0.00000000E+00  0.00000000E+00  0.00000000E+00
  0.00000000E+00  0.00000000E+00  0.00000000E+00
  0.00000000E+00  0.00000000E+00  0.00000000E+00
  0.00000000E+00  0.00000000E+00  0.00000000E+00
  0.00000000E+00  0.00000000E+00  0.00000000E+00
  0.00000000E+00  0.00000000E+00  0.00000000E+00
  0.00000000E+00  0.00000000E+00  0.00000000E+00
  0.00000000E+00  0.00000000E+00  0.00000000E+00
  0.00000000E+00  0.00000000E+00  0.00000000E+00
  0.00000000E+00  0.00000000E+00  0.00000000E+00
  0.00000000E+00  0.00000000E+00  0.00000000E+00
  0.00000000E+00  0.00000000E+00  0.00000000E+00
  0.00000000E+00  0.00000000E+00  0.00000000E+00
  0.00000000E+00  0.00000000E+00  0.00000000E+00
  0.00000000E+00  0.00000000E+00  0.00000000E+00
  0.00000000E+00  0.00000000E+00  0.00000000E+00
  0.00000000E+00  0.00000000E+00  0.00000000E+00
  0.00000000E+00  0.00000000E+00  0.00000000E+00
  0.00000000E+00  0.00000000E+00  0.00000000E+00
  0.00000000E+00  0.00000000E+00  0.00000000E+00
  0.00000000E+00  0.00000000E+00  0.00000000E+00
  0.00000000E+00  0.00000000E+00  0.00000000E+00
  0.00000000E+00  0.00000000E+00  0.00000000E+00
  0.00000000E+00  0.00000000E+00  0.00000000E+00
  0.00000000E+00  0.00000000E+00  0.00000000E+00
  0.00000000E+00  0.00000000E+00  0.00000000E+00
  0.00000000E+00  0.00000000E+00  0.00000000E+00
  0.00000000E+00  0.00000000E+00  0.00000000E+00
  0.00000000E+00  0.00000000E+00  0.00000000E+00
  0.00000000E+00  0.00000000E+00  0.00000000E+00
  0.00000000E+00  0.00000000E+00  0.00000000E+00
  0.00000000E+00  0.00000000E+00  0.00000000E+00
  0.00000000E+00  0.00000000E+00  0.00000000E+00
  0.00000000E+00  0.00000000E+00  0.00000000E+00
  0.00000000E+00  0.00000000E+00  0.00000000E+00
  0.00000000E+00  0.00000000E+00  0.00000000E+00
  0.00000000E+00  0.00000000E+00  0.00000000E+00
  0.00000000E+00  0.00000000E+00  0.00000000E+00
  0.00000000E+00  0.00000000E+00  0.00000000E+00
  0.00000000E+00  0.00000000E+00  0.00000000E+00
  0.00000000E+00  0.00000000E+00  0.00000000E+00
  0.00000000E+00  0.00000000E+00  0.00000000E+00
  0.00000000E+00  0.00000000E+00  0.00000000E+00
  0.00000000E+00  0.00000000E+00  0.00000000E+00
  0.00000000E+00  0.00000000E+00  0.00000000E+00
  0.00000000E+00  0.00000000E+00  0.00000000E+00
  0.00000000E+00  0.00000000E+00  0.00000000E+00
  0.00000000E+00  0.00000000E+00  0.00000000E+00
  0.00000000E+00  0.00000000E+00  0.00000000E+00
  0.00000000E+00  0.00000000E+00  0.00000000E+00
  0.00000000E+00  0.00000000E+00  0.00000000E+00
  0.00000000E+00  0.00000000E+00  0.00000000E+00
  0.00000000E+00  0.00000000E+00  0.00000000E+00
  0.00000000E+00  0.00000000E+00  0.00000000E+00
  0.00000000E+00  0.00000000E+00  0.00000000E+00
  0.00000000E+00  0.00000000E+00  0.00000000E+00
  0.00000000E+00  0.00000000E+00  0.00000000E+00
  0.00000000E+00  0.00000000E+00  0.00000000E+00
  0.00000000E+00  0.00000000E+00  0.00000000E+00
  0.00000000E+00  0.00000000E+00  0.00000000E+00
  0.00000000E+00  0.00000000E+00  0.00000000E+00
  0.00000000E+00  0.00000000E+00  0.00000000E+00
  0.00000000E+00  0.00000000E+00  0.00000000E+00
  0.00000000E+00  0.00000000E+00  0.00000000E+00
  0.00000000E+00  0.00000000E+00  0.00000000E+00
  0.00000000E+00  0.00000000E+00  0.00000000E+00
  0.00000000E+00  0.00000000E+00  0.00000000E+00
  0.00000000E+00  0.00000000E+00  0.00000000E+00
  0.00000000E+00  0.00000000E+00  0.00000000E+00
  0.00000000E+00  0.00000000E+00  0.00000000E+00
  0.00000000E+00  0.00000000E+00  0.00000000E+00
  0.00000000E+00  0.00000000E+00  0.00000000E+00
  0.00000000E+00  0.00000000E+00  0.00000000E+00
  0.00000000E+00  0.00000000E+00  0.00000000E+00
  0.00000000E+00  0.00000000E+00  0.00000000E+00
  0.00000000E+00  0.00000000E+00  0.00000000E+00
  0.00000000E+00  0.00000000E+00  0.00000000E+00
  0.00000000E+00  0.00000000E+00  0.00000000E+00
  0.00000000E+00  0.00000000E+00  0.00000000E+00
  0.00000000E+00  0.00000000E+00  0.00000000E+00
  0.00000000E+00  0.00000000E+00  0.00000000E+00
  0.00000000E+00  0.00000000E+00  0.00000000E+00
  0.00000000E+00  0.00000000E+00  0.00000000E+00
  0.00000000E+00  0.00000000E+00  0.00000000E+00
  0.00000000E+00  0.00000000E+00  0.00000000E+00
  0.00000000E+00  0.00000000E+00  0.00000000E+00
  0.00000000E+00  0.00000000E+00  0.00000000E+00
  0.00000000E+00  0.00000000E+00  0.00000000E+00
  0.00000000E+00  0.00000000E+00  0.00000000E+00
  0.00000000E+00  0.00000000E+00  0.00000000E+00
  0.00000000E+00  0.00000000E+00  0.00000000E+00
  0.00000000E+00  0.00000000E+00  0.00000000E+00
  0.00000000E+00  0.00000000E+00  0.00000000E+00
  0.00000000E+00  0.00000000E+00  0.00000000E+00
  0.00000000E+00  0.00000000E+00  0.00000000E+00
  0.00000000E+00  0.00000000E+00  0.00000000E+00
  0.00000000E+00  0.00000000E+00  0.00000000E+00
  0.00000000E+00  0.00000000E+00  0.00000000E+00
  0.00000000E+00  0.00000000E+00  0.00000000E+00
  0.00000000E+00  0.00000000E+00  0.00000000E+00
  0.00000000E+00  0.00000000E+00  0.00000000E+00
