Ta  N Cu                                
   1.00000000000000     
    10.4555999800000006    0.0000000000000000    0.0000000000000000
     0.0000000000000000   11.6775998899999998    0.0000000000000000
     0.0000000000000000    0.0000000000000000   24.0732377500000005
   Ta   N    Cu
    64    64     2
Selective dynamics
Direct
  0.4991785186325330  0.1250000003211298  0.3753726828051569   F   F   F
  0.2600588226580172  0.1250000003211298  0.3190980514078845   F   F   F
  0.2470962603561304  0.0000000000000000  0.4358978840493251   F   F   F
  0.2474082530077478  0.1249143723190089  0.5618359595016026   T   T   T
  0.9980152489315669  0.1249653427656549  0.5004562733841578   T   T   T
  0.9965828622772592  0.9994287334920172  0.6261798894859499   T   T   T
  0.5054369396762387  0.1254450715963756  0.7453098029172772   T   T   T
  0.2506979594616585  0.1236793246690017  0.6869832554631916   T   T   T
  0.4991785186325330  0.3750000001070433  0.3753726828051569   F   F   F
  0.2600588226580172  0.3750000001070433  0.3190980514078845   F   F   F
  0.2470962603561304  0.2499999997859135  0.4358978840493251   F   F   F
  0.2474084700576570  0.3749867061699794  0.5618485893577713   T   T   T
  0.9980236970316173  0.3749785337611479  0.5004611044416449   T   T   T
  0.9964435905657358  0.2499190349355874  0.6265390161867862   T   T   T
  0.5053282536819877  0.3742085397917604  0.7453708987235182   T   T   T
  0.2507462656462868  0.3760900151694340  0.6870068449548283   T   T   T
  0.4991785186325330  0.6249999998929567  0.3753726828051569   F   F   F
  0.2600588226580172  0.6249999998929567  0.3190980514078845   F   F   F
  0.2470962603561304  0.5000000004281731  0.4358978840493251   F   F   F
  0.2478756634900768  0.6249736528056807  0.5616079017012079   T   T   T
  0.9980020340641647  0.6249820011185965  0.5004855263107199   T   T   T
  0.9965777130102331  0.5003962177715203  0.6262055039911149   T   T   T
  0.5098576995644736  0.6240370720431179  0.7434346347719728   T   T   T
  0.2487090963379368  0.6253102709273953  0.6867387305700627   T   T   T
  0.4991785186325330  0.8750000005352163  0.3753726828051569   F   F   F
  0.2600588226580172  0.8750000005352163  0.3190980514078845   F   F   F
  0.2470962603561304  0.7500000002140865  0.4358978840493251   F   F   F
  0.2478781438812012  0.8749263772834418  0.5616020743630105   T   T   T
  0.9980000569181208  0.8749638696491996  0.5004814137589799   T   T   T
  0.9965121822386497  0.7499264429549291  0.6263079071470496   T   T   T
  0.5099035586243961  0.8757455536062581  0.7434761370981842   T   T   T
  0.2487674539894671  0.8745389164211211  0.6867403693729630   T   T   T
  0.9991784928090510  0.1250000003211298  0.3753726828051569   F   F   F
  0.7600587968345351  0.1250000003211298  0.3190980514078845   F   F   F
  0.7470962345326484  0.0000000000000000  0.4358978840493251   F   F   F
  0.7482245128296391  0.1250456164037144  0.5617650037304196   T   T   T
  0.4981657011868748  0.1249113202314792  0.5004378327013345   T   T   T
  0.4971468340953761  0.9986326494508618  0.6257005626971660   T   T   T
  0.0086569883298601  0.1230234486087088  0.7431675033867706   T   T   T
  0.7477910981269188  0.1247709388241389  0.6870912996223625   T   T   T
  0.9991784928090510  0.3750000001070433  0.3753726828051569   F   F   F
  0.7600587968345351  0.3750000001070433  0.3190980514078845   F   F   F
  0.7470962345326484  0.2499999997859135  0.4358978840493251   F   F   F
  0.7482545923926429  0.3748717890540460  0.5617699853179838   T   T   T
  0.4981695677987758  0.3750316317496649  0.5004319768084029   T   T   T
  0.4977941706493433  0.2499186310848564  0.6247188004467500   T   T   T
  0.0085954036132202  0.3767272780817688  0.7431541975988246   T   T   T
  0.7477288794776671  0.3750156288316207  0.6871168012994475   T   T   T
  0.9991784928090510  0.6249999998929567  0.3753726828051569   F   F   F
  0.7600587968345351  0.6249999998929567  0.3190980514078845   F   F   F
  0.7470962345326484  0.5000000004281731  0.4358978840493251   F   F   F
  0.7480165940457570  0.6249973115808860  0.5617474849937570   T   T   T
  0.4982268669986734  0.6250004186530621  0.5005007659069470   T   T   T
  0.4971387207627316  0.5011592207848499  0.6257141441390167   T   T   T
  0.0095384212957749  0.6247323727487849  0.7431691685675890   T   T   T
  0.7479557487546314  0.6249018087931537  0.6867894675580570   T   T   T
  0.9991784928090439  0.8750000005352163  0.3753726828051569   F   F   F
  0.7600587968345351  0.8750000005352163  0.3190980514078845   F   F   F
  0.7470962345326484  0.7500000002140865  0.4358978840493251   F   F   F
  0.7480179877808465  0.8749290916567112  0.5617373786620148   T   T   T
  0.4982284101021410  0.8749326459567678  0.5004950978722470   T   T   T
  0.4967347326276869  0.7499396464355874  0.6260370872779505   T   T   T
  0.0095631783182909  0.8750914178578247  0.7431751402455138   T   T   T
  0.7479530912995103  0.8749160344486968  0.6867681863824860   T   T   T
  0.1472195596423447  0.0000000000000000  0.3601606351366584   F   F   F
  0.4003222342624682  0.0000000000000000  0.3237632067519129   F   F   F
  0.4439214822817661  0.0000000000000000  0.4377276028165085   F   F   F
  0.3998407064706510  0.9999833193451062  0.5516344255282682   T   T   T
  0.1502100522599398  0.9998919347076826  0.5102378015941970   T   T   T
  0.1936910376541081  0.9995405993124299  0.6245904093208652   T   T   T
  0.1499350060235081  0.9994521732066287  0.7384311968374625   T   T   T
  0.3983245965355611  0.9994246902418648  0.7010200561315271   T   T   T
  0.1472195596423447  0.2499999997859135  0.3601606351366584   F   F   F
  0.4003222342624682  0.2499999997859135  0.3237632067519129   F   F   F
  0.4439214822817661  0.2499999997859135  0.4377276028165085   F   F   F
  0.3990701586628267  0.2499639032329526  0.5512184056020395   T   T   T
  0.1502044133900798  0.2499665532867471  0.5102119259086492   T   T   T
  0.1930620397063262  0.2499251917447404  0.6249008631917092   T   T   T
  0.1523407071485232  0.2498994969705106  0.7408023114305944   T   T   T
  0.3994373561374820  0.2498440663590644  0.6972835275620437   T   T   T
  0.1472195596423447  0.5000000004281731  0.3601606351366584   F   F   F
  0.4003222342624682  0.5000000004281731  0.3237632067519129   F   F   F
  0.4439214822817661  0.5000000004281731  0.4377276028165085   F   F   F
  0.3998452512162226  0.4999083674943714  0.5516395771739596   T   T   T
  0.1502172956186671  0.5000372064138635  0.5102401338308696   T   T   T
  0.1936878812431278  0.5003027468716567  0.6245959800929228   T   T   T
  0.1498420284483896  0.5003503818083082  0.7384116142851489   T   T   T
  0.3983144950477340  0.5003273850691307  0.7010277255822466   T   T   T
  0.1472195596423447  0.7500000002140865  0.3601606351366584   F   F   F
  0.4003222342624682  0.7500000002140865  0.3237632067519129   F   F   F
  0.4439214822817661  0.7500000002140865  0.4377276028165085   F   F   F
  0.3999217307131775  0.7499481853404937  0.5517321330301425   T   T   T
  0.1501791934947461  0.7499617364219571  0.5102107091893490   T   T   T
  0.1934775772796101  0.7499355651126222  0.6244230993756343   T   T   T
  0.1496107923723994  0.7499145378080261  0.7380106859495995   T   T   T
  0.3981195749010991  0.7499151769978338  0.7019071070738387   T   T   T
  0.6472195338188556  0.0000000000000000  0.3601606351366584   F   F   F
  0.9003222591295312  0.0000000000000000  0.3237632067519129   F   F   F
  0.9439215071488221  0.0000000000000000  0.4377276028165085   F   F   F
  0.9002246720507027  0.9999185577458088  0.5518051599258254   T   T   T
  0.6503718841404569  0.9999729987576562  0.5102944138596995   T   T   T
  0.6938072863773237  0.0000486549479824  0.6244019475821478   T   T   T
  0.6492204708848107  0.0011308497750839  0.7386835603736072   T   T   T
  0.8961912402055375  0.9995978812331489  0.7014634932946328   T   T   T
  0.6472195338188556  0.2499999997859135  0.3601606351366584   F   F   F
  0.9003222591295312  0.2499999997859135  0.3237632067519129   F   F   F
  0.9439215071488221  0.2499999997859135  0.4377276028165085   F   F   F
  0.9004567054924492  0.2499562191835101  0.5518435149131593   T   T   T
  0.6502569626950578  0.2499753483742804  0.5102542897921483   T   T   T
  0.6946404759014957  0.2499406523178580  0.6243209468766715   T   T   T
  0.6485238476666373  0.2498526287026470  0.7379751694902118   T   T   T
  0.8963156763428906  0.2498871609498786  0.7017881300470249   T   T   T
  0.6472195338188556  0.5000000004281731  0.3601606351366584   F   F   F
  0.9003222591295312  0.5000000004281731  0.3237632067519129   F   F   F
  0.9439215071488221  0.5000000004281731  0.4377276028165085   F   F   F
  0.9002406709237113  0.4999934050164810  0.5518203930424110   T   T   T
  0.6503798901797823  0.4999575389595909  0.5102985364474207   T   T   T
  0.6937949829377217  0.4997927617784373  0.6244157235270050   T   T   T
  0.6491268050815437  0.4985912387317447  0.7387304185663164   T   T   T
  0.8961310972504619  0.5001902183217020  0.7014878248033738   T   T   T
  0.6472195338188556  0.7500000002140865  0.3601606351366584   F   F   F
  0.9003222591295312  0.7500000002140865  0.3237632067519129   F   F   F
  0.9439215071488221  0.7500000002140865  0.4377276028165085   F   F   F
  0.9001766205757867  0.7499476425675620  0.5518372347570981   T   T   T
  0.6503557556949920  0.7499573438525797  0.5102936772865657   T   T   T
  0.6937054766189213  0.7499218673538863  0.6245587727704167   T   T   T
  0.6495274416717679  0.7499015309357576  0.7385131940372965   T   T   T
  0.8964325613301541  0.7499162896542355  0.7019954231145278   T   T   T
  0.2912191995977768  0.2508469472926397  0.7927566719747015   T   T   T
  0.4848426091161264  0.2484912124598647  0.8383635120543487   T   T   T
 
  0.00000000E+00  0.00000000E+00  0.00000000E+00
  0.00000000E+00  0.00000000E+00  0.00000000E+00
  0.00000000E+00  0.00000000E+00  0.00000000E+00
  0.00000000E+00  0.00000000E+00  0.00000000E+00
  0.00000000E+00  0.00000000E+00  0.00000000E+00
  0.00000000E+00  0.00000000E+00  0.00000000E+00
  0.00000000E+00  0.00000000E+00  0.00000000E+00
  0.00000000E+00  0.00000000E+00  0.00000000E+00
  0.00000000E+00  0.00000000E+00  0.00000000E+00
  0.00000000E+00  0.00000000E+00  0.00000000E+00
  0.00000000E+00  0.00000000E+00  0.00000000E+00
  0.00000000E+00  0.00000000E+00  0.00000000E+00
  0.00000000E+00  0.00000000E+00  0.00000000E+00
  0.00000000E+00  0.00000000E+00  0.00000000E+00
  0.00000000E+00  0.00000000E+00  0.00000000E+00
  0.00000000E+00  0.00000000E+00  0.00000000E+00
  0.00000000E+00  0.00000000E+00  0.00000000E+00
  0.00000000E+00  0.00000000E+00  0.00000000E+00
  0.00000000E+00  0.00000000E+00  0.00000000E+00
  0.00000000E+00  0.00000000E+00  0.00000000E+00
  0.00000000E+00  0.00000000E+00  0.00000000E+00
  0.00000000E+00  0.00000000E+00  0.00000000E+00
  0.00000000E+00  0.00000000E+00  0.00000000E+00
  0.00000000E+00  0.00000000E+00  0.00000000E+00
  0.00000000E+00  0.00000000E+00  0.00000000E+00
  0.00000000E+00  0.00000000E+00  0.00000000E+00
  0.00000000E+00  0.00000000E+00  0.00000000E+00
  0.00000000E+00  0.00000000E+00  0.00000000E+00
  0.00000000E+00  0.00000000E+00  0.00000000E+00
  0.00000000E+00  0.00000000E+00  0.00000000E+00
  0.00000000E+00  0.00000000E+00  0.00000000E+00
  0.00000000E+00  0.00000000E+00  0.00000000E+00
  0.00000000E+00  0.00000000E+00  0.00000000E+00
  0.00000000E+00  0.00000000E+00  0.00000000E+00
  0.00000000E+00  0.00000000E+00  0.00000000E+00
  0.00000000E+00  0.00000000E+00  0.00000000E+00
  0.00000000E+00  0.00000000E+00  0.00000000E+00
  0.00000000E+00  0.00000000E+00  0.00000000E+00
  0.00000000E+00  0.00000000E+00  0.00000000E+00
  0.00000000E+00  0.00000000E+00  0.00000000E+00
  0.00000000E+00  0.00000000E+00  0.00000000E+00
  0.00000000E+00  0.00000000E+00  0.00000000E+00
  0.00000000E+00  0.00000000E+00  0.00000000E+00
  0.00000000E+00  0.00000000E+00  0.00000000E+00
  0.00000000E+00  0.00000000E+00  0.00000000E+00
  0.00000000E+00  0.00000000E+00  0.00000000E+00
  0.00000000E+00  0.00000000E+00  0.00000000E+00
  0.00000000E+00  0.00000000E+00  0.00000000E+00
  0.00000000E+00  0.00000000E+00  0.00000000E+00
  0.00000000E+00  0.00000000E+00  0.00000000E+00
  0.00000000E+00  0.00000000E+00  0.00000000E+00
  0.00000000E+00  0.00000000E+00  0.00000000E+00
  0.00000000E+00  0.00000000E+00  0.00000000E+00
  0.00000000E+00  0.00000000E+00  0.00000000E+00
  0.00000000E+00  0.00000000E+00  0.00000000E+00
  0.00000000E+00  0.00000000E+00  0.00000000E+00
  0.00000000E+00  0.00000000E+00  0.00000000E+00
  0.00000000E+00  0.00000000E+00  0.00000000E+00
  0.00000000E+00  0.00000000E+00  0.00000000E+00
  0.00000000E+00  0.00000000E+00  0.00000000E+00
  0.00000000E+00  0.00000000E+00  0.00000000E+00
  0.00000000E+00  0.00000000E+00  0.00000000E+00
  0.00000000E+00  0.00000000E+00  0.00000000E+00
  0.00000000E+00  0.00000000E+00  0.00000000E+00
  0.00000000E+00  0.00000000E+00  0.00000000E+00
  0.00000000E+00  0.00000000E+00  0.00000000E+00
  0.00000000E+00  0.00000000E+00  0.00000000E+00
  0.00000000E+00  0.00000000E+00  0.00000000E+00
  0.00000000E+00  0.00000000E+00  0.00000000E+00
  0.00000000E+00  0.00000000E+00  0.00000000E+00
  0.00000000E+00  0.00000000E+00  0.00000000E+00
  0.00000000E+00  0.00000000E+00  0.00000000E+00
  0.00000000E+00  0.00000000E+00  0.00000000E+00
  0.00000000E+00  0.00000000E+00  0.00000000E+00
  0.00000000E+00  0.00000000E+00  0.00000000E+00
  0.00000000E+00  0.00000000E+00  0.00000000E+00
  0.00000000E+00  0.00000000E+00  0.00000000E+00
  0.00000000E+00  0.00000000E+00  0.00000000E+00
  0.00000000E+00  0.00000000E+00  0.00000000E+00
  0.00000000E+00  0.00000000E+00  0.00000000E+00
  0.00000000E+00  0.00000000E+00  0.00000000E+00
  0.00000000E+00  0.00000000E+00  0.00000000E+00
  0.00000000E+00  0.00000000E+00  0.00000000E+00
  0.00000000E+00  0.00000000E+00  0.00000000E+00
  0.00000000E+00  0.00000000E+00  0.00000000E+00
  0.00000000E+00  0.00000000E+00  0.00000000E+00
  0.00000000E+00  0.00000000E+00  0.00000000E+00
  0.00000000E+00  0.00000000E+00  0.00000000E+00
  0.00000000E+00  0.00000000E+00  0.00000000E+00
  0.00000000E+00  0.00000000E+00  0.00000000E+00
  0.00000000E+00  0.00000000E+00  0.00000000E+00
  0.00000000E+00  0.00000000E+00  0.00000000E+00
  0.00000000E+00  0.00000000E+00  0.00000000E+00
  0.00000000E+00  0.00000000E+00  0.00000000E+00
  0.00000000E+00  0.00000000E+00  0.00000000E+00
  0.00000000E+00  0.00000000E+00  0.00000000E+00
  0.00000000E+00  0.00000000E+00  0.00000000E+00
  0.00000000E+00  0.00000000E+00  0.00000000E+00
  0.00000000E+00  0.00000000E+00  0.00000000E+00
  0.00000000E+00  0.00000000E+00  0.00000000E+00
  0.00000000E+00  0.00000000E+00  0.00000000E+00
  0.00000000E+00  0.00000000E+00  0.00000000E+00
  0.00000000E+00  0.00000000E+00  0.00000000E+00
  0.00000000E+00  0.00000000E+00  0.00000000E+00
  0.00000000E+00  0.00000000E+00  0.00000000E+00
  0.00000000E+00  0.00000000E+00  0.00000000E+00
  0.00000000E+00  0.00000000E+00  0.00000000E+00
  0.00000000E+00  0.00000000E+00  0.00000000E+00
  0.00000000E+00  0.00000000E+00  0.00000000E+00
  0.00000000E+00  0.00000000E+00  0.00000000E+00
  0.00000000E+00  0.00000000E+00  0.00000000E+00
  0.00000000E+00  0.00000000E+00  0.00000000E+00
  0.00000000E+00  0.00000000E+00  0.00000000E+00
  0.00000000E+00  0.00000000E+00  0.00000000E+00
  0.00000000E+00  0.00000000E+00  0.00000000E+00
  0.00000000E+00  0.00000000E+00  0.00000000E+00
  0.00000000E+00  0.00000000E+00  0.00000000E+00
  0.00000000E+00  0.00000000E+00  0.00000000E+00
  0.00000000E+00  0.00000000E+00  0.00000000E+00
  0.00000000E+00  0.00000000E+00  0.00000000E+00
  0.00000000E+00  0.00000000E+00  0.00000000E+00
  0.00000000E+00  0.00000000E+00  0.00000000E+00
  0.00000000E+00  0.00000000E+00  0.00000000E+00
  0.00000000E+00  0.00000000E+00  0.00000000E+00
  0.00000000E+00  0.00000000E+00  0.00000000E+00
  0.00000000E+00  0.00000000E+00  0.00000000E+00
  0.00000000E+00  0.00000000E+00  0.00000000E+00
  0.00000000E+00  0.00000000E+00  0.00000000E+00
  0.00000000E+00  0.00000000E+00  0.00000000E+00
  0.00000000E+00  0.00000000E+00  0.00000000E+00
