Ta  N  W Cu                             
   1.00000000000000     
    18.1096308199999996    0.0000000000000000    0.0000000000000000
     0.0000000000000000   23.3551997799999995    0.0000000000000000
     0.0000000000000000    0.0000000000000000   30.4818171199999988
   Ta   N    W    Cu
   216   240    24     4
Direct
  0.0002012859869822  0.0001999924802334  0.1971740471538084
  0.3316281726427235  0.0649534017777142  0.2018748648838269
  0.1720477306659305  0.0664959027680894  0.2033294659174558
  0.2487031945177307  0.1251512877696896  0.2814966450422389
  0.0826027348267289  0.0625051292651904  0.2839784185121417
  0.4171488686506564  0.0626099823360704  0.2842028470490021
  0.9996622172974270  0.1253265671767423  0.3698721276088506
  0.3327934508775456  0.0627393672004146  0.3691115080808487
  0.1665745535094345  0.0627077506883040  0.3692361277950624
  0.2494881292541109  0.1253956246058010  0.4554041259867248
  0.0829410438139320  0.0628939161661393  0.4555016062432458
  0.4160873233726932  0.0627382899202686  0.4555638761270444
  0.9994573483674785  0.1283723956769549  0.5419720070589449
  0.3345832725835720  0.0629427813709569  0.5427797618987995
  0.1640678933407074  0.0632645517514021  0.5429349232413614
  0.0004574534380950  0.1249939487825742  0.1960185570674113
  0.3315837118427822  0.1850649234142452  0.2016317658684414
  0.1721626173371362  0.1834962124849113  0.2030697337320717
  0.2499620463205616  0.2501219264427945  0.2806225712332306
  0.0826183857603411  0.1877578613149211  0.2836262742282756
  0.4171469497280711  0.1876947893964314  0.2839059803002471
  0.9997045486249618  0.2504152073331554  0.3693231064842877
  0.3330069680353063  0.1876631841826395  0.3686886587380016
  0.1664600152121309  0.1877684837291866  0.3687374918998287
  0.2495468329619825  0.2507981514932140  0.4542485835898020
  0.0831539959289884  0.1881253651355337  0.4549316875580303
  0.4159890967285449  0.1879968787943653  0.4550878104949518
  0.9998255729380858  0.2528462152748503  0.5412040657377588
  0.0002705360030077  0.2499388535066629  0.1966879999577813
  0.3316276163739857  0.3148131368956086  0.2013152935765703
  0.1721887356929059  0.3164228961005975  0.2027093065970220
  0.2488955642470145  0.3752583011055890  0.2807558395745886
  0.0826197461765830  0.3124496910073091  0.2832206552594982
  0.4172785534933894  0.3125191926439896  0.2835667909035990
  0.9997643744105673  0.3754234800644909  0.3687742574649135
  0.3329393290588669  0.3127984708926661  0.3683016324221811
  0.1665207066515109  0.3127791551840033  0.3682470545774095
  0.2499237095104050  0.3755368104520116  0.4539820869777031
  0.0830868238204374  0.3131839362812912  0.4543096443740211
  0.4161458372974280  0.3131174445510752  0.4545426671152413
  0.9999089820323377  0.3764977962193115  0.5408237215532168
  0.0005871437309324  0.3749539262111412  0.1953268600946245
  0.3315922477321394  0.4352216940177911  0.2011555812385595
  0.1723053501173908  0.4335912435021854  0.2025584822762170
  0.2498844658950858  0.0002352379752608  0.2811771262417224
  0.0826126131214764  0.4378713597528900  0.2829472086322014
  0.4172401136618049  0.4377629790382613  0.2833141300885913
  0.9996650792163138  0.0003016936039089  0.3701635791286577
  0.3329439006709052  0.4378465103218403  0.3679857801051938
  0.1665330025600724  0.4379080988434723  0.3679924568694304
  0.2495303982130963  0.0001967763441684  0.4559736293856105
  0.0833576587800877  0.4380697479921238  0.4540329902012203
  0.4161431172793755  0.4380493004866395  0.4543805411162438
  0.9995173086138820  0.0002095954073909  0.5418227421507495
  0.0002102442121128  0.5001745545014131  0.1962116908712019
  0.3314771465361162  0.5652274158419104  0.2011001012465954
  0.1722244469557950  0.5668073769311164  0.2025405149744515
  0.2488311945025075  0.6252218632696014  0.2806495428265166
  0.0826181798047969  0.5626397845236966  0.2829359067006010
  0.4172537608326010  0.5627019040872696  0.2832363229610593
  0.9997995274529288  0.6252290937269223  0.3688011965392519
  0.3330631121794028  0.5628678646291050  0.3679455215187204
  0.1665808320872983  0.5628161482649219  0.3679681979158431
  0.2497320241351773  0.6251855027212159  0.4537762779030459
  0.0833565299717876  0.5627131286190163  0.4540596584720475
  0.4163504855593843  0.5627345722681625  0.4543425234844776
  0.9997168890785559  0.6243354579452003  0.5410132141369175
  0.0005497678133182  0.6254014307689602  0.1952717623969278
  0.3316021088187853  0.6855816621877295  0.2012353281608981
  0.1721756860289076  0.6838967814138854  0.2026400897541194
  0.2498993328355468  0.7503933148192772  0.2805199292651821
  0.0826169009126332  0.6880470029292454  0.2831672712195896
  0.4172541113838335  0.6879474883890566  0.2834130512015562
  0.9997712203803957  0.7501842128802920  0.3693032754304326
  0.3331339284334121  0.6878543640536208  0.3681113399403060
  0.1665086992130114  0.6879043956817270  0.3682062354515168
  0.2497453824252247  0.7498899611495489  0.4542623831171966
  0.0830727252456427  0.6875260642046896  0.4543229358509890
  0.4164098814507824  0.6876130407844059  0.4543524338428711
  0.9996105409432161  0.7477925695508176  0.5412971648675864
  0.0002436081004547  0.7504926334493618  0.1965975431753932
  0.3315252534428197  0.8153638458050807  0.2015544356207357
  0.1721078160589755  0.8169244068516477  0.2029846383203591
  0.2487503172862375  0.8753545461113248  0.2814108191201896
  0.0826117958966535  0.8127170523873488  0.2835655317920356
  0.4172179013294084  0.8128087149591892  0.2838056296562925
  0.9997134955237428  0.8752259882991993  0.3698451821237470
  0.3330637668947460  0.8128883178076194  0.3685877186815674
  0.1665055902411865  0.8128292683210674  0.3687159245104752
  0.2495958081931278  0.8750434543145360  0.4554043426657017
  0.0831949369845972  0.8124807065441075  0.4549073374838173
  0.4160614224699657  0.8125144702246345  0.4550180843766825
  0.9995992222148828  0.8719867956646681  0.5418914021022161
  0.0004515380025154  0.8754332832249077  0.1959605707675180
  0.3316088040158007  0.9354902130570011  0.2018601272740383
  0.1720416781338869  0.9338575889998282  0.2032748151234216
  0.2499647133438501  0.5002067047021725  0.2802029103429433
  0.0825970671360921  0.9379650043812973  0.2839669138207057
  0.4171552161738603  0.9378925156106632  0.2841670610728215
  0.9997985621143144  0.5003470467933582  0.3686480190177619
  0.3328437042731096  0.9377813248087676  0.3690780821187545
  0.1666242971735628  0.9378472535419817  0.3691895016505100
  0.2501456270120386  0.5004364338264011  0.4538415874925619
  0.0830069177825195  0.9376704953855679  0.4554557989865557
  0.4161401190698939  0.9376207022173375  0.4555672744958343
  0.9997593756468177  0.5006431045140687  0.5409667754338159
  0.3348635537980087  0.9370500825987520  0.5428412955659283
  0.1642327404055379  0.9370717095961254  0.5429058479938647
  0.5002617960570461  0.0002438680625971  0.1971910795520273
  0.8314240029106728  0.0649566002090367  0.2018663415351085
  0.6718362214249183  0.0665484536081351  0.2034310912247079
  0.7485457506583941  0.1251511280209954  0.2815627616323866
  0.5825496470099765  0.0625242274268274  0.2841358896899351
  0.9170921396560772  0.0626094184963790  0.2841294008488404
  0.4996751086121094  0.1253137243665989  0.3700728394529733
  0.8326952595360808  0.0627737773148951  0.3690574572527439
  0.6664552631914944  0.0627120969137351  0.3694219798217802
  0.7495213576380948  0.1254692168885398  0.4555791567812335
  0.5829232276131577  0.0627677148965589  0.4557198984153601
  0.9161114120707197  0.0628951869116037  0.4554414115369241
  0.4995233610561627  0.1273862360526223  0.5422376599288512
  0.8350409004879324  0.0632154255014115  0.5429113013916265
  0.6643716133276527  0.0627574865304936  0.5428466365402755
  0.5005282933142325  0.1250227217368547  0.1960700019415498
  0.8314103415868175  0.1851004116776167  0.2016113130564889
  0.6719858427881746  0.1834768807761336  0.2031934014993624
  0.7497081705411119  0.2501040529435841  0.2806616622192735
  0.5825633541897588  0.1877613998839678  0.2838147698742048
  0.9171449705497281  0.1876809782580651  0.2838100140195863
  0.4997313597155326  0.2504271330621322  0.3696185099655906
  0.8328729295403150  0.1877035150047064  0.3686026078585982
  0.6663219548742347  0.1877322985012171  0.3690195625831194
  0.7495473911130119  0.2507188531482925  0.4544057407560587
  0.5829158076287513  0.1880318941245989  0.4554583252513851
  0.9159274398287067  0.1881116631273301  0.4548473056737379
  0.4986135747750566  0.2540085191377202  0.5424267959771214
  0.5003030226458662  0.2499129141305829  0.1967653249790615
  0.8314091197069047  0.3147572053740504  0.2012584815114806
  0.6719670473785797  0.3164111006142463  0.2027809777292475
  0.7485425278817104  0.3752616361355905  0.2807417530834897
  0.5825404684047868  0.3124284090521527  0.2834447375160707
  0.9172307407095843  0.3125300364476047  0.2833470171539361
  0.4997259948313726  0.3753719237403956  0.3691171466647774
  0.8329518016736870  0.3128020462751948  0.3680260253316803
  0.6664142877837520  0.3127087065524066  0.3685517447919295
  0.7500393829866923  0.3755328895913621  0.4536553365921847
  0.5831146550067743  0.3131087801549484  0.4547890144548816
  0.9161957420567290  0.3131668399070122  0.4541758788511885
  0.4989838504554100  0.3758439396579547  0.5413715730747413
  0.5005705182661018  0.3750213722979225  0.1954368754871822
  0.8312969134452928  0.4352571442695634  0.2010495852060856
  0.6720420395472431  0.4335464398718543  0.2026597676663542
  0.7497360652752434  0.0002682149043167  0.2812229241671176
  0.5825618135088959  0.4378519228883420  0.2831789747616753
  0.9172723750338747  0.4378081356535546  0.2830450908180779
  0.4996850083867699  0.0002338928475822  0.3702934953748098
  0.8330202621694411  0.4378355554801630  0.3676878228331901
  0.6664971463273019  0.4378876694151330  0.3681333414047785
  0.7496993038982680  0.0002172194669825  0.4560282317841029
  0.5832794277978053  0.4381102438846582  0.4542687870582611
  0.9161214408173635  0.4380900938335657  0.4539327466063980
  0.4995688773213232  0.0009025084536916  0.5422461044974511
  0.5001909425590014  0.5001515898004882  0.1962888868814971
  0.8312966304835001  0.5652527123105671  0.2009994122953103
  0.6720323658724539  0.5668387314399013  0.2026248749752710
  0.7486152536665145  0.6252456064148504  0.2806589119811704
  0.5825104043107459  0.5626102512080067  0.2831278975057145
  0.9172313364551243  0.5627375316571843  0.2830279407900349
  0.4997893766895061  0.6251844161346014  0.3690056341804748
  0.8330079351408344  0.5628779010231852  0.3677061248713969
  0.6665133031883954  0.5628337180619738  0.3681063690490163
  0.7498412072096414  0.6251245146306346  0.4537893834908715
  0.5830915991190011  0.5628161158686709  0.4543447404212699
  0.9161702025689280  0.5627531644575683  0.4539268608832785
  0.4997431869318092  0.6235672901623701  0.5412190959362917
  0.5005484143376009  0.6253813657761285  0.1953496101169776
  0.8313341717058833  0.6856567194926413  0.2011653463995415
  0.6718871756699016  0.6839489615548260  0.2027015420946441
  0.7497611597187515  0.7504226760628967  0.2805137191911982
  0.5825814471483213  0.6880456698727357  0.2833128876714284
  0.9172143880009571  0.6879937763997503  0.2832869379975094
  0.4998341106916371  0.7501813165392690  0.3694675116000283
  0.8330567284916981  0.6878600230008516  0.3679761800808521
  0.6664794634823110  0.6879098544405338  0.3683159401773324
  0.7497925543664081  0.7498595799512131  0.4543052253064985
  0.5830436142624080  0.6875660039328366  0.4544751434419680
  0.9163568169739449  0.6875177484099311  0.4542393753791458
  0.4997143982007799  0.7481674534269871  0.5416985405490777
  0.5003146805129859  0.7504817276776663  0.1966659656543754
  0.8313362551721539  0.8153679223010855  0.2014880588301722
  0.6719377405415159  0.8169996824025603  0.2030488096787053
  0.7485847910057259  0.8753817271281292  0.2814556078037356
  0.5825821580534338  0.8127303168135214  0.2837117722457805
  0.9171565062486593  0.8128187810897032  0.2837037258917050
  0.4997518802717451  0.8752103289895246  0.3699732514910963
  0.8330083605631344  0.8128926390054687  0.3685261206209631
  0.6664735466288363  0.8128438616679219  0.3688536742619846
  0.7497723717241556  0.8750405645724513  0.4554581901681232
  0.5833276717270479  0.8124759386280331  0.4551402334897574
  0.9160823631912010  0.8124853108705850  0.4548708206332321
  0.4996811597786319  0.8718812068183297  0.5420698689141688
  0.5005477601489474  0.8754509779733937  0.1959809110896771
  0.8313991217096230  0.9355683056679851  0.2018272974497393
  0.6718725398160572  0.9338965108480792  0.2033558734261618
  0.7497904935085060  0.5002190108954920  0.2801785943246458
  0.5825840714743507  0.9379707588842763  0.2840947333209201
  0.9170895349869994  0.9378875664918951  0.2841078204102701
  0.4997030734163275  0.5003002234952731  0.3689809537092472
  0.8327533912169258  0.9378178128780874  0.3690151724727144
  0.6665379229156017  0.9378476570269143  0.3693419481757658
  0.7498845851336071  0.5005666942067961  0.4535640348578411
  0.5830591647830801  0.9376450031810890  0.4556755666823875
  0.9162110090026445  0.9376741730249663  0.4554084205496949
  0.5004250826114145  0.5012304234181215  0.5416989052814500
  0.8349492150717097  0.9370494807040117  0.5429068635887759
  0.6643234503506434  0.9369580207957284  0.5428929658700099
  0.4062710171663753  0.0002484842658319  0.2323634155871659
  0.2511935190490533  0.0002086046777166  0.2109619323917471
  0.0953386280627200  0.0002150912413370  0.2318227024788229
  0.1523099994942072  0.1251834986618690  0.3170750231309754
  0.9997979841377784  0.1251980653865985  0.3027760673810391
  0.3468653868005802  0.1251827326834345  0.3167305714569650
  0.4010781758912785  0.1253433182678165  0.4031580853992125
  0.2496483235544957  0.1252961345373222  0.3878316641495516
  0.0981759012162584  0.1254187025137341  0.4031464112907059
  0.1518028747059006  0.1261564339501007  0.4884740377431100
  0.9994908132200067  0.1261451308222306  0.4743100628849106
  0.3470871660733792  0.1258937678928191  0.4883684771163317
  0.3997684646229089  0.1293837354554199  0.5701856609931326
  0.2492890940750812  0.1310589885161022  0.5583136057415103
  0.0988853556953444  0.1299262444224425  0.5702438796552158
  0.4055556069999611  0.1250684305132950  0.2322903018263460
  0.2529463282688837  0.1249063436535991  0.1776350636880295
  0.0941743072368411  0.1250104598783608  0.2324949127063078
  0.1528549912845918  0.2502175761758281  0.3162867338098607
  0.9999394118688727  0.2502157342723805  0.3024558264115029
  0.3469198757135885  0.2502249892920503  0.3162528571223717
  0.4010785167377264  0.2504855700046846  0.4027949904999630
  0.2497529341742393  0.2502858655411089  0.3870626606214245
  0.0982786778585805  0.2505464051847497  0.4025994946269265
  0.1524393787324385  0.2511330017971929  0.4875359897307732
  0.9995826620445101  0.2510910305995750  0.4737285639035846
  0.3464783375582243  0.2508123524546164  0.4875929571252726
  0.3964485837648866  0.2512706961098274  0.5692201516986017
  0.2487824010237247  0.2537955520807103  0.5579108418887770
  0.1007458251685449  0.2524468855133222  0.5690815799174516
  0.4063111790267300  0.2500241847018145  0.2318870513910127
  0.2512274723475372  0.2500033095240255  0.2104305747352981
  0.0953910523522836  0.2499798118267478  0.2313017833225572
  0.1523162804051239  0.3752476793885151  0.3162398822579320
  0.9998472130152294  0.3752186187156994  0.3018462512925169
  0.3470186864778810  0.3752194510439608  0.3160484288651446
  0.4012056207545953  0.3755041014327887  0.4024789259019741
  0.2497475270646987  0.3754333335947848  0.3866867695287866
  0.0981537290941787  0.3754778331161717  0.4022480493913179
  0.1526029326952454  0.3757665967506156  0.4870190861757067
  0.9997108306157685  0.3759282662100318  0.4732760868170587
  0.3467156863692011  0.3757232717943282  0.4876722858217164
  0.3939283794100916  0.3748557554637131  0.5699304454787679
  0.2485843183691259  0.3769489874558403  0.5574323045679890
  0.1010302223927653  0.3763247341308755  0.5686944652348060
  0.4056134807266858  0.3750357971417202  0.2316384267924931
  0.2530247865051578  0.3748959267083194  0.1772297480147031
  0.0942268238217068  0.3750182887938749  0.2317531094896879
  0.1528426468319211  0.0002566250258624  0.3169222785227817
  0.9998744259114503  0.0002399873107564  0.3031297375819904
  0.3468003646316191  0.0002546037464768  0.3168139271786004
  0.4009253323590229  0.0002002490340800  0.4033500254316067
  0.2497287552004650  0.0002564031963601  0.3881878215393328
  0.0983276415897691  0.0002865154994751  0.4033276913357398
  0.1512319510325852  0.0002718943952971  0.4887486381015691
  0.9995463295861384  0.0002926775093073  0.4740228480122397
  0.3476395776352561  0.0000862404434869  0.4888082651933345
  0.4017492550184087  0.0002074478681635  0.5711475557836110
  0.2492755747501647  0.0001532885221209  0.5586162065314397
  0.0970610271308630  0.0002166346918386  0.5710214548459263
  0.4063065158667385  0.5001936361792758  0.2314350271359942
  0.2512413854038158  0.5001806151794383  0.2100148121188994
  0.0953896236782796  0.5002229795795330  0.2307641002519318
  0.1523359860237505  0.6253361131149333  0.3161970593805847
  0.9998465340044120  0.6253094891875222  0.3018438613035741
  0.3470353165647353  0.6253031752019353  0.3159080024907865
  0.4012680470041587  0.6251629062414423  0.4022859768888196
  0.2498033617107822  0.6253317219181440  0.3865578250780217
  0.0982366731735667  0.6252086369412595  0.4022280101559446
  0.1527200791301269  0.6250261594931033  0.4870946193260721
  0.9997197997972975  0.6248410037702783  0.4733926468110141
  0.3466496891536011  0.6253747018776536  0.4870322489360319
  0.3974179049910163  0.6251356738151230  0.5687213475998760
  0.2493724899123322  0.6239011402575443  0.5573917834358824
  0.1013735204121318  0.6244921588944123  0.5686033704211866
  0.4056064194282030  0.6253832280761458  0.2315435959613978
  0.2529718000078418  0.6254639059883331  0.1770630890371478
  0.0941737857600415  0.6254160819055770  0.2317218158027359
  0.1528673821825137  0.7503541362570658  0.3162172802402736
  0.9999341537131770  0.7503010181963532  0.3024154070595628
  0.3469166519001021  0.7503542694149417  0.3160971441979896
  0.4011547506352358  0.7501581302400027  0.4026058710046598
  0.2498286471663960  0.7502768508753661  0.3870473294233179
  0.0983325474345165  0.7501121185962276  0.4025556690797103
  0.1526373928859925  0.7495103806669476  0.4875356384495930
  0.9996691067677190  0.7495106280830086  0.4737809064877965
  0.3467435379886155  0.7495939315026163  0.4875528549216526
  0.3982045749160577  0.7483190122847887  0.5690775676459694
  0.2495816327723475  0.7469944357908531  0.5578246516192635
  0.1009549263482086  0.7481608837357925  0.5689697810393923
  0.4063143335795232  0.7504587863267531  0.2317519522965625
  0.2511725901589870  0.7504005795718882  0.2103537862047062
  0.0953424561325917  0.7504494574641853  0.2312128008871284
  0.1523439563221061  0.8753338306416509  0.3170103307219350
  0.9997967169739752  0.8753024953232469  0.3027442972886192
  0.3469037232225389  0.8753353245274553  0.3166520299171083
  0.4011517406995821  0.8751655353207468  0.4030861159944266
  0.2497150129896326  0.8752377929686190  0.3877964637917728
  0.0982322421545732  0.8751711032462310  0.4030970208955864
  0.1518945458854049  0.8743988292614517  0.4884241500595365
  0.9996336113430573  0.8744329681725489  0.4742138504771276
  0.3471215957340732  0.8743604045026956  0.4884131925761395
  0.4000248100835933  0.8706623713024300  0.5701973209245281
  0.2494363900492047  0.8694070998895995  0.5582825844573804
  0.0990387331806062  0.8706094327435210  0.5702009663087324
  0.4055872000202356  0.8754117403295325  0.2322219049727394
  0.2529197612829819  0.8755044880159204  0.1775186994715554
  0.0941314549100127  0.8754011854783030  0.2324460845571323
  0.1527897700150191  0.5002850340239391  0.3157995896864136
  0.9999696285799047  0.5002825228269501  0.3018755943092160
  0.3470120707886508  0.5002638160269086  0.3157923370884888
  0.4011072746349598  0.5003011393237671  0.4023915679208017
  0.2499043543844479  0.5003498728701388  0.3866118696723291
  0.0983250012277992  0.5003815961936340  0.4020913670590858
  0.1528732777965303  0.5004226404642154  0.4869479248423474
  0.9997442795548110  0.5004311174012344  0.4733558128343702
  0.3470671487527710  0.5005397999538488  0.4877483226286117
  0.3955786416726497  0.5024253680183577  0.5702580408844184
  0.2492691497104360  0.4999264739459832  0.5575194924394964
  0.1012076028542950  0.5005454371731517  0.5687091812473213
  0.9061490359745008  0.0002450331100974  0.2322924422248462
  0.7510182196402653  0.0002500089520012  0.2110028374103692
  0.5952573784541286  0.0002584363734854  0.2319757974983929
  0.6522201163461219  0.1251981642084914  0.3172602445425099
  0.4997754744160616  0.1252135061857587  0.3029646211737855
  0.8467867352700935  0.1251976421151113  0.3166809889498907
  0.9010674026279943  0.1253888715904310  0.4030508541959676
  0.7496607019602592  0.1253169079486085  0.3879631116788360
  0.5981165029101021  0.1254739598614307  0.4034341097908793
  0.6519318986469926  0.1260464734218658  0.4887209987724503
  0.4994579299088855  0.1260219749592864  0.4745200718887475
  0.8472713391581976  0.1261732691524884  0.4885038668969841
  0.9000040471498707  0.1297588361514315  0.5703604518303891
  0.7495946617732727  0.1313794929029797  0.5584055976389593
  0.5992989064449930  0.1295301358196923  0.5705497391479000
  0.9054674408490584  0.1250325137346806  0.2322245515690895
  0.7527454774347717  0.1249185233020995  0.1776856922773362
  0.5940724016298518  0.1250507630244542  0.2326618206647311
  0.6527470891593268  0.2502058579542776  0.3165415813255450
  0.4999295733799300  0.2501557895531619  0.3027270423911403
  0.8467943800003326  0.2501964295884562  0.3161006389533725
  0.9010454645914123  0.2505190093151626  0.4025026056129803
  0.7497445971867265  0.2502801496489582  0.3871898198216996
  0.5982163367659510  0.2504638387514646  0.4030445991371181
  0.6524918305063778  0.2506545821326966  0.4882004654405918
  0.4994700105535657  0.2514168103848746  0.4745608279875384
  0.8468325265890257  0.2511117349263472  0.4875160762350887
  0.8987912019424016  0.2523077028816232  0.5691729533244967
  0.7506956168754186  0.2536915696856923  0.5581553790125611
  0.6023305478284158  0.2524941025752625  0.5710425241501227
  0.9061928206273535  0.2499709999270863  0.2317503421075955
  0.7510165961049751  0.2499993537168450  0.2104477469158610
  0.5952700149185546  0.2500086607797556  0.2314862520472332
  0.6522225554408081  0.3751587292358707  0.3164506075359057
  0.4998371506427119  0.3752118239769615  0.3021664187098949
  0.8469632132267293  0.3752237601011004  0.3157643330286461
  0.9012845128747315  0.3754770866641763  0.4020898283176280
  0.7498110428046232  0.3753948465722843  0.3864860219953314
  0.5981359092020568  0.3754318215120449  0.4025488234156001
  0.6533626794723162  0.3759280977123467  0.4870962765130002
  0.4996058325002366  0.3757824023111738  0.4735623576667507
  0.8470975311451312  0.3757727150145058  0.4869743079354762
  0.8986033009751466  0.3763227036016090  0.5687380446039967
  0.7512602930991150  0.3767460223725223  0.5572635317589416
  0.6058054645766262  0.3772523125915228  0.5682967682702653
  0.9054541624969801  0.3750320866943539  0.2314033868857166
  0.7527629505627544  0.3748745396437343  0.1772615212213040
  0.5940357016326701  0.3750044785046924  0.2319656484150059
  0.6527894694495160  0.0002847469872478  0.3170740093128543
  0.4998807058809192  0.0002450995961425  0.3032368848340141
  0.8467420451237118  0.0002807371960998  0.3167672904905672
  0.9009168382625390  0.0002906385497994  0.4032667859002217
  0.7497542697783501  0.0002690270429540  0.3882444474415649
  0.5983088000317736  0.0002096931405546  0.4034908872960798
  0.6515094801702972  0.0001178205136583  0.4888930171295627
  0.4995257432572657  0.0001891518268877  0.4742754047634250
  0.8479587360866674  0.0002295429500876  0.4887429896628959
  0.9020722289768344  0.0002210616832983  0.5710039551036559
  0.7498648359269779  0.0001963250404771  0.5586202448273241
  0.5974282786137408  0.0001036685464229  0.5712155157654877
  0.9061498105522858  0.5002485055932695  0.2312008892264501
  0.7510320828078676  0.5001986078291196  0.2099977926829979
  0.5952447622424728  0.5001912737499552  0.2309494473907705
  0.6522323274380639  0.6253276827366179  0.3163325109556467
  0.4998426011882984  0.6253141379904790  0.3020558555598143
  0.8469725988145811  0.6253508930741489  0.3157498382276813
  0.9012714045600347  0.6252315412055722  0.4020930121277360
  0.7498373351661982  0.6253566257144172  0.3865586618462729
  0.5982576326772886  0.6251983693529084  0.4024149965222819
  0.6528903827824664  0.6251414085637350  0.4871434737785520
  0.4996894615115721  0.6248657480480375  0.4735848337146749
  0.8468157034199706  0.6250027793470068  0.4870770061292973
  0.8980609179455570  0.6245721430514095  0.5686725655100631
  0.7499816619813586  0.6239479750138983  0.5574622647053502
  0.6020730617370091  0.6247784465408444  0.5688489807571457
  0.9054812563383550  0.6254423706688357  0.2313795088890203
  0.7527243072504888  0.6255001028584033  0.1770944043740670
  0.5940397731135647  0.6253987003107966  0.2318874305219438
  0.6528213796433349  0.7503565024801375  0.3163441558413780
  0.4999439375321657  0.7502842285174935  0.3025785328189698
  0.8468310394767755  0.7503888027353938  0.3160134107759305
  0.9011294381781170  0.7501031514290872  0.4024869984136501
  0.7498771824899393  0.7502743713514732  0.3870749225766161
  0.5983782505607493  0.7501258688740222  0.4027263934005916
  0.6527674586586159  0.7495107160362622  0.4876229542935988
  0.4997229366460019  0.7495041764896726  0.4740905614934050
  0.8468187707920336  0.7494822873603582  0.4875374594537831
  0.8983520144159840  0.7481836154309818  0.5690129320562320
  0.7498235204562391  0.7469948537749502  0.5578683694782356
  0.6011619961492585  0.7481748772030414  0.5691259582324122
  0.9061638123165352  0.7504960155294782  0.2316444072046693
  0.7509550811194998  0.7504468061983474  0.2103437246728603
  0.5952590627769681  0.7504746283209442  0.2313715522189312
  0.6522927293702381  0.8753566509433099  0.3171340005288670
  0.4998121465776038  0.8753005154715581  0.3028590935922608
  0.8468250336688214  0.8753436471938585  0.3166080002005813
  0.9011274969835412  0.8751952452307137  0.4030029883414130
  0.7497573443919592  0.8752577143721041  0.3878422738400360
  0.5982215261693469  0.8751569082493731  0.4032302157410470
  0.6522075773522644  0.8743264372927655  0.4884823551111168
  0.4996506007531067  0.8744622545646550  0.4743998127229503
  0.8474416560744018  0.8743909109180734  0.4884337243604477
  0.9002101978178345  0.8706760278843788  0.5702318736198393
  0.7498789291201078  0.8693967054798080  0.5583209277887349
  0.5992439872916222  0.8705099107836958  0.5702301481010181
  0.9054126876021016  0.8754394528474663  0.2321492538904550
  0.7527336397221234  0.8755513582501635  0.1775459298062714
  0.5940602036685547  0.8754219510128536  0.2325736494440136
  0.6526865830512847  0.5002684871933951  0.3159334195979397
  0.4999155819686436  0.5002287551822988  0.3021811674567658
  0.8469849290426907  0.5002984314773258  0.3155454150177235
  0.9011704567755956  0.5003705254156472  0.4019780313166166
  0.7498683651097764  0.5003478143580224  0.3864089693581931
  0.5983083463115193  0.5003633815785022  0.4023501158366685
  0.6529626353232558  0.5009291499556241  0.4872216399450835
  0.4997806217079912  0.5002301237043767  0.4737910825988649
  0.8468947457426808  0.5005168606862398  0.4869639000851720
  0.8984245091304643  0.5006198836558937  0.5688210525960145
  0.7505461536115376  0.5005484968095786  0.5574978731260174
  0.6032340891898755  0.5001292154653072  0.5700780409095643
  0.3340403488278696  0.1882486547786471  0.5401352185724164
  0.1645566506766016  0.1889885076572781  0.5402958103843361
  0.3323003797720361  0.3123980406544007  0.5394284394485993
  0.1642581504709142  0.3136729017823612  0.5394534816213366
  0.3312534445680200  0.4382836894825246  0.5392606673447915
  0.1641205253350009  0.4382919290958043  0.5390872596148952
  0.3328701521156958  0.5640662168595085  0.5392373434132054
  0.1644998968619404  0.5626200093699865  0.5391578415955607
  0.3341792979311933  0.6875224509517039  0.5394885150237769
  0.1650449950053954  0.6871133392744966  0.5394785461185450
  0.3343265767939272  0.8116031542904025  0.5402755867062794
  0.1648048944036873  0.8115326498324080  0.5403284429471071
  0.8350086927967766  0.1891453564504744  0.5403137438086318
  0.6655247768568060  0.1878920728605848  0.5408871544242828
  0.8358703936489320  0.3136504125987756  0.5394108669841557
  0.6691345536046569  0.3130698749532286  0.5387158110628647
  0.8360177803445055  0.4383519566353371  0.5391710628861119
  0.6697619172614964  0.4394248870048330  0.5379787167096950
  0.8349783631823797  0.5627350574007863  0.5391977261568996
  0.6662646260485801  0.5636379909905074  0.5394913302089250
  0.8343894772501130  0.6870799561095637  0.5394681478408359
  0.6652444509156155  0.6873561778082546  0.5395875477863328
  0.8345418284049870  0.8114913924046121  0.5403238394095595
  0.6651177103039458  0.8115316338654353  0.5403353574093401
  0.5614007813084498  0.4357263396138009  0.6127410093056653
  0.4543331924197176  0.3728673533255744  0.6254404168644854
  0.4415599731659867  0.4760893401742194  0.6232447573544846
  0.5635169056151028  0.3150754122790431  0.6104704441123943
 
  0.00000000E+00  0.00000000E+00  0.00000000E+00
  0.00000000E+00  0.00000000E+00  0.00000000E+00
  0.00000000E+00  0.00000000E+00  0.00000000E+00