Cu	N	Ru	Ta                              
   1.00000000000000     
    18.1096308199999996    0.0000000000000000    0.0000000000000000
     0.0000000000000000   23.3551997799999995    0.0000000000000000
     0.0000000000000000    0.0000000000000000   30.4818171199999988
   Cu   N    Ru   Ta
     2   240    24   216
Selective dynamics
Direct
  0.5619706058414052  0.4364597295641909  0.6134411055793394   T   T   T
  0.0998514127708848  0.0594352270602782  0.5873532057566232   T   T   T
  0.0000000000000000  0.0000770226766207  0.3028264943543491   F   F   F
  0.0000000000000000  0.5000770226766207  0.3028264943543491   F   F   F
  0.0000000000000000  0.6248851796377153  0.3029475127301708   F   F   F
  0.0000000000000000  0.7500770228907001  0.3028264943543491   F   F   F
  0.0000000000000000  0.8748851798518018  0.3029475127301708   F   F   F
  0.0000000000000000  0.1248851796377153  0.3029475127301708   F   F   F
  0.0000000000000000  0.2500770228907001  0.3028264943543491   F   F   F
  0.0000000000000000  0.3748851798518018  0.3029475127301708   F   F   F
  0.0001306206417069  0.5013885068089587  0.4720391828776732   T   T   T
  0.0011481008433780  0.3774927773189534  0.4728445928969188   T   T   T
  0.0019295601183551  0.8751614785608161  0.4745011902746972   T   T   T
  0.0024533980946490  0.0008685355012881  0.4725441368216266   T   T   T
  0.0028348263499862  0.2512951862233612  0.4720236331337180   T   T   T
  0.0035852071888022  0.1258305445100557  0.4744711591047033   T   T   T
  0.5561401761585788  0.0366148103750008  0.5572763894612779   T   T   T
  0.5839612785728824  0.7404243040271001  0.5721372681041178   T   T   T
  0.5863109295707454  0.6259070417985531  0.5757770887372835   T   T   T
  0.5887316313502723  0.4951083668477234  0.5724953075762903   T   T   T
  0.5943504772119894  0.6250779795299195  0.2321437935324795   F   F   F
  0.5943504772119894  0.8750779797440060  0.2321437935324795   F   F   F
  0.5943504772119894  0.1250779795299195  0.2321437935324795   F   F   F
  0.5943504772119894  0.3750779797440060  0.2321437935324795   F   F   F
  0.5943930523482663  0.9999373617004466  0.2321734905809336   F   F   F
  0.5943930523482663  0.4999373617004466  0.2321734905809336   F   F   F
  0.5943930523482663  0.7499373619145331  0.2321734905809336   F   F   F
  0.5943930523482663  0.2499373619145331  0.2321734905809336   F   F   F
  0.5970684301375959  0.8738645710875276  0.4002648491792054   T   T   T
  0.5962627013351484  0.2533317654028682  0.5701353112723681   T   T   T
  0.5963175586028916  0.3762656557188768  0.5739517347354243   T   T   T
  0.5979141480649237  0.6248900052703653  0.4019821230130089   T   T   T
  0.5983371587505699  0.7495569403617119  0.4019596386246124   T   T   T
  0.5984927753252010  0.3746773739972244  0.4015669173211562   T   T   T
  0.5988883658159665  0.5003259629762922  0.4014510076185924   T   T   T
  0.5987572269553693  0.2500055747294861  0.4017450854922555   T   T   T
  0.5988812560591702  0.1242017345459463  0.4027077798437995   T   T   T
  0.5990650322839828  0.0002203293278671  0.4019170810711702   T   T   T
  0.6022287422080835  0.8649252014421506  0.5704331139849069   T   T   T
  0.6094459280703529  0.1320121217021225  0.5735398127144062   T   T   T
  0.6456438070128836  0.6250236626020828  0.4867730179647471   T   T   T
  0.6472792423249883  0.8766826098912082  0.4782167830215945   T   T   T
  0.6477672317457097  0.3794783212607478  0.4867112345681732   T   T   T
  0.6498473041362427  0.7472371709740890  0.4882849171851162   T   T   T
  0.6501028440893568  0.2480026032947209  0.4858764315565455   T   T   T
  0.6503024494307795  0.4986911373623064  0.4882343970633539   T   T   T
  0.6505605274669211  0.9914556175925677  0.4893464377296888   T   T   T
  0.6507553592682661  0.1300934128481692  0.4871706212909019   T   T   T
  0.6547082680948861  0.6251230654212776  0.3157550047659328   F   F   F
  0.6547082680948861  0.8751230656353641  0.3157550047659328   F   F   F
  0.6547082680948861  0.1251230654212776  0.3157550047659328   F   F   F
  0.6547082680948861  0.3751230656353641  0.3157550047659328   F   F   F
  0.6547523877132235  0.9998547719551993  0.3156484409089586   F   F   F
  0.6547523877132235  0.4998547719551993  0.3156484409089586   F   F   F
  0.6547523877132235  0.7498547721692859  0.3156484409089586   F   F   F
  0.6547523877132235  0.2498547721692859  0.3156484409089586   F   F   F
  0.0678984732243595  0.6502054140092473  0.5694384447128297   T   T   T
  0.7318652072976718  0.7381180719005409  0.5641719767186142   T   T   T
  0.7478160058143483  0.8419731938077942  0.5243260458109824   T   T   T
  0.7493147826539316  0.6251904266175299  0.3880432806848625   T   T   T
  0.7494451897256434  0.7504103375942565  0.3877375517854267   T   T   T
  0.7494958043154577  0.5007062539243055  0.3874453538820328   T   T   T
  0.7499769112954114  0.8748919281481091  0.3876937694573156   T   T   T
  0.7500890684781893  0.3750236494926930  0.3887384391760012   T   T   T
  0.7499999997239044  0.0000513585844359  0.1992858820091215   F   F   F
  0.7499999997239044  0.5000513585844431  0.1992858820091215   F   F   F
  0.7499999997239044  0.6250070552811167  0.1993925282102751   F   F   F
  0.7499999997239044  0.7500513587985225  0.1992858820091215   F   F   F
  0.7499999997239044  0.8750070554952032  0.1993925282102751   F   F   F
  0.7499999997239044  0.1250070552811167  0.1993925282102751   F   F   F
  0.7499999997239044  0.2500513587985225  0.1992858820091215   F   F   F
  0.7499999997239044  0.3750070554952032  0.1993925282102751   F   F   F
  0.7501687630435754  0.0000794952006684  0.3890454591593551   T   T   T
  0.7503020711228129  0.2504219823417812  0.3886904017923117   T   T   T
  0.7508083794030714  0.9508845295250861  0.5726719281315011   T   T   T
  0.7505959189434898  0.1250718736683517  0.3890483260790015   T   T   T
  0.7501805792253836  0.6246248528600051  0.5512408193173294   T   T   T
  0.7521020596800569  0.3142481307846338  0.5112694378352974   T   T   T
  0.7527841436776896  0.4461906352495795  0.5723669928549736   T   T   T
  0.7550948605672019  0.0629184526904025  0.5110436145465391   T   T   T
  0.7572105903408560  0.1950531422982171  0.5746573761953571   T   T   T
  0.0831635996032610  0.9845685009394088  0.5738744180091743   T   T   T
  0.8453208763550379  0.7489067925013922  0.4871661846861245   T   T   T
  0.8452476122867765  0.9998547719551993  0.3156484409089586   F   F   F
  0.8452476122867765  0.4998547719551993  0.3156484409089586   F   F   F
  0.8452476122867765  0.7498547721692859  0.3156484409089586   F   F   F
  0.8452476122867765  0.2498547721692859  0.3156484409089586   F   F   F
  0.8452917319051139  0.6251230654212776  0.3157550047659328   F   F   F
  0.8452917319051139  0.8751230656353641  0.3157550047659328   F   F   F
  0.8452917319051139  0.1251230654212776  0.3157550047659328   F   F   F
  0.8452917319051139  0.3751230656353641  0.3157550047659328   F   F   F
  0.8462486611036266  0.5005077345319059  0.4853475570902347   T   T   T
  0.8470521495054103  0.6306625738113516  0.4848772449819476   T   T   T
  0.8521364095673953  0.3832526823734717  0.4880582016815956   T   T   T
  0.8536742586260982  0.2478339496829131  0.4866212614119264   T   T   T
  0.8534183967719164  0.9968951702472642  0.4865483729558845   T   T   T
  0.8551685273705139  0.8816201711711692  0.4862184396337968   T   T   T
  0.8550501966001889  0.1315318926944114  0.4869102466145380   T   T   T
  0.8965722814362239  0.6363754774940240  0.5687574778709213   T   T   T
  0.9003165703925399  0.7508462344830594  0.4020845207961197   T   T   T
  0.9005606661850317  0.5015847729441136  0.4011556089091471   T   T   T
  0.9009835557182042  0.6259634744414126  0.4019811420207955   T   T   T
  0.9015689317104570  0.8750641864190841  0.4015557792179209   T   T   T
  0.9014650084141713  0.3757441369209624  0.4018826913415707   T   T   T
  0.9021437272645956  0.0012575201207103  0.4014278017439821   T   T   T
  0.0911101610860468  0.2526170417405141  0.5715791366773264   T   T   T
  0.9021678477468641  0.2514228318457808  0.4014820003445067   T   T   T
  0.9017556617350971  0.7550673731469570  0.5693014005202829   T   T   T
  0.9026882067752330  0.1253768210938996  0.4016818448354509   T   T   T
  0.9043148275303111  0.3830387418650589  0.5725416601220672   T   T   T
  0.9056069476517337  0.9999373617004466  0.2321734905809336   F   F   F
  0.9056069476517337  0.4999373617004466  0.2321734905809336   F   F   F
  0.9056069476517337  0.7499373619145331  0.2321734905809336   F   F   F
  0.9056069476517337  0.2499373619145331  0.2321734905809336   F   F   F
  0.9056495227880106  0.6250779795299195  0.2321437935324795   F   F   F
  0.9056495227880106  0.8750779797440060  0.2321437935324795   F   F   F
  0.9056495227880106  0.1250779795299195  0.2321437935324795   F   F   F
  0.9056495227880106  0.3750779797440060  0.2321437935324795   F   F   F
  0.9085444277279638  0.8799929762375227  0.5737633442073424   T   T   T
  0.9095823659195686  0.1276344667982791  0.5730517402035511   T   T   T
  0.9109320719310031  0.2565074759055168  0.5687683726482241   T   T   T
  0.9102193886522133  0.0032023675676494  0.5700401672229007   T   T   T
  0.9161119014672497  0.5199255829873540  0.5585074466609212   T   T   T
  0.0918756775586671  0.7642374053933443  0.5672326168518373   T   T   T
  0.0922888368395137  0.1382121637860120  0.5810981163711486   T   T   T
  0.0945542392035506  0.3847029421068682  0.5727389988511992   T   T   T
  0.0943504772119894  0.6250779795299195  0.2321437935324795   F   F   F
  0.0943504772119894  0.8750779797440060  0.2321437935324795   F   F   F
  0.0943504772119894  0.1250779795299195  0.2321437935324795   F   F   F
  0.0943504772119894  0.3750779797440060  0.2321437935324795   F   F   F
  0.0943930523482663  0.9999373617004466  0.2321734905809336   F   F   F
  0.0943930523482663  0.4999373617004466  0.2321734905809336   F   F   F
  0.0943930523482663  0.7499373619145331  0.2321734905809336   F   F   F
  0.0943930523482663  0.2499373619145331  0.2321734905809336   F   F   F
  0.0971509183458736  0.8709167741008911  0.5778324854489648   T   T   T
  0.0976545196152261  0.6244515665160237  0.4023175074635797   T   T   T
  0.0982079176717326  0.7504170929164091  0.4015098319579038   T   T   T
  0.0991899486454851  0.5010772173435017  0.4015997080768442   T   T   T
  0.0992930976841717  0.8745181236644948  0.4017932936064968   T   T   T
  0.9975062768843569  0.6238163571958314  0.4787485863546765   T   T   T
  0.9991892719138378  0.7506329322198787  0.4742295850829746   T   T   T
  0.0998927959937864  0.3754176775049224  0.4020809810653600   T   T   T
  0.1003472690388573  0.0009048146495621  0.4021356677186517   T   T   T
  0.1007833416666400  0.1249519931590296  0.4031715697322448   T   T   T
  0.1057464448507322  0.5092678784875067  0.5630575376009610   T   T   T
  0.1009039473021680  0.2505074769997453  0.4025720577765473   T   T   T
  0.1471150508086042  0.6287287542111738  0.4872279436343496   T   T   T
  0.1491710983789881  0.7462613896372122  0.4847211705868697   T   T   T
  0.1495815229476933  0.8757968320721213  0.4852582159180483   T   T   T
  0.1545821515961981  0.4996016620919829  0.4851394796950405   T   T   T
  0.1527001762956860  0.9970358514492965  0.4879218432508523   T   T   T
  0.1527231191053980  0.1268468951336008  0.4906769096969953   T   T   T
  0.1525338379369164  0.3796633892629916  0.4866566552317898   T   T   T
  0.1544115825050459  0.2492652975428644  0.4888707944884940   T   T   T
  0.1547082680948861  0.6251230654212776  0.3157550047659328   F   F   F
  0.1547082680948861  0.8751230656353641  0.3157550047659328   F   F   F
  0.1547082680948861  0.1251230654212776  0.3157550047659328   F   F   F
  0.1547082680948861  0.3751230656353641  0.3157550047659328   F   F   F
  0.1547523877132235  0.9998547719551993  0.3156484409089586   F   F   F
  0.1547523877132235  0.4998547719551993  0.3156484409089586   F   F   F
  0.1547523877132235  0.7498547721692859  0.3156484409089586   F   F   F
  0.1547523877132235  0.2498547721692859  0.3156484409089586   F   F   F
  0.2328106057236608  0.6312966780598928  0.5595229945711068   T   T   T
  0.2401289557023210  0.9820670390711029  0.5618059449636722   T   T   T
  0.2431991994541561  0.7421482074719626  0.5660594009633094   T   T   T
  0.2451523409494011  0.8703313139554458  0.5629243947188021   T   T   T
  0.2483799551735296  0.3864533322335091  0.5636971478313682   T   T   T
  0.2491594585552881  0.6246811845043529  0.3869915448655910   T   T   T
  0.2492534230688900  0.7497921141660430  0.3871166172851340   T   T   T
  0.2497586028613704  0.8744483251723815  0.3872774209472913   T   T   T
  0.2499458949017526  0.5001367150072130  0.3862546703386575   T   T   T
  0.2501742867793181  0.3748470736861063  0.3872717148045737   T   T   T
  0.2499999997239044  0.0000513585844359  0.1992858820091215   F   F   F
  0.2499999997239044  0.5000513585844431  0.1992858820091215   F   F   F
  0.2499999997239044  0.6250070552811167  0.1993925282102751   F   F   F
  0.2499999997239044  0.7500513587985225  0.1992858820091215   F   F   F
  0.2499999997239044  0.8750070554952032  0.1993925282102751   F   F   F
  0.2499999997239044  0.1250070552811167  0.1993925282102751   F   F   F
  0.2499999997239044  0.2500513587985225  0.1992858820091215   F   F   F
  0.2499999997239044  0.3750070554952032  0.1993925282102751   F   F   F
  0.2504335228530848  0.9998841367621139  0.3866972557490088   T   T   T
  0.2505639035164260  0.2500652704266666  0.3879177264004054   T   T   T
  0.2506046928051369  0.1245875365180333  0.3880237285281578   T   T   T
  0.2514296646634292  0.2144515653903326  0.5724143541858722   T   T   T
  0.2619000055063916  0.5053328588881894  0.5573993801851328   T   T   T
  0.2758699338382145  0.1031492494923178  0.5578861341029054   T   T   T
  0.3442818918206431  0.7462218909788770  0.4886306149148416   T   T   T
  0.3446684690037807  0.6257468384603941  0.4863141977180992   T   T   T
  0.3452476122867765  0.9998547719551993  0.3156484409089586   F   F   F
  0.3452476122867765  0.4998547719551993  0.3156484409089586   F   F   F
  0.3452476122867765  0.7498547721692859  0.3156484409089586   F   F   F
  0.3452476122867765  0.2498547721692859  0.3156484409089586   F   F   F
  0.3452917319051139  0.6251230654212776  0.3157550047659328   F   F   F
  0.3452917319051139  0.8751230656353641  0.3157550047659328   F   F   F
  0.3452917319051139  0.1251230654212776  0.3157550047659328   F   F   F
  0.3452917319051139  0.3751230656353641  0.3157550047659328   F   F   F
  0.3468575295301019  0.8740930625692276  0.4877571813841568   T   T   T
  0.3468231613370537  0.9955171887299529  0.4875662549330087   T   T   T
  0.3486047045214327  0.3763831477227535  0.4873648209711492   T   T   T
  0.3478008326549414  0.2458119995313635  0.4898124606724923   T   T   T
  0.3487483868876694  0.4967699203795262  0.4861143932854488   T   T   T
  0.3506484440598157  0.1264518145765934  0.4865161515624332   T   T   T
  0.3943121286598371  0.6198887159111562  0.5704377513929225   T   T   T
  0.3983782770737523  0.9906147675180365  0.5718015008121227   T   T   T
  0.3992544964610303  0.7494102963879007  0.4022199129865117   T   T   T
  0.3995810939112521  0.6245114406305899  0.4019517906163388   T   T   T
  0.3995838588709488  0.8739216813062449  0.4025285693002169   T   T   T
  0.4000314496485727  0.4996184993227246  0.4016374973347308   T   T   T
  0.4003158569445927  0.3743081521239130  0.4022371913975617   T   T   T
  0.4004467313848802  0.2495012661042531  0.4026319866916403   T   T   T
  0.4006979631055322  0.9990549542103451  0.4022043499330508   T   T   T
  0.4018007552860365  0.1243212593180617  0.4025063014089564   T   T   T
  0.4046587430981108  0.7383152034210188  0.5706165410044833   T   T   T
  0.4045944526244395  0.8743169040085187  0.5736690273087900   T   T   T
  0.4056069476517337  0.9999373617004466  0.2321734905809336   F   F   F
  0.4056069476517337  0.4999373617004466  0.2321734905809336   F   F   F
  0.4056069476517337  0.7499373619145331  0.2321734905809336   F   F   F
  0.4056069476517337  0.2499373619145331  0.2321734905809336   F   F   F
  0.4056495227880106  0.6250779795299195  0.2321437935324795   F   F   F
  0.4056495227880106  0.8750779797440060  0.2321437935324795   F   F   F
  0.4056495227880106  0.1250779795299195  0.2321437935324795   F   F   F
  0.4056495227880106  0.3750779797440060  0.2321437935324795   F   F   F
  0.4064780571967488  0.3759242597253842  0.5737093558960555   T   T   T
  0.4059280802854394  0.4932552273981127  0.5699894404590942   T   T   T
  0.4132914953522415  0.1222136035314394  0.5727931898599725   T   T   T
  0.4152790045708176  0.2398729732602769  0.5704260046735472   T   T   T
  0.4963078054997362  0.6245145881304642  0.4738543924352014   T   T   T
  0.4975090367070789  0.7483825756075977  0.4729425060235419   T   T   T
  0.4987826574696374  0.4994532658107750  0.4720748316158737   T   T   T
  0.4989117872134388  0.8724840697506175  0.4738861274151387   T   T   T
  0.4989523384339136  0.9982846179700099  0.4732170332328844   T   T   T
  0.4992758638776043  0.3751081275309138  0.4729837319600277   T   T   T
  0.4996684449192646  0.2493229137832181  0.4734844684890138   T   T   T
  0.5000000000000000  0.0000770226766207  0.3028264943543491   F   F   F
  0.5000000000000000  0.5000770226766207  0.3028264943543491   F   F   F
  0.5000000000000000  0.6248851796377153  0.3029475127301708   F   F   F
  0.5000000000000000  0.7500770228907001  0.3028264943543491   F   F   F
  0.5000000000000000  0.8748851798518018  0.3029475127301708   F   F   F
  0.5000000000000000  0.1248851796377153  0.3029475127301708   F   F   F
  0.5000000000000000  0.2500770228907001  0.3028264943543491   F   F   F
  0.5000000000000000  0.3748851798518018  0.3029475127301708   F   F   F
  0.5015465913847542  0.1229729122590462  0.4769685642592774   T   T   T
  0.0013322904681647  0.2510463403125116  0.5392617775320347   T   T   T
  0.0013925745729068  0.0001043220958152  0.5397111703240359   T   T   T
  0.0144497203203574  0.4930488671015333  0.5388823493889058   T   T   T
  0.6169498223394360  0.5604310713318971  0.5387315889413922   T   T   T
  0.6421842391849794  0.3124978414441071  0.5352048434507146   T   T   T
  0.6493463504886333  0.0667272266146054  0.5343457200479874   T   T   T
  0.6544319741027418  0.7992373238301465  0.5457822615401339   T   T   T
  0.8416194671992894  0.5724811754436618  0.5337706867393325   T   T   T
  0.8605547390660084  0.8160515349056738  0.5357135763300424   T   T   T
  0.8615367315572549  0.3150982461798512  0.5351219158884157   T   T   T
  0.8636746909394660  0.0631481322482355  0.5340893223905835   T   T   T
  0.9979220166135274  0.7599801229777622  0.5421179026606308   T   T   T
  0.1279327358088092  0.3162959086247169  0.5395331551444875   T   T   T
  0.1787133517666165  0.8046639708815339  0.5751017425360652   T   T   T
  0.1955737011408092  0.5612631435148677  0.5334337278948376   T   T   T
  0.2107579254939863  0.0523570312862507  0.5338154929818437   T   T   T
  0.3486095519136261  0.5540935142962676  0.5384924451016021   T   T   T
  0.3617522738849998  0.0557209010646187  0.5380370559757617   T   T   T
  0.3796449667531817  0.8061187880113270  0.5414675831377405   T   T   T
  0.3796351830674163  0.3051717592400950  0.5410152893896378   T   T   T
  0.4852408252360013  0.9833095371059692  0.5394027343954476   T   T   T
  0.4940530695173877  0.4923509211793590  0.5392843896678898   T   T   T
  0.4997440385114136  0.7388871605148222  0.5402988165153273   T   T   T
  0.5060198177862670  0.2468459981508371  0.5406984251020822   T   T   T
  0.0000000000000000  0.9999830748611132  0.1973415402473861   F   F   F
  0.0000000000000000  0.4999830748611132  0.1973415402473861   F   F   F
  0.0000000000000000  0.6250597900044994  0.1972695212469660   F   F   F
  0.0000000000000000  0.7499830750751997  0.1973415402473861   F   F   F
  0.0000000000000000  0.8750597902185859  0.1972695212469660   F   F   F
  0.0000000000000000  0.1250597900044994  0.1972695212469660   F   F   F
  0.0000000000000000  0.2499830750751997  0.1973415402473861   F   F   F
  0.0000000000000000  0.3750597902185859  0.1972695212469660   F   F   F
  0.0004669861766063  0.8750460616846535  0.3694564962279672   T   T   T
  0.0006504804060823  0.3755502777856666  0.3695578058685419   T   T   T
  0.0012522122240375  0.0006076370276937  0.3694567266455385   T   T   T
  0.0015420477543419  0.2505376807176986  0.3695757603669289   T   T   T
  0.0018027157129156  0.1253689472232662  0.3697050653059526   T   T   T
  0.9996256072599303  0.3825287257960585  0.5416553820025137   T   T   T
  0.0034650209081601  0.8683335662357481  0.5447736649082614   T   T   T
  0.0047586333299557  0.1275140974061416  0.5442923926964696   T   T   T
  0.5805268110821422  0.6869617480775901  0.4539665190277600   T   T   T
  0.5809759577185071  0.9369684945453722  0.4523733931625558   T   T   T
  0.5820254427866972  0.5619049288493170  0.4541509662483971   T   T   T
  0.5826289644023187  0.4381180557695808  0.4525059563996564   T   T   T
  0.5822842430419045  0.1872952813954592  0.4538137210159157   T   T   T
  0.5824959423441172  0.4374754614066489  0.2839355729984092   F   F   F
  0.5824959423441172  0.6874754611925624  0.2839355729984092   F   F   F
  0.5824959423441172  0.9374754614066489  0.2839355729984092   F   F   F
  0.5824959423441172  0.1874754611925624  0.2839355729984092   F   F   F
  0.5827651808530874  0.5624885324787385  0.2838652796168972   F   F   F
  0.5827651808530874  0.0624885324787385  0.2838652796168972   F   F   F
  0.5827651808530874  0.8124885322646520  0.2838652796168972   F   F   F
  0.5827651808530874  0.3124885322646520  0.2838652796168972   F   F   F
  0.5833057807386647  0.8111420017418234  0.4545848906094662   T   T   T
  0.5837179153304441  0.3125225818331175  0.4542613514752831   T   T   T
  0.5870212392657104  0.0612934146261318  0.4556191096885912   T   T   T
  0.6603583169258332  0.6775558797319811  0.5442908107980410   T   T   T
  0.6617302667682390  0.4369944994937893  0.5422465844154735   T   T   T
  0.6657000019576660  0.1921130834510283  0.5435727269368733   T   T   T
  0.6659163253997278  0.5625456426731574  0.2025671506292426   F   F   F
  0.6659163253997278  0.0625456426731503  0.2025671506292426   F   F   F
  0.6659163253997278  0.8125456424590709  0.2025671506292426   F   F   F
  0.6659163253997278  0.3125456424590709  0.2025671506292426   F   F   F
  0.6659898017733283  0.4375125970341855  0.2025194438276969   F   F   F
  0.6659898017733283  0.6875125968200990  0.2025194438276969   F   F   F
  0.6659898017733283  0.9375125970341855  0.2025194438276969   F   F   F
  0.6659898017733283  0.1875125968200990  0.2025194438276969   F   F   F
  0.6669621966342887  0.8125381374496754  0.3678762649365997   T   T   T
  0.6671681379854563  0.6874916974445902  0.3686580174901756   T   T   T
  0.6674482066386509  0.5627170418171459  0.3678581581315067   T   T   T
  0.6678671949537422  0.4374278843047917  0.3685011558799671   T   T   T
  0.6678568368881856  0.9373290745726617  0.3683469312587619   T   T   T
  0.6680020820238194  0.3124900270908303  0.3685291498027390   T   T   T
  0.6682055715433318  0.0625307514487049  0.3688109868601468   T   T   T
  0.6682047247020706  0.1874345355902840  0.3688120330360444   T   T   T
  0.6752957236251466  0.9168310141069985  0.5376798902987822   T   T   T
  0.7469060833271941  0.6270787928057910  0.4563447243280523   T   T   T
  0.7472356064095892  0.7491384700009439  0.4552386940348334   T   T   T
  0.7482604746397939  0.5003182803815737  0.4551225827879101   T   T   T
  0.7499999997239044  0.0001643475558382  0.2779548773829816   F   F   F
  0.7499999997239044  0.5001643475558382  0.2779548773829816   F   F   F
  0.7499999997239044  0.6249264342623420  0.2780286426703711   F   F   F
  0.7499999997239044  0.7501643477699247  0.2779548773829816   F   F   F
  0.7499999997239044  0.8749264344764285  0.2780286426703711   F   F   F
  0.7499999997239044  0.1249264342623420  0.2780286426703711   F   F   F
  0.7499999997239044  0.2501643477699247  0.2779548773829816   F   F   F
  0.7499999997239044  0.3749264344764285  0.2780286426703711   F   F   F
  0.7506243334651791  0.3769127528319442  0.4580244088392290   T   T   T
  0.7507409910415455  0.0004177819765472  0.4583935431872679   T   T   T
  0.7522043673383093  0.2520174188143524  0.4576046780286758   T   T   T
  0.7523875634558854  0.8757767168016465  0.4568350226835243   T   T   T
  0.7525835329169800  0.1258330187185780  0.4581559161244645   T   T   T
  0.0808760647454080  0.6877412596540682  0.4526740587158199   T   T   T
  0.8237005338476511  0.6950573615562506  0.5429007190428841   T   T   T
  0.0824959423441172  0.4374754614066489  0.2839355729984092   F   F   F
  0.0824959423441172  0.6874754611925624  0.2839355729984092   F   F   F
  0.0824959423441172  0.9374754614066489  0.2839355729984092   F   F   F
  0.0824959423441172  0.1874754611925624  0.2839355729984092   F   F   F
  0.0827651808530874  0.5624885324787385  0.2838652796168972   F   F   F
  0.0827651808530874  0.0624885324787385  0.2838652796168972   F   F   F
  0.0827651808530874  0.8124885322646520  0.2838652796168972   F   F   F
  0.0827651808530874  0.3124885322646520  0.2838652796168972   F   F   F
  0.8316612686976211  0.5630485018375494  0.3678535732499205   T   T   T
  0.8315445736729574  0.4377215570000300  0.3683239049793068   T   T   T
  0.8318300949317039  0.6878178087187191  0.3685019972050355   T   T   T
  0.8323373686590322  0.8129555707851557  0.3681511899672926   T   T   T
  0.8322559088360657  0.9378245836905809  0.3685123408874056   T   T   T
  0.8324429000573347  0.3129203678247662  0.3685227664874836   T   T   T
  0.8326185703328551  0.0628479668714052  0.3687464611877951   T   T   T
  0.8325282537142109  0.1878622308996412  0.3686978075483147   T   T   T
  0.8340101684082839  0.4375125970341855  0.2025194438276969   F   F   F
  0.8340101684082839  0.6875125968200990  0.2025194438276969   F   F   F
  0.8340101684082839  0.9375125970341855  0.2025194438276969   F   F   F
  0.8340101684082839  0.1875125968200990  0.2025194438276969   F   F   F
  0.8340836447818845  0.5625456426731574  0.2025671506292426   F   F   F
  0.8340836447818845  0.0625456426731503  0.2025671506292426   F   F   F
  0.8340836447818845  0.8125456424590709  0.2025671506292426   F   F   F
  0.8340836447818845  0.3125456424590709  0.2025671506292426   F   F   F
  0.0837768357159486  0.4394013948034308  0.4533227894584264   T   T   T
  0.0842960412970448  0.5632926309642972  0.4549783506421244   T   T   T
  0.8450480618113192  0.9392126524773570  0.5445622688479987   T   T   T
  0.0846639804832561  0.9379835470644382  0.4534340439865347   T   T   T
  0.8466731449577520  0.4452129642709148  0.5435182720574678   T   T   T
  0.8474213208542097  0.1888675654929788  0.5440000853166191   T   T   T
  0.0851344456411010  0.8119043909702565  0.4550881503261312   T   T   T
  0.0863311893980570  0.1880976509382674  0.4546783553063844   T   T   T
  0.0864152317188924  0.3135801505021267  0.4551027278034386   T   T   T
  0.0872326391647425  0.0626280944967484  0.4559471629608579   T   T   T
  0.9130820308920812  0.5644618210513168  0.4537715735701753   T   T   T
  0.9155449199570185  0.8136382280111879  0.4547641779298447   T   T   T
  0.9159335011347776  0.6890638272005765  0.4536941566158897   T   T   T
  0.9173453071253586  0.4399916187802477  0.4524887938799032   T   T   T
  0.9172348191469126  0.5624885324787385  0.2838652796168972   F   F   F
  0.9172348191469126  0.0624885324787385  0.2838652796168972   F   F   F
  0.9172348191469126  0.8124885322646520  0.2838652796168972   F   F   F
  0.9172348191469126  0.3124885322646520  0.2838652796168972   F   F   F
  0.9173749304012349  0.3142177883122190  0.4545526079218639   T   T   T
  0.9175040576558828  0.4374754614066489  0.2839355729984092   F   F   F
  0.9175040576558828  0.6874754611925624  0.2839355729984092   F   F   F
  0.9175040576558828  0.9374754614066489  0.2839355729984092   F   F   F
  0.9175040576558828  0.1874754611925624  0.2839355729984092   F   F   F
  0.9179350500959532  0.0635328891989115  0.4544322607006028   T   T   T
  0.9201995716575292  0.9385978440172499  0.4522886884195336   T   T   T
  0.9203819119088378  0.1890064571737101  0.4525526473871970   T   T   T
  0.9890412587698316  0.6068430627904234  0.5478842718287065   T   T   T
  0.9994833095785837  0.6252172060340581  0.3693041701676396   T   T   T
  0.9993131043463896  0.7503408764941891  0.3693845858594212   T   T   T
  0.9999917437485910  0.5005880291747986  0.3692700055118198   T   T   T
  0.1531750465012203  0.6917048027573258  0.5423147998297930   T   T   T
  0.1588333399707021  0.9257524138789768  0.5433263555575963   T   T   T
  0.1600884820830774  0.1912541836149520  0.5470903722473903   T   T   T
  0.1659163253997278  0.5625456426731574  0.2025671506292426   F   F   F
  0.1659163253997278  0.0625456426731503  0.2025671506292426   F   F   F
  0.1659163253997278  0.8125456424590709  0.2025671506292426   F   F   F
  0.1659163253997278  0.3125456424590709  0.2025671506292426   F   F   F
  0.1659898017733283  0.4375125970341855  0.2025194438276969   F   F   F
  0.1659898017733283  0.6875125968200990  0.2025194438276969   F   F   F
  0.1659898017733283  0.9375125970341855  0.2025194438276969   F   F   F
  0.1659898017733283  0.1875125968200990  0.2025194438276969   F   F   F
  0.1669968534542539  0.6873634137275539  0.3682259578142286   T   T   T
  0.1670816877345806  0.5626251659500253  0.3679049061690534   T   T   T
  0.1671702772786349  0.8124175326408580  0.3680439614774980   T   T   T
  0.1687097343727642  0.4365222431206402  0.5416955026715822   T   T   T
  0.1678682688271891  0.4375937156310869  0.3680598959935709   T   T   T