Ta  N Ru                                
   1.00000000000000     
    11.9754398999999996    0.0000000000000000    0.0000000000000000
    -1.7175315499999999   11.8516346499999994    0.0000000000000000
     0.0000000000000000    0.0000000000000000   22.7106327899999982
   Ta   N    Ru
    72    72     1
Selective dynamics
Direct
  0.9955339587019623  0.9955339540487174  0.2712224588739929   F   F   F
  0.2699333485827822  0.1030132974397020  0.3100259080635226   F   F   F
  0.1030132717436416  0.2699333822854797  0.3100259080635226   F   F   F
  0.3596205863249367  0.3596206399952564  0.3447007771003783   F   F   F
  0.1253409742651783  0.4593656738838163  0.3919418349552828   F   F   F
  0.4593656603424634  0.1253409739335112  0.3919418349552828   F   F   F
  0.2214625313752975  0.2214150246691704  0.4358422149497746   T   T   T
  0.4866865586804218  0.3203945783582556  0.4786118049440345   T   T   T
  0.3204289511407181  0.4866327349139056  0.4785965324995402   T   T   T
  0.0845406285391968  0.0844820296148946  0.5208617147630307   T   T   T
  0.3470949329070464  0.1822028964878512  0.5646170643574736   T   T   T
  0.1822810713018561  0.3470201605694380  0.5646066348968853   T   T   T
  0.4450672879089575  0.4449627574368504  0.6090899619987903   T   T   T
  0.2080972709655065  0.0427429794655800  0.6504634864007290   T   T   T
  0.0428254353822455  0.2079809697845131  0.6504360553979335   T   T   T
  0.3171841856607113  0.3170625326844984  0.6965066535038288   T   T   T
  0.0653300431311565  0.4061550165730745  0.7281362180455475   T   T   T
  0.4062689661812466  0.0652176835051291  0.7281326814601012   T   T   T
  0.9955339590589745  0.4955339536268326  0.2712224588739929   F   F   F
  0.2699333482257629  0.6030132978615868  0.3100259080635226   F   F   F
  0.1030132722216663  0.7699333827073573  0.3100259080635226   F   F   F
  0.3596205866819489  0.8596206395733716  0.3447007771003783   F   F   F
  0.1253409746221976  0.9593656734619316  0.3919418349552828   F   F   F
  0.4593656608204952  0.6253409743553888  0.3919418349552828   F   F   F
  0.2212913900587321  0.7214708159949403  0.4357210107477602   T   T   T
  0.4865849571448981  0.8201932480582784  0.4784004237615105   T   T   T
  0.3201531923067547  0.9868882797231208  0.4784512754905977   T   T   T
  0.0843335378647597  0.5845295977176351  0.5209078667311778   T   T   T
  0.3469945651409709  0.6816004431928412  0.5639427722500916   T   T   T
  0.1815691399180255  0.8474557208772810  0.5640511965776787   T   T   T
  0.4439410686801630  0.9439568566124944  0.6071307937806751   T   T   T
  0.2085118246571407  0.5435801074711385  0.6502907131180174   T   T   T
  0.0425277866115900  0.7079962809533464  0.6503463188730654   T   T   T
  0.3139187865559140  0.8144802374897555  0.6943007700693905   T   T   T
  0.0654478847802273  0.9046670229541549  0.7282419434903221   T   T   T
  0.4053774919682332  0.5650280436831164  0.7344645996536203   T   T   T
  0.4955339587019623  0.9955339540487174  0.2712224588739929   F   F   F
  0.7699333485827822  0.1030132974397020  0.3100259080635226   F   F   F
  0.6030132717436416  0.2699333822854797  0.3100259080635226   F   F   F
  0.8596205863249367  0.3596206399952564  0.3447007771003783   F   F   F
  0.6253409742651783  0.4593656738838163  0.3919418349552828   F   F   F
  0.9593656603424634  0.1253409739335112  0.3919418349552828   F   F   F
  0.7215080427136525  0.2212605321880268  0.4357195889355147   T   T   T
  0.9869336700391780  0.3201131960588023  0.4784457739709986   T   T   T
  0.8202479396721720  0.4865405354935106  0.4784091822430216   T   T   T
  0.5846007631291793  0.0842632301481601  0.5209065854027299   T   T   T
  0.8475282325705169  0.1815162173802502  0.5640515725709138   T   T   T
  0.6816799227850973  0.3469210911806047  0.5639629264690330   T   T   T
  0.9440578530821654  0.4438667341788472  0.6071383988768247   T   T   T
  0.7081311192524825  0.0424091582239780  0.6503408392526995   T   T   T
  0.5436803255809644  0.2084161569624318  0.6502884332956523   T   T   T
  0.8145982453635716  0.3138589058284980  0.6943049063368929   T   T   T
  0.5648681568228395  0.4053644176036079  0.7345309195198783   T   T   T
  0.9048207829136277  0.0653067325003863  0.7282448854952475   T   T   T
  0.4955339590589745  0.4955339536268326  0.2712224588739929   F   F   F
  0.7699333482257629  0.6030132978615868  0.3100259080635226   F   F   F
  0.6030132722216663  0.7699333827073573  0.3100259080635226   F   F   F
  0.8596205866819489  0.8596206395733716  0.3447007771003783   F   F   F
  0.6253409746221976  0.9593656734619316  0.3919418349552828   F   F   F
  0.9593656608204952  0.6253409743553888  0.3919418349552828   F   F   F
  0.7212939643783325  0.7212413443779737  0.4358146133983023   T   T   T
  0.9864573514987686  0.8201580166618061  0.4784574942678211   T   T   T
  0.8201730236703171  0.9863887061296043  0.4784619158191856   T   T   T
  0.5844833372908516  0.5843838501660267  0.5210655518795761   T   T   T
  0.8465940268649598  0.6809786761906841  0.5643141068502366   T   T   T
  0.6810698331186683  0.8465028503365468  0.5642952633382359   T   T   T
  0.9439218926963243  0.9438104147872826  0.6074745349417876   T   T   T
  0.7061059053733960  0.5409568897264261  0.6506000753891559   T   T   T
  0.5410853277212497  0.7060436371631299  0.6505648699706108   T   T   T
  0.8134158117862698  0.8132993067454860  0.6945580220840991   T   T   T
  0.5655434818431894  0.9046858933549455  0.7283257575856424   T   T   T
  0.9047971931752398  0.5653840006193568  0.7283364603896000   T   T   T
  0.4506180773709048  0.1400782132052782  0.2976725581183857   F   F   F
  0.2642075833142314  0.2642075209653356  0.2836189927733201   F   F   F
  0.1400781798198807  0.4506180903161052  0.2976725581183857   F   F   F
  0.3074132852265237  0.9999309000767909  0.3839488749030693   F   F   F
  0.1352939988863540  0.1352940283866033  0.3689431455789318   F   F   F
  0.9999308780646601  0.3074132624267207  0.3839488749030693   F   F   F
  0.1686143164653844  0.3642585445623532  0.4694983679760983   T   T   T
  0.4969741721313492  0.4969416438700411  0.4539428531192516   T   T   T
  0.3643005722192439  0.1685777450106999  0.4695071133242569   T   T   T
  0.0300145606310025  0.2251777290887503  0.5550131666420117   T   T   T
  0.3581555218823678  0.3580842565940971  0.5407813921543014   T   T   T
  0.2252526776005055  0.0299402548838145  0.5550259825061261   T   T   T
  0.3903386852501360  0.0874220750591583  0.6391749014464950   T   T   T
  0.2214964684393017  0.2214054480308951  0.6296741534708915   T   T   T
  0.0875268568252112  0.3902209253362376  0.6391699316702664   T   T   T
  0.2449694392236385  0.4514072845507919  0.7291170126082033   T   T   T
  0.0770933715453646  0.0769712864092724  0.7092264104529328   T   T   T
  0.4515798479762741  0.2448554730704884  0.7291166013844027   T   T   T
  0.4506180777279170  0.6400782127833935  0.2976725581183857   F   F   F
  0.2642075828362067  0.7642075205434509  0.2836189927733201   F   F   F
  0.1400781801769000  0.9506180898942276  0.2976725581183857   F   F   F
  0.3074132857045484  0.4999309004986756  0.3839488749030693   F   F   F
  0.1352939993643858  0.6352940288084810  0.3689431455789318   F   F   F
  0.9999308775866353  0.8074132620048431  0.3839488749030693   F   F   F
  0.1681677800493114  0.8644214985845740  0.4692437162753916   T   T   T
  0.4970101611913459  0.9970409397858053  0.4537463033762807   T   T   T
  0.3642648441756612  0.6682515799249599  0.4690268716016878   T   T   T
  0.0294462613697114  0.7253913620384252  0.5549628361198121   T   T   T
  0.3568837463663602  0.8574509151680337  0.5395315992447308   T   T   T
  0.2249720488178533  0.5296305770624200  0.5550440656913871   T   T   T
  0.3888698352875706  0.5895426883018738  0.6393410373490686   T   T   T
  0.2216385448285225  0.7222285183396672  0.6282089312890503   T   T   T
  0.0876494126037645  0.8903457651826923  0.6393655931730822   T   T   T
  0.2504985946960919  0.9517229767489749  0.7297665867497894   T   T   T
  0.0761818307419174  0.5771738304879469  0.7086407931818279   T   T   T
  0.4514458550551693  0.7522629899292258  0.7289071283380253   T   T   T
  0.9506180773709048  0.1400782132052782  0.2976725581183857   F   F   F
  0.7642075824791874  0.2642075209653356  0.2836189927733201   F   F   F
  0.6400781798198807  0.4506180903161052  0.2976725581183857   F   F   F
  0.8074132852265237  0.9999309000767909  0.3839488749030693   F   F   F
  0.6352939988863540  0.1352940283866033  0.3689431455789318   F   F   F
  0.4999308780646601  0.3074132624267207  0.3839488749030693   F   F   F
  0.6682936994941953  0.3642257832449945  0.4690325872207259   T   T   T
  0.9970688016468409  0.4969761963540444  0.4537455683346959   T   T   T
  0.8644479943508404  0.1681257271213394  0.4692443096199809   T   T   T
  0.5297118907914252  0.2248979911345888  0.5550486029394130   T   T   T
  0.8575185475359463  0.3568243523387923  0.5395397433057363   T   T   T
  0.7254652684124916  0.0293626326231760  0.5549604636682310   T   T   T
  0.8904464730635873  0.0875652129181817  0.6393578647195246   T   T   T
  0.7223323984914688  0.2215425745457306  0.6282259024890756   T   T   T
  0.5896193167759576  0.3887437323017550  0.6393904994194348   T   T   T
  0.7523119729266022  0.4512879682789336  0.7289145436068183   T   T   T
  0.5772982837921695  0.0760752112930142  0.7086321364467517   T   T   T
  0.9518409696780901  0.2503648360558280  0.7297662559895804   T   T   T
  0.9506180777279170  0.6400782127833935  0.2976725581183857   F   F   F
  0.7642075828362067  0.7642075205434509  0.2836189927733201   F   F   F
  0.6400781801769000  0.9506180898942276  0.2976725581183857   F   F   F
  0.8074132857045484  0.4999309004986756  0.3839488749030693   F   F   F
  0.6352939993643858  0.6352940288084810  0.3689431455789318   F   F   F
  0.4999308775866353  0.8074132620048431  0.3839488749030693   F   F   F
  0.6682601497495178  0.8642034451429479  0.4692701915560153   T   T   T
  0.9970195210052291  0.9969921672910030  0.4537703268572560   T   T   T
  0.8642510271668469  0.6682158705369131  0.4692822188197933   T   T   T
  0.5293077576345567  0.7251358650551253  0.5549379056590618   T   T   T
  0.8567488341854673  0.8566880608242355  0.5399022424293632   T   T   T
  0.7252287464931576  0.5292112752910756  0.5549625167165133   T   T   T
  0.8892714400969124  0.5867812144932791  0.6395031846398551   T   T   T
  0.7212614387316925  0.7211537758760360  0.6284198312530654   T   T   T
  0.5868883790162539  0.8891754849924205  0.6394882085196285   T   T   T
  0.7506112574872374  0.9510694714198645  0.7294896149393739   T   T   T
  0.5754296945390996  0.5753919761755496  0.7091486773153454   T   T   T
  0.9511780495082032  0.7504721408485188  0.7294984314936425   T   T   T
  0.4162986289357268  0.4164868030907348  0.8034468932755605   T   T   T
 
  0.00000000E+00  0.00000000E+00  0.00000000E+00
  0.00000000E+00  0.00000000E+00  0.00000000E+00
  0.00000000E+00  0.00000000E+00  0.00000000E+00
  0.00000000E+00  0.00000000E+00  0.00000000E+00
  0.00000000E+00  0.00000000E+00  0.00000000E+00
  0.00000000E+00  0.00000000E+00  0.00000000E+00
  0.00000000E+00  0.00000000E+00  0.00000000E+00
  0.00000000E+00  0.00000000E+00  0.00000000E+00
  0.00000000E+00  0.00000000E+00  0.00000000E+00
  0.00000000E+00  0.00000000E+00  0.00000000E+00
  0.00000000E+00  0.00000000E+00  0.00000000E+00
  0.00000000E+00  0.00000000E+00  0.00000000E+00
  0.00000000E+00  0.00000000E+00  0.00000000E+00
  0.00000000E+00  0.00000000E+00  0.00000000E+00
  0.00000000E+00  0.00000000E+00  0.00000000E+00
  0.00000000E+00  0.00000000E+00  0.00000000E+00
  0.00000000E+00  0.00000000E+00  0.00000000E+00
  0.00000000E+00  0.00000000E+00  0.00000000E+00
  0.00000000E+00  0.00000000E+00  0.00000000E+00
  0.00000000E+00  0.00000000E+00  0.00000000E+00
  0.00000000E+00  0.00000000E+00  0.00000000E+00
  0.00000000E+00  0.00000000E+00  0.00000000E+00
  0.00000000E+00  0.00000000E+00  0.00000000E+00
  0.00000000E+00  0.00000000E+00  0.00000000E+00
  0.00000000E+00  0.00000000E+00  0.00000000E+00
  0.00000000E+00  0.00000000E+00  0.00000000E+00
  0.00000000E+00  0.00000000E+00  0.00000000E+00
  0.00000000E+00  0.00000000E+00  0.00000000E+00
  0.00000000E+00  0.00000000E+00  0.00000000E+00
  0.00000000E+00  0.00000000E+00  0.00000000E+00
  0.00000000E+00  0.00000000E+00  0.00000000E+00
  0.00000000E+00  0.00000000E+00  0.00000000E+00
  0.00000000E+00  0.00000000E+00  0.00000000E+00
  0.00000000E+00  0.00000000E+00  0.00000000E+00
  0.00000000E+00  0.00000000E+00  0.00000000E+00
  0.00000000E+00  0.00000000E+00  0.00000000E+00
  0.00000000E+00  0.00000000E+00  0.00000000E+00
  0.00000000E+00  0.00000000E+00  0.00000000E+00
  0.00000000E+00  0.00000000E+00  0.00000000E+00
  0.00000000E+00  0.00000000E+00  0.00000000E+00
  0.00000000E+00  0.00000000E+00  0.00000000E+00
  0.00000000E+00  0.00000000E+00  0.00000000E+00
  0.00000000E+00  0.00000000E+00  0.00000000E+00
  0.00000000E+00  0.00000000E+00  0.00000000E+00
  0.00000000E+00  0.00000000E+00  0.00000000E+00
  0.00000000E+00  0.00000000E+00  0.00000000E+00
  0.00000000E+00  0.00000000E+00  0.00000000E+00
  0.00000000E+00  0.00000000E+00  0.00000000E+00
  0.00000000E+00  0.00000000E+00  0.00000000E+00
  0.00000000E+00  0.00000000E+00  0.00000000E+00
  0.00000000E+00  0.00000000E+00  0.00000000E+00
  0.00000000E+00  0.00000000E+00  0.00000000E+00
  0.00000000E+00  0.00000000E+00  0.00000000E+00
  0.00000000E+00  0.00000000E+00  0.00000000E+00
  0.00000000E+00  0.00000000E+00  0.00000000E+00
  0.00000000E+00  0.00000000E+00  0.00000000E+00
  0.00000000E+00  0.00000000E+00  0.00000000E+00
  0.00000000E+00  0.00000000E+00  0.00000000E+00
  0.00000000E+00  0.00000000E+00  0.00000000E+00
  0.00000000E+00  0.00000000E+00  0.00000000E+00
  0.00000000E+00  0.00000000E+00  0.00000000E+00
  0.00000000E+00  0.00000000E+00  0.00000000E+00
  0.00000000E+00  0.00000000E+00  0.00000000E+00
  0.00000000E+00  0.00000000E+00  0.00000000E+00
  0.00000000E+00  0.00000000E+00  0.00000000E+00
  0.00000000E+00  0.00000000E+00  0.00000000E+00
  0.00000000E+00  0.00000000E+00  0.00000000E+00
  0.00000000E+00  0.00000000E+00  0.00000000E+00
  0.00000000E+00  0.00000000E+00  0.00000000E+00
  0.00000000E+00  0.00000000E+00  0.00000000E+00
  0.00000000E+00  0.00000000E+00  0.00000000E+00
  0.00000000E+00  0.00000000E+00  0.00000000E+00
  0.00000000E+00  0.00000000E+00  0.00000000E+00
  0.00000000E+00  0.00000000E+00  0.00000000E+00
  0.00000000E+00  0.00000000E+00  0.00000000E+00
  0.00000000E+00  0.00000000E+00  0.00000000E+00
  0.00000000E+00  0.00000000E+00  0.00000000E+00
  0.00000000E+00  0.00000000E+00  0.00000000E+00
  0.00000000E+00  0.00000000E+00  0.00000000E+00
  0.00000000E+00  0.00000000E+00  0.00000000E+00
  0.00000000E+00  0.00000000E+00  0.00000000E+00
  0.00000000E+00  0.00000000E+00  0.00000000E+00
  0.00000000E+00  0.00000000E+00  0.00000000E+00
  0.00000000E+00  0.00000000E+00  0.00000000E+00
  0.00000000E+00  0.00000000E+00  0.00000000E+00
  0.00000000E+00  0.00000000E+00  0.00000000E+00
  0.00000000E+00  0.00000000E+00  0.00000000E+00
  0.00000000E+00  0.00000000E+00  0.00000000E+00
  0.00000000E+00  0.00000000E+00  0.00000000E+00
  0.00000000E+00  0.00000000E+00  0.00000000E+00
  0.00000000E+00  0.00000000E+00  0.00000000E+00
  0.00000000E+00  0.00000000E+00  0.00000000E+00
  0.00000000E+00  0.00000000E+00  0.00000000E+00
  0.00000000E+00  0.00000000E+00  0.00000000E+00
  0.00000000E+00  0.00000000E+00  0.00000000E+00
  0.00000000E+00  0.00000000E+00  0.00000000E+00
  0.00000000E+00  0.00000000E+00  0.00000000E+00
  0.00000000E+00  0.00000000E+00  0.00000000E+00
  0.00000000E+00  0.00000000E+00  0.00000000E+00
  0.00000000E+00  0.00000000E+00  0.00000000E+00
  0.00000000E+00  0.00000000E+00  0.00000000E+00
  0.00000000E+00  0.00000000E+00  0.00000000E+00
  0.00000000E+00  0.00000000E+00  0.00000000E+00
  0.00000000E+00  0.00000000E+00  0.00000000E+00
  0.00000000E+00  0.00000000E+00  0.00000000E+00
  0.00000000E+00  0.00000000E+00  0.00000000E+00
  0.00000000E+00  0.00000000E+00  0.00000000E+00
  0.00000000E+00  0.00000000E+00  0.00000000E+00
  0.00000000E+00  0.00000000E+00  0.00000000E+00
  0.00000000E+00  0.00000000E+00  0.00000000E+00
  0.00000000E+00  0.00000000E+00  0.00000000E+00
  0.00000000E+00  0.00000000E+00  0.00000000E+00
  0.00000000E+00  0.00000000E+00  0.00000000E+00
  0.00000000E+00  0.00000000E+00  0.00000000E+00
  0.00000000E+00  0.00000000E+00  0.00000000E+00
  0.00000000E+00  0.00000000E+00  0.00000000E+00
  0.00000000E+00  0.00000000E+00  0.00000000E+00
  0.00000000E+00  0.00000000E+00  0.00000000E+00
  0.00000000E+00  0.00000000E+00  0.00000000E+00
  0.00000000E+00  0.00000000E+00  0.00000000E+00
  0.00000000E+00  0.00000000E+00  0.00000000E+00
  0.00000000E+00  0.00000000E+00  0.00000000E+00
  0.00000000E+00  0.00000000E+00  0.00000000E+00
  0.00000000E+00  0.00000000E+00  0.00000000E+00
  0.00000000E+00  0.00000000E+00  0.00000000E+00
  0.00000000E+00  0.00000000E+00  0.00000000E+00
  0.00000000E+00  0.00000000E+00  0.00000000E+00
  0.00000000E+00  0.00000000E+00  0.00000000E+00
  0.00000000E+00  0.00000000E+00  0.00000000E+00
  0.00000000E+00  0.00000000E+00  0.00000000E+00
  0.00000000E+00  0.00000000E+00  0.00000000E+00
  0.00000000E+00  0.00000000E+00  0.00000000E+00
  0.00000000E+00  0.00000000E+00  0.00000000E+00
  0.00000000E+00  0.00000000E+00  0.00000000E+00
  0.00000000E+00  0.00000000E+00  0.00000000E+00
  0.00000000E+00  0.00000000E+00  0.00000000E+00
  0.00000000E+00  0.00000000E+00  0.00000000E+00
  0.00000000E+00  0.00000000E+00  0.00000000E+00
  0.00000000E+00  0.00000000E+00  0.00000000E+00
  0.00000000E+00  0.00000000E+00  0.00000000E+00
  0.00000000E+00  0.00000000E+00  0.00000000E+00
  0.00000000E+00  0.00000000E+00  0.00000000E+00
  0.00000000E+00  0.00000000E+00  0.00000000E+00
  0.00000000E+00  0.00000000E+00  0.00000000E+00
  0.00000000E+00  0.00000000E+00  0.00000000E+00
