Cu	N	Ru	Ta                              
   1.00000000000000     
    18.1096308199999996    0.0000000000000000    0.0000000000000000
     0.0000000000000000   23.3551997799999995    0.0000000000000000
     0.0000000000000000    0.0000000000000000   30.4818171199999988
   Cu   N    Ru   Ta
     1   240    24   216
Selective dynamics
Direct
  0.5660568041453089  0.4568190460349139  0.6063400678389314   T   T   T
  0.0000000000000000  0.0000770226766207  0.3028264943543491   F   F   F
  0.0000000000000000  0.5000770226766207  0.3028264943543491   F   F   F
  0.0000000000000000  0.6248851796377153  0.3029475127301708   F   F   F
  0.0000000000000000  0.7500770228907001  0.3028264943543491   F   F   F
  0.0000000000000000  0.8748851798518018  0.3029475127301708   F   F   F
  0.0000000000000000  0.1248851796377153  0.3029475127301708   F   F   F
  0.0000000000000000  0.2500770228907001  0.3028264943543491   F   F   F
  0.0000000000000000  0.3748851798518018  0.3029475127301708   F   F   F
  0.0001864442322192  0.0007797329247213  0.4739385905849029   T   T   T
 -0.0001619779068838  0.1251669821438980  0.4756015544087785   T   T   T
  0.0007484311578232  0.3745048360401622  0.4763282049244745   T   T   T
  0.0010444051466841  0.5003478385706165  0.4743221390228199   T   T   T
  0.0007114200098867  0.6250528067989898  0.4759627821621260   T   T   T
  0.5882583995907524  0.6495022394826925  0.5698723687540271   T   T   T
  0.5880661409670268  0.1466264659531243  0.5695056857866568   T   T   T
  0.5938057507901280  0.0176627897467943  0.5655532168007751   T   T   T
  0.5943504772119894  0.6250779795299195  0.2321437935324795   F   F   F
  0.5943504772119894  0.8750779797440060  0.2321437935324795   F   F   F
  0.5943504772119894  0.1250779795299195  0.2321437935324795   F   F   F
  0.5943504772119894  0.3750779797440060  0.2321437935324795   F   F   F
  0.5943930523482663  0.9999373617004466  0.2321734905809336   F   F   F
  0.5943930523482663  0.4999373617004466  0.2321734905809336   F   F   F
  0.5943930523482663  0.7499373619145331  0.2321734905809336   F   F   F
  0.5943930523482663  0.2499373619145331  0.2321734905809336   F   F   F
  0.5953628149607485  0.8942039532699607  0.5692611983081497   T   T   T
  0.5975199816357131  0.5174839876239649  0.5685471074688055   T   T   T
  0.5975951505330145  0.7709149882420840  0.5674446484363023   T   T   T
  0.5983516736515233  0.1247535861288432  0.4028103330183354   T   T   T
  0.5984817632110131  0.2508413195530242  0.4018121691284843   T   T   T
  0.5987011341990038  0.0008529348260308  0.4018548377196030   T   T   T
  0.5988208759766553  0.8746704096207263  0.4023828664217932   T   T   T
  0.5991331392977781  0.3749539995580409  0.4023207412405289   T   T   T
  0.5990647945400984  0.7508209740984148  0.4016475006581716   T   T   T
  0.5991587197516332  0.6246474987605852  0.4027151750506281   T   T   T
  0.5994529231667968  0.2679059347121915  0.5684017092311656   T   T   T
  0.5994786246197182  0.5009045116740353  0.4018918493270722   T   T   T
  0.6025468114836336  0.3921741257886359  0.5734993469662190   T   T   T
  0.6497812977001786  0.1287293615237954  0.4882341684044196   T   T   T
  0.6505966516070549  0.9969005269135564  0.4836171638841540   T   T   T
  0.6508142960004688  0.6290580129554547  0.4884293266406516   T   T   T
  0.6505542773187425  0.2474523666592588  0.4839234872570853   T   T   T
  0.6512147950446734  0.7475969672608340  0.4837331169542355   T   T   T
  0.6520979336784946  0.4975654479942623  0.4844048315733906   T   T   T
  0.6516371121319611  0.3776750041758410  0.4883376065898373   T   T   T
  0.6515691815995431  0.8782338807116912  0.4879332006676313   T   T   T
  0.6547082680948861  0.6251230654212776  0.3157550047659328   F   F   F
  0.6547082680948861  0.8751230656353641  0.3157550047659328   F   F   F
  0.6547082680948861  0.1251230654212776  0.3157550047659328   F   F   F
  0.6547082680948861  0.3751230656353641  0.3157550047659328   F   F   F
  0.6547523877132235  0.9998547719551993  0.3156484409089586   F   F   F
  0.6547523877132235  0.4998547719551993  0.3156484409089586   F   F   F
  0.6547523877132235  0.7498547721692859  0.3156484409089586   F   F   F
  0.6547523877132235  0.2498547721692859  0.3156484409089586   F   F   F
  0.7476762200322601  0.2549129227372344  0.5618784528755867   T   T   T
  0.7476521661007444  0.1349655158708673  0.5542773184860759   T   T   T
  0.7495458799108911  0.8849129369964087  0.5591208291300984   T   T   T
  0.7482572536882114  0.6335778348904963  0.5545198568862398   T   T   T
  0.7497199698061227  0.1248589830722823  0.3888239029138952   T   T   T
  0.7502995860292141  0.0073609575790461  0.5584425777934647   T   T   T
  0.7498323405173801  0.2499714391981499  0.3868828583493349   T   T   T
  0.7498494598621569  0.0002677014878892  0.3868838652180684   T   T   T
  0.7499762469386931  0.8748120923505370  0.3879277425394773   T   T   T
  0.7500950126421065  0.3748818100279562  0.3880111946558089   T   T   T
  0.7499999997239044  0.0000513585844359  0.1992858820091215   F   F   F
  0.7499999997239044  0.5000513585844431  0.1992858820091215   F   F   F
  0.7499999997239044  0.6250070552811167  0.1993925282102751   F   F   F
  0.7499999997239044  0.7500513587985225  0.1992858820091215   F   F   F
  0.7499999997239044  0.8750070554952032  0.1993925282102751   F   F   F
  0.7499999997239044  0.1250070552811167  0.1993925282102751   F   F   F
  0.7499999997239044  0.2500513587985225  0.1992858820091215   F   F   F
  0.7499999997239044  0.3750070554952032  0.1993925282102751   F   F   F
  0.7501451954959253  0.7499391569450222  0.3866694097095388   T   T   T
  0.7503909584713776  0.7550376646137662  0.5616293285314652   T   T   T
  0.7502667613356820  0.6248115240351703  0.3886358220623400   T   T   T
  0.7503138127941635  0.5001985369401039  0.3869735458123773   T   T   T
  0.7535419039415671  0.5052872872181133  0.5583910439420020   T   T   T
  0.7544575824714603  0.3837354212169568  0.5597911152667321   T   T   T
  0.8452476122867765  0.9998547719551993  0.3156484409089586   F   F   F
  0.8452476122867765  0.4998547719551993  0.3156484409089586   F   F   F
  0.8452476122867765  0.7498547721692859  0.3156484409089586   F   F   F
  0.8452476122867765  0.2498547721692859  0.3156484409089586   F   F   F
  0.8452917319051139  0.6251230654212776  0.3157550047659328   F   F   F
  0.8452917319051139  0.8751230656353641  0.3157550047659328   F   F   F
  0.8452917319051139  0.1251230654212776  0.3157550047659328   F   F   F
  0.8452917319051139  0.3751230656353641  0.3157550047659328   F   F   F
  0.8483356167755436  0.8779411941683627  0.4879751653823022   T   T   T
  0.8485498462993034  0.2473156375388896  0.4839879888342045   T   T   T
  0.8488974215790515  0.7471450144733092  0.4837523320004372   T   T   T
  0.8491595228587575  0.3782181981720991  0.4876319064898894   T   T   T
  0.8491532358373819  0.9967542976061901  0.4833354578635236   T   T   T
  0.8488062114251378  0.1276245152101079  0.4888444974612464   T   T   T
  0.8493354804290206  0.6278813067626517  0.4885809168325880   T   T   T
  0.8507638289575775  0.4967757377914718  0.4832104959440346   T   T   T
  0.0884572908028144  0.8996528810642610  0.5687493805343834   T   T   T
  0.9006623499186496  0.2505102732189290  0.4016678793822030   T   T   T
  0.9007949542430298  0.1242981956644461  0.4027176545110719   T   T   T
  0.9009979706647231  0.0006541162342057  0.4017279291057059   T   T   T
  0.9011418727341540  0.8745087339521159  0.4023028632183547   T   T   T
  0.9012260202546241  0.7505930942617828  0.4017914441680056   T   T   T
  0.9014877729608561  0.3743742702321557  0.4023632953661246   T   T   T
  0.9014011189520601  0.6243829919874407  0.4027527655529317   T   T   T
  0.9016986849536103  0.5005869858392255  0.4017670730446404   T   T   T
  0.9003294290258397  0.2706554819596736  0.5682821978536692   T   T   T
  0.9021877272567658  0.7694935503845676  0.5670775565445875   T   T   T
  0.9025862066958202  0.8933723744752143  0.5701323573424308   T   T   T
  0.9056009289575826  0.0184570366845567  0.5648280054926588   T   T   T
  0.9056069476517337  0.9999373617004466  0.2321734905809336   F   F   F
  0.9056069476517337  0.4999373617004466  0.2321734905809336   F   F   F
  0.9056069476517337  0.7499373619145331  0.2321734905809336   F   F   F
  0.9056069476517337  0.2499373619145331  0.2321734905809336   F   F   F
  0.9056495227880106  0.6250779795299195  0.2321437935324795   F   F   F
  0.9056495227880106  0.8750779797440060  0.2321437935324795   F   F   F
  0.9056495227880106  0.1250779795299195  0.2321437935324795   F   F   F
  0.9056495227880106  0.3750779797440060  0.2321437935324795   F   F   F
  0.9079856955653747  0.5184247142334516  0.5657336559405091   T   T   T
  0.9109108031908234  0.3931249451760299  0.5678171354841750   T   T   T
  0.9081345395915065  0.1485731521071916  0.5701738017774365   T   T   T
  0.9090272170565422  0.6470463044271622  0.5694402530542825   T   T   T
  0.0912021888975740  0.2712801427847552  0.5628576942222276   T   T   T
  0.0965052838847315  0.3963217256116258  0.5713502943615049   T   T   T
  0.0943504772119894  0.6250779795299195  0.2321437935324795   F   F   F
  0.0943504772119894  0.8750779797440060  0.2321437935324795   F   F   F
  0.0943504772119894  0.1250779795299195  0.2321437935324795   F   F   F
  0.0943504772119894  0.3750779797440060  0.2321437935324795   F   F   F
  0.0943593376618150  0.7685905842061003  0.5660215146114403   T   T   T
  0.0943930523482663  0.9999373617004466  0.2321734905809336   F   F   F
  0.0943930523482663  0.4999373617004466  0.2321734905809336   F   F   F
  0.0943930523482663  0.7499373619145331  0.2321734905809336   F   F   F
  0.0943930523482663  0.2499373619145331  0.2321734905809336   F   F   F
  0.0936162364890391  0.1444443035461065  0.5693168631734785   T   T   T
  0.0956128347248625  0.6439340174558034  0.5693036858331355   T   T   T
  0.0973694911783876  0.0212163352547614  0.5675817265715577   T   T   T
  0.0986160417098172  0.2505116770793929  0.4013963418161176   T   T   T
  0.0986748270773773  0.1243678860288379  0.4021923484030976   T   T   T
  0.0987764664333703  0.8744043546966493  0.4026955375795565   T   T   T
  0.0989122648133320  0.0005753161621270  0.4016277235726985   T   T   T
  0.0989256399379430  0.6244194474576540  0.4024891585167930   T   T   T
  0.0989540577408665  0.7505820267049830  0.4019203317968775   T   T   T
  0.0992738011724121  0.3743363018518178  0.4027586400451574   T   T   T
  0.0993036484982420  0.5003387105657001  0.4019345654830734   T   T   T
  0.0999966073166759  0.5195100130910989  0.5674932899762593   T   T   T
  0.9993477487398225  0.8753502826610183  0.4755860721451537   T   T   T
  0.9993585047420989  0.2501632538946013  0.4731387395272042   T   T   T
  0.9997911347754860  0.7508080590172557  0.4742899676878825   T   T   T
  0.1496732355841545  0.2473304656101460  0.4827095242659568   T   T   T
  0.1504780296236181  0.8784913732465616  0.4882903213426801   T   T   T
  0.1506795967907203  0.7466357221253611  0.4837587042788751   T   T   T
  0.1508319654170699  0.9971637602614967  0.4836740673657766   T   T   T
  0.1506782545418109  0.1280316492789524  0.4879719646592244   T   T   T
  0.1516260305130281  0.3762136411845993  0.4897060352323373   T   T   T
  0.1518534212398447  0.4968152590313428  0.4840008033422667   T   T   T
  0.1518437198803251  0.6279780764246311  0.4878977113024338   T   T   T
  0.1547082680948861  0.6251230654212776  0.3157550047659328   F   F   F
  0.1547082680948861  0.8751230656353641  0.3157550047659328   F   F   F
  0.1547082680948861  0.1251230654212776  0.3157550047659328   F   F   F
  0.1547082680948861  0.3751230656353641  0.3157550047659328   F   F   F
  0.1547523877132235  0.9998547719551993  0.3156484409089586   F   F   F
  0.1547523877132235  0.4998547719551993  0.3156484409089586   F   F   F
  0.1547523877132235  0.7498547721692859  0.3156484409089586   F   F   F
  0.1547523877132235  0.2498547721692859  0.3156484409089586   F   F   F
  0.2455987763946749  0.2557723598945251  0.5614148048593300   T   T   T
  0.2486308020067380  0.8857661707061087  0.5543211819717225   T   T   T
  0.2486610878196025  0.1336519099206357  0.5595896152389201   T   T   T
  0.2495028236726665  0.6355644108754833  0.5592018682963106   T   T   T
  0.2499206381769230  0.1248281508607305  0.3880448685952680   T   T   T
  0.2499551585533428  0.2501886021117043  0.3869130489069953   T   T   T
  0.2499911281637552 -0.0000485926449735  0.3867079723192467   T   T   T
  0.2499821116139540  0.8747475276103768  0.3886929543241548   T   T   T
  0.2500520574629058  0.3748639727154580  0.3887300504049053   T   T   T
  0.2499614486799501  0.7502319048889247  0.3868624069165195   T   T   T
  0.2500591327722650  0.4999706687967788  0.3865555640307206   T   T   T
  0.2500316767061149  0.6248119430157246  0.3878839593153169   T   T   T
  0.2499999997239044  0.0000513585844359  0.1992858820091215   F   F   F
  0.2499999997239044  0.5000513585844431  0.1992858820091215   F   F   F
  0.2499999997239044  0.6250070552811167  0.1993925282102751   F   F   F
  0.2499999997239044  0.7500513587985225  0.1992858820091215   F   F   F
  0.2499999997239044  0.8750070554952032  0.1993925282102751   F   F   F
  0.2499999997239044  0.1250070552811167  0.1993925282102751   F   F   F
  0.2499999997239044  0.2500513587985225  0.1992858820091215   F   F   F
  0.2499999997239044  0.3750070554952032  0.1993925282102751   F   F   F
  0.2501987543609679  0.7577123329942971  0.5583421235001950   T   T   T
  0.2506946458104641  0.0061471754355279  0.5608942139435343   T   T   T
  0.2518929202731865  0.5062356472123286  0.5607984565362265   T   T   T
  0.2588933017964056  0.3858775027877837  0.5550042541596225   T   T   T
  0.3452476122867765  0.9998547719551993  0.3156484409089586   F   F   F
  0.3452476122867765  0.4998547719551993  0.3156484409089586   F   F   F
  0.3452476122867765  0.7498547721692859  0.3156484409089586   F   F   F
  0.3452476122867765  0.2498547721692859  0.3156484409089586   F   F   F
  0.3452917319051139  0.6251230654212776  0.3157550047659328   F   F   F
  0.3452917319051139  0.8751230656353641  0.3157550047659328   F   F   F
  0.3452917319051139  0.1251230654212776  0.3157550047659328   F   F   F
  0.3452917319051139  0.3751230656353641  0.3157550047659328   F   F   F
  0.3475051509312902  0.1279986715203243  0.4883068699545159   T   T   T
  0.3474156481511904  0.2477499507114847  0.4852820599335828   T   T   T
  0.3486426726243213  0.6282524762181956  0.4877783864681105   T   T   T
  0.3488620397483483  0.9970958693133464  0.4836018744539176   T   T   T
  0.3493577691066949  0.4979277083759128  0.4831192168232123   T   T   T
  0.3492207953011580  0.7471368237108483  0.4832053640187281   T   T   T
  0.3492497250642901  0.8781620802586741  0.4886305975700233   T   T   T
  0.3505122024287716  0.3807002158456610  0.4870337708503044   T   T   T
  0.4006641609372862  0.2508767263812018  0.4022650225762531   T   T   T
  0.4009184542669935  0.1250071882103301  0.4027236733014777   T   T   T
  0.4010446803554430  0.0007709783569708  0.4017538250172695   T   T   T
  0.4011557238644707  0.7508816821907102  0.4016476222134498   T   T   T
  0.4011500387251795  0.8745528340032135  0.4027170573992838   T   T   T
  0.4012304630673459  0.6247810978189152  0.4021232569789425   T   T   T
  0.4014357304591056  0.5011582327716630  0.4012983218754104   T   T   T
  0.4014019569169817  0.3747653508042700  0.4023489088134432   T   T   T
  0.4017167957895540  0.0195972288836625  0.5678333656320180   T   T   T
  0.4037740287935302  0.5216836276236433  0.5664778220041689   T   T   T
  0.4025177563112818  0.6439824420966783  0.5699261938535336   T   T   T
  0.4015898934960828  0.1444941343410761  0.5700179164804019   T   T   T
  0.4058027728489899  0.2668128050063231  0.5659828628149544   T   T   T
  0.4056069476517337  0.9999373617004466  0.2321734905809336   F   F   F
  0.4056069476517337  0.4999373617004466  0.2321734905809336   F   F   F
  0.4056069476517337  0.7499373619145331  0.2321734905809336   F   F   F
  0.4056069476517337  0.2499373619145331  0.2321734905809336   F   F   F
  0.4056495227880106  0.6250779795299195  0.2321437935324795   F   F   F
  0.4056495227880106  0.8750779797440060  0.2321437935324795   F   F   F
  0.4056495227880106  0.1250779795299195  0.2321437935324795   F   F   F
  0.4056495227880106  0.3750779797440060  0.2321437935324795   F   F   F
  0.4057627182481801  0.7686426290619254  0.5647524838947460   T   T   T
  0.4094966332902406  0.8975255574278213  0.5696632448105046   T   T   T
  0.4153960686522459  0.4006433888655379  0.5689477552944694   T   T   T
  0.4986344723187162  0.1256523944142163  0.4759081202675117   T   T   T
  0.4995555178200186  0.0010781723632055  0.4742515935407929   T   T   T
  0.4997248702413936  0.6257903144782456  0.4753415646550539   T   T   T
  0.4995922128275448  0.2516973037132922  0.4747370079161407   T   T   T
  0.5004018325350680  0.5017710333735499  0.4737747662290056   T   T   T
  0.5000000000000000  0.0000770226766207  0.3028264943543491   F   F   F
  0.5000000000000000  0.5000770226766207  0.3028264943543491   F   F   F
  0.5000000000000000  0.6248851796377153  0.3029475127301708   F   F   F
  0.5000000000000000  0.7500770228907001  0.3028264943543491   F   F   F
  0.5000000000000000  0.8748851798518018  0.3029475127301708   F   F   F
  0.5000000000000000  0.1248851796377153  0.3029475127301708   F   F   F
  0.5000000000000000  0.2500770228907001  0.3028264943543491   F   F   F
  0.5000000000000000  0.3748851798518018  0.3029475127301708   F   F   F
  0.5003146140681369  0.7510071614149607  0.4737040406448015   T   T   T
  0.5003509154612279  0.8753410430979868  0.4758242373556338   T   T   T
  0.5010611933686495  0.3762752792490434  0.4747588764562735   T   T   T
  0.0034647453893164  0.0153937687948574  0.5402488358623038   T   T   T
  0.0057899007536621  0.5149882179485984  0.5405485849319159   T   T   T
  0.6564516737454547  0.5853596078999268  0.5471919242146420   T   T   T
  0.6566512236038066  0.0820167993539180  0.5459079330326985   T   T   T
  0.6659311703232041  0.8303223073231022  0.5441634934167061   T   T   T
  0.6711153666427169  0.3260181355517456  0.5444719500834947   T   T   T
  0.8330547353113671  0.8295225311379587  0.5438182829200717   T   T   T
  0.8366398711142560  0.3307992375595478  0.5437527021326682   T   T   T
  0.8390666963212154  0.5827881618338808  0.5472653917593441   T   T   T
  0.8391716990787070  0.0839227547680838  0.5480578550400952   T   T   T
  0.9925459579855007  0.2626304903909819  0.5394642118081751   T   T   T
  0.9969938454879995  0.7659799783818408  0.5405146555763437   T   T   T
  0.1565957115701376  0.8337901022907469  0.5467717048921124   T   T   T
  0.1645983779721909  0.0812818962122203  0.5442132899514023   T   T   T
  0.1665275750943288  0.5801535045972946  0.5439316619188292   T   T   T
  0.1697587617061090  0.3339129053897564  0.5507769149765575   T   T   T
  0.3328543379143542  0.5800435150658225  0.5438003190697004   T   T   T
  0.3326515173965144  0.0793141517070481  0.5443118816679636   T   T   T
  0.3392976301071377  0.8335674099506399  0.5473453449790212   T   T   T
  0.3559107147476457  0.3319991567038760  0.5441793750270666   T   T   T
  0.4959685252467210  0.0157458005243003  0.5406396622858121   T   T   T
  0.4984216398966571  0.5160102583534217  0.5400277863927474   T   T   T
  0.5034530019735605  0.7648665134063010  0.5399927985237005   T   T   T
  0.5055363289049476  0.2682498160023084  0.5414008112079095   T   T   T
  0.0000000000000000  0.9999830748611132  0.1973415402473861   F   F   F
  0.0000000000000000  0.4999830748611132  0.1973415402473861   F   F   F
  0.0000000000000000  0.6250597900044994  0.1972695212469660   F   F   F
  0.0000000000000000  0.7499830750751997  0.1973415402473861   F   F   F
  0.0000000000000000  0.8750597902185859  0.1972695212469660   F   F   F
  0.0000000000000000  0.1250597900044994  0.1972695212469660   F   F   F
  0.0000000000000000  0.2499830750751997  0.1973415402473861   F   F   F
  0.0000000000000000  0.3750597902185859  0.1972695212469660   F   F   F
  0.0000939284634688  0.7502521797006328  0.3694345119797131   T   T   T
  0.0001045178657292  0.8745835707832600  0.3695620237323052   T   T   T
  0.0004730472434027  0.5001513013773571  0.3694322361939807   T   T   T
  0.0004314216348639  0.3745662973529686  0.3695973408726803   T   T   T
  0.9997091021827582  0.2501840351041338  0.3693071757531459   T   T   T
 -0.0001509290311123  0.1205508580359492  0.5442565929571290   T   T   T
  0.0047437249524035  0.3675720620242716  0.5448965833364748   T   T   T
  0.0016591024371186  0.6197210588412591  0.5444131051513311   T   T   T
  0.5817422317172104  0.1881434148947724  0.4530971206029308   T   T   T
  0.5824959423441172  0.4374754614066489  0.2839355729984092   F   F   F
  0.5824959423441172  0.6874754611925624  0.2839355729984092   F   F   F
  0.5824959423441172  0.9374754614066489  0.2839355729984092   F   F   F
  0.5824959423441172  0.1874754611925624  0.2839355729984092   F   F   F
  0.5827651808530874  0.5624885324787385  0.2838652796168972   F   F   F
  0.5827651808530874  0.0624885324787385  0.2838652796168972   F   F   F
  0.5827651808530874  0.8124885322646520  0.2838652796168972   F   F   F
  0.5827651808530874  0.3124885322646520  0.2838652796168972   F   F   F
  0.5831717484265113  0.6878524809705018  0.4528160679482724   T   T   T
  0.5832872354268267  0.9376546851729941  0.4529180409991387   T   T   T
  0.5843343080115020  0.4381326869007774  0.4532438545864318   T   T   T
  0.5849321040929024  0.3131142172378679  0.4550527838298513   T   T   T
  0.5849474544310226  0.0630712612746363  0.4558350639968001   T   T   T
  0.5854607072679879  0.8130156840875610  0.4550357141515919   T   T   T
  0.5860002945170365  0.5631402121077361  0.4560083377488752   T   T   T
  0.6648955405842657  0.2003043717917015  0.5420230327714690   T   T   T
  0.6659163253997278  0.5625456426731574  0.2025671506292426   F   F   F
  0.6659163253997278  0.0625456426731503  0.2025671506292426   F   F   F
  0.6659163253997278  0.8125456424590709  0.2025671506292426   F   F   F
  0.6659163253997278  0.3125456424590709  0.2025671506292426   F   F   F
  0.6659898017733283  0.4375125970341855  0.2025194438276969   F   F   F
  0.6659898017733283  0.6875125968200990  0.2025194438276969   F   F   F
  0.6659898017733283  0.9375125970341855  0.2025194438276969   F   F   F
  0.6659898017733283  0.1875125968200990  0.2025194438276969   F   F   F
  0.6663592066271885  0.7027791027071962  0.5422134672259538   T   T   T
  0.6673358934889823  0.9526188857183278  0.5420497667177371   T   T   T
  0.6675457083495844  0.0627345188869411  0.3682575247504716   T   T   T
  0.6675427934665782  0.1873918435732218  0.3683400734978495   T   T   T
  0.6677429668482254  0.3126510853900645  0.3680510760837769   T   T   T
  0.6677522069329300  0.9374637639617113  0.3682171506393058   T   T   T
  0.6678600960276293  0.8126037414211030  0.3679406441181838   T   T   T
  0.6680228013249526  0.5627007598149772  0.3681851205453590   T   T   T
  0.6679724006986743  0.6873251828047069  0.3682523954682960   T   T   T
  0.6682337021222243  0.4375085326848735  0.3681946332970860   T   T   T
  0.6736452658056375  0.4491629895681740  0.5407117329091499   T   T   T
  0.7494126626004465  0.1272228064949941  0.4574053251292908   T   T   T
  0.7495745153809601  0.2489722345888421  0.4540815937288278   T   T   T
  0.7497925550228619  0.9979303813601259  0.4541793847063084   T   T   T
  0.7501485275584506  0.3770268945694370  0.4561392337034872   T   T   T
  0.7499962708036038  0.8769554305406605  0.4560264967728878   T   T   T
  0.7500817509240993  0.7487087297717661  0.4537941682683501   T   T   T
  0.7499999997239044  0.0001643475558382  0.2779548773829816   F   F   F
  0.7499999997239044  0.5001643475558382  0.2779548773829816   F   F   F
  0.7499999997239044  0.6249264342623420  0.2780286426703711   F   F   F
  0.7499999997239044  0.7501643477699247  0.2779548773829816   F   F   F
  0.7499999997239044  0.8749264344764285  0.2780286426703711   F   F   F
  0.7499999997239044  0.1249264342623420  0.2780286426703711   F   F   F
  0.7499999997239044  0.2501643477699247  0.2779548773829816   F   F   F
  0.7499999997239044  0.3749264344764285  0.2780286426703711   F   F   F
  0.7502837023290048  0.6272541321471353  0.4571152822941612   T   T   T
  0.7508649649781856  0.4979629175708169  0.4543240351874689   T   T   T
  0.0824959423441172  0.4374754614066489  0.2839355729984092   F   F   F
  0.0824959423441172  0.6874754611925624  0.2839355729984092   F   F   F
  0.0824959423441172  0.9374754614066489  0.2839355729984092   F   F   F
  0.0824959423441172  0.1874754611925624  0.2839355729984092   F   F   F
  0.0827651808530874  0.5624885324787385  0.2838652796168972   F   F   F
  0.0827651808530874  0.0624885324787385  0.2838652796168972   F   F   F
  0.0827651808530874  0.8124885322646520  0.2838652796168972   F   F   F
  0.0827651808530874  0.3124885322646520  0.2838652796168972   F   F   F
  0.0829653675825313  0.9374955119558022  0.4528126913206050   T   T   T
  0.0829125771797315  0.1871591947251054  0.4525022941931354   T   T   T
  0.8319538562243515  0.1872309227132007  0.3682797817309619   T   T   T
  0.8310065302597555  0.2021951010387807  0.5423000464164311   T   T   T
  0.8320395210551714  0.9373921771570495  0.3682075354520380   T   T   T
  0.8320712563653974  0.0626231468611521  0.3681365803040644   T   T   T
  0.8321302229965147  0.3125475979225396  0.3680375862138015   T   T   T
  0.8322381858907792  0.8125322206252028  0.3679526607980709   T   T   T
  0.8324194765991555  0.6872331516297636  0.3682926983311132   T   T   T
  0.8325296305270197  0.4373649742358890  0.3682717688100278   T   T   T
  0.8326081013600144  0.5625638426111979  0.3682143306576112   T   T   T
  0.8336893914072108  0.9530948851562251  0.5420979865442832   T   T   T
  0.8330305790661493  0.7014298035549027  0.5419219846939540   T   T   T
  0.8340101684082839  0.4375125970341855  0.2025194438276969   F   F   F
  0.8340101684082839  0.6875125968200990  0.2025194438276969   F   F   F
  0.8340101684082839  0.9375125970341855  0.2025194438276969   F   F   F
  0.8340101684082839  0.1875125968200990  0.2025194438276969   F   F   F
  0.8340836447818845  0.5625456426731574  0.2025671506292426   F   F   F
  0.8340836447818845  0.0625456426731503  0.2025671506292426   F   F   F
  0.8340836447818845  0.8125456424590709  0.2025671506292426   F   F   F
  0.8340836447818845  0.3125456424590709  0.2025671506292426   F   F   F
  0.0835086244487469  0.6873102490763994  0.4529867339243297   T   T   T
  0.8384983024829553  0.4539576995528489  0.5422297677488260   T   T   T
  0.0842649223757429  0.4367735359203731  0.4534961465997443   T   T   T
  0.0850769098623117  0.0627026465177639  0.4549930909027681   T   T   T
  0.0851601625867575  0.3125684648663676  0.4551406725443847   T   T   T
  0.0854509127338894  0.8127537318798249  0.4558859934929623   T   T   T
  0.0858408915038221  0.5623600349784080  0.4552119807806932   T   T   T
  0.9142023520017173  0.0627412839634818  0.4557705335579857   T   T   T
  0.9146836249783604  0.8127265019195632  0.4550263991649445   T   T   T
  0.9146713430449315  0.3125346729915037  0.4551042399645658   T   T   T
  0.9152589753992364  0.5626807524302486  0.4557001326749814   T   T   T
  0.9164359336478273  0.9373608536225926  0.4528155138625741   T   T   T
  0.9161243728955217  0.1871801903414417  0.4529427667744966   T   T   T
  0.9170946548229179  0.6873634760417964  0.4530886116944225   T   T   T
  0.9177085518133780  0.4371576896030277  0.4527738787402075   T   T   T
  0.9172348191469126  0.5624885324787385  0.2838652796168972   F   F   F
  0.9172348191469126  0.0624885324787385  0.2838652796168972   F   F   F
  0.9172348191469126  0.8124885322646520  0.2838652796168972   F   F   F
  0.9172348191469126  0.3124885322646520  0.2838652796168972   F   F   F
  0.9175040576558828  0.4374754614066489  0.2839355729984092   F   F   F
  0.9175040576558828  0.6874754611925624  0.2839355729984092   F   F   F
  0.9175040576558828  0.9374754614066489  0.2839355729984092   F   F   F
  0.9175040576558828  0.1874754611925624  0.2839355729984092   F   F   F
  0.9967129394395369  0.8708524875433064  0.5441143765208505   T   T   T
  0.9995651809129202  0.1245498618634268  0.3695772204267120   T   T   T
  0.9998817821100278  0.0002547826896996  0.3693582770004561   T   T   T
  0.0000345923264331  0.6246023360119832  0.3696158883789589   T   T   T
  0.1606997553093928  0.2070985823417560  0.5427702042170773   T   T   T
  0.1659163253997278  0.5625456426731574  0.2025671506292426   F   F   F
  0.1659163253997278  0.0625456426731503  0.2025671506292426   F   F   F
  0.1659163253997278  0.8125456424590709  0.2025671506292426   F   F   F
  0.1659163253997278  0.3125456424590709  0.2025671506292426   F   F   F
  0.1659898017733283  0.4375125970341855  0.2025194438276969   F   F   F
  0.1659898017733283  0.6875125968200990  0.2025194438276969   F   F   F
  0.1659898017733283  0.9375125970341855  0.2025194438276969   F   F   F
  0.1659898017733283  0.1875125968200990  0.2025194438276969   F   F   F
  0.1672883045044875  0.9527524390274192  0.5420782432004593   T   T   T
  0.1673795547986678  0.7029800938237749  0.5423173319949280   T   T   T
  0.1677082185314404  0.8125839790958671  0.3682008869209569   T   T   T
  0.1677576761706730  0.0625334244235505  0.3679242779628824   T   T   T
  0.1677712644640461  0.3125805987923670  0.3680751929193265   T   T   T
  0.1678370146796921  0.5624943068764056  0.3680147625630871   T   T   T
  0.1678093064027276  0.9372408323284264  0.3682754378496443   T   T   T
  0.1678718955875075  0.4371901727457335  0.3682651395053260   T   T   T