Ta  N Cu                                
   1.00000000000000     
     9.0548154099999998    0.0000000000000000    0.0000000000000000
     0.0000000000000000   11.6775998899999998    0.0000000000000000
     0.0000000000000000    0.0000000000000000   23.4818170799999990
   Ta   N    Cu
    60    60     1
Selective dynamics
Direct
  0.0000000000000000  0.0000000000000000  0.2546926809530987   F   F   F
  0.6670845899906297  0.1250000003211298  0.2638822399803757   F   F   F
  0.3329153514769843  0.1250000003211298  0.2638822399803757   F   F   F
  0.4999999994478088  0.2499999997859135  0.3618861993156202   F   F   F
  0.1650707596845180  0.1250000003211298  0.3684425577811794   F   F   F
  0.8349292403154820  0.1250000003211298  0.3684425577811794   F   F   F
  0.0000062349009681  0.2499503984048114  0.4797861477836721   T   T   T
  0.6648870893856733  0.1249725496635058  0.4781800619896937   T   T   T
  0.3351366122282690  0.1249703271623677  0.4781770739912858   T   T   T
  0.5000324901632806  0.2500918582269924  0.5912628914450037   T   T   T
  0.1678559720245716  0.1249892719155711  0.5901016460640451   T   T   T
  0.8321966181436188  0.1249911725964640  0.5901092658960955   T   T   T
 -0.0000154148270238  0.2513039253284634  0.7017922807931367   T   T   T
  0.6713546620954616  0.1249570347326545  0.7044095638298354   T   T   T
  0.3287118254011399  0.1249656076517453  0.7043975916922172   T   T   T
  0.0000000000000000  0.2499999997859135  0.2546926809530987   F   F   F
  0.6670845899906297  0.3750000001070433  0.2638822399803757   F   F   F
  0.3329153514769843  0.3750000001070433  0.2638822399803757   F   F   F
  0.4999999994478088  0.5000000004281731  0.3618861993156202   F   F   F
  0.1650707596845180  0.3750000001070433  0.3684425577811794   F   F   F
  0.8349292403154820  0.3750000001070433  0.3684425577811794   F   F   F
  0.0000113850062690  0.4999945543332551  0.4798507367358413   T   T   T
  0.6644985949054828  0.3749912949467177  0.4781206565611672   T   T   T
  0.3355215548925041  0.3749910689856406  0.4781188317943790   T   T   T
  0.5000785332298164  0.4999966214040015  0.5920451109213026   T   T   T
  0.1689025191743996  0.3747401010358632  0.5897474122070886   T   T   T
  0.8311616717911253  0.3747334233318645  0.5897571132617114   T   T   T
  0.0001681147873057  0.4998829002480923  0.6962597617119054   T   T   T
  0.6710509334416874  0.3739974047766992  0.7051319722002705   T   T   T
  0.3287305595282480  0.3740770391846517  0.7051280486717161   T   T   T
  0.0000000000000000  0.5000000004281731  0.2546926809530987   F   F   F
  0.6670845899906297  0.6249999998929567  0.2638822399803757   F   F   F
  0.3329153514769843  0.6249999998929567  0.2638822399803757   F   F   F
  0.4999999994478088  0.7500000002140865  0.3618861993156202   F   F   F
  0.1650707596845180  0.6249999998929567  0.3684425577811794   F   F   F
  0.8349292403154820  0.6249999998929567  0.3684425577811794   F   F   F
  0.0000055739679541  0.7500526945033769  0.4797877352458942   T   T   T
  0.6645018555083432  0.6250043122131150  0.4781202862701676   T   T   T
  0.3355185014494809  0.6250041394507002  0.4781185619042708   T   T   T
  0.5000331394972890  0.7499217867175265  0.5912608975968467   T   T   T
  0.1689007174912121  0.6252542515171239  0.5897465490882525   T   T   T
  0.8311623646386408  0.6252652820179259  0.5897561319496404   T   T   T
 -0.0000183811238490  0.7485960727286057  0.7018076673310983   T   T   T
  0.6709762740592163  0.6260440633580389  0.7050958602691267   T   T   T
  0.3287946687570851  0.6259639858128186  0.7050958706702136   T   T   T
  0.0000000000000000  0.7500000002140865  0.2546926809530987   F   F   F
  0.6670845899906297  0.8750000005352163  0.2638822399803757   F   F   F
  0.3329153514769843  0.8750000005352163  0.2638822399803757   F   F   F
  0.4999999994478088  0.0000000000000000  0.3618861993156202   F   F   F
  0.1650707596845180  0.8750000005352163  0.3684425577811794   F   F   F
  0.8349292403154820  0.8750000005352163  0.3684425577811794   F   F   F
  0.0000061235879913  0.9999990092746248  0.4797851109062535   T   T   T
  0.6648842362565930  0.8750237114162536  0.4781811619475183   T   T   T
  0.3351340488940432  0.8750251712318389  0.4781797231246227   T   T   T
  0.5000170051255822  0.0000097654333018  0.5909882848640866   T   T   T
  0.1678556661607447  0.8750073094129093  0.5901038028394159   T   T   T
  0.8321960482178725  0.8750068111106583  0.5901110963366190   T   T   T
  0.0000118144902857  0.9999776011583202  0.7021167134338667   T   T   T
  0.6713625163994406  0.8750759944479218  0.7044121391588439   T   T   T
  0.3286948966647225  0.8750600109880361  0.7043997025152965   T   T   T
  0.8141011533980276  0.0000000000000000  0.3013105672926031   F   F   F
  0.4999999994478088  0.0000000000000000  0.2564174481620327   F   F   F
  0.1858988466019724  0.0000000000000000  0.3013105672926031   F   F   F
  0.3088456122590841  0.2499999997859135  0.4099867722441957   F   F   F
  0.0000000000000000  0.2499999997859135  0.3930971035158137   F   F   F
  0.6911543877409159  0.2499999997859135  0.4099867722441957   F   F   F
  0.8020672969383699  0.2498087531227637  0.5220982936046675   T   T   T
  0.5000128423163746  0.2499670176234388  0.5030917511654027   T   T   T
  0.1979560662631445  0.2498023197202775  0.5220927286773361   T   T   T
  0.3039574216904944  0.2500901861851751  0.6337498819349565   T   T   T
  0.0000235079993422  0.2497943833192481  0.6132794583262023   T   T   T
  0.6961037553205894  0.2500853679856245  0.6337573284320589   T   T   T
  0.8066194367142814  0.2504071392502850  0.7411413923727396   T   T   T
  0.5000048922482598  0.2514025203706999  0.7241423001166587   T   T   T
  0.1933756300792224  0.2503470807565118  0.7411290989223521   T   T   T
  0.8141011533980276  0.2499999997859135  0.3013105672926031   F   F   F
  0.4999999994478088  0.2499999997859135  0.2564174481620327   F   F   F
  0.1858988466019724  0.2499999997859135  0.3013105672926031   F   F   F
  0.3088456122590841  0.5000000004281731  0.4099867722441957   F   F   F
  0.0000000000000000  0.5000000004281731  0.3930971035158137   F   F   F
  0.6911543877409159  0.5000000004281731  0.4099867722441957   F   F   F
  0.8013098742901857  0.4999940124924268  0.5218245631601675   T   T   T
  0.5000198593645895  0.5000020804381485  0.5035684139488936   T   T   T
  0.1987225682088416  0.4999939601232393  0.5218126174154989   T   T   T
  0.3024977499978013  0.4999914373519604  0.6348643939842313   T   T   T
  0.0000491375084343  0.4999937158085750  0.6091569553205174   T   T   T
  0.6976277874871097  0.4999924246841640  0.6349165267815675   T   T   T
  0.8146464259781958  0.5001679582518104  0.7439900089564868   T   T   T
  0.4999080200355125  0.5000025571238480  0.7261954280098838   T   T   T
  0.1848907126472904  0.5001629117530547  0.7439287365243020   T   T   T
  0.8141011533980276  0.5000000004281731  0.3013105672926031   F   F   F
  0.4999999994478088  0.5000000004281731  0.2564174481620327   F   F   F
  0.1858988466019724  0.5000000004281731  0.3013105672926031   F   F   F
  0.3088456122590841  0.7500000002140865  0.4099867722441957   F   F   F
  0.0000000000000000  0.7500000002140865  0.3930971035158137   F   F   F
  0.6911543877409159  0.7500000002140865  0.4099867722441957   F   F   F
  0.8020696600429922  0.7501884468761699  0.5220990765768388   T   T   T
  0.5000115092794617  0.7500273136129594  0.5030914310117865   T   T   T
  0.1979537341073954  0.7501947508311785  0.5220931803923587   T   T   T
  0.3039512419478948  0.7499388265882273  0.6337472871510668   T   T   T
  0.0000230023305427  0.7501759486564283  0.6132937257888884   T   T   T
  0.6961080236929126  0.7499466788296824  0.6337545258974046   T   T   T
  0.8065994970915334  0.7495970250850873  0.7411444719423150   T   T   T
  0.5000014835021990  0.7486628366270552  0.7241492551771431   T   T   T
  0.1933915611783834  0.7496504757714721  0.7411326628064627   T   T   T
  0.8141011533980276  0.7500000002140865  0.3013105672926031   F   F   F
  0.4999999994478088  0.7500000002140865  0.2564174481620327   F   F   F
  0.1858988466019724  0.7500000002140865  0.3013105672926031   F   F   F
  0.3088456122590841  0.0000000000000000  0.4099867722441957   F   F   F
  0.0000000000000000  0.0000000000000000  0.3930971035158137   F   F   F
  0.6911543877409159  0.0000000000000000  0.4099867722441957   F   F   F
  0.8022702557935399  0.9999981693036313  0.5221790687947551   T   T   T
  0.5000077764912865  0.9999995890831602  0.5029557255085874   T   T   T
  0.1977457050421902  0.9999977675920324  0.5221736776012591   T   T   T
  0.3040065791381680  0.0000075747226298  0.6333915919571779   T   T   T
  0.0000319879922888  0.9999971095602838  0.6136312919835961   T   T   T
  0.6960422371607186  0.0000088638345793  0.6333968043710207   T   T   T
  0.8063734231366144  0.0000048581068782  0.7405963052937057   T   T   T
  0.5000283140711391  0.0000126626154991  0.7241989737403065   T   T   T
  0.1936739157859099  0.0000035558368731  0.7405751556945406   T   T   T
  0.9963960399821586  0.5021435721142498  0.7993839157811310   T   T   T
 
  0.00000000E+00  0.00000000E+00  0.00000000E+00
  0.00000000E+00  0.00000000E+00  0.00000000E+00
  0.00000000E+00  0.00000000E+00  0.00000000E+00
  0.00000000E+00  0.00000000E+00  0.00000000E+00
  0.00000000E+00  0.00000000E+00  0.00000000E+00
  0.00000000E+00  0.00000000E+00  0.00000000E+00
  0.00000000E+00  0.00000000E+00  0.00000000E+00
  0.00000000E+00  0.00000000E+00  0.00000000E+00
  0.00000000E+00  0.00000000E+00  0.00000000E+00
  0.00000000E+00  0.00000000E+00  0.00000000E+00
  0.00000000E+00  0.00000000E+00  0.00000000E+00
  0.00000000E+00  0.00000000E+00  0.00000000E+00
  0.00000000E+00  0.00000000E+00  0.00000000E+00
  0.00000000E+00  0.00000000E+00  0.00000000E+00
  0.00000000E+00  0.00000000E+00  0.00000000E+00
  0.00000000E+00  0.00000000E+00  0.00000000E+00
  0.00000000E+00  0.00000000E+00  0.00000000E+00
  0.00000000E+00  0.00000000E+00  0.00000000E+00
  0.00000000E+00  0.00000000E+00  0.00000000E+00
  0.00000000E+00  0.00000000E+00  0.00000000E+00
  0.00000000E+00  0.00000000E+00  0.00000000E+00
  0.00000000E+00  0.00000000E+00  0.00000000E+00
  0.00000000E+00  0.00000000E+00  0.00000000E+00
  0.00000000E+00  0.00000000E+00  0.00000000E+00
  0.00000000E+00  0.00000000E+00  0.00000000E+00
  0.00000000E+00  0.00000000E+00  0.00000000E+00
  0.00000000E+00  0.00000000E+00  0.00000000E+00
  0.00000000E+00  0.00000000E+00  0.00000000E+00
  0.00000000E+00  0.00000000E+00  0.00000000E+00
  0.00000000E+00  0.00000000E+00  0.00000000E+00
  0.00000000E+00  0.00000000E+00  0.00000000E+00
  0.00000000E+00  0.00000000E+00  0.00000000E+00
  0.00000000E+00  0.00000000E+00  0.00000000E+00
  0.00000000E+00  0.00000000E+00  0.00000000E+00
  0.00000000E+00  0.00000000E+00  0.00000000E+00
  0.00000000E+00  0.00000000E+00  0.00000000E+00
  0.00000000E+00  0.00000000E+00  0.00000000E+00
  0.00000000E+00  0.00000000E+00  0.00000000E+00
  0.00000000E+00  0.00000000E+00  0.00000000E+00
  0.00000000E+00  0.00000000E+00  0.00000000E+00
  0.00000000E+00  0.00000000E+00  0.00000000E+00
  0.00000000E+00  0.00000000E+00  0.00000000E+00
  0.00000000E+00  0.00000000E+00  0.00000000E+00
  0.00000000E+00  0.00000000E+00  0.00000000E+00
  0.00000000E+00  0.00000000E+00  0.00000000E+00
  0.00000000E+00  0.00000000E+00  0.00000000E+00
  0.00000000E+00  0.00000000E+00  0.00000000E+00
  0.00000000E+00  0.00000000E+00  0.00000000E+00
  0.00000000E+00  0.00000000E+00  0.00000000E+00
  0.00000000E+00  0.00000000E+00  0.00000000E+00
  0.00000000E+00  0.00000000E+00  0.00000000E+00
  0.00000000E+00  0.00000000E+00  0.00000000E+00
  0.00000000E+00  0.00000000E+00  0.00000000E+00
  0.00000000E+00  0.00000000E+00  0.00000000E+00
  0.00000000E+00  0.00000000E+00  0.00000000E+00
  0.00000000E+00  0.00000000E+00  0.00000000E+00
  0.00000000E+00  0.00000000E+00  0.00000000E+00
  0.00000000E+00  0.00000000E+00  0.00000000E+00
  0.00000000E+00  0.00000000E+00  0.00000000E+00
  0.00000000E+00  0.00000000E+00  0.00000000E+00
  0.00000000E+00  0.00000000E+00  0.00000000E+00
  0.00000000E+00  0.00000000E+00  0.00000000E+00
  0.00000000E+00  0.00000000E+00  0.00000000E+00
  0.00000000E+00  0.00000000E+00  0.00000000E+00
  0.00000000E+00  0.00000000E+00  0.00000000E+00
  0.00000000E+00  0.00000000E+00  0.00000000E+00
  0.00000000E+00  0.00000000E+00  0.00000000E+00
  0.00000000E+00  0.00000000E+00  0.00000000E+00
  0.00000000E+00  0.00000000E+00  0.00000000E+00
  0.00000000E+00  0.00000000E+00  0.00000000E+00
  0.00000000E+00  0.00000000E+00  0.00000000E+00
  0.00000000E+00  0.00000000E+00  0.00000000E+00
  0.00000000E+00  0.00000000E+00  0.00000000E+00
  0.00000000E+00  0.00000000E+00  0.00000000E+00
  0.00000000E+00  0.00000000E+00  0.00000000E+00
  0.00000000E+00  0.00000000E+00  0.00000000E+00
  0.00000000E+00  0.00000000E+00  0.00000000E+00
  0.00000000E+00  0.00000000E+00  0.00000000E+00
  0.00000000E+00  0.00000000E+00  0.00000000E+00
  0.00000000E+00  0.00000000E+00  0.00000000E+00
  0.00000000E+00  0.00000000E+00  0.00000000E+00
  0.00000000E+00  0.00000000E+00  0.00000000E+00
  0.00000000E+00  0.00000000E+00  0.00000000E+00
  0.00000000E+00  0.00000000E+00  0.00000000E+00
  0.00000000E+00  0.00000000E+00  0.00000000E+00
  0.00000000E+00  0.00000000E+00  0.00000000E+00
  0.00000000E+00  0.00000000E+00  0.00000000E+00
  0.00000000E+00  0.00000000E+00  0.00000000E+00
  0.00000000E+00  0.00000000E+00  0.00000000E+00
  0.00000000E+00  0.00000000E+00  0.00000000E+00
  0.00000000E+00  0.00000000E+00  0.00000000E+00
  0.00000000E+00  0.00000000E+00  0.00000000E+00
  0.00000000E+00  0.00000000E+00  0.00000000E+00
  0.00000000E+00  0.00000000E+00  0.00000000E+00
  0.00000000E+00  0.00000000E+00  0.00000000E+00
  0.00000000E+00  0.00000000E+00  0.00000000E+00
  0.00000000E+00  0.00000000E+00  0.00000000E+00
  0.00000000E+00  0.00000000E+00  0.00000000E+00
  0.00000000E+00  0.00000000E+00  0.00000000E+00
  0.00000000E+00  0.00000000E+00  0.00000000E+00
  0.00000000E+00  0.00000000E+00  0.00000000E+00
  0.00000000E+00  0.00000000E+00  0.00000000E+00
  0.00000000E+00  0.00000000E+00  0.00000000E+00
  0.00000000E+00  0.00000000E+00  0.00000000E+00
  0.00000000E+00  0.00000000E+00  0.00000000E+00
  0.00000000E+00  0.00000000E+00  0.00000000E+00
  0.00000000E+00  0.00000000E+00  0.00000000E+00
  0.00000000E+00  0.00000000E+00  0.00000000E+00
  0.00000000E+00  0.00000000E+00  0.00000000E+00
  0.00000000E+00  0.00000000E+00  0.00000000E+00
  0.00000000E+00  0.00000000E+00  0.00000000E+00
  0.00000000E+00  0.00000000E+00  0.00000000E+00
  0.00000000E+00  0.00000000E+00  0.00000000E+00
  0.00000000E+00  0.00000000E+00  0.00000000E+00
  0.00000000E+00  0.00000000E+00  0.00000000E+00
  0.00000000E+00  0.00000000E+00  0.00000000E+00
  0.00000000E+00  0.00000000E+00  0.00000000E+00
  0.00000000E+00  0.00000000E+00  0.00000000E+00
  0.00000000E+00  0.00000000E+00  0.00000000E+00
  0.00000000E+00  0.00000000E+00  0.00000000E+00
  0.00000000E+00  0.00000000E+00  0.00000000E+00
