Ta N W                                  
   1.00000000000000     
    18.1096308199999996    0.0000000000000000    0.0000000000000000
     0.0000000000000000   11.6775998899999998    0.0000000000000000
     0.0000000000000000    0.0000000000000000   23.4818170799999990
   Ta   N    W 
   119   120     1
Direct
 -0.0000000000000000  0.0000000000000000  0.2547570868033589
  0.3335320583453663  0.1249791883118198  0.2637732774459859
  0.1665218252308839  0.1250277174103776  0.2637497091333526
  0.2500339440672441  0.2499532620760175  0.3613405549099228
  0.0825792391410516  0.1249639491304723  0.3683912926003894
  0.4174385774509685  0.1250085982546570  0.3684474966552989
 -0.0000000000000000  0.2500394475615371  0.4797706338953267
  0.3324507701570505  0.1250000958758544  0.4782011114512036
  0.1675914382284636  0.1250249194718512  0.4781240372322266
  0.2500868032027820  0.2501448185196691  0.5907926453977195
  0.0836233927964899  0.1251023675603153  0.5898919490793526
  0.4163933049226784  0.1250944748187025  0.5899390021342023
 -0.0000000000000000  0.2498840023315289  0.7024068591753171
  0.3356885498625247  0.1250820062074360  0.7044074665039882
  0.1651396837300703  0.1247749494309630  0.7040898366875842
 -0.0000000000000000  0.2498816383878132  0.2546628998197616
  0.3334558791353729  0.3749611325219751  0.2637411183460758
  0.1665509103671565  0.3750278769858711  0.2637811588436580
  0.2500161777487422  0.5000000004281731  0.3612973806074349
  0.0824832574973863  0.3749577689461321  0.3683019139015865
  0.4173782254159316  0.3749907573344805  0.3684118809886855
 -0.0000000000000000  0.5000000004281731  0.4797691533468291
  0.3324144775835376  0.3749703695154333  0.4781967753731883
  0.1675862101276198  0.3749866755068974  0.4779615515043844
  0.2500240037642740  0.5000000004281731  0.5906010396780422
  0.0836899399632600  0.3750868923627427  0.5898777086610406
  0.4163495369922356  0.3750101302906377  0.5895243371291989
 -0.0000000000000000  0.5000000004281731  0.7025227813042065
  0.3350597375834967  0.3743984875873990  0.7036677767822307
  0.1652276788100069  0.3748256239917868  0.7043623964990217
 -0.0000000000000000  0.5000000004281731  0.2545766902749800
  0.3334558791353729  0.6250388674780251  0.2637411183460758
  0.1665509103671565  0.6249721230141286  0.2637811588436580
  0.2500339440672441  0.7500467379239826  0.3613405549099228
  0.0824832574973863  0.6250422310538681  0.3683019139015865
  0.4173782254159316  0.6250092426655196  0.3684118809886855
 -0.0000000000000000  0.7499605524384632  0.4797706338953267
  0.3324144775835376  0.6250296304845668  0.4781967753731883
  0.1675862101276198  0.6250133244931025  0.4779615515043844
  0.2500868032027820  0.7498551814803309  0.5907926453977195
  0.0836899399632600  0.6249131076372570  0.5898777086610406
  0.4163495369922356  0.6249898697093627  0.5895243371291989
 -0.0000000000000000  0.7501159976684709  0.7024068591753171
  0.3350597375834967  0.6256015124126011  0.7036677767822307
  0.1652276788100069  0.6251743760082131  0.7043623964990217
 -0.0000000000000000  0.7501183616121866  0.2546628998197616
  0.3335320583453663  0.8750208125445263  0.2637732774459859
  0.1665218252308839  0.8749722834459684  0.2637497091333526
  0.2500559079680484  0.0000000000000000  0.3613831108749274
  0.0825792391410516  0.8750360517258740  0.3683912926003894
  0.4174385774509685  0.8749914026016891  0.3684474966552989
 -0.0000000000000000  0.0000000000000000  0.4797905229082088
  0.3324507701570505  0.8749999049804916  0.4782011114512036
  0.1675914382284636  0.8749750813844948  0.4781240372322266
  0.2502792280998343  0.0000000000000000  0.5908647594494078
  0.0836233927964899  0.8748976332960310  0.5898919490793526
  0.4163933049226784  0.8749055260376436  0.5899390021342023
 -0.0000000000000000  0.0000000000000000  0.7023213081397195
  0.3356885498625247  0.8749179946489102  0.7044074665039882
  0.1651396837300703  0.8752250514253831  0.7040898366875842
  0.5000000000000000  0.0000000000000000  0.2547953799347012
  0.8334781455029194  0.1250277174103776  0.2637497091333526
  0.6664679123884375  0.1249791883118198  0.2637732774459859
  0.7499660553805646  0.2499532620760175  0.3613405549099228
  0.5825614225490316  0.1250085982546570  0.3684474966552989
  0.9174207608589482  0.1249639491304723  0.3683912926003894
  0.5000000000000000  0.2499801730823060  0.4797661348126553
  0.8324085325053397  0.1250249194718512  0.4781240372322266
  0.6675492005767529  0.1250000958758544  0.4782011114512036
  0.7499131962450268  0.2501448185196691  0.5907926453977195
  0.5836066945251305  0.1250944748187025  0.5899390021342023
  0.9163766066513191  0.1251023675603153  0.5898919490793526
  0.5000000000000000  0.2543321660447336  0.7024442050769040
  0.8348602864515421  0.1247749494309630  0.7040898366875842
  0.6643114208712787  0.1250820062074360  0.7044074665039882
  0.5000000000000000  0.2500536082985548  0.2548058375380490
  0.8334490603666471  0.3750278769858711  0.2637811588436580
  0.6665440915984303  0.3749611325219751  0.2637411183460758
  0.7499838216990666  0.5000000004281731  0.3612973806074349
  0.5826217745840683  0.3749907573344805  0.3684118809886855
  0.9175167425026136  0.3749577689461321  0.3683019139015865
  0.5000000000000000  0.5000000004281731  0.4795548532727230
  0.8324137606061838  0.3749866755068974  0.4779615515043844
  0.6675854931502658  0.3749703695154333  0.4781967753731883
  0.7499759956835351  0.5000000004281731  0.5906010396780422
  0.5836504624555731  0.3750101302906377  0.5895243371291989
  0.9163100594845489  0.3750868923627427  0.5898777086610406
  0.8347722913716054  0.3748256239917868  0.7043623964990217
  0.6649402331503065  0.3743984875873990  0.7036677767822307
  0.5000000000000000  0.5000000004281731  0.2548261033834183
  0.8334490603666471  0.6249721230141286  0.2637811588436580
  0.6665440915984303  0.6250388674780251  0.2637411183460758
  0.7499660553805646  0.7500467379239826  0.3613405549099228
  0.5826217745840683  0.6250092426655196  0.3684118809886855
  0.9175167425026136  0.6250422310538681  0.3683019139015865
  0.5000000000000000  0.7500198269176942  0.4797661348126553
  0.8324137606061838  0.6250133244931025  0.4779615515043844
  0.6675854931502658  0.6250296304845668  0.4781967753731883
  0.7499131962450268  0.7498551814803309  0.5907926453977195
  0.5836504624555731  0.6249898697093627  0.5895243371291989
  0.9163100594845489  0.6249131076372570  0.5898777086610406
  0.5000000000000000  0.7456678339552664  0.7024442050769040
  0.8347722913716054  0.6251743760082131  0.7043623964990217
  0.6649402331503065  0.6256015124126011  0.7036677767822307
  0.5000000000000000  0.7499463917014451  0.2548058375380490
  0.8334781455029194  0.8749722834459684  0.2637497091333526
  0.6664679123884375  0.8750208125445263  0.2637732774459859
  0.7499440914797604  0.0000000000000000  0.3613831108749274
  0.5825614225490316  0.8749914026016891  0.3684474966552989
  0.9174207608589482  0.8750360517258740  0.3683912926003894
  0.5000000000000000  0.0000000000000000  0.4798971435193070
  0.8324085325053397  0.8749750813844948  0.4781240372322266
  0.6675492005767529  0.8749999049804916  0.4782011114512036
  0.7497207713479744  0.0000000000000000  0.5908647594494078
  0.5836066945251305  0.8749055260376436  0.5899390021342023
  0.9163766066513191  0.8748976332960310  0.5898919490793526
  0.5000000000000000  0.0000000000000000  0.7025321943796434
  0.8348602864515421  0.8752250514253831  0.7040898366875842
  0.6643114208712787  0.8749179946489102  0.7044074665039882
  0.4068658647035470  0.0000000000000000  0.3012175125389645
  0.2500084237972443  0.0000000000000000  0.2576507058315886
  0.0931557276215764  0.0000000000000000  0.3011417756172109
  0.1544559840588009  0.2499715600928163  0.4098651713037709
 -0.0000000000000000  0.2499471935425629  0.3930723463371675
  0.3455549018298324  0.2499616687876870  0.4099523180365471
  0.4009735243849514  0.2498852745903766  0.5220679202238947
  0.2499144477420771  0.2499941080097133  0.5027874203913587
  0.0989800517280802  0.2501596157523289  0.5220446298747126
  0.1518160296884284  0.2502109767372381  0.6331578774243637
 -0.0000000000000000  0.2502526834651773  0.6135361420776716
  0.3485394545728175  0.2502594801598945  0.6332694324701039
  0.4030156768782563  0.2512413058837381  0.7405617673210483
  0.2504244547073747  0.2502939325216086  0.7236087644253790
  0.0971937179532509  0.2500899002637683  0.7402109778381778
  0.4068373943643082  0.2499924596088521  0.3011824232700274
  0.2500196239312534  0.2499647979303950  0.2576006738795892
  0.0930990723454517  0.2499330882554815  0.3011283202465992
  0.1544356488844506  0.5000000004281731  0.4098365968876080
 -0.0000000000000000  0.5000000004281731  0.3930762226245342
  0.3455081969463168  0.5000000004281731  0.4098902257300074
  0.4009347373013962  0.5000000004281731  0.5218270470984924
  0.2498830151227650  0.5000000004281731  0.5026335362501861
  0.0989886148870664  0.5000000004281731  0.5220273979159908
  0.1519426318719441  0.5000000004281731  0.6332469854831233
 -0.0000000000000000  0.5000000004281731  0.6136480681790067
  0.3483346873602544  0.5000000004281731  0.6330799594058526
  0.4075695454987491  0.5000000004281731  0.7391315987769672
  0.2512428607052427  0.5000000004281731  0.7243333528673506
  0.0972368067293842  0.5000000004281731  0.7402929272720230
  0.4068038005441645  0.5000000004281731  0.3011482358472535
  0.2500323918163329  0.5000000004281731  0.2575415263062234
  0.0930452503931640  0.5000000004281731  0.3011022244324884
  0.1544559840588009  0.7500284399071838  0.4098651713037709
 -0.0000000000000000  0.7500528064574371  0.3930723463371675
  0.3455549018298324  0.7500383312123129  0.4099523180365471
  0.4009735243849514  0.7501147254096234  0.5220679202238947
  0.2499144477420771  0.7500058919902867  0.5027874203913587
  0.0989800517280802  0.7498403842476715  0.5220446298747126
  0.1518160296884284  0.7497890232627619  0.6331578774243637
 -0.0000000000000000  0.7497473165348227  0.6135361420776716
  0.3485394545728175  0.7497405198401058  0.6332694324701039
  0.4030156768782563  0.7487586941162621  0.7405617673210483
  0.2504244547073747  0.7497060674783915  0.7236087644253790
  0.0971937179532509  0.7499100997362317  0.7402109778381778
  0.4068373943643082  0.7500075403911480  0.3011824232700274
  0.2500196239312534  0.7500352020696049  0.2576006738795892
  0.0930990723454517  0.7500669117445183  0.3011283202465992
  0.1544733896564481  0.0000000000000000  0.4098805220296389
 -0.0000000000000000  0.0000000000000000  0.3931000622456208
  0.3455633968860288  0.0000000000000000  0.4099915364180976
  0.4010201101850884  0.0000000000000000  0.5221433384093134
  0.2500404618177799  0.0000000000000000  0.5028311649401379
  0.0990457565447222  0.0000000000000000  0.5220656222808248
  0.1518846998829883  0.0000000000000000  0.6331448548803517
 -0.0000000000000000  0.0000000000000000  0.6134386438786474
  0.3485652907790341  0.0000000000000000  0.6333402712201853
  0.4033785119140823  0.0000000000000000  0.7407123943723348
  0.2503319973468359  0.0000000000000000  0.7238603213923863
  0.0971252121908081  0.0000000000000000  0.7402010452480910
  0.9068442723784235  0.0000000000000000  0.3011417756172109
  0.7499915756505645  0.0000000000000000  0.2576507058315886
  0.5931341352964529  0.0000000000000000  0.3012175125389645
  0.6544450981701675  0.2499616687876870  0.4099523180365471
  0.5000000000000000  0.2500204588654011  0.3930924626897624
  0.8455440159411993  0.2499715600928163  0.4098651713037709
  0.9010199482719198  0.2501596157523289  0.5220446298747126
  0.7500855517057320  0.2499941080097133  0.5027874203913587
  0.5990264750628502  0.2498852745903766  0.5220679202238947
  0.6514605454271823  0.2502594801598945  0.6332694324701039
  0.5000000000000000  0.2508922568700517  0.6136466052493895
  0.8481839703115713  0.2502109767372381  0.6331578774243637
  0.9028062820467491  0.2500899002637683  0.7402109778381778
  0.7495755447404342  0.2502939325216086  0.7236087644253790
  0.5969843231217438  0.2512413058837381  0.7405617673210483
  0.9069009276545482  0.2499330882554815  0.3011283202465992
  0.7499803755165554  0.2499647979303950  0.2576006738795892
  0.5931626056356921  0.2499924596088521  0.3011824232700274
  0.6544918030536832  0.5000000004281731  0.4098902257300074
  0.5000000000000000  0.5000000004281731  0.3929680276051083
  0.8455643511155495  0.5000000004281731  0.4098365968876080
  0.9010113851129337  0.5000000004281731  0.5220273979159908
  0.7501169843250437  0.5000000004281731  0.5026335362501861
  0.5990652621464055  0.5000000004281731  0.5218270470984924
  0.6516653126397457  0.5000000004281731  0.6330799594058526
  0.5000000000000000  0.5000000004281731  0.6126042136728743
  0.8480573681280560  0.5000000004281731  0.6332469854831233
  0.9027631932706156  0.5000000004281731  0.7402929272720230
  0.7487571387425662  0.5000000004281731  0.7243333528673506
  0.5924304545012509  0.5000000004281731  0.7391315987769672
  0.9069547496068360  0.5000000004281731  0.3011022244324884
  0.7499676076314761  0.5000000004281731  0.2575415263062234
  0.5931961994558353  0.5000000004281731  0.3011482358472535
  0.6544450981701675  0.7500383312123129  0.4099523180365471
  0.5000000000000000  0.7499795411345992  0.3930924626897624
  0.8455440159411993  0.7500284399071838  0.4098651713037709
  0.9010199482719198  0.7498403842476715  0.5220446298747126
  0.7500855517057320  0.7500058919902867  0.5027874203913587
  0.5990264750628502  0.7501147254096234  0.5220679202238947
  0.6514605454271823  0.7497405198401058  0.6332694324701039
  0.5000000000000000  0.7491077431299485  0.6136466052493895
  0.8481839703115713  0.7497890232627619  0.6331578774243637
  0.9028062820467491  0.7499100997362317  0.7402109778381778
  0.7495755447404342  0.7497060674783915  0.7236087644253790
  0.5969843231217438  0.7487586941162621  0.7405617673210483
  0.9069009276545482  0.7500669117445183  0.3011283202465992
  0.7499803755165554  0.7500352020696049  0.2576006738795892
  0.5931626056356921  0.7500075403911480  0.3011824232700274
  0.6544366031139714  0.0000000000000000  0.4099915364180976
  0.5000000000000000  0.0000000000000000  0.3931822465376478
  0.8455266103435518  0.0000000000000000  0.4098805220296389
  0.9009542434552779  0.0000000000000000  0.5220656222808248
  0.7499595376300291  0.0000000000000000  0.5028311649401379
  0.5989798892627133  0.0000000000000000  0.5221433384093134
  0.6514347092209659  0.0000000000000000  0.6333402712201853
  0.5000000000000000  0.0000000000000000  0.6136969883299119
  0.8481153001170119  0.0000000000000000  0.6331448548803517
  0.9028747878091918  0.0000000000000000  0.7402010452480910
  0.7496680021009728  0.0000000000000000  0.7238603213923863
  0.5966214880859175  0.0000000000000000  0.7407123943723348
  0.5000000000000000  0.5000000004281731  0.7003665866486479
 
  0.00000000E+00  0.00000000E+00  0.00000000E+00
  0.00000000E+00  0.00000000E+00  0.00000000E+00
  0.00000000E+00  0.00000000E+00  0.00000000E+00
  0.00000000E+00  0.00000000E+00  0.00000000E+00
  0.00000000E+00  0.00000000E+00  0.00000000E+00
  0.00000000E+00  0.00000000E+00  0.00000000E+00
  0.00000000E+00  0.00000000E+00  0.00000000E+00
  0.00000000E+00  0.00000000E+00  0.00000000E+00
  0.00000000E+00  0.00000000E+00  0.00000000E+00
  0.00000000E+00  0.00000000E+00  0.00000000E+00
  0.00000000E+00  0.00000000E+00  0.00000000E+00
  0.00000000E+00  0.00000000E+00  0.00000000E+00
  0.00000000E+00  0.00000000E+00  0.00000000E+00
  0.00000000E+00  0.00000000E+00  0.00000000E+00
  0.00000000E+00  0.00000000E+00  0.00000000E+00
  0.00000000E+00  0.00000000E+00  0.00000000E+00
  0.00000000E+00  0.00000000E+00  0.00000000E+00
  0.00000000E+00  0.00000000E+00  0.00000000E+00
  0.00000000E+00  0.00000000E+00  0.00000000E+00
  0.00000000E+00  0.00000000E+00  0.00000000E+00
  0.00000000E+00  0.00000000E+00  0.00000000E+00
  0.00000000E+00  0.00000000E+00  0.00000000E+00
  0.00000000E+00  0.00000000E+00  0.00000000E+00
  0.00000000E+00  0.00000000E+00  0.00000000E+00
  0.00000000E+00  0.00000000E+00  0.00000000E+00
  0.00000000E+00  0.00000000E+00  0.00000000E+00
  0.00000000E+00  0.00000000E+00  0.00000000E+00
  0.00000000E+00  0.00000000E+00  0.00000000E+00
  0.00000000E+00  0.00000000E+00  0.00000000E+00
  0.00000000E+00  0.00000000E+00  0.00000000E+00
  0.00000000E+00  0.00000000E+00  0.00000000E+00
  0.00000000E+00  0.00000000E+00  0.00000000E+00
  0.00000000E+00  0.00000000E+00  0.00000000E+00
  0.00000000E+00  0.00000000E+00  0.00000000E+00
  0.00000000E+00  0.00000000E+00  0.00000000E+00
  0.00000000E+00  0.00000000E+00  0.00000000E+00
  0.00000000E+00  0.00000000E+00  0.00000000E+00
  0.00000000E+00  0.00000000E+00  0.00000000E+00
  0.00000000E+00  0.00000000E+00  0.00000000E+00
  0.00000000E+00  0.00000000E+00  0.00000000E+00
  0.00000000E+00  0.00000000E+00  0.00000000E+00
  0.00000000E+00  0.00000000E+00  0.00000000E+00
  0.00000000E+00  0.00000000E+00  0.00000000E+00
  0.00000000E+00  0.00000000E+00  0.00000000E+00
  0.00000000E+00  0.00000000E+00  0.00000000E+00
  0.00000000E+00  0.00000000E+00  0.00000000E+00
  0.00000000E+00  0.00000000E+00  0.00000000E+00
  0.00000000E+00  0.00000000E+00  0.00000000E+00
  0.00000000E+00  0.00000000E+00  0.00000000E+00
  0.00000000E+00  0.00000000E+00  0.00000000E+00
  0.00000000E+00  0.00000000E+00  0.00000000E+00
  0.00000000E+00  0.00000000E+00  0.00000000E+00
  0.00000000E+00  0.00000000E+00  0.00000000E+00
  0.00000000E+00  0.00000000E+00  0.00000000E+00
  0.00000000E+00  0.00000000E+00  0.00000000E+00
  0.00000000E+00  0.00000000E+00  0.00000000E+00
  0.00000000E+00  0.00000000E+00  0.00000000E+00
  0.00000000E+00  0.00000000E+00  0.00000000E+00
  0.00000000E+00  0.00000000E+00  0.00000000E+00
  0.00000000E+00  0.00000000E+00  0.00000000E+00
  0.00000000E+00  0.00000000E+00  0.00000000E+00
  0.00000000E+00  0.00000000E+00  0.00000000E+00
  0.00000000E+00  0.00000000E+00  0.00000000E+00
  0.00000000E+00  0.00000000E+00  0.00000000E+00
  0.00000000E+00  0.00000000E+00  0.00000000E+00
  0.00000000E+00  0.00000000E+00  0.00000000E+00
  0.00000000E+00  0.00000000E+00  0.00000000E+00
  0.00000000E+00  0.00000000E+00  0.00000000E+00
  0.00000000E+00  0.00000000E+00  0.00000000E+00
  0.00000000E+00  0.00000000E+00  0.00000000E+00
  0.00000000E+00  0.00000000E+00  0.00000000E+00
  0.00000000E+00  0.00000000E+00  0.00000000E+00
  0.00000000E+00  0.00000000E+00  0.00000000E+00
  0.00000000E+00  0.00000000E+00  0.00000000E+00
  0.00000000E+00  0.00000000E+00  0.00000000E+00
  0.00000000E+00  0.00000000E+00  0.00000000E+00
  0.00000000E+00  0.00000000E+00  0.00000000E+00
  0.00000000E+00  0.00000000E+00  0.00000000E+00
  0.00000000E+00  0.00000000E+00  0.00000000E+00
  0.00000000E+00  0.00000000E+00  0.00000000E+00
  0.00000000E+00  0.00000000E+00  0.00000000E+00
  0.00000000E+00  0.00000000E+00  0.00000000E+00
  0.00000000E+00  0.00000000E+00  0.00000000E+00
  0.00000000E+00  0.00000000E+00  0.00000000E+00
  0.00000000E+00  0.00000000E+00  0.00000000E+00
  0.00000000E+00  0.00000000E+00  0.00000000E+00
  0.00000000E+00  0.00000000E+00  0.00000000E+00
  0.00000000E+00  0.00000000E+00  0.00000000E+00
  0.00000000E+00  0.00000000E+00  0.00000000E+00
  0.00000000E+00  0.00000000E+00  0.00000000E+00
  0.00000000E+00  0.00000000E+00  0.00000000E+00
  0.00000000E+00  0.00000000E+00  0.00000000E+00
  0.00000000E+00  0.00000000E+00  0.00000000E+00
  0.00000000E+00  0.00000000E+00  0.00000000E+00
  0.00000000E+00  0.00000000E+00  0.00000000E+00
  0.00000000E+00  0.00000000E+00  0.00000000E+00
  0.00000000E+00  0.00000000E+00  0.00000000E+00
  0.00000000E+00  0.00000000E+00  0.00000000E+00
  0.00000000E+00  0.00000000E+00  0.00000000E+00
  0.00000000E+00  0.00000000E+00  0.00000000E+00
  0.00000000E+00  0.00000000E+00  0.00000000E+00
  0.00000000E+00  0.00000000E+00  0.00000000E+00
  0.00000000E+00  0.00000000E+00  0.00000000E+00
  0.00000000E+00  0.00000000E+00  0.00000000E+00
  0.00000000E+00  0.00000000E+00  0.00000000E+00
  0.00000000E+00  0.00000000E+00  0.00000000E+00
  0.00000000E+00  0.00000000E+00  0.00000000E+00
  0.00000000E+00  0.00000000E+00  0.00000000E+00
  0.00000000E+00  0.00000000E+00  0.00000000E+00
  0.00000000E+00  0.00000000E+00  0.00000000E+00
  0.00000000E+00  0.00000000E+00  0.00000000E+00
  0.00000000E+00  0.00000000E+00  0.00000000E+00
  0.00000000E+00  0.00000000E+00  0.00000000E+00
  0.00000000E+00  0.00000000E+00  0.00000000E+00
  0.00000000E+00  0.00000000E+00  0.00000000E+00
  0.00000000E+00  0.00000000E+00  0.00000000E+00
  0.00000000E+00  0.00000000E+00  0.00000000E+00
  0.00000000E+00  0.00000000E+00  0.00000000E+00
  0.00000000E+00  0.00000000E+00  0.00000000E+00
  0.00000000E+00  0.00000000E+00  0.00000000E+00
  0.00000000E+00  0.00000000E+00  0.00000000E+00
  0.00000000E+00  0.00000000E+00  0.00000000E+00
  0.00000000E+00  0.00000000E+00  0.00000000E+00
  0.00000000E+00  0.00000000E+00  0.00000000E+00
  0.00000000E+00  0.00000000E+00  0.00000000E+00
  0.00000000E+00  0.00000000E+00  0.00000000E+00
  0.00000000E+00  0.00000000E+00  0.00000000E+00
  0.00000000E+00  0.00000000E+00  0.00000000E+00
  0.00000000E+00  0.00000000E+00  0.00000000E+00
  0.00000000E+00  0.00000000E+00  0.00000000E+00
  0.00000000E+00  0.00000000E+00  0.00000000E+00
  0.00000000E+00  0.00000000E+00  0.00000000E+00
  0.00000000E+00  0.00000000E+00  0.00000000E+00
  0.00000000E+00  0.00000000E+00  0.00000000E+00
  0.00000000E+00  0.00000000E+00  0.00000000E+00
  0.00000000E+00  0.00000000E+00  0.00000000E+00
  0.00000000E+00  0.00000000E+00  0.00000000E+00
  0.00000000E+00  0.00000000E+00  0.00000000E+00
  0.00000000E+00  0.00000000E+00  0.00000000E+00
  0.00000000E+00  0.00000000E+00  0.00000000E+00
  0.00000000E+00  0.00000000E+00  0.00000000E+00
  0.00000000E+00  0.00000000E+00  0.00000000E+00
  0.00000000E+00  0.00000000E+00  0.00000000E+00
  0.00000000E+00  0.00000000E+00  0.00000000E+00
  0.00000000E+00  0.00000000E+00  0.00000000E+00
  0.00000000E+00  0.00000000E+00  0.00000000E+00
  0.00000000E+00  0.00000000E+00  0.00000000E+00
  0.00000000E+00  0.00000000E+00  0.00000000E+00
  0.00000000E+00  0.00000000E+00  0.00000000E+00
  0.00000000E+00  0.00000000E+00  0.00000000E+00
  0.00000000E+00  0.00000000E+00  0.00000000E+00
  0.00000000E+00  0.00000000E+00  0.00000000E+00
  0.00000000E+00  0.00000000E+00  0.00000000E+00
  0.00000000E+00  0.00000000E+00  0.00000000E+00
  0.00000000E+00  0.00000000E+00  0.00000000E+00
  0.00000000E+00  0.00000000E+00  0.00000000E+00
  0.00000000E+00  0.00000000E+00  0.00000000E+00
  0.00000000E+00  0.00000000E+00  0.00000000E+00
  0.00000000E+00  0.00000000E+00  0.00000000E+00
  0.00000000E+00  0.00000000E+00  0.00000000E+00
  0.00000000E+00  0.00000000E+00  0.00000000E+00
  0.00000000E+00  0.00000000E+00  0.00000000E+00
  0.00000000E+00  0.00000000E+00  0.00000000E+00
  0.00000000E+00  0.00000000E+00  0.00000000E+00
  0.00000000E+00  0.00000000E+00  0.00000000E+00
  0.00000000E+00  0.00000000E+00  0.00000000E+00
  0.00000000E+00  0.00000000E+00  0.00000000E+00
  0.00000000E+00  0.00000000E+00  0.00000000E+00
  0.00000000E+00  0.00000000E+00  0.00000000E+00
  0.00000000E+00  0.00000000E+00  0.00000000E+00
  0.00000000E+00  0.00000000E+00  0.00000000E+00
  0.00000000E+00  0.00000000E+00  0.00000000E+00
  0.00000000E+00  0.00000000E+00  0.00000000E+00
  0.00000000E+00  0.00000000E+00  0.00000000E+00
  0.00000000E+00  0.00000000E+00  0.00000000E+00
  0.00000000E+00  0.00000000E+00  0.00000000E+00
  0.00000000E+00  0.00000000E+00  0.00000000E+00
  0.00000000E+00  0.00000000E+00  0.00000000E+00
  0.00000000E+00  0.00000000E+00  0.00000000E+00
  0.00000000E+00  0.00000000E+00  0.00000000E+00
  0.00000000E+00  0.00000000E+00  0.00000000E+00
  0.00000000E+00  0.00000000E+00  0.00000000E+00
  0.00000000E+00  0.00000000E+00  0.00000000E+00
  0.00000000E+00  0.00000000E+00  0.00000000E+00
  0.00000000E+00  0.00000000E+00  0.00000000E+00
  0.00000000E+00  0.00000000E+00  0.00000000E+00
  0.00000000E+00  0.00000000E+00  0.00000000E+00
  0.00000000E+00  0.00000000E+00  0.00000000E+00
  0.00000000E+00  0.00000000E+00  0.00000000E+00
  0.00000000E+00  0.00000000E+00  0.00000000E+00
  0.00000000E+00  0.00000000E+00  0.00000000E+00
  0.00000000E+00  0.00000000E+00  0.00000000E+00
  0.00000000E+00  0.00000000E+00  0.00000000E+00
  0.00000000E+00  0.00000000E+00  0.00000000E+00
  0.00000000E+00  0.00000000E+00  0.00000000E+00
  0.00000000E+00  0.00000000E+00  0.00000000E+00
  0.00000000E+00  0.00000000E+00  0.00000000E+00
  0.00000000E+00  0.00000000E+00  0.00000000E+00
  0.00000000E+00  0.00000000E+00  0.00000000E+00
  0.00000000E+00  0.00000000E+00  0.00000000E+00
  0.00000000E+00  0.00000000E+00  0.00000000E+00
  0.00000000E+00  0.00000000E+00  0.00000000E+00
  0.00000000E+00  0.00000000E+00  0.00000000E+00
  0.00000000E+00  0.00000000E+00  0.00000000E+00
  0.00000000E+00  0.00000000E+00  0.00000000E+00
  0.00000000E+00  0.00000000E+00  0.00000000E+00
  0.00000000E+00  0.00000000E+00  0.00000000E+00
  0.00000000E+00  0.00000000E+00  0.00000000E+00
  0.00000000E+00  0.00000000E+00  0.00000000E+00
  0.00000000E+00  0.00000000E+00  0.00000000E+00
  0.00000000E+00  0.00000000E+00  0.00000000E+00
  0.00000000E+00  0.00000000E+00  0.00000000E+00
  0.00000000E+00  0.00000000E+00  0.00000000E+00
  0.00000000E+00  0.00000000E+00  0.00000000E+00
  0.00000000E+00  0.00000000E+00  0.00000000E+00
  0.00000000E+00  0.00000000E+00  0.00000000E+00
  0.00000000E+00  0.00000000E+00  0.00000000E+00
  0.00000000E+00  0.00000000E+00  0.00000000E+00
  0.00000000E+00  0.00000000E+00  0.00000000E+00
  0.00000000E+00  0.00000000E+00  0.00000000E+00
  0.00000000E+00  0.00000000E+00  0.00000000E+00
  0.00000000E+00  0.00000000E+00  0.00000000E+00
  0.00000000E+00  0.00000000E+00  0.00000000E+00
  0.00000000E+00  0.00000000E+00  0.00000000E+00
  0.00000000E+00  0.00000000E+00  0.00000000E+00
  0.00000000E+00  0.00000000E+00  0.00000000E+00
  0.00000000E+00  0.00000000E+00  0.00000000E+00
  0.00000000E+00  0.00000000E+00  0.00000000E+00
  0.00000000E+00  0.00000000E+00  0.00000000E+00
  0.00000000E+00  0.00000000E+00  0.00000000E+00
  0.00000000E+00  0.00000000E+00  0.00000000E+00
  0.00000000E+00  0.00000000E+00  0.00000000E+00
  0.00000000E+00  0.00000000E+00  0.00000000E+00
  0.00000000E+00  0.00000000E+00  0.00000000E+00
  0.00000000E+00  0.00000000E+00  0.00000000E+00
  0.00000000E+00  0.00000000E+00  0.00000000E+00
  0.00000000E+00  0.00000000E+00  0.00000000E+00
  0.00000000E+00  0.00000000E+00  0.00000000E+00
  0.00000000E+00  0.00000000E+00  0.00000000E+00
  0.00000000E+00  0.00000000E+00  0.00000000E+00
