Ta  N Cu                                
   1.00000000000000     
    18.1096308199999996    0.0000000000000000    0.0000000000000000
     0.0000000000000000   23.3551997799999995    0.0000000000000000
     0.0000000000000000    0.0000000000000000   30.4818170799999990
   Ta   N    Cu
   240   240     2
Selective dynamics
Direct
  0.0000000000000000  0.0000000000000000  0.1962037549895328   F   F   F
  0.3335422814544131  0.0625000001605613  0.2032829710819826   F   F   F
  0.1664576892793903  0.0625000001605613  0.2032829710819826   F   F   F
  0.2499999997239044  0.1249999998929567  0.2787808134173062   F   F   F
  0.0825353920715628  0.0625000001605613  0.2838315333135668   F   F   F
  0.4174646079284372  0.0625000001605613  0.2838315333135668   F   F   F
  0.9999939106083059  0.1249690717778381  0.3695466664582563   T   T   T
  0.3322423092987418  0.0624859528249977  0.3683943201111299   T   T   T
  0.1677841682559748  0.0624804497453465  0.3683982404150379   T   T   T
  0.2499601010655117  0.1249598194349711  0.4556909338513930   T   T   T
  0.0838871803395273  0.0624468207601527  0.4542835328514551   T   T   T
  0.4161101475955893  0.0624410921896906  0.4543062463889124   T   T   T
 -0.0000070881898540  0.1250614247878607  0.5406431891868415   T   T   T
  0.3352107643828790  0.0623698783721985  0.5426101973800832   T   T   T
  0.1648240820796693  0.0625389953203338  0.5426026730274038   T   T   T
  0.0000000000000000  0.1249999998929567  0.1962037549895328   F   F   F
  0.3335422814544131  0.1875000000535181  0.2032829710819826   F   F   F
  0.1664576892793903  0.1875000000535181  0.2032829710819826   F   F   F
  0.2499999997239044  0.2500000002140865  0.2787808134173062   F   F   F
  0.0825353920715628  0.1875000000535181  0.2838315333135668   F   F   F
  0.4174646079284372  0.1875000000535181  0.2838315333135668   F   F   F
  0.9999855970468943  0.2499443604912802  0.3695465209807988   T   T   T
  0.3322545121168813  0.1875014929903978  0.3683820829315230   T   T   T
  0.1678285326521187  0.1874759805775834  0.3683674863262638   T   T   T
  0.2498486496065270  0.2499325151625980  0.4556501747120146   T   T   T
  0.0838196214168607  0.1873992142140483  0.4542610113421462   T   T   T
  0.4161176983276283  0.1873841746918556  0.4542790368381115   T   T   T
 -0.0000213197203871  0.2499883774065328  0.5405539918252021   T   T   T
  0.3351400529659041  0.1871930321785321  0.5425226958922656   T   T   T
  0.1646692238495431  0.1875782090269458  0.5424873675277965   T   T   T
  0.0000000000000000  0.2500000002140865  0.1962037549895328   F   F   F
  0.3335422814544131  0.3124999999464819  0.2032829710819826   F   F   F
  0.1664576892793903  0.3124999999464819  0.2032829710819826   F   F   F
  0.2499999997239044  0.3750000001070433  0.2787808134173062   F   F   F
  0.0825353920715628  0.3124999999464819  0.2838315333135668   F   F   F
  0.4174646079284372  0.3124999999464819  0.2838315333135668   F   F   F
  0.9999760733057710  0.3750359738778434  0.3695632743415787   T   T   T
  0.3322806314210213  0.3125249676171132  0.3684674435530030   T   T   T
  0.1678806605868995  0.3124916705801282  0.3683923480983634   T   T   T
  0.2498829451243769  0.3749372338746802  0.4557600135615135   T   T   T
  0.0838716560537938  0.3123756181967241  0.4541692519080806   T   T   T
  0.4161176632720904  0.3124227143993498  0.4543796006296654   T   T   T
  0.9999525987860977  0.3750500767033296  0.5403302067576540   T   T   T
  0.3340553747989108  0.3117201848646939  0.5424935381151432   T   T   T
  0.1638986123854559  0.3126853620257825  0.5423670426179347   T   T   T
  0.0000000000000000  0.3750000001070433  0.1962037549895328   F   F   F
  0.3335422814544131  0.4375000002676046  0.2032829710819826   F   F   F
  0.1664576892793903  0.4375000002676046  0.2032829710819826   F   F   F
  0.2499999997239044  0.0000000000000000  0.2787808134173062   F   F   F
  0.0825353920715628  0.4375000002676046  0.2838315333135668   F   F   F
  0.4174646079284372  0.4375000002676046  0.2838315333135668   F   F   F
  0.9999964554359023  0.9999852909453558  0.3695618844341729   T   T   T
  0.3326425727144028  0.4374986821179891  0.3685458364376822   T   T   T
  0.1679287551940266  0.4374995095660540  0.3683032831831504   T   T   T
  0.2500188169886018  0.9999652002327911  0.4557236951703406   T   T   T
  0.0836198578341985  0.4374994447800565  0.4542091263891333   T   T   T
  0.4162523157763793  0.4374957110786990  0.4548600917634988   T   T   T
  0.9999948139238847  0.9999665737526559  0.5406985350306814   T   T   T
  0.3312696525336203  0.4374878031237666  0.5408768096170991   T   T   T
  0.1631839306081972  0.4374979157741433  0.5422658420960109   T   T   T
  0.0000000000000000  0.5000000000000000  0.1962037549895328   F   F   F
  0.3335422814544131  0.5625000001605613  0.2032829710819826   F   F   F
  0.1664576892793903  0.5625000001605613  0.2032829710819826   F   F   F
  0.2499999997239044  0.6249999998929567  0.2787808134173062   F   F   F
  0.0825353920715628  0.5625000001605613  0.2838315333135668   F   F   F
  0.4174646079284372  0.5625000001605613  0.2838315333135668   F   F   F
  0.9999856047414107  0.6250564035319713  0.3695461124519064   T   T   T
  0.3322813117695662  0.5624709547225055  0.3684692116098459   T   T   T
  0.1678798262474698  0.5625094160052752  0.3683928071594889   T   T   T
  0.2498559606092043  0.6250603849202285  0.4556605829511705   T   T   T
  0.0838742748347548  0.5626238091607231  0.4541705454037635   T   T   T
  0.4161190833965528  0.5625692346281606  0.4543802891323606   T   T   T
 -0.0000195266437985  0.6250073168452773  0.5405542742484333   T   T   T
  0.3340649638135043  0.5632492343241658  0.5425023563209701   T   T   T
  0.1639001572345505  0.5623076016551826  0.5423689567265159   T   T   T
  0.0000000000000000  0.6249999998929567  0.1962037549895328   F   F   F
  0.3335422814544131  0.6875000000535181  0.2032829710819826   F   F   F
  0.1664576892793903  0.6875000000535181  0.2032829710819826   F   F   F
  0.2499999997239044  0.7500000002140865  0.2787808134173062   F   F   F
  0.0825353920715628  0.6875000000535181  0.2838315333135668   F   F   F
  0.4174646079284372  0.6875000000535181  0.2838315333135668   F   F   F
  0.9999941916600127  0.7500272093242060  0.3695500887143106   T   T   T
  0.3322559496809721  0.6874950348437010  0.3683829883490264   T   T   T
  0.1678281955856361  0.6875225476233005  0.3683685093788022   T   T   T
  0.2499663015686232  0.7500312651367463  0.4556932411293931   T   T   T
  0.0838208009832540  0.6876008864991507  0.4542622643531930   T   T   T
  0.4161204358709469  0.6876007613363549  0.4542838036797404   T   T   T
 -0.0000057793026099  0.7499328670771183  0.5406447832585806   T   T   T
  0.3351515358717239  0.6877826941448887  0.5425278557833229   T   T   T
  0.1646758630845389  0.6874151011381574  0.5424892298755828   T   T   T
  0.0000000000000000  0.7500000002140865  0.1962037549895328   F   F   F
  0.3335422814544131  0.8124999999464819  0.2032829710819826   F   F   F
  0.1664576892793903  0.8124999999464819  0.2032829710819826   F   F   F
  0.2499999997239044  0.8750000001070433  0.2787808134173062   F   F   F
  0.0825353920715628  0.8124999999464819  0.2838315333135668   F   F   F
  0.4174646079284372  0.8124999999464819  0.2838315333135668   F   F   F
  0.9999965302809816  0.8750118724183832  0.3695617817568293   T   T   T
  0.3322445306970092  0.8125085683407167  0.3683954560637089   T   T   T
  0.1677854681096604  0.8125160546220611  0.3683982486748634   T   T   T
  0.2500199398116176  0.8750273717530206  0.4557246827554086   T   T   T
  0.0838898631755552  0.8125505621987659  0.4542832714089030   T   T   T
  0.4161104250340458  0.8125479693498854  0.4543083935173233   T   T   T
  0.9999964585391884  0.8750271764570244  0.5406987131271421   T   T   T
  0.3352170362151164  0.8126094881452040  0.5426123442973728   T   T   T
  0.1648277470734644  0.8124527266975506  0.5426023645480678   T   T   T
  0.0000000000000000  0.8750000001070433  0.1962037549895328   F   F   F
  0.3335422814544131  0.9375000002676046  0.2032829710819826   F   F   F
  0.1664576892793903  0.9375000002676046  0.2032829710819826   F   F   F
  0.2499999997239044  0.5000000000000000  0.2787808134173062   F   F   F
  0.0825353920715628  0.9375000002676046  0.2838315333135668   F   F   F
  0.4174646079284372  0.9375000002676046  0.2838315333135668   F   F   F
  0.9999765260274186  0.4999654221534583  0.3695640142001553   T   T   T
  0.3322308870500447  0.9374974561762364  0.3683843547707939   T   T   T
  0.1677883052804750  0.9374980965293079  0.3683936881425583   T   T   T
  0.2498836413507640  0.5000547862679722  0.4557613927779998   T   T   T
  0.0838431948827257  0.9374944669279321  0.4543280186973045   T   T   T
  0.4161450791656796  0.9374937205928332  0.4543162464057188   T   T   T
  0.9999492154975543  0.4999450046188589  0.5403351112431831   T   T   T
  0.3351545850493729  0.9374919835718316  0.5425873589749542   T   T   T
  0.1648310427678456  0.9374969715758570  0.5425834690206439   T   T   T
  0.5000000000000000  0.0000000000000000  0.1962037549895328   F   F   F
  0.8335422809022219  0.0625000001605613  0.2032829710819826   F   F   F
  0.6664576892793903  0.0625000001605613  0.2032829710819826   F   F   F
  0.7499999997239044  0.1249999998929567  0.2787808134173062   F   F   F
  0.5825353920715628  0.0625000001605613  0.2838315333135668   F   F   F
  0.9174646079284372  0.0625000001605613  0.2838315333135668   F   F   F
  0.4999987606935936  0.1249410028830832  0.3695549426287826   T   T   T
  0.8322092799984285  0.0624815919139612  0.3683978644346757   T   T   T
  0.6677533403008696  0.0624872925256918  0.3683950612989367   T   T   T
  0.7500212003260346  0.1249678134941081  0.4556926347799471   T   T   T
  0.5838841053799028  0.0624435600502597  0.4543081040455628   T   T   T
  0.9160992049647525  0.0624454942951184  0.4542844556007488   T   T   T
  0.4999882632929262  0.1250808779460802  0.5406714480590278   T   T   T
  0.8351652244878971  0.0625391909158881  0.5426034762373332   T   T   T
  0.6647780179703888  0.0623805577067466  0.5426133119127207   T   T   T
  0.5000000000000000  0.1249999998929567  0.1962037549895328   F   F   F
  0.8335422809022219  0.1875000000535181  0.2032829710819826   F   F   F
  0.6664576892793903  0.1875000000535181  0.2032829710819826   F   F   F
  0.7499999997239044  0.2500000002140865  0.2787808134173062   F   F   F
  0.5825353920715628  0.1875000000535181  0.2838315333135668   F   F   F
  0.9174646079284372  0.1875000000535181  0.2838315333135668   F   F   F
  0.4999941743532976  0.2500256256550861  0.3695709494898974   T   T   T
  0.8321598582698405  0.1874779354455101  0.3683680165911286   T   T   T
  0.6677368157453124  0.1875036533726399  0.3683822540224225   T   T   T
  0.7501026865232578  0.2499442990129964  0.4556592325167200   T   T   T
  0.5838561130694359  0.1873889151734180  0.4542820191206707   T   T   T
  0.9161446731152176  0.1873960001899778  0.4542634302751217   T   T   T
  0.4999868678922197  0.2500416906372894  0.5405446120703540   T   T   T
  0.8352999450398136  0.1875774827442877  0.5424938600176976   T   T   T
  0.6648353537384214  0.1872135123693665  0.5425292317382232   T   T   T
  0.5000000000000000  0.2500000002140865  0.1962037549895328   F   F   F
  0.8335422809022219  0.3124999999464819  0.2032829710819826   F   F   F
  0.6664576892793903  0.3124999999464819  0.2032829710819826   F   F   F
  0.7499999997239044  0.3750000001070433  0.2787808134173062   F   F   F
  0.5825353920715628  0.3124999999464819  0.2838315333135668   F   F   F
  0.9174646079284372  0.3124999999464819  0.2838315333135668   F   F   F
  0.4999865115770685  0.3749772766038891  0.3696053865965775   T   T   T
  0.8321009483811163  0.3124925499374387  0.3683898413958374   T   T   T
  0.6677081393079217  0.3125282248073453  0.3684741496701854   T   T   T
  0.7500364063085420  0.3749464591728520  0.4557742433136825   T   T   T
  0.5838405612087053  0.3124203610116286  0.4543825470103621   T   T   T
  0.9160560721490892  0.3123790339426356  0.4541776912425696   T   T   T
  0.4998899902222903  0.3760710304352444  0.5414831979716218   T   T   T
  0.8360277448059538  0.3126766896525746  0.5423908837926567   T   T   T
  0.6658359583929018  0.3117439000973162  0.5425134309209864   T   T   T
  0.5000000000000000  0.3750000001070433  0.1962037549895328   F   F   F
  0.8335422809022219  0.4375000002676046  0.2032829710819826   F   F   F
  0.6664576892793903  0.4375000002676046  0.2032829710819826   F   F   F
  0.7499999997239044  0.0000000000000000  0.2787808134173062   F   F   F
  0.5825353920715628  0.4375000002676046  0.2838315333135668   F   F   F
  0.9174646079284372  0.4375000002676046  0.2838315333135668   F   F   F
  0.5000008078603422  0.9999849158219439  0.3695616103548198   T   T   T
  0.8320454182755493  0.4374990206860673  0.3683097998537734   T   T   T
  0.6673326723222556  0.4374967337417473  0.3685515303692425   T   T   T
  0.7499762912614084  0.9999665793825447  0.4557242371919069   T   T   T
  0.5836857498219264  0.4374949362497456  0.4548625440689534   T   T   T
  0.9162933454910500  0.4374996239815474  0.4542265561723668   T   T   T
  0.5000025311750883 -0.0000114397778290  0.5406708993038959   T   T   T
  0.8366728030321046  0.4374960613793244  0.5422913699300721   T   T   T
  0.6685730057109198  0.4374848087575927  0.5409038417807845   T   T   T
  0.5000000000000000  0.5000000000000000  0.1962037549895328   F   F   F
  0.8335422809022219  0.5625000001605613  0.2032829710819826   F   F   F
  0.6664576892793903  0.5625000001605613  0.2032829710819826   F   F   F
  0.7499999997239044  0.6249999998929567  0.2787808134173062   F   F   F
  0.5825353920715628  0.5625000001605613  0.2838315333135668   F   F   F
  0.9174646079284372  0.5625000001605613  0.2838315333135668   F   F   F
  0.4999929574838262  0.6249685414252951  0.3695712318535096   T   T   T
  0.8321032471279389  0.5625068200311477  0.3683891620289498   T   T   T
  0.6677054351130541  0.5624704081057360  0.3684733287593897   T   T   T
  0.7500989505263080  0.6250501431852037  0.4556638389059369   T   T   T
  0.5838375507724123  0.5625663775499574  0.4543860036799225   T   T   T
  0.9160549683822420  0.5626193403526801  0.4541789758707314   T   T   T
  0.4999746325429640  0.6249357353224136  0.5405502588888444   T   T   T
  0.8360243669400808  0.5623134484333350  0.5423915261915426   T   T   T
  0.6658425385074470  0.5632351115703225  0.5425217294044727   T   T   T
  0.5000000000000000  0.6249999998929567  0.1962037549895328   F   F   F
  0.8335422809022219  0.6875000000535181  0.2032829710819826   F   F   F
  0.6664576892793903  0.6875000000535181  0.2032829710819826   F   F   F
  0.7499999997239044  0.7500000002140865  0.2787808134173062   F   F   F
  0.5825353920715628  0.6875000000535181  0.2838315333135668   F   F   F
  0.9174646079284372  0.6875000000535181  0.2838315333135668   F   F   F
  0.4999984102884611  0.7500523019674241  0.3695557434431237   T   T   T
  0.8321580770550858  0.6875210593228664  0.3683682638144553   T   T   T
  0.6677346285566799  0.6874907452680283  0.3683812810544156   T   T   T
  0.7500163397800463  0.7500238517329678  0.4556956429651131   T   T   T
  0.5838567792636146  0.6875962979715213  0.4542878650174486   T   T   T
  0.9161423361061184  0.6876019315137653  0.4542651711723262   T   T   T
  0.4999942579033133  0.7499008902698059  0.5406773565581375   T   T   T
  0.8352922039537859  0.6874154752551618  0.5424940943478849   T   T   T
  0.6648298487960145  0.6877719483079687  0.5425332783834327   T   T   T
  0.5000000000000000  0.7500000002140865  0.1962037549895328   F   F   F
  0.8335422809022219  0.8124999999464819  0.2032829710819826   F   F   F
  0.6664576892793903  0.8124999999464819  0.2032829710819826   F   F   F
  0.7499999997239044  0.8750000001070433  0.2787808134173062   F   F   F
  0.5825353920715628  0.8124999999464819  0.2838315333135668   F   F   F
  0.9174646079284372  0.8124999999464819  0.2838315333135668   F   F   F
  0.5000005719258673  0.8750088352880866  0.3695618476290486   T   T   T
  0.8322078832652797  0.8125152027085262  0.3683982783784973   T   T   T
  0.6677512690761366  0.8125076827650213  0.3683964620840015   T   T   T
  0.7499769298001550  0.8750276949315551  0.4557245481277353   T   T   T
  0.5838842591744454  0.8125467163057680  0.4543102664212332   T   T   T
  0.9160978609808353  0.8125492742639375  0.4542847996540645   T   T   T
  0.5000037932902652  0.8749964210243226  0.5406719314790773   T   T   T
  0.8351623676208102  0.8124488956492804  0.5426028024402161   T   T   T
  0.6647763625245040  0.8126066588527556  0.5426132098637941   T   T   T
  0.5000000000000000  0.8750000001070433  0.1962037549895328   F   F   F
  0.8335422809022219  0.9375000002676046  0.2032829710819826   F   F   F
  0.6664576892793903  0.9375000002676046  0.2032829710819826   F   F   F
  0.7499999997239044  0.5000000000000000  0.2787808134173062   F   F   F
  0.5825353920715628  0.9375000002676046  0.2838315333135668   F   F   F
  0.9174646079284372  0.9375000002676046  0.2838315333135668   F   F   F
  0.4999862552458652  0.5000159271399803  0.3696049092462399   T   T   T
  0.8322062922655681  0.9374984152573926  0.3683931714116168   T   T   T
  0.6677672810095570  0.9374975934566466  0.3683827062607267   T   T   T
  0.7500330340148885  0.5000468684594118  0.4557754071513908   T   T   T
  0.5838553034376575  0.9374944239443856  0.4543174359692725   T   T   T
  0.9161465095480301  0.9374975648174055  0.4543303950448296   T   T   T
  0.4998969782899765  0.4988968216786977  0.5414868751562745   T   T   T
  0.8351656146287548  0.9374956027075270  0.5425847614148172   T   T   T
  0.6648405525309851  0.9374939841645240  0.5425893139770279   T   T   T
  0.4070505905542277  0.0000000000000000  0.2321160648471405   F   F   F
  0.2499999997239044  0.0000000000000000  0.1975324349659786   F   F   F
  0.0929494094457723  0.0000000000000000  0.2321160648471405   F   F   F
  0.1544227962345630  0.1249999998929567  0.3158353176496362   F   F   F
  0.0000000000000000  0.1249999998929567  0.3028242704748862   F   F   F
  0.3455772037654370  0.1249999998929567  0.3158353176496362   F   F   F
  0.4010452850080413  0.1249622065623392  0.4020761763856260   T   T   T
  0.2500280863493820  0.1249916418552397  0.3876115677308141   T   T   T
  0.0989985961817870  0.1249588421611181  0.4020538542853695   T   T   T
  0.1514073704814373  0.1249226392412296  0.4877082145553652   T   T   T
  0.9999883696450159  0.1248981495760994  0.4724747891356976   T   T   T
  0.3485549420302839  0.1249146903732733  0.4877416759291494   T   T   T
  0.4031029220465630  0.1249838624852647  0.5702746868722196   T   T   T
  0.2500190347112760  0.1250592765923939  0.5576927830186849   T   T   T
  0.0968670550552088  0.1250101388105249  0.5702009204270756   T   T   T
  0.4070505905542277  0.1249999998929567  0.2321160648471405   F   F   F
  0.2499999997239044  0.1249999998929567  0.1975324349659786   F   F   F
  0.0929494094457723  0.1249999998929567  0.2321160648471405   F   F   F
  0.1544227962345630  0.2500000002140865  0.3158353176496362   F   F   F
  0.0000000000000000  0.2500000002140865  0.3028242704748862   F   F   F
  0.3455772037654370  0.2500000002140865  0.3158353176496362   F   F   F
  0.4010809709662491  0.2500134031705982  0.4020967898584875   T   T   T
  0.2500559302801051  0.2499318285490145  0.3875744123193996   T   T   T
  0.0990001424796768  0.2499250741710364  0.4020044384777752   T   T   T
  0.1513570963516156  0.2498022682695796  0.4877041710804322   T   T   T
  0.9999760077935667  0.2499025677858695  0.4723727655211699   T   T   T
  0.3484337147108770  0.2497954599358882  0.4876467568208877   T   T   T
  0.4029816281958461  0.2501208061544156  0.5701563288282196   T   T   T
  0.2498955715579460  0.2503845992592638  0.5576439570304155   T   T   T
  0.0966528629238242  0.2498507256361331  0.5702670462219358   T   T   T
  0.4070505905542277  0.2500000002140865  0.2321160648471405   F   F   F
  0.2499999997239044  0.2500000002140865  0.1975324349659786   F   F   F
  0.0929494094457723  0.2500000002140865  0.2321160648471405   F   F   F
  0.1544227962345630  0.3750000001070433  0.3158353176496362   F   F   F
  0.0000000000000000  0.3750000001070433  0.3028242704748862   F   F   F
  0.3455772037654370  0.3750000001070433  0.3158353176496362   F   F   F
  0.4011664888484812  0.3750122886052162  0.4022929840352574   T   T   T
  0.2501720422513485  0.3750826467045772  0.3876896662883018   T   T   T
  0.0990389197265657  0.3749771068284504  0.4019492605309334   T   T   T
  0.1511079151050201  0.3748549265502666  0.4876459640028404   T   T   T
  0.9999599707389023  0.3748599872877459  0.4721558256033158   T   T   T
  0.3486300446493824  0.3745244192871802  0.4880806937106418   T   T   T
  0.3998888202052723  0.3746310292867259  0.5716894177132753   T   T   T
  0.2483447380256030  0.3750729226036820  0.5577695268275891   T   T   T
  0.0960940140402099  0.3748976683834931  0.5703665874196414   T   T   T
  0.4070505905542277  0.3750000001070433  0.2321160648471405   F   F   F
  0.2499999997239044  0.3750000001070433  0.1975324349659786   F   F   F
  0.0929494094457723  0.3750000001070433  0.2321160648471405   F   F   F
  0.1544227962345630  0.0000000000000000  0.3158353176496362   F   F   F
  0.0000000000000000  0.0000000000000000  0.3028242704748862   F   F   F
  0.3455772037654370  0.0000000000000000  0.3158353176496362   F   F   F
  0.4010170336480708  0.9999702491082496  0.4020707010068453   T   T   T
  0.2500112813948905  0.9999819520967754  0.3876402009231592   T   T   T
  0.0989899903492644  0.9999718828385229  0.4020688608086723   T   T   T
  0.1514291400960771 -0.0000067924561342  0.4877497261964351   T   T   T
  0.9999947623542187  0.9999730364997733  0.4725123499613145   T   T   T
  0.3486085422210667  0.9999607119627564  0.4877588084218715   T   T   T
  0.4031375869382911 -0.0000040642338054  0.5702810980427329   T   T   T
  0.2500195227069958  0.0000189310994453  0.5576905198541051   T   T   T
  0.0969022196163756  0.0000343919380910  0.5702366633057775   T   T   T
  0.4070505905542277  0.5000000000000000  0.2321160648471405   F   F   F
  0.2499999997239044  0.5000000000000000  0.1975324349659786   F   F   F
  0.0929494094457723  0.5000000000000000  0.2321160648471405   F   F   F
  0.1544227962345630  0.6249999998929567  0.3158353176496362   F   F   F
  0.0000000000000000  0.6249999998929567  0.3028242704748862   F   F   F
  0.3455772037654370  0.6249999998929567  0.3158353176496362   F   F   F
  0.4010803627164783  0.6249815905560224  0.4020988946295249   T   T   T
  0.2500553318598305  0.6250647263246659  0.3875769798387811   T   T   T
  0.0990017003074653  0.6250748102906822  0.4020067982241006   T   T   T
  0.1513589079570734  0.6251936145998066  0.4877065031850764   T   T   T
  0.9999746807640113  0.6250964973660931  0.4723724354087494   T   T   T
  0.3484372318760103  0.6251887128448937  0.4876520291578054   T   T   T
  0.4029890725833238  0.6248550923708911  0.5701642334416031   T   T   T
  0.2499005956363461  0.6245986438881419  0.5576474968235775   T   T   T
  0.0966479920556611  0.6251456857698426  0.5702671891289727   T   T   T
  0.4070505905542277  0.6249999998929567  0.2321160648471405   F   F   F
  0.2499999997239044  0.6249999998929567  0.1975324349659786   F   F   F
  0.0929494094457723  0.6249999998929567  0.2321160648471405   F   F   F
  0.1544227962345630  0.7500000002140865  0.3158353176496362   F   F   F
  0.0000000000000000  0.7500000002140865  0.3028242704748862   F   F   F
  0.3455772037654370  0.7500000002140865  0.3158353176496362   F   F   F
  0.4010451401501752  0.7500283142484874  0.4020778456216360   T   T   T
  0.2500285442330084  0.7500048838754190  0.3876136412662881   T   T   T
  0.0989988688272860  0.7500386136053755  0.4020541366012067   T   T   T
  0.1514113497303573  0.7500724011404797  0.4877084190801091   T   T   T
  0.9999885094607058  0.7500988601425030  0.4724766263273539   T   T   T
  0.3485600747837005  0.7500715152698328  0.4877459687512954   T   T   T
  0.4031020689774985  0.7499949388278825  0.5702819108413612   T   T   T
  0.2500242414343525  0.7499271450068754  0.5576942185935936   T   T   T
  0.0968709910028629  0.7499831847399606  0.5701997499873558   T   T   T
  0.4070505905542277  0.7500000002140865  0.2321160648471405   F   F   F
  0.2499999997239044  0.7500000002140865  0.1975324349659786   F   F   F
  0.0929494094457723  0.7500000002140865  0.2321160648471405   F   F   F
  0.1544227962345630  0.8750000001070433  0.3158353176496362   F   F   F
  0.0000000000000000  0.8750000001070433  0.3028242704748862   F   F   F
  0.3455772037654370  0.8750000001070433  0.3158353176496362   F   F   F
  0.4010180121690822  0.8750222878601460  0.4020715076234589   T   T   T
  0.2500120846407025  0.8750137331949924  0.3876407282387256   T   T   T
  0.0989896994382235  0.8750245684107544  0.4020690081814709   T   T   T
  0.1514292775942698  0.8750016040556534  0.4877492519186147   T   T   T
  0.9999950949732853  0.8750224861751735  0.4725124773287656   T   T   T
  0.3486091770290611  0.8750262639444996  0.4877600669563334   T   T   T
  0.4031377956049975  0.8749862786264082  0.5702832316256888   T   T   T
  0.2500212829223198  0.8749677900329468  0.5576903388985961   T   T   T
  0.0969024770678340  0.8749581545619753  0.5702358195935379   T   T   T
  0.4070505905542277  0.8750000001070433  0.2321160648471405   F   F   F
  0.2499999997239044  0.8750000001070433  0.1975324349659786   F   F   F
  0.0929494094457723  0.8750000001070433  0.2321160648471405   F   F   F
  0.1544227962345630  0.5000000000000000  0.3158353176496362   F   F   F
  0.0000000000000000  0.5000000000000000  0.3028242704748862   F   F   F
  0.3455772037654370  0.5000000000000000  0.3158353176496362   F   F   F
  0.4011649759188108  0.4999825370089107  0.4022937093936222   T   T   T
  0.2501727119716904  0.4999135889237997  0.3876902758599794   T   T   T
  0.0990388216266948  0.5000231907575146  0.4019495264253135   T   T   T
  0.1511092883265463  0.5001418487788574  0.4876471059732481   T   T   T
  0.9999603526814868  0.5001384801991222  0.4721551380492462   T   T   T
  0.3486311756106502  0.5004610278461268  0.4880852988719606   T   T   T
  0.3998911992120768  0.5003297781207683  0.5716978536054856   T   T   T
  0.2483449620433827  0.4999122665773018  0.5577724484309861   T   T   T
  0.0960923380014845  0.5000929236495385  0.5703674652120517   T   T   T
  0.9070505905542277  0.0000000000000000  0.2321160648471405   F   F   F
  0.7499999997239044  0.0000000000000000  0.1975324349659786   F   F   F
  0.5929494094457723  0.0000000000000000  0.2321160648471405   F   F   F
  0.6544227962345630  0.1249999998929567  0.3158353176496362   F   F   F
  0.5000000000000000  0.1249999998929567  0.3028242704748862   F   F   F
  0.8455772037654370  0.1249999998929567  0.3158353176496362   F   F   F
  0.9009888284596089  0.1249604663990335  0.4020542330878333   T   T   T
  0.7499662815563355  0.1249940132226221  0.3876134384101353   T   T   T
  0.5989523431313465  0.1249655147264172  0.4020779096978926   T   T   T
  0.6514298109773405  0.1249236762156581  0.4877467279592410   T   T   T
  0.4999939361596705  0.1249928970186995  0.4725093802004759   T   T   T
  0.8485711699709853  0.1249235586693479  0.4877099114074004   T   T   T
  0.9031157593181929  0.1250188880094847  0.5701976295391362   T   T   T
  0.7499590483393498  0.1250640690235787  0.5576965986504020   T   T   T
  0.5968862140244154  0.1249885345294826  0.5702823839234256   T   T   T
  0.9070505905542277  0.1249999998929567  0.2321160648471405   F   F   F
  0.7499999997239044  0.1249999998929567  0.1975324349659786   F   F   F
  0.5929494094457723  0.1249999998929567  0.2321160648471405   F   F   F
  0.6544227962345630  0.2500000002140865  0.3158353176496362   F   F   F
  0.5000000000000000  0.2500000002140865  0.3028242704748862   F   F   F
  0.8455772037654370  0.2500000002140865  0.3158353176496362   F   F   F
  0.9009723941674607  0.2499277769054128  0.4020094831035624   T   T   T
  0.7499313533008959  0.2499365982009087  0.3875794272928140   T   T   T
  0.5989051013005849  0.2500143565406763  0.4021009336193976   T   T   T
  0.6515230105655815  0.2498068513194930  0.4876613421179986   T   T   T
  0.4999819063145743  0.2498944369889480  0.4725333774084151   T   T   T
  0.8485886506576135  0.2498050715715047  0.4877149991162680   T   T   T
  0.9033111895083482  0.2498614444937368  0.5702675781326116   T   T   T
  0.7500385703678722  0.2503869396535780  0.5576639847273893   T   T   T
  0.5969523630134106  0.2501219108733831  0.5701694273422386   T   T   T
  0.9070505905542277  0.2500000002140865  0.2321160648471405   F   F   F
  0.7499999997239044  0.2500000002140865  0.1975324349659786   F   F   F
  0.5929494094457723  0.2500000002140865  0.2321160648471405   F   F   F
  0.6544227962345630  0.3750000001070433  0.3158353176496362   F   F   F
  0.5000000000000000  0.3750000001070433  0.3028242704748862   F   F   F
  0.8455772037654370  0.3750000001070433  0.3158353176496362   F   F   F
  0.9009170573167408  0.3749808216488860  0.4019598986665041   T   T   T
  0.7498031244253212  0.3750832170298067  0.3876973789838406   T   T   T
  0.5988065371764096  0.3750092022288937  0.4022969732366251   T   T   T
  0.6512969670894432  0.3745286660863712  0.4880999041386194   T   T   T
  0.4999672245078929  0.3747270172283471  0.4734035603852019   T   T   T
  0.8487996237071203  0.3748559218430635  0.4876681266682073   T   T   T
  0.9038141563723275  0.3749102164896527  0.5703709415562762   T   T   T
  0.7515255104746240  0.3750711471586416  0.5578112958995390   T   T   T
  0.5999005984802559  0.3746407259203845  0.5716764695268429   T   T   T
  0.9070505905542277  0.3750000001070433  0.2321160648471405   F   F   F