Cu	N	Ru	Ta                              
   1.00000000000000     
    18.1096308199999996    0.0000000000000000    0.0000000000000000
     0.0000000000000000   23.3551997799999995    0.0000000000000000
     0.0000000000000000    0.0000000000000000   30.4818171199999988
   Cu   N    Ru   Ta
     3   240    12   228
Selective dynamics
Direct
  0.5664708694450674  0.4383177261202916  0.6057610592313072   T   T   T
  0.0939617306568791  0.0669573561224418  0.5894439631269713   T   T   T
  0.4334481145440531  0.4390429110109126  0.6055564570259068   T   T   T
  0.0000000000000000  0.0002658024790421  0.3027806050297599   F   F   F
  0.0000000000000000  0.5002658024790421  0.3027806050297599   F   F   F
  0.0000000000000000  0.6252068313499990  0.3027729437410898   F   F   F
  0.0000000000000000  0.7502658026931286  0.3027806050297599   F   F   F
  0.0000000000000000  0.8752068315640855  0.3027729437410898   F   F   F
  0.0000000000000000  0.1252068313499990  0.3027729437410898   F   F   F
  0.0000000000000000  0.2502658026931286  0.3027806050297599   F   F   F
  0.0000000000000000  0.3752068315640855  0.3027729437410898   F   F   F
  0.0000429544280915  0.3750563799692901  0.4731213316607923   T   T   T
  0.0000834981889986  0.2520225521299118  0.4738307554712436   T   T   T
  0.0004390808202430  0.0017630675471766  0.4741933283190616   T   T   T
  0.0004678384250341  0.1251695567907191  0.4741876861008075   T   T   T
  0.5922943846036449  0.7504030510705152  0.5684817642933591   T   T   T
  0.5927626010790645  0.9999028463393617  0.5685931357443064   T   T   T
  0.5928716520905336  0.2504656977127087  0.5684679496394810   T   T   T
  0.5940493004484111  0.9998103570065027  0.2323399901691943   F   F   F
  0.5940493004484111  0.4998103570065027  0.2323399901691943   F   F   F
  0.5940493004484111  0.7498103572205892  0.2323399901691943   F   F   F
  0.5940493004484111  0.2498103572205892  0.2323399901691943   F   F   F
  0.5941034351798038  0.6248444726427422  0.2323487498175751   F   F   F
  0.5941034351798038  0.8748444728568288  0.2323487498175751   F   F   F
  0.5941034351798038  0.1248444726427422  0.2323487498175751   F   F   F
  0.5941034351798038  0.3748444728568288  0.2323487498175751   F   F   F
  0.5977613122690830  0.8718861227723552  0.5716225437184016   T   T   T
  0.5982835131490787  0.6218461699988577  0.5714553853265674   T   T   T
  0.5985269364437403  0.6241125007383724  0.4027445256652023   T   T   T
  0.5987491819717644  0.8743376302579754  0.4025876957168079   T   T   T
  0.5987178365581262  0.3743597166739446  0.4026894179327583   T   T   T
  0.5989495019908770  0.7492467013476493  0.4024303963807953   T   T   T
  0.5989247351940057  0.4993428367230862  0.4026096006231718   T   T   T
  0.5990526680854439  0.1216766935299494  0.5720409897674607   T   T   T
  0.5989518699762633  0.1243320941680729  0.4024954406817509   T   T   T
  0.5991702292545530  0.9992025821282555  0.4023377012362904   T   T   T
  0.5991776574520539  0.2492588165222300  0.4024094205620873   T   T   T
  0.5999608823514407  0.5011536467691815  0.5713045256342147   T   T   T
  0.6011062784392738  0.3714357242028239  0.5729496979697867   T   T   T
  0.6507396582599254  0.6233906022681746  0.4882871332052439   T   T   T
  0.6508237241067171  0.1230875897285700  0.4882013986790569   T   T   T
  0.6509323022926686  0.8733273744439839  0.4883390638894249   T   T   T
  0.6510188646823840  0.3727094300141052  0.4883171613586311   T   T   T
  0.6513795924684574  0.9992431707959059  0.4883233341809547   T   T   T
  0.6513742750702587  0.7493912618484949  0.4884557601748775   T   T   T
  0.6516924706340590  0.2493298386293518  0.4884392496559802   T   T   T
  0.6517741797735904  0.4994901777526791  0.4886751680617685   T   T   T
  0.6547396409045092  0.9997083480310920  0.3159103144045119   F   F   F
  0.6547396409045092  0.4997083480310920  0.3159103144045119   F   F   F
  0.6547396409045092  0.7497083482451785  0.3159103144045119   F   F   F
  0.6547396409045092  0.2497083482451785  0.3159103144045119   F   F   F
  0.6547625022209047  0.6246790182669955  0.3159667218028375   F   F   F
  0.6547625022209047  0.8746790184810820  0.3159667218028375   F   F   F
  0.6547625022209047  0.1246790182669955  0.3159667218028375   F   F   F
  0.6547625022209047  0.3746790184810820  0.3159667218028375   F   F   F
  0.7407848025535737  0.2423911758323429  0.5622665601729238   T   T   T
  0.7408314967044815  0.7421590139415921  0.5622238367316815   T   T   T
  0.7413592770878212  0.9927686831994527  0.5620465720425091   T   T   T
  0.7450233325788853  0.4928947929392234  0.5614601169905126   T   T   T
  0.7497181855858486  0.0000100119032282  0.1992701427899632   F   F   F
  0.7497181855858486  0.5000100119032282  0.1992701427899632   F   F   F
  0.7497181855858486  0.7500100121173077  0.1992701427899632   F   F   F
  0.7497181855858486  0.2500100121173077  0.1992701427899632   F   F   F
  0.7497340914871273  0.6250292589019324  0.1993221157413743   F   F   F
  0.7497340914871273  0.8750292591160189  0.1993221157413743   F   F   F
  0.7497340914871273  0.1250292589019324  0.1993221157413743   F   F   F
  0.7497340914871273  0.3750292591160189  0.1993221157413743   F   F   F
  0.7498881800252475  0.6249512148319550  0.3879448125974514   T   T   T
  0.7499646197911504  0.7498501957946596  0.3872869173720245   T   T   T
  0.7500769067055032  0.8748922300639654  0.3878932795486482   T   T   T
  0.7499991460968094  0.4998587752708334  0.3873841362882557   T   T   T
  0.7501002148391289  0.3748362066186199  0.3879166893002756   T   T   T
  0.7502343161510724  0.0000148687118112  0.3873243677882087   T   T   T
  0.7502015818879442  0.2498097530684646  0.3872520715870394   T   T   T
  0.7503108852546568  0.1248509175715220  0.3877843429491508   T   T   T
  0.7520389754075347  0.1225080868140426  0.5560412728062136   T   T   T
  0.7521948966947094  0.8724746103643596  0.5565498098920560   T   T   T
  0.7525570604792843  0.6228364255401859  0.5562609307433269   T   T   T
  0.7542055605815791  0.3724228708704752  0.5558246194720243   T   T   T
  0.8451499272473839  0.6251896283286698  0.3155471503596488   F   F   F
  0.8451499272473839  0.8751896285427563  0.3155471503596488   F   F   F
  0.8451499272473839  0.1251896283286698  0.3155471503596488   F   F   F
  0.8451499272473839  0.3751896285427563  0.3155471503596488   F   F   F
  0.8451807898312538  0.0001939208417241  0.3155011134060643   F   F   F
  0.8451807898312538  0.5001939208417241  0.3155011134060643   F   F   F
  0.8451807898312538  0.7501939210558106  0.3155011134060643   F   F   F
  0.8451807898312538  0.2501939210558106  0.3155011134060643   F   F   F
  0.8464761633175004  0.7481788200895839  0.4858992297397081   T   T   T
  0.8468382313359551  0.2484182153900419  0.4858572605280472   T   T   T
  0.8469047264418123  0.9989879845669102  0.4861153532656788   T   T   T
  0.8473404261860272  0.4984366618367767  0.4854700654917390   T   T   T
  0.8486667008648803  0.1285623428099277  0.4860163569229684   T   T   T
  0.8488914437005038  0.8791800070390867  0.4864539099578834   T   T   T
  0.8489966580549089  0.6289185711798028  0.4861218151044568   T   T   T
  0.8496216765168771  0.3786752351117457  0.4861182172794160   T   T   T
  0.0853476413797917  0.1461601854279028  0.5781961067045194   T   T   T
  0.0869286989294074  0.9880577774934592  0.5783505576998352   T   T   T
  0.8984613633313261  0.0076074509307196  0.5680775087129974   T   T   T
  0.8991204096103721  0.1337697991473043  0.5710398238996098   T   T   T
  0.9006320053102090  0.7506853905462947  0.4017418700048975   T   T   T
  0.9007110206240946  0.6256687687786392  0.4015956596012733   T   T   T
  0.9007204052210882  0.5006934945095054  0.4014710446957584   T   T   T
  0.9009773368450809  0.8756518864409448  0.4019890511395946   T   T   T
  0.9010331175840514  0.3754697416165491  0.4016216641374047   T   T   T
  0.9011582392574951  0.2506274898891118  0.4018370963766587   T   T   T
  0.9012547323858764  0.2588855559209514  0.5676869084481585   T   T   T
  0.9012689260774249  0.0007525852146075  0.4019147109062247   T   T   T
  0.9015281196965774  0.7585489130744222  0.5677093450736777   T   T   T
  0.9015082705165454  0.1254588693124292  0.4018401745372878   T   T   T
  0.9022251190500642  0.5088039129303923  0.5677783663956967   T   T   T
  0.9023880466491067  0.8840772228377219  0.5714742780585806   T   T   T
  0.9025197463747192  0.6348148310597026  0.5709964703086675   T   T   T
  0.9036747905597005  0.3846450943722049  0.5716805473399831   T   T   T
  0.9057164253114252  0.6251516265128672  0.2320045249323357   F   F   F
  0.9057164253114252  0.8751516267269537  0.2320045249323357   F   F   F
  0.9057164253114252  0.1251516265128672  0.2320045249323357   F   F   F
  0.9057164253114252  0.3751516267269537  0.2320045249323357   F   F   F
  0.9057548087553968  0.0001403618907503  0.2320193078436787   F   F   F
  0.9057548087553968  0.5001403618907503  0.2320193078436787   F   F   F
  0.9057548087553968  0.7501403621048368  0.2320193078436787   F   F   F
  0.9057548087553968  0.2501403621048368  0.2320193078436787   F   F   F
  0.0942451912446032  0.0001403618907503  0.2320193078436787   F   F   F
  0.0942451912446032  0.5001403618907503  0.2320193078436787   F   F   F
  0.0942451912446032  0.7501403621048368  0.2320193078436787   F   F   F
  0.0942451912446032  0.2501403621048368  0.2320193078436787   F   F   F
  0.0942835746885748  0.6251516265128672  0.2320045249323357   F   F   F
  0.0942835746885748  0.8751516267269537  0.2320045249323357   F   F   F
  0.0942835746885748  0.1251516265128672  0.2320045249323357   F   F   F
  0.0942835746885748  0.3751516267269537  0.2320045249323357   F   F   F
  0.0968963901036743  0.3831046483050004  0.5711844757701107   T   T   T
  0.0973363396572348  0.6308392760745708  0.5705304376440847   T   T   T
  0.0983541881853592  0.8747762531062169  0.5691338915097485   T   T   T
  0.0984056262620459  0.5071199556905439  0.5680253897854100   T   T   T
  0.0986152282845605  0.8753777981597908  0.4018473795670102   T   T   T
  0.0987108316949857  0.7504132543072372  0.4015930442156995   T   T   T
  0.0986419440488789  0.0007648774172606  0.4023316421085767   T   T   T
  0.0988947042015151  0.6256621874273839  0.4015126986810795   T   T   T
  0.0987836265491508  0.1250405028452707  0.4024189487668904   T   T   T
  0.0989065320932206  0.3755541898400176  0.4016091353879591   T   T   T
  0.0989871528318117  0.5006712952080715  0.4014082336212523   T   T   T
  0.0990975160313492  0.7537555262440921  0.5683889375645502   T   T   T
  0.0990758097050090  0.2505524422745821  0.4020178654492024   T   T   T
  0.0998890856149955  0.2600982887749704  0.5672092285081682   T   T   T
  0.9995059471881457  0.8747217696855345  0.4737975649383292   T   T   T
  0.9996730097736674  0.7517801889425668  0.4730906462969788   T   T   T
  0.9997500660223518  0.6249583890248572  0.4732549218940640   T   T   T
  0.9998709281294869  0.5023338905639575  0.4727330646451470   T   T   T
  0.1508804019919903  0.3790168952795014  0.4857681521127019   T   T   T
  0.1509795571885287  0.9948213308187563  0.4870858886701149   T   T   T
  0.1510341175143976  0.6282172740493361  0.4859670473666868   T   T   T
  0.1516064516832476  0.8770126562201442  0.4860884593923607   T   T   T
  0.1518557821890069  0.1310042859724622  0.4874347737274654   T   T   T
  0.1522489857700226  0.4989336467028098  0.4854176516211713   T   T   T
  0.1524775887463505  0.7481812390341339  0.4857092596092462   T   T   T
  0.1537569435936610  0.2486664877075249  0.4862352248721949   T   T   T
  0.1548192101687462  0.0001939208417241  0.3155011134060643   F   F   F
  0.1548192101687462  0.5001939208417241  0.3155011134060643   F   F   F
  0.1548192101687462  0.7501939210558106  0.3155011134060643   F   F   F
  0.1548192101687462  0.2501939210558106  0.3155011134060643   F   F   F
  0.1548500727526161  0.6251896283286698  0.3155471503596488   F   F   F
  0.1548500727526161  0.8751896285427563  0.3155471503596488   F   F   F
  0.1548500727526161  0.1251896283286698  0.3155471503596488   F   F   F
  0.1548500727526161  0.3751896285427563  0.3155471503596488   F   F   F
  0.2461225513715205  0.3737914387527399  0.5561331959160233   T   T   T
  0.2474448859428346  0.6236224595824224  0.5569314465880633   T   T   T
  0.2478386504890744  0.8745465417889503  0.5573390452450475   T   T   T
  0.2498954409247346  0.5000093487620060  0.3872780520967398   T   T   T
  0.2499187981735579  0.6249373289080834  0.3876375944423220   T   T   T
  0.2498561365508050  0.7498598104395684  0.3871325246870060   T   T   T
  0.2498975204525820  0.3749507979957216  0.3876997831627838   T   T   T
  0.2498704216364746  0.8745825804742935  0.3874475936136818   T   T   T
  0.2498528015992678  0.9998921582162138  0.3873731150344902   T   T   T
  0.2499135843057174  0.2501116851331006  0.3871508686433186   T   T   T
  0.2498821271758460  0.1249145330676230  0.3875701507308599   T   T   T
  0.2502659079606815  0.6250292589019324  0.1993221157413743   F   F   F
  0.2502659079606815  0.8750292591160189  0.1993221157413743   F   F   F
  0.2502659079606815  0.1250292589019324  0.1993221157413743   F   F   F
  0.2502659079606815  0.3750292591160189  0.1993221157413743   F   F   F
  0.2502818138619602  0.0000100119032282  0.1992701427899632   F   F   F
  0.2502818138619602  0.5000100119032282  0.1992701427899632   F   F   F
  0.2502818138619602  0.7500100121173077  0.1992701427899632   F   F   F
  0.2502818138619602  0.2500100121173077  0.1992701427899632   F   F   F
  0.2511915493407295  0.1261090716490580  0.5580245305739289   T   T   T
  0.2524630152145089  0.9978858777264461  0.5588040876442034   T   T   T
  0.2530697967642446  0.4950370915216079  0.5604883636777893   T   T   T
  0.2542306670370910  0.7456417816949684  0.5601521914127516   T   T   T
  0.2567743818958886  0.2440153633550861  0.5607722292840421   T   T   T
  0.3452374977790953  0.6246790182669955  0.3159667218028375   F   F   F
  0.3452374977790953  0.8746790184810820  0.3159667218028375   F   F   F
  0.3452374977790953  0.1246790182669955  0.3159667218028375   F   F   F
  0.3452374977790953  0.3746790184810820  0.3159667218028375   F   F   F
  0.3452603590954908  0.9997083480310920  0.3159103144045119   F   F   F
  0.3452603590954908  0.4997083480310920  0.3159103144045119   F   F   F
  0.3452603590954908  0.7497083482451785  0.3159103144045119   F   F   F
  0.3452603590954908  0.2497083482451785  0.3159103144045119   F   F   F
  0.3481532327815382  0.4998983086363518  0.4884694660989233   T   T   T
  0.3481446128646967  0.7496485955102337  0.4880997888581147   T   T   T
  0.3482786221344005  0.9988560177585633  0.4879289001295044   T   T   T
  0.3485754000783390  0.6237943987249961  0.4881944180438442   T   T   T
  0.3484706742722646  0.2499157372046511  0.4883386925736932   T   T   T
  0.3485761692644446  0.8737434699806592  0.4883166135847618   T   T   T
  0.3488808358128739  0.3732116999955338  0.4882846949371097   T   T   T
  0.3492005424400974  0.1242599852491313  0.4882337687654866   T   T   T
  0.3989932533589453  0.3724581296348610  0.5725772847627877   T   T   T
  0.3990371169302305  0.5017806637951262  0.5712566716644305   T   T   T
  0.4009837015510863  0.7493011279877876  0.4024138708607690   T   T   T
  0.4010500833962792  0.4994855911809347  0.4026018152372765   T   T   T
  0.4009275456980558  0.9994251701035006  0.4022701326247777   T   T   T
  0.4010830674004765  0.6230666363812171  0.5709168350061978   T   T   T
  0.4010174841268365  0.2495484219612579  0.4023556538620070   T   T   T
  0.4011926709717663  0.8733758106482432  0.5708621455699510   T   T   T
  0.4012554695955763  0.6242297343265509  0.4027239373878054   T   T   T
  0.4011903858341951  0.8742750823137520  0.4025618052015948   T   T   T
  0.4011569281124743  0.1243264244394238  0.4025324744640512   T   T   T
  0.4013131354238479  0.3745319475147739  0.4026727421034542   T   T   T
  0.4046212408568918  0.7506743114325322  0.5686272826161679   T   T   T
  0.4050870321167675  0.1236867352584043  0.5715473584231487   T   T   T
  0.4058809573903222  0.9991599764425455  0.5686501338955323   T   T   T
  0.4058965648201962  0.6248444726427422  0.2323487498175751   F   F   F
  0.4058965648201962  0.8748444728568288  0.2323487498175751   F   F   F
  0.4058965648201962  0.1248444726427422  0.2323487498175751   F   F   F
  0.4058965648201962  0.3748444728568288  0.2323487498175751   F   F   F
  0.4059506995515889  0.9998103570065027  0.2323399901691943   F   F   F
  0.4059506995515889  0.4998103570065027  0.2323399901691943   F   F   F
  0.4059506995515889  0.7498103572205892  0.2323399901691943   F   F   F
  0.4059506995515889  0.2498103572205892  0.2323399901691943   F   F   F
  0.4059391702595408  0.2516677929507140  0.5689047616703760   T   T   T
  0.4997160516964079  0.9995830451698386  0.4729197758217384   T   T   T
  0.4998038917035149  0.7495434330476949  0.4732969129345223   T   T   T
  0.4998991073709147  0.6236142660249729  0.4762568265694059   T   T   T
  0.4998630477502264  0.8735258168276093  0.4755829957079387   T   T   T
  0.4999664724258223  0.4994116281348767  0.4745987327026444   T   T   T
  0.5000000000000000  0.9996370422826644  0.3031199056678844   F   F   F
  0.5000000000000000  0.4996370422826644  0.3031199056678844   F   F   F
  0.5000000000000000  0.6247350156471256  0.3031143997625279   F   F   F
  0.5000000000000000  0.7496370424967509  0.3031199056678844   F   F   F
  0.5000000000000000  0.8747350158612122  0.3031143997625279   F   F   F
  0.5000000000000000  0.1247350156471256  0.3031143997625279   F   F   F
  0.5000000000000000  0.2496370424967509  0.3031199056678844   F   F   F
  0.5000000000000000  0.3747350158612122  0.3031143997625279   F   F   F
  0.5000335260408908  0.3734311980773748  0.4757333642737113   T   T   T
  0.5000238883304069  0.1234508051440249  0.4751070375554311   T   T   T
  0.5000282358362684  0.2496324598286356  0.4734623752800186   T   T   T
  0.8426640031390340  0.0682723800052527  0.5358202164483596   T   T   T
  0.8475928668125068  0.8195710150411198  0.5370732327069777   T   T   T
  0.8480303713669110  0.5694916945683606  0.5367143790199176   T   T   T
  0.8481474511132154  0.3197972984306838  0.5371059419760204   T   T   T
  0.1545097243645866  0.3193421081793423  0.5363395403386925   T   T   T
  0.1554828706765561  0.5674138905870431  0.5360991835048282   T   T   T
  0.1581595866241726  0.8147217871714978  0.5355096036030940   T   T   T
  0.1894574155279940  0.0624816173943407  0.5257232875222407   T   T   T
  0.4988241822399354  0.7577703574170547  0.5395997642342361   T   T   T
  0.4994423510566257  0.2589168753341480  0.5399220688173980   T   T   T
  0.4998255542737594  0.0071166568762099  0.5392142225242099   T   T   T
  0.4998421364551414  0.5055305663652372  0.5412544308864705   T   T   T
  0.0000000000000000  0.0000718854908470  0.1971343718238288   F   F   F
  0.0000000000000000  0.5000718854908470  0.1971343718238288   F   F   F
  0.0000000000000000  0.6251997477026094  0.1971274191543344   F   F   F
  0.0000000000000000  0.7500718857049335  0.1971343718238288   F   F   F
  0.0000000000000000  0.8751997479166960  0.1971274191543344   F   F   F
  0.0000000000000000  0.1251997477026094  0.1971274191543344   F   F   F
  0.0000000000000000  0.2500718857049335  0.1971343718238288   F   F   F
  0.0000000000000000  0.3751997479166960  0.1971274191543344   F   F   F
  0.0001208879829828  0.3786383646723357  0.5415893746640120   T   T   T
  0.0001750304553138  0.0004964718639437  0.3694369303007765   T   T   T
  0.0002134786501860  0.2504952653285282  0.3694394930722053   T   T   T
  0.0003041262994448  0.1253839090643617  0.3694494118733286   T   T   T
  0.0004528049393637  0.5007460270145687  0.5406150033840756   T   T   T
  0.0007210196880268  0.7503424208874330  0.5410918922233248   T   T   T
  0.0007703130823929  0.2510618499013439  0.5415289261169620   T   T   T
  0.5826617485954912  0.5622475047824267  0.2840383746124928   F   F   F
  0.5826617485954912  0.0622475047824267  0.2840383746124928   F   F   F
  0.5826617485954912  0.8122475045683402  0.2840383746124928   F   F   F
  0.5826617485954912  0.3122475045683402  0.2840383746124928   F   F   F
  0.5827027102256537  0.4372504995116770  0.2840867749422387   F   F   F
  0.5827027102256537  0.6872504992975905  0.2840867749422387   F   F   F
  0.5827027102256537  0.9372504995116770  0.2840867749422387   F   F   F
  0.5827027102256537  0.1872504992975905  0.2840867749422387   F   F   F
  0.5836470527953548  0.6864213458678148  0.4542411197014641   T   T   T
  0.5836958523526888  0.5612839261584699  0.4549271996662785   T   T   T
  0.5837367286816105  0.4364227537113968  0.4546054477835158   T   T   T
  0.5838158815528578  0.9364127866008614  0.4542100689317147   T   T   T
  0.5838514749618450  0.1863771328224840  0.4542234999191567   T   T   T
  0.5839329054816800  0.0613531717888470  0.4541862764913008   T   T   T
  0.5839424515465838  0.3113414566835799  0.4544708704753510   T   T   T
  0.5840539902966494  0.8114606969843842  0.4544814784480894   T   T   T
  0.6599278081480664  0.9356079924687000  0.5423416558098756   T   T   T
  0.6601724926366804  0.6862517505568846  0.5423826086204959   T   T   T
  0.6603676004756325  0.1848951934441879  0.5422491614975326   T   T   T
  0.6656630292367254  0.4374555758991647  0.2027209846340057   F   F   F
  0.6656630292367254  0.6874555756850853  0.2027209846340057   F   F   F
  0.6656630292367254  0.9374555758991647  0.2027209846340057   F   F   F
  0.6656630292367254  0.1874555756850853  0.2027209846340057   F   F   F
  0.6657072857987743  0.5624132520265661  0.2026937805471647   F   F   F
  0.6657072857987743  0.0624132520265661  0.2026937805471647   F   F   F
  0.6657072857987743  0.8124132518124867  0.2026937805471647   F   F   F
  0.6657072857987743  0.3124132518124867  0.2026937805471647   F   F   F
  0.6660795799068433  0.4358579346076090  0.5407609512155317   T   T   T
  0.6673863019050534  0.6869910795837758  0.3685977249436623   T   T   T
  0.6674119150163125  0.4370250481569620  0.3687339425899771   T   T   T
  0.6675777009387615  0.8121713906745618  0.3685661389371633   T   T   T
  0.6676033587446641  0.5621868187365485  0.3685372770533131   T   T   T
  0.6676702603363146  0.9370401294892582  0.3685540939957672   T   T   T
  0.6677035192681658  0.3121826526880107  0.3685894703595358   T   T   T
  0.6677346038465720  0.1870306534585962  0.3685181527735975   T   T   T
  0.6677816004542072  0.0621911013347095  0.3684697533009390   T   T   T
  0.6683065202525916  0.0594587071128182  0.5435832068216243   T   T   T
  0.6682938113166489  0.8101640686011897  0.5438117495638333   T   T   T
  0.6700009714079500  0.3087079495438932  0.5439650577207630   T   T   T
  0.6701103624397554  0.5609534705406933  0.5439520498218208   T   T   T
  0.7490945192239449  0.7482735671585287  0.4551039027086402   T   T   T
  0.7492394506397562  0.1263130535094381  0.4558001911568454   T   T   T
  0.7492332504196824  0.6264489414277512  0.4559814843815911   T   T   T
  0.7492635394508745  0.9983429842198857  0.4551340498797983   T   T   T
  0.7493649971707790  0.2483637784126907  0.4550298502614739   T   T   T
  0.7494840330129422  0.4981872097569585  0.4551390272572477   T   T   T
  0.7494815937321764  0.8764604598503628  0.4559821276725993   T   T   T
  0.7495451103716055  0.3759851668559817  0.4559597425948111   T   T   T
  0.7497932119634427  0.6250918038603928  0.2779408447549940   F   F   F
  0.7497932119634427  0.8750918040744793  0.2779408447549940   F   F   F
  0.7497932119634427  0.1250918038603928  0.2779408447549940   F   F   F
  0.7497932119634427  0.3750918040744793  0.2779408447549940   F   F   F
  0.7498000177344295  0.9998887643854673  0.2779024730268418   F   F   F
  0.7498000177344295  0.4998887643854673  0.2779024730268418   F   F   F
  0.7498000177344295  0.7498887645995538  0.2779024730268418   F   F   F
  0.7498000177344295  0.2498887645995538  0.2779024730268418   F   F   F
  0.0816180027789725  0.9377125277751956  0.4539615283354609   T   T   T
  0.0817606310325588  0.6881779308995265  0.4533553731324618   T   T   T
  0.0819036840134053  0.4385617731958860  0.4532291758544073   T   T   T
  0.0824799692814628  0.1885439137801365  0.4542466260053326   T   T   T
  0.0825727650034978  0.4376830284600572  0.2837096284632494   F   F   F
  0.0825727650034978  0.6876830282459707  0.2837096284632494   F   F   F
  0.0825727650034978  0.9376830284600572  0.2837096284632494   F   F   F
  0.0825727650034978  0.1876830282459707  0.2837096284632494   F   F   F
  0.0826029583302130  0.5626929404925889  0.2836274496354534   F   F   F
  0.0826029583302130  0.0626929404925889  0.2836274496354534   F   F   F
  0.0826029583302130  0.8126929402785024  0.2836274496354534   F   F   F
  0.0826029583302130  0.3126929402785024  0.2836274496354534   F   F   F
  0.8292225583881245  0.9410662661520836  0.5431711234720381   T   T   T
  0.8293077474199002  0.6916390190885998  0.5428426247145577   T   T   T
  0.8295057257167407  0.1920417861015531  0.5426788386335286   T   T   T
  0.8318144012854566  0.6877040211687470  0.3676950410945526   T   T   T
  0.8318886680547286  0.5627600744552399  0.3678057028525633   T   T   T
  0.8318956646743725  0.4376596421710797  0.3677038994298473   T   T   T
  0.8320077412813961  0.9377626187544172  0.3678988881648671   T   T   T
  0.8322030494881137  0.8127691573298418  0.3680290183737257   T   T   T
  0.8322250173978729  0.1876588165315680  0.3678356392239863   T   T   T
  0.8322657756136157  0.3126651467471998  0.3678869519676862   T   T   T
  0.8324537275182513  0.4417664343013772  0.5425425918484345   T   T   T
  0.8325797474692089  0.0627287470747823  0.3679637044251367   T   T   T
  0.8336793151700448  0.5625684457322180  0.2026879705260853   F   F   F
  0.8336793151700448  0.0625684457322180  0.2026879705260853   F   F   F
  0.8336793151700448  0.8125684455181315  0.2026879705260853   F   F   F
  0.8336793151700448  0.3125684455181315  0.2026879705260853   F   F   F
  0.8337395527315365  0.4376312579759087  0.2027221981443361   F   F   F
  0.8337395527315365  0.6876312577618222  0.2027221981443361   F   F   F
  0.8337395527315365  0.9376312579759087  0.2027221981443361   F   F   F
  0.8337395527315365  0.1876312577618222  0.2027221981443361   F   F   F
  0.0847615835155191  0.5634581524185031  0.4535269904420655   T   T   T
  0.0847573219370665  0.8129319553306101  0.4538877073033420   T   T   T
  0.0853057309945520  0.3134596131826805  0.4541021791400778   T   T   T
  0.0870411096930873  0.0632001783127346  0.4559216091437219   T   T   T
  0.9142943792044240  0.8133343981100827  0.4543480350904439   T   T   T
  0.9145890117758464  0.5634576680978866  0.4537940980322159   T   T   T
  0.9150759386352302  0.3133428656921980  0.4541089947572555   T   T   T
  0.9155689769788116  0.0634245907727209  0.4542865085814996   T   T   T
  0.9173469355280877  0.6884361542411251  0.4533357050086550   T   T   T
  0.9173970416697870  0.5626929404925889  0.2836274496354534   F   F   F
  0.9173970416697870  0.0626929404925889  0.2836274496354534   F   F   F
  0.9173970416697870  0.8126929402785024  0.2836274496354534   F   F   F
  0.9173970416697870  0.3126929402785024  0.2836274496354534   F   F   F
  0.9174272349965022  0.4376830284600572  0.2837096284632494   F   F   F
  0.9174272349965022  0.6876830282459707  0.2837096284632494   F   F   F
  0.9174272349965022  0.9376830284600572  0.2837096284632494   F   F   F
  0.9174272349965022  0.1876830282459707  0.2837096284632494   F   F   F
  0.9175126664749913  0.9386511108874269  0.4536898309604783   T   T   T
  0.9175975968037059  0.1883940436057669  0.4536064811110440   T   T   T
  0.9177916847705021  0.4384819329521721  0.4531926855270402   T   T   T
  0.9965597812512202  0.1293738683869140  0.5431960802208868   T   T   T
  0.9981469821376519  0.0005058513591052  0.5430282657965277   T   T   T
  0.9991810278827672  0.8761290539472201  0.5420672960922035   T   T   T
  0.9996758641067307  0.7505091860214292  0.3693094552426679   T   T   T
  0.9996573140051312  0.6279908967174423  0.5417157116373896   T   T   T
  0.9997639685021866  0.6254750518005068  0.3692648052774590   T   T   T
  0.9998027918191322  0.8754398801247310  0.3693266726730659   T   T   T
  0.9998749799355602  0.5006040242796879  0.3692637603522496   T   T   T
  0.9999740006024396  0.3755043294334185  0.3692682834534544   T   T   T
  0.1657128305651693  0.9385558457096268  0.5446825523000351   T   T   T
  0.1662604174500757  0.4376312579759087  0.2027221981443361   F   F   F
  0.1662604174500757  0.6876312577618222  0.2027221981443361   F   F   F
  0.1662604174500757  0.9376312579759087  0.2027221981443361   F   F   F
  0.1662604174500757  0.1876312577618222  0.2027221981443361   F   F   F
  0.1663206550115603  0.5625684457322180  0.2026879705260853   F   F   F
  0.1663206550115603  0.0625684457322180  0.2026879705260853   F   F   F
  0.1663206550115603  0.8125684455181315  0.2026879705260853   F   F   F
  0.1663206550115603  0.3125684455181315  0.2026879705260853   F   F   F
  0.1670641034804521  0.4411839970654949  0.5424321604348860   T   T   T
  0.1674228051269052  0.8126849960240335  0.3679329618732119   T   T   T
  0.1675161880699161  0.0626526310832704  0.3685131113171231   T   T   T
  0.1676603490426106  0.3126806561481375  0.3678891817597380   T   T   T
  0.1678266180848642  0.5627723580836763  0.3677373699423073   T   T   T
  0.1679444776240111  0.6877032192428780  0.3677030869057758   T   T   T
  0.1680105875912059  0.4377106100077102  0.3676952507942384   T   T   T
  0.1678596990428336  0.9377240969286800  0.3681508108964237   T   T   T
  0.1678719143217971  0.1876046431481005  0.3680935085756972   T   T   T
  0.1680692940762295  0.6896903337318454  0.5427731051505118   T   T   T