Ta  N  W Cu                             
   1.00000000000000     
    18.1096308199999996    0.0000000000000000    0.0000000000000000
     0.0000000000000000   23.3551997799999995    0.0000000000000000
     0.0000000000000000    0.0000000000000000   30.4818171199999988
   Ta   N    W    Cu
   228   240    12     2
Direct
  0.0000145388894452  0.0000406099604078  0.1975219842765839
  0.3341020929494505  0.0625965644739850  0.2026609936488200
  0.1657831756781576  0.0626184870943263  0.2027829166987871
  0.2498819913195334  0.1251360755858215  0.2779174600905066
  0.0827501457337334  0.0626273135060416  0.2841174157190807
  0.4171255737503898  0.0626165319131431  0.2839521849013238
  0.9999983664672527  0.1251434201907600  0.3699619423587635
  0.3324803392689972  0.0626419017273037  0.3684096011848226
  0.1673379493311984  0.0626542014582725  0.3684381472468843
  0.2505824730861406  0.1253951683273584  0.4552128107187130
  0.0839591748665924  0.0626087575668208  0.4546682836486795
  0.4163677753278989  0.0625721982224832  0.4543449961149335
  0.9997238931383379  0.1251559492575041  0.5410425963581389
  0.3346539836779101  0.0619912379352741  0.5422264536731447
  0.0000244883784930  0.1251122841905712  0.1975068374964835
  0.3341250559908886  0.1875705804875167  0.2026769074799972
  0.1657417862219930  0.1875518229635276  0.2027760578114339
  0.2499605296616494  0.2500842786376367  0.2779675231701262
  0.0827031866464480  0.1876135904340899  0.2841019984115079
  0.4171860889348480  0.1876014421043521  0.2840039297601820
  0.9999870561320208  0.2501056206746952  0.3699550426275309
  0.3326282924967074  0.1876116394002736  0.3685123642303409
  0.1674835405564181  0.1876265609632242  0.3684997236780561
  0.2506523454153822  0.2497535884695168  0.4551635002127199
  0.0835741583539829  0.1876149484652032  0.4547205524268563
  0.4165339942494128  0.1875567495685644  0.4544165017906749
  0.9996434076530676  0.2501206740725834  0.5410689705357044
  0.3322763691355988  0.1874260031870563  0.5403814896762498
  0.1646608009890969  0.1875341812073046  0.5418940706214030
  0.0000488932810541  0.2500271151929780  0.1975326523937113
  0.3341284166421943  0.3126137905187250  0.2027525577125786
  0.1658078006127184  0.3126104804394600  0.2028751241303368
  0.2499248871441040  0.3751294595130474  0.2780213299345462
  0.0827499118022104  0.3126076048417517  0.2841565757298241
  0.4171308441986596  0.3126009683661479  0.2840200356649447
  0.9999735106116319  0.3751156665703022  0.3699811748980224
  0.3325455574595537  0.3126215441540054  0.3684904526387029
  0.1673686717701059  0.3126326600310492  0.3684485114733320
  0.2502297623467342  0.3754480362972643  0.4550680666768088
  0.0838905943362960  0.3126264781205705  0.4546454384510028
  0.4163786100014804  0.3125806063182281  0.4544534272487724
  0.9996967635614666  0.3752640985063991  0.5410376521159321
  0.3345697252263165  0.3134793612942488  0.5420655990616652
  0.0000606129074754  0.3750872721438938  0.1975710023640289
  0.3340942463698369  0.4375914661074063  0.2028030990172169
  0.1658187151729393  0.4375978500354805  0.2028926035118914
  0.2499173530161158  0.0001164140089429  0.2779319120277535
  0.0827248184891047  0.4376357962633577  0.2841590047334606
  0.4171830323429049  0.4376279861701065  0.2840704764476811
  0.0000080180394022  0.0001516540830337  0.3699235048736682
  0.3324931113228615  0.4376332180855940  0.3685174063748775
  0.1674163246609339  0.4376568163943375  0.3685249664432959
  0.2504951011498093  0.9997929122609506  0.4550304404236982
  0.0835160102643613  0.4376784600711332  0.4546934165334591
  0.4164686128408590  0.4376055491742861  0.4544256532568411
  0.9999001510185082  0.0000243647330791  0.5411508611364937
  0.3350880591071785  0.4368138095035903  0.5418415230716391
  0.1649817276594661  0.4377334637809511  0.5417532649709784
  0.0000901194436267  0.5001041594834064  0.1975434178057043
  0.3341616223508197  0.5626007862313571  0.2027615832203793
  0.1657722746570158  0.5626149831986993  0.2028451512059632
  0.2499325702009543  0.6251314784171385  0.2780177243571913
  0.0827490745071344  0.5626382567081336  0.2841621255037978
  0.4171462518597622  0.5626250465083729  0.2840802133076323
  0.9999834795052109  0.6251363418456393  0.3699656424831446
  0.3325934579768060  0.5626706027045643  0.3685781304229536
  0.1674106307132064  0.5626859387087251  0.3684672891290148
  0.2504903601658839  0.6255498347577344  0.4552650095068813
  0.0838188248411171  0.5626970325552776  0.4546528370711016
  0.4163203733316010  0.5627107898354922  0.4544865243485177
  0.9995496016157404  0.6253291980235076  0.5410291049788256
  0.3318238458272091  0.5628895324791614  0.5406831780628139
  0.0000862993572781  0.6250638873281886  0.1975376867005494
  0.3341238501372814  0.6875620994800684  0.2027422906007814
  0.1657909367866708  0.6875699398019748  0.2028354053731221
  0.2499490959809663  0.7501132406780755  0.2779959691356666
  0.0827344055812702  0.6876327461974299  0.2841521858063203
  0.4171846879044949  0.6876201481222282  0.2840573133302868
  0.0000076573361909  0.7501986707387260  0.3699340004904741
  0.3324261216730235  0.6876815239712570  0.3684795272403107
  0.1673908892504699  0.6876696242592999  0.3685403406464332
  0.2504447986766465  0.7498570610080790  0.4550720313476191
  0.0835564598164709  0.6877294777385927  0.4547281298613584
  0.4164288236368918  0.6877540986186901  0.4543549066794981
  0.9998860376744716  0.7501243447294144  0.5411215407223864
  0.3352364682362179  0.6884512404444862  0.5420813704636842
  0.1652039631365128  0.6877196139599420  0.5418494131655791
  0.0000493199667346  0.7500456054885873  0.1975396490777754
  0.3341113153275046  0.8125564248855781  0.2027291389146768
  0.1657817346296397  0.8125824305284723  0.2028482209386695
  0.2499010002479949  0.8751355892033814  0.2779601787972155
  0.0827406613543431  0.8126315447139660  0.2841493523335501
  0.4171391021636879  0.8126165312151556  0.2839914562144585
  0.0000112954445441  0.8751689817183887  0.3699426534752916
  0.3324831060542763  0.8126781406000561  0.3683854910169018
  0.1673327309042847  0.8126905603200996  0.3684313692401986
  0.2503101855359802  0.8755124692392116  0.4550273711502442
  0.0839319292888661  0.8126989134634499  0.4546837604856222
  0.4161651925491014  0.8127649871475953  0.4542796432279914
  0.9999054165357322  0.8752831550880131  0.5411167073017822
  0.3353763093276712  0.8133167800831060  0.5418576513935633
  0.0000369992692555  0.8750785384704614  0.1975568023575249
  0.3340942457962583  0.9375730235097137  0.2027033891744452
  0.1657802971328621  0.9375801180264958  0.2028121567215990
  0.2499879596424890  0.5001474124277081  0.2780361851526223
  0.0826904051536843  0.9376316905435473  0.2841097756980986
  0.4171858330396603  0.9376192571699349  0.2839715792121567
  0.9999724479845966  0.5001912950797447  0.3699527479547911
  0.3324579601621807  0.9376566002900972  0.3683663659917968
  0.1673804956320453  0.9376550796187928  0.3684825667365246
  0.2505791669142070  0.4998504783718474  0.4551885845187655
  0.0836082274828485  0.9376697909748373  0.4547425127026301
  0.4163184847252879  0.9375907958393128  0.4542541452569964
  0.9995245790769474  0.5000450352453640  0.5410295250958228
  0.3359233221270728  0.9370677592426873  0.5416390149112189
  0.1656061745459212  0.9376183257410560  0.5418941741260070
  0.4999873949982216  0.0000581134288637  0.1974724830175631
  0.8342185638412900  0.0626179727774101  0.2027790452094109
  0.6658874297356761  0.0626007375568847  0.2026511929752814
  0.7501659103766727  0.1251202349333269  0.2778708198432014
  0.5828883700426246  0.0626101466832338  0.2839320254101949
  0.9173014906237427  0.0626287592899359  0.2840936521211219
  0.5000360544323570  0.1251187904133602  0.3696523341448881
  0.8327092050529359  0.0626463820844947  0.3683559764440218
  0.6675894022903890  0.0626248489222903  0.3682999465176238
  0.7498340370741161  0.1254765978284027  0.4549746642796748
  0.5840120601655201  0.0626139645061699  0.4541828559362600
  0.9161282030179692  0.0626309032287651  0.4546802573240640
  0.5011935720069687  0.1251735776539107  0.5405673516880185
  0.6649048229456298  0.0628181652832538  0.5417356261732280
  0.4999784618470926  0.1251147267453945  0.1974489335416365
  0.8342567956515978  0.1875527532695571  0.2027551343553000
  0.6658795451063142  0.1875664249954170  0.2026550528888933
  0.7501024561127139  0.2500845445265441  0.2779069306920334
  0.5828097688667526  0.1876016727459699  0.2839726026309961
  0.9173695866788023  0.1876187833005787  0.2840600563746634
  0.5000199905609932  0.2500474132341282  0.3696498399005250
  0.8325788965997845  0.1876325288398277  0.3684205654922721
  0.6674912046134693  0.1876201584907164  0.3683635015128957
  0.7496358624909689  0.2497485757251710  0.4549569435046834
  0.5839771916629388  0.1875888252939291  0.4542361292453521
  0.9164798019055240  0.1876318981163365  0.4546806612722278
  0.8344044404709834  0.1876312919777376  0.5419019011316095
  0.6651715991966611  0.1873628866072892  0.5413699999245836
  0.4999703097314594  0.2500469859236176  0.1974958264605817
  0.8342237815677933  0.3125986443914215  0.2028402059925725
  0.6658845680224061  0.3126017160487677  0.2027245827531701
  0.7501447759412585  0.3751235399130337  0.2779469667431727
  0.5828540658760133  0.3126018326998761  0.2839722254338639
  0.9173301154262248  0.3126107043904369  0.2841138968821966
  0.4999506311624842  0.3751345981146272  0.3697269783448789
  0.8326674265390892  0.3126454442477424  0.3683697517172178
  0.6675017318075334  0.3126427407313841  0.3683382474934973
  0.7497891099879723  0.3754849830648723  0.4550062898408598
  0.5839665768261781  0.3126018319448818  0.4542551140252229
  0.9160964337832951  0.3126275960637486  0.4546679678885184
  0.4997150315805996  0.3750563593474894  0.5408068397932908
  0.6648435604273573  0.3130418016191427  0.5416129063747661
  0.4999548436635308  0.3750907666868031  0.1975251716503479
  0.8342219116797764  0.4375835461614699  0.2028462964374285
  0.6659165704970746  0.4375843146478786  0.2027602047020949
  0.7501094410447493  0.0001120340150962  0.2779081060406199
  0.5827984109517530  0.4376258509674926  0.2840122223234047
  0.9173726051120852  0.4376305333002009  0.2840997701944801
  0.5000222558921763  0.0001044501857663  0.3695979595781722
  0.8326020578176241  0.4376451270844939  0.3684274985229052
  0.6675317354884740  0.4376229225035004  0.3683522364666558
  0.7495925875197500  0.9997845528759726  0.4549923259031132
  0.5838065412676983  0.4376381932948021  0.4542082107691812
  0.9163898774060470  0.4376720215016405  0.4547428221328147
  0.8342807930801186  0.4377035985875182  0.5419097628288441
  0.6642971637375652  0.4372935388290813  0.5413668455077669
  0.4999578820341100  0.5001034872672321  0.1975462087050133
  0.8342598754141974  0.5625871177600246  0.2027830359522937
  0.6658495188100133  0.5625907910428865  0.2027020201569627
  0.7501525286175408  0.6251323618841482  0.2779100117859272
  0.5828379161909751  0.5626283606552391  0.2840208536536295
  0.9173524204686743  0.5626332895554569  0.2840874052249376
  0.4999880737071294  0.6252032920314576  0.3697194882638328
  0.8326198454883524  0.5626697593387107  0.3683504478860584
  0.6674829867151644  0.5626687052568258  0.3683926334126966
  0.7497790778402376  0.6255083091878575  0.4549813244096583
  0.5839695600616324  0.5627054621786058  0.4542577077442260
  0.9161072742214600  0.5626860625701582  0.4545839512140404
  0.5011171041156501  0.6247833444684119  0.5405624811524419
  0.6655408709585515  0.5629743262493747  0.5415394033983318
  0.4999557683071245  0.6250723519272867  0.1975214595081169
  0.8342597856002243  0.6875372797330499  0.2027869809301563
  0.6658923331521791  0.6875358581389577  0.2027000238231125
  0.7501061335921264  0.7501050002703380  0.2779279113188267
  0.5828244819713362  0.6876225455245262  0.2840019629286772
  0.9173628397022000  0.6876295249826185  0.2840920513774847
  0.5000056745731598  0.7501662903840867  0.3696358913339353
  0.8326329262669390  0.6876786980234897  0.3684211741965271
  0.6676102883746111  0.6876864298205163  0.3683285665534939
  0.7495768704013628  0.7498517769802007  0.4549904274362291
  0.5838507451966279  0.6877340933338232  0.4541525429556472
  0.9164183633642367  0.6877223895977238  0.4547318507127827
  0.8342501722940412  0.6877772044442452  0.5419193469350674
  0.6643254334643629  0.6875359739576083  0.5415149292330383
  0.4999658342202267  0.7500235763831853  0.1975189721038646
  0.8342424272629216  0.8125814603530657  0.2028115732868230
  0.6658969212884855  0.8125586200931423  0.2026966581337888
  0.7501300887019511  0.8751324309268824  0.2779117044373223
  0.5828866891626490  0.8126147566902659  0.2839585506655098
  0.9173087227892438  0.8126271459292553  0.2841121966487563
  0.5000278651531360  0.8751787644441080  0.3696419413411718
  0.8327178695675670  0.8126863220230547  0.3683914410271285
  0.6675805829887338  0.8126850929642302  0.3683520722585882
  0.7497465670088985  0.8755302969440848  0.4550201479187024
  0.5839478383949981  0.8127731955104238  0.4542535215829204
  0.9160779280452331  0.8126926583432592  0.4546647530010759
  0.5000652539390273  0.8751011835996323  0.5410534555565647
  0.6647970697468395  0.8131460871183052  0.5418338640120695
  0.4999693193700878  0.8750745247156146  0.1974954551063064
  0.8342469970993847  0.9375655756881045  0.2027885866465553
  0.6658979790853436  0.9375499991390654  0.2026792520933043
  0.7500934070763350  0.5001329559428953  0.2779323136923750
  0.5828399001633287  0.9376117458696953  0.2839587387198890
  0.9173416377779517  0.9376292263298325  0.2840908975440612
  0.4999748949375586  0.5001591916982520  0.3697046724858026
  0.8326655287521589  0.9376555910548490  0.3684659102821399
  0.6676061782578842  0.9376444836980440  0.3683571448037952
  0.7495877243537947  0.4998849123547657  0.4549635385583315
  0.5838231578722031  0.9375870938652540  0.4542238349225443
  0.9164293232432144  0.9376764104437569  0.4547544581785345
  0.8342947455831009  0.9376724525605127  0.5419315547219838
  0.6643156467091345  0.9372977911976008  0.5416205584306510
  0.4055534960543099  0.0000927888889493  0.2322461963504381
  0.2499334754356894  0.0000929186491803  0.1994060451476543
  0.0943026865575973  0.0001106615977378  0.2323930479218461
  0.1550054162866488  0.1251815717790521  0.3158805296994132
  0.0000163303277176  0.1251117501578776  0.3032666021659267
  0.3449653846270024  0.1251493871259086  0.3157857054551414
  0.4009320448824454  0.1251144873123380  0.4022431108072837
  0.2499462199394529  0.1251222414226945  0.3874356462453932
  0.0990711622101443  0.1251586342388578  0.4024342137935548
  0.1523678799894128  0.1249694626800562  0.4876683730593427
  0.0000156414543753  0.1249527471578276  0.4731122967226398
  0.3490214550925330  0.1248238072564192  0.4883224207950860
  0.4019861717200186  0.1245206473082874  0.5720846672809472
  0.2486458188241087  0.1240538313783475  0.5577010667168167
  0.0983620834259185  0.1228866247939635  0.5696435530937407
  0.4055689058849623  0.1251136578297789  0.2322389734661456
  0.2499569020814505  0.1250947813887748  0.1993262081214979
  0.0942888107266810  0.1251041509652708  0.2324161666630218
  0.1550000800067295  0.2500784247291534  0.3158774452096580
  0.0000247694454387  0.2501157757614578  0.3032787225281197
  0.3449835538703923  0.2500965089007963  0.3158458125007471
  0.4010178521910603  0.2500538024408101  0.4022308318578069
  0.2500476477045552  0.2501255711762624  0.3874100191444469
  0.0990937691731162  0.2501054914440957  0.4024426445410256
  0.1525000654557687  0.2502235678394982  0.4877010740959093
  0.9999968994918902  0.2503198194061227  0.4731794989408158
  0.3488123726073908  0.2502282406757459  0.4882742010996566
  0.4058247275737443  0.2511200908949789  0.5714211607658797
  0.2491649234082871  0.2510274622513364  0.5581183768899933
  0.0983662077925587  0.2522623303488771  0.5696800804371946
  0.4055525416919963  0.2500725642657500  0.2322908873597598
  0.2499397307437761  0.2500873634266156  0.1995414621806049
  0.0943223993094762  0.2500839482106301  0.2324334441765643
  0.1549878532204971  0.3751556529142590  0.3159017295316957
  0.0000341724185660  0.3751069331794099  0.3032937139586593
  0.3449813304126437  0.3751341070718368  0.3158604128446783
  0.4009399465457051  0.3751357634785677  0.4023190042219085
  0.2498651483515602  0.3751011780069575  0.3873180504568978
  0.0990172448850970  0.3751391556600083  0.4024590804164774
  0.1523163124754774  0.3750305033277073  0.4876585219272229
  0.9999648442312576  0.3749672650981566  0.4730975012757526
  0.3484056158297761  0.3751270516524770  0.4878822705684982
  0.4020639404647142  0.3753065232301225  0.5704328569779094
  0.2492236320173973  0.3739164320109509  0.5574367304183099
  0.0985176541341701  0.3730498183561650  0.5695328737066490
  0.4055816902455973  0.3751128415556551  0.2323232991566400
  0.2499632886829488  0.3750921367564430  0.1993779561620386
  0.0943127894622151  0.3751034501213226  0.2324579405416713
  0.1549395573736376  0.0001145583487130  0.3158324080936339
  0.0000181825956034  0.0001548862530854  0.3032530049594868
  0.3449528465927045  0.0001334417765619  0.3157580559308215
  0.4009574078541434  0.0001081328990864  0.4020986346646893
  0.2499497652372042  0.0001671226088646  0.3872587361891178
  0.0990689202907475  0.0001387317513846  0.4024731500774124
  0.1526605477931042  0.0002163888202134  0.4877515364793013
  0.0000250096542374  0.0003376196633269  0.4732778694471591
  0.3484851873234263  0.0001632462464798  0.4878500359861064
  0.4070793244816642  0.9999085602492244  0.5696662485638413
  0.2500308154857152  0.0017403632948714  0.5580471092972559
  0.0988299112946365  0.0020060882879136  0.5696579205922987
  0.4055634941056283  0.5001173307165061  0.2323646633691183
  0.2499503672123424  0.5001187982390292  0.1995730488496079
  0.0943323072780231  0.5001270799207518  0.2324698584329141
  0.1550110102028626  0.6251576877496419  0.3159262953810682
  0.0000286896803345  0.6251262647197748  0.3032830749410209
  0.3449940099967819  0.6251479154735406  0.3158825637970466
  0.4008583042466043  0.6252551290209496  0.4022989937210539
  0.2499038665743853  0.6251402844858589  0.3874912867139670
  0.0990379579860132  0.6251803933981606  0.4024527290153515
  0.1522533952319378  0.6251271618912853  0.4877036104232815
  0.9999295573602041  0.6250248642245779  0.4730834615857091
  0.3489117102619446  0.6256352927627731  0.4883826022327113
  0.4018836527531420  0.6256247375158850  0.5721179789825825
  0.2483816428059598  0.6237521974216094  0.5578046713751803
  0.0982311650101408  0.6232063366098473  0.5696321121636672
  0.4055768261525898  0.6250963552179627  0.2323511984758682
  0.2499686768682139  0.6250737689454837  0.1995017198048359
  0.0943271429949561  0.6250992107746356  0.2324750205270618
  0.1549588822067562  0.7501309246601977  0.3158693941607922
  0.0000288376412385  0.7501410743575860  0.3032677956750902
  0.3449723759570702  0.7501276644982440  0.3158236885967227
  0.4009418621158076  0.7501468091625654  0.4021450984543335
  0.2499376341302835  0.7502163324410205  0.3872979002617285
  0.0990572337875264  0.7501963609947921  0.4024881497584047
  0.1525967847859206  0.7503081289743747  0.4877671544011122
  0.9999892970762190  0.7504092238132714  0.4732498185025875
  0.3484437172313406  0.7501454539664962  0.4878689830200216
  0.4071324872088269  0.7499679383794344  0.5696676054041276
  0.2501913899131125  0.7506400757152463  0.5580224301569814
  0.0987799414474893  0.7523935719585211  0.5696557508957980
  0.4055573822082508  0.7500634123315706  0.2323163219708206
  0.2499467628025585  0.7500628221534811  0.1994412692290695
  0.0943150181501835  0.7500909436852226  0.2324359275567147
  0.1549622663927295  0.8751807559547657  0.3158727963505896
  0.0000133022593118  0.8751274995285883  0.3032595022937699
  0.3450057226964773  0.8751569347420656  0.3157742717252177
  0.4009002113338056  0.8752187697479883  0.4021856859187736
  0.2498321672126949  0.8751499148217334  0.3872693584914657
  0.0990547252238443  0.8751877933082639  0.4024869012609713
  0.1524517779070678  0.8750871966345386  0.4877262097676152
  0.0000093091444313  0.8750069162740033  0.4731968961171589
  0.3484933999258928  0.8752187376824878  0.4879078539582196
  0.4025636633594587  0.8753061407940379  0.5704210354004928
  0.2492790663924254  0.8738958681740812  0.5576709574035590
  0.0987806733256704  0.8731463690818657  0.5695356852047055
  0.4055612213671580  0.8750956487125165  0.2322611870582065
  0.2499554569458553  0.8750654739230015  0.1994079723931605
  0.0943235415368591  0.8750993222219847  0.2324299743458980
  0.1549975203694203  0.5001328084338965  0.3159090795501740
  0.0000314214319133  0.5001483815967092  0.3032850217679055
  0.3449987430399233  0.5001193158185728  0.3159116421327894
  0.4009568692165928  0.5000950341538228  0.4022703572059569
  0.2500004309472175  0.5001758627894262  0.3874359123567430
  0.0990633535915393  0.5001675686847591  0.4024474432831227
  0.1524105017689692  0.5002530047515634  0.4877109032904769
  0.9999222841805420  0.5003588576819524  0.4731420270659257
  0.3487224838531162  0.4998875623221011  0.4882751085017318
  0.4057418164153361  0.4991230524543866  0.5713717081812462
  0.2489817339078186  0.5013050430858854  0.5582056764303900
  0.0982638825035522  0.5021092070268409  0.5696401455418822
  0.9057102543897955  0.0001049460860401  0.2323778322564749
  0.7500609822929860  0.0000817362900420  0.1994468295959138
  0.5944409724745654  0.0000818324962069  0.2322236823540322
  0.6550567238947949  0.1251366051431333  0.3156961844752786
  0.5000021605230103  0.1250832653419067  0.3030048932806579
  0.8450808860472279  0.1251755724414281  0.3158187254494109
  0.9009405191440152  0.1251474804651949  0.4024295527438682
  0.7502013722474672  0.1250965391887391  0.3872244746545732
  0.5992421046257235  0.1251364859929396  0.4021089343400206
  0.6516930409561610  0.1251238930708567  0.4877689550241087
  0.5003181912322319  0.1249816827082384  0.4727515405387592
  0.8477032798821966  0.1250330183681143  0.4876883236032228
  0.9011516041150287  0.1230558695869348  0.5696237021583741
  0.7509499720217789  0.1237965219698225  0.5575644137733349
  0.5978881145669916  0.1255860305264775  0.5701802307988473
  0.9057394870603304  0.1251025732137521  0.2323875253924541
  0.7500406905280812  0.1250911056286128  0.1992779922817647
  0.5944113915151377  0.1251108661528377  0.2322176786393726
  0.6550472057702308  0.2501103133807803  0.3157372153718825
  0.4999991045857399  0.2501141413405605  0.3030027963800919
  0.8450948514775831  0.2500939749224500  0.3158100022359136
  0.9008934870765017  0.2501158419830887  0.4024397066587895
  0.7500661869552943  0.2501747840977373  0.3872018711087293
  0.5991208073130494  0.2500882702276499  0.4020905765533342
  0.6517704099878259  0.2501156236388624  0.4877724180502767
  0.5002759599939139  0.2501153379539574  0.4728213215859256
  0.8474921565882525  0.2502105710472975  0.4877287349771677
  0.9010748841562517  0.2521314435540987  0.5697201069001778
  0.7503297410716101  0.2513670025097525  0.5580434416405637
  0.5936255928099925  0.2495373913180501  0.5695323042366454
  0.9057383255468636  0.2500873402516035  0.2323923842697155
  0.7500639830990323  0.2500832430655180  0.1994818400846441
  0.5944139339386965  0.2500709921392286  0.2322583746983398
  0.6550450937680097  0.3751329378261943  0.3157389789411553
  0.4999884243584773  0.3750958210165152  0.3030690328369943
  0.8450980103609425  0.3751559387769774  0.3158370210596857
  0.9009196740055501  0.3751500964052710  0.4024599568430745
  0.7501771289976915  0.3751092416214092  0.3872276575136695
  0.5991059267815118  0.3751602117437898  0.4021445178292140
  0.6516545599710284  0.3751629984920086  0.4876540734914343
  0.5000786232516532  0.3750297232366080  0.4729400312297827
  0.8476373602505021  0.3750053696949536  0.4876907931760215
  0.9010721457469018  0.3730899740248361  0.5696137477625811
  0.7506917461194789  0.3738662826917079  0.5575113056487382
  0.5971314378067873  0.3752620378625195  0.5700097074862995
  0.9057607516214645  0.3750973714302432  0.2324062875936903
  0.7500472913295582  0.3750812368502849  0.1993184994953339
  0.5943800920348750  0.3751103961676492  0.2322623902044612
  0.6550722275557490  0.0000986415139650  0.3157151404821619
  0.5000075674492237  0.0001444154220565  0.3029551687242531
  0.8451073768100130  0.0000943550327079  0.3158054939616619
  0.9009514652807482  0.0001485455697932  0.4024710484629281
  0.7501147132722608  0.0001683759022981  0.3872034066349030
  0.5991464431974904  0.0000779963076383  0.4020287566555609
  0.6516436351163932  0.0001385663437006  0.4877506754743735
  0.5000805648843070  0.0000886071944208  0.4724744614716414
  0.8474204643794110  0.0002767862750943  0.4877555641635851
  0.9011532789762455  0.0021369487743144  0.5696813186398089
  0.7500769613212626  0.0012963991902026  0.5581025270080033
  0.5925846371639523  0.0000588053537598  0.5694560840640150
  0.9057709210061660  0.5001108522208284  0.2323970450351922
  0.7500696259898021  0.5001072705714265  0.1994843815910841
  0.5943994483333555  0.5001097579259479  0.2323050817539922
  0.6550492495276359  0.6251544655969141  0.3157353833804990
  0.5000024386164981  0.6251265631345788  0.3030829483799806
  0.8450939635507666  0.6251592806479280  0.3158227391715371
  0.9009119415515556  0.6251998248452253  0.4024138947907758
  0.7502007842197145  0.6251558026006876  0.3872289777694959
  0.5992289857384634  0.6252475671858946  0.4021218341141761
  0.6516221702252736  0.6253298062082209  0.4877466648605093
  0.5002323228449086  0.6252281885440070  0.4727004792329836
  0.8476679579677509  0.6250623772453139  0.4876685699308254
  0.9010210304842303  0.6231329684932518  0.5695972492738051
  0.7508981380746391  0.6239698800770697  0.5575654449007530
  0.5978407120369980  0.6249683180792474  0.5701542282263290
  0.9057737571815068  0.6250876912218004  0.2324005589400286
  0.7500630282868599  0.6250578091026995  0.1993795325237855
  0.5943909021799243  0.6250895277794370  0.2322883110026481
  0.6550717414773928  0.7501529490132768  0.3157388057374249
  0.5000109920984386  0.7501240696170797  0.3030018448949008
  0.8451106096197236  0.7501381988455691  0.3158069964162635
  0.9009352062851050  0.7501779001946431  0.4024604001674277
  0.7501081968692489  0.7502097422847882  0.3872051476292526
  0.5991408016424842  0.7501797548397775  0.4020451321432077
  0.6516338526292031  0.7501685561040148  0.4877409215633648
  0.5000565488607904  0.7503552819027917  0.4724776327364282
  0.8473964991105447  0.7502955384194294  0.4877314493986091
  0.9011435584661598  0.7522353863506481  0.5696510370681480
  0.7500373399290154  0.7512534457673823  0.5580925231560983
  0.5925484176283788  0.7499062583688030  0.5694462398042717
  0.9057408014779753  0.7500852139524667  0.2323860108202354
  0.7500751966491350  0.7500497135864421  0.1994438442198714
  0.5944299335069942  0.7500579649125925  0.2322599465935511
  0.6550392247410670  0.8751529086707279  0.3157407865560700
  0.5000122112020406  0.8751129967711790  0.3029904383339144
  0.8450682830787670  0.8751798936890509  0.3158369871722257
  0.9009822460253574  0.8751932734988586  0.4024730815862014
  0.7502273228875893  0.8751404793541155  0.3872327081189297
  0.5991725973835571  0.8752143121053777  0.4021747666636841
  0.6516342064247738  0.8752381426419333  0.4879113403055015
  0.5000602086093977  0.8751125776200084  0.4730387741341815
  0.8476138049203996  0.8750680854310460  0.4877086872784488
  0.9011784446018467  0.8731220725728051  0.5695853571400278
  0.7507213542287303  0.8739005928112178  0.5576165329642748
  0.5973814638958146  0.8753311578148910  0.5703548441413915
  0.9057171160713153  0.8750953540838751  0.2324003790911817
  0.7500517608484429  0.8750586963978151  0.1993220743202286
  0.5944170715371939  0.8750905322859310  0.2322291378150538
  0.6550392367361155  0.5001075737898617  0.3157628829317645
  0.4999950173731591  0.5001279225288116  0.3030630900889619
  0.8451028429458347  0.5001121007386331  0.3158113079204838
  0.9008695222506518  0.5001379996239308  0.4024226182964270
  0.7500671328168949  0.5001442481040215  0.3872071059021494
  0.5991065739722643  0.5000967419975666  0.4020997280256893
  0.6516899271517147  0.5001029912040451  0.4877463430842965
  0.5001919196315541  0.5001617659864124  0.4727808907774573
  0.8474634714649696  0.5003222870724500  0.4877055603151490
  0.9009680649262108  0.5022301472490298  0.5696696104570691
  0.7502682385947281  0.5011803918953603  0.5580553253847853
  0.5936336883460029  0.5003704986330249  0.5694809757262647
  0.1642021187080331  0.0625639989788098  0.5403113571136373
  0.1639643207658423  0.3125287950155951  0.5402536284164157
  0.1635522835660126  0.5627462790268396  0.5403954242916953
  0.1644785007637992  0.8126893344230055  0.5403754259066815
  0.8353352771015565  0.0625604655408409  0.5404084631658606
  0.5010781285721322  0.2491974530308383  0.5399909090146409
  0.8352847911075472  0.3125902490564272  0.5403894483075007
  0.4999027288510760  0.9999793378107071  0.5396832668261027
  0.8352348420034232  0.5627025505756649  0.5403039604915705
  0.4998888545595221  0.7500992629614771  0.5396638257028030
  0.8353001634290038  0.8126568696145071  0.5403857151524321
  0.5010379365231685  0.5010940398787227  0.5399142774985677
  0.4365498215161310  0.5622853728016608  0.6080497936868881
  0.4355560469074504  0.1878259561420492  0.6079958309511255
 
  0.00000000E+00  0.00000000E+00  0.00000000E+00
  0.00000000E+00  0.00000000E+00  0.00000000E+00
  0.00000000E+00  0.00000000E+00  0.00000000E+00
  0.00000000E+00  0.00000000E+00  0.00000000E+00
  0.00000000E+00  0.00000000E+00  0.00000000E+00