Ru Cu                                   
   1.00000000000000     
    10.8623999999999992    0.0000000000000000    0.0000000000000000
    -5.4311999999999969    9.4071143460680844    0.0000000000000000
     0.0000000000000000    0.0000000000000000   22.7112499999999962
   Ru   Cu
    96     1
Selective dynamics
Direct
  0.0838213722017458  0.1666675784812770  0.3584324374272112   T   T   T
  0.1666358145081617  0.0833979264009201  0.2676644753292123   F   F   F
  0.0843207022507659  0.1656274438382265  0.5480885061757816   T   T   T
  0.1667495385653364  0.0823587570127747  0.4524188954136277   T   T   T
  0.0841868284558765  0.1622407851819805  0.7324886648414417   T   T   T
  0.1681870324356953  0.0824432296233867  0.6416367286817021   T   T   T
  0.0833545313742600  0.4164468241087371  0.3579996235617543   T   T   T
  0.1667031392829585  0.3333776373899511  0.2677394092042817   F   F   F
  0.0843244540675852  0.4163192512054453  0.5478733385335064   T   T   T
  0.1672936638997188  0.3328262216193976  0.4528198815755505   T   T   T
  0.0823329881100982  0.4157138657929316  0.7322061535835144   T   T   T
  0.1684284670167619  0.3324456869340880  0.6421538372169008   T   T   T
  0.0832993717765570  0.6661288404016078  0.3581713962772963   T   T   T
  0.1667293456634127  0.5833916269891617  0.2676757558983169   F   F   F
  0.0835427050634704  0.6647713943173698  0.5486444117222320   T   T   T
  0.1668694739685512  0.5826066215568798  0.4522269404881840   T   T   T
  0.0754215365816288  0.6488858829449888  0.7345950373352482   T   T   T
  0.1696916672014916  0.5825404492959468  0.6408186480452057   T   T   T
  0.0837188063789876  0.9162079420044852  0.3584163381765076   T   T   T
  0.1667518225516673  0.8332631114686748  0.2677740629361054   F   F   F
  0.0842307539452048  0.9156706866850698  0.5487286157671039   T   T   T
  0.1674616515888102  0.8324016072279709  0.4527077137673484   T   T   T
  0.0769686277148355  0.9229647311452589  0.7353504503920066   T   T   T
  0.1683672039423396  0.8315346754457937  0.6424804145478715   T   T   T
  0.3337458044673196  0.1664259662589634  0.3582786875803489   T   T   T
  0.4167503753270339  0.0833554569700681  0.2676224156204441   F   F   F
  0.3343125020975830  0.1655712779071989  0.5471822020220765   T   T   T
  0.4171559016377943  0.0824913343082389  0.4524418251376005   T   T   T
  0.3358763246604135  0.1688640841202470  0.7325214308891677   T   T   T
  0.4179536367898648  0.0836143769375041  0.6416367808122018   T   T   T
  0.3334789414775258  0.4160943760429888  0.3579830070326112   T   T   T
  0.4166464156278522  0.3334437369237264  0.2676732130068444   F   F   F
  0.3348828514929500  0.4160635618185625  0.5474817087400654   T   T   T
  0.4171229122061395  0.3330314924496472  0.4521798262327423   T   T   T
  0.3356760421390577  0.4134257906605300  0.7323559579629764   T   T   T
  0.4180631479346069  0.3322138608340146  0.6424757001326439   T   T   T
  0.3336401682800104  0.6662903695080042  0.3587986441220790   T   T   T
  0.4166478905039455  0.5833614909237781  0.2676715167359589   F   F   F
  0.3342219957523189  0.6656759526717291  0.5479018359321227   T   T   T
  0.4171499819875871  0.5827707212557444  0.4519661452107511   T   T   T
  0.1700336647223331  0.8301421754433603  0.8063639327930021   T   T   T
  0.4172910867285187  0.5826700179722372  0.6410438453428892   T   T   T
  0.3338077086795781  0.9166359206372747  0.3581560235296496   T   T   T
  0.4166686105423167  0.8332813872918123  0.2676763286012260   F   F   F
  0.3351113650556529  0.9163443392029439  0.5486398913400786   T   T   T
  0.4172496467642274  0.8330086441082937  0.4522105867125446   T   T   T
  0.3511091054091202  0.9245333914225787  0.7345771621858130   T   T   T
  0.4174321432540564  0.8302603427399933  0.6407988176403967   T   T   T
  0.5835276969878570  0.1663635460199504  0.3582813024065544   T   T   T
  0.6666685279983682  0.0834615106744323  0.2676840865095613   F   F   F
  0.5837023293800393  0.1652047945397215  0.5480920486484947   T   T   T
  0.6666276933010362  0.0823497825059919  0.4522743329592538   T   T   T
  0.5828230333686935  0.1626541402615952  0.7322300481490560   T   T   T
  0.6687052124851316  0.0826739976908262  0.6419237310110518   T   T   T
  0.5835586999946998  0.4163164927585856  0.3581728559147033   T   T   T
  0.6667091651732093  0.3332802201850100  0.2677577551380921   F   F   F
  0.5838897592056966  0.4159808323696601  0.5479290839864581   T   T   T
  0.6672919543036180  0.3325665753609484  0.4522914416564369   T   T   T
  0.5851541228804693  0.4147453987894862  0.7323539617714704   T   T   T
  0.6682449019741962  0.3317027296268568  0.6415192138396165   T   T   T
  0.5838507638698122  0.6664520625565871  0.3579768036797839   T   T   T
  0.6665913099295295  0.5833940092649357  0.2676743283627090   F   F   F
  0.5839062199001922  0.6650630303480508  0.5474909147112426   T   T   T
  0.6668396421033702  0.5826890883426386  0.4521868756655968   T   T   T
  0.5865838312264493  0.6643207131021779  0.7323482390814029   T   T   T
  0.6677095769406498  0.5818246291832428  0.6424695451427010   T   T   T
  0.5834685845143228  0.9165377502322893  0.3579986329900808   T   T   T
  0.6666418884481615  0.8333020368453390  0.2677426149237192   F   F   F
  0.5835982664151536  0.9155901085418382  0.5478632773235979   T   T   T
  0.6670476896884653  0.8325370840173405  0.4528126218114989   T   T   T
  0.5842960969955637  0.9176279872250523  0.7321999367157224   T   T   T
  0.6675184266177780  0.8315455602945900  0.6421426421043066   T   T   T
  0.8336275174343140  0.1662981507894429  0.3583259029817877   T   T   T
  0.9166745872578019  0.0833290493893770  0.2676438539119417   F   F   F
  0.8342875846425096  0.1655846637015986  0.5473345014070046   T   T   T
  0.9174076409987281  0.0825039546862741  0.4522254464104380   T   T   T
  0.8349115662334444  0.1650539910534728  0.7315207276705631   T   T   T
  0.9176751280809006  0.0822957414205404  0.6416126459776411   T   T   T
  0.8335907205016859  0.4163959880645225  0.3582743370328423   T   T   T
  0.9165280246814973  0.3333266332886140  0.2676606181559364   F   F   F
  0.8346867845976756  0.4161879567044139  0.5480889966461299   T   T   T
  0.9174741976812644  0.3332358934872048  0.4522705350222990   T   T   T
  0.8373017947026802  0.4171923303823767  0.7322603759200085   T   T   T
  0.9172252497274411  0.3312334233939833  0.6419346589366058   T   T   T
  0.8334723546626054  0.6661385764689337  0.3582797737069017   T   T   T
  0.9166391005677639  0.5832394299122186  0.2676330540142047   F   F   F
  0.8343070599145740  0.6655395184490439  0.5471750168603218   T   T   T
  0.9173889368087207  0.5827191472222862  0.4524385109273049   T   T   T
  0.8311016572872594  0.6641121150417799  0.7325256246989029   T   T   T
  0.9163061507582995  0.5819695155992727  0.6416544316162014   T   T   T
  0.8333014848539418  0.9161209305817833  0.3584346394773446   T   T   T
  0.9166598043544880  0.8333663986297140  0.2676681513624075   F   F   F
  0.8342927669435761  0.9156058501198692  0.5480697380552314   T   T   T
  0.9174655887755756  0.8330714261124945  0.4524096276899797   T   T   T
  0.8377673464947554  0.9158622665841800  0.7324841072717995   T   T   T
  0.9174595346778113  0.8317410279264197  0.6416096821748359   T   T   T
  0.3358181972197103  0.6642068728452292  0.7382377826884403   T   T   T
 
  0.00000000E+00  0.00000000E+00  0.00000000E+00
  0.00000000E+00  0.00000000E+00  0.00000000E+00
  0.00000000E+00  0.00000000E+00  0.00000000E+00
  0.00000000E+00  0.00000000E+00  0.00000000E+00
  0.00000000E+00  0.00000000E+00  0.00000000E+00
  0.00000000E+00  0.00000000E+00  0.00000000E+00
  0.00000000E+00  0.00000000E+00  0.00000000E+00
  0.00000000E+00  0.00000000E+00  0.00000000E+00
  0.00000000E+00  0.00000000E+00  0.00000000E+00
  0.00000000E+00  0.00000000E+00  0.00000000E+00
  0.00000000E+00  0.00000000E+00  0.00000000E+00
  0.00000000E+00  0.00000000E+00  0.00000000E+00
  0.00000000E+00  0.00000000E+00  0.00000000E+00
  0.00000000E+00  0.00000000E+00  0.00000000E+00
  0.00000000E+00  0.00000000E+00  0.00000000E+00
  0.00000000E+00  0.00000000E+00  0.00000000E+00
  0.00000000E+00  0.00000000E+00  0.00000000E+00
  0.00000000E+00  0.00000000E+00  0.00000000E+00
  0.00000000E+00  0.00000000E+00  0.00000000E+00
  0.00000000E+00  0.00000000E+00  0.00000000E+00
  0.00000000E+00  0.00000000E+00  0.00000000E+00
  0.00000000E+00  0.00000000E+00  0.00000000E+00
  0.00000000E+00  0.00000000E+00  0.00000000E+00
  0.00000000E+00  0.00000000E+00  0.00000000E+00
  0.00000000E+00  0.00000000E+00  0.00000000E+00
  0.00000000E+00  0.00000000E+00  0.00000000E+00
  0.00000000E+00  0.00000000E+00  0.00000000E+00
  0.00000000E+00  0.00000000E+00  0.00000000E+00
  0.00000000E+00  0.00000000E+00  0.00000000E+00
  0.00000000E+00  0.00000000E+00  0.00000000E+00
  0.00000000E+00  0.00000000E+00  0.00000000E+00
  0.00000000E+00  0.00000000E+00  0.00000000E+00
  0.00000000E+00  0.00000000E+00  0.00000000E+00
  0.00000000E+00  0.00000000E+00  0.00000000E+00
  0.00000000E+00  0.00000000E+00  0.00000000E+00
  0.00000000E+00  0.00000000E+00  0.00000000E+00
  0.00000000E+00  0.00000000E+00  0.00000000E+00
  0.00000000E+00  0.00000000E+00  0.00000000E+00
  0.00000000E+00  0.00000000E+00  0.00000000E+00
  0.00000000E+00  0.00000000E+00  0.00000000E+00
  0.00000000E+00  0.00000000E+00  0.00000000E+00
  0.00000000E+00  0.00000000E+00  0.00000000E+00
  0.00000000E+00  0.00000000E+00  0.00000000E+00
  0.00000000E+00  0.00000000E+00  0.00000000E+00
  0.00000000E+00  0.00000000E+00  0.00000000E+00
  0.00000000E+00  0.00000000E+00  0.00000000E+00
  0.00000000E+00  0.00000000E+00  0.00000000E+00
  0.00000000E+00  0.00000000E+00  0.00000000E+00
  0.00000000E+00  0.00000000E+00  0.00000000E+00
  0.00000000E+00  0.00000000E+00  0.00000000E+00
  0.00000000E+00  0.00000000E+00  0.00000000E+00
  0.00000000E+00  0.00000000E+00  0.00000000E+00
  0.00000000E+00  0.00000000E+00  0.00000000E+00
  0.00000000E+00  0.00000000E+00  0.00000000E+00
  0.00000000E+00  0.00000000E+00  0.00000000E+00
  0.00000000E+00  0.00000000E+00  0.00000000E+00
  0.00000000E+00  0.00000000E+00  0.00000000E+00
  0.00000000E+00  0.00000000E+00  0.00000000E+00
  0.00000000E+00  0.00000000E+00  0.00000000E+00
  0.00000000E+00  0.00000000E+00  0.00000000E+00
  0.00000000E+00  0.00000000E+00  0.00000000E+00
  0.00000000E+00  0.00000000E+00  0.00000000E+00
  0.00000000E+00  0.00000000E+00  0.00000000E+00
  0.00000000E+00  0.00000000E+00  0.00000000E+00
  0.00000000E+00  0.00000000E+00  0.00000000E+00
  0.00000000E+00  0.00000000E+00  0.00000000E+00
  0.00000000E+00  0.00000000E+00  0.00000000E+00
  0.00000000E+00  0.00000000E+00  0.00000000E+00
  0.00000000E+00  0.00000000E+00  0.00000000E+00
  0.00000000E+00  0.00000000E+00  0.00000000E+00
  0.00000000E+00  0.00000000E+00  0.00000000E+00
  0.00000000E+00  0.00000000E+00  0.00000000E+00
  0.00000000E+00  0.00000000E+00  0.00000000E+00
  0.00000000E+00  0.00000000E+00  0.00000000E+00
  0.00000000E+00  0.00000000E+00  0.00000000E+00
  0.00000000E+00  0.00000000E+00  0.00000000E+00
  0.00000000E+00  0.00000000E+00  0.00000000E+00
  0.00000000E+00  0.00000000E+00  0.00000000E+00
  0.00000000E+00  0.00000000E+00  0.00000000E+00
  0.00000000E+00  0.00000000E+00  0.00000000E+00
  0.00000000E+00  0.00000000E+00  0.00000000E+00
  0.00000000E+00  0.00000000E+00  0.00000000E+00
  0.00000000E+00  0.00000000E+00  0.00000000E+00
  0.00000000E+00  0.00000000E+00  0.00000000E+00
  0.00000000E+00  0.00000000E+00  0.00000000E+00
  0.00000000E+00  0.00000000E+00  0.00000000E+00
  0.00000000E+00  0.00000000E+00  0.00000000E+00
  0.00000000E+00  0.00000000E+00  0.00000000E+00
  0.00000000E+00  0.00000000E+00  0.00000000E+00
  0.00000000E+00  0.00000000E+00  0.00000000E+00
  0.00000000E+00  0.00000000E+00  0.00000000E+00
  0.00000000E+00  0.00000000E+00  0.00000000E+00
  0.00000000E+00  0.00000000E+00  0.00000000E+00
  0.00000000E+00  0.00000000E+00  0.00000000E+00
  0.00000000E+00  0.00000000E+00  0.00000000E+00
  0.00000000E+00  0.00000000E+00  0.00000000E+00
  0.00000000E+00  0.00000000E+00  0.00000000E+00
