Ta  N Ru Cu                             
   1.00000000000000     
     9.0548154099999998    0.0000000000000000    0.0000000000000000
     0.0000000000000000   11.6775998899999998    0.0000000000000000
     0.0000000000000000    0.0000000000000000   26.4818170799999990
   Ta   N    Ru   Cu
    60    60    32     1
Selective dynamics
Direct
  0.0000000000000000  0.0000000000000000  0.2258397498815228   F   F   F
  0.6670845899906297  0.1250000003211298  0.2339882671631202   F   F   F
  0.3329153514769843  0.1250000003211298  0.2339882671631202   F   F   F
  0.4999999994478088  0.2499999997859135  0.3208898207564346   F   F   F
  0.1650707596845180  0.1250000003211298  0.3267034403329916   F   F   F
  0.8349292403154820  0.1250000003211298  0.3267034403329916   F   F   F
  0.0009464874582823  0.2502518838467065  0.4254814466561171   T   T   T
  0.6649711105792639  0.1252063052736125  0.4239485545658067   T   T   T
  0.3354611758668187  0.1252421930216029  0.4239028127071447   T   T   T
  0.4981608565439561  0.2505300577411764  0.5232678225799859   T   T   T
  0.1675914811616297  0.1255570611816261  0.5232942116490358   T   T   T
  0.8339819081870647  0.1255480934622139  0.5227080330662727   T   T   T
  0.0065217657556118  0.2507874961519889  0.6226153567785536   T   T   T
  0.6663528559828782  0.1253566740017794  0.6209235387089764   T   T   T
  0.3316818572698674  0.1259224111202780  0.6236521090136553   T   T   T
  0.0000000000000000  0.2499999997859135  0.2258397498815228   F   F   F
  0.6670845899906297  0.3750000001070433  0.2339882671631202   F   F   F
  0.3329153514769843  0.3750000001070433  0.2339882671631202   F   F   F
  0.4999999994478088  0.5000000004281731  0.3208898207564346   F   F   F
  0.1650707596845180  0.3750000001070433  0.3267034403329916   F   F   F
  0.8349292403154820  0.3750000001070433  0.3267034403329916   F   F   F
  0.0009740372271286  0.5001022740840386  0.4254808052604315   T   T   T
  0.6649864153715181  0.3751527905650298  0.4239417746053342   T   T   T
  0.3353683596923303  0.3751343138266225  0.4239241068187269   T   T   T
  0.4981605136455997  0.5003447345074569  0.5232607716771720   T   T   T
  0.1674959675768771  0.3754295862395075  0.5233140873621360   T   T   T
  0.8339331142664266  0.3753775042879299  0.5227131563298539   T   T   T
  0.0063440689457692  0.5007449517774275  0.6225891550639607   T   T   T
  0.6663114742409306  0.3756465202701622  0.6204946914081011   T   T   T
  0.3320261399148172  0.3756601250285750  0.6233013397728541   T   T   T
  0.0000000000000000  0.5000000004281731  0.2258397498815228   F   F   F
  0.6670845899906297  0.6249999998929567  0.2339882671631202   F   F   F
  0.3329153514769843  0.6249999998929567  0.2339882671631202   F   F   F
  0.4999999994478088  0.7500000002140865  0.3208898207564346   F   F   F
  0.1650707596845180  0.6249999998929567  0.3267034403329916   F   F   F
  0.8349292403154820  0.6249999998929567  0.3267034403329916   F   F   F
  0.0009314674126768  0.7501742470114119  0.4254722589120662   T   T   T
  0.6649751547457031  0.6251258756813317  0.4239375019342292   T   T   T
  0.3355143923080728  0.6251752677240850  0.4238833204260069   T   T   T
  0.4982465196112168  0.7503994474126838  0.5231339073250374   T   T   T
  0.1675469118704932  0.6253973751793694  0.5232107242299323   T   T   T
  0.8340008243452355  0.6253689962237253  0.5226218353362578   T   T   T
  0.0056993717490083  0.7507015095726994  0.6220000678887178   T   T   T
  0.6663414008296967  0.6253184063970608  0.6207583791047099   T   T   T
  0.3315886101143131  0.6258456909749270  0.6234587021108473   T   T   T
  0.0000000000000000  0.7500000002140865  0.2258397498815228   F   F   F
  0.6670845899906297  0.8750000005352163  0.2339882671631202   F   F   F
  0.3329153514769843  0.8750000005352163  0.2339882671631202   F   F   F
  0.4999999994478088  0.0000000000000000  0.3208898207564346   F   F   F
  0.1650707596845180  0.8750000005352163  0.3267034403329916   F   F   F
  0.8349292403154820  0.8750000005352163  0.3267034403329916   F   F   F
  0.0009301557647559  0.0002433448247231  0.4254768534302954   T   T   T
  0.6649715740186720  0.8751768066289235  0.4239104315565641   T   T   T
  0.3353622843416386  0.8751668172682490  0.4238608040538332   T   T   T
  0.4982259785815719  0.0005345054792475  0.5231911377841024   T   T   T
  0.1675488064110837  0.8754986698116860  0.5231526314323276   T   T   T
  0.8337239801375534  0.8754242534128097  0.5225839266754990   T   T   T
  0.0057552063551416  0.0007723859565566  0.6222571076981553   T   T   T
  0.6666205450619550  0.8756207197894228  0.6203739497194688   T   T   T
  0.3319542978605597  0.8755966208021916  0.6229385100487679   T   T   T
  0.8141011533980276  0.0000000000000000  0.2671765160246267   F   F   F
  0.4999999994478088  0.0000000000000000  0.2273691263583544   F   F   F
  0.1858988466019724  0.0000000000000000  0.2671765160246267   F   F   F
  0.3088456122590841  0.2499999997859135  0.3635413069267344   F   F   F
  0.0000000000000000  0.2499999997859135  0.3485649890092901   F   F   F
  0.6911543877409159  0.2499999997859135  0.3635413069267344   F   F   F
  0.8024894319162686  0.2503296839649803  0.4626952565004696   T   T   T
  0.5000506509014863  0.2502474327751874  0.4457038921964814   T   T   T
  0.1990175043084739  0.2502884579150907  0.4631584868115392   T   T   T
  0.3022370390234058  0.2505106456322767  0.5627460055258433   T   T   T
  0.0008189665507277  0.2505135490612358  0.5439142725983674   T   T   T
  0.6961348217389370  0.2503493969056511  0.5605670873298176   T   T   T
  0.8065388388007211  0.2502545529657911  0.6558401409577053   T   T   T
  0.5029040090147207  0.2507565334866940  0.6428839286295255   T   T   T
  0.2011762664447437  0.2514075345158047  0.6618415002528454   T   T   T
  0.8141011533980276  0.2499999997859135  0.2671765160246267   F   F   F
  0.4999999994478088  0.2499999997859135  0.2273691263583544   F   F   F
  0.1858988466019724  0.2499999997859135  0.2671765160246267   F   F   F
  0.3088456122590841  0.5000000004281731  0.3635413069267344   F   F   F
  0.0000000000000000  0.5000000004281731  0.3485649890092901   F   F   F
  0.6911543877409159  0.5000000004281731  0.3635413069267344   F   F   F
  0.8025211842130839  0.5001825203069838  0.4626890942535924   T   T   T
  0.5000135340751248  0.5001290477405467  0.4457070593366932   T   T   T
  0.1991003923633271  0.5002841304192165  0.4631216256868286   T   T   T
  0.3022401321375817  0.5006212982457320  0.5627325746579708   T   T   T
  0.0007436861735725  0.5004087237484230  0.5438756887982709   T   T   T
  0.6961121577937350  0.5005834060579806  0.5605773189161668   T   T   T
  0.8066991010175797  0.5007283562794357  0.6562070993661278   T   T   T
  0.5033193803585652  0.5004405623938003  0.6432873186737637   T   T   T
  0.2026267803306283  0.5008617132701288  0.6623901417534713   T   T   T
  0.8141011533980276  0.5000000004281731  0.2671765160246267   F   F   F
  0.4999999994478088  0.5000000004281731  0.2273691263583544   F   F   F
  0.1858988466019724  0.5000000004281731  0.2671765160246267   F   F   F
  0.3088456122590841  0.7500000002140865  0.3635413069267344   F   F   F
  0.0000000000000000  0.7500000002140865  0.3485649890092901   F   F   F
  0.6911543877409159  0.7500000002140865  0.3635413069267344   F   F   F
  0.8024296608405435  0.7502615882764490  0.4626120861055161   T   T   T
  0.5000632420192873  0.7502278121029655  0.4456202224308095   T   T   T
  0.1990393314261330  0.7502323770360589  0.4630602786597130   T   T   T
  0.3023085795300846  0.7504098739894268  0.5624471868306430   T   T   T
  0.0007463395180069  0.7505064089367168  0.5435058491984873   T   T   T
  0.6961894543174427  0.7501718263914741  0.5604192820072923   T   T   T
  0.8058886100701481  0.7506295863183323  0.6553997094530227   T   T   T
  0.5029170243150035  0.7506050882352302  0.6425341459430978   T   T   T
  0.1999594958676143  0.7515146336677365  0.6607444466333440   T   T   T
  0.8141011533980276  0.7500000002140865  0.2671765160246267   F   F   F
  0.4999999994478088  0.7500000002140865  0.2273691263583544   F   F   F
  0.1858988466019724  0.7500000002140865  0.2671765160246267   F   F   F
  0.3088456122590841  0.0000000000000000  0.3635413069267344   F   F   F
  0.0000000000000000  0.0000000000000000  0.3485649890092901   F   F   F
  0.6911543877409159  0.0000000000000000  0.3635413069267344   F   F   F
  0.8024521261049034  0.0003631526313483  0.4626608096884336   T   T   T
  0.5000083417374048  0.0002053910397313  0.4456558181593082   T   T   T
  0.1990692347138775  0.0004200514461058  0.4630779807210507   T   T   T
  0.3024992478782338  0.0008650251711413  0.5626001150383557   T   T   T
  0.0006614471499606  0.0005177135115784  0.5436850447552600   T   T   T
  0.6960632258255959  0.0008054075854283  0.5605310007433547   T   T   T
  0.8059382296340767  0.0002757709481745  0.6558116537201679   T   T   T
  0.5034392892513674  0.0006034037462556  0.6433422364803397   T   T   T
  0.2020741883742994  0.0002378277855259  0.6616006947870132   T   T   T
  0.0670885586001430 -0.0001459194081970  0.7300584963053984   T   T   T
  0.5542089996776465  0.9989427098942605  0.7209107354368112   T   T   T
  0.8239480249713482  0.1261617696751015  0.7144408675893824   T   T   T
  0.0649756648069744  0.4998925500043854  0.7308656731484988   T   T   T
  0.5532153850501943  0.4952597246786039  0.7209802868934209   T   T   T
  0.8206990399590992  0.6288040726621188  0.7143644301972929   T   T   T
  0.0745289321735471  0.2482291568246875  0.7318572758625309   T   T   T
  0.5440302173876245  0.2534824563926978  0.7204041812658877   T   T   T
  0.8199695142384040  0.3732161051111645  0.7121970060194838   T   T   T
  0.0779402827093212  0.7479333514303254  0.7304060214102552   T   T   T
  0.5421494378491805  0.7529336975759886  0.7198705880066751   T   T   T
  0.8196907682485667  0.8736316321512807  0.7134813990703970   T   T   T
  0.3065285587695877  0.8841148454378860  0.7311707301911583   T   T   T
  0.3094670674766387  0.6129870095072067  0.7332233996481055   T   T   T
  0.3044759710343000  0.3812163582216632  0.7315697589296410   T   T   T
  0.3102168534441934  0.1167011405712991  0.7335122028229993   T   T   T
  0.1327961940275621  0.8798448262176430  0.8049077877218846   T   T   T
  0.6461159001503138  0.8663872240012642  0.7930555626047819   T   T   T
  0.8800259215940454  0.0073471751166960  0.7979933668026630   T   T   T
  0.1288356685065292  0.3816369381487701  0.8064015512035232   T   T   T
  0.6509777537944071  0.3691337696847253  0.7941288910305523   T   T   T
  0.8826310703099948  0.5232513100205629  0.8001388558652147   T   T   T
  0.1373945948364398  0.1133313830460037  0.8068323495680561   T   T   T
  0.6359063313871122  0.1322966497934523  0.7928737272031886   T   T   T
  0.8881888056636656  0.2245765874656502  0.8002687089290662   T   T   T
  0.1380640128409034  0.6177804787916705  0.8064766996509207   T   T   T
  0.6343753679200760  0.6282255538372147  0.7919695247958869   T   T   T
  0.8863651207092528  0.7403685248704769  0.7979676139489553   T   T   T
  0.3954803294406606  0.7576203604486274  0.8009347598125337   T   T   T
  0.4000146842213403  0.4876006703652123  0.8048170247370490   T   T   T
  0.3974917186655771  0.2567731579872725  0.8015890540685897   T   T   T
  0.4011537002141111  0.9904975991817737  0.8046214525877565   T   T   T
  0.8585826187443044  0.3737187556293514  0.8664876638172305   T   T   T
 
  0.00000000E+00  0.00000000E+00  0.00000000E+00
  0.00000000E+00  0.00000000E+00  0.00000000E+00
  0.00000000E+00  0.00000000E+00  0.00000000E+00
  0.00000000E+00  0.00000000E+00  0.00000000E+00
  0.00000000E+00  0.00000000E+00  0.00000000E+00
  0.00000000E+00  0.00000000E+00  0.00000000E+00
  0.00000000E+00  0.00000000E+00  0.00000000E+00
  0.00000000E+00  0.00000000E+00  0.00000000E+00
  0.00000000E+00  0.00000000E+00  0.00000000E+00
  0.00000000E+00  0.00000000E+00  0.00000000E+00
  0.00000000E+00  0.00000000E+00  0.00000000E+00
  0.00000000E+00  0.00000000E+00  0.00000000E+00
  0.00000000E+00  0.00000000E+00  0.00000000E+00
  0.00000000E+00  0.00000000E+00  0.00000000E+00
  0.00000000E+00  0.00000000E+00  0.00000000E+00
  0.00000000E+00  0.00000000E+00  0.00000000E+00
  0.00000000E+00  0.00000000E+00  0.00000000E+00
  0.00000000E+00  0.00000000E+00  0.00000000E+00
  0.00000000E+00  0.00000000E+00  0.00000000E+00
  0.00000000E+00  0.00000000E+00  0.00000000E+00
  0.00000000E+00  0.00000000E+00  0.00000000E+00
  0.00000000E+00  0.00000000E+00  0.00000000E+00
  0.00000000E+00  0.00000000E+00  0.00000000E+00
  0.00000000E+00  0.00000000E+00  0.00000000E+00
  0.00000000E+00  0.00000000E+00  0.00000000E+00
  0.00000000E+00  0.00000000E+00  0.00000000E+00
  0.00000000E+00  0.00000000E+00  0.00000000E+00
  0.00000000E+00  0.00000000E+00  0.00000000E+00
  0.00000000E+00  0.00000000E+00  0.00000000E+00
  0.00000000E+00  0.00000000E+00  0.00000000E+00
  0.00000000E+00  0.00000000E+00  0.00000000E+00
  0.00000000E+00  0.00000000E+00  0.00000000E+00
  0.00000000E+00  0.00000000E+00  0.00000000E+00
  0.00000000E+00  0.00000000E+00  0.00000000E+00
  0.00000000E+00  0.00000000E+00  0.00000000E+00
  0.00000000E+00  0.00000000E+00  0.00000000E+00
  0.00000000E+00  0.00000000E+00  0.00000000E+00
  0.00000000E+00  0.00000000E+00  0.00000000E+00
  0.00000000E+00  0.00000000E+00  0.00000000E+00
  0.00000000E+00  0.00000000E+00  0.00000000E+00
  0.00000000E+00  0.00000000E+00  0.00000000E+00
  0.00000000E+00  0.00000000E+00  0.00000000E+00
  0.00000000E+00  0.00000000E+00  0.00000000E+00
  0.00000000E+00  0.00000000E+00  0.00000000E+00
  0.00000000E+00  0.00000000E+00  0.00000000E+00
  0.00000000E+00  0.00000000E+00  0.00000000E+00
  0.00000000E+00  0.00000000E+00  0.00000000E+00
  0.00000000E+00  0.00000000E+00  0.00000000E+00
  0.00000000E+00  0.00000000E+00  0.00000000E+00
  0.00000000E+00  0.00000000E+00  0.00000000E+00
  0.00000000E+00  0.00000000E+00  0.00000000E+00
  0.00000000E+00  0.00000000E+00  0.00000000E+00
  0.00000000E+00  0.00000000E+00  0.00000000E+00
  0.00000000E+00  0.00000000E+00  0.00000000E+00
  0.00000000E+00  0.00000000E+00  0.00000000E+00
  0.00000000E+00  0.00000000E+00  0.00000000E+00
  0.00000000E+00  0.00000000E+00  0.00000000E+00
  0.00000000E+00  0.00000000E+00  0.00000000E+00
  0.00000000E+00  0.00000000E+00  0.00000000E+00
  0.00000000E+00  0.00000000E+00  0.00000000E+00
  0.00000000E+00  0.00000000E+00  0.00000000E+00
  0.00000000E+00  0.00000000E+00  0.00000000E+00
  0.00000000E+00  0.00000000E+00  0.00000000E+00
  0.00000000E+00  0.00000000E+00  0.00000000E+00
  0.00000000E+00  0.00000000E+00  0.00000000E+00
  0.00000000E+00  0.00000000E+00  0.00000000E+00
  0.00000000E+00  0.00000000E+00  0.00000000E+00
  0.00000000E+00  0.00000000E+00  0.00000000E+00
  0.00000000E+00  0.00000000E+00  0.00000000E+00
  0.00000000E+00  0.00000000E+00  0.00000000E+00
  0.00000000E+00  0.00000000E+00  0.00000000E+00
  0.00000000E+00  0.00000000E+00  0.00000000E+00
  0.00000000E+00  0.00000000E+00  0.00000000E+00
  0.00000000E+00  0.00000000E+00  0.00000000E+00
  0.00000000E+00  0.00000000E+00  0.00000000E+00
  0.00000000E+00  0.00000000E+00  0.00000000E+00
  0.00000000E+00  0.00000000E+00  0.00000000E+00
  0.00000000E+00  0.00000000E+00  0.00000000E+00
  0.00000000E+00  0.00000000E+00  0.00000000E+00
  0.00000000E+00  0.00000000E+00  0.00000000E+00
  0.00000000E+00  0.00000000E+00  0.00000000E+00
  0.00000000E+00  0.00000000E+00  0.00000000E+00
  0.00000000E+00  0.00000000E+00  0.00000000E+00
  0.00000000E+00  0.00000000E+00  0.00000000E+00
  0.00000000E+00  0.00000000E+00  0.00000000E+00
  0.00000000E+00  0.00000000E+00  0.00000000E+00
  0.00000000E+00  0.00000000E+00  0.00000000E+00
  0.00000000E+00  0.00000000E+00  0.00000000E+00
  0.00000000E+00  0.00000000E+00  0.00000000E+00
  0.00000000E+00  0.00000000E+00  0.00000000E+00
  0.00000000E+00  0.00000000E+00  0.00000000E+00
  0.00000000E+00  0.00000000E+00  0.00000000E+00
  0.00000000E+00  0.00000000E+00  0.00000000E+00
  0.00000000E+00  0.00000000E+00  0.00000000E+00
  0.00000000E+00  0.00000000E+00  0.00000000E+00
  0.00000000E+00  0.00000000E+00  0.00000000E+00
  0.00000000E+00  0.00000000E+00  0.00000000E+00
  0.00000000E+00  0.00000000E+00  0.00000000E+00
  0.00000000E+00  0.00000000E+00  0.00000000E+00
  0.00000000E+00  0.00000000E+00  0.00000000E+00
  0.00000000E+00  0.00000000E+00  0.00000000E+00
  0.00000000E+00  0.00000000E+00  0.00000000E+00
  0.00000000E+00  0.00000000E+00  0.00000000E+00
  0.00000000E+00  0.00000000E+00  0.00000000E+00
  0.00000000E+00  0.00000000E+00  0.00000000E+00
  0.00000000E+00  0.00000000E+00  0.00000000E+00
  0.00000000E+00  0.00000000E+00  0.00000000E+00
  0.00000000E+00  0.00000000E+00  0.00000000E+00
  0.00000000E+00  0.00000000E+00  0.00000000E+00
  0.00000000E+00  0.00000000E+00  0.00000000E+00
  0.00000000E+00  0.00000000E+00  0.00000000E+00
  0.00000000E+00  0.00000000E+00  0.00000000E+00
  0.00000000E+00  0.00000000E+00  0.00000000E+00
  0.00000000E+00  0.00000000E+00  0.00000000E+00
  0.00000000E+00  0.00000000E+00  0.00000000E+00
  0.00000000E+00  0.00000000E+00  0.00000000E+00
  0.00000000E+00  0.00000000E+00  0.00000000E+00
  0.00000000E+00  0.00000000E+00  0.00000000E+00
  0.00000000E+00  0.00000000E+00  0.00000000E+00
  0.00000000E+00  0.00000000E+00  0.00000000E+00
  0.00000000E+00  0.00000000E+00  0.00000000E+00
  0.00000000E+00  0.00000000E+00  0.00000000E+00
  0.00000000E+00  0.00000000E+00  0.00000000E+00
  0.00000000E+00  0.00000000E+00  0.00000000E+00
  0.00000000E+00  0.00000000E+00  0.00000000E+00
  0.00000000E+00  0.00000000E+00  0.00000000E+00
  0.00000000E+00  0.00000000E+00  0.00000000E+00
  0.00000000E+00  0.00000000E+00  0.00000000E+00
  0.00000000E+00  0.00000000E+00  0.00000000E+00
  0.00000000E+00  0.00000000E+00  0.00000000E+00
  0.00000000E+00  0.00000000E+00  0.00000000E+00
  0.00000000E+00  0.00000000E+00  0.00000000E+00
  0.00000000E+00  0.00000000E+00  0.00000000E+00
  0.00000000E+00  0.00000000E+00  0.00000000E+00
  0.00000000E+00  0.00000000E+00  0.00000000E+00
  0.00000000E+00  0.00000000E+00  0.00000000E+00
  0.00000000E+00  0.00000000E+00  0.00000000E+00
  0.00000000E+00  0.00000000E+00  0.00000000E+00
  0.00000000E+00  0.00000000E+00  0.00000000E+00
  0.00000000E+00  0.00000000E+00  0.00000000E+00
  0.00000000E+00  0.00000000E+00  0.00000000E+00
  0.00000000E+00  0.00000000E+00  0.00000000E+00
  0.00000000E+00  0.00000000E+00  0.00000000E+00
  0.00000000E+00  0.00000000E+00  0.00000000E+00
  0.00000000E+00  0.00000000E+00  0.00000000E+00
  0.00000000E+00  0.00000000E+00  0.00000000E+00
  0.00000000E+00  0.00000000E+00  0.00000000E+00
  0.00000000E+00  0.00000000E+00  0.00000000E+00
  0.00000000E+00  0.00000000E+00  0.00000000E+00
  0.00000000E+00  0.00000000E+00  0.00000000E+00
  0.00000000E+00  0.00000000E+00  0.00000000E+00
  0.00000000E+00  0.00000000E+00  0.00000000E+00
  0.00000000E+00  0.00000000E+00  0.00000000E+00
