Cu	N	Ru	Ta                              
   1.00000000000000     
    18.1096308199999996    0.0000000000000000    0.0000000000000000
     0.0000000000000000   23.3551997799999995    0.0000000000000000
     0.0000000000000000    0.0000000000000000   30.4818171199999988
   Cu   N    Ru   Ta
     1   240    12   228
Selective dynamics
Direct
  0.5623342061572782  0.4379543375260310  0.6050957247765266   T   T   T
  0.0000000000000000  0.0002658024790421  0.3027806050297599   F   F   F
  0.0000000000000000  0.5002658024790421  0.3027806050297599   F   F   F
  0.0000000000000000  0.6252068313499990  0.3027729437410898   F   F   F
  0.0000000000000000  0.7502658026931286  0.3027806050297599   F   F   F
  0.0000000000000000  0.8752068315640855  0.3027729437410898   F   F   F
  0.0000000000000000  0.1252068313499990  0.3027729437410898   F   F   F
  0.0000000000000000  0.2502658026931286  0.3027806050297599   F   F   F
  0.0000000000000000  0.3752068315640855  0.3027729437410898   F   F   F
  0.0000925084073993  0.3754008724485545  0.4736163457471307   T   T   T
  0.0001546285321930  0.5024579426857305  0.4734289984320048   T   T   T
  0.5927761599786824  0.2497490485795069  0.5686915364900990   T   T   T
  0.5927888479381059  0.7499014447740514  0.5684928833632588   T   T   T
  0.5927820099541991  0.9996960589018834  0.5685618495387949   T   T   T
  0.5940493004484111  0.9998103570065027  0.2323399901691943   F   F   F
  0.5940493004484111  0.4998103570065027  0.2323399901691943   F   F   F
  0.5940493004484111  0.7498103572205892  0.2323399901691943   F   F   F
  0.5940493004484111  0.2498103572205892  0.2323399901691943   F   F   F
  0.5941034351798038  0.6248444726427422  0.2323487498175751   F   F   F
  0.5941034351798038  0.8748444728568288  0.2323487498175751   F   F   F
  0.5941034351798038  0.1248444726427422  0.2323487498175751   F   F   F
  0.5941034351798038  0.3748444728568288  0.2323487498175751   F   F   F
  0.5958069781237736  0.5012335597983067  0.5714796732145530   T   T   T
  0.5977601413756753  0.3713507094780264  0.5734871561046090   T   T   T
  0.5979544376876493  0.1212477818259840  0.5716299109141890   T   T   T
  0.5979921155492599  0.8713123069679718  0.5715708667579738   T   T   T
  0.5981553753412047  0.6215690556942866  0.5716490605152659   T   T   T
  0.5988351692860774  0.3741715420234343  0.4025673479272998   T   T   T
  0.5988348551498838  0.6240946054698310  0.4025938190602266   T   T   T
  0.5987857529638242  0.8741993786270656  0.4025175251014822   T   T   T
  0.5988032592832594  0.1241734866689524  0.4025272080713455   T   T   T
  0.5991168820386831  0.7490938144423297  0.4022866442542502   T   T   T
  0.5991905971935625  0.4991157433339461  0.4024063957710993   T   T   T
  0.5991903355047221  0.2490348608372982  0.4023057122486641   T   T   T
  0.5991513384173053  0.9990785548689123  0.4022792434197629   T   T   T
  0.6504872245152676  0.3725752872425524  0.4885320071353534   T   T   T
  0.6509192104047886  0.6231475926486315  0.4882862710699100   T   T   T
  0.6509055779879580  0.1229696843280224  0.4882212840020865   T   T   T
  0.6509362438262873  0.8730606581699105  0.4882091098732641   T   T   T
  0.6516550392319298  0.4991984043588421  0.4889106219358125   T   T   T
  0.6516445460810599  0.2491314309260280  0.4884938413251890   T   T   T
  0.6516925915043383  0.7491788510728999  0.4883161999555763   T   T   T
  0.6516364958523604  0.9990725829454352  0.4883800830671650   T   T   T
  0.6547396409045092  0.9997083480310920  0.3159103144045119   F   F   F
  0.6547396409045092  0.4997083480310920  0.3159103144045119   F   F   F
  0.6547396409045092  0.7497083482451785  0.3159103144045119   F   F   F
  0.6547396409045092  0.2497083482451785  0.3159103144045119   F   F   F
  0.6547625022209047  0.6246790182669955  0.3159667218028375   F   F   F
  0.6547625022209047  0.8746790184810820  0.3159667218028375   F   F   F
  0.6547625022209047  0.1246790182669955  0.3159667218028375   F   F   F
  0.6547625022209047  0.3746790184810820  0.3159667218028375   F   F   F
  0.7406229108421306  0.2423520308197791  0.5620238874800000   T   T   T
  0.7408277970585863  0.7418151522645000  0.5623511421195367   T   T   T
  0.7408329724161080  0.9918527619438960  0.5623395104431776   T   T   T
  0.7431621975144516  0.4922232711207697  0.5620585674891522   T   T   T
  0.7497181855858486  0.0000100119032282  0.1992701427899632   F   F   F
  0.7497181855858486  0.5000100119032282  0.1992701427899632   F   F   F
  0.7497181855858486  0.7500100121173077  0.1992701427899632   F   F   F
  0.7497181855858486  0.2500100121173077  0.1992701427899632   F   F   F
  0.7497340914871273  0.6250292589019324  0.1993221157413743   F   F   F
  0.7497340914871273  0.8750292591160189  0.1993221157413743   F   F   F
  0.7497340914871273  0.1250292589019324  0.1993221157413743   F   F   F
  0.7497340914871273  0.3750292591160189  0.1993221157413743   F   F   F
  0.7501499748712404  0.4998474296181087  0.3874236391138764   T   T   T
  0.7501346052818029  0.3749124157718650  0.3879944936814371   T   T   T
  0.7501613865010034  0.6249147994151121  0.3879276636862268   T   T   T
  0.7501487356353012  0.7498602612716370  0.3872509553064231   T   T   T
  0.7501618774468775  0.2498455325768530  0.3872818970200627   T   T   T
  0.7501645863638046  0.1249077246963882  0.3878610387458495   T   T   T
  0.7501467454356719  0.9998958621684273  0.3872585051476474   T   T   T
  0.7501568614038772  0.8749006312061957  0.3878619542796633   T   T   T
  0.7523969156360504  0.6221521599578079  0.5561114711886480   T   T   T
  0.7522662237342383  0.1224626099541114  0.5563040111319940   T   T   T
  0.7525341485738040  0.8721646331704056  0.5562506201404902   T   T   T
  0.7527224914379791  0.3724950362327540  0.5561955464146976   T   T   T
  0.8451499272473839  0.6251896283286698  0.3155471503596488   F   F   F
  0.8451499272473839  0.8751896285427563  0.3155471503596488   F   F   F
  0.8451499272473839  0.1251896283286698  0.3155471503596488   F   F   F
  0.8451499272473839  0.3751896285427563  0.3155471503596488   F   F   F
  0.8451807898312538  0.0001939208417241  0.3155011134060643   F   F   F
  0.8451807898312538  0.5001939208417241  0.3155011134060643   F   F   F
  0.8451807898312538  0.7501939210558106  0.3155011134060643   F   F   F
  0.8451807898312538  0.2501939210558106  0.3155011134060643   F   F   F
  0.8466308002293533  0.9986297140032911  0.4860281028779295   T   T   T
  0.8466620244720737  0.2486428567999938  0.4860227980247419   T   T   T
  0.8467170315017061  0.7485991022054804  0.4860201723375815   T   T   T
  0.8471274002342331  0.4986591878871769  0.4858121706594988   T   T   T
  0.8488642177694397  0.1292975855615272  0.4862540126878391   T   T   T
  0.8489457123711919  0.8792585500900612  0.4862710624593624   T   T   T
  0.8490893553547088  0.6291946903261104  0.4862532962751898   T   T   T
  0.8491120075313505  0.3792354596754882  0.4861666407438898   T   T   T
  0.9009289843318883  0.0090448168959503  0.5677762649155940   T   T   T
  0.9010043765267053  0.7590223462220218  0.5677609715336546   T   T   T
  0.9009586965501221  0.2508657418303547  0.4018348036758185   T   T   T
  0.9010271767143969  0.5008422943296389  0.4017305313639308   T   T   T
  0.9009939987514337  0.7508606661221079  0.4018375720399349   T   T   T
  0.9009809075269422  0.0008506936140954  0.4018571864371211   T   T   T
  0.9011049706397523  0.6257617950855034  0.4018343809978794   T   T   T
  0.9011999821195311  0.2587852262667519  0.5677893073965196   T   T   T
  0.9011165569919359  0.1257287382433148  0.4018846431000185   T   T   T
  0.9011679801210840  0.3757104326265331  0.4018182919415378   T   T   T
  0.9011322047582894  0.8757437583844982  0.4018953708595206   T   T   T
  0.9020559420670350  0.5089490745870927  0.5677213431074739   T   T   T
  0.9026561718208816  0.6350691109149363  0.5710737321447331   T   T   T
  0.9025302362634161  0.1350370471918818  0.5711017590026680   T   T   T
  0.9025709513512213  0.8850562019704600  0.5711821078223375   T   T   T
  0.9034799123984707  0.3846550081194861  0.5712835057676525   T   T   T
  0.9057164253114252  0.6251516265128672  0.2320045249323357   F   F   F
  0.9057164253114252  0.8751516267269537  0.2320045249323357   F   F   F
  0.9057164253114252  0.1251516265128672  0.2320045249323357   F   F   F
  0.9057164253114252  0.3751516267269537  0.2320045249323357   F   F   F
  0.9057548087553968  0.0001403618907503  0.2320193078436787   F   F   F
  0.9057548087553968  0.5001403618907503  0.2320193078436787   F   F   F
  0.9057548087553968  0.7501403621048368  0.2320193078436787   F   F   F
  0.9057548087553968  0.2501403621048368  0.2320193078436787   F   F   F
  0.0942451912446032  0.0001403618907503  0.2320193078436787   F   F   F
  0.0942451912446032  0.5001403618907503  0.2320193078436787   F   F   F
  0.0942451912446032  0.7501403621048368  0.2320193078436787   F   F   F
  0.0942451912446032  0.2501403621048368  0.2320193078436787   F   F   F
  0.0942835746885748  0.6251516265128672  0.2320045249323357   F   F   F
  0.0942835746885748  0.8751516267269537  0.2320045249323357   F   F   F
  0.0942835746885748  0.1251516265128672  0.2320045249323357   F   F   F
  0.0942835746885748  0.3751516267269537  0.2320045249323357   F   F   F
  0.0973951458086988  0.8849719251592442  0.5711414200159221   T   T   T
  0.0977004185617632  0.6348503929853352  0.5710241850535770   T   T   T
  0.0974483879978885  0.1349557117714797  0.5711495747031814   T   T   T
  0.0978703460355015  0.3847629261562929  0.5713306241462193   T   T   T
  0.0988014081853510  0.1257408075996891  0.4018841404181738   T   T   T
  0.0987967640303338  0.8757516843500204  0.4018825248411061   T   T   T
  0.0988846579088429  0.3757302218784886  0.4018341364681791   T   T   T
  0.0989230403818249  0.6257951967376182  0.4018250745598982   T   T   T
  0.0989560030973364  0.0008191041214157  0.4018514156491658   T   T   T
  0.0989874144241018  0.2508217579439295  0.4018300002199516   T   T   T
  0.0989795623860322  0.7508598747706914  0.4018394939542144   T   T   T
  0.0991088543690751  0.5008652939074674  0.4017745851062257   T   T   T
  0.0990395721573082  0.0089941244820685  0.5677775667558213   T   T   T
  0.0991255666966106  0.7589569349420403  0.5677571249312201   T   T   T
  0.0992751768999164  0.2589171453409289  0.5678092519864079   T   T   T
  0.0997195400913618  0.5089888809895298  0.5678991797109647   T   T   T
  0.9999292649830035  0.1254101179827708  0.4737256202449043   T   T   T
  0.9999734963005376  0.2523025040055247  0.4735998557238693   T   T   T
  0.9999410764672154  0.0023330082627958  0.4736487310875530   T   T   T
  0.9999870886395097  0.7523045785950303  0.4735854840746841   T   T   T
  0.9999488752380632  0.8753970771816845  0.4737479267654381   T   T   T
  0.0000640297035280  0.6253976257148592  0.4736880810364666   T   T   T
  0.1510112666137824  0.3792249840943179  0.4861852369987916   T   T   T
  0.1509531013065367  0.1292467534185990  0.4862139921085100   T   T   T
  0.1511347855070471  0.6292509927349049  0.4861643074647100   T   T   T
  0.1509834294139231  0.8792712266129382  0.4862355449038980   T   T   T
  0.1532689027423678  0.4987878322717444  0.4859915842203606   T   T   T
  0.1532445340394143  0.2486701638613769  0.4860267889038110   T   T   T
  0.1533005903552188  0.7486530769157446  0.4860273475190318   T   T   T
  0.1532625322347465  0.9986289355667223  0.4860414908941210   T   T   T
  0.1548192101687462  0.0001939208417241  0.3155011134060643   F   F   F
  0.1548192101687462  0.5001939208417241  0.3155011134060643   F   F   F
  0.1548192101687462  0.7501939210558106  0.3155011134060643   F   F   F
  0.1548192101687462  0.2501939210558106  0.3155011134060643   F   F   F
  0.1548500727526161  0.6251896283286698  0.3155471503596488   F   F   F
  0.1548500727526161  0.8751896285427563  0.3155471503596488   F   F   F
  0.1548500727526161  0.1251896283286698  0.3155471503596488   F   F   F
  0.1548500727526161  0.3751896285427563  0.3155471503596488   F   F   F
  0.2474448706600759  0.8720630769615211  0.5562129911579938   T   T   T
  0.2476096655667089  0.6221089800600310  0.5561409291725726   T   T   T
  0.2474898375500981  0.1221292211468327  0.5561954596194042   T   T   T
  0.2475741532429540  0.3720470087037838  0.5560901368477138   T   T   T
  0.2498196769959161  0.3748850413758288  0.3878621216491461   T   T   T
  0.2497901917860969  0.2498377531968125  0.3872460253545956   T   T   T
  0.2497793341376946  0.1248699258133324  0.3878564373820098   T   T   T
  0.2497968605987407  0.9998893158868155  0.3872608213600528   T   T   T
  0.2498664857788201  0.4999216608523511  0.3873083817409189   T   T   T
  0.2498046362959734  0.8748893717744459  0.3878616616538719   T   T   T
  0.2498802405454331  0.6249356414075282  0.3878722610387199   T   T   T
  0.2498443889573279  0.7498966637109875  0.3872446413216721   T   T   T
  0.2502659079606815  0.6250292589019324  0.1993221157413743   F   F   F
  0.2502659079606815  0.8750292591160189  0.1993221157413743   F   F   F
  0.2502659079606815  0.1250292589019324  0.1993221157413743   F   F   F
  0.2502659079606815  0.3750292591160189  0.1993221157413743   F   F   F
  0.2502818138619602  0.0000100119032282  0.1992701427899632   F   F   F
  0.2502818138619602  0.5000100119032282  0.1992701427899632   F   F   F
  0.2502818138619602  0.7500100121173077  0.1992701427899632   F   F   F
  0.2502818138619602  0.2500100121173077  0.1992701427899632   F   F   F
  0.2588012450231389  0.4918868380127649  0.5621942109493813   T   T   T
  0.2591733940082256  0.9917495593111603  0.5623626898993543   T   T   T
  0.2593614004275386  0.7416783824411223  0.5623587333525411   T   T   T
  0.2592217973205888  0.2418160446541434  0.5622616477653943   T   T   T
  0.3452374977790953  0.6246790182669955  0.3159667218028375   F   F   F
  0.3452374977790953  0.8746790184810820  0.3159667218028375   F   F   F
  0.3452374977790953  0.1246790182669955  0.3159667218028375   F   F   F
  0.3452374977790953  0.3746790184810820  0.3159667218028375   F   F   F
  0.3452603590954908  0.9997083480310920  0.3159103144045119   F   F   F
  0.3452603590954908  0.4997083480310920  0.3159103144045119   F   F   F
  0.3452603590954908  0.7497083482451785  0.3159103144045119   F   F   F
  0.3452603590954908  0.2497083482451785  0.3159103144045119   F   F   F
  0.3483117405687954  0.2490357381487814  0.4882820216618713   T   T   T
  0.3483208216138912  0.7490421506308178  0.4883376809652946   T   T   T
  0.3482954796621754  0.9990174775416103  0.4883645754369961   T   T   T
  0.3484267330212982  0.4991340515741464  0.4883692275476992   T   T   T
  0.3491427989564193  0.3728602329903180  0.4880465861132564   T   T   T
  0.3490119616858537  0.1229594250079950  0.4881680841175522   T   T   T
  0.3490393056910358  0.8730202662066043  0.4882009247115252   T   T   T
  0.3492613539270214  0.6231299371452281  0.4881172796226886   T   T   T
  0.4008032884333966  0.2490037224627240  0.4021864342384216   T   T   T
  0.4007831873960370  0.9990584241060860  0.4022697552203754   T   T   T
  0.4008759014047130  0.4991612710825215  0.4022782866708344   T   T   T
  0.4008880204447089  0.7490927786755410  0.4022654714103417   T   T   T
  0.4011194196492536  0.3741366406152059  0.4023780563161811   T   T   T
  0.4011533880929888  0.1241352596229257  0.4024863035340492   T   T   T
  0.4011705791940758  0.8741915604812600  0.4025113126031390   T   T   T
  0.4012494610356560  0.6241403811327363  0.4024907935680351   T   T   T
  0.4018592444724335  0.1212034344185209  0.5715727484915252   T   T   T
  0.4019458449299551  0.8712215312195832  0.5715793279665667   T   T   T
  0.4022381519077678  0.6210534019671949  0.5714763918867595   T   T   T
  0.4020896915268736  0.3713842786318243  0.5714927840346442   T   T   T
  0.4058965648201962  0.6248444726427422  0.2323487498175751   F   F   F
  0.4058965648201962  0.8748444728568288  0.2323487498175751   F   F   F
  0.4058965648201962  0.1248444726427422  0.2323487498175751   F   F   F
  0.4058965648201962  0.3748444728568288  0.2323487498175751   F   F   F
  0.4059506995515889  0.9998103570065027  0.2323399901691943   F   F   F
  0.4059506995515889  0.4998103570065027  0.2323399901691943   F   F   F
  0.4059506995515889  0.7498103572205892  0.2323399901691943   F   F   F
  0.4059506995515889  0.2498103572205892  0.2323399901691943   F   F   F
  0.4060302257764495  0.4992077763172439  0.5689280609571998   T   T   T
  0.4072545323535019  0.7496415860615241  0.5684589216303035   T   T   T
  0.4072172549963627  0.9995953876532181  0.5685024865111040   T   T   T
  0.4072144805719737  0.2496853025496621  0.5683598685452201   T   T   T
  0.4997371510744686  0.3728767389293606  0.4748992324586759   T   T   T
  0.4999584746206379  0.2490269426161258  0.4726896566763206   T   T   T
  0.5000421032901793  0.4990770551713891  0.4731325486921243   T   T   T
  0.4999427744162949  0.1230432754874426  0.4754717673232434   T   T   T
  0.5000599515578225  0.6231719621227432  0.4755604567365958   T   T   T
  0.5000072458825953  0.7490987960074410  0.4726708046012708   T   T   T
  0.4999704038989088  0.9991356676158376  0.4727016457729127   T   T   T
  0.4999866620472637  0.8730482933154092  0.4755268866722973   T   T   T
  0.5000000000000000  0.9996370422826644  0.3031199056678844   F   F   F
  0.5000000000000000  0.4996370422826644  0.3031199056678844   F   F   F
  0.5000000000000000  0.6247350156471256  0.3031143997625279   F   F   F
  0.5000000000000000  0.7496370424967509  0.3031199056678844   F   F   F
  0.5000000000000000  0.8747350158612122  0.3031143997625279   F   F   F
  0.5000000000000000  0.1247350156471256  0.3031143997625279   F   F   F
  0.5000000000000000  0.2496370424967509  0.3031199056678844   F   F   F
  0.5000000000000000  0.3747350158612122  0.3031143997625279   F   F   F
  0.8470504796142891  0.0697733088257024  0.5368119130936995   T   T   T
  0.8471035878459808  0.8198491201645747  0.5368396837156300   T   T   T
  0.8477353170334765  0.5696052020300066  0.5367586005859607   T   T   T
  0.8481151951234174  0.3197880571356247  0.5368660692059433   T   T   T
  0.1529096930545955  0.0697423522291367  0.5367071263189312   T   T   T
  0.1529085813549845  0.8197921413047361  0.5367612530222664   T   T   T
  0.1532365119034759  0.3196430107652759  0.5366793424363627   T   T   T
  0.1537858836044680  0.5696857280694264  0.5366272888560270   T   T   T
  0.4993413383838854  0.5056365702863419  0.5393255900057830   T   T   T
  0.5000133068207570  0.7563323442062186  0.5389344883568679   T   T   T
  0.4999754260556905  0.0064688438827138  0.5389582084201807   T   T   T
  0.5000152417047228  0.2565943967301935  0.5389778682984897   T   T   T
  0.0000000000000000  0.0000718854908470  0.1971343718238288   F   F   F
  0.0000000000000000  0.5000718854908470  0.1971343718238288   F   F   F
  0.0000000000000000  0.6251997477026094  0.1971274191543344   F   F   F
  0.0000000000000000  0.7500718857049335  0.1971343718238288   F   F   F
  0.0000000000000000  0.8751997479166960  0.1971274191543344   F   F   F
  0.0000000000000000  0.1251997477026094  0.1971274191543344   F   F   F
  0.0000000000000000  0.2500718857049335  0.1971343718238288   F   F   F
  0.0000000000000000  0.3751997479166960  0.1971274191543344   F   F   F
  0.0000378046382856  0.3756211071378584  0.3693317496826227   T   T   T
 -0.0000227541489712  0.8784409383928429  0.5422102148162007   T   T   T
  0.0000393460777140  0.7509400437551425  0.5415102658735512   T   T   T
 -0.0000016630828930  0.0010541488572102  0.5415378424834583   T   T   T
  0.0000752854801478  0.5006752963475941  0.3693607537961664   T   T   T
  0.0000632540307145  0.1285675048918613  0.5421641718000990   T   T   T
  0.0002910454856164  0.2509986013808694  0.5415216497103218   T   T   T
  0.0007372669519967  0.3786669936802624  0.5420708782273957   T   T   T
  0.0009639422556509  0.5011712225103084  0.5413096524370187   T   T   T
  0.5826617485954912  0.5622475047824267  0.2840383746124928   F   F   F
  0.5826617485954912  0.0622475047824267  0.2840383746124928   F   F   F
  0.5826617485954912  0.8122475045683402  0.2840383746124928   F   F   F
  0.5826617485954912  0.3122475045683402  0.2840383746124928   F   F   F
  0.5827027102256537  0.4372504995116770  0.2840867749422387   F   F   F
  0.5827027102256537  0.6872504992975905  0.2840867749422387   F   F   F
  0.5827027102256537  0.9372504995116770  0.2840867749422387   F   F   F
  0.5827027102256537  0.1872504992975905  0.2840867749422387   F   F   F
  0.5836698048174279  0.4362036098110161  0.4542729663478428   T   T   T
  0.5838271663052772  0.1861334399197554  0.4541673993297348   T   T   T
  0.5838928138161181  0.6861887085065264  0.4541115992383124   T   T   T
  0.5838857927661368  0.9361923668791455  0.4541294682197282   T   T   T
  0.5840485582673871  0.3110475460650259  0.4543088675543160   T   T   T
  0.5840794774716543  0.5610890817648102  0.4545810903257916   T   T   T
  0.5840545079583405  0.0611372186957531  0.4543406769189024   T   T   T
  0.5840894382055779  0.8112143663590018  0.4543412980611708   T   T   T
  0.6600616933440028  0.1847685625144012  0.5423027627426990   T   T   T
  0.6601865434717374  0.6856689089067747  0.5422864748182049   T   T   T
  0.6601521478108309  0.9352594643873066  0.5423597512427907   T   T   T
  0.6650486360736184  0.4355273058882139  0.5409838374373527   T   T   T
  0.6656630292367254  0.4374555758991647  0.2027209846340057   F   F   F
  0.6656630292367254  0.6874555756850853  0.2027209846340057   F   F   F
  0.6656630292367254  0.9374555758991647  0.2027209846340057   F   F   F
  0.6656630292367254  0.1874555756850853  0.2027209846340057   F   F   F
  0.6657072857987743  0.5624132520265661  0.2026937805471647   F   F   F
  0.6657072857987743  0.0624132520265661  0.2026937805471647   F   F   F
  0.6657072857987743  0.8124132518124867  0.2026937805471647   F   F   F
  0.6657072857987743  0.3124132518124867  0.2026937805471647   F   F   F
  0.6676383359380390  0.4369713830654805  0.3685950527322526   T   T   T
  0.6676695461041405  0.6869604558084144  0.3684930663079863   T   T   T
  0.6676551294890214  0.8121340885279446  0.3685566698459989   T   T   T
  0.6676662655782547  0.0621316493152487  0.3685442354641575   T   T   T
  0.6677152042081107  0.3121289198607344  0.3685809332080470   T   T   T
  0.6677464868792128  0.5621275257251841  0.3685728444739791   T   T   T
  0.6677071774701515  0.1869651103499823  0.3684656442351060   T   T   T
  0.6676797867733782  0.9369746448723425  0.3684697206940221   T   T   T
  0.6687678110770685  0.0591733665337082  0.5438294041878551   T   T   T
  0.6689194802255890  0.8095969653531871  0.5437303137704170   T   T   T
  0.6691900891797086  0.3084256078555532  0.5443432225878527   T   T   T
  0.6695042668618177  0.5603536534463459  0.5441630592212645   T   T   T
  0.7492820083710853  0.3761537086701318  0.4560692570696518   T   T   T
  0.7493031475695537  0.2483069986412627  0.4550594163801924   T   T   T
  0.7493996343333631  0.4982678704031200  0.4552078584624078   T   T   T
  0.7493038658448623  0.9982643910848856  0.4550211194476016   T   T   T
  0.7493814833189566  0.7483036146901593  0.4550207190634222   T   T   T
  0.7493849376461151  0.1263266535502489  0.4559065234178676   T   T   T
  0.7494796863115782  0.6263888711086441  0.4559883346501142   T   T   T
  0.7494531350471418  0.8763561628080906  0.4559189753326066   T   T   T
  0.7497932119634427  0.6250918038603928  0.2779408447549940   F   F   F
  0.7497932119634427  0.8750918040744793  0.2779408447549940   F   F   F
  0.7497932119634427  0.1250918038603928  0.2779408447549940   F   F   F
  0.7497932119634427  0.3750918040744793  0.2779408447549940   F   F   F
  0.7498000177344295  0.9998887643854673  0.2779024730268418   F   F   F
  0.7498000177344295  0.4998887643854673  0.2779024730268418   F   F   F
  0.7498000177344295  0.7498887645995538  0.2779024730268418   F   F   F
  0.7498000177344295  0.2498887645995538  0.2779024730268418   F   F   F
  0.0822218685209366  0.1887866833598911  0.4536210641821870   T   T   T
  0.0823317130392894  0.4387995627435837  0.4535692211983689   T   T   T
  0.0823282599925083  0.6887811523995280  0.4535801272576676   T   T   T
  0.0822549082221028  0.9387657882002485  0.4536148593486238   T   T   T
  0.0825727650034978  0.4376830284600572  0.2837096284632494   F   F   F
  0.0825727650034978  0.6876830282459707  0.2837096284632494   F   F   F
  0.0825727650034978  0.9376830284600572  0.2837096284632494   F   F   F
  0.0825727650034978  0.1876830282459707  0.2837096284632494   F   F   F
  0.0826029583302130  0.5626929404925889  0.2836274496354534   F   F   F
  0.0826029583302130  0.0626929404925889  0.2836274496354534   F   F   F
  0.0826029583302130  0.8126929402785024  0.2836274496354534   F   F   F
  0.0826029583302130  0.3126929402785024  0.2836274496354534   F   F   F
  0.8295163166557561  0.6917309636733203  0.5428708081720861   T   T   T
  0.8294105582109805  0.9417126637097136  0.5429452287452903   T   T   T
  0.8296824765753310  0.1916255494770531  0.5428156010420827   T   T   T
  0.8316243404330187  0.4417172658066099  0.5427453714812343   T   T   T
  0.8321177997119052  0.4377495545453788  0.3677862218224542   T   T   T
  0.8321229834249116  0.6877544324630647  0.3677799647689621   T   T   T
  0.8321288551976329  0.1877386787137734  0.3677756198775331   T   T   T
  0.8321176690226105  0.9377559609081891  0.3677877436047399   T   T   T
  0.8322998453060956  0.5628027782067779  0.3679997252290177   T   T   T
  0.8323319527181495  0.3127875208193192  0.3680249045334700   T   T   T
  0.8323709271608287  0.8128008240966877  0.3680466838845355   T   T   T
  0.8323637711560918  0.0627927817111164  0.3680407838445569   T   T   T
  0.8336793151700448  0.5625684457322180  0.2026879705260853   F   F   F
  0.8336793151700448  0.0625684457322180  0.2026879705260853   F   F   F
  0.8336793151700448  0.8125684455181315  0.2026879705260853   F   F   F
  0.8336793151700448  0.3125684455181315  0.2026879705260853   F   F   F
  0.8337395527315365  0.4376312579759087  0.2027221981443361   F   F   F
  0.8337395527315365  0.6876312577618222  0.2027221981443361   F   F   F
  0.8337395527315365  0.9376312579759087  0.2027221981443361   F   F   F
  0.8337395527315365  0.1876312577618222  0.2027221981443361   F   F   F
  0.0851455677039867  0.3136540950827924  0.4542558486162125   T   T   T
  0.0852276612920941  0.5637318204950892  0.4541743295639241   T   T   T
  0.0851333287085199  0.0636598735081128  0.4543139785920687   T   T   T
  0.0851648051350240  0.8136748914626113  0.4543223111364598   T   T   T
  0.9147456743681960  0.0636809922693930  0.4543459704737491   T   T   T
  0.9147653634191160  0.8136613608355903  0.4543451527038428   T   T   T
  0.9148132850571882  0.3136692202309211  0.4543061386880577   T   T   T
  0.9148958607916181  0.5636829888388578  0.4541989542173547   T   T   T
  0.9173970416697870  0.5626929404925889  0.2836274496354534   F   F   F
  0.9173970416697870  0.0626929404925889  0.2836274496354534   F   F   F
  0.9173970416697870  0.8126929402785024  0.2836274496354534   F   F   F
  0.9173970416697870  0.3126929402785024  0.2836274496354534   F   F   F
  0.9174272349965022  0.4376830284600572  0.2837096284632494   F   F   F
  0.9174272349965022  0.6876830282459707  0.2837096284632494   F   F   F
  0.9174272349965022  0.9376830284600572  0.2837096284632494   F   F   F
  0.9174272349965022  0.1876830282459707  0.2837096284632494   F   F   F
  0.9175918756305246  0.1887951941431764  0.4535708839076335   T   T   T
  0.9177013260130430  0.6887682710866792  0.4535574265941557   T   T   T
  0.9176284184689318  0.9387731439968561  0.4536079370331205   T   T   T
  0.9178166958807094  0.4387796446837484  0.4534730008790016   T   T   T
  0.9999846496332286  0.2506453816192842  0.3693803874510985   T   T   T
  0.0000121538236598  0.6255870990780096  0.3693399966827313   T   T   T
  0.9999649020318494  0.1255831843635157  0.3693470534513218   T   T   T
  0.9999812804803134  0.7506524817059901  0.3693802575678812   T   T   T
  0.9999677445973091  0.8756141175520248  0.3693433032439853   T   T   T
  0.9999707410745117  0.0006451155660466  0.3693859092150941   T   T   T
  0.0002074276422996  0.6285598716471443  0.5421832806744251   T   T   T
  0.1662604174500757  0.4376312579759087  0.2027221981443361   F   F   F
  0.1662604174500757  0.6876312577618222  0.2027221981443361   F   F   F
  0.1662604174500757  0.9376312579759087  0.2027221981443361   F   F   F
  0.1662604174500757  0.1876312577618222  0.2027221981443361   F   F   F
  0.1663206550115603  0.5625684457322180  0.2026879705260853   F   F   F
  0.1663206550115603  0.0625684457322180  0.2026879705260853   F   F   F
  0.1663206550115603  0.8125684455181315  0.2026879705260853   F   F   F
  0.1663206550115603  0.3125684455181315  0.2026879705260853   F   F   F
  0.1675653674297745  0.0627806831859464  0.3680358145108536   T   T   T
  0.1676388191951200  0.3127842054731093  0.3679980502747940   T   T   T
  0.1675922914358362  0.8128083475900507  0.3680454621669825   T   T   T
  0.1677335286616405  0.5628326252778031  0.3679629429782548   T   T   T
  0.1678325968315246  0.1877297378105202  0.3677806239584115   T   T   T
  0.1679215009343313  0.4377654339690447  0.3677842053507435   T   T   T
  0.1678481785267511  0.9377460199378679  0.3677877433798198   T   T   T
  0.1679026582688701  0.6877740815446947  0.3677847680624534   T   T   T
  0.1703890548123367  0.4416681361609634  0.5429371219287871   T   T   T
  0.1704783446638414  0.1916727130497158  0.5429247493064054   T   T   T
  0.1705282517469826  0.9417090557596928  0.5429547589097621   T   T   T
  0.1706818902948425  0.6916750958449398  0.5429013996591516   T   T   T
  0.2501999817133793  0.9998887643854673  0.2779024730268418   F   F   F