generated by phonopy                    
   1.00000000000000     
     5.0846566404208877   -0.0000000000000000   -0.0000000000000000
    -2.5423283202104439    4.4034418201257228    0.0000000000000000
     0.0000000000000000    0.0000000000000000   13.1696790696420383
   B    N    Ga
    15    16     1
Direct
  0.1666938248494120  0.3333061751505879  0.9866885550600487
  0.6666123503011829  0.3333061751505879  0.9866885550600487
  0.1666938248494120  0.8333876496988171  0.9866885550600487
  0.6666666666666714  0.8333333333333286  0.9868387212922707
  0.1648003178679724  0.3351996821320274  0.4829178540592264
  0.6703993642640690  0.3351996821320274  0.4829178540592264
  0.1648003178679724  0.8296006357359310  0.4829178540592264
  0.3333333333333286  0.1666666666666714  0.2386425776548698
  0.8331272753066429  0.1662545506133069  0.2389143543644584
  0.3337454493866933  0.6668727246933571  0.2389143543644584
  0.8331272753066429  0.6668727246933571  0.2389143543644584
  0.3333333333333286  0.1666666666666714  0.7350638005549202
  0.8354769358629500  0.1709538717259138  0.7344831777784866
  0.3290461282740862  0.6645230641370500  0.7344831777784866
  0.8354769358629500  0.6645230641370500  0.7344831777784866
  0.3333333333333286  0.1666666666666714  0.9856621203654377
  0.8333196508617342  0.1666393017234828  0.9853587374572196
  0.3333606982765174  0.6666803491382658  0.9853587374572196
  0.8333196508617342  0.6666803491382658  0.9853587374572196
  0.3333333333333286  0.1666666666666714  0.4905752760327685
  0.8463059168878423  0.1926118337756994  0.4820720591403263
  0.3073881662243006  0.6536940831121577  0.4820720591403263
  0.8463059168878423  0.6536940831121577  0.4820720591403263
  0.1666901479490377  0.3333098520509626  0.2377275483612485
  0.6666197041019394  0.3333098520509626  0.2377275483612485
  0.1666901479490377  0.8333802958980606  0.2377275483612485
  0.6666666666666714  0.8333333333333286  0.2369191466141073
  0.1665884367332164  0.3334115632667837  0.7363812378474074
  0.6668231265335746  0.3334115632667837  0.7363812378474074
  0.1665884367332164  0.8331768734664254  0.7363812378474074
  0.6666666666666714  0.8333333333333286  0.7271602187711083
  0.6666666666666714  0.8333333333333286  0.5455075665092600
 
  0.00000000E+00  0.00000000E+00  0.00000000E+00
  0.00000000E+00  0.00000000E+00  0.00000000E+00
  0.00000000E+00  0.00000000E+00  0.00000000E+00
  0.00000000E+00  0.00000000E+00  0.00000000E+00
  0.00000000E+00  0.00000000E+00  0.00000000E+00
  0.00000000E+00  0.00000000E+00  0.00000000E+00
  0.00000000E+00  0.00000000E+00  0.00000000E+00
  0.00000000E+00  0.00000000E+00  0.00000000E+00
  0.00000000E+00  0.00000000E+00  0.00000000E+00
  0.00000000E+00  0.00000000E+00  0.00000000E+00
  0.00000000E+00  0.00000000E+00  0.00000000E+00
  0.00000000E+00  0.00000000E+00  0.00000000E+00
  0.00000000E+00  0.00000000E+00  0.00000000E+00
  0.00000000E+00  0.00000000E+00  0.00000000E+00
  0.00000000E+00  0.00000000E+00  0.00000000E+00
  0.00000000E+00  0.00000000E+00  0.00000000E+00
  0.00000000E+00  0.00000000E+00  0.00000000E+00
  0.00000000E+00  0.00000000E+00  0.00000000E+00
  0.00000000E+00  0.00000000E+00  0.00000000E+00
  0.00000000E+00  0.00000000E+00  0.00000000E+00
  0.00000000E+00  0.00000000E+00  0.00000000E+00
  0.00000000E+00  0.00000000E+00  0.00000000E+00
  0.00000000E+00  0.00000000E+00  0.00000000E+00
  0.00000000E+00  0.00000000E+00  0.00000000E+00
  0.00000000E+00  0.00000000E+00  0.00000000E+00
  0.00000000E+00  0.00000000E+00  0.00000000E+00
  0.00000000E+00  0.00000000E+00  0.00000000E+00
  0.00000000E+00  0.00000000E+00  0.00000000E+00
  0.00000000E+00  0.00000000E+00  0.00000000E+00
  0.00000000E+00  0.00000000E+00  0.00000000E+00
  0.00000000E+00  0.00000000E+00  0.00000000E+00
  0.00000000E+00  0.00000000E+00  0.00000000E+00
