generated by phonopy                    
   1.00000000000000     
     5.0848146707181909   -0.0000000000000000    0.0000000000000000
    -2.5424073353590955    4.4035786783777562    0.0000000000000000
     0.0000000000000000    0.0000000000000000   13.1952141282784741
   B    N    Ga
    15    16     1
Direct
  0.1666930449520999  0.3333069550479003 -0.0132877524698277
  0.6666139100958147  0.3333069550479003 -0.0132877524698277
  0.1666930449520999  0.8333860899041853 -0.0132877524698277
  0.6666666666666714  0.8333333333333286 -0.0131349699865019
  0.1648029122211187  0.3351970877788809  0.4829569890559787
  0.6703941755577759  0.3351970877788809  0.4829569890559787
  0.1648029122211187  0.8296058244422241  0.4829569890559787
  0.3333333333333286  0.1666666666666714  0.2386200009535480
  0.8331309039032063  0.1662618078064268  0.2388886819756826
  0.3337381921935729  0.6668690960967937  0.2388886819756826
  0.8331309039032063  0.6668690960967937  0.2388886819756826
  0.3333333333333286  0.1666666666666714  0.7350492031717578
  0.8354598210595737  0.1709196421191606  0.7344473961323401
  0.3290803578808394  0.6645401789404263  0.7344473961323401
  0.8354598210595737  0.6645401789404263  0.7344473961323401
  0.3333333333333286  0.1666666666666714  0.9856912338249515
  0.8333202630717489  0.1666405261435122  0.9853947616210348
  0.3333594738564880  0.6666797369282511  0.9853947616210348
  0.8333202630717489  0.6666797369282511  0.9853947616210348
  0.3333333333333286  0.1666666666666714  0.4905513389341173
  0.8463104880288214  0.1926209760576568  0.4821199516119780
  0.3073790239423433  0.6536895119711786  0.4821199516119780
  0.8463104880288213  0.6536895119711786  0.4821199516119780
  0.1666902923964299  0.3333097076035700  0.2377137379443821
  0.6666194152071543  0.3333097076035700  0.2377137379443821
  0.1666902923964299  0.8333805847928457  0.2377137379443821
  0.6666666666666714  0.8333333333333286  0.2369077524605625
  0.1665892131242221  0.3334107868757779  0.7363449273243315
  0.6668215737515700  0.3334107868757779  0.7363449273243315
  0.1665892131242221  0.8331784262484300  0.7363449273243315
  0.6666666666666714  0.8333333333333286  0.7271680147498205
  0.6666666666666714  0.8333333333333286  0.5454113463040672
 
  0.00000000E+00  0.00000000E+00  0.00000000E+00
  0.00000000E+00  0.00000000E+00  0.00000000E+00
  0.00000000E+00  0.00000000E+00  0.00000000E+00
  0.00000000E+00  0.00000000E+00  0.00000000E+00
  0.00000000E+00  0.00000000E+00  0.00000000E+00
  0.00000000E+00  0.00000000E+00  0.00000000E+00
  0.00000000E+00  0.00000000E+00  0.00000000E+00
  0.00000000E+00  0.00000000E+00  0.00000000E+00
  0.00000000E+00  0.00000000E+00  0.00000000E+00
  0.00000000E+00  0.00000000E+00  0.00000000E+00
  0.00000000E+00  0.00000000E+00  0.00000000E+00
  0.00000000E+00  0.00000000E+00  0.00000000E+00
  0.00000000E+00  0.00000000E+00  0.00000000E+00
  0.00000000E+00  0.00000000E+00  0.00000000E+00
  0.00000000E+00  0.00000000E+00  0.00000000E+00
  0.00000000E+00  0.00000000E+00  0.00000000E+00
  0.00000000E+00  0.00000000E+00  0.00000000E+00
  0.00000000E+00  0.00000000E+00  0.00000000E+00
  0.00000000E+00  0.00000000E+00  0.00000000E+00
  0.00000000E+00  0.00000000E+00  0.00000000E+00
  0.00000000E+00  0.00000000E+00  0.00000000E+00
  0.00000000E+00  0.00000000E+00  0.00000000E+00
  0.00000000E+00  0.00000000E+00  0.00000000E+00
  0.00000000E+00  0.00000000E+00  0.00000000E+00
  0.00000000E+00  0.00000000E+00  0.00000000E+00
  0.00000000E+00  0.00000000E+00  0.00000000E+00
  0.00000000E+00  0.00000000E+00  0.00000000E+00
  0.00000000E+00  0.00000000E+00  0.00000000E+00
  0.00000000E+00  0.00000000E+00  0.00000000E+00
  0.00000000E+00  0.00000000E+00  0.00000000E+00
  0.00000000E+00  0.00000000E+00  0.00000000E+00
  0.00000000E+00  0.00000000E+00  0.00000000E+00
