SYSTEM = AlN
Electronic minimisation
PREC = High
IBRION = 2
ISIF = 3
NSW = 200
ISPIN = 2

IVDW = 11

EDIFF = 1E-6
EDIFFG = -0.001

LCHARG   =  .FALSE.
LWAVE = .FALSE.

DOS related value
ISMEAR = -5

NPAR = 8
