Ta  N Ru Cu                             
   1.00000000000000     
     9.0548154099999998    0.0000000000000000    0.0000000000000000
     0.0000000000000000   11.6775998899999998    0.0000000000000000
     0.0000000000000000    0.0000000000000000   26.4818170799999990
   Ta   N    Ru   Cu
    60    60    32     1
Selective dynamics
Direct
  0.0000000000000000  0.0000000000000000  0.2258397498815228   F   F   F
  0.6670845899906297  0.1250000003211298  0.2339882671631202   F   F   F
  0.3329153514769843  0.1250000003211298  0.2339882671631202   F   F   F
  0.4999999994478088  0.2499999997859135  0.3208898207564346   F   F   F
  0.1650707596845180  0.1250000003211298  0.3267034403329916   F   F   F
  0.8349292403154820  0.1250000003211298  0.3267034403329916   F   F   F
  0.0007424423975988  0.2502266988054020  0.4254998216805425   T   T   T
  0.6646433679030863  0.1251187009375951  0.4238647517185379   T   T   T
  0.3349691967297194  0.1250776727244698  0.4238406703228350   T   T   T
  0.4970359014323547  0.2505295683935230  0.5232059256009263   T   T   T
  0.1672072736579657  0.1249964831716499  0.5232683450529126   T   T   T
  0.8330566683726690  0.1253932035157398  0.5225380986665331   T   T   T
  0.0010851874884836  0.2505165695256144  0.6212756922862178   T   T   T
  0.6625448673447515  0.1254652094751313  0.6200673410397352   T   T   T
  0.3276661050915614  0.1247579861443216  0.6241877093472674   T   T   T
  0.0000000000000000  0.2499999997859135  0.2258397498815228   F   F   F
  0.6670845899906297  0.3750000001070433  0.2339882671631202   F   F   F
  0.3329153514769843  0.3750000001070433  0.2339882671631202   F   F   F
  0.4999999994478088  0.5000000004281731  0.3208898207564346   F   F   F
  0.1650707596845180  0.3750000001070433  0.3267034403329916   F   F   F
  0.8349292403154820  0.3750000001070433  0.3267034403329916   F   F   F
  0.0008031349404209  0.5000492033139491  0.4255742118870983   T   T   T
  0.6647000307837314  0.3751247808818686  0.4240136606030862   T   T   T
  0.3350324241090681  0.3750764076851816  0.4239791318334969   T   T   T
  0.4968444326940848  0.5000167775089530  0.5236758412472234   T   T   T
  0.1672440144784749  0.3752720420714648  0.5237396968510160   T   T   T
  0.8330584158407451  0.3754718412943676  0.5229319259823421   T   T   T
  0.0013917378355823  0.5000801197538350  0.6239409412994655   T   T   T
  0.6643629863551670  0.3762341033406614  0.6212081908907632   T   T   T
  0.3286115506506467  0.3745456213767739  0.6247805016400523   T   T   T
  0.0000000000000000  0.5000000004281731  0.2258397498815228   F   F   F
  0.6670845899906297  0.6249999998929567  0.2339882671631202   F   F   F
  0.3329153514769843  0.6249999998929567  0.2339882671631202   F   F   F
  0.4999999994478088  0.7500000002140865  0.3208898207564346   F   F   F
  0.1650707596845180  0.6249999998929567  0.3267034403329916   F   F   F
  0.8349292403154820  0.6249999998929567  0.3267034403329916   F   F   F
  0.0008964374223318  0.7497408957425353  0.4254689704102919   T   T   T
  0.6646579022365123  0.6249225077214674  0.4239722713024627   T   T   T
  0.3350781704017600  0.6248723424561911  0.4239515759368050   T   T   T
  0.4971285873157119  0.7498314457295968  0.5230936466015649   T   T   T
  0.1675346100417432  0.6246936263664858  0.5237566535608758   T   T   T
  0.8333558679632851  0.6248327225093693  0.5228683823304552   T   T   T
  0.0030474436511236  0.7512136031996979  0.6213177504283480   T   T   T
  0.6647723792508373  0.6250431341402203  0.6212952203130250   T   T   T
  0.3295209953804282  0.6246832475858975  0.6258160579459634   T   T   T
  0.0000000000000000  0.7500000002140865  0.2258397498815228   F   F   F
  0.6670845899906297  0.8750000005352163  0.2339882671631202   F   F   F
  0.3329153514769843  0.8750000005352163  0.2339882671631202   F   F   F
  0.4999999994478088  0.0000000000000000  0.3208898207564346   F   F   F
  0.1650707596845180  0.8750000005352163  0.3267034403329916   F   F   F
  0.8349292403154820  0.8750000005352163  0.3267034403329916   F   F   F
  0.0007497294511258  0.0000708267450352  0.4254386153793377   T   T   T
  0.6645756367584982  0.8749670839012910  0.4238399719824518   T   T   T
  0.3350286195742623  0.8749307744939331  0.4238267846155314   T   T   T
  0.4970156756108477  0.0000106356321119  0.5229196594836732   T   T   T
  0.1669342832725000  0.8748948999511423  0.5231427748730507   T   T   T
  0.8334376769314685  0.8749863004865251  0.5222605174634734   T   T   T
  0.0002278587209574  0.0000129562018171  0.6221041268157471   T   T   T
  0.6638720624309077  0.8760104758590717  0.6191442491448591   T   T   T
  0.3289061825349661  0.8745140667096698  0.6231174361630926   T   T   T
  0.8141011533980276  0.0000000000000000  0.2671765160246267   F   F   F
  0.4999999994478088  0.0000000000000000  0.2273691263583544   F   F   F
  0.1858988466019724  0.0000000000000000  0.2671765160246267   F   F   F
  0.3088456122590841  0.2499999997859135  0.3635413069267344   F   F   F
  0.0000000000000000  0.2499999997859135  0.3485649890092901   F   F   F
  0.6911543877409159  0.2499999997859135  0.3635413069267344   F   F   F
  0.8021806235502514  0.2503704102787911  0.4626124762587879   T   T   T
  0.4996361302479648  0.2501435990128661  0.4456263230993960   T   T   T
  0.1987098774826959  0.2502945684368902  0.4632209120990037   T   T   T
  0.3018112614204028  0.2499329935039446  0.5628339534339153   T   T   T
 -0.0000938872735248  0.2504250357705395  0.5431056563970584   T   T   T
  0.6944330685139519  0.2509218389762065  0.5603053683313546   T   T   T
  0.8026114444595404  0.2509798309167527  0.6545834217940912   T   T   T
  0.5000677396924839  0.2502342014747805  0.6428288403205797   T   T   T
  0.1947990264297676  0.2487686209861105  0.6584840273042379   T   T   T
  0.8141011533980276  0.2499999997859135  0.2671765160246267   F   F   F
  0.4999999994478088  0.2499999997859135  0.2273691263583544   F   F   F
  0.1858988466019724  0.2499999997859135  0.2671765160246267   F   F   F
  0.3088456122590841  0.5000000004281731  0.3635413069267344   F   F   F
  0.0000000000000000  0.5000000004281731  0.3485649890092901   F   F   F
  0.6911543877409159  0.5000000004281731  0.3635413069267344   F   F   F
  0.8023544642361361  0.5000597664098005  0.4628349214470038   T   T   T
  0.4996405797050340  0.5000057915295997  0.4459022181511023   T   T   T
  0.1986374486029985  0.5000068399218323  0.4635049002009201   T   T   T
  0.3017981134545170  0.5002706218438995  0.5637811897144571   T   T   T
  0.0000267914600100  0.5001777904756760  0.5448134942415899   T   T   T
  0.6944983563087486  0.5006174377866482  0.5611032408261067   T   T   T
  0.8025429133615772  0.5005391848170719  0.6586489805054941   T   T   T
  0.5017785667770814  0.5001198919400034  0.6438726258467227   T   T   T
  0.1982182417530234  0.4984926802271816  0.6619292268635731   T   T   T
  0.8141011533980276  0.5000000004281731  0.2671765160246267   F   F   F
  0.4999999994478088  0.5000000004281731  0.2273691263583544   F   F   F
  0.1858988466019724  0.5000000004281731  0.2671765160246267   F   F   F
  0.3088456122590841  0.7500000002140865  0.3635413069267344   F   F   F
  0.0000000000000000  0.7500000002140865  0.3485649890092901   F   F   F
  0.6911543877409159  0.7500000002140865  0.3635413069267344   F   F   F
  0.8022998449633574  0.7497638392590132  0.4625010900089058   T   T   T
  0.4996175986150122  0.7498686701762461  0.4455553335338723   T   T   T
  0.1988320454423122  0.7496080983926943  0.4632138261506457   T   T   T
  0.3019174536590859  0.7490796787042184  0.5628790304694172   T   T   T
  0.0001412337574395  0.7497583690895425  0.5431336586892668   T   T   T
  0.6946777733860220  0.7492628715089998  0.5599538247309087   T   T   T
  0.8035803665550550  0.7526633148582522  0.6536852529460464   T   T   T
  0.5015294098646151  0.7507229182247960  0.6423966895935432   T   T   T
  0.1969496746342813  0.7506544565798869  0.6590504092917560   T   T   T
  0.8141011533980276  0.7500000002140865  0.2671765160246267   F   F   F
  0.4999999994478088  0.7500000002140865  0.2273691263583544   F   F   F
  0.1858988466019724  0.7500000002140865  0.2671765160246267   F   F   F
  0.3088456122590841  0.0000000000000000  0.3635413069267344   F   F   F
  0.0000000000000000  0.0000000000000000  0.3485649890092901   F   F   F
  0.6911543877409159  0.0000000000000000  0.3635413069267344   F   F   F
  0.8023016743809110  0.0001678740466717  0.4624147311343017   T   T   T
  0.4996247101013438  0.0000347535710238  0.4454714951717808   T   T   T
  0.1986374469131115  0.0000380513270077  0.4630662275041487   T   T   T
  0.3012206718340231  0.0000356880064456  0.5623864723255553   T   T   T
 -0.0003758143667659  0.0001213543020427  0.5435719665798179   T   T   T
  0.6949821352762399  0.0006220024769031  0.5597217586311927   T   T   T
  0.8001113950789358  0.0004813038190252  0.6560788257796216   T   T   T
  0.5000583753653387 -0.0002097710524930  0.6399525297543076   T   T   T
  0.1972139903107692  0.9987093252124273  0.6592614052555211   T   T   T
  0.0920747151824542  0.0061125826346351  0.7309318986939832   T   T   T
  0.5660983438056357  0.9908564630019675  0.7140763987225482   T   T   T
  0.8494583090202084  0.1310122329227662  0.7100597196324286   T   T   T
  0.0921827637004543  0.5197554139272127  0.7334613257436781   T   T   T
  0.5648588685816837  0.4931863760948461  0.7200261198981074   T   T   T
  0.8482862806076612  0.6376140835483832  0.7116613864328530   T   T   T
  0.1078278793789189  0.2333666918188251  0.7291810274259042   T   T   T
  0.5512299450167556  0.2591275580862117  0.7196791084422016   T   T   T
  0.8489964220411241  0.3673020099491666  0.7129574268185825   T   T   T
  0.1029637767261230  0.7488271898663075  0.7303005884075243   T   T   T
  0.5448164708589552  0.7603384856063581  0.7188857907886391   T   T   T
  0.8436974739910197  0.8710404225026374  0.7111095960811160   T   T   T
  0.3270872379888950  0.8908142824456345  0.7389797716949879   T   T   T
  0.3416601834971216  0.6190404600635137  0.7475261887353225   T   T   T
  0.3225586508398184  0.3985739034640223  0.7372973338865119   T   T   T
  0.3475753148860661  0.1116082708789398  0.7444898694314430   T   T   T
  0.1377146318439962  0.8799203142759526  0.8071624199038419   T   T   T
  0.6523929402940788  0.8805046701830231  0.7934125426843636   T   T   T
  0.8839011120547916  0.0101234769545538  0.7934542982148960   T   T   T
  0.1140654725240286  0.3643651871159507  0.8034744879174106   T   T   T
  0.6691705111155651  0.3557575650168572  0.7948282002590692   T   T   T
  0.8815757444217933  0.5174737742586968  0.7928854740089991   T   T   T
  0.1414822003602104  0.1178694556109531  0.8105038283419345   T   T   T
  0.6181391158695160  0.1146972848865499  0.7909439940357788   T   T   T
  0.8891291313885551  0.2304398272310303  0.7934180836358316   T   T   T
  0.1314254605840465  0.6418319111998534  0.8134862289373537   T   T   T
  0.6440944048869625  0.6397819416936222  0.7909032237538700   T   T   T
  0.8864889730530882  0.7470147599159392  0.7937083275072055   T   T   T
  0.4037847841866084  0.7694857428004945  0.8121536742755180   T   T   T
  0.2133946385443906  0.4896535569582544  0.8596505298068265   T   T   T
  0.4063671530148811  0.2742009655660435  0.8033617695456552   T   T   T
  0.3967376602175653  0.9810685904143659  0.8214470779095110   T   T   T
  0.4595312217802851  0.4940023151270565  0.8204007670919505   T   T   T
 
  0.00000000E+00  0.00000000E+00  0.00000000E+00
  0.00000000E+00  0.00000000E+00  0.00000000E+00
  0.00000000E+00  0.00000000E+00  0.00000000E+00
  0.00000000E+00  0.00000000E+00  0.00000000E+00
  0.00000000E+00  0.00000000E+00  0.00000000E+00
  0.00000000E+00  0.00000000E+00  0.00000000E+00
  0.00000000E+00  0.00000000E+00  0.00000000E+00
  0.00000000E+00  0.00000000E+00  0.00000000E+00
  0.00000000E+00  0.00000000E+00  0.00000000E+00
  0.00000000E+00  0.00000000E+00  0.00000000E+00
  0.00000000E+00  0.00000000E+00  0.00000000E+00
  0.00000000E+00  0.00000000E+00  0.00000000E+00
  0.00000000E+00  0.00000000E+00  0.00000000E+00
  0.00000000E+00  0.00000000E+00  0.00000000E+00
  0.00000000E+00  0.00000000E+00  0.00000000E+00
  0.00000000E+00  0.00000000E+00  0.00000000E+00
  0.00000000E+00  0.00000000E+00  0.00000000E+00
  0.00000000E+00  0.00000000E+00  0.00000000E+00
  0.00000000E+00  0.00000000E+00  0.00000000E+00
  0.00000000E+00  0.00000000E+00  0.00000000E+00
  0.00000000E+00  0.00000000E+00  0.00000000E+00
  0.00000000E+00  0.00000000E+00  0.00000000E+00
  0.00000000E+00  0.00000000E+00  0.00000000E+00
  0.00000000E+00  0.00000000E+00  0.00000000E+00
  0.00000000E+00  0.00000000E+00  0.00000000E+00
  0.00000000E+00  0.00000000E+00  0.00000000E+00
  0.00000000E+00  0.00000000E+00  0.00000000E+00
  0.00000000E+00  0.00000000E+00  0.00000000E+00
  0.00000000E+00  0.00000000E+00  0.00000000E+00
  0.00000000E+00  0.00000000E+00  0.00000000E+00
  0.00000000E+00  0.00000000E+00  0.00000000E+00
  0.00000000E+00  0.00000000E+00  0.00000000E+00
  0.00000000E+00  0.00000000E+00  0.00000000E+00
  0.00000000E+00  0.00000000E+00  0.00000000E+00
  0.00000000E+00  0.00000000E+00  0.00000000E+00
  0.00000000E+00  0.00000000E+00  0.00000000E+00
  0.00000000E+00  0.00000000E+00  0.00000000E+00
  0.00000000E+00  0.00000000E+00  0.00000000E+00
  0.00000000E+00  0.00000000E+00  0.00000000E+00
  0.00000000E+00  0.00000000E+00  0.00000000E+00
  0.00000000E+00  0.00000000E+00  0.00000000E+00
  0.00000000E+00  0.00000000E+00  0.00000000E+00
  0.00000000E+00  0.00000000E+00  0.00000000E+00
  0.00000000E+00  0.00000000E+00  0.00000000E+00
  0.00000000E+00  0.00000000E+00  0.00000000E+00
  0.00000000E+00  0.00000000E+00  0.00000000E+00
  0.00000000E+00  0.00000000E+00  0.00000000E+00
  0.00000000E+00  0.00000000E+00  0.00000000E+00
  0.00000000E+00  0.00000000E+00  0.00000000E+00
  0.00000000E+00  0.00000000E+00  0.00000000E+00
  0.00000000E+00  0.00000000E+00  0.00000000E+00
  0.00000000E+00  0.00000000E+00  0.00000000E+00
  0.00000000E+00  0.00000000E+00  0.00000000E+00
  0.00000000E+00  0.00000000E+00  0.00000000E+00
  0.00000000E+00  0.00000000E+00  0.00000000E+00
  0.00000000E+00  0.00000000E+00  0.00000000E+00
  0.00000000E+00  0.00000000E+00  0.00000000E+00
  0.00000000E+00  0.00000000E+00  0.00000000E+00
  0.00000000E+00  0.00000000E+00  0.00000000E+00
  0.00000000E+00  0.00000000E+00  0.00000000E+00
  0.00000000E+00  0.00000000E+00  0.00000000E+00
  0.00000000E+00  0.00000000E+00  0.00000000E+00
  0.00000000E+00  0.00000000E+00  0.00000000E+00
  0.00000000E+00  0.00000000E+00  0.00000000E+00
  0.00000000E+00  0.00000000E+00  0.00000000E+00
  0.00000000E+00  0.00000000E+00  0.00000000E+00
  0.00000000E+00  0.00000000E+00  0.00000000E+00
  0.00000000E+00  0.00000000E+00  0.00000000E+00
  0.00000000E+00  0.00000000E+00  0.00000000E+00
  0.00000000E+00  0.00000000E+00  0.00000000E+00
  0.00000000E+00  0.00000000E+00  0.00000000E+00
  0.00000000E+00  0.00000000E+00  0.00000000E+00
  0.00000000E+00  0.00000000E+00  0.00000000E+00
  0.00000000E+00  0.00000000E+00  0.00000000E+00
  0.00000000E+00  0.00000000E+00  0.00000000E+00
  0.00000000E+00  0.00000000E+00  0.00000000E+00
  0.00000000E+00  0.00000000E+00  0.00000000E+00
  0.00000000E+00  0.00000000E+00  0.00000000E+00
  0.00000000E+00  0.00000000E+00  0.00000000E+00
  0.00000000E+00  0.00000000E+00  0.00000000E+00
  0.00000000E+00  0.00000000E+00  0.00000000E+00
  0.00000000E+00  0.00000000E+00  0.00000000E+00
  0.00000000E+00  0.00000000E+00  0.00000000E+00
  0.00000000E+00  0.00000000E+00  0.00000000E+00
  0.00000000E+00  0.00000000E+00  0.00000000E+00
  0.00000000E+00  0.00000000E+00  0.00000000E+00
  0.00000000E+00  0.00000000E+00  0.00000000E+00
  0.00000000E+00  0.00000000E+00  0.00000000E+00
  0.00000000E+00  0.00000000E+00  0.00000000E+00
  0.00000000E+00  0.00000000E+00  0.00000000E+00
  0.00000000E+00  0.00000000E+00  0.00000000E+00
  0.00000000E+00  0.00000000E+00  0.00000000E+00
  0.00000000E+00  0.00000000E+00  0.00000000E+00
  0.00000000E+00  0.00000000E+00  0.00000000E+00
  0.00000000E+00  0.00000000E+00  0.00000000E+00
  0.00000000E+00  0.00000000E+00  0.00000000E+00
  0.00000000E+00  0.00000000E+00  0.00000000E+00
  0.00000000E+00  0.00000000E+00  0.00000000E+00
  0.00000000E+00  0.00000000E+00  0.00000000E+00
  0.00000000E+00  0.00000000E+00  0.00000000E+00
  0.00000000E+00  0.00000000E+00  0.00000000E+00
  0.00000000E+00  0.00000000E+00  0.00000000E+00
  0.00000000E+00  0.00000000E+00  0.00000000E+00
  0.00000000E+00  0.00000000E+00  0.00000000E+00
  0.00000000E+00  0.00000000E+00  0.00000000E+00
  0.00000000E+00  0.00000000E+00  0.00000000E+00
  0.00000000E+00  0.00000000E+00  0.00000000E+00
  0.00000000E+00  0.00000000E+00  0.00000000E+00
  0.00000000E+00  0.00000000E+00  0.00000000E+00
  0.00000000E+00  0.00000000E+00  0.00000000E+00
  0.00000000E+00  0.00000000E+00  0.00000000E+00
  0.00000000E+00  0.00000000E+00  0.00000000E+00
  0.00000000E+00  0.00000000E+00  0.00000000E+00
  0.00000000E+00  0.00000000E+00  0.00000000E+00
  0.00000000E+00  0.00000000E+00  0.00000000E+00
  0.00000000E+00  0.00000000E+00  0.00000000E+00
  0.00000000E+00  0.00000000E+00  0.00000000E+00
  0.00000000E+00  0.00000000E+00  0.00000000E+00
  0.00000000E+00  0.00000000E+00  0.00000000E+00
  0.00000000E+00  0.00000000E+00  0.00000000E+00
  0.00000000E+00  0.00000000E+00  0.00000000E+00
  0.00000000E+00  0.00000000E+00  0.00000000E+00
  0.00000000E+00  0.00000000E+00  0.00000000E+00
  0.00000000E+00  0.00000000E+00  0.00000000E+00
  0.00000000E+00  0.00000000E+00  0.00000000E+00
  0.00000000E+00  0.00000000E+00  0.00000000E+00
  0.00000000E+00  0.00000000E+00  0.00000000E+00
  0.00000000E+00  0.00000000E+00  0.00000000E+00
  0.00000000E+00  0.00000000E+00  0.00000000E+00
  0.00000000E+00  0.00000000E+00  0.00000000E+00
  0.00000000E+00  0.00000000E+00  0.00000000E+00
  0.00000000E+00  0.00000000E+00  0.00000000E+00
  0.00000000E+00  0.00000000E+00  0.00000000E+00
  0.00000000E+00  0.00000000E+00  0.00000000E+00
  0.00000000E+00  0.00000000E+00  0.00000000E+00
  0.00000000E+00  0.00000000E+00  0.00000000E+00
  0.00000000E+00  0.00000000E+00  0.00000000E+00
  0.00000000E+00  0.00000000E+00  0.00000000E+00
  0.00000000E+00  0.00000000E+00  0.00000000E+00
  0.00000000E+00  0.00000000E+00  0.00000000E+00
  0.00000000E+00  0.00000000E+00  0.00000000E+00
  0.00000000E+00  0.00000000E+00  0.00000000E+00
  0.00000000E+00  0.00000000E+00  0.00000000E+00
  0.00000000E+00  0.00000000E+00  0.00000000E+00
  0.00000000E+00  0.00000000E+00  0.00000000E+00
  0.00000000E+00  0.00000000E+00  0.00000000E+00
  0.00000000E+00  0.00000000E+00  0.00000000E+00
  0.00000000E+00  0.00000000E+00  0.00000000E+00
  0.00000000E+00  0.00000000E+00  0.00000000E+00
  0.00000000E+00  0.00000000E+00  0.00000000E+00
  0.00000000E+00  0.00000000E+00  0.00000000E+00
  0.00000000E+00  0.00000000E+00  0.00000000E+00
  0.00000000E+00  0.00000000E+00  0.00000000E+00
