Ta N                                    
   1.00000000000000     
    18.1096308199999996    0.0000000000000000    0.0000000000000000
     0.0000000000000000   11.6775998899999998    0.0000000000000000
     0.0000000000000000    0.0000000000000000   23.4818170799999990
   Ta   N 
   120   120
Direct
  0.0000000000000000  0.0000000000000000  0.2546618147296229
  0.3333575343919861  0.1250000003211298  0.2637680873917674
  0.1666424363418173  0.1250000003211298  0.2637680873917674
  0.2499999997239044  0.2499999997859135  0.3615557086322738
  0.0824860382135810  0.1250000003211298  0.3683456997420649
  0.4175139617864190  0.1250000003211298  0.3683456997420649
  0.0000000000000000  0.2499999997859135  0.4797665287326325
  0.3323655798122260  0.1250000003211298  0.4780764068170313
  0.1676343909215845  0.1250000003211298  0.4780764068170313
  0.2499999997239044  0.2499999997859135  0.5908979849672917
  0.0836821420311082  0.1250000003211298  0.5898106362843478
  0.4163178579688918  0.1250000003211298  0.5898106362843478
  0.0000000000000000  0.2499999997859135  0.7022198741745882
  0.3351398161564205  0.1250000003211298  0.7043213759323521
  0.1648601545773829  0.1250000003211298  0.7043213759323521
  0.0000000000000000  0.2499999997859135  0.2546618147296229
  0.3333575343919861  0.3750000001070433  0.2637680873917674
  0.1666424363418173  0.3750000001070433  0.2637680873917674
  0.2499999997239044  0.5000000004281731  0.3615557086322738
  0.0824860382135810  0.3750000001070433  0.3683456997420649
  0.4175139617864190  0.3750000001070433  0.3683456997420649
  0.0000000000000000  0.5000000004281731  0.4797665287326325
  0.3323655798122260  0.3750000001070433  0.4780764068170313
  0.1676343909215845  0.3750000001070433  0.4780764068170313
  0.2499999997239044  0.5000000004281731  0.5908979849672917
  0.0836821420311082  0.3750000001070433  0.5898106362843478
  0.4163178579688918  0.3750000001070433  0.5898106362843478
  0.0000000000000000  0.5000000004281731  0.7022198741745882
  0.3351398161564205  0.3750000001070433  0.7043213759323521
  0.1648601545773829  0.3750000001070433  0.7043213759323521
  0.0000000000000000  0.5000000004281731  0.2546618147296229
  0.3333575343919861  0.6249999998929567  0.2637680873917674
  0.1666424363418173  0.6249999998929567  0.2637680873917674
  0.2499999997239044  0.7500000002140865  0.3615557086322738
  0.0824860382135810  0.6249999998929567  0.3683456997420649
  0.4175139617864190  0.6249999998929567  0.3683456997420649
  0.0000000000000000  0.7500000002140865  0.4797665287326325
  0.3323655798122260  0.6249999998929567  0.4780764068170313
  0.1676343909215845  0.6249999998929567  0.4780764068170313
  0.2499999997239044  0.7500000002140865  0.5908979849672917
  0.0836821420311082  0.6249999998929567  0.5898106362843478
  0.4163178579688918  0.6249999998929567  0.5898106362843478
  0.0000000000000000  0.7500000002140865  0.7022198741745882
  0.3351398161564205  0.6249999998929567  0.7043213759323521
  0.1648601545773829  0.6249999998929567  0.7043213759323521
  0.0000000000000000  0.7500000002140865  0.2546618147296229
  0.3333575343919861  0.8750000005352163  0.2637680873917674
  0.1666424363418173  0.8750000005352163  0.2637680873917674
  0.2499999997239044  0.0000000000000000  0.3615557086322738
  0.0824860382135810  0.8750000005352163  0.3683456997420649
  0.4175139617864190  0.8750000005352163  0.3683456997420649
  0.0000000000000000  0.0000000000000000  0.4797665287326325
  0.3323655798122260  0.8750000005352163  0.4780764068170313
  0.1676343909215845  0.8750000005352163  0.4780764068170313
  0.2499999997239044  0.0000000000000000  0.5908979849672917
  0.0836821420311082  0.8750000005352163  0.5898106362843478
  0.4163178579688918  0.8750000005352163  0.5898106362843478
  0.0000000000000000  0.0000000000000000  0.7022198741745882
  0.3351398161564205  0.8750000005352163  0.7043213759323521
  0.1648601545773829  0.8750000005352163  0.7043213759323521
  0.5000000000000000  0.0000000000000000  0.2546618147296229
  0.8333575338397949  0.1250000003211298  0.2637680873917674
  0.6666424363418173  0.1250000003211298  0.2637680873917674
  0.7499999997239044  0.2499999997859135  0.3615557086322738
  0.5824860382135810  0.1250000003211298  0.3683456997420649
  0.9175139617864190  0.1250000003211298  0.3683456997420649
  0.5000000000000000  0.2499999997859135  0.4797665287326325
  0.8323655792600277  0.1250000003211298  0.4780764068170313
  0.6676343909215845  0.1250000003211298  0.4780764068170313
  0.7499999997239044  0.2499999997859135  0.5908979849672917
  0.5836821420311082  0.1250000003211298  0.5898106362843478
  0.9163178579688918  0.1250000003211298  0.5898106362843478
  0.5000000000000000  0.2499999997859135  0.7022198741745882
  0.8351398161564205  0.1250000003211298  0.7043213759323521
  0.6648601545773829  0.1250000003211298  0.7043213759323521
  0.5000000000000000  0.2499999997859135  0.2546618147296229
  0.8333575338397949  0.3750000001070433  0.2637680873917674
  0.6666424363418173  0.3750000001070433  0.2637680873917674
  0.7499999997239044  0.5000000004281731  0.3615557086322738
  0.5824860382135810  0.3750000001070433  0.3683456997420649
  0.9175139617864190  0.3750000001070433  0.3683456997420649
  0.5000000000000000  0.5000000004281731  0.4797665287326325
  0.8323655792600277  0.3750000001070433  0.4780764068170313
  0.6676343909215845  0.3750000001070433  0.4780764068170313
  0.7499999997239044  0.5000000004281731  0.5908979849672917
  0.5836821420311082  0.3750000001070433  0.5898106362843478
  0.9163178579688918  0.3750000001070433  0.5898106362843478
  0.5000000000000000  0.5000000004281731  0.7022198741745882
  0.8351398161564205  0.3750000001070433  0.7043213759323521
  0.6648601545773829  0.3750000001070433  0.7043213759323521
  0.5000000000000000  0.5000000004281731  0.2546618147296229
  0.8333575338397949  0.6249999998929567  0.2637680873917674
  0.6666424363418173  0.6249999998929567  0.2637680873917674
  0.7499999997239044  0.7500000002140865  0.3615557086322738
  0.5824860382135810  0.6249999998929567  0.3683456997420649
  0.9175139617864190  0.6249999998929567  0.3683456997420649
  0.5000000000000000  0.7500000002140865  0.4797665287326325
  0.8323655792600277  0.6249999998929567  0.4780764068170313
  0.6676343909215845  0.6249999998929567  0.4780764068170313
  0.7499999997239044  0.7500000002140865  0.5908979849672917
  0.5836821420311082  0.6249999998929567  0.5898106362843478
  0.9163178579688918  0.6249999998929567  0.5898106362843478
  0.5000000000000000  0.7500000002140865  0.7022198741745882
  0.8351398161564205  0.6249999998929567  0.7043213759323521
  0.6648601545773829  0.6249999998929567  0.7043213759323521
  0.5000000000000000  0.7500000002140865  0.2546618147296229
  0.8333575338397949  0.8750000005352163  0.2637680873917674
  0.6666424363418173  0.8750000005352163  0.2637680873917674
  0.7499999997239044  0.0000000000000000  0.3615557086322738
  0.5824860382135810  0.8750000005352163  0.3683456997420649
  0.9175139617864190  0.8750000005352163  0.3683456997420649
  0.5000000000000000  0.0000000000000000  0.4797665287326325
  0.8323655792600277  0.8750000005352163  0.4780764068170313
  0.6676343909215845  0.8750000005352163  0.4780764068170313
  0.7499999997239044  0.0000000000000000  0.5908979849672917
  0.5836821420311082  0.8750000005352163  0.5898106362843478
  0.9163178579688918  0.8750000005352163  0.5898106362843478
  0.5000000000000000  0.0000000000000000  0.7022198741745882
  0.8351398161564205  0.8750000005352163  0.7043213759323521
  0.6648601545773829  0.8750000005352163  0.7043213759323521
  0.4068861226779674  0.0000000000000000  0.3010957493763939
  0.2499999997239044  0.0000000000000000  0.2571959073281960
  0.0931138773220326  0.0000000000000000  0.3010957493763939
  0.1543127782987597  0.2499999997859135  0.4098801452497653
  0.0000000000000000  0.2499999997859135  0.3930536884715039
  0.3456872217012403  0.2499999997859135  0.4098801452497653
  0.4009800323321500  0.2499999997859135  0.5219780178719589
  0.2499999997239044  0.2499999997859135  0.5028227173217701
  0.0990199671156589  0.2499999997859135  0.5219780178719589
  0.1516924373069770  0.2499999997859135  0.6331894604928223
  0.0000000000000000  0.2499999997859135  0.6133996536386590
  0.3483075621408318  0.2499999997859135  0.6331894604928223
  0.4031061945961838  0.2499999997859135  0.7403575109442500
  0.2499999997239044  0.2499999997859135  0.7238200524468255
  0.0968938054038162  0.2499999997859135  0.7403575109442500
  0.4068861226779674  0.2499999997859135  0.3010957493763939
  0.2499999997239044  0.2499999997859135  0.2571959073281960
  0.0931138773220326  0.2499999997859135  0.3010957493763939
  0.1543127782987597  0.5000000004281731  0.4098801452497653
  0.0000000000000000  0.5000000004281731  0.3930536884715039
  0.3456872217012403  0.5000000004281731  0.4098801452497653
  0.4009800323321500  0.5000000004281731  0.5219780178719589
  0.2499999997239044  0.5000000004281731  0.5028227173217701
  0.0990199671156589  0.5000000004281731  0.5219780178719589
  0.1516924373069770  0.5000000004281731  0.6331894604928223
  0.0000000000000000  0.5000000004281731  0.6133996536386590
  0.3483075621408318  0.5000000004281731  0.6331894604928223
  0.4031061945961838  0.5000000004281731  0.7403575109442500
  0.2499999997239044  0.5000000004281731  0.7238200524468255
  0.0968938054038162  0.5000000004281731  0.7403575109442500
  0.4068861226779674  0.5000000004281731  0.3010957493763939
  0.2499999997239044  0.5000000004281731  0.2571959073281960
  0.0931138773220326  0.5000000004281731  0.3010957493763939
  0.1543127782987597  0.7500000002140865  0.4098801452497653
  0.0000000000000000  0.7500000002140865  0.3930536884715039
  0.3456872217012403  0.7500000002140865  0.4098801452497653
  0.4009800323321500  0.7500000002140865  0.5219780178719589
  0.2499999997239044  0.7500000002140865  0.5028227173217701
  0.0990199671156589  0.7500000002140865  0.5219780178719589
  0.1516924373069770  0.7500000002140865  0.6331894604928223
  0.0000000000000000  0.7500000002140865  0.6133996536386590
  0.3483075621408318  0.7500000002140865  0.6331894604928223
  0.4031061945961838  0.7500000002140865  0.7403575109442500
  0.2499999997239044  0.7500000002140865  0.7238200524468255
  0.0968938054038162  0.7500000002140865  0.7403575109442500
  0.4068861226779674  0.7500000002140865  0.3010957493763939
  0.2499999997239044  0.7500000002140865  0.2571959073281960
  0.0931138773220326  0.7500000002140865  0.3010957493763939
  0.1543127782987597  0.0000000000000000  0.4098801452497653
  0.0000000000000000  0.0000000000000000  0.3930536884715039
  0.3456872217012403  0.0000000000000000  0.4098801452497653
  0.4009800323321500  0.0000000000000000  0.5219780178719589
  0.2499999997239044  0.0000000000000000  0.5028227173217701
  0.0990199671156589  0.0000000000000000  0.5219780178719589
  0.1516924373069770  0.0000000000000000  0.6331894604928223
  0.0000000000000000  0.0000000000000000  0.6133996536386590
  0.3483075621408318  0.0000000000000000  0.6331894604928223
  0.4031061945961838  0.0000000000000000  0.7403575109442500
  0.2499999997239044  0.0000000000000000  0.7238200524468255
  0.0968938054038162  0.0000000000000000  0.7403575109442500
  0.9068861226779674  0.0000000000000000  0.3010957493763939
  0.7499999997239044  0.0000000000000000  0.2571959073281960
  0.5931138773220326  0.0000000000000000  0.3010957493763939
  0.6543127782987597  0.2499999997859135  0.4098801452497653
  0.5000000000000000  0.2499999997859135  0.3930536884715039
  0.8456872217012403  0.2499999997859135  0.4098801452497653
  0.9009800323321500  0.2499999997859135  0.5219780178719589
  0.7499999997239044  0.2499999997859135  0.5028227173217701
  0.5990199671156589  0.2499999997859135  0.5219780178719589
  0.6516924373069770  0.2499999997859135  0.6331894604928223
  0.5000000000000000  0.2499999997859135  0.6133996536386590
  0.8483075621408318  0.2499999997859135  0.6331894604928223
  0.9031061945961838  0.2499999997859135  0.7403575109442500
  0.7499999997239044  0.2499999997859135  0.7238200524468255
  0.5968938054038162  0.2499999997859135  0.7403575109442500
  0.9068861226779674  0.2499999997859135  0.3010957493763939
  0.7499999997239044  0.2499999997859135  0.2571959073281960
  0.5931138773220326  0.2499999997859135  0.3010957493763939
  0.6543127782987597  0.5000000004281731  0.4098801452497653
  0.5000000000000000  0.5000000004281731  0.3930536884715039
  0.8456872217012403  0.5000000004281731  0.4098801452497653
  0.9009800323321500  0.5000000004281731  0.5219780178719589
  0.7499999997239044  0.5000000004281731  0.5028227173217701
  0.5990199671156589  0.5000000004281731  0.5219780178719589
  0.6516924373069770  0.5000000004281731  0.6331894604928223
  0.5000000000000000  0.5000000004281731  0.6133996536386590
  0.8483075621408318  0.5000000004281731  0.6331894604928223
  0.9031061945961838  0.5000000004281731  0.7403575109442500
  0.7499999997239044  0.5000000004281731  0.7238200524468255
  0.5968938054038162  0.5000000004281731  0.7403575109442500
  0.9068861226779674  0.5000000004281731  0.3010957493763939
  0.7499999997239044  0.5000000004281731  0.2571959073281960
  0.5931138773220326  0.5000000004281731  0.3010957493763939
  0.6543127782987597  0.7500000002140865  0.4098801452497653
  0.5000000000000000  0.7500000002140865  0.3930536884715039
  0.8456872217012403  0.7500000002140865  0.4098801452497653
  0.9009800323321500  0.7500000002140865  0.5219780178719589
  0.7499999997239044  0.7500000002140865  0.5028227173217701
  0.5990199671156589  0.7500000002140865  0.5219780178719589
  0.6516924373069770  0.7500000002140865  0.6331894604928223
  0.5000000000000000  0.7500000002140865  0.6133996536386590
  0.8483075621408318  0.7500000002140865  0.6331894604928223
  0.9031061945961838  0.7500000002140865  0.7403575109442500
  0.7499999997239044  0.7500000002140865  0.7238200524468255
  0.5968938054038162  0.7500000002140865  0.7403575109442500
  0.9068861226779674  0.7500000002140865  0.3010957493763939
  0.7499999997239044  0.7500000002140865  0.2571959073281960
  0.5931138773220326  0.7500000002140865  0.3010957493763939
  0.6543127782987597  0.0000000000000000  0.4098801452497653
  0.5000000000000000  0.0000000000000000  0.3930536884715039
  0.8456872217012403  0.0000000000000000  0.4098801452497653
  0.9009800323321500  0.0000000000000000  0.5219780178719589
  0.7499999997239044  0.0000000000000000  0.5028227173217701
  0.5990199671156589  0.0000000000000000  0.5219780178719589
  0.6516924373069770  0.0000000000000000  0.6331894604928223
  0.5000000000000000  0.0000000000000000  0.6133996536386590
  0.8483075621408318  0.0000000000000000  0.6331894604928223
  0.9031061945961838  0.0000000000000000  0.7403575109442500
  0.7499999997239044  0.0000000000000000  0.7238200524468255
  0.5968938054038162  0.0000000000000000  0.7403575109442500
 
  0.00000000E+00  0.00000000E+00  0.00000000E+00
  0.00000000E+00  0.00000000E+00  0.00000000E+00
  0.00000000E+00  0.00000000E+00  0.00000000E+00
  0.00000000E+00  0.00000000E+00  0.00000000E+00
  0.00000000E+00  0.00000000E+00  0.00000000E+00
  0.00000000E+00  0.00000000E+00  0.00000000E+00
  0.00000000E+00  0.00000000E+00  0.00000000E+00
  0.00000000E+00  0.00000000E+00  0.00000000E+00
  0.00000000E+00  0.00000000E+00  0.00000000E+00
  0.00000000E+00  0.00000000E+00  0.00000000E+00
  0.00000000E+00  0.00000000E+00  0.00000000E+00
  0.00000000E+00  0.00000000E+00  0.00000000E+00
  0.00000000E+00  0.00000000E+00  0.00000000E+00
  0.00000000E+00  0.00000000E+00  0.00000000E+00
  0.00000000E+00  0.00000000E+00  0.00000000E+00
  0.00000000E+00  0.00000000E+00  0.00000000E+00
  0.00000000E+00  0.00000000E+00  0.00000000E+00
  0.00000000E+00  0.00000000E+00  0.00000000E+00
  0.00000000E+00  0.00000000E+00  0.00000000E+00
  0.00000000E+00  0.00000000E+00  0.00000000E+00
  0.00000000E+00  0.00000000E+00  0.00000000E+00
  0.00000000E+00  0.00000000E+00  0.00000000E+00
  0.00000000E+00  0.00000000E+00  0.00000000E+00
  0.00000000E+00  0.00000000E+00  0.00000000E+00
  0.00000000E+00  0.00000000E+00  0.00000000E+00
  0.00000000E+00  0.00000000E+00  0.00000000E+00
  0.00000000E+00  0.00000000E+00  0.00000000E+00
  0.00000000E+00  0.00000000E+00  0.00000000E+00
  0.00000000E+00  0.00000000E+00  0.00000000E+00
  0.00000000E+00  0.00000000E+00  0.00000000E+00
  0.00000000E+00  0.00000000E+00  0.00000000E+00
  0.00000000E+00  0.00000000E+00  0.00000000E+00
  0.00000000E+00  0.00000000E+00  0.00000000E+00
  0.00000000E+00  0.00000000E+00  0.00000000E+00
  0.00000000E+00  0.00000000E+00  0.00000000E+00
  0.00000000E+00  0.00000000E+00  0.00000000E+00
  0.00000000E+00  0.00000000E+00  0.00000000E+00
  0.00000000E+00  0.00000000E+00  0.00000000E+00
  0.00000000E+00  0.00000000E+00  0.00000000E+00
  0.00000000E+00  0.00000000E+00  0.00000000E+00
  0.00000000E+00  0.00000000E+00  0.00000000E+00
  0.00000000E+00  0.00000000E+00  0.00000000E+00
  0.00000000E+00  0.00000000E+00  0.00000000E+00
  0.00000000E+00  0.00000000E+00  0.00000000E+00
  0.00000000E+00  0.00000000E+00  0.00000000E+00
  0.00000000E+00  0.00000000E+00  0.00000000E+00
  0.00000000E+00  0.00000000E+00  0.00000000E+00
  0.00000000E+00  0.00000000E+00  0.00000000E+00
  0.00000000E+00  0.00000000E+00  0.00000000E+00
  0.00000000E+00  0.00000000E+00  0.00000000E+00
  0.00000000E+00  0.00000000E+00  0.00000000E+00
  0.00000000E+00  0.00000000E+00  0.00000000E+00
  0.00000000E+00  0.00000000E+00  0.00000000E+00
  0.00000000E+00  0.00000000E+00  0.00000000E+00
  0.00000000E+00  0.00000000E+00  0.00000000E+00
  0.00000000E+00  0.00000000E+00  0.00000000E+00
  0.00000000E+00  0.00000000E+00  0.00000000E+00
  0.00000000E+00  0.00000000E+00  0.00000000E+00
  0.00000000E+00  0.00000000E+00  0.00000000E+00
  0.00000000E+00  0.00000000E+00  0.00000000E+00
  0.00000000E+00  0.00000000E+00  0.00000000E+00
  0.00000000E+00  0.00000000E+00  0.00000000E+00
  0.00000000E+00  0.00000000E+00  0.00000000E+00
  0.00000000E+00  0.00000000E+00  0.00000000E+00
  0.00000000E+00  0.00000000E+00  0.00000000E+00
  0.00000000E+00  0.00000000E+00  0.00000000E+00
  0.00000000E+00  0.00000000E+00  0.00000000E+00
  0.00000000E+00  0.00000000E+00  0.00000000E+00
  0.00000000E+00  0.00000000E+00  0.00000000E+00
  0.00000000E+00  0.00000000E+00  0.00000000E+00
  0.00000000E+00  0.00000000E+00  0.00000000E+00
  0.00000000E+00  0.00000000E+00  0.00000000E+00
  0.00000000E+00  0.00000000E+00  0.00000000E+00
  0.00000000E+00  0.00000000E+00  0.00000000E+00
  0.00000000E+00  0.00000000E+00  0.00000000E+00
  0.00000000E+00  0.00000000E+00  0.00000000E+00
  0.00000000E+00  0.00000000E+00  0.00000000E+00
  0.00000000E+00  0.00000000E+00  0.00000000E+00
  0.00000000E+00  0.00000000E+00  0.00000000E+00
  0.00000000E+00  0.00000000E+00  0.00000000E+00
  0.00000000E+00  0.00000000E+00  0.00000000E+00
  0.00000000E+00  0.00000000E+00  0.00000000E+00
  0.00000000E+00  0.00000000E+00  0.00000000E+00
  0.00000000E+00  0.00000000E+00  0.00000000E+00
  0.00000000E+00  0.00000000E+00  0.00000000E+00
  0.00000000E+00  0.00000000E+00  0.00000000E+00
  0.00000000E+00  0.00000000E+00  0.00000000E+00
  0.00000000E+00  0.00000000E+00  0.00000000E+00
  0.00000000E+00  0.00000000E+00  0.00000000E+00
  0.00000000E+00  0.00000000E+00  0.00000000E+00
  0.00000000E+00  0.00000000E+00  0.00000000E+00
  0.00000000E+00  0.00000000E+00  0.00000000E+00
  0.00000000E+00  0.00000000E+00  0.00000000E+00
  0.00000000E+00  0.00000000E+00  0.00000000E+00
  0.00000000E+00  0.00000000E+00  0.00000000E+00
  0.00000000E+00  0.00000000E+00  0.00000000E+00
  0.00000000E+00  0.00000000E+00  0.00000000E+00
  0.00000000E+00  0.00000000E+00  0.00000000E+00
  0.00000000E+00  0.00000000E+00  0.00000000E+00
  0.00000000E+00  0.00000000E+00  0.00000000E+00
  0.00000000E+00  0.00000000E+00  0.00000000E+00
  0.00000000E+00  0.00000000E+00  0.00000000E+00
  0.00000000E+00  0.00000000E+00  0.00000000E+00
  0.00000000E+00  0.00000000E+00  0.00000000E+00
  0.00000000E+00  0.00000000E+00  0.00000000E+00
  0.00000000E+00  0.00000000E+00  0.00000000E+00
  0.00000000E+00  0.00000000E+00  0.00000000E+00
  0.00000000E+00  0.00000000E+00  0.00000000E+00
  0.00000000E+00  0.00000000E+00  0.00000000E+00
  0.00000000E+00  0.00000000E+00  0.00000000E+00
  0.00000000E+00  0.00000000E+00  0.00000000E+00
  0.00000000E+00  0.00000000E+00  0.00000000E+00
  0.00000000E+00  0.00000000E+00  0.00000000E+00
  0.00000000E+00  0.00000000E+00  0.00000000E+00
  0.00000000E+00  0.00000000E+00  0.00000000E+00
  0.00000000E+00  0.00000000E+00  0.00000000E+00
  0.00000000E+00  0.00000000E+00  0.00000000E+00
  0.00000000E+00  0.00000000E+00  0.00000000E+00
  0.00000000E+00  0.00000000E+00  0.00000000E+00
  0.00000000E+00  0.00000000E+00  0.00000000E+00
  0.00000000E+00  0.00000000E+00  0.00000000E+00
  0.00000000E+00  0.00000000E+00  0.00000000E+00
  0.00000000E+00  0.00000000E+00  0.00000000E+00
  0.00000000E+00  0.00000000E+00  0.00000000E+00
  0.00000000E+00  0.00000000E+00  0.00000000E+00
  0.00000000E+00  0.00000000E+00  0.00000000E+00
  0.00000000E+00  0.00000000E+00  0.00000000E+00
  0.00000000E+00  0.00000000E+00  0.00000000E+00
  0.00000000E+00  0.00000000E+00  0.00000000E+00
  0.00000000E+00  0.00000000E+00  0.00000000E+00
  0.00000000E+00  0.00000000E+00  0.00000000E+00
  0.00000000E+00  0.00000000E+00  0.00000000E+00
  0.00000000E+00  0.00000000E+00  0.00000000E+00
  0.00000000E+00  0.00000000E+00  0.00000000E+00
  0.00000000E+00  0.00000000E+00  0.00000000E+00
  0.00000000E+00  0.00000000E+00  0.00000000E+00
  0.00000000E+00  0.00000000E+00  0.00000000E+00
  0.00000000E+00  0.00000000E+00  0.00000000E+00
  0.00000000E+00  0.00000000E+00  0.00000000E+00
  0.00000000E+00  0.00000000E+00  0.00000000E+00
  0.00000000E+00  0.00000000E+00  0.00000000E+00
  0.00000000E+00  0.00000000E+00  0.00000000E+00
  0.00000000E+00  0.00000000E+00  0.00000000E+00
  0.00000000E+00  0.00000000E+00  0.00000000E+00
  0.00000000E+00  0.00000000E+00  0.00000000E+00
  0.00000000E+00  0.00000000E+00  0.00000000E+00
  0.00000000E+00  0.00000000E+00  0.00000000E+00
  0.00000000E+00  0.00000000E+00  0.00000000E+00
  0.00000000E+00  0.00000000E+00  0.00000000E+00
  0.00000000E+00  0.00000000E+00  0.00000000E+00
  0.00000000E+00  0.00000000E+00  0.00000000E+00
  0.00000000E+00  0.00000000E+00  0.00000000E+00
  0.00000000E+00  0.00000000E+00  0.00000000E+00
  0.00000000E+00  0.00000000E+00  0.00000000E+00
  0.00000000E+00  0.00000000E+00  0.00000000E+00
  0.00000000E+00  0.00000000E+00  0.00000000E+00
  0.00000000E+00  0.00000000E+00  0.00000000E+00
  0.00000000E+00  0.00000000E+00  0.00000000E+00
  0.00000000E+00  0.00000000E+00  0.00000000E+00
  0.00000000E+00  0.00000000E+00  0.00000000E+00
  0.00000000E+00  0.00000000E+00  0.00000000E+00
  0.00000000E+00  0.00000000E+00  0.00000000E+00
  0.00000000E+00  0.00000000E+00  0.00000000E+00
  0.00000000E+00  0.00000000E+00  0.00000000E+00
  0.00000000E+00  0.00000000E+00  0.00000000E+00
  0.00000000E+00  0.00000000E+00  0.00000000E+00
  0.00000000E+00  0.00000000E+00  0.00000000E+00
  0.00000000E+00  0.00000000E+00  0.00000000E+00
  0.00000000E+00  0.00000000E+00  0.00000000E+00
  0.00000000E+00  0.00000000E+00  0.00000000E+00
  0.00000000E+00  0.00000000E+00  0.00000000E+00
  0.00000000E+00  0.00000000E+00  0.00000000E+00
  0.00000000E+00  0.00000000E+00  0.00000000E+00
  0.00000000E+00  0.00000000E+00  0.00000000E+00
  0.00000000E+00  0.00000000E+00  0.00000000E+00
  0.00000000E+00  0.00000000E+00  0.00000000E+00
  0.00000000E+00  0.00000000E+00  0.00000000E+00
  0.00000000E+00  0.00000000E+00  0.00000000E+00
  0.00000000E+00  0.00000000E+00  0.00000000E+00
  0.00000000E+00  0.00000000E+00  0.00000000E+00
  0.00000000E+00  0.00000000E+00  0.00000000E+00
  0.00000000E+00  0.00000000E+00  0.00000000E+00
  0.00000000E+00  0.00000000E+00  0.00000000E+00
  0.00000000E+00  0.00000000E+00  0.00000000E+00
  0.00000000E+00  0.00000000E+00  0.00000000E+00
  0.00000000E+00  0.00000000E+00  0.00000000E+00
  0.00000000E+00  0.00000000E+00  0.00000000E+00
  0.00000000E+00  0.00000000E+00  0.00000000E+00
  0.00000000E+00  0.00000000E+00  0.00000000E+00
  0.00000000E+00  0.00000000E+00  0.00000000E+00
  0.00000000E+00  0.00000000E+00  0.00000000E+00
  0.00000000E+00  0.00000000E+00  0.00000000E+00
  0.00000000E+00  0.00000000E+00  0.00000000E+00
  0.00000000E+00  0.00000000E+00  0.00000000E+00
  0.00000000E+00  0.00000000E+00  0.00000000E+00
  0.00000000E+00  0.00000000E+00  0.00000000E+00
  0.00000000E+00  0.00000000E+00  0.00000000E+00
  0.00000000E+00  0.00000000E+00  0.00000000E+00
  0.00000000E+00  0.00000000E+00  0.00000000E+00
  0.00000000E+00  0.00000000E+00  0.00000000E+00
  0.00000000E+00  0.00000000E+00  0.00000000E+00
  0.00000000E+00  0.00000000E+00  0.00000000E+00
  0.00000000E+00  0.00000000E+00  0.00000000E+00
  0.00000000E+00  0.00000000E+00  0.00000000E+00
  0.00000000E+00  0.00000000E+00  0.00000000E+00
  0.00000000E+00  0.00000000E+00  0.00000000E+00
  0.00000000E+00  0.00000000E+00  0.00000000E+00
  0.00000000E+00  0.00000000E+00  0.00000000E+00
  0.00000000E+00  0.00000000E+00  0.00000000E+00
  0.00000000E+00  0.00000000E+00  0.00000000E+00
  0.00000000E+00  0.00000000E+00  0.00000000E+00
  0.00000000E+00  0.00000000E+00  0.00000000E+00
  0.00000000E+00  0.00000000E+00  0.00000000E+00
  0.00000000E+00  0.00000000E+00  0.00000000E+00
  0.00000000E+00  0.00000000E+00  0.00000000E+00
  0.00000000E+00  0.00000000E+00  0.00000000E+00
  0.00000000E+00  0.00000000E+00  0.00000000E+00
  0.00000000E+00  0.00000000E+00  0.00000000E+00
  0.00000000E+00  0.00000000E+00  0.00000000E+00
  0.00000000E+00  0.00000000E+00  0.00000000E+00
  0.00000000E+00  0.00000000E+00  0.00000000E+00
  0.00000000E+00  0.00000000E+00  0.00000000E+00
  0.00000000E+00  0.00000000E+00  0.00000000E+00
  0.00000000E+00  0.00000000E+00  0.00000000E+00
  0.00000000E+00  0.00000000E+00  0.00000000E+00
  0.00000000E+00  0.00000000E+00  0.00000000E+00
  0.00000000E+00  0.00000000E+00  0.00000000E+00
  0.00000000E+00  0.00000000E+00  0.00000000E+00
  0.00000000E+00  0.00000000E+00  0.00000000E+00
  0.00000000E+00  0.00000000E+00  0.00000000E+00
  0.00000000E+00  0.00000000E+00  0.00000000E+00
  0.00000000E+00  0.00000000E+00  0.00000000E+00
  0.00000000E+00  0.00000000E+00  0.00000000E+00
  0.00000000E+00  0.00000000E+00  0.00000000E+00
  0.00000000E+00  0.00000000E+00  0.00000000E+00
  0.00000000E+00  0.00000000E+00  0.00000000E+00
  0.00000000E+00  0.00000000E+00  0.00000000E+00
  0.00000000E+00  0.00000000E+00  0.00000000E+00
  0.00000000E+00  0.00000000E+00  0.00000000E+00
  0.00000000E+00  0.00000000E+00  0.00000000E+00
