Ta  N Co Cu                             
   1.00000000000000     
    18.1096308199999996    0.0000000000000000    0.0000000000000000
     0.0000000000000000   23.3551997799999995    0.0000000000000000
     0.0000000000000000    0.0000000000000000   30.4818171199999988
   Ta   N    Co   Cu
   228   240    12     4
Direct
  0.0105516937636352  0.9955594986006117  0.1904495932520997
  0.3360134458388780  0.0572161944137084  0.2038083923526279
  0.1770937033693901  0.0530656876519058  0.1974025821030435
  0.2549051507962796  0.1208886303474576  0.2787298675035819
  0.0830834989840860  0.0575741479889128  0.2821559033113152
  0.4160216055518153  0.0590418043955344  0.2830806054963800
  0.0011851698801511  0.1239292904304607  0.3663092638626642
  0.3352028051117493  0.0600578687587542  0.3727931816159722
  0.1675409099691546  0.0550116307714967  0.3665062260527881
  0.2456522000037926  0.1163424789600883  0.4556883345140094
  0.0850899349457236  0.0577104939784251  0.4520277462182069
  0.4166437606485288  0.0592672367778855  0.4563279371705439
  0.9587535321670086  0.1274616150794243  0.5385754208135181
  0.3219283739730820  0.1178091411646336  0.5595239070545466
  0.0042514739503784  0.1205072204228273  0.1961146786023637
  0.3384208929599311  0.1834373030208177  0.2036633153892100
  0.1796788418771647  0.1901237511110023  0.2022751910388406
  0.2522221974679292  0.2457766869421033  0.2827195613311396
  0.0856912898951544  0.1828908579079717  0.2829615672565250
  0.4180339424701106  0.1847473051841313  0.2862756739022154
  0.0013447948054251  0.2450434881151901  0.3640214556681561
  0.3339161248853308  0.1837813216280122  0.3736388653978313
  0.1719669010689704  0.1833759189449585  0.3669007764362081
  0.2449804746331658  0.2467461458377648  0.4548887542927220
  0.0870463457055794  0.1833087575019142  0.4481127243521547
  0.4114004886717925  0.1864889980706689  0.4575308676452710
  0.9645570812088243  0.2528459860653782  0.5328079158101129
  0.3921487966244924  0.2498078026911499  0.5551599108111022
  0.1292911625744504  0.1755417134284139  0.5463451144796889
  0.0058247692885371  0.2440895784601855  0.1942551004655511
  0.3469645182641202  0.3061801230992536  0.2019518181923289
  0.1844872684665197  0.3050430344489903  0.2049923824061081
  0.2515949522746601  0.3675516220915928  0.2811364841901372
  0.0860551836583812  0.3072948311881897  0.2812322610867170
  0.4210365991798776  0.3142129754701632  0.2843610437178143
  0.0000551704699722  0.3720295325571308  0.3638469557171654
  0.3336496839950920  0.3085254440333695  0.3658189118252773
  0.1677542654623001  0.3085599520058113  0.3658831821767716
  0.2488878143325705  0.3695987649040409  0.4532713382054204
  0.0811985212745177  0.3071825564609731  0.4514993485762080
  0.4087252196335820  0.3121414560495117  0.4568450681372358
  0.9605186424837696  0.3691753111562263  0.5331997758994138
  0.3407700919426255  0.3756221065223068  0.5554329062806904
  0.0037880607434964  0.3700705505672585  0.1946471797032759
  0.3350294410806526  0.4359451213952367  0.2056812905704990
  0.1765378813405176  0.4373660094408331  0.2086782149551366
  0.2573900183969554  0.9961474744590996  0.2784897231911287
  0.0847327186636257  0.4339517108896249  0.2824231543116406
  0.4200652963025614  0.4379819952735666  0.2876611436946694
  0.0027802610194593  0.9967991354095055  0.3655653464068883
  0.3266514917420235  0.4358454827052888  0.3697044814593222
  0.1674223874653717  0.4314635213181813  0.3673977773773977
  0.2491839677523476  0.9942184621485254  0.4579874323795708
  0.0839191358338888  0.4340885959989482  0.4509480490223697
  0.4092596235529064  0.4396481698255751  0.4571488889719485
  0.9882638069297697  0.0050135045782766  0.5497317905924247
  0.3580266466078517  0.4997563959946417  0.5591497250912196
  0.1565950468297959  0.4199907267259983  0.5393602494993526
  0.9917554653175317  0.4938575951870281  0.1959654603161749
  0.3388612294949629  0.5592880719397357  0.1984431118377451
  0.1728046965350535  0.5569137875354228  0.2035181974336010
  0.2487682069628967  0.6234329018180312  0.2770813865240711
  0.0848228395456393  0.5610526120671527  0.2792076434200093
  0.4173613023661367  0.5626921208515543  0.2853420568236724
  0.0002053651398309  0.6228574013320533  0.3631381344406081
  0.3343187613194877  0.5590253800913696  0.3688899596831410
  0.1646238546678972  0.5603331082593401  0.3665767401740708
  0.2476367240678401  0.6239986040939820  0.4536565548284421
  0.0789424124410489  0.5601278913215881  0.4495438693299681
  0.4090257235992117  0.5602203736984894  0.4572664512119319
  0.0092482539300726  0.6174461265334924  0.5422900017638872
  0.3383345986655575  0.6218365214202253  0.5568333798303075
  0.9993065084216977  0.6247031913638168  0.1973711568803969
  0.3352562349169833  0.6851473698581808  0.1967345303016304
  0.1740432605357321  0.6887625342026312  0.2000991043976550
  0.2480002143891399  0.7478135488546650  0.2769612538735900
  0.0856316464009608  0.6856917675839646  0.2787923651175652
  0.4164508340756157  0.6860638982538722  0.2796472472125837
  0.9976061126572608  0.7504471874560961  0.3664771722754927
  0.3298697674031936  0.6874675662520032  0.3658696701168468
  0.1661362355922048  0.6816200884972359  0.3660665852979122
  0.2439904765613398  0.7517257041831241  0.4529730900615925
  0.0809216476922062  0.6877642020922095  0.4514148861743554
  0.4142892293922761  0.6853830504859262  0.4562453067087613
  0.9990566244341522  0.7426971436374155  0.5446940242050232
  0.3605186099293177  0.7465841835333893  0.5541305080548355
  0.1535731671791113  0.6846482064626332  0.5436410915033510
  0.9994102788543252  0.7408591406797850  0.1906243452290515
  0.3312222613838927  0.8075226208255271  0.1987996618082104
  0.1776122615988292  0.8055007820978721  0.2003532711240166
  0.2495865437028548  0.8727215510870270  0.2807178775769971
  0.0815112469023062  0.8084485829307009  0.2773477079983721
  0.4192883159736294  0.8102378720808688  0.2810784424528276
  0.9982614022823034  0.8758581254633763  0.3666144711636080
  0.3335247596547057  0.8086258499028761  0.3684805330029755
  0.1660681317940725  0.8079987581289985  0.3705756155788752
  0.2467793138287124  0.8691650692564713  0.4524631029175176
  0.0853522414187792  0.8119853083448376  0.4534029774255022
  0.4159643765577414  0.8104478365964231  0.4606354835577831
  0.9905057890323656  0.8713967507206078  0.5451909833897798
  0.3207530559726810  0.8699208364760671  0.5539683390241755
  0.0034921620834219  0.8704938811203174  0.1952278632571506
  0.3343073450829301  0.9384148468971716  0.2027300385103118
  0.1717208178189771  0.9341306408865788  0.2000469467128876
  0.2434315919256858  0.4968968362892025  0.2795291329856348
  0.0910959466802654  0.9369444397193911  0.2795239977261597
  0.4218581071377182  0.9362784701280333  0.2841584951995593
  0.9945663628033387  0.5009132777379385  0.3664788489236621
  0.3374999241937892  0.9353075492216915  0.3674785661647865
  0.1697855527594592  0.9327836919184957  0.3679282942162123
  0.2481310088897486  0.4990125819108411  0.4571186821983818
  0.0822088134325185  0.9318046075159070  0.4526027505132822
  0.4127452521854382  0.9347669444590596  0.4562010759386469
  0.0054608080850358  0.4951129678881233  0.5364592799039913
  0.3734152302244648  0.9874520754027656  0.5571826827035072
  0.1482973380623427  0.9389331516253201  0.5467482797465194
  0.5020373216516449  0.9988075266617203  0.1963641015606424
  0.8368469672080909  0.0603288266086822  0.1945390643578002
  0.6731409467110299  0.0619286398332628  0.1990291046499494
  0.7507971057908536  0.1216553478730510  0.2791016600271505
  0.5862846309375438  0.0568939619091897  0.2839895140575526
  0.9203717622947425  0.0585272138165731  0.2785538022418826
  0.5061829370901588  0.1218531364019582  0.3706491122745031
  0.8361215759053301  0.0567626383397112  0.3640610349217501
  0.6736528783348423  0.0588894912788026  0.3677854071117422
  0.7561864605209451  0.1268979513127932  0.4576234428431484
  0.5849935295509552  0.0594137206257599  0.4536587545284709
  0.9143551243147034  0.0549677728175423  0.4508931510103402
  0.4914961260744430  0.1247732569443132  0.5473064619895275
  0.6550558888088025  0.0533419514726777  0.5408335109615970
  0.4981667732813758  0.1229954532633003  0.1996650997001447
  0.8335965730213889  0.1852752560511492  0.1998728038273482
  0.6690153610887269  0.1884269628151961  0.2046196916124983
  0.7471221416188039  0.2481704946118874  0.2799760588972714
  0.5791621182436556  0.1858951634763296  0.2849744631339485
  0.9245798820657737  0.1856906294272507  0.2823760057503537
  0.4963368865438080  0.2455445145206875  0.3737555052029634
  0.8318670355401847  0.1816038943520420  0.3630569665201344
  0.6652623373928115  0.1834467639932583  0.3673901696175095
  0.7482205615042926  0.2458795202615999  0.4599504959226575
  0.5834545605231163  0.1828507598059018  0.4532951358706833
  0.9182502776459871  0.1822391535670911  0.4513208327289463
  0.8173674305227718  0.2402758323808424  0.5604995195973933
  0.6568987014302797  0.1827896115521340  0.5492213749908987
  0.5045757524655597  0.2460826721813890  0.1935531032226916
  0.8344787368739687  0.3108215698731359  0.1978271979569800
  0.6698432168352979  0.3118245164216704  0.2034973049272612
  0.7488502990946493  0.3704526976432146  0.2811740989710258
  0.5856742562615171  0.3101371220253514  0.2843235468072572
  0.9176943644011935  0.3090499727522318  0.2822341408025248
  0.4978710555596970  0.3721536899993979  0.3736118995208753
  0.8286408107296246  0.3113853269927677  0.3662315082390247
  0.6646036210837687  0.3074108641407377  0.3691176125470794
  0.7482132251662317  0.3705341071028267  0.4617871648107025
  0.5844525083285167  0.3071837237952354  0.4514883752612061
  0.9223073299394889  0.3080567021921476  0.4500320713776390
  0.5039568520536472  0.3896296962138775  0.5787394486099541
  0.6669579962609007  0.2944465982192073  0.6015361913476368
  0.5076849399145223  0.3699946603363030  0.1965426495534670
  0.8289570124413747  0.4353640418634662  0.2016716751315775
  0.6719414853694906  0.4404147066116291  0.1991052447116373
  0.7522302846222053  0.0000432332841363  0.2809295637752017
  0.5883097351009325  0.4353323224020039  0.2824243173068994
  0.9153479408375048  0.4333674100700678  0.2833647947243859
  0.4949321965104215  0.9970909882926363  0.3694566506537985
  0.8308005448131220  0.4339342421008475  0.3657157507035823
  0.6696649514786431  0.4325393914071236  0.3695130837435593
  0.7556741363302450  0.9965536455903674  0.4555299909543545
  0.5765913953486256  0.4316252216000525  0.4612161638499798
  0.9172668209782351  0.4349339476439719  0.4462921590901178
  0.8313470033399792  0.4668676307067906  0.5498319619433997
  0.6645079179381157  0.4080070753078232  0.5546477506958050
  0.4951263356233594  0.5007959038669940  0.1953875337939328
  0.8337026224442081  0.5616340449240284  0.2029416204938812
  0.6684076716954805  0.5600641357890441  0.2028761765730673
  0.7471511316760087  0.6230705454632932  0.2842917827368349
  0.5772813851599049  0.5626713939382789  0.2817406876142809
  0.9169709281872580  0.5581447145636074  0.2845190349871015
  0.5001362870346182  0.6221435675826301  0.3708968298378365
  0.8274261928000863  0.5604805015205523  0.3680576991739432
  0.6651257189565215  0.5580247513853468  0.3690638778881606
  0.7447126932758495  0.6222569357447388  0.4529033019902621
  0.5848208532220613  0.5597359510033150  0.4568065917618047
  0.9125872795593288  0.5663232239853192  0.4516109141060154
  0.5108766014657110  0.6242560289387107  0.5396204077591437
  0.6800024705020825  0.5530362560477988  0.5440808102632643
  0.4998847340425696  0.6233437811344453  0.1911707427650488
  0.8290192609410355  0.6917671615850962  0.2010884503478225
  0.6752102565176881  0.6896417395584196  0.2019188690795121
  0.7519830019528768  0.7504976139160922  0.2781368940764670
  0.5840952191284288  0.6857520690063582  0.2859466858616471
  0.9168345856215874  0.6834637107419911  0.2821467114932038
  0.4980774814616971  0.7425643367461037  0.3684300783962877
  0.8312674922154074  0.6872160792182659  0.3680026907944117
  0.6639972618013841  0.6864675357196754  0.3708575378877925
  0.7522740664330975  0.7473375583605556  0.4558607960860637
  0.5805489067248086  0.6858076748879599  0.4580097655703450
  0.9170883313589336  0.6894458505901573  0.4514860692690011
  0.8202275227617365  0.6848237465084939  0.5349707931794981
  0.6635791085418254  0.6848815105776701  0.5427211091461579
  0.5003842320042112  0.7475423549419512  0.1934798714680668
  0.8325373754017361  0.8116101700343797  0.2007949661572840
  0.6676000016697258  0.8063044095425660  0.1993303014436791
  0.7475535829495596  0.8728294009301123  0.2804978369317646
  0.5819081964103584  0.8091271723283348  0.2846220167537156
  0.9160652490510262  0.8141804792291749  0.2815948238384298
  0.4989866181619378  0.8734851581466100  0.3710366847868317
  0.8298574723127871  0.8101509542034737  0.3684413712566871
  0.6668416355680021  0.8118537906523402  0.3700327674631699
  0.7503068170202455  0.8717027304605781  0.4557991982385073
  0.5848224290461355  0.8077994565108580  0.4573749746100289
  0.9180468584800846  0.8114422728365712  0.4525664376413140
  0.4929377310516202  0.8806346203947968  0.5473229990716815
  0.6631824745564573  0.8058661918962536  0.5462461935270885
  0.5027609200586760  0.8732133202285199  0.1976653989634274
  0.8294388842174540  0.9357554348839037  0.1954882359362659
  0.6774209315920428  0.9424536865960439  0.2056933864298237
  0.7459669594508856  0.4945289248301452  0.2773954364927503
  0.5893783141315787  0.9329729046081587  0.2823402142719952
  0.9204563785496428  0.9356679615171735  0.2796266084728076
  0.4985977133012669  0.4918325552445582  0.3720991428518604
  0.8314311628639958  0.9328249342566521  0.3645898263381488
  0.6667845514430908  0.9336636504320062  0.3666786162128000
  0.7405892752030042  0.4969779539812103  0.4584484862379006
  0.5822547047864075  0.9389182604241507  0.4541265574272318
  0.9218480430658553  0.9303401964957756  0.4512507318799352
  0.8283902541502626  0.9368475497797717  0.5392620966884806
  0.6632235420030137  0.9304431927951132  0.5450205686196613
  0.4008335531385686  0.9971425199593013  0.2344081216940528
  0.2553783856758485  0.9936116246774775  0.1774276314418846
  0.0996990797956320  0.9998687327927086  0.2284017353993162
  0.1560721860429865  0.1208705709872106  0.3156706423585172
  0.0050204001701630  0.1186853994548357  0.2975861141024503
  0.3448065709300240  0.1200277701134142  0.3170327670432059
  0.4034854215890171  0.1241836774684106  0.4057193857822027
  0.2515774144844661  0.1177359672829708  0.3897516063519880
  0.1062505106323900  0.1180862690650273  0.3992761450950605
  0.1511340591915980  0.1178036048998979  0.4908191801217726
  0.0006425002313430  0.1196033580928195  0.4725994648292619
  0.3414849979324470  0.1152856710465838  0.4904146518288318
  0.4105376314683530  0.1555772464694312  0.5819759138233965
  0.2330190882106381  0.1694868654808153  0.5656400950962339
  0.0603697184766771  0.1184352276180527  0.5669358830145367
  0.4029205754782163  0.1225799357124815  0.2330985916950520
  0.2479074705102081  0.1202098793910068  0.2068319268666254
  0.1036428383745841  0.1200409665981500  0.2281352811621895
  0.1565476642248723  0.2467032842828975  0.3157165883481183
  0.0067435396173859  0.2481001814287756  0.2974668291573535
  0.3478680035457916  0.2435815608578152  0.3188592351116911
  0.3957191933654699  0.2497769362858643  0.4055988771266951
  0.2508058846469883  0.2460045174277138  0.3905855643531781
  0.0957611300714254  0.2417205241994214  0.3976870445790396
  0.1465432252604133  0.2395337235913488  0.4841568298446911
  0.9991046089195629  0.2407860629493876  0.4685287382201734
  0.3410854279316002  0.2429700401287057  0.4946889321289455
  0.4505031062812968  0.3270818042508340  0.5542036342940430
  0.3093524882524198  0.3049482060266435  0.5813662577202052
  0.0648947797661242  0.2426844512272403  0.5607022114309299
  0.4107427890080719  0.2470427544219048  0.2350192490131729
  0.2681292155240479  0.2494733375832594  0.1831514895326026
  0.0995890491025205  0.2452716016574703  0.2284894791950574
  0.1537485943458163  0.3708561167356680  0.3146259088156722
  0.0027239131227703  0.3709351400254737  0.2975737259184658
  0.3510534236463142  0.3722904963533341  0.3186810919384506
  0.3982635856716739  0.3710155974414613  0.4053668025744664
  0.2548801586404305  0.3683640962412024  0.3860974850131187
  0.0973691105786858  0.3670708956669244  0.4025309571551568
  0.1510742565675927  0.3644312600173429  0.4880942789808847
  0.9956743148968912  0.3739033920577015  0.4719564948890170
  0.3424991498018981  0.3771736271761800  0.4880053323061833
  0.4175435452080730  0.4321698061380724  0.5939743401204299
  0.2608831350701044  0.4287592536606746  0.5664698323792505
  0.0718285035665028  0.3688648245499206  0.5582504580803431
  0.4158395611931737  0.3754361095875010  0.2341643998256592
  0.2613592670388062  0.3671971389109899  0.2111593644525621
  0.1007475140462297  0.3713533814791294  0.2284787965609548
  0.1568543195744082  0.9955104398089130  0.3146404381572233
  0.0027902525644364  0.9993066615618803  0.2980980070953736
  0.3463666984059880  0.0003514916131888  0.3187987872918711
  0.4011682309253831  0.9968849497002493  0.4054825026464801
  0.2507671530171027  0.0004058107194325  0.3916991600161726
  0.0961543630759941  0.9963194206036181  0.4004262662873949
  0.1450715823055400  0.9926076732960635  0.4909264139003301
  0.9968077089573331  0.9918418909785949  0.4768538460428923
  0.3467469972567487  0.9897017994311189  0.4894431436169921
  0.4373513064186144  0.0510484760356979  0.5427734458532926
  0.3018894798375636  0.0431113522956431  0.5819498613014259
  0.0870571040640175  0.9922555561980361  0.5740190281803612
  0.4073717204939848  0.4997885065835058  0.2326777732420768
  0.2577759533434147  0.4997647326689218  0.1841379531065435
  0.0867427739966971  0.4929215462343833  0.2285047948596560
  0.1535341676164294  0.6203538925379546  0.3125424962104196
  0.0034665049360449  0.6230913986760608  0.2963564406667753
  0.3428612215740864  0.6262765908960013  0.3155695130577532
  0.3970819456373288  0.6257398457513822  0.4037312125337377
  0.2478227327637363  0.6204738189829154  0.3851659418073595
  0.1001983872294091  0.6230391828977677  0.4012353079649729
  0.1498511463454383  0.6192761498804293  0.4887039285659961
  0.9983923641118654  0.6256518128592025  0.4731332939752158
  0.3422003751305530  0.6244219302663665  0.4889215516848445
  0.4225772189412609  0.6670524049274039  0.5692963450064347
  0.2634514598089593  0.6799672240706447  0.5663203950648267
  0.1079458078849079  0.6167769157116956  0.5718735172337440
  0.4068350753989395  0.6198003359612367  0.2312045599858508
  0.2508378431524436  0.6203898464567859  0.2074962923366803
  0.0956068776319905  0.6227534786937655  0.2287400073797229
  0.1538448238424662  0.7481757179413603  0.3137298863693775
  0.0037277774333953  0.7486997671461656  0.2995466706215398
  0.3510663460980397  0.7491329851812246  0.3116233350972623
  0.4023021433038467  0.7478356570586144  0.4060855938736034
  0.2468898517490000  0.7478064395146145  0.3845652299585291
  0.0993807674265911  0.7470193202428812  0.4010576799940159
  0.1502733579108259  0.7445934426969021  0.4874595875343877
  0.0018542797019121  0.7509146651853850  0.4762377486706980
  0.3473577336621425  0.7442420649920340  0.4901747859372977
  0.4403867401746105  0.8042805548136754  0.5397995682212433
  0.2964606351796236  0.8013798566040253  0.5822170103327335
  0.0977430414860833  0.7443601829450072  0.5718302735371869
  0.4042075817548679  0.7472009153716698  0.2294071037730707
  0.2548408667022671  0.7440089369070481  0.1699934726527324
  0.0950547761459758  0.7469228134550501  0.2267810982360782
  0.1497829367106688  0.8722314112312334  0.3137381272552783
  0.0078991654435865  0.8779212361830385  0.2985275591031771
  0.3486138395135793  0.8702685211374811  0.3142842565020725
  0.3984381852004952  0.8727423564994976  0.4004663860112261
  0.2494304062016574  0.8693200084856990  0.3843267919728396
  0.0965128241795483  0.8720436295460012  0.4000449799109226
  0.1496616360613415  0.8743500192239414  0.4862654688626189
  0.0037713982209664  0.8724230013438858  0.4763654801851293
  0.3450669419659801  0.8691503898727184  0.4870350393953350
  0.4099781688403330  0.9131500958922824  0.5821679910163015
  0.2601744122329581  0.9363053145709005  0.5616931188966036
  0.0869033383093976  0.8729375264633469  0.5645373229003091
  0.4081485194175730  0.8738361766845738  0.2335864882491184
  0.2500167916247102  0.8702520809877506  0.2116669427632035
  0.0990194150103134  0.8690393482559456  0.2286496639731003
  0.1512543771568834  0.4960678767066695  0.3127788116095906
  0.0015145840266480  0.4974993126712883  0.2971767350345877
  0.3421373348357479  0.4987266462903751  0.3160075800682339
  0.3966575164209248  0.4984127299732269  0.4041342355555975
  0.2467224224917206  0.4957227034036760  0.3877609799028599
  0.0923873939700907  0.4975959997582099  0.3999064636707302
  0.1458179055986062  0.4916951963492161  0.4852770504495532
  0.9969166435511576  0.5036578692786817  0.4706901201981428
  0.3396807337091994  0.4956631468503164  0.4935471582019586
  0.4342137864429534  0.5571047112233680  0.5506749739922386
  0.2898448880831241  0.5574631870108354  0.5879070743661073
  0.1014904074635058  0.4968897152724031  0.5697651419436497
  0.9116791167789200  0.9978584505023067  0.2216463955859301
  0.7534854003148475  0.0039735549360982  0.1756193820237065
  0.6015134938908024  0.9964147487383764  0.2342868514607906
  0.6528372939600557  0.1183434253422354  0.3153824088625152
  0.5002653115339096  0.1225851357560433  0.3045109717266546
  0.8519100021165789  0.1201559768459167  0.3112660895178082
  0.9018212808954574  0.1178292262834896  0.3978973725957163
  0.7564326832862195  0.1198760610255495  0.3871644621954283
  0.6026996499360091  0.1191533695990420  0.4019980196621479
  0.6515919560839729  0.1193748952382541  0.4884461648685398
  0.4925353684123935  0.1243751693662805  0.4756679354523886
  0.8575649521115977  0.1231492055520067  0.4882290653335528
  0.9049600890619346  0.1900123337233130  0.5680223305142651
  0.7568678279959932  0.1879972958281444  0.5168474557222779
  0.5924697786847102  0.1193844799991784  0.5732482496933642
  0.9091467334835245  0.1221704171929021  0.2298353935540618
  0.7537169718398091  0.1238945705384311  0.2023655146998347
  0.5975158222733058  0.1233047795082803  0.2299759012179179
  0.6538960712505560  0.2453694892522190  0.3185920207710406
  0.5012470471907088  0.2505538540875011  0.3038080029341331
  0.8477779485389546  0.2482457357941471  0.3141607132376277
  0.8958573247708347  0.2456855865307708  0.3968376484759019
  0.7480382357152294  0.2476675253660656  0.3891921601669525
  0.5996438363220621  0.2426853159136019  0.4014121592353697
  0.6439852157195719  0.2442532419997163  0.4850793102914444
  0.4993576651210145  0.2470441727514155  0.4691242004715655
  0.8643275740643646  0.2529289410399960  0.4905025167582732
  0.8957387308296795  0.3085013062752673  0.5632540390959742
  0.7290489821809215  0.2182757100488588  0.5981195541942304
  0.5954319440538809  0.2493785235400461  0.5685546268357468
  0.9098584334789538  0.2464944478135442  0.2305227926667856
  0.7572674060571513  0.2484569018907042  0.1859964918409705
  0.5931560435490904  0.2437710464181594  0.2332191574597810
  0.6587906901091349  0.3722457912389026  0.3143669356883352
  0.5056622265745779  0.3695736381411570  0.3048269370939231
  0.8480622779194203  0.3699789450392993  0.3165216589362526
  0.9027267840441691  0.3733763675232148  0.3970029775556175
  0.7506522828398430  0.3729121692932064  0.3953470907957634
  0.6020916097566281  0.3690397630026567  0.4010546436911429
  0.6480922662077939  0.3699949482184878  0.4895065294741769
  0.4982215858475137  0.3707329546042535  0.4690093038309196
  0.8614211187697908  0.3748251115922484  0.4848857774562857
  0.9376320846644558  0.4507824337154768  0.5749510706704106
  0.7413997143730416  0.3310962471698167  0.5632687394435310
  0.5999189666644467  0.3632478054211921  0.6069721273601520
  0.9100741212770617  0.3723553978095578  0.2305996697771009
  0.7488813296807760  0.3719071662382443  0.2094854465770202
  0.6006308292868535  0.3760229317710240  0.2328082510280611
  0.6586953676943810  0.9971420192873733  0.3158597790457643
  0.5065448485398057  0.9951530823350466  0.3006544713748986
  0.8521655266954103  0.9983382154529133  0.3132427826641253
  0.8999906889596699  0.9928475010526769  0.3981352194527699
  0.7553187689445574  0.9992838995814421  0.3875328020004213
  0.6017219534874939  0.9944898593611158  0.3988494124131050
  0.6524303024011969  0.9957245064253810  0.4868643139297712
  0.5023731968652037  0.9987574684372653  0.4699689037984631
  0.8526972332451170  0.9925071738440028  0.4880489712443936
  0.9152176611138965  0.0603237759587769  0.5677495792294163
  0.7422374678498513  0.9970922746217271  0.5538731661006329
  0.5915177509930089  0.9924692427906516  0.5691115932771478
  0.8974466108822662  0.4935068375820788  0.2357237595410669
  0.7548393832039811  0.4998996627347067  0.1841743151078163
  0.5913852725438075  0.5001395917018765  0.2316616701590363
  0.6499714252244984  0.6207347156223507  0.3203135553328760
  0.4983225413382318  0.6229424942248450  0.3037677978953166
  0.8493801310114956  0.6201607318548239  0.3195889251854541
  0.9039407190547079  0.6261129507372682  0.3986778388708082
  0.7443316076284793  0.6226181669505690  0.3865873557554956
  0.5981311515649990  0.6219578689206483  0.4053914830499382
  0.6552736450283311  0.6182825697346163  0.4916593265663808
  0.4978613329115710  0.6222578875044731  0.4750998220866300
  0.8474211431066939  0.6277746803162985  0.4787613887613767
  0.9282832303974505  0.6767321920574961  0.5586609890857455
  0.7553829180234779  0.6231235954191122  0.5493576051600650
  0.6029639502760299  0.6045561217134974  0.5742650357087733
  0.9046864215670052  0.6185681415921359  0.2333456188263166
  0.7542802883815659  0.6247420578427894  0.2103443631470632
  0.5890640662364275  0.6243476312375885  0.2314217261939582
  0.6546905559556878  0.7459055704464215  0.3172555632454904
  0.5003398750455069  0.7476727062287266  0.3021445630029156
  0.8489525053786302  0.7514184660951546  0.3160378552019552
  0.9009152685855166  0.7507637111633724  0.4007114040693267
  0.7443972684245584  0.7438575377547026  0.3895559495053688
  0.5943230720108619  0.7490542762235327  0.4060458684522624
  0.6553596420068847  0.7501980829050470  0.4908429747965595
  0.4991313564793173  0.7464962479869317  0.4749595149825863
  0.8511883307369326  0.7481222282587738  0.4875329483280781
  0.9418065442215841  0.8037104840677113  0.5641819893042185
  0.7522094740515272  0.7510422615779845  0.5589494766372525
  0.6000703456945428  0.7426134370990219  0.5733089531891195
  0.9048204333244174  0.7494444302833572  0.2298559999135714
  0.7526201457551063  0.7491448144955758  0.1796802627426800
  0.5948270364658490  0.7440668759651073  0.2327162114117967
  0.6517027664788226  0.8667362472828289  0.3171974944185249
  0.5033971578943640  0.8732437207966339  0.3055670955212764
  0.8459407961572450  0.8723304984566954  0.3151777901673632
  0.8981934850433958  0.8732231591731717  0.3992239010322819
  0.7522129551978312  0.8725190464565178  0.3883450865036836
  0.5940132539297830  0.8719086909087594  0.4057626910617502
  0.6522104522974475  0.8737857724557293  0.4881067514160697
  0.5022872431429212  0.8732024688607576  0.4738341136488045
  0.8560720165983504  0.8704729020006198  0.4906808619122596
  0.9321294293366105  0.9365161361581368  0.5672090538226304
  0.7631243769781485  0.8681736866746130  0.5572876618710191
  0.5927277207242780  0.8680568883766064  0.5719759864355052
  0.9058476482219012  0.8766988725023092  0.2295774048923486
  0.7520743816803325  0.8714441381047227  0.2070020427937283
  0.5995782051056671  0.8702677052932885  0.2311239084109906
  0.6517219589560723  0.4980597970734182  0.3187329273876937
  0.5000342124560313  0.4980485142947892  0.3034033809669358
  0.8460674001005767  0.4992530767917258  0.3168387800371790
  0.9018941746040580  0.4993567804319444  0.3990712648305070
  0.7509146573245177  0.4998164475396834  0.3904840340374297
  0.5964757065915407  0.4893439395447797  0.4046267154631970
  0.6502788291690159  0.4940217865985427  0.4886124222498385
  0.4965022235195297  0.4990016579872618  0.4720854298252782
  0.8443822799254673  0.4895613704974259  0.4861017845723089
  0.9323001145020970  0.5588869373313714  0.5456132307709818
  0.7150157619107175  0.4784751627933719  0.5740067469250593
  0.5588149234677515  0.4369833314233711  0.5365178467608224
  0.1156667187248532  0.0622116276541000  0.5351999218478743
  0.1109879618976714  0.3053701944934580  0.5337127259538784
  0.1296703067588825  0.5609594077045219  0.5287615474377542
  0.1245220411603581  0.8069197275005608  0.5345867850340420
  0.8370149868454833  0.0558151214376516  0.5281599293217955
  0.5130810742634339  0.2492572558849405  0.5284378017274356
  0.8174946856615675  0.3621849911276905  0.5410267915226311
  0.5182951578027404  0.9932637301808029  0.5324770367366443
  0.8186739393751195  0.5624137946538740  0.5237223310781483
  0.5211225019243800  0.7425195224442261  0.5350486505972722
  0.8069598287318217  0.8132509294065118  0.5233591486664436
  0.5006974967304021  0.5070201659309725  0.5317856572775386
  0.2094922217622922  0.4980903104397619  0.5914688054354807
  0.0361111350139246  0.4275526585755149  0.6028134779412739
  0.2056458610037588  0.6054545949167371  0.6001068573672329
  0.2536887941641714  0.2381321879483284  0.5895983795501888
 
 -0.54142275E-03  0.73158148E-03 -0.38309968E-02
 -0.31684879E-03  0.11793122E-02  0.18452178E-03
  0.27598458E-02  0.37603685E-02  0.24297026E-02