Ta N                                    
   1.00000000000000     
    11.9754397330536477    0.0000000000000000    0.0000000000000000
    -4.5643238910995834    9.4067273149133825    0.0000000000000000
     0.0000000000000000    0.0000000000000000   23.8586672663254546
   Ta   N 
    60    60
Direct
  0.4935058637171450  0.4970740683318576  0.2596310487937176
  0.3135305153449681  0.1637358522283119  0.2744048657355593
  0.0503583808726670  0.2755541434661969  0.3331398614034298
  0.3533433711086008  0.4249842349504855  0.3533636823033505
  0.1618040697641920  0.0809586152092879  0.3718672609743953
  0.4000371388575295  0.2003922993059722  0.4397056190882699
  0.2068243480964545  0.3536914847178282  0.4572943118665220
  0.0163409720395635  0.0085652912003662  0.4739026558879022
  0.2523015862182303  0.1266230682834242  0.5429501898597456
  0.0605683951514179  0.2803922842891375  0.5603222495960720
  0.3677805290026306  0.4351977898155041  0.5770410962814071
  0.1056128636983628  0.0531281834539099  0.6447977147383235
  0.4184300314019802  0.2107011755261497  0.6628285905733562
  0.2162111383090599  0.3604976860656055  0.6818066487172990
  0.4695301482808736  0.4833584629934544  0.7395004235385741
  0.4935058637171450  0.9970740683318576  0.2596310487937176
  0.3135305153449681  0.6637358522283119  0.2744048657355593
  0.0503583808726670  0.7755541434661968  0.3331398614034298
  0.3533433711086008  0.9249842349504854  0.3533636823033505
  0.1618040697641920  0.5809586152092879  0.3718672609743953
  0.4000371388575295  0.7003922993059722  0.4397056190882699
  0.2068243480964545  0.8536914847178281  0.4572943118665220
  0.0163409720395635  0.5085652912003662  0.4739026558879022
  0.2523015862182303  0.6266230682834242  0.5429501898597456
  0.0605683951514179  0.7803922842891374  0.5603222495960720
  0.3677805290026306  0.9351977898155041  0.5770410962814071
  0.1056128636983628  0.5531281834539098  0.6447977147383235
  0.4184300314019802  0.7107011755261498  0.6628285905733562
  0.2162111383090599  0.8604976860656056  0.6818066487172990
  0.4695301482808736  0.9833584629934545  0.7395004235385741
  0.9935058637171450  0.4970740683318576  0.2596310487937176
  0.8135305153449681  0.1637358522283119  0.2744048657355593
  0.5503583808726600  0.2755541434661969  0.3331398614034298
  0.8533433711086009  0.4249842349504855  0.3533636823033505
  0.6618040697641919  0.0809586152092879  0.3718672609743953
  0.9000371388575295  0.2003922993059722  0.4397056190882699
  0.7068243480964546  0.3536914847178282  0.4572943118665220
  0.5163409720395635  0.0085652912003662  0.4739026558879022
  0.7523015862182303  0.1266230682834242  0.5429501898597456
  0.5605683951514179  0.2803922842891375  0.5603222495960720
  0.8677805290026307  0.4351977898155041  0.5770410962814071
  0.6056128636983629  0.0531281834539099  0.6447977147383235
  0.9184300314019803  0.2107011755261497  0.6628285905733562
  0.7162111383090600  0.3604976860656055  0.6818066487172990
  0.9695301482808736  0.4833584629934544  0.7395004235385741
  0.9935058637171450  0.9970740683318576  0.2596310487937176
  0.8135305153449681  0.6637358522283119  0.2744048657355593
  0.5503583808726600  0.7755541434661968  0.3331398614034298
  0.8533433711086009  0.9249842349504854  0.3533636823033505
  0.6618040697641919  0.5809586152092879  0.3718672609743953
  0.9000371388575295  0.7003922993059722  0.4397056190882699
  0.7068243480964546  0.8536914847178281  0.4572943118665220
  0.5163409720395635  0.5085652912003662  0.4739026558879022
  0.7523015862182303  0.6266230682834242  0.5429501898597456
  0.5605683951514179  0.7803922842891374  0.5603222495960720
  0.8677805290026307  0.9351977898155041  0.5770410962814071
  0.6056128636983629  0.5531281834539098  0.6447977147383235
  0.9184300314019803  0.7107011755261498  0.6628285905733562
  0.7162111383090600  0.8604976860656056  0.6818066487172990
  0.9695301482808736  0.9833584629934545  0.7395004235385741
  0.4782896520894165  0.1763033795889415  0.2512967680645730
  0.2125855321255440  0.2557280202990853  0.3154188503918059
  0.1401191674703269  0.4795797010737951  0.2914988039425502
  0.3539076077495741  0.1236179816301645  0.3546291012382923
  0.0688644854932829  0.1880157625839433  0.4161084416892329
  0.4925241706558951  0.3972282052645695  0.3946010315021104
  0.2078406569824606  0.0501593746190516  0.4577019876152156
  0.4219886555182589  0.1130586235977989  0.5196670342020925
  0.3459698289997137  0.3253449490640393  0.4972147557987179
  0.0605720482125399  0.4768800101594263  0.5593174150054681
  0.2769909691409098  0.0424484193400241  0.6236556181230756
  0.2000383746906143  0.2529845722408381  0.5999801647569186
  0.4114082863694395  0.4035274011439235  0.6607288196188316
  0.1095692776534408  0.4456705320744124  0.7246177889551750
  0.0540987123118507  0.1750718161459527  0.7039681589428105
  0.4782896520894165  0.6763033795889415  0.2512967680645730
  0.2125855321255440  0.7557280202990853  0.3154188503918059
  0.1401191674703269  0.9795797010737952  0.2914988039425502
  0.3539076077495741  0.6236179816301646  0.3546291012382923
  0.0688644854932829  0.6880157625839433  0.4161084416892329
  0.4925241706558951  0.8972282052645696  0.3946010315021104
  0.2078406569824606  0.5501593746190516  0.4577019876152156
  0.4219886555182589  0.6130586235977989  0.5196670342020925
  0.3459698289997137  0.8253449490640392  0.4972147557987179
  0.0605720482125399  0.9768800101594264  0.5593174150054681
  0.2769909691409098  0.5424484193400241  0.6236556181230756
  0.2000383746906143  0.7529845722408381  0.5999801647569186
  0.4114082863694395  0.9035274011439236  0.6607288196188316
  0.1095692776534408  0.9456705320744124  0.7246177889551750
  0.0540987123118507  0.6750718161459527  0.7039681589428105
  0.9782896520894164  0.1763033795889415  0.2512967680645730
  0.7125855321255439  0.2557280202990853  0.3154188503918059
  0.6401191674703269  0.4795797010737951  0.2914988039425502
  0.8539076077495741  0.1236179816301645  0.3546291012382923
  0.5688644854932828  0.1880157625839433  0.4161084416892329
  0.9925241706558952  0.3972282052645695  0.3946010315021104
  0.7078406569824606  0.0501593746190516  0.4577019876152156
  0.9219886555182589  0.1130586235977989  0.5196670342020925
  0.8459698289997138  0.3253449490640393  0.4972147557987179
  0.5605720482125399  0.4768800101594263  0.5593174150054681
  0.7769909691409098  0.0424484193400241  0.6236556181230756
  0.7000383746906144  0.2529845722408381  0.5999801647569186
  0.9114082863694395  0.4035274011439235  0.6607288196188316
  0.6095692776534408  0.4456705320744124  0.7246177889551750
  0.5540987123118507  0.1750718161459527  0.7039681589428105
  0.9782896520894164  0.6763033795889415  0.2512967680645730
  0.7125855321255439  0.7557280202990853  0.3154188503918059
  0.6401191674703269  0.9795797010737952  0.2914988039425502
  0.8539076077495741  0.6236179816301646  0.3546291012382923
  0.5688644854932828  0.6880157625839433  0.4161084416892329
  0.9925241706558952  0.8972282052645696  0.3946010315021104
  0.7078406569824606  0.5501593746190516  0.4577019876152156
  0.9219886555182589  0.6130586235977989  0.5196670342020925
  0.8459698289997138  0.8253449490640392  0.4972147557987179
  0.5605720482125399  0.9768800101594264  0.5593174150054681
  0.7769909691409098  0.5424484193400241  0.6236556181230756
  0.7000383746906144  0.7529845722408381  0.5999801647569186
  0.9114082863694395  0.9035274011439236  0.6607288196188316
  0.6095692776534408  0.9456705320744124  0.7246177889551750
  0.5540987123118507  0.6750718161459527  0.7039681589428105
 
  0.00000000E+00  0.00000000E+00  0.00000000E+00
  0.00000000E+00  0.00000000E+00  0.00000000E+00
  0.00000000E+00  0.00000000E+00  0.00000000E+00
  0.00000000E+00  0.00000000E+00  0.00000000E+00
  0.00000000E+00  0.00000000E+00  0.00000000E+00
  0.00000000E+00  0.00000000E+00  0.00000000E+00
  0.00000000E+00  0.00000000E+00  0.00000000E+00
  0.00000000E+00  0.00000000E+00  0.00000000E+00
  0.00000000E+00  0.00000000E+00  0.00000000E+00
  0.00000000E+00  0.00000000E+00  0.00000000E+00
  0.00000000E+00  0.00000000E+00  0.00000000E+00
  0.00000000E+00  0.00000000E+00  0.00000000E+00
  0.00000000E+00  0.00000000E+00  0.00000000E+00
  0.00000000E+00  0.00000000E+00  0.00000000E+00
  0.00000000E+00  0.00000000E+00  0.00000000E+00
  0.00000000E+00  0.00000000E+00  0.00000000E+00
  0.00000000E+00  0.00000000E+00  0.00000000E+00
  0.00000000E+00  0.00000000E+00  0.00000000E+00
  0.00000000E+00  0.00000000E+00  0.00000000E+00
  0.00000000E+00  0.00000000E+00  0.00000000E+00
  0.00000000E+00  0.00000000E+00  0.00000000E+00
  0.00000000E+00  0.00000000E+00  0.00000000E+00
  0.00000000E+00  0.00000000E+00  0.00000000E+00
  0.00000000E+00  0.00000000E+00  0.00000000E+00
  0.00000000E+00  0.00000000E+00  0.00000000E+00
  0.00000000E+00  0.00000000E+00  0.00000000E+00
  0.00000000E+00  0.00000000E+00  0.00000000E+00
  0.00000000E+00  0.00000000E+00  0.00000000E+00
  0.00000000E+00  0.00000000E+00  0.00000000E+00
  0.00000000E+00  0.00000000E+00  0.00000000E+00
  0.00000000E+00  0.00000000E+00  0.00000000E+00
  0.00000000E+00  0.00000000E+00  0.00000000E+00
  0.00000000E+00  0.00000000E+00  0.00000000E+00
  0.00000000E+00  0.00000000E+00  0.00000000E+00
  0.00000000E+00  0.00000000E+00  0.00000000E+00
  0.00000000E+00  0.00000000E+00  0.00000000E+00
  0.00000000E+00  0.00000000E+00  0.00000000E+00
  0.00000000E+00  0.00000000E+00  0.00000000E+00
  0.00000000E+00  0.00000000E+00  0.00000000E+00
  0.00000000E+00  0.00000000E+00  0.00000000E+00
  0.00000000E+00  0.00000000E+00  0.00000000E+00
  0.00000000E+00  0.00000000E+00  0.00000000E+00
  0.00000000E+00  0.00000000E+00  0.00000000E+00
  0.00000000E+00  0.00000000E+00  0.00000000E+00
  0.00000000E+00  0.00000000E+00  0.00000000E+00
  0.00000000E+00  0.00000000E+00  0.00000000E+00
  0.00000000E+00  0.00000000E+00  0.00000000E+00
  0.00000000E+00  0.00000000E+00  0.00000000E+00
  0.00000000E+00  0.00000000E+00  0.00000000E+00
  0.00000000E+00  0.00000000E+00  0.00000000E+00
  0.00000000E+00  0.00000000E+00  0.00000000E+00
  0.00000000E+00  0.00000000E+00  0.00000000E+00
  0.00000000E+00  0.00000000E+00  0.00000000E+00
  0.00000000E+00  0.00000000E+00  0.00000000E+00
  0.00000000E+00  0.00000000E+00  0.00000000E+00
  0.00000000E+00  0.00000000E+00  0.00000000E+00
  0.00000000E+00  0.00000000E+00  0.00000000E+00
  0.00000000E+00  0.00000000E+00  0.00000000E+00
  0.00000000E+00  0.00000000E+00  0.00000000E+00
  0.00000000E+00  0.00000000E+00  0.00000000E+00
  0.00000000E+00  0.00000000E+00  0.00000000E+00
  0.00000000E+00  0.00000000E+00  0.00000000E+00
  0.00000000E+00  0.00000000E+00  0.00000000E+00
  0.00000000E+00  0.00000000E+00  0.00000000E+00
  0.00000000E+00  0.00000000E+00  0.00000000E+00
  0.00000000E+00  0.00000000E+00  0.00000000E+00
  0.00000000E+00  0.00000000E+00  0.00000000E+00
  0.00000000E+00  0.00000000E+00  0.00000000E+00
  0.00000000E+00  0.00000000E+00  0.00000000E+00
  0.00000000E+00  0.00000000E+00  0.00000000E+00
  0.00000000E+00  0.00000000E+00  0.00000000E+00
  0.00000000E+00  0.00000000E+00  0.00000000E+00
  0.00000000E+00  0.00000000E+00  0.00000000E+00
  0.00000000E+00  0.00000000E+00  0.00000000E+00
  0.00000000E+00  0.00000000E+00  0.00000000E+00
  0.00000000E+00  0.00000000E+00  0.00000000E+00
  0.00000000E+00  0.00000000E+00  0.00000000E+00
  0.00000000E+00  0.00000000E+00  0.00000000E+00
  0.00000000E+00  0.00000000E+00  0.00000000E+00
  0.00000000E+00  0.00000000E+00  0.00000000E+00
  0.00000000E+00  0.00000000E+00  0.00000000E+00
  0.00000000E+00  0.00000000E+00  0.00000000E+00
  0.00000000E+00  0.00000000E+00  0.00000000E+00
  0.00000000E+00  0.00000000E+00  0.00000000E+00
  0.00000000E+00  0.00000000E+00  0.00000000E+00
  0.00000000E+00  0.00000000E+00  0.00000000E+00
  0.00000000E+00  0.00000000E+00  0.00000000E+00
  0.00000000E+00  0.00000000E+00  0.00000000E+00
  0.00000000E+00  0.00000000E+00  0.00000000E+00
  0.00000000E+00  0.00000000E+00  0.00000000E+00
  0.00000000E+00  0.00000000E+00  0.00000000E+00
  0.00000000E+00  0.00000000E+00  0.00000000E+00
  0.00000000E+00  0.00000000E+00  0.00000000E+00
  0.00000000E+00  0.00000000E+00  0.00000000E+00
  0.00000000E+00  0.00000000E+00  0.00000000E+00
  0.00000000E+00  0.00000000E+00  0.00000000E+00
  0.00000000E+00  0.00000000E+00  0.00000000E+00
  0.00000000E+00  0.00000000E+00  0.00000000E+00
  0.00000000E+00  0.00000000E+00  0.00000000E+00
  0.00000000E+00  0.00000000E+00  0.00000000E+00
  0.00000000E+00  0.00000000E+00  0.00000000E+00
  0.00000000E+00  0.00000000E+00  0.00000000E+00
  0.00000000E+00  0.00000000E+00  0.00000000E+00
  0.00000000E+00  0.00000000E+00  0.00000000E+00
  0.00000000E+00  0.00000000E+00  0.00000000E+00
  0.00000000E+00  0.00000000E+00  0.00000000E+00
  0.00000000E+00  0.00000000E+00  0.00000000E+00
  0.00000000E+00  0.00000000E+00  0.00000000E+00
  0.00000000E+00  0.00000000E+00  0.00000000E+00
  0.00000000E+00  0.00000000E+00  0.00000000E+00
  0.00000000E+00  0.00000000E+00  0.00000000E+00
  0.00000000E+00  0.00000000E+00  0.00000000E+00
  0.00000000E+00  0.00000000E+00  0.00000000E+00
  0.00000000E+00  0.00000000E+00  0.00000000E+00
  0.00000000E+00  0.00000000E+00  0.00000000E+00
  0.00000000E+00  0.00000000E+00  0.00000000E+00
  0.00000000E+00  0.00000000E+00  0.00000000E+00
  0.00000000E+00  0.00000000E+00  0.00000000E+00
  0.00000000E+00  0.00000000E+00  0.00000000E+00
  0.00000000E+00  0.00000000E+00  0.00000000E+00
