Ta  N                                   
   1.00000000000000     
    10.4555999800000006    0.0000000000000000    0.0000000000000000
     0.0000000000000000   11.6775998899999998    0.0000000000000000
     0.0000000000000000    0.0000000000000000   24.0732377500000005
   Ta   N 
    64    64
Direct
  0.4991785186325295  0.1250000003211298  0.3753726828051553
  0.2600588226580148  0.1250000003211298  0.3190980514078830
  0.2470962603561284 -0.0000000000000000  0.4358978840493258
  0.2486180383370768  0.1250000003211298  0.5616356325415905
  0.9985361571612420  0.1250000003211298  0.5004995473902153
  0.9975874418306526 -0.0000000000000000  0.6261856063096909
  0.5111589684982100  0.1250000003211298  0.7429901281705877
  0.2500727842077333  0.1250000003211298  0.6867741747225570
  0.4991785186325295  0.3750000001070433  0.3753726828051553
  0.2600588226580148  0.3750000001070433  0.3190980514078830
  0.2470962603561284  0.2499999997859135  0.4358978840493258
  0.2486180383370768  0.3750000001070433  0.5616356325415905
  0.9985361571612420  0.3750000001070433  0.5004995473902153
  0.9975874418306526  0.2499999997859135  0.6261856063096909
  0.5111589684982100  0.3750000001070433  0.7429901281705877
  0.2500727842077333  0.3750000001070433  0.6867741747225570
  0.4991785186325295  0.6249999998929567  0.3753726828051553
  0.2600588226580148  0.6249999998929567  0.3190980514078830
  0.2470962603561284  0.5000000004281731  0.4358978840493258
  0.2486180383370768  0.6249999998929567  0.5616356325415905
  0.9985361571612420  0.6249999998929567  0.5004995473902153
  0.9975874418306526  0.5000000004281731  0.6261856063096909
  0.5111589684982100  0.6249999998929567  0.7429901281705877
  0.2500727842077333  0.6249999998929567  0.6867741747225570
  0.4991785186325295  0.8750000005352163  0.3753726828051553
  0.2600588226580148  0.8750000005352163  0.3190980514078830
  0.2470962603561284  0.7500000002140865  0.4358978840493258
  0.2486180383370768  0.8750000005352163  0.5616356325415905
  0.9985361571612420  0.8750000005352163  0.5004995473902153
  0.9975874418306526  0.7500000002140865  0.6261856063096909
  0.5111589684982100  0.8750000005352163  0.7429901281705877
  0.2500727842077333  0.8750000005352163  0.6867741747225570
  0.9991784928090475  0.1250000003211298  0.3753726828051553
  0.7600587968345324  0.1250000003211298  0.3190980514078830
  0.7470962345326468  0.0000000000000000  0.4358978840493258
  0.7486180134700209  0.1250000003211298  0.5616356325415905
  0.4985361322941860  0.1250000003211298  0.5004995473902153
  0.4975874666977088  0.0000000000000000  0.6261856063096909
  0.0111589426747277  0.1250000003211298  0.7429901281705877
  0.7500727583842512  0.1250000003211298  0.6867741747225570
  0.9991784928090475  0.3750000001070433  0.3753726828051553
  0.7600587968345324  0.3750000001070433  0.3190980514078830
  0.7470962345326468  0.2499999997859135  0.4358978840493258
  0.7486180134700209  0.3750000001070433  0.5616356325415905
  0.4985361322941860  0.3750000001070433  0.5004995473902153
  0.4975874666977088  0.2499999997859135  0.6261856063096909
  0.0111589426747277  0.3750000001070433  0.7429901281705877
  0.7500727583842512  0.3750000001070433  0.6867741747225570
  0.9991784928090475  0.6249999998929567  0.3753726828051553
  0.7600587968345324  0.6249999998929567  0.3190980514078830
  0.7470962345326468  0.5000000004281731  0.4358978840493258
  0.7486180134700209  0.6249999998929567  0.5616356325415905
  0.4985361322941860  0.6249999998929567  0.5004995473902153
  0.4975874666977088  0.5000000004281731  0.6261856063096909
  0.0111589426747277  0.6249999998929567  0.7429901281705877
  0.7500727583842512  0.6249999998929567  0.6867741747225570
  0.9991784928090474  0.8750000005352163  0.3753726828051553
  0.7600587968345324  0.8750000005352163  0.3190980514078830
  0.7470962345326468  0.7500000002140865  0.4358978840493258
  0.7486180134700209  0.8750000005352163  0.5616356325415905
  0.4985361322941860  0.8750000005352163  0.5004995473902153
  0.4975874666977088  0.7500000002140865  0.6261856063096909
  0.0111589426747277  0.8750000005352163  0.7429901281705877
  0.7500727583842512  0.8750000005352163  0.6867741747225570
  0.1472195596423465 -0.0000000000000000  0.3601606351366610
  0.4003222342624680 -0.0000000000000000  0.3237632067519145
  0.4439214822817664  0.0000000000000000  0.4377276028165065
  0.4007864640290089  0.0000000000000000  0.5518569464388462
  0.1507448625152464  0.0000000000000000  0.5102829016568122
  0.1944233584503729  0.0000000000000000  0.6244513542403062
  0.1513789030504859 -0.0000000000000000  0.7384125826657554
  0.3981372773271818  0.0000000000000000  0.7020063083476318
  0.1472195596423465  0.2499999997859135  0.3601606351366610
  0.4003222342624680  0.2499999997859135  0.3237632067519145
  0.4439214822817664  0.2499999997859135  0.4377276028165065
  0.4007864640290089  0.2499999997859135  0.5518569464388462
  0.1507448625152464  0.2499999997859135  0.5102829016568122
  0.1944233584503729  0.2499999997859135  0.6244513542403062
  0.1513789030504859  0.2499999997859135  0.7384125826657554
  0.3981372773271818  0.2499999997859135  0.7020063083476318
  0.1472195596423465  0.5000000004281731  0.3601606351366610
  0.4003222342624680  0.5000000004281731  0.3237632067519145
  0.4439214822817664  0.5000000004281731  0.4377276028165065
  0.4007864640290089  0.5000000004281731  0.5518569464388462
  0.1507448625152464  0.5000000004281731  0.5102829016568122
  0.1944233584503729  0.5000000004281731  0.6244513542403062
  0.1513789030504859  0.5000000004281731  0.7384125826657554
  0.3981372773271818  0.5000000004281731  0.7020063083476318
  0.1472195596423465  0.7500000002140865  0.3601606351366610
  0.4003222342624680  0.7500000002140865  0.3237632067519145
  0.4439214822817664  0.7500000002140865  0.4377276028165065
  0.4007864640290089  0.7500000002140865  0.5518569464388462
  0.1507448625152464  0.7500000002140865  0.5102829016568122
  0.1944233584503729  0.7500000002140865  0.6244513542403062
  0.1513789030504859  0.7500000002140865  0.7384125826657554
  0.3981372773271818  0.7500000002140865  0.7020063083476318
  0.6472195338188574 -0.0000000000000000  0.3601606351366610
  0.9003222591295310 -0.0000000000000000  0.3237632067519145
  0.9439215071488226 -0.0000000000000000  0.4377276028165065
  0.9007864888960720  0.0000000000000000  0.5518569464388462
  0.6507448366917572 -0.0000000000000000  0.5102829016568122
  0.6944233833174290 -0.0000000000000000  0.6244513542403062
  0.6513788772269969 -0.0000000000000000  0.7384125826657554
  0.8981373021942449  0.0000000000000000  0.7020063083476318
  0.6472195338188574  0.2499999997859135  0.3601606351366610
  0.9003222591295310  0.2499999997859135  0.3237632067519145
  0.9439215071488226  0.2499999997859135  0.4377276028165065
  0.9007864888960720  0.2499999997859135  0.5518569464388462
  0.6507448366917572  0.2499999997859135  0.5102829016568122
  0.6944233833174290  0.2499999997859135  0.6244513542403062
  0.6513788772269969  0.2499999997859135  0.7384125826657554
  0.8981373021942449  0.2499999997859135  0.7020063083476318
  0.6472195338188574  0.5000000004281731  0.3601606351366610
  0.9003222591295310  0.5000000004281731  0.3237632067519145
  0.9439215071488226  0.5000000004281731  0.4377276028165065
  0.9007864888960720  0.5000000004281731  0.5518569464388462
  0.6507448366917572  0.5000000004281731  0.5102829016568122
  0.6944233833174290  0.5000000004281731  0.6244513542403062
  0.6513788772269969  0.5000000004281731  0.7384125826657554
  0.8981373021942449  0.5000000004281731  0.7020063083476318
  0.6472195338188574  0.7500000002140865  0.3601606351366610
  0.9003222591295310  0.7500000002140865  0.3237632067519145
  0.9439215071488226  0.7500000002140865  0.4377276028165065
  0.9007864888960720  0.7500000002140865  0.5518569464388462
  0.6507448366917572  0.7500000002140865  0.5102829016568122
  0.6944233833174290  0.7500000002140865  0.6244513542403062
  0.6513788772269969  0.7500000002140865  0.7384125826657554
  0.8981373021942449  0.7500000002140865  0.7020063083476318
 
  0.00000000E+00  0.00000000E+00  0.00000000E+00
  0.00000000E+00  0.00000000E+00  0.00000000E+00
  0.00000000E+00  0.00000000E+00  0.00000000E+00
  0.00000000E+00  0.00000000E+00  0.00000000E+00
  0.00000000E+00  0.00000000E+00  0.00000000E+00
  0.00000000E+00  0.00000000E+00  0.00000000E+00
  0.00000000E+00  0.00000000E+00  0.00000000E+00
  0.00000000E+00  0.00000000E+00  0.00000000E+00
  0.00000000E+00  0.00000000E+00  0.00000000E+00
  0.00000000E+00  0.00000000E+00  0.00000000E+00
  0.00000000E+00  0.00000000E+00  0.00000000E+00
  0.00000000E+00  0.00000000E+00  0.00000000E+00
  0.00000000E+00  0.00000000E+00  0.00000000E+00
  0.00000000E+00  0.00000000E+00  0.00000000E+00
  0.00000000E+00  0.00000000E+00  0.00000000E+00
  0.00000000E+00  0.00000000E+00  0.00000000E+00
  0.00000000E+00  0.00000000E+00  0.00000000E+00
  0.00000000E+00  0.00000000E+00  0.00000000E+00
  0.00000000E+00  0.00000000E+00  0.00000000E+00
  0.00000000E+00  0.00000000E+00  0.00000000E+00
  0.00000000E+00  0.00000000E+00  0.00000000E+00
  0.00000000E+00  0.00000000E+00  0.00000000E+00
  0.00000000E+00  0.00000000E+00  0.00000000E+00
  0.00000000E+00  0.00000000E+00  0.00000000E+00
  0.00000000E+00  0.00000000E+00  0.00000000E+00
  0.00000000E+00  0.00000000E+00  0.00000000E+00
  0.00000000E+00  0.00000000E+00  0.00000000E+00
  0.00000000E+00  0.00000000E+00  0.00000000E+00
  0.00000000E+00  0.00000000E+00  0.00000000E+00
  0.00000000E+00  0.00000000E+00  0.00000000E+00
  0.00000000E+00  0.00000000E+00  0.00000000E+00
  0.00000000E+00  0.00000000E+00  0.00000000E+00
  0.00000000E+00  0.00000000E+00  0.00000000E+00
  0.00000000E+00  0.00000000E+00  0.00000000E+00
  0.00000000E+00  0.00000000E+00  0.00000000E+00
  0.00000000E+00  0.00000000E+00  0.00000000E+00
  0.00000000E+00  0.00000000E+00  0.00000000E+00
  0.00000000E+00  0.00000000E+00  0.00000000E+00
  0.00000000E+00  0.00000000E+00  0.00000000E+00
  0.00000000E+00  0.00000000E+00  0.00000000E+00
  0.00000000E+00  0.00000000E+00  0.00000000E+00
  0.00000000E+00  0.00000000E+00  0.00000000E+00
  0.00000000E+00  0.00000000E+00  0.00000000E+00
  0.00000000E+00  0.00000000E+00  0.00000000E+00
  0.00000000E+00  0.00000000E+00  0.00000000E+00
  0.00000000E+00  0.00000000E+00  0.00000000E+00
  0.00000000E+00  0.00000000E+00  0.00000000E+00
  0.00000000E+00  0.00000000E+00  0.00000000E+00
  0.00000000E+00  0.00000000E+00  0.00000000E+00
  0.00000000E+00  0.00000000E+00  0.00000000E+00
  0.00000000E+00  0.00000000E+00  0.00000000E+00
  0.00000000E+00  0.00000000E+00  0.00000000E+00
  0.00000000E+00  0.00000000E+00  0.00000000E+00
  0.00000000E+00  0.00000000E+00  0.00000000E+00
  0.00000000E+00  0.00000000E+00  0.00000000E+00
  0.00000000E+00  0.00000000E+00  0.00000000E+00
  0.00000000E+00  0.00000000E+00  0.00000000E+00
  0.00000000E+00  0.00000000E+00  0.00000000E+00
  0.00000000E+00  0.00000000E+00  0.00000000E+00
  0.00000000E+00  0.00000000E+00  0.00000000E+00
  0.00000000E+00  0.00000000E+00  0.00000000E+00
  0.00000000E+00  0.00000000E+00  0.00000000E+00
  0.00000000E+00  0.00000000E+00  0.00000000E+00
  0.00000000E+00  0.00000000E+00  0.00000000E+00
  0.00000000E+00  0.00000000E+00  0.00000000E+00
  0.00000000E+00  0.00000000E+00  0.00000000E+00
  0.00000000E+00  0.00000000E+00  0.00000000E+00
  0.00000000E+00  0.00000000E+00  0.00000000E+00
  0.00000000E+00  0.00000000E+00  0.00000000E+00
  0.00000000E+00  0.00000000E+00  0.00000000E+00
  0.00000000E+00  0.00000000E+00  0.00000000E+00
  0.00000000E+00  0.00000000E+00  0.00000000E+00
  0.00000000E+00  0.00000000E+00  0.00000000E+00
  0.00000000E+00  0.00000000E+00  0.00000000E+00
  0.00000000E+00  0.00000000E+00  0.00000000E+00
  0.00000000E+00  0.00000000E+00  0.00000000E+00
  0.00000000E+00  0.00000000E+00  0.00000000E+00
  0.00000000E+00  0.00000000E+00  0.00000000E+00
  0.00000000E+00  0.00000000E+00  0.00000000E+00
  0.00000000E+00  0.00000000E+00  0.00000000E+00
  0.00000000E+00  0.00000000E+00  0.00000000E+00
  0.00000000E+00  0.00000000E+00  0.00000000E+00
  0.00000000E+00  0.00000000E+00  0.00000000E+00
  0.00000000E+00  0.00000000E+00  0.00000000E+00
  0.00000000E+00  0.00000000E+00  0.00000000E+00
  0.00000000E+00  0.00000000E+00  0.00000000E+00
  0.00000000E+00  0.00000000E+00  0.00000000E+00
  0.00000000E+00  0.00000000E+00  0.00000000E+00
  0.00000000E+00  0.00000000E+00  0.00000000E+00
  0.00000000E+00  0.00000000E+00  0.00000000E+00
  0.00000000E+00  0.00000000E+00  0.00000000E+00
  0.00000000E+00  0.00000000E+00  0.00000000E+00
  0.00000000E+00  0.00000000E+00  0.00000000E+00
  0.00000000E+00  0.00000000E+00  0.00000000E+00
  0.00000000E+00  0.00000000E+00  0.00000000E+00
  0.00000000E+00  0.00000000E+00  0.00000000E+00
  0.00000000E+00  0.00000000E+00  0.00000000E+00
  0.00000000E+00  0.00000000E+00  0.00000000E+00
  0.00000000E+00  0.00000000E+00  0.00000000E+00
  0.00000000E+00  0.00000000E+00  0.00000000E+00
  0.00000000E+00  0.00000000E+00  0.00000000E+00
  0.00000000E+00  0.00000000E+00  0.00000000E+00
  0.00000000E+00  0.00000000E+00  0.00000000E+00
  0.00000000E+00  0.00000000E+00  0.00000000E+00
  0.00000000E+00  0.00000000E+00  0.00000000E+00
  0.00000000E+00  0.00000000E+00  0.00000000E+00
  0.00000000E+00  0.00000000E+00  0.00000000E+00
  0.00000000E+00  0.00000000E+00  0.00000000E+00
  0.00000000E+00  0.00000000E+00  0.00000000E+00
  0.00000000E+00  0.00000000E+00  0.00000000E+00
  0.00000000E+00  0.00000000E+00  0.00000000E+00
  0.00000000E+00  0.00000000E+00  0.00000000E+00
  0.00000000E+00  0.00000000E+00  0.00000000E+00
  0.00000000E+00  0.00000000E+00  0.00000000E+00
  0.00000000E+00  0.00000000E+00  0.00000000E+00
  0.00000000E+00  0.00000000E+00  0.00000000E+00
  0.00000000E+00  0.00000000E+00  0.00000000E+00
  0.00000000E+00  0.00000000E+00  0.00000000E+00
  0.00000000E+00  0.00000000E+00  0.00000000E+00
  0.00000000E+00  0.00000000E+00  0.00000000E+00
  0.00000000E+00  0.00000000E+00  0.00000000E+00
  0.00000000E+00  0.00000000E+00  0.00000000E+00
  0.00000000E+00  0.00000000E+00  0.00000000E+00
  0.00000000E+00  0.00000000E+00  0.00000000E+00
  0.00000000E+00  0.00000000E+00  0.00000000E+00
  0.00000000E+00  0.00000000E+00  0.00000000E+00
  0.00000000E+00  0.00000000E+00  0.00000000E+00
  0.00000000E+00  0.00000000E+00  0.00000000E+00
