Mo  S Ru                                
   1.00000000000000     
    15.9214998300000001    0.0000000000000000    0.0000000000000000
    -7.9622501300000001   13.7910221699999997    0.0000000000000000
     0.0000000000000000    0.0000000000000000   13.5821998300000004
   Mo   S    Ru
    25    50     4
Direct
  0.1309804444176308  0.0637833441752065  0.6768394980380350
  0.1306694054401660  0.2647006892339618  0.6812587150695038
  0.1331616083502212  0.4650511720875699  0.6791458167329694
  0.1328062166292341  0.6646803271395214  0.6758354832010056
  0.1323535506281459  0.8644369691987066  0.6749385471110756
  0.3318040763027454  0.0624906159555820  0.6812942189413675
  0.3285634061164515  0.2647738632510226  0.6916655703606196
  0.3335946130764569  0.4641492240385574  0.6859164836800531
  0.3333872652516803  0.6653569648140518  0.6762157636275958
  0.3321681672417185  0.8639628284446417  0.6748000234652523
  0.5327356992229255  0.0628197618654838  0.6767629287240595
  0.5289133476664247  0.2592529801473518  0.6937529460798046
  0.5376531480156004  0.4726575991653306  0.6894744903096353
  0.5332471506077781  0.6679952036435211  0.6739643456627604
  0.5327121939353816  0.8652036270574470  0.6727342863507175
  0.7328860271050743  0.0658683660103563  0.6744510022373476
  0.7325668702261225  0.2657494503005964  0.6811427292318157
  0.7346141545356346  0.4675157308895876  0.6844219649540477
  0.7357109594366378  0.6700069907926434  0.6760333827127454
  0.7335698330992031  0.8671163443366865  0.6722140032338828
  0.9324009950016858  0.0656558134440104  0.6746106779658092
  0.9321692101937700  0.2654773253216973  0.6776247394013026
  0.9331515244500395  0.4653964132390200  0.6786218260661059
  0.9331668811905871  0.6654687583896290  0.6762616056444699
  0.9336947420926052  0.8662574256686923  0.6732014303978033
  0.0678365921808393  0.1342698432700402  0.5622070562686687
  0.0623276025198223  0.1284523622280958  0.7923055842057707
  0.0667916800918462  0.3319208238150395  0.5639893849603084
  0.0634666994428201  0.3319698593504299  0.7943863867872025
  0.0659818480664001  0.5301455276976057  0.5625796845891529
  0.0671329060776031  0.5330723865789295  0.7929455560099754
  0.0656818487392172  0.7306806942167867  0.5602588894369234
  0.0665563191894805  0.7319804756714490  0.7906064597342066
  0.0677156874861211  0.9330504949074481  0.5591051053528631
  0.0644939025342026  0.9298234573731534  0.7901069292606522
  0.2697271071396372  0.1363269501270850  0.5688903003438242
  0.2578550900138268  0.1234077637140700  0.7967281565356217
  0.2678597199238339  0.3308227277353950  0.5717102622384758
  0.2579167663696253  0.3306182750977698  0.8054495618163102
  0.2683435841613289  0.5283763928088305  0.5661897332490966
  0.2665239834133715  0.5339750102749790  0.7954209397752550
  0.2656325478292487  0.7302361698120308  0.5601393692320613
  0.2661319232432291  0.7316024859560670  0.7906408195779733
  0.2667239567546815  0.9332623610843100  0.5613736134782172
  0.2636363253247609  0.9270033231684707  0.7921318992380719
  0.4663404403279117  0.1351571600237520  0.5688632353325715
  0.4635573797748833  0.1182848658684676  0.7978048082431641
  0.4661871883279787  0.3332123571439212  0.5859413055124634
  0.4450743860624655  0.2723760352649123  0.8501790388065729
  0.4661494146380392  0.5280563095417961  0.5684662927798669
  0.4731149462641042  0.5429397222703045  0.8027501952703346
  0.4649353674156487  0.7309674650689786  0.5584754362063364
  0.4672474833526508  0.7343006821083691  0.7897540040193149
  0.4654170444992687  0.9321954611841221  0.5588401751485534
  0.4654891192712753  0.9284201707478985  0.7897553681893967
  0.6665181622585692  0.1351408864671484  0.5621811166855295
  0.6661722823834495  0.1294265470324945  0.7921089547440019
  0.6599866664285443  0.3313762196917338  0.5738488723118493
  0.6695855449863117  0.3317312137359139  0.8067683771078649
  0.6654839163380331  0.5312506520143216  0.5685631275796368
  0.6783906298464046  0.5441766986997365  0.7989638506848067
  0.6663629753704967  0.7322795051285595  0.5587283937974235
  0.6678567858785485  0.7371317359845193  0.7889237531230506
  0.6664105193579317  0.9336944709966559  0.5574855875095679
  0.6660720249258318  0.9320047183436202  0.7878052740018830
  0.8667641530976269  0.1340140332308835  0.5600269507305882
  0.8650096513592942  0.1307671062641660  0.7905406117335758
  0.8639523348649547  0.3319063730444540  0.5640651315200529
  0.8672070824151135  0.3323255297223966  0.7940522891689525
  0.8629588075698038  0.5294120655259675  0.5646667036895394
  0.8703406781680485  0.5348501130499983  0.7951260373692648
  0.8668017358491369  0.7319165638454805  0.5592721217357806
  0.8693845730361431  0.7359962372131861  0.7902316950418395
  0.8674582540359239  0.9336531169878199  0.5576798653608677
  0.8657085164789535  0.9319810502722490  0.7880619241231770
  0.4123602282114760  0.3910112881135746  0.8729250088245522
  0.5812500961461851  0.4072325533760335  0.8841405477284496
  0.5720886767159499  0.4407429375388574  0.0444585922794758
  0.4301616602035665  0.4224114367105756  0.0398053160479037
 
  0.00000000E+00  0.00000000E+00  0.00000000E+00
  0.00000000E+00  0.00000000E+00  0.00000000E+00
  0.00000000E+00  0.00000000E+00  0.00000000E+00
  0.00000000E+00  0.00000000E+00  0.00000000E+00
  0.00000000E+00  0.00000000E+00  0.00000000E+00
  0.00000000E+00  0.00000000E+00  0.00000000E+00
  0.00000000E+00  0.00000000E+00  0.00000000E+00
  0.00000000E+00  0.00000000E+00  0.00000000E+00
  0.00000000E+00  0.00000000E+00  0.00000000E+00
  0.00000000E+00  0.00000000E+00  0.00000000E+00
  0.00000000E+00  0.00000000E+00  0.00000000E+00
  0.00000000E+00  0.00000000E+00  0.00000000E+00
  0.00000000E+00  0.00000000E+00  0.00000000E+00
  0.00000000E+00  0.00000000E+00  0.00000000E+00
  0.00000000E+00  0.00000000E+00  0.00000000E+00
  0.00000000E+00  0.00000000E+00  0.00000000E+00
  0.00000000E+00  0.00000000E+00  0.00000000E+00
  0.00000000E+00  0.00000000E+00  0.00000000E+00
  0.00000000E+00  0.00000000E+00  0.00000000E+00
  0.00000000E+00  0.00000000E+00  0.00000000E+00
  0.00000000E+00  0.00000000E+00  0.00000000E+00
  0.00000000E+00  0.00000000E+00  0.00000000E+00
  0.00000000E+00  0.00000000E+00  0.00000000E+00
  0.00000000E+00  0.00000000E+00  0.00000000E+00
  0.00000000E+00  0.00000000E+00  0.00000000E+00
  0.00000000E+00  0.00000000E+00  0.00000000E+00
  0.00000000E+00  0.00000000E+00  0.00000000E+00
  0.00000000E+00  0.00000000E+00  0.00000000E+00
  0.00000000E+00  0.00000000E+00  0.00000000E+00
  0.00000000E+00  0.00000000E+00  0.00000000E+00
  0.00000000E+00  0.00000000E+00  0.00000000E+00
  0.00000000E+00  0.00000000E+00  0.00000000E+00
  0.00000000E+00  0.00000000E+00  0.00000000E+00
  0.00000000E+00  0.00000000E+00  0.00000000E+00
  0.00000000E+00  0.00000000E+00  0.00000000E+00
  0.00000000E+00  0.00000000E+00  0.00000000E+00
  0.00000000E+00  0.00000000E+00  0.00000000E+00
  0.00000000E+00  0.00000000E+00  0.00000000E+00
  0.00000000E+00  0.00000000E+00  0.00000000E+00
  0.00000000E+00  0.00000000E+00  0.00000000E+00
  0.00000000E+00  0.00000000E+00  0.00000000E+00
  0.00000000E+00  0.00000000E+00  0.00000000E+00
  0.00000000E+00  0.00000000E+00  0.00000000E+00
  0.00000000E+00  0.00000000E+00  0.00000000E+00
  0.00000000E+00  0.00000000E+00  0.00000000E+00
  0.00000000E+00  0.00000000E+00  0.00000000E+00
  0.00000000E+00  0.00000000E+00  0.00000000E+00
  0.00000000E+00  0.00000000E+00  0.00000000E+00
  0.00000000E+00  0.00000000E+00  0.00000000E+00
  0.00000000E+00  0.00000000E+00  0.00000000E+00
  0.00000000E+00  0.00000000E+00  0.00000000E+00
  0.00000000E+00  0.00000000E+00  0.00000000E+00
  0.00000000E+00  0.00000000E+00  0.00000000E+00
  0.00000000E+00  0.00000000E+00  0.00000000E+00
  0.00000000E+00  0.00000000E+00  0.00000000E+00
  0.00000000E+00  0.00000000E+00  0.00000000E+00
  0.00000000E+00  0.00000000E+00  0.00000000E+00
  0.00000000E+00  0.00000000E+00  0.00000000E+00
  0.00000000E+00  0.00000000E+00  0.00000000E+00
  0.00000000E+00  0.00000000E+00  0.00000000E+00
  0.00000000E+00  0.00000000E+00  0.00000000E+00
  0.00000000E+00  0.00000000E+00  0.00000000E+00
  0.00000000E+00  0.00000000E+00  0.00000000E+00
  0.00000000E+00  0.00000000E+00  0.00000000E+00
  0.00000000E+00  0.00000000E+00  0.00000000E+00
  0.00000000E+00  0.00000000E+00  0.00000000E+00
  0.00000000E+00  0.00000000E+00  0.00000000E+00
  0.00000000E+00  0.00000000E+00  0.00000000E+00
  0.00000000E+00  0.00000000E+00  0.00000000E+00
  0.00000000E+00  0.00000000E+00  0.00000000E+00
  0.00000000E+00  0.00000000E+00  0.00000000E+00
  0.00000000E+00  0.00000000E+00  0.00000000E+00
  0.00000000E+00  0.00000000E+00  0.00000000E+00
  0.00000000E+00  0.00000000E+00  0.00000000E+00
  0.00000000E+00  0.00000000E+00  0.00000000E+00
  0.00000000E+00  0.00000000E+00  0.00000000E+00
  0.00000000E+00  0.00000000E+00  0.00000000E+00
  0.00000000E+00  0.00000000E+00  0.00000000E+00
  0.00000000E+00  0.00000000E+00  0.00000000E+00
