generated by phonopy                    
   1.00000000000000     
     7.8981726171561570    0.0001365664605029    0.0000948512116591
    -3.9489702094917134    6.8436028122962105    0.0151820513002580
     0.0000201177050836    0.0179912590488639    8.6706721103968789
   B    N    Ga
    32    36     4
Direct
  0.1129024320990773  0.2290184089428907 -0.0130488101617281
  0.4446665640042823  0.2342612609011101 -0.0137894304510723
  0.7859342985108005  0.2264120899966500 -0.0224870639185042
  0.1128169518854791  0.5529485921682401 -0.0213056479223395
  0.4456219454832455  0.5566657905181226 -0.0161018627754834
  0.7731208462854424  0.5536809858587737 -0.0209084202739126
  0.4430009896930565  0.8783875237033761 -0.0239549672891369
  0.7734066842540126  0.8871318514703364 -0.0223082761978405
  0.0996725492740025  0.2247375003552577  0.4779658420835273
  0.4578539591252397  0.2260706243646139  0.4861774340596943
  0.7783620631632884  0.2220888538082069  0.4873306501696284
  0.1049104554888783  0.5508894211016012  0.4792007252937874
  0.7796566169215534  0.5512438861760577  0.4785429452437290
  0.1062353256656748  0.8792506117827683  0.4800938172907935
  0.4486898115360359  0.8930918426565372  0.4867597248038350
  0.7789781688531390  0.8953373255005308  0.4780209767791714
  0.2211867721301923  0.1175268212431785  0.2398431654383568
  0.5582024568165471  0.4462236386189957  0.2283528646573567
  0.8951223256111182  0.1151135445697517  0.2281977463234651
  0.2144029529541061  0.4423001311407108  0.2292633295091730
  0.8958413254359252  0.4488206429415126  0.2271137080533884
  0.2203213805187900  0.7708810479723039  0.2359374407535327
  0.5558506003996220  0.7784672865986095  0.2256516681404096
  0.8881230884810776  0.7778755000981785  0.2368416916430595
  0.2211540318552835  0.7647137878010545  0.7256228691740815
  0.5628911143079116  0.1155754630537808  0.7339095142150900
  0.8861925325340422  0.1146422206836643  0.7297035329055495
  0.2161577674337664  0.4451312446444774  0.7361488676040574
  0.5621930398317432  0.4469332660472476  0.7379135843430752
  0.8892104253262108  0.4446909456865823  0.7309026709669666
  0.5558356329986126  0.7776169558081512  0.7370871770706241
  0.8772664770119021  0.7663259695349879  0.7246225103598615
  0.2367842815939604  0.1454424717297867 -0.0655095623868015
  0.5554529905999583  0.1113491318088038  0.9213987278314932
  0.8908761007086140  0.1110722240381417  0.9157524898693250
  0.2179501914875816  0.4429333894711645  0.9240747598281143
  0.5584104865353144  0.4453002179616388  0.9227470660558321
  0.8902960039538621  0.4468057199718131  0.9150102797969197
  0.2357086893293809  0.7593712135811108  0.9049186321680925
  0.5579957837619934  0.7799176033838737  0.9203453244560218
  0.8571865637846554  0.7618024720971391  0.9062049432127516
  0.2241534266369150  0.1151989376905618  0.4265818029879318
  0.5567351488067654  0.1100548548202496  0.4443571661789649
  0.8871632550516044  0.1110280959036214  0.4167297290757762
  0.1903751412923059  0.4307219178042677  0.4069221722498915
  0.5735858215806824  0.4294314932785493  0.4077749904612055
  0.8893715300134311  0.4449888039582370  0.4187418823980296
  0.2248446300142041  0.7745448993830067  0.4203881566205348
  0.5709792072161378  0.8105253897472787  0.4074064466416750
  0.8833971723983614  0.7746883404657230  0.4191785854744252
  0.1096791166805425  0.2219853600825402  0.1722547579432009
  0.4307693792686668  0.2397026728118868  0.1645405349718638
  0.8117319845806112  0.2400739952289185  0.1574559000886382
  0.1099168788531203  0.5583438678849605  0.1667426122947205
  0.4466104907861085  0.5572105571691217  0.1720122592219226
  0.7810266991983251  0.5576561372259703  0.1655909132479194
  0.1126714233539619  0.8901292631223686  0.1986121464816756
  0.4262417731817023  0.8566053563434338  0.1562605560708393
  0.7801855733296710  0.8907560879493157  0.1649327321980669
  0.0929412411020855  0.2396958986205702  0.6583048648076688
  0.4789639662564794  0.2417323086359192  0.6653660121117188
  0.7790117388507654  0.2224755293314562  0.6727361352746126
  0.1110109606789926  0.5521705232575980  0.6664526991750104
  0.4429288418585554  0.5534263754145975  0.6956448143502810
  0.7747189165867308  0.5530031937661292  0.6665655507728265
  0.0929737107997727  0.8522331925568035  0.6605188429424005
  0.4448452174436855  0.8855851713613238  0.6702766535676000
  0.7757838654962382  0.8888369508485301  0.6649078560553271
  0.1088332299737969  0.8835977840104022 -0.0144894672979885
  0.5574275463359358  0.1096494250611869  0.2304096386617544
  0.4445730267962994  0.5552811188579347  0.4812422160330432
  0.2201064079321659  0.1106170176158057  0.7233382002144670
 
  0.00000000E+00  0.00000000E+00  0.00000000E+00
  0.00000000E+00  0.00000000E+00  0.00000000E+00
  0.00000000E+00  0.00000000E+00  0.00000000E+00
  0.00000000E+00  0.00000000E+00  0.00000000E+00
  0.00000000E+00  0.00000000E+00  0.00000000E+00
  0.00000000E+00  0.00000000E+00  0.00000000E+00
  0.00000000E+00  0.00000000E+00  0.00000000E+00
  0.00000000E+00  0.00000000E+00  0.00000000E+00
  0.00000000E+00  0.00000000E+00  0.00000000E+00
  0.00000000E+00  0.00000000E+00  0.00000000E+00
  0.00000000E+00  0.00000000E+00  0.00000000E+00
  0.00000000E+00  0.00000000E+00  0.00000000E+00
  0.00000000E+00  0.00000000E+00  0.00000000E+00
  0.00000000E+00  0.00000000E+00  0.00000000E+00
  0.00000000E+00  0.00000000E+00  0.00000000E+00
  0.00000000E+00  0.00000000E+00  0.00000000E+00
  0.00000000E+00  0.00000000E+00  0.00000000E+00
  0.00000000E+00  0.00000000E+00  0.00000000E+00
  0.00000000E+00  0.00000000E+00  0.00000000E+00
  0.00000000E+00  0.00000000E+00  0.00000000E+00
  0.00000000E+00  0.00000000E+00  0.00000000E+00
  0.00000000E+00  0.00000000E+00  0.00000000E+00
  0.00000000E+00  0.00000000E+00  0.00000000E+00
  0.00000000E+00  0.00000000E+00  0.00000000E+00
  0.00000000E+00  0.00000000E+00  0.00000000E+00
  0.00000000E+00  0.00000000E+00  0.00000000E+00
  0.00000000E+00  0.00000000E+00  0.00000000E+00
  0.00000000E+00  0.00000000E+00  0.00000000E+00
  0.00000000E+00  0.00000000E+00  0.00000000E+00
  0.00000000E+00  0.00000000E+00  0.00000000E+00
  0.00000000E+00  0.00000000E+00  0.00000000E+00
  0.00000000E+00  0.00000000E+00  0.00000000E+00
  0.00000000E+00  0.00000000E+00  0.00000000E+00
  0.00000000E+00  0.00000000E+00  0.00000000E+00
  0.00000000E+00  0.00000000E+00  0.00000000E+00
  0.00000000E+00  0.00000000E+00  0.00000000E+00
  0.00000000E+00  0.00000000E+00  0.00000000E+00
  0.00000000E+00  0.00000000E+00  0.00000000E+00
  0.00000000E+00  0.00000000E+00  0.00000000E+00
  0.00000000E+00  0.00000000E+00  0.00000000E+00
  0.00000000E+00  0.00000000E+00  0.00000000E+00
  0.00000000E+00  0.00000000E+00  0.00000000E+00
  0.00000000E+00  0.00000000E+00  0.00000000E+00
  0.00000000E+00  0.00000000E+00  0.00000000E+00
  0.00000000E+00  0.00000000E+00  0.00000000E+00
  0.00000000E+00  0.00000000E+00  0.00000000E+00
  0.00000000E+00  0.00000000E+00  0.00000000E+00
  0.00000000E+00  0.00000000E+00  0.00000000E+00
  0.00000000E+00  0.00000000E+00  0.00000000E+00
  0.00000000E+00  0.00000000E+00  0.00000000E+00
  0.00000000E+00  0.00000000E+00  0.00000000E+00
  0.00000000E+00  0.00000000E+00  0.00000000E+00
  0.00000000E+00  0.00000000E+00  0.00000000E+00
  0.00000000E+00  0.00000000E+00  0.00000000E+00
  0.00000000E+00  0.00000000E+00  0.00000000E+00
  0.00000000E+00  0.00000000E+00  0.00000000E+00
  0.00000000E+00  0.00000000E+00  0.00000000E+00
  0.00000000E+00  0.00000000E+00  0.00000000E+00
  0.00000000E+00  0.00000000E+00  0.00000000E+00
  0.00000000E+00  0.00000000E+00  0.00000000E+00
  0.00000000E+00  0.00000000E+00  0.00000000E+00
  0.00000000E+00  0.00000000E+00  0.00000000E+00
  0.00000000E+00  0.00000000E+00  0.00000000E+00
  0.00000000E+00  0.00000000E+00  0.00000000E+00
  0.00000000E+00  0.00000000E+00  0.00000000E+00
  0.00000000E+00  0.00000000E+00  0.00000000E+00
  0.00000000E+00  0.00000000E+00  0.00000000E+00
  0.00000000E+00  0.00000000E+00  0.00000000E+00
  0.00000000E+00  0.00000000E+00  0.00000000E+00
  0.00000000E+00  0.00000000E+00  0.00000000E+00
  0.00000000E+00  0.00000000E+00  0.00000000E+00
  0.00000000E+00  0.00000000E+00  0.00000000E+00
