Cu	N	Ru	Ta                              
   1.00000000000000     
    18.1096308199999996    0.0000000000000000    0.0000000000000000
     0.0000000000000000   23.3551997799999995    0.0000000000000000
     0.0000000000000000    0.0000000000000000   30.4818171199999988
   Cu   N    Ru   Ta
     3   240    36   204
Selective dynamics
Direct
  0.5830021311430523  0.4382270259091708  0.6143011913355162   T   T   T
  0.4483588437019269  0.4445949857873470  0.6207389221039612   T   T   T
  0.5232527088784713  0.4351961970920075  0.6828669150608153   T   T   T
  0.0000082194086202  0.8742832262651057  0.4735283122374722   T   T   T
  0.0000340756569839  0.3742547225138383  0.4734377619832312   T   T   T
  0.0007546365873381  0.7508357331636546  0.3024712727493721   F   F   F
  0.0007546365873381  0.2508357331636546  0.3024712727493721   F   F   F
  0.0007971388342227  0.6259226757939587  0.3025555019798603   F   F   F
  0.0007971388342227  0.1259226757939587  0.3025555019798603   F   F   F
  0.0009289261701255  0.8759179472966139  0.3027706837052264   F   F   F
  0.0009289261701255  0.3759179472966139  0.3027706837052264   F   F   F
  0.0009959888293309  0.0008861705399639  0.3028813086718003   F   F   F
  0.0009959888293309  0.5008861705399639  0.3028813086718003   F   F   F
  0.0021629418078591  0.0003319729334663  0.4726152451892241   T   T   T
  0.0021766334101394  0.5003575534325345  0.4724394102557904   T   T   T
  0.5623795263019139  0.2621354050109619  0.5807316667472602   T   T   T
  0.5631270407393119  0.7616135466323971  0.5808799770079904   T   T   T
  0.5944407181460178  0.8759335502460033  0.2316533513143781   F   F   F
  0.5944407181460178  0.3759335502460033  0.2316533513143781   F   F   F
  0.5944879250719026  0.6260651198762730  0.2317376786361365   F   F   F
  0.5944879250719026  0.1260651198762730  0.2317376786361365   F   F   F
  0.5945319922319641  0.7509793277392376  0.2318466107902424   F   F   F
  0.5945319922319641  0.2509793277392376  0.2318466107902424   F   F   F
  0.5946973191803622  0.0011281697544092  0.2317203788144795   F   F   F
  0.5946973191803622  0.5011281697544092  0.2317203788144795   F   F   F
  0.5992558278116110  0.7515394428634466  0.4022808365896043   T   T   T
  0.5993052328120440  0.2515008198957900  0.4022738834310801   T   T   T
  0.5998685858114889  0.1264282893885459  0.4015280637258217   T   T   T
  0.5998916612919724  0.6264731269614501  0.4015948760713606   T   T   T
  0.6002654720149471  0.8759929071565967  0.4012547152098609   T   T   T
  0.6003616894650359  0.3759559779149503  0.4013745173513778   T   T   T
  0.6007124888265124  0.0013371444824327  0.4009440057100973   T   T   T
  0.6007655815501051  0.5012696695589715  0.4010950345311005   T   T   T
  0.6046573058570587  0.9981056119821429  0.5689865850862250   T   T   T
  0.6048343991102669  0.8767964357080007  0.5690653516728998   T   T   T
  0.6049401189530471  0.3773985274109768  0.5708452365367824   T   T   T
  0.6049800516217585  0.4981212193509338  0.5707768076949667   T   T   T
  0.6133786845000324  0.1414365792083434  0.5676453719510279   T   T   T
  0.6138473892476661  0.6414692707677141  0.5672814586449382   T   T   T
  0.6481233338719505  0.2506177608320406  0.4874395332144997   T   T   T
  0.6482366702658217  0.7509286693646866  0.4872953974982175   T   T   T
  0.6521720790936089  0.1259116317965703  0.4854054897650829   T   T   T
  0.6522757529265782  0.6260266865055151  0.4853279226712130   T   T   T
  0.6535877904995850  0.3788900693228062  0.4853731730751999   T   T   T
  0.6537125311541890  0.8793170294620264  0.4847816312365259   T   T   T
  0.6549923804575926  0.7511371041673840  0.3152775575080256   F   F   F
  0.6549923804575926  0.2511371041673840  0.3152775575080256   F   F   F
  0.6552369308629804  0.9989682540756033  0.4859043063353272   T   T   T
  0.6552059756456146  0.6260466862938543  0.3150601846403305   F   F   F
  0.6552059756456146  0.1260466862938543  0.3150601846403305   F   F   F
  0.6552570788408829  0.8758846061131820  0.3149041322638837   F   F   F
  0.6552570788408829  0.3758846061131820  0.3149041322638837   F   F   F
  0.6553399729165191  0.4991018270542021  0.4861373612561999   T   T   T
  0.6554052259801963  0.0012023099894023  0.3149218625060755   F   F   F
  0.6554052259801963  0.5012023099894023  0.3149218625060755   F   F   F
  0.0694856529064693  0.1309210560819979  0.5734308641359093   T   T   T
  0.0694804967863383  0.6309699817789469  0.5732831470242922   T   T   T
  0.7281244318687997  0.2624869883131776  0.5565843232723062   T   T   T
  0.7280040910496282  0.7621921853582136  0.5565257669100983   T   T   T
  0.7502708475751512  0.2508662371203294  0.3870617237054127   T   T   T
  0.7502690770598388  0.7508999330455733  0.3870136350335150   T   T   T
  0.7503837756312706  0.8759246053428527  0.1980143607002915   F   F   F
  0.7503837756312706  0.3759246053428527  0.1980143607002915   F   F   F
  0.7504065850415813  0.0010474442621131  0.1995662990185920   F   F   F
  0.7504065850415813  0.5010474442621131  0.1995662990185920   F   F   F
  0.7504116177228610  0.6259067547141299  0.1982016356247982   F   F   F
  0.7504116177228610  0.1259067547141299  0.1982016356247982   F   F   F
  0.7504539896523426  0.7509563452768688  0.1993173260006742   F   F   F
  0.7504539896523426  0.2509563452768688  0.1993173260006742   F   F   F
  0.7506509980967350  0.1259802614565317  0.3868748831783043   T   T   T
  0.7506439286864302  0.6259642022931169  0.3868060002023913   T   T   T
  0.7508872466421568  0.8762124312501902  0.3859680901108476   T   T   T
  0.7508979343571692  0.3761617882296439  0.3860093346291329   T   T   T
  0.7512342832539619  0.0009122172463224  0.3867285066671151   T   T   T
  0.7512593127602384  0.5009314833111076  0.3867092663912249   T   T   T
  0.7576520073499567  0.8825261960247871  0.5562842472846509   T   T   T
  0.7583969206961630  0.3824688538235657  0.5560862270926548   T   T   T
  0.7657301265250486  0.9975111805782231  0.5565131385629951   T   T   T
  0.7659740249599882  0.4973770669833090  0.5563399544315418   T   T   T
  0.7719204991039780  0.1386449319527361  0.5570442152759620   T   T   T
  0.7724679392260245  0.6388343379519515  0.5571287963940259   T   T   T
  0.0803392030618492  0.2417723194450128  0.5719484467128811   T   T   T
  0.0803782506125843  0.7419824397166886  0.5721897262104220   T   T   T
  0.8457971856104365  0.7508865770875488  0.3147238720130474   F   F   F
  0.8457971856104365  0.2508865770875488  0.3147238720130474   F   F   F
  0.8459094352758285  0.6257770200071491  0.3148105564777453   F   F   F
  0.8459094352758285  0.1257770200071491  0.3148105564777453   F   F   F
  0.8459894799777032  0.8758569369000710  0.3146601051453359   F   F   F
  0.8459894799777032  0.3758569369000710  0.3146601051453359   F   F   F
  0.8462370857983075  0.0009253177109869  0.3148622358114821   F   F   F
  0.8462370857983075  0.5009253177109869  0.3148622358114821   F   F   F
  0.8465420930409522  0.2542482229501044  0.4849254665697446   T   T   T
  0.8465393674538908  0.7542419985789901  0.4850468747529728   T   T   T
  0.8496733297123643  0.1249792912243925  0.4847842576574422   T   T   T
  0.8496304434584301  0.3729629153916030  0.4851431143574205   T   T   T
  0.8495961238328023  0.8729332942424488  0.4852099953902665   T   T   T
  0.8496431784495578  0.6249247848292291  0.4846561080205606   T   T   T
  0.8519728705550740  0.0010237988183692  0.4860078206984869   T   T   T
  0.8521510734122533  0.5010774068280225  0.4858879246778306   T   T   T
  0.0881477799979474  0.8616035625822154  0.5739807192747770   T   T   T
  0.0883537184239673  0.3616347985694650  0.5740291676622959   T   T   T
  0.8962536973090204  0.8699950395240085  0.5715466499969415   T   T   T
  0.8966275432007436  0.3697857113301408  0.5714512638508098   T   T   T
  0.8976073389711963  0.2482815469297233  0.5671777167238498   T   T   T
  0.8978486909486776  0.7486811918987069  0.5672568233003669   T   T   T
  0.9006559073255239  0.2504903042368912  0.4005724594824081   T   T   T
  0.9006539801586158  0.7505032061346041  0.4006106664788074   T   T   T
  0.9011687652555882  0.1257017517316439  0.4012118210923381   T   T   T
  0.9011617357095315  0.6257516321993520  0.4011382280418643   T   T   T
  0.9019425262032362  0.3758975473479669  0.4008124860393490   T   T   T
  0.9019198098715597  0.8759246530750624  0.4008777985946734   T   T   T
  0.9022142203397456  0.0005556342432457  0.4012819760414657   T   T   T
  0.9022358792860899  0.5005523592522410  0.4011913065264461   T   T   T
  0.9025174518596033  0.1060648853143248  0.5674809678396706   T   T   T
  0.9026091889137086  0.6064001299768278  0.5673760721154878   T   T   T
  0.9063370116785165  0.7509661375287990  0.2314450664875594   F   F   F
  0.9063370116785165  0.2509661375287990  0.2314450664875594   F   F   F
  0.9065036119825223  0.6258452416457985  0.2314281613274076   F   F   F
  0.9065036119825223  0.1258452416457985  0.2314281613274076   F   F   F
  0.9065431196901699  0.0009511492176983  0.2315080614196674   F   F   F
  0.9065431196901699  0.5009511492176983  0.2315080614196674   F   F   F
  0.9067333030259945  0.8759844438376305  0.2313964578368939   F   F   F
  0.9067333030259945  0.3759844438376305  0.2313964578368939   F   F   F
  0.9240865552670293  0.4835141216613640  0.5700997299778767   T   T   T
  0.9242381857199495  0.9832723268416848  0.5699706412389138   T   T   T
  0.0952407101582224  0.7510020395980561  0.2320892091881959   F   F   F
  0.0952407101582224  0.2510020395980561  0.2320892091881959   F   F   F
  0.0953260277450525  0.0008979764762245  0.2323666739458474   F   F   F
  0.0953260277450525  0.5008979764762245  0.2323666739458474   F   F   F
  0.0953735919394063  0.6258547564434522  0.2322437075234305   F   F   F
  0.0953735919394063  0.1258547564434522  0.2322437075234305   F   F   F
  0.0955543013107132  0.8759987254538473  0.2323923499085652   F   F   F
  0.0955543013107132  0.3759987254538473  0.2323923499085652   F   F   F
  0.0993761228339193  0.1252115997338995  0.4016219535862698   T   T   T
  0.0994294843091646  0.6252269955693245  0.4016071404286776   T   T   T
  0.0994871282832755  0.2508774660123056  0.4017076850158844   T   T   T
  0.0995077744172922  0.7509165581855672  0.4017135701830940   T   T   T
  0.9984530193359589  0.1244179381714478  0.4720463603609771   T   T   T
  0.9984608818318478  0.2504344980194956  0.4723262425226763   T   T   T
  0.9984409050590007  0.6244455058409821  0.4719666506837216   T   T   T
  0.9985319413846117  0.7504734970785755  0.4723191255385472   T   T   T
  0.1003175509663911  0.8755941354686615  0.4028665432108457   T   T   T
  0.1003603274953074  0.3756011073545384  0.4028243644607735   T   T   T
  0.1007616420252149  0.0011672674048969  0.4028449687179351   T   T   T
  0.1008334058881536  0.5011360389978506  0.4027829067224243   T   T   T
  0.1045571485161187  0.5005112379614736  0.5667660900389518   T   T   T
  0.1048028907374597  0.0003898290768057  0.5671043043296972   T   T   T
  0.1481493322804281  0.1283090085666448  0.4858980437374580   T   T   T
  0.1481447018379250  0.6283572987215096  0.4859138177047185   T   T   T
  0.1483831633459735  0.2459404893792027  0.4870533186692901   T   T   T
  0.1485140850388225  0.7459748101819501  0.4871099802971569   T   T   T
  0.1532101631608471  0.3762658556030429  0.4877994076414893   T   T   T
  0.1535098791547614  0.8762750727884503  0.4879195687736333   T   T   T
  0.1548684112923196  0.5014668603897002  0.4869820005540096   T   T   T
  0.1550320541017859  0.0014071134995017  0.4870956276010002   T   T   T
  0.1554278840897965  0.7509669489112838  0.3157714680232928   F   F   F
  0.1554278840897965  0.2509669489112767  0.3157714680232928   F   F   F
  0.1555300833018336  0.8760083006234964  0.3161854069282626   F   F   F
  0.1555300833018336  0.3760083006234964  0.3161854069282626   F   F   F
  0.1556347359045702  0.6258770940815310  0.3158690852351640   F   F   F
  0.1556347359045702  0.1258770940815310  0.3158690852351640   F   F   F
  0.1557688557010550  0.0008265358541948  0.3160543218953578   F   F   F
  0.1557688557010550  0.5008265358541948  0.3160543218953578   F   F   F
  0.2097530576124104  0.1120341856492672  0.5659898579870847   T   T   T
  0.2096094507737644  0.6124268326879944  0.5660315322927163   T   T   T
  0.2220369125558120  0.2494524477196868  0.5625262665933501   T   T   T
  0.2221308396423801  0.7498331564743497  0.5627352890106057   T   T   T
  0.2501677335893477  0.2512621112944339  0.3876532680904360   T   T   T
  0.2501849725999742  0.7512623847856763  0.3876772968189410   T   T   T
  0.2504721452550137  0.1254936189813977  0.3887062402405093   T   T   T
  0.2504999745052903  0.6254959364157711  0.3887235995071697   T   T   T
  0.2506886730670530  0.7509740783728773  0.1986783637654739   F   F   F
  0.2506886730670530  0.2509740783728773  0.1986783637654739   F   F   F
  0.2507303928573421  0.8760426103278647  0.2004520155719618   F   F   F
  0.2507303928573421  0.3760426103278647  0.2004520155719618   F   F   F
  0.2507787477911734  0.6260460958471867  0.2004465916827201   F   F   F
  0.2507787477911734  0.1260460958471867  0.2004465916827201   F   F   F
  0.2507842901460080  0.0010521164550710  0.1987081864626035   F   F   F
  0.2507842901460080  0.5010521164550710  0.1987081864626035   F   F   F
  0.2509313136253455  0.8755877963492564  0.3887595534056599   T   T   T
  0.2509620088379353  0.3756137168737537  0.3887872563140367   T   T   T
  0.2511238341346003  0.0013582572266491  0.3880343362200273   T   T   T
  0.2512041971096307  0.5013031492626464  0.3880990562301821   T   T   T
  0.2809165049446418  0.5007548895422841  0.5647020952967666   T   T   T
  0.2817380550650467  0.0000245510043007  0.5648945469424753   T   T   T
  0.2856839177425956  0.3657833077962397  0.5636739878530570   T   T   T
  0.2889814788125617  0.8651589892567573  0.5650354603107826   T   T   T
  0.3451805119564922  0.2520216748499772  0.4856352350848265   T   T   T
  0.3451677120763263  0.7519182551211407  0.4858844738464909   T   T   T
  0.3457709857389588  0.7509801434034244  0.3160634932646005   F   F   F
  0.3457709857389588  0.2509801434034244  0.3160634932646005   F   F   F
  0.3458124879654534  0.8762438730036024  0.3160546332285037   F   F   F
  0.3458124879654534  0.3762438730036024  0.3160546332285037   F   F   F
  0.3458692307014104  0.0011300682609701  0.3160825482309733   F   F   F
  0.3458692307014104  0.5011300682609701  0.3160825482309733   F   F   F
  0.3458914509224655  0.6260993829100983  0.3163092197569100   F   F   F
  0.3458914509224655  0.1260993829100983  0.3163092197569100   F   F   F
  0.3476209759669011  0.1268297774157389  0.4879413859360865   T   T   T
  0.3476324803988506  0.6266716545218645  0.4881359776806053   T   T   T
  0.3523847747252529  0.9970546462025281  0.4878078163358261   T   T   T
  0.3523730520328816  0.4971650046151878  0.4878701665187293   T   T   T
  0.3531041162187801  0.8785382849268266  0.4868135472890508   T   T   T
  0.3532238858070019  0.3782910547171034  0.4865351689401309   T   T   T
  0.3882513619860437  0.2536157587625079  0.5652905395072045   T   T   T
  0.3889755324603725  0.7535872094560868  0.5654281809251462   T   T   T
  0.4008394277551486  0.2516901401862233  0.4025054238096826   T   T   T
  0.4008143592561690  0.7516600967949586  0.4025813889556752   T   T   T
  0.4013125232885822  0.1260083410268304  0.4029646963391786   T   T   T
  0.4014070005579393  0.6259831328238770  0.4030559130765911   T   T   T
  0.4018595427846920  0.0016314499886415  0.4022574333256762   T   T   T
  0.4020201285726729  0.5016553017489157  0.4022955524504380   T   T   T
  0.4020657974197794  0.8758138952119908  0.4021342716922758   T   T   T
  0.4021688270290664  0.3757989413059805  0.4020285553079276   T   T   T
  0.4059113337573805  0.8760558925948985  0.2324750129594619   F   F   F
  0.4059113337573805  0.3760558925948985  0.2324750129594619   F   F   F
  0.4059234726022964  0.6261621252550071  0.2326545521246786   F   F   F
  0.4059234726022964  0.1261621252550071  0.2326545521246786   F   F   F
  0.4060644417929637  0.7510364413590125  0.2325227387887452   F   F   F
  0.4060644417929637  0.2510364413590125  0.2325227387887452   F   F   F
  0.4061374416245584  0.0011248655651599  0.2324172293308493   F   F   F
  0.4061374416245584  0.5011248655651599  0.2324172293308493   F   F   F
  0.4161246590141994  0.6144273245644017  0.5729455176136933   T   T   T
  0.4163329835545051  0.1137451306465809  0.5726611127371066   T   T   T
  0.4230541782762539  0.4965804290238970  0.5736033910703761   T   T   T
  0.4253152088043777  0.9950113164752427  0.5721838223087168   T   T   T
  0.4322523511820757  0.3860408991951029  0.5763566139233706   T   T   T
  0.4357499449879728  0.8882757458712630  0.5750769035839796   T   T   T
  0.4984609562157586  0.7519112865600958  0.4734945961351080   T   T   T
  0.4984742689787377  0.2517647524408037  0.4734478403671222   T   T   T
  0.5004630585837617  0.7510598909550410  0.3031888444713573   F   F   F
  0.5004630585837617  0.2510598909550410  0.3031888444713573   F   F   F
  0.5004977600090044  0.6261199205207575  0.3031516629609641   F   F   F
  0.5004977600090044  0.1261199205207575  0.3031516629609641   F   F   F
  0.5005209432535551  0.8761149809355189  0.3028206587442455   F   F   F
  0.5005209432535551  0.3761149809355189  0.3028206587442455   F   F   F
  0.5006083602757840  0.0011215981985515  0.3028334437431965   F   F   F
  0.5006083602757840  0.5011215981985515  0.3028334437431965   F   F   F
  0.5015073131370356  0.1272253527207707  0.4740373231634547   T   T   T
  0.5015781697964516  0.6272454600199757  0.4742104192503898   T   T   T
  0.5024611948905208  0.3769124904193362  0.4727860719429707   T   T   T
  0.5025246893225781  0.8770038920675306  0.4728399457491874   T   T   T
  0.5029081881983984  0.0017727630008873  0.4726593963293889   T   T   T
  0.5030256095305278  0.5016179266661541  0.4729149698418104   T   T   T
  0.0040482139052492  0.4971221959011783  0.5404613840736957   T   T   T
  0.0042704296527104  0.9973545461109864  0.5406367721274854   T   T   T
  0.6254531537409123  0.3006598612805581  0.5460829377926868   T   T   T
  0.6264634390918355  0.0681202866435586  0.5396925221934067   T   T   T
  0.6264210273064686  0.8002177123916636  0.5464118914518523   T   T   T
  0.6275389876604555  0.5681272690621429  0.5390547029481886   T   T   T
  0.6992282279582220  0.1886063162061725  0.5383023463038964   T   T   T
  0.6993812783794716  0.6880647714687270  0.5381039460658492   T   T   T
  0.8067814322865273  0.0662177376998045  0.5373788606071667   T   T   T
  0.8070322143962122  0.5665670998389988  0.5371329443705040   T   T   T
  0.8462174207138458  0.9369034848150932  0.5366742177949090   T   T   T
  0.8469641452133480  0.4367926357102334  0.5365823267809464   T   T   T
  0.8735515551662114  0.1767630329206853  0.5420785755557874   T   T   T
  0.8742446390942471  0.6772018741172298  0.5420158294232164   T   T   T
  0.9962053874036196  0.2538730998537774  0.5394270064596658   T   T   T
  0.9961742178088707  0.1156619872751262  0.5395622531477517   T   T   T
  0.9962479314367584  0.7539317107161737  0.5394143009856464   T   T   T
  0.9962420099161678  0.6157091340069275  0.5393601041756654   T   T   T
  0.1207519696241890  0.9284867571547484  0.5430970327691491   T   T   T
  0.1210090645498629  0.4284199621319809  0.5428852046473103   T   T   T
  0.1409611488526751  0.8026114949346635  0.5412287855579998   T   T   T
  0.1408984247249339  0.3023748304661603  0.5412217187107028   T   T   T
  0.2014423301814408  0.5412692531222658  0.5428056338454190   T   T   T
  0.2024524330185566  0.0406474191536747  0.5428211698119783   T   T   T
  0.2975984690066905  0.2948315911511715  0.5403547915650180   T   T   T
  0.2983892813586119  0.7947423680194908  0.5409514396945645   T   T   T
  0.3616632701824112  0.5553129651246255  0.5417254173582335   T   T   T
  0.3621787335659956  0.0542856410840748  0.5416118695080830   T   T   T
  0.3763356155743237  0.1791133428005182  0.5417768708404196   T   T   T
  0.3766695973006731  0.6795178045712122  0.5418074704114196   T   T   T
  0.4872265820530159  0.2524504832436395  0.5416474747282193   T   T   T
  0.4879388440274421  0.7522569652199960  0.5417368457008919   T   T   T
  0.5090539505521797  0.4983989076689506  0.5401394775637161   T   T   T
  0.5092730427752731  0.9983425035658530  0.5399562454777121   T   T   T
  0.5100736653869244  0.3825972625690007  0.5402186209498960   T   T   T
  0.5117079397530344  0.8827834141696985  0.5403267561264911   T   T   T
  0.0003744154170764  0.1255898197109174  0.3691442222090607   T   T   T
  0.0004362736314603  0.2508906814612247  0.3690085739996841   T   T   T
  0.0004114739790232  0.6255850233209121  0.3691244210254004   T   T   T
  0.0004212419682187  0.7508909498248392  0.3689982154608294   T   T   T
  0.0010343750342656  0.7509675273691911  0.1970340395507222   F   F   F
  0.0010343750342656  0.2509675273691911  0.1970340395507222   F   F   F
  0.0013074606674977  0.0009931951008113  0.1970949867046485   F   F   F
  0.0013074606674977  0.5009931951008113  0.1970949867046485   F   F   F
  0.0014056432322107  0.6258753569951239  0.1970772590869743   F   F   F
  0.0014056432322107  0.1258753569951239  0.1970772590869743   F   F   F
  0.0017433887234053  0.3758032112911532  0.3694199218394920   T   T   T
  0.0016913988824977  0.8758147573598074  0.3694296141659463   T   T   T
  0.0016300205284878  0.8760244032474702  0.1970602374639512   F   F   F
  0.0016300205284878  0.3760244032474702  0.1970602374639512   F   F   F
  0.0018917990631430  0.0006279269658136  0.3696133556593799   T   T   T
  0.0019444385936403  0.5006269754490240  0.3695882435558551   T   T   T
  0.5828489970288615  0.8134981673875430  0.2835797008416634   F   F   F
  0.5828489970288615  0.3134981673875430  0.2835797008416634   F   F   F
  0.5829043521053947  0.6885407361734863  0.2836251512160501   F   F   F
  0.5829043521053947  0.1885407361734863  0.2836251512160501   F   F   F
  0.5829602019462925  0.4385545752758304  0.2833243807611936   F   F   F
  0.5829602019462925  0.9385545752758304  0.2833243807611936   F   F   F
  0.5830265959005345  0.5635893986773652  0.2835447360626375   F   F   F
  0.5830265959005345  0.0635893986773652  0.2835447360626375   F   F   F
  0.5843441096435276  0.1891049115024844  0.4536258601348892   T   T   T
  0.5843821540739049  0.6893122929902156  0.4537486403227843   T   T   T
  0.5844759015208492  0.8145758151697878  0.4552509542749711   T   T   T
  0.5844868594798472  0.3143980434807514  0.4553069061574740   T   T   T
  0.5856693442348172  0.9390903632611320  0.4525902415925278   T   T   T
  0.5857473594509216  0.4389427325546573  0.4528296680617561   T   T   T
  0.5865059660876845  0.0633116708629374  0.4534536334583156   T   T   T
  0.5865929658118106  0.5633436216684274  0.4535822724234784   T   T   T
  0.6662453414939336  0.5635923628994988  0.2021068355520654   F   F   F
  0.6662453414939336  0.0635923628994988  0.2021068355520654   F   F   F
  0.6663404610475681  0.8134949072998268  0.2022484366903115   F   F   F
  0.6663404610475681  0.3134949072998268  0.2022484366903115   F   F   F
  0.6663750951053373  0.6883939277525641  0.2022233082671292   F   F   F
  0.6663750951053373  0.1883939277525641  0.2022233082671292   F   F   F
  0.6663864277493872  0.4383644600106251  0.2021335334354930   F   F   F
  0.6663864277493872  0.9383644600106251  0.2021335334354930   F   F   F
  0.6681389660560669  0.8135722996886310  0.3678985875112770   T   T   T
  0.6681664031433219  0.3135597585553210  0.3679211499562172   T   T   T
  0.6681911271398113  0.6887176254558189  0.3677043929681858   T   T   T
  0.6682432922853244  0.1886924055422670  0.3676889056879591   T   T   T
  0.6687401437845356  0.9385916121688945  0.3669771673175860   T   T   T
  0.6687852026095196  0.0637187633476528  0.3675339004636420   T   T   T
  0.6687409888269543  0.5637110029060505  0.3675643162919463   T   T   T
  0.6687711561985242  0.4385727593703986  0.3670979838693481   T   T   T
  0.6759135168568091  0.9358965522997763  0.5401861994085451   T   T   T
  0.6785968172629098  0.4364028462492168  0.5395277423531738   T   T   T
  0.7475112596389202  0.2521943073911662  0.4552777495807679   T   T   T
  0.7476041384363582  0.7521996609653543  0.4552446568570344   T   T   T
  0.7502002376308168  0.1258992243717987  0.4549482462121642   T   T   T
  0.7501730562611186  0.7507079098083409  0.2774330469442816   F   F   F
  0.7501730562611186  0.2507079098083409  0.2774330469442816   F   F   F
  0.7502913015649871  0.6260694176177944  0.4548202903289084   T   T   T
  0.7504750055418299  0.6259680682551618  0.2773981497465243   F   F   F
  0.7504750055418299  0.1259680682551618  0.2773981497465243   F   F   F
  0.7505173338481086  0.8759365097582545  0.2770578193141517   F   F   F
  0.7505173338481086  0.3759365097582545  0.2770578193141517   F   F   F
  0.7507337004896470  0.0010587017123740  0.2774432067716575   F   F   F
  0.7507337004896470  0.5010587017123740  0.2774432067716575   F   F   F
  0.7513422557935471  0.3755623845836715  0.4536221583064865   T   T   T
  0.7514523576037383  0.8755409279043468  0.4535854430550129   T   T   T
  0.7537734150986656  0.0007413457622883  0.4546628894806911   T   T   T
  0.7538077255027871  0.5004993569366232  0.4546279564051222   T   T   T
  0.0812541157415278  0.1876634453444676  0.4526630801004998   T   T   T
  0.0812688518117016  0.6877048495879048  0.4526429303729687   T   T   T
  0.8263905613323282  0.8147589739235551  0.5406104432366702   T   T   T
  0.8270197540356221  0.3142559591845446  0.5405203047163250   T   T   T
  0.8323451599774409  0.3133201743056735  0.3669531738486064   T   T   T
  0.8323779790446937  0.1882617164123627  0.3671246970184279   T   T   T
  0.8323363683142292  0.8133471372640492  0.3669920979905501   T   T   T
  0.8323801266692301  0.6882773392541692  0.3671113651043751   T   T   T
  0.8328997171036694  0.0633262995977883  0.3673843249159855   T   T   T
  0.8329332174829002  0.5633402036476364  0.3673010755211763   T   T   T
  0.8333264491864505  0.9383492381266139  0.3671571907028481   T   T   T
  0.8333179848527450  0.4383334929610098  0.3671565823543506   T   T   T
  0.8344344719226058  0.6883603527882158  0.2020465356692611   F   F   F
  0.8344344719226058  0.1883603527882158  0.2020465356692611   F   F   F
  0.8344691253071090  0.4383027932291981  0.2021423465583752   F   F   F
  0.8344691253071090  0.9383027932291981  0.2021423465583752   F   F   F
  0.8345236995836203  0.8136019065986346  0.2020593032807980   F   F   F
  0.8345236995836203  0.3136019065986346  0.2020593032807980   F   F   F
  0.8345432068835521  0.5635442939465207  0.2020614199525141   F   F   F
  0.8345432068835521  0.0635442939465207  0.2020614199525141   F   F   F
  0.0835181835032017  0.8134609632527869  0.2839000862688721   F   F   F
  0.0835181835032017  0.3134609632527869  0.2839000862688721   F   F   F
  0.0836480050342630  0.5633752300961916  0.2839758639034855   F   F   F
  0.0836480050342630  0.0633752300961916  0.2839758639034855   F   F   F
  0.0836768758602418  0.6884091217994310  0.2837888281379435   F   F   F
  0.0836768758602418  0.1884091217994310  0.2837888281379435   F   F   F
  0.0836920180794749  0.4383888699923588  0.2841732146708722   F   F   F
  0.0836920180794749  0.9383888699923588  0.2841732146708722   F   F   F
  0.0847574597331830  0.3125250486724627  0.4546501201316201   T   T   T
  0.0848296338632611  0.8125664295209462  0.4546816570691464   T   T   T
  0.0855524713272460  0.0635321957514891  0.4553046774841425   T   T   T
  0.0855133552308507  0.5635595746966903  0.4552239612822123   T   T   T
  0.0860598515501191  0.4380981439260300  0.4550681860555213   T   T   T
  0.0861941478203261  0.9380890087785720  0.4551576735239293   T   T   T
  0.9145775977499119  0.1887259551420759  0.4537588857792947   T   T   T
  0.9145922144912046  0.6887511453052919  0.4537633287586614   T   T   T
  0.9167121047071840  0.3125180037087463  0.4518071333731257   T   T   T
  0.9167312085644714  0.8125201647285525  0.4518752148279457   T   T   T
  0.9174484861805069  0.0627305907363972  0.4530034447868884   T   T   T
  0.9173979540769438  0.5627683533870791  0.4528617989219614   T   T   T
  0.9178791013384694  0.9376157739574451  0.4534989023967169   T   T   T
  0.9179193324866641  0.4375945172291701  0.4534396039824459   T   T   T
  0.9181839152478091  0.6884040565462470  0.2831378587445599   F   F   F
  0.9181839152478091  0.1884040565462470  0.2831378587445599   F   F   F
  0.9183594213103916  0.8134327656776748  0.2832265145484243   F   F   F
  0.9183594213103916  0.3134327656776748  0.2832265145484243   F   F   F
  0.9184058656586132  0.5633566590711467  0.2833389507587185   F   F   F
  0.9184058656586132  0.0633566590711467  0.2833389507587185   F   F   F
  0.9185001265531056  0.4384185648785746  0.2832681567508857   F   F   F
  0.9185001265531056  0.9384185648785746  0.2832681567508857   F   F   F
  0.9913522850648615  0.8662671043878730  0.5418312629577642   T   T   T
  0.9917441111484188  0.3662688367129076  0.5417597507541317   T   T   T
  0.1525715321344412  0.6801786513921021  0.5438045748099134   T   T   T
  0.1530118964707856  0.1795087210927609  0.5438921366268941   T   T   T
  0.1667765378554549  0.5633392265506032  0.2026421323795375   F   F   F
  0.1667765378554549  0.0633392265506032  0.2026421323795375   F   F   F
  0.1668059973185052  0.6886073834303943  0.2025943133799615   F   F   F
  0.1668059973185052  0.1886073834303943  0.2025943133799615   F   F   F
  0.1668155121452699  0.8133424731509606  0.2025799106952988   F   F   F
  0.1668155121452699  0.3133424731509606  0.2025799106952988   F   F   F
  0.1668272738427916  0.4386259927766716  0.2026791524822329   F   F   F