Ta  N Cu                                
   1.00000000000000     
    18.1096308199999996    0.0000000000000000    0.0000000000000000
     0.0000000000000000   11.6775998899999998    0.0000000000000000
     0.0000000000000000    0.0000000000000000   23.4818170799999990
   Ta   N    Cu
   120   120     2
Direct
  0.9999615755760677  0.0000167926765126  0.2548218159233711
  0.3336211649104987  0.1250014383376261  0.2637639308622746
  0.1663547247068196  0.1250244349678343  0.2637692668777783
  0.2498509813654216  0.2499747871438296  0.3612860486493953
  0.0824958096674877  0.1250169750012719  0.3684495198992809
  0.4174285534254476  0.1249945679494969  0.3684339328877739
  0.0000318613745292  0.2500402331574074  0.4800817439373011
  0.3320686308730936  0.1249685502884432  0.4778417843158331
  0.1675707028068669  0.1250236106795856  0.4781519324056691
  0.2507287121262973  0.2500455554943881  0.5910266864675526
  0.0839333834004246  0.1250490678181203  0.5900094366802019
  0.4155922143945364  0.1246604455007384  0.5893256820578577
  0.9990300901846767  0.2499929139018933  0.7024254957767648
  0.3392016809597409  0.1242921543146756  0.7033310166652916
  0.1618284082414300  0.1248930680201615  0.7028404925587979
  0.9999636395771577  0.2499781042086535  0.2548812855853390
  0.3335580159719123  0.3749874124064227  0.2637806141997754
  0.1664313082863673  0.3749682914546129  0.2637916776342583
  0.2498850684523010  0.4999994454287149  0.3613190348846284
  0.0824742817678120  0.3749687850966765  0.3684604467867738
  0.4174380096000805  0.3750102232904828  0.3684338181260817
  0.0000471809359872  0.4999427909207330  0.4799918127183392
  0.3320363559839308  0.3751015106180969  0.4778790273235114
  0.1675828112163024  0.3750257943002226  0.4781966492192458
  0.2501976303393231  0.4998749917142881  0.5910284709909418
  0.0839921433527956  0.3751079383267467  0.5901735872022426
  0.4155970757690997  0.3756341767823348  0.5894017299085663
  0.9995276200815636  0.4998884328477531  0.7023794016635477
  0.3369266840435177  0.3774475285512024  0.7053765939570404
  0.1642335226414944  0.3765329824125216  0.7049505864353820
  0.9999745560758040  0.4999529611745263  0.2547915441471276
  0.3333798082664295  0.6249749744754453  0.2638208130167942
  0.1665873711136003  0.6249372688189968  0.2638133988447225
  0.2499194714834714  0.7499887563142277  0.3613210474432632
  0.0825208440277983  0.6249651665637926  0.3684061680866875
  0.4174170874112798  0.6249986075219516  0.3683561844681972
  0.0000492228296819  0.7499993477090905  0.4799201062219963
  0.3322560507396558  0.6250801798311802  0.4780622905250068
  0.1675836843189694  0.6249723645737963  0.4781971694474215
  0.2501197552175431  0.7501562839180812  0.5909494025572783
  0.0837786455058180  0.6249480645337478  0.5900548390054232
  0.4161424989659666  0.6251915089024593  0.5898353158541091
  0.9995456355373448  0.7499860669712067  0.7022049711319952
  0.3354767154176265  0.6250409604389631  0.7045080752172679
  0.1654400700740964  0.6250945969148847  0.7041850901794540
  0.9999839677838827  0.7500404508472631  0.2547570137207658
  0.3334487384792301  0.8750260376255404  0.2638010744401460
  0.1665265037645267  0.8750702895231316  0.2638027035337147
  0.2498960125087868  0.0000111250188149  0.3612902657066883
  0.0824703319627280  0.8750190827112216  0.3684288456172236
  0.4174628082644660  0.8749911156914826  0.3683839230952012
  0.0000417455678238  0.0000004344869731  0.4800242350181896
  0.3322763964704402  0.8749425467814792  0.4780147482990733
  0.1675643782880889  0.8749623557105485  0.4781303990929699
  0.2501478798415508  0.0000166669070733  0.5906451461020252
  0.0839040370536578  0.8748698305560692  0.5900760435490749
  0.4159581993191560  0.8748063023048794  0.5899339042619234
  0.9989504731363996  0.0000780886743789  0.7023009197510596
  0.3366343478882936  0.8739311545722883  0.7050533071836025
  0.1640858239025491  0.8734125359119974  0.7047112564776787
  0.5000148493440315  0.0001142447092132  0.2548485586084112
  0.8335889279306479  0.1250323975374455  0.2638119228309284
  0.6664040435434129  0.1249967376288381  0.2637998832648450
  0.7501463382865384  0.2499847337256922  0.3613994523549495
  0.5825614349294760  0.1249919152419414  0.3684749997242909
  0.9174517879021969  0.1250159079648726  0.3685071823326282
  0.4998374049987044  0.2500611600334441  0.4799543624544328
  0.8323648561778012  0.1250109737839040  0.4782739712927687
  0.6678533079496551  0.1249371301222490  0.4779435454014650
  0.7491358408042459  0.2500037121605186  0.5913170030625298
  0.5838755131369732  0.1245749281127239  0.5892787259954911
  0.9162556941591579  0.1250315116437652  0.5901186957915845
  0.5007155130903045  0.2505305177811025  0.6956823052866524
  0.8344876903976851  0.1250222443833007  0.7042255708293562
  0.6643186361113300  0.1239415791783594  0.7042931810718650
  0.5000128465401606  0.2499733507907438  0.2549181240235789
  0.8335452816102868  0.3749325615224242  0.2638068661942754
  0.6664609749908088  0.3749802380313677  0.2638045354248853
  0.7501158100662053  0.4999739342475941  0.3613774648862705
  0.5825534177086408  0.3749969839422916  0.3684557196228481
  0.9174598490291782  0.3749742596446868  0.3684936855665673
  0.4998671414303574  0.5001589177483259  0.4797885537624660
  0.8323982631828276  0.3749675459975291  0.4782648457764872
  0.6678686186668468  0.3750424958803654  0.4779147731894848
  0.7497481064126466  0.5000155114371854  0.5909280701749667
  0.5839372354578417  0.3754819528910138  0.5891916537751982
  0.9162264539566475  0.3750088733668605  0.5900655224684154
  0.5004365558903395  0.4989659149240778  0.7012766562477637
  0.8345245060324438  0.3748881692870071  0.7042065562510645
  0.6642263456721483  0.3758039523886581  0.7044637883221834
  0.5000077709432698  0.4998263383306069  0.2548080044638131
  0.8334006642021359  0.6249609713405543  0.2638272836137300
  0.6666509795114633  0.6249715050533234  0.2638411040767533
  0.7500819999029422  0.7500140837806081  0.3613853113252140
  0.5825384366944178  0.6250002362612579  0.3683758382634889
  0.9174713308231903  0.6249717076867783  0.3684403518344944
  0.4998795155337252  0.7500382345234827  0.4798213673315288
  0.8324199394410242  0.6249885171042502  0.4782084470839967
  0.6676622186314992  0.6250531100909414  0.4780288184907716
  0.7497955490852534  0.7499661017251810  0.5908490379928136
  0.5835358857762839  0.6251528969541978  0.5896820255867110
  0.9163528581687602  0.6249264310843510  0.5899622910913722
  0.5003023387554527  0.7501700762939765  0.7020131246960710
  0.8347495469766808  0.6251043257385444  0.7040062964218636
  0.6643077760380304  0.6248965976786903  0.7043219839389563
  0.5000110235833499  0.7500533041138187  0.2547622812970399
  0.8334617059733687  0.8750715902114663  0.2638171016848447
  0.6665645528004858  0.8750452903934266  0.2638174355497024
  0.7501025478010762  0.9999972497372906  0.3614064056079819
  0.5825415412714795  0.8749910698191947  0.3684057641445142
  0.9174707041708774  0.8750092269011639  0.3684680773160844
  0.4998344526390698  0.9997945826869549  0.4798518985364081
  0.8324056885406703  0.8749836998650995  0.4782069813437788
  0.6676612529478653  0.8749494749979961  0.4780398914789152
  0.7497258809412877  0.9999408758052793  0.5909658994571184
  0.5835195870359068  0.8748225350024256  0.5897287572817744
  0.9163270228093208  0.8749676210162227  0.5899738867402391
  0.5008442904361059  0.0015402135308760  0.7013795859646328
  0.8347049616951266  0.8750331851773501  0.7039699480833499
  0.6642612858716433  0.8753267010363477  0.7042905289935761
  0.4068458368130163 -0.0000000753284516  0.3011940021564211
  0.2500133099306350  0.0001101716534911  0.2578500893370370
  0.0931034951010835  0.0000337087940305  0.3012086918036584
  0.1543646775161090  0.2500522120758986  0.4099977977969059
  0.9999903625554096  0.2499938310658467  0.3933272044676792
  0.3453535977608438  0.2500699272888987  0.4097822061855875
  0.4000920763972029  0.2501096186161648  0.5215318647005118
  0.2498805958538023  0.2500340539330193  0.5028241947452872
  0.0991284770529052  0.2500881156774225  0.5222223687177571
  0.1527756609705428  0.2510588784517047  0.6336972466565398
  0.0000482090491258  0.2500750772728733  0.6137469016387113
  0.3490611373032109  0.2511254962468449  0.6347365198156898
  0.4087762827556528  0.2500363870430611  0.7436745743745046
  0.2514213626936941  0.2475458165420721  0.7298566258354647
  0.0962007952639974  0.2504141543847421  0.7405721133131937
  0.4068120253576104  0.2499846695826613  0.3012359757613786
  0.2500292165448187  0.2499520093171622  0.2579789765541556
  0.0931313325556479  0.2499922868184957  0.3012309485516435
  0.1543874898588076  0.5000237174794444  0.4099936117906322
  0.0000025418905735  0.5000109857539423  0.3932416717191794
  0.3454346543824703  0.5001031656010814  0.4098386274931214
  0.4005916144501235  0.5003327387693497  0.5218687398914483
  0.2498712915165835  0.5001149733010437  0.5028816719565903
  0.0990556110985274  0.4999154814103774  0.5222718924097377
  0.1522380170369420  0.5000723365993409  0.6335894100175521
  0.0000568341089470  0.4998277729827448  0.6136906081818521
  0.3482494247802460  0.5001946261704600  0.6337862277578327
  0.4038846846844928  0.4996683109117684  0.7410601715478358
  0.2507898131721252  0.4987787325256485  0.7248150571378077
  0.0970294073027669  0.5000902330421815  0.7404414342248213
  0.4068550721624619  0.4999717516887284  0.3011747819944567
  0.2500088558505710  0.4998922463375627  0.2576373092555334
  0.0931012615829288  0.4999388283204599  0.3011987728542797
  0.1543964512675523  0.7499483106733481  0.4099626323864207
  0.0000068371040692  0.7499568241870223  0.3931953398334777
  0.3454761002562437  0.7499691491434133  0.4098602150916518
  0.4007491948711591  0.7500667565068393  0.5220488646218885
  0.2499073519963198  0.7499331418963711  0.5028463865769318
  0.0990621298377823  0.7499906641640297  0.5222340210980096
  0.1521304117826551  0.7499009816367118  0.6335198227683777
  0.0000566992442415  0.7499656331803806  0.6135332448213637
  0.3481555861509283  0.7499584969955776  0.6336101131800989
  0.4033827337738765  0.7501050494180422  0.7407967523224629
  0.2504406311892466  0.7505272956600398  0.7248296604599561
  0.0969001208473498  0.7498856434932361  0.7403787855101317
  0.4068819635855611  0.7500267053141323  0.3011410180231189
  0.2499748296367881  0.7500330380064070  0.2575615488104676
  0.0931061951487385  0.7500174520502052  0.3011775204131264
  0.1543754100159631  0.9999450612814533  0.4099459584389595
  0.9999919497064229  0.0000125597520868  0.3932782133741478
  0.3454623163207688  0.9998825762281025  0.4098063400893769
  0.4004817578061007  0.9996713782632463  0.5218492997999006
  0.2498760866624559  0.9999433228536601  0.5025922037660390
  0.0991297592464939  0.9999821073067361  0.5221753446043556
  0.1524161992924966  0.9989479338643108  0.6335946983810866
  0.0000581463452039  0.0000796898547101  0.6135923441107088
  0.3478969480925558  0.9990399703050467  0.6339380645414582
  0.4046247097649842  0.0003008000973207  0.7412240075149493
  0.2505381482142199  0.0030695187639152  0.7289693302982276
  0.0960746993480922  0.9996410645699166  0.7404348324668193
  0.9068547124250185  0.0000338034867980  0.3012560180970620
  0.7499842671959221  0.0000932087457212  0.2577912026339145
  0.5931524278510123  0.0000044849574265  0.3012241327834005
  0.6546187045248597  0.2500082836977030  0.4098311224225226
  0.4999700623615541  0.2500084785551411  0.3933194939888114
  0.8456074267227268  0.2500146840832940  0.4100875258136620
  0.9009679017029271  0.2499773971148183  0.5222573656329077
  0.7500301050419300  0.2500080154405225  0.5030384673425632
  0.5995552343519281  0.2499995000575558  0.5214471686563409
  0.6502342142488088  0.2501439189672063  0.6343200630265897
  0.4997532546694897  0.2501147082947321  0.6084264883423437
  0.8475254980469124  0.2500859832230289  0.6334241898350452
  0.9024273286279050  0.2500138901864812  0.7407002694948916
  0.7487637295583068  0.2500787210363780  0.7248646822458622
  0.5929794912131718  0.2493487785794386  0.7436222409185760
  0.9068312334994084  0.2499852907211853  0.3012778629457071
  0.7499543276441520  0.2499664124180874  0.2578948157260201
  0.5931843820846654  0.2499837105022074  0.3012677206650367
  0.6545322927302053  0.5000555597968276  0.4098230942163789
  0.4999651563493276  0.5000687014238896  0.3931312541246949
  0.8456084833814859  0.4999867436962500  0.4100141751537976
  0.9010171043692391  0.4999065537396268  0.5221926490650982
  0.7500671857973344  0.5000391509118756  0.5028036155672855
  0.5991766890398807  0.5003571101643163  0.5217266745037656
  0.6514585960759244  0.5002505434828571  0.6333669533748553
  0.4998670281982375  0.5006110592311496  0.6125118612791147
  0.8479015625389701  0.5000880099535664  0.6332738782050013
  0.9027792152278782  0.5000443215772169  0.7403374962627635
  0.7491383622225780  0.4993048176996049  0.7239479885116449
  0.5963040122972454  0.4993529328495256  0.7408752732372681
  0.9068715446695504  0.4999587601092416  0.3012239127525489
  0.7500020059146413  0.4998945689088611  0.2576105233761119
  0.5931378152273549  0.4999835060761942  0.3011892081631709
  0.6544924822422657  0.7499912746133854  0.4098510680247123
  0.4999699767954586  0.7499648348186609  0.3931140406176024
  0.8456057191241920  0.7499724413655858  0.4099814729676461
  0.9010295164454719  0.7499758620291367  0.5221467683268300
  0.7500435986352088  0.7499974135727919  0.5027779435672401
  0.5990336498695911  0.7500110238376517  0.5219169472057043
  0.6515209607543719  0.7498734442662294  0.6332100352944986
  0.4998401505980588  0.7500286257449146  0.6132122148088517
  0.8480061018000891  0.7498730189825243  0.6332048511290903
  0.9029092522430812  0.7499658737682711  0.7402473240959593
  0.7494270049110882  0.7499295340282346  0.7240267411157262
  0.5965399396155643  0.7500178528821888  0.7406251358633599
  0.9068884060594434  0.7500081582060635  0.3011996286445918
  0.7500220261876825  0.7500406527009528  0.2575272192008554
  0.5931225855714242  0.7500076019616031  0.3011581145258421
  0.6545128453958201  0.9999242312148514  0.4098544013476970
  0.4999704612347668  0.9999458221639068  0.3931938430092662
  0.8456049455085433  0.9999829057402749  0.4100313618443435
  0.9009810925619777  0.0000830431516564  0.5222080182925615
  0.7500522863411284  0.9999229045794070  0.5028164761153880
  0.5991666248989085  0.9996504945447487  0.5217719780462725
  0.6514002550931400  0.9996465657980260  0.6334377912580599
  0.4997905374251857  0.9994983288875124  0.6126218835981267
  0.8479159609127374  0.9998953757711326  0.6333205643810658
  0.9024125661211309  0.9999877659154300  0.7405759407440250
  0.7492246222529916  0.0006098001775311  0.7239772711435855
  0.5966787271216722  0.0007330986351868  0.7411885891996577
  0.2498689876433692  0.1251768607812349  0.7923896496311091
  0.5039612348440757  0.2411793847804870  0.7987673483799859
 
  0.00000000E+00  0.00000000E+00  0.00000000E+00
  0.00000000E+00  0.00000000E+00  0.00000000E+00
  0.00000000E+00  0.00000000E+00  0.00000000E+00
  0.00000000E+00  0.00000000E+00  0.00000000E+00
  0.00000000E+00  0.00000000E+00  0.00000000E+00
  0.00000000E+00  0.00000000E+00  0.00000000E+00
  0.00000000E+00  0.00000000E+00  0.00000000E+00
  0.00000000E+00  0.00000000E+00  0.00000000E+00
  0.00000000E+00  0.00000000E+00  0.00000000E+00
  0.00000000E+00  0.00000000E+00  0.00000000E+00
  0.00000000E+00  0.00000000E+00  0.00000000E+00
  0.00000000E+00  0.00000000E+00  0.00000000E+00
  0.00000000E+00  0.00000000E+00  0.00000000E+00
  0.00000000E+00  0.00000000E+00  0.00000000E+00
  0.00000000E+00  0.00000000E+00  0.00000000E+00
  0.00000000E+00  0.00000000E+00  0.00000000E+00
  0.00000000E+00  0.00000000E+00  0.00000000E+00
  0.00000000E+00  0.00000000E+00  0.00000000E+00
  0.00000000E+00  0.00000000E+00  0.00000000E+00
  0.00000000E+00  0.00000000E+00  0.00000000E+00
  0.00000000E+00  0.00000000E+00  0.00000000E+00
  0.00000000E+00  0.00000000E+00  0.00000000E+00
  0.00000000E+00  0.00000000E+00  0.00000000E+00
  0.00000000E+00  0.00000000E+00  0.00000000E+00
  0.00000000E+00  0.00000000E+00  0.00000000E+00
  0.00000000E+00  0.00000000E+00  0.00000000E+00
  0.00000000E+00  0.00000000E+00  0.00000000E+00
  0.00000000E+00  0.00000000E+00  0.00000000E+00
  0.00000000E+00  0.00000000E+00  0.00000000E+00
  0.00000000E+00  0.00000000E+00  0.00000000E+00
  0.00000000E+00  0.00000000E+00  0.00000000E+00
  0.00000000E+00  0.00000000E+00  0.00000000E+00
  0.00000000E+00  0.00000000E+00  0.00000000E+00
  0.00000000E+00  0.00000000E+00  0.00000000E+00
  0.00000000E+00  0.00000000E+00  0.00000000E+00
  0.00000000E+00  0.00000000E+00  0.00000000E+00
  0.00000000E+00  0.00000000E+00  0.00000000E+00
  0.00000000E+00  0.00000000E+00  0.00000000E+00
  0.00000000E+00  0.00000000E+00  0.00000000E+00
  0.00000000E+00  0.00000000E+00  0.00000000E+00
  0.00000000E+00  0.00000000E+00  0.00000000E+00
  0.00000000E+00  0.00000000E+00  0.00000000E+00
  0.00000000E+00  0.00000000E+00  0.00000000E+00
  0.00000000E+00  0.00000000E+00  0.00000000E+00
  0.00000000E+00  0.00000000E+00  0.00000000E+00
  0.00000000E+00  0.00000000E+00  0.00000000E+00
  0.00000000E+00  0.00000000E+00  0.00000000E+00
  0.00000000E+00  0.00000000E+00  0.00000000E+00
  0.00000000E+00  0.00000000E+00  0.00000000E+00
  0.00000000E+00  0.00000000E+00  0.00000000E+00
  0.00000000E+00  0.00000000E+00  0.00000000E+00
  0.00000000E+00  0.00000000E+00  0.00000000E+00
  0.00000000E+00  0.00000000E+00  0.00000000E+00
  0.00000000E+00  0.00000000E+00  0.00000000E+00
  0.00000000E+00  0.00000000E+00  0.00000000E+00
  0.00000000E+00  0.00000000E+00  0.00000000E+00
  0.00000000E+00  0.00000000E+00  0.00000000E+00
  0.00000000E+00  0.00000000E+00  0.00000000E+00
  0.00000000E+00  0.00000000E+00  0.00000000E+00
  0.00000000E+00  0.00000000E+00  0.00000000E+00
  0.00000000E+00  0.00000000E+00  0.00000000E+00
  0.00000000E+00  0.00000000E+00  0.00000000E+00
  0.00000000E+00  0.00000000E+00  0.00000000E+00
  0.00000000E+00  0.00000000E+00  0.00000000E+00
  0.00000000E+00  0.00000000E+00  0.00000000E+00
  0.00000000E+00  0.00000000E+00  0.00000000E+00
  0.00000000E+00  0.00000000E+00  0.00000000E+00
  0.00000000E+00  0.00000000E+00  0.00000000E+00
  0.00000000E+00  0.00000000E+00  0.00000000E+00
  0.00000000E+00  0.00000000E+00  0.00000000E+00
  0.00000000E+00  0.00000000E+00  0.00000000E+00
  0.00000000E+00  0.00000000E+00  0.00000000E+00
  0.00000000E+00  0.00000000E+00  0.00000000E+00
  0.00000000E+00  0.00000000E+00  0.00000000E+00
  0.00000000E+00  0.00000000E+00  0.00000000E+00
  0.00000000E+00  0.00000000E+00  0.00000000E+00
  0.00000000E+00  0.00000000E+00  0.00000000E+00
  0.00000000E+00  0.00000000E+00  0.00000000E+00
  0.00000000E+00  0.00000000E+00  0.00000000E+00
  0.00000000E+00  0.00000000E+00  0.00000000E+00
  0.00000000E+00  0.00000000E+00  0.00000000E+00
  0.00000000E+00  0.00000000E+00  0.00000000E+00
  0.00000000E+00  0.00000000E+00  0.00000000E+00
  0.00000000E+00  0.00000000E+00  0.00000000E+00
  0.00000000E+00  0.00000000E+00  0.00000000E+00
  0.00000000E+00  0.00000000E+00  0.00000000E+00
  0.00000000E+00  0.00000000E+00  0.00000000E+00
  0.00000000E+00  0.00000000E+00  0.00000000E+00
  0.00000000E+00  0.00000000E+00  0.00000000E+00
  0.00000000E+00  0.00000000E+00  0.00000000E+00
  0.00000000E+00  0.00000000E+00  0.00000000E+00
  0.00000000E+00  0.00000000E+00  0.00000000E+00
  0.00000000E+00  0.00000000E+00  0.00000000E+00
  0.00000000E+00  0.00000000E+00  0.00000000E+00
  0.00000000E+00  0.00000000E+00  0.00000000E+00
  0.00000000E+00  0.00000000E+00  0.00000000E+00
  0.00000000E+00  0.00000000E+00  0.00000000E+00
  0.00000000E+00  0.00000000E+00  0.00000000E+00
  0.00000000E+00  0.00000000E+00  0.00000000E+00
  0.00000000E+00  0.00000000E+00  0.00000000E+00
  0.00000000E+00  0.00000000E+00  0.00000000E+00
  0.00000000E+00  0.00000000E+00  0.00000000E+00
  0.00000000E+00  0.00000000E+00  0.00000000E+00
  0.00000000E+00  0.00000000E+00  0.00000000E+00
  0.00000000E+00  0.00000000E+00  0.00000000E+00
  0.00000000E+00  0.00000000E+00  0.00000000E+00
  0.00000000E+00  0.00000000E+00  0.00000000E+00
  0.00000000E+00  0.00000000E+00  0.00000000E+00
  0.00000000E+00  0.00000000E+00  0.00000000E+00
  0.00000000E+00  0.00000000E+00  0.00000000E+00
  0.00000000E+00  0.00000000E+00  0.00000000E+00
  0.00000000E+00  0.00000000E+00  0.00000000E+00
  0.00000000E+00  0.00000000E+00  0.00000000E+00
  0.00000000E+00  0.00000000E+00  0.00000000E+00
  0.00000000E+00  0.00000000E+00  0.00000000E+00
  0.00000000E+00  0.00000000E+00  0.00000000E+00
  0.00000000E+00  0.00000000E+00  0.00000000E+00
  0.00000000E+00  0.00000000E+00  0.00000000E+00
  0.00000000E+00  0.00000000E+00  0.00000000E+00
  0.00000000E+00  0.00000000E+00  0.00000000E+00
  0.00000000E+00  0.00000000E+00  0.00000000E+00
  0.00000000E+00  0.00000000E+00  0.00000000E+00
  0.00000000E+00  0.00000000E+00  0.00000000E+00
  0.00000000E+00  0.00000000E+00  0.00000000E+00
  0.00000000E+00  0.00000000E+00  0.00000000E+00
  0.00000000E+00  0.00000000E+00  0.00000000E+00
  0.00000000E+00  0.00000000E+00  0.00000000E+00
  0.00000000E+00  0.00000000E+00  0.00000000E+00
  0.00000000E+00  0.00000000E+00  0.00000000E+00
  0.00000000E+00  0.00000000E+00  0.00000000E+00
  0.00000000E+00  0.00000000E+00  0.00000000E+00
  0.00000000E+00  0.00000000E+00  0.00000000E+00
  0.00000000E+00  0.00000000E+00  0.00000000E+00
  0.00000000E+00  0.00000000E+00  0.00000000E+00
  0.00000000E+00  0.00000000E+00  0.00000000E+00
  0.00000000E+00  0.00000000E+00  0.00000000E+00
  0.00000000E+00  0.00000000E+00  0.00000000E+00
  0.00000000E+00  0.00000000E+00  0.00000000E+00
  0.00000000E+00  0.00000000E+00  0.00000000E+00
  0.00000000E+00  0.00000000E+00  0.00000000E+00
  0.00000000E+00  0.00000000E+00  0.00000000E+00
  0.00000000E+00  0.00000000E+00  0.00000000E+00
  0.00000000E+00  0.00000000E+00  0.00000000E+00
  0.00000000E+00  0.00000000E+00  0.00000000E+00
  0.00000000E+00  0.00000000E+00  0.00000000E+00
  0.00000000E+00  0.00000000E+00  0.00000000E+00
  0.00000000E+00  0.00000000E+00  0.00000000E+00
  0.00000000E+00  0.00000000E+00  0.00000000E+00
  0.00000000E+00  0.00000000E+00  0.00000000E+00
  0.00000000E+00  0.00000000E+00  0.00000000E+00
  0.00000000E+00  0.00000000E+00  0.00000000E+00
  0.00000000E+00  0.00000000E+00  0.00000000E+00
  0.00000000E+00  0.00000000E+00  0.00000000E+00
  0.00000000E+00  0.00000000E+00  0.00000000E+00
  0.00000000E+00  0.00000000E+00  0.00000000E+00
  0.00000000E+00  0.00000000E+00  0.00000000E+00
  0.00000000E+00  0.00000000E+00  0.00000000E+00
  0.00000000E+00  0.00000000E+00  0.00000000E+00
  0.00000000E+00  0.00000000E+00  0.00000000E+00
  0.00000000E+00  0.00000000E+00  0.00000000E+00
  0.00000000E+00  0.00000000E+00  0.00000000E+00
  0.00000000E+00  0.00000000E+00  0.00000000E+00
  0.00000000E+00  0.00000000E+00  0.00000000E+00
  0.00000000E+00  0.00000000E+00  0.00000000E+00
  0.00000000E+00  0.00000000E+00  0.00000000E+00
  0.00000000E+00  0.00000000E+00  0.00000000E+00
  0.00000000E+00  0.00000000E+00  0.00000000E+00
  0.00000000E+00  0.00000000E+00  0.00000000E+00
  0.00000000E+00  0.00000000E+00  0.00000000E+00
  0.00000000E+00  0.00000000E+00  0.00000000E+00
  0.00000000E+00  0.00000000E+00  0.00000000E+00
  0.00000000E+00  0.00000000E+00  0.00000000E+00
  0.00000000E+00  0.00000000E+00  0.00000000E+00
  0.00000000E+00  0.00000000E+00  0.00000000E+00
  0.00000000E+00  0.00000000E+00  0.00000000E+00
  0.00000000E+00  0.00000000E+00  0.00000000E+00
  0.00000000E+00  0.00000000E+00  0.00000000E+00
  0.00000000E+00  0.00000000E+00  0.00000000E+00
  0.00000000E+00  0.00000000E+00  0.00000000E+00
  0.00000000E+00  0.00000000E+00  0.00000000E+00
  0.00000000E+00  0.00000000E+00  0.00000000E+00
  0.00000000E+00  0.00000000E+00  0.00000000E+00
  0.00000000E+00  0.00000000E+00  0.00000000E+00
  0.00000000E+00  0.00000000E+00  0.00000000E+00
  0.00000000E+00  0.00000000E+00  0.00000000E+00
  0.00000000E+00  0.00000000E+00  0.00000000E+00
  0.00000000E+00  0.00000000E+00  0.00000000E+00
  0.00000000E+00  0.00000000E+00  0.00000000E+00
  0.00000000E+00  0.00000000E+00  0.00000000E+00
  0.00000000E+00  0.00000000E+00  0.00000000E+00
  0.00000000E+00  0.00000000E+00  0.00000000E+00
  0.00000000E+00  0.00000000E+00  0.00000000E+00
  0.00000000E+00  0.00000000E+00  0.00000000E+00
  0.00000000E+00  0.00000000E+00  0.00000000E+00
  0.00000000E+00  0.00000000E+00  0.00000000E+00
  0.00000000E+00  0.00000000E+00  0.00000000E+00
  0.00000000E+00  0.00000000E+00  0.00000000E+00
  0.00000000E+00  0.00000000E+00  0.00000000E+00
  0.00000000E+00  0.00000000E+00  0.00000000E+00
  0.00000000E+00  0.00000000E+00  0.00000000E+00
  0.00000000E+00  0.00000000E+00  0.00000000E+00
  0.00000000E+00  0.00000000E+00  0.00000000E+00
  0.00000000E+00  0.00000000E+00  0.00000000E+00
  0.00000000E+00  0.00000000E+00  0.00000000E+00
  0.00000000E+00  0.00000000E+00  0.00000000E+00
  0.00000000E+00  0.00000000E+00  0.00000000E+00
  0.00000000E+00  0.00000000E+00  0.00000000E+00
  0.00000000E+00  0.00000000E+00  0.00000000E+00
  0.00000000E+00  0.00000000E+00  0.00000000E+00
  0.00000000E+00  0.00000000E+00  0.00000000E+00
  0.00000000E+00  0.00000000E+00  0.00000000E+00
  0.00000000E+00  0.00000000E+00  0.00000000E+00
  0.00000000E+00  0.00000000E+00  0.00000000E+00
  0.00000000E+00  0.00000000E+00  0.00000000E+00
  0.00000000E+00  0.00000000E+00  0.00000000E+00
  0.00000000E+00  0.00000000E+00  0.00000000E+00
  0.00000000E+00  0.00000000E+00  0.00000000E+00
  0.00000000E+00  0.00000000E+00  0.00000000E+00
  0.00000000E+00  0.00000000E+00  0.00000000E+00
  0.00000000E+00  0.00000000E+00  0.00000000E+00
  0.00000000E+00  0.00000000E+00  0.00000000E+00
  0.00000000E+00  0.00000000E+00  0.00000000E+00
  0.00000000E+00  0.00000000E+00  0.00000000E+00
  0.00000000E+00  0.00000000E+00  0.00000000E+00
  0.00000000E+00  0.00000000E+00  0.00000000E+00
  0.00000000E+00  0.00000000E+00  0.00000000E+00
  0.00000000E+00  0.00000000E+00  0.00000000E+00
  0.00000000E+00  0.00000000E+00  0.00000000E+00
  0.00000000E+00  0.00000000E+00  0.00000000E+00
  0.00000000E+00  0.00000000E+00  0.00000000E+00
  0.00000000E+00  0.00000000E+00  0.00000000E+00
  0.00000000E+00  0.00000000E+00  0.00000000E+00
  0.00000000E+00  0.00000000E+00  0.00000000E+00
  0.00000000E+00  0.00000000E+00  0.00000000E+00
  0.00000000E+00  0.00000000E+00  0.00000000E+00
  0.00000000E+00  0.00000000E+00  0.00000000E+00
  0.00000000E+00  0.00000000E+00  0.00000000E+00
  0.00000000E+00  0.00000000E+00  0.00000000E+00
  0.00000000E+00  0.00000000E+00  0.00000000E+00
  0.00000000E+00  0.00000000E+00  0.00000000E+00
  0.00000000E+00  0.00000000E+00  0.00000000E+00
  0.00000000E+00  0.00000000E+00  0.00000000E+00
