Ta N Cu Ru                              
   1.00000000000000     
    18.1096308199999996    0.0000000000000000    0.0000000000000000
     0.0000000000000000   11.6775998899999998    0.0000000000000000
     0.0000000000000000    0.0000000000000000   23.4818170799999990
   Ta   N    Cu   Ru
   119   120     2     1
Direct
  0.0000350995441169 -0.0005947493895461  0.2549676748826429
  0.3334278495154208  0.1244976409061629  0.2637972968441910
  0.1665873759644163  0.1244783707231726  0.2638248001143244
  0.2503188578348882  0.2495533466359271  0.3612347123602316
  0.0826822607763643  0.1246021145924237  0.3684594285381390
  0.4178007739854158  0.1245460514677355  0.3683145506451388
  0.0003088678923022  0.2495863344033499  0.4795021536718960
  0.3323590594728585  0.1245322059912091  0.4778686239490866
  0.1679129180731167  0.1244605467084306  0.4781236341406323
  0.2503410220306634  0.2495074761603762  0.5909314169935032
  0.0841663092788752  0.1251301745119297  0.5890445872755176
  0.4167471464024456  0.1244780758270953  0.5898408778171963
  0.3363038808813409  0.1246148921367255  0.7039277239466363
  0.1681570208759872  0.1256826664285537  0.7020624941619201
  0.0001146926218741  0.2496145658150457  0.2548694778341120
  0.3333469878238989  0.3746093897479552  0.2638516497315759
  0.1666800704233809  0.3746780720329123  0.2638462541229445
  0.2502097035868769  0.4995514889847052  0.3612536593508883
  0.0827072677298753  0.3746821350444048  0.3684505378523389
  0.4178131684152602  0.3744984069473375  0.3682971497910580
  0.0003185363286182  0.4995259575589486  0.4798753311946660
  0.3323517434828323  0.3745079846490104  0.4778809569164222
  0.1679632114643196  0.3746561817444308  0.4781122362306867
  0.2501021213027185  0.4989505270923291  0.5909480026229391
  0.0843199889248935  0.3737404585235096  0.5891200556498442
  0.4166419219289285  0.3745655940970699  0.5897081197503449
  0.0011579050732723  0.4920455543944114  0.7029354098873446
  0.3357747460515316  0.3743484459618814  0.7038185052432148
  0.1657004669868086  0.3752710038141229  0.7037367442633439
  0.0000341924779055  0.4999170073029582  0.2549623577440075
  0.3336602732602194  0.6245026664751143  0.2638542013748401
  0.1663805002634259  0.6246435154045261  0.2637816785287577
  0.2500774927327808  0.7495932093663399  0.3613660471575511
  0.0827790138463464  0.6247084527384521  0.3685592728570555
  0.4176925782901494  0.6245821159719062  0.3684085690430803
  0.0002988449275859  0.7495683456191041  0.4802339393577378
  0.3325834997842807  0.6245499345243395  0.4780564849236492
  0.1677648473246455  0.6246201250030863  0.4782436842190274
  0.2500151154678034  0.7496383347124304  0.5911336046235491
  0.0839261733084088  0.6243245217912164  0.5902063895116354
  0.4165474285068241  0.6245343480013100  0.5898688051046406
  0.0011295774364034  0.7487147290766596  0.7022061946678583
  0.3355748548253276  0.6243933898386568  0.7039911910943477
  0.1650041491114866  0.6243545415623171  0.7036861406720549
  0.0000841499621716  0.7496179517381116  0.2550363609897026
  0.3336490757466224  0.8745976953554661  0.2638812216872453
  0.1663526094383012  0.8745675437176521  0.2638215675881351
  0.2502010472397935 -0.0004115089181439  0.3612904312155441
  0.0827162888106197  0.8745791337855683  0.3685991452279786
  0.4176863891522415  0.8745221701107971  0.3684567796261714
  0.0002809673586103 -0.0005690661994554  0.4798747000327218
  0.3325718316137340  0.8745524179808896  0.4781699215874551
  0.1678246589694815  0.8745208626758652  0.4783392702055450
  0.2497732959085049  0.0002327680793009  0.5912495205254401
  0.0839033611408658  0.8745383905349252  0.5902341715878124
  0.4165121352531176  0.8745476805759591  0.5898547865841095
  0.9990052781132176  0.0035205123913681  0.7021001203315156
  0.3357164634999262  0.8749036991312866  0.7039648583795597
  0.1652794957955783  0.8731005565487928  0.7048074175880698
  0.5002047576468687  0.9994809927801522  0.2549958133879572
  0.8335580822543985  0.1245867398290501  0.2638453937657709
  0.6668283524384481  0.1246204513109087  0.2638052402431290
  0.7500191771405637  0.2496347834025832  0.3612302783159987
  0.5826342627370098  0.1245634012637331  0.3683945788674184
  0.9176261195072551  0.1246175769264716  0.3684601792263099
  0.5003008348743800  0.2494741300464833  0.4800213095665499
  0.8326013978352684  0.1243778369386964  0.4780062833512567
  0.6682218151521343  0.1245068275968260  0.4779129212315376
  0.7502826389923459  0.2493974434798272  0.5908147627628750
  0.5839974346431893  0.1244613344076296  0.5898688831425530
  0.9161810011711876  0.1250101388888341  0.5888312452248687
  0.5006895121769073  0.2493479490314479  0.7022134341685490
  0.8361339597412444  0.1249310805075517  0.7031656066983419
  0.6653203468167460  0.1242373155528855  0.7038972602201101
  0.5001094550274381  0.2494251640031121  0.2549302420970651
  0.8335047472815384  0.3746208503147089  0.2638819332235386
  0.6668497845460263  0.3744893917123160  0.2638329946155081
  0.7501952950414739  0.4996081958893723  0.3613789827508911
  0.5826269801794813  0.3745073713551352  0.3683761517875053
  0.9176226862720986  0.3747008675274214  0.3684955280998641
  0.5002888017437145  0.4996287999059055  0.4799010633582396
  0.8325782725949707  0.3746522572382998  0.4782386682119686
  0.6682021448792582  0.3745719466096066  0.4779840243921288
  0.7508459274065575  0.4985965719338583  0.5913044632650204
  0.5840904025760605  0.3745391573246694  0.5897485329533380
  0.9164956969516643  0.3736127633420777  0.5891879236995925
  0.5001244814831647  0.4996476148189118  0.7020745473013639
  0.8353439434242320  0.3716401069107342  0.7040845169023945
  0.6649736376494791  0.3742067705852731  0.7038352095614294
  0.5002191784840595  0.4995866180142098  0.2549515696939734
  0.8339083822185961  0.6247497982398893  0.2638516752724768
  0.6664842533970770  0.6246199321039990  0.2638381655955266
  0.7503558071171064  0.7496069546495958  0.3614505607572326
  0.5827256760848359  0.6245711571230109  0.3685100149227999
  0.9176337060315328  0.6246986345894445  0.3686758066419739
  0.5002881553076259  0.7494929073001230  0.4799089104078567
  0.8328306880741996  0.6245155234368217  0.4785047917784688
  0.6679703450218104  0.6245535103426448  0.4781305579886220
  0.7507297686989156  0.7494599111070037  0.5914256465940579
  0.5840344272047704  0.6244772071530662  0.5899032582416325
  0.9171483317197563  0.6242365634592267  0.5905144570184537
  0.5000331965070350  0.7494455974626271  0.7021307097981544
  0.8320727793850600  0.6241334750520231  0.7023774534123507
  0.6640115561085745  0.6241186043577647  0.7042123193570684
  0.5001813163478614  0.7495395111082729  0.2549599234791978
  0.8338885840043843  0.8744993149986299  0.2638607084624999
  0.6665533401009811  0.8744680055782923  0.2638712187969134
  0.7501678524893236 -0.0003942151739680  0.3613371664350305
  0.5827275401887994  0.8745282265274250  0.3685322703134065
  0.9176574974544944  0.8745467250477897  0.3686805320263293
  0.5003043417223129  0.9995102202233613  0.4799490140200836
  0.8327141998771710  0.8743437860996716  0.4784164102622345
  0.6679768732501641  0.8744413547977860  0.4782109984497194
  0.7505679827609734  0.0000281955233332  0.5910730232253639
  0.5841141925131224  0.8744524368173439  0.5898164767893463
  0.9167882564479581  0.8744874505764996  0.5903193376855849
  0.5005273874505706 -0.0004433015484053  0.7022300921253593
  0.8353875956591665  0.8758755397371027  0.7047520998988306
  0.6649013495422927  0.8744796830326597  0.7039914505642437
  0.4069418204208935 -0.0004226568673297  0.3011910767885691
  0.2500118355051136 -0.0005641735617933  0.2577389923289813
  0.0932539152912254 -0.0004848530063036  0.3013098357600661
  0.1546782099209454  0.2495910867860137  0.4098583884926228
  0.0001740709989589  0.2496706736477780  0.3929592003754173
  0.3457838498435520  0.2494782604417489  0.4099050065824237
  0.4013083561691409  0.2494845573626509  0.5219269256874044
  0.2503205940285355  0.2494175670274232  0.5027225986090075
  0.0994902981658964  0.2495135112508093  0.5217010039378389
  0.1519391421302832  0.2498630059524037  0.6334348692076763
  0.0003256021224143  0.2491951003240793  0.6123788991527320
  0.3486182814429759  0.2496673353728358  0.6332048034025832
  0.4040235741962775  0.2497529727463601  0.7403308184241434
  0.2504961222804987  0.2491275186641059  0.7243911041283435
  0.0969123304218654  0.2542267535764825  0.7410621327681781
  0.4069490981735092  0.2495004792724550  0.3011943432877299
  0.2499596789711120  0.2495190628888993  0.2576210609741275
  0.0933121451222240  0.2496024098168515  0.3011856217314579
  0.1546996121367624  0.4996001015274683  0.4099922053705254
  0.0001929397804038  0.4997085078624154  0.3932470012643509
  0.3457534873475253  0.4995287140082995  0.4099171806002920
  0.4012684455646291  0.4993686618137489  0.5219503509681579
  0.2502978050816735  0.4998294360688428  0.5028680687409649
  0.0993263190509664  0.4994923117907337  0.5221558376703227
  0.1516788250507761  0.4987585832555622  0.6333861948981597
  0.0005736846101141  0.4972088397894615  0.6142060001522587
  0.3483872070384769  0.4996384360491091  0.6331120374037961
  0.4033464455545888  0.4992922869205372  0.7402139771670266
  0.2500671995709315  0.4988448448186210  0.7239507572208523
  0.0971358586069756  0.4983449365561008  0.7406332095195273
  0.4069694250409114  0.4994846135717433  0.3011672519702602
  0.2500073713560907  0.4997669367594308  0.2575997991158679
  0.0932673466577406  0.4997350172142207  0.3012705833842433
  0.1546767108908806  0.7496634971317814  0.4101372400672434
  0.0002177647002953  0.7495899923925448  0.3934691529027056
  0.3456438261483010  0.7495885437676643  0.4099614955524301
  0.4012370974618862  0.7495404710248700  0.5220580881675589
  0.2502249488331031  0.7494966078344604  0.5029713526447778
  0.0992991948101131  0.7495837817883454  0.5223268116566595
  0.1520183258298001  0.7499712946997192  0.6336702529395385
  0.0005731664544383  0.7493991374047084  0.6136837487887594
  0.3482681420820292  0.7495133233604928  0.6331618643753516
  0.4031960720377084  0.7494059206888998  0.7403033606032076
  0.2496819624048864  0.7505403937257880  0.7239163292968318
  0.0972149232666109  0.7485780479632557  0.7409213060593814
  0.4069115648265459  0.7495707529279165  0.3012297958645618
  0.2500499271331230  0.7495890214189007  0.2582858347154514
  0.0932936289821232  0.7496360206938909  0.3014230704493302
  0.1546886491843885 -0.0004247364518738  0.4100502279956169
  0.0001803470998737 -0.0004155455830018  0.3932612557147015
  0.3457171013075528 -0.0004259160545255  0.4099710640583620
  0.4012740636791862 -0.0002621769039504  0.5219905961102341
  0.2502194299201547 -0.0005244401756732  0.5030874008727343
  0.0992548284890887 -0.0006527747661658  0.5222200062850920
  0.1510647976742042 -0.0002028371851643  0.6341457980518169
  0.0001408213689392  0.0013042535179738  0.6137106700621577
  0.3483639996304741  0.9993670518132363  0.6331322925397008
  0.4037675085598146 -0.0003610591618359  0.7403834614727735
  0.2503468521314034  0.0002087712585968  0.7242664911722964
  0.0960826370345371  0.0001683147116743  0.7433315619283692
  0.9068812947919799  0.9994482124669029  0.3013862442154723
  0.7501833480824939  0.9993652858384595  0.2579878535615153
  0.5934164136970360 -0.0004379355694727  0.3012733258659542
  0.6546058306610396  0.2495767218125354  0.4099415232873094
  0.5001967105282628  0.2495503546845264  0.3932305576205899
  0.8456839831450004  0.2496789408221345  0.4098716725588265
  0.9011069023891869  0.2495991995542508  0.5216513332383926
  0.7502046500586554  0.2494630214462243  0.5026505721293063
  0.5993185254564825  0.2494963345753820  0.5219862999042166
  0.6522826525503005  0.2494228576709366  0.6333607530416271
  0.5003772025870985  0.2496099404115988  0.6135464267946192
  0.8486129656654454  0.2494016790935143  0.6329745861094409
  0.9049183864271972  0.2489062990412673  0.7386077972481758
  0.7513496826570856  0.2499206225879521  0.7243726230735973
  0.5974444476723789  0.2490250169052176  0.7404133372900576
  0.9069155639586015  0.2496626389036052  0.3012140249426099
  0.7502298009851739  0.2495757750556359  0.2572754600928269
  0.5932966935981658  0.2495136731603657  0.3012332307250525
  0.6547275486419861  0.4996036758640819  0.4100251669990013
  0.5002097409498649  0.4995678988074869  0.3931987421143554
  0.8456977178394346  0.4996869444763571  0.4101310711133379
  0.9014112049896706  0.4994850071740590  0.5223371642003528
  0.7503176058138353  0.4998697370156118  0.5031737458169673
  0.5992966740927482  0.4994424741516759  0.5219787358073646
  0.6522200960765427  0.4994290127207832  0.6331118766274566
  0.5002999587703085  0.4995098019509894  0.6134563379270479
  0.8496391811690385  0.4978806346641694  0.6341876008139889
  0.9033622842847200  0.4947360932464150  0.7437062320244014
  0.7500015035779030  0.4996669331305528  0.7241043312612946
  0.5968141165376825  0.4984985647110548  0.7403327117579827
  0.9068937325172367  0.4997853898594097  0.3013761297604472
  0.7501695444485381  0.4998495471446870  0.2580328454273774
  0.5933857684599055  0.4995027611377280  0.3012654279071517
  0.6548530134298041  0.7495300389188729  0.4100569449222228
  0.5001954536918507  0.7495486094501230  0.3932175371408665
  0.8457397313053676  0.7494997460492072  0.4102681996909230
  0.9014021294321360  0.7494088140954134  0.5224834421480847
  0.7503767292570199  0.7493203547943581  0.5032245848493743
  0.5993109366468347  0.7494319585846276  0.5220853179591490
  0.6522431553841437  0.7494339333958678  0.6331309248159955
  0.5003029962678299  0.7495444436306165  0.6134522410235634
  0.8491204702268641  0.7499441677944346  0.6343231328376705
  0.9033577392153768  0.7506444161593548  0.7438128477505662
  0.7502152085173522  0.7488270883274054  0.7241240032295284
  0.5968963485704306  0.7496946928433568  0.7404165450525484
  0.9069572549549689  0.7496371326710061  0.3015283110025664
  0.7501585941984197  0.7495510529053051  0.2583356567828670
  0.5933664185542770  0.7495328482046517  0.3013318033399275
  0.6546689128698928 -0.0004942895221541  0.4100000332779277
  0.5002086983029592  0.9995029078531072  0.3932299929366236
  0.8456957168901355 -0.0005632013117143  0.4100547449491155
  0.9012799217599432  0.9991486968479359  0.5221163372370022
  0.7502742740825553  0.9992934223481774  0.5029564868575418
  0.5993328770006044 -0.0003395962025375  0.5220456363065574
  0.6523082080390948  0.9992746134471193  0.6332285237992522
  0.5003616568342103  0.9994278715712978  0.6135792439688353
  0.8491250646859556 -0.0001814907550992  0.6334958623737603
  0.9036710546162928  0.0018013744567706  0.7411031873864927
  0.7508775612389997 -0.0015413758687758  0.7239460709307735
  0.5974145731622109 -0.0001030634887988  0.7403095316725881
  0.0658832000984545  0.1320888349306309  0.7877462640391759
  0.9306528901394604  0.6222111031139673  0.7909594482708723
  0.9989413254531506  0.2502371624473649  0.6979043126776813
 
  0.00000000E+00  0.00000000E+00  0.00000000E+00
  0.00000000E+00  0.00000000E+00  0.00000000E+00
  0.00000000E+00  0.00000000E+00  0.00000000E+00
  0.00000000E+00  0.00000000E+00  0.00000000E+00
  0.00000000E+00  0.00000000E+00  0.00000000E+00
  0.00000000E+00  0.00000000E+00  0.00000000E+00
  0.00000000E+00  0.00000000E+00  0.00000000E+00
  0.00000000E+00  0.00000000E+00  0.00000000E+00
  0.00000000E+00  0.00000000E+00  0.00000000E+00
  0.00000000E+00  0.00000000E+00  0.00000000E+00
  0.00000000E+00  0.00000000E+00  0.00000000E+00
  0.00000000E+00  0.00000000E+00  0.00000000E+00
  0.00000000E+00  0.00000000E+00  0.00000000E+00
  0.00000000E+00  0.00000000E+00  0.00000000E+00
  0.00000000E+00  0.00000000E+00  0.00000000E+00
  0.00000000E+00  0.00000000E+00  0.00000000E+00
  0.00000000E+00  0.00000000E+00  0.00000000E+00
  0.00000000E+00  0.00000000E+00  0.00000000E+00
  0.00000000E+00  0.00000000E+00  0.00000000E+00
  0.00000000E+00  0.00000000E+00  0.00000000E+00
  0.00000000E+00  0.00000000E+00  0.00000000E+00
  0.00000000E+00  0.00000000E+00  0.00000000E+00
  0.00000000E+00  0.00000000E+00  0.00000000E+00
  0.00000000E+00  0.00000000E+00  0.00000000E+00
  0.00000000E+00  0.00000000E+00  0.00000000E+00
  0.00000000E+00  0.00000000E+00  0.00000000E+00
  0.00000000E+00  0.00000000E+00  0.00000000E+00
  0.00000000E+00  0.00000000E+00  0.00000000E+00
  0.00000000E+00  0.00000000E+00  0.00000000E+00
  0.00000000E+00  0.00000000E+00  0.00000000E+00
  0.00000000E+00  0.00000000E+00  0.00000000E+00
  0.00000000E+00  0.00000000E+00  0.00000000E+00
  0.00000000E+00  0.00000000E+00  0.00000000E+00
  0.00000000E+00  0.00000000E+00  0.00000000E+00
  0.00000000E+00  0.00000000E+00  0.00000000E+00
  0.00000000E+00  0.00000000E+00  0.00000000E+00
  0.00000000E+00  0.00000000E+00  0.00000000E+00
  0.00000000E+00  0.00000000E+00  0.00000000E+00
  0.00000000E+00  0.00000000E+00  0.00000000E+00
  0.00000000E+00  0.00000000E+00  0.00000000E+00
  0.00000000E+00  0.00000000E+00  0.00000000E+00
  0.00000000E+00  0.00000000E+00  0.00000000E+00
  0.00000000E+00  0.00000000E+00  0.00000000E+00
  0.00000000E+00  0.00000000E+00  0.00000000E+00
  0.00000000E+00  0.00000000E+00  0.00000000E+00
  0.00000000E+00  0.00000000E+00  0.00000000E+00
  0.00000000E+00  0.00000000E+00  0.00000000E+00
  0.00000000E+00  0.00000000E+00  0.00000000E+00
  0.00000000E+00  0.00000000E+00  0.00000000E+00
  0.00000000E+00  0.00000000E+00  0.00000000E+00
  0.00000000E+00  0.00000000E+00  0.00000000E+00
  0.00000000E+00  0.00000000E+00  0.00000000E+00
  0.00000000E+00  0.00000000E+00  0.00000000E+00
  0.00000000E+00  0.00000000E+00  0.00000000E+00
  0.00000000E+00  0.00000000E+00  0.00000000E+00
  0.00000000E+00  0.00000000E+00  0.00000000E+00
  0.00000000E+00  0.00000000E+00  0.00000000E+00
  0.00000000E+00  0.00000000E+00  0.00000000E+00
  0.00000000E+00  0.00000000E+00  0.00000000E+00
  0.00000000E+00  0.00000000E+00  0.00000000E+00
  0.00000000E+00  0.00000000E+00  0.00000000E+00
  0.00000000E+00  0.00000000E+00  0.00000000E+00
  0.00000000E+00  0.00000000E+00  0.00000000E+00
  0.00000000E+00  0.00000000E+00  0.00000000E+00
  0.00000000E+00  0.00000000E+00  0.00000000E+00
  0.00000000E+00  0.00000000E+00  0.00000000E+00
  0.00000000E+00  0.00000000E+00  0.00000000E+00
  0.00000000E+00  0.00000000E+00  0.00000000E+00
  0.00000000E+00  0.00000000E+00  0.00000000E+00
  0.00000000E+00  0.00000000E+00  0.00000000E+00
  0.00000000E+00  0.00000000E+00  0.00000000E+00
  0.00000000E+00  0.00000000E+00  0.00000000E+00
  0.00000000E+00  0.00000000E+00  0.00000000E+00
  0.00000000E+00  0.00000000E+00  0.00000000E+00
  0.00000000E+00  0.00000000E+00  0.00000000E+00
  0.00000000E+00  0.00000000E+00  0.00000000E+00
  0.00000000E+00  0.00000000E+00  0.00000000E+00
  0.00000000E+00  0.00000000E+00  0.00000000E+00
  0.00000000E+00  0.00000000E+00  0.00000000E+00
  0.00000000E+00  0.00000000E+00  0.00000000E+00
  0.00000000E+00  0.00000000E+00  0.00000000E+00
  0.00000000E+00  0.00000000E+00  0.00000000E+00
  0.00000000E+00  0.00000000E+00  0.00000000E+00
  0.00000000E+00  0.00000000E+00  0.00000000E+00
  0.00000000E+00  0.00000000E+00  0.00000000E+00
  0.00000000E+00  0.00000000E+00  0.00000000E+00
  0.00000000E+00  0.00000000E+00  0.00000000E+00
  0.00000000E+00  0.00000000E+00  0.00000000E+00
  0.00000000E+00  0.00000000E+00  0.00000000E+00
  0.00000000E+00  0.00000000E+00  0.00000000E+00
  0.00000000E+00  0.00000000E+00  0.00000000E+00
  0.00000000E+00  0.00000000E+00  0.00000000E+00
  0.00000000E+00  0.00000000E+00  0.00000000E+00
  0.00000000E+00  0.00000000E+00  0.00000000E+00
  0.00000000E+00  0.00000000E+00  0.00000000E+00
  0.00000000E+00  0.00000000E+00  0.00000000E+00
  0.00000000E+00  0.00000000E+00  0.00000000E+00
  0.00000000E+00  0.00000000E+00  0.00000000E+00
  0.00000000E+00  0.00000000E+00  0.00000000E+00
  0.00000000E+00  0.00000000E+00  0.00000000E+00
  0.00000000E+00  0.00000000E+00  0.00000000E+00
  0.00000000E+00  0.00000000E+00  0.00000000E+00
  0.00000000E+00  0.00000000E+00  0.00000000E+00
  0.00000000E+00  0.00000000E+00  0.00000000E+00
  0.00000000E+00  0.00000000E+00  0.00000000E+00
  0.00000000E+00  0.00000000E+00  0.00000000E+00
  0.00000000E+00  0.00000000E+00  0.00000000E+00
  0.00000000E+00  0.00000000E+00  0.00000000E+00
  0.00000000E+00  0.00000000E+00  0.00000000E+00
  0.00000000E+00  0.00000000E+00  0.00000000E+00
  0.00000000E+00  0.00000000E+00  0.00000000E+00
  0.00000000E+00  0.00000000E+00  0.00000000E+00
  0.00000000E+00  0.00000000E+00  0.00000000E+00
  0.00000000E+00  0.00000000E+00  0.00000000E+00
  0.00000000E+00  0.00000000E+00  0.00000000E+00
  0.00000000E+00  0.00000000E+00  0.00000000E+00
  0.00000000E+00  0.00000000E+00  0.00000000E+00
  0.00000000E+00  0.00000000E+00  0.00000000E+00
  0.00000000E+00  0.00000000E+00  0.00000000E+00
  0.00000000E+00  0.00000000E+00  0.00000000E+00
  0.00000000E+00  0.00000000E+00  0.00000000E+00
  0.00000000E+00  0.00000000E+00  0.00000000E+00
  0.00000000E+00  0.00000000E+00  0.00000000E+00
  0.00000000E+00  0.00000000E+00  0.00000000E+00
  0.00000000E+00  0.00000000E+00  0.00000000E+00
  0.00000000E+00  0.00000000E+00  0.00000000E+00
  0.00000000E+00  0.00000000E+00  0.00000000E+00
  0.00000000E+00  0.00000000E+00  0.00000000E+00
  0.00000000E+00  0.00000000E+00  0.00000000E+00
  0.00000000E+00  0.00000000E+00  0.00000000E+00
  0.00000000E+00  0.00000000E+00  0.00000000E+00
  0.00000000E+00  0.00000000E+00  0.00000000E+00
  0.00000000E+00  0.00000000E+00  0.00000000E+00
  0.00000000E+00  0.00000000E+00  0.00000000E+00
  0.00000000E+00  0.00000000E+00  0.00000000E+00
  0.00000000E+00  0.00000000E+00  0.00000000E+00
  0.00000000E+00  0.00000000E+00  0.00000000E+00
  0.00000000E+00  0.00000000E+00  0.00000000E+00
  0.00000000E+00  0.00000000E+00  0.00000000E+00
  0.00000000E+00  0.00000000E+00  0.00000000E+00
  0.00000000E+00  0.00000000E+00  0.00000000E+00
  0.00000000E+00  0.00000000E+00  0.00000000E+00
  0.00000000E+00  0.00000000E+00  0.00000000E+00
  0.00000000E+00  0.00000000E+00  0.00000000E+00
  0.00000000E+00  0.00000000E+00  0.00000000E+00
  0.00000000E+00  0.00000000E+00  0.00000000E+00
  0.00000000E+00  0.00000000E+00  0.00000000E+00
  0.00000000E+00  0.00000000E+00  0.00000000E+00
  0.00000000E+00  0.00000000E+00  0.00000000E+00
  0.00000000E+00  0.00000000E+00  0.00000000E+00
  0.00000000E+00  0.00000000E+00  0.00000000E+00
  0.00000000E+00  0.00000000E+00  0.00000000E+00
  0.00000000E+00  0.00000000E+00  0.00000000E+00
  0.00000000E+00  0.00000000E+00  0.00000000E+00
  0.00000000E+00  0.00000000E+00  0.00000000E+00
  0.00000000E+00  0.00000000E+00  0.00000000E+00
  0.00000000E+00  0.00000000E+00  0.00000000E+00
  0.00000000E+00  0.00000000E+00  0.00000000E+00
  0.00000000E+00  0.00000000E+00  0.00000000E+00
  0.00000000E+00  0.00000000E+00  0.00000000E+00
  0.00000000E+00  0.00000000E+00  0.00000000E+00
  0.00000000E+00  0.00000000E+00  0.00000000E+00
  0.00000000E+00  0.00000000E+00  0.00000000E+00
  0.00000000E+00  0.00000000E+00  0.00000000E+00
  0.00000000E+00  0.00000000E+00  0.00000000E+00
  0.00000000E+00  0.00000000E+00  0.00000000E+00
  0.00000000E+00  0.00000000E+00  0.00000000E+00
  0.00000000E+00  0.00000000E+00  0.00000000E+00
  0.00000000E+00  0.00000000E+00  0.00000000E+00
  0.00000000E+00  0.00000000E+00  0.00000000E+00
  0.00000000E+00  0.00000000E+00  0.00000000E+00
  0.00000000E+00  0.00000000E+00  0.00000000E+00
  0.00000000E+00  0.00000000E+00  0.00000000E+00
  0.00000000E+00  0.00000000E+00  0.00000000E+00
  0.00000000E+00  0.00000000E+00  0.00000000E+00
  0.00000000E+00  0.00000000E+00  0.00000000E+00
  0.00000000E+00  0.00000000E+00  0.00000000E+00
  0.00000000E+00  0.00000000E+00  0.00000000E+00
  0.00000000E+00  0.00000000E+00  0.00000000E+00
  0.00000000E+00  0.00000000E+00  0.00000000E+00
  0.00000000E+00  0.00000000E+00  0.00000000E+00
  0.00000000E+00  0.00000000E+00  0.00000000E+00
  0.00000000E+00  0.00000000E+00  0.00000000E+00
  0.00000000E+00  0.00000000E+00  0.00000000E+00
  0.00000000E+00  0.00000000E+00  0.00000000E+00
  0.00000000E+00  0.00000000E+00  0.00000000E+00
  0.00000000E+00  0.00000000E+00  0.00000000E+00
  0.00000000E+00  0.00000000E+00  0.00000000E+00
  0.00000000E+00  0.00000000E+00  0.00000000E+00
  0.00000000E+00  0.00000000E+00  0.00000000E+00
  0.00000000E+00  0.00000000E+00  0.00000000E+00
  0.00000000E+00  0.00000000E+00  0.00000000E+00
  0.00000000E+00  0.00000000E+00  0.00000000E+00
  0.00000000E+00  0.00000000E+00  0.00000000E+00
  0.00000000E+00  0.00000000E+00  0.00000000E+00
  0.00000000E+00  0.00000000E+00  0.00000000E+00
  0.00000000E+00  0.00000000E+00  0.00000000E+00
  0.00000000E+00  0.00000000E+00  0.00000000E+00
  0.00000000E+00  0.00000000E+00  0.00000000E+00
  0.00000000E+00  0.00000000E+00  0.00000000E+00
  0.00000000E+00  0.00000000E+00  0.00000000E+00
  0.00000000E+00  0.00000000E+00  0.00000000E+00
  0.00000000E+00  0.00000000E+00  0.00000000E+00
  0.00000000E+00  0.00000000E+00  0.00000000E+00
  0.00000000E+00  0.00000000E+00  0.00000000E+00
  0.00000000E+00  0.00000000E+00  0.00000000E+00
  0.00000000E+00  0.00000000E+00  0.00000000E+00
  0.00000000E+00  0.00000000E+00  0.00000000E+00
  0.00000000E+00  0.00000000E+00  0.00000000E+00
  0.00000000E+00  0.00000000E+00  0.00000000E+00
  0.00000000E+00  0.00000000E+00  0.00000000E+00
  0.00000000E+00  0.00000000E+00  0.00000000E+00
  0.00000000E+00  0.00000000E+00  0.00000000E+00
  0.00000000E+00  0.00000000E+00  0.00000000E+00
  0.00000000E+00  0.00000000E+00  0.00000000E+00
  0.00000000E+00  0.00000000E+00  0.00000000E+00
  0.00000000E+00  0.00000000E+00  0.00000000E+00
  0.00000000E+00  0.00000000E+00  0.00000000E+00
  0.00000000E+00  0.00000000E+00  0.00000000E+00
  0.00000000E+00  0.00000000E+00  0.00000000E+00
  0.00000000E+00  0.00000000E+00  0.00000000E+00
  0.00000000E+00  0.00000000E+00  0.00000000E+00
  0.00000000E+00  0.00000000E+00  0.00000000E+00
  0.00000000E+00  0.00000000E+00  0.00000000E+00
  0.00000000E+00  0.00000000E+00  0.00000000E+00
  0.00000000E+00  0.00000000E+00  0.00000000E+00
  0.00000000E+00  0.00000000E+00  0.00000000E+00
  0.00000000E+00  0.00000000E+00  0.00000000E+00
  0.00000000E+00  0.00000000E+00  0.00000000E+00
  0.00000000E+00  0.00000000E+00  0.00000000E+00
  0.00000000E+00  0.00000000E+00  0.00000000E+00
  0.00000000E+00  0.00000000E+00  0.00000000E+00
  0.00000000E+00  0.00000000E+00  0.00000000E+00
  0.00000000E+00  0.00000000E+00  0.00000000E+00
  0.00000000E+00  0.00000000E+00  0.00000000E+00
  0.00000000E+00  0.00000000E+00  0.00000000E+00
  0.00000000E+00  0.00000000E+00  0.00000000E+00
  0.00000000E+00  0.00000000E+00  0.00000000E+00
  0.00000000E+00  0.00000000E+00  0.00000000E+00
  0.00000000E+00  0.00000000E+00  0.00000000E+00
  0.00000000E+00  0.00000000E+00  0.00000000E+00
  0.00000000E+00  0.00000000E+00  0.00000000E+00
