Ta  N Ru Cu                             
   1.00000000000000     
     9.0548154099999998    0.0000000000000000    0.0000000000000000
     0.0000000000000000   11.6775998899999998    0.0000000000000000
     0.0000000000000000    0.0000000000000000   23.4818170799999990
   Ta   N    Ru   Cu
    60    60    16     1
Selective dynamics
Direct
  0.0000000000000000  0.0000000000000000  0.2546926809530987   F   F   F
  0.6670845899906297  0.1250000003211298  0.2638822399803757   F   F   F
  0.3329153514769843  0.1250000003211298  0.2638822399803757   F   F   F
  0.4999999994478088  0.2499999997859135  0.3618861993156202   F   F   F
  0.1650707596845180  0.1250000003211298  0.3684425577811794   F   F   F
  0.8349292403154820  0.1250000003211298  0.3684425577811794   F   F   F
  0.0005575244419563  0.2500667758515749  0.4799251240471531   T   T   T
  0.6646413257971907  0.1250083526742371  0.4780167108187486   T   T   T
  0.3356187127690168  0.1250518396264848  0.4779211083772794   T   T   T
  0.4997674645076545  0.2497457144532627  0.5903490954857614   T   T   T
  0.1687482007501486  0.1251940048003457  0.5898147887735342   T   T   T
  0.8326722912826612  0.1250751691373370  0.5895414553464703   T   T   T
  0.9952248838268335  0.2490521705280452  0.6997353721988784   T   T   T
  0.6665040974380755  0.1251666440521525  0.7013994897429150   T   T   T
  0.3313862007127840  0.1254172891291468  0.7030914742135005   T   T   T
  0.0000000000000000  0.2499999997859135  0.2546926809530987   F   F   F
  0.6670845899906297  0.3750000001070433  0.2638822399803757   F   F   F
  0.3329153514769843  0.3750000001070433  0.2638822399803757   F   F   F
  0.4999999994478088  0.5000000004281731  0.3618861993156202   F   F   F
  0.1650707596845180  0.3750000001070433  0.3684425577811794   F   F   F
  0.8349292403154820  0.3750000001070433  0.3684425577811794   F   F   F
  0.0006013430675422  0.4999695395381705  0.4799522682849237   T   T   T
  0.6645827241778173  0.3750022490007870  0.4780576050447922   T   T   T
  0.3355589308106159  0.3750407470990466  0.4779505838682204   T   T   T
  0.4999185806745401  0.5003338778227822  0.5904278479884577   T   T   T
  0.1693332901782989  0.3751686762462789  0.5902361920202244   T   T   T
  0.8328148328348322  0.3749411432818596  0.5895718994329584   T   T   T
  0.9952288011921014  0.4991452760293284  0.6995948222936977   T   T   T
  0.6667798824876993  0.3744552434181098  0.7019360134793798   T   T   T
  0.3314194723463412  0.3758182673805393  0.7055556855244606   T   T   T
  0.0000000000000000  0.5000000004281731  0.2546926809530987   F   F   F
  0.6670845899906297  0.6249999998929567  0.2638822399803757   F   F   F
  0.3329153514769843  0.6249999998929567  0.2638822399803757   F   F   F
  0.4999999994478088  0.7500000002140865  0.3618861993156202   F   F   F
  0.1650707596845180  0.6249999998929567  0.3684425577811794   F   F   F
  0.8349292403154820  0.6249999998929567  0.3684425577811794   F   F   F
  0.0005365223580720  0.7499681457514469  0.4799105593666714   T   T   T
  0.6647347970574953  0.6249532627677830  0.4780580332228618   T   T   T
  0.3356318346588173  0.6250035936707256  0.4779301541634372   T   T   T
  0.4994599553785766  0.7497523903082048  0.5902804785311655   T   T   T
  0.1687653329541610  0.6251946691462784  0.5898652420908941   T   T   T
  0.8327936572763091  0.6248963987720692  0.5896631945122298   T   T   T
  0.9930906348424267  0.7500856584296611  0.6999090739417276   T   T   T
  0.6679917504888976  0.6247557533401736  0.7015225429733665   T   T   T
  0.3318281240897513  0.6255826810842707  0.7032518949144584   T   T   T
  0.0000000000000000  0.7500000002140865  0.2546926809530987   F   F   F
  0.6670845899906297  0.8750000005352163  0.2638822399803757   F   F   F
  0.3329153514769843  0.8750000005352163  0.2638822399803757   F   F   F
  0.4999999994478088  0.0000000000000000  0.3618861993156202   F   F   F
  0.1650707596845180  0.8750000005352163  0.3684425577811794   F   F   F
  0.8349292403154820  0.8750000005352163  0.3684425577811794   F   F   F
  0.0005921707131669  0.0000268720468337  0.4799110446533775   T   T   T
  0.6645161529148542  0.8749671513472053  0.4780154971083271   T   T   T
  0.3355961226999403  0.8750042955838878  0.4779142100584712   T   T   T
  0.4994391429615460  0.0003263093674757  0.5902661060437422   T   T   T
  0.1686306635562743  0.8750799682097443  0.5900572645944946   T   T   T
  0.8325800363413000  0.8749676824740229  0.5893984289404658   T   T   T
  0.9938643162900280  0.9991247680458781  0.6992664323367573   T   T   T
  0.6651454106716500  0.8748262353250374  0.7009710259137247   T   T   T
  0.3284119750944557  0.8756376863077682  0.7052087841107132   T   T   T
  0.8141011533980276  0.0000000000000000  0.3013105672926031   F   F   F
  0.4999999994478088  0.0000000000000000  0.2564174481620327   F   F   F
  0.1858988466019724  0.0000000000000000  0.3013105672926031   F   F   F
  0.3088456122590841  0.2499999997859135  0.4099867722441957   F   F   F
  0.0000000000000000  0.2499999997859135  0.3930971035158137   F   F   F
  0.6911543877409159  0.2499999997859135  0.4099867722441957   F   F   F
  0.8016086239745186  0.2500053995083678  0.5218355230686199   T   T   T
  0.4999943456228433  0.2500542542726015  0.5026615523052594   T   T   T
  0.1991765998543925  0.2501672304389016  0.5221377386448127   T   T   T
  0.3048665933113127  0.2506560861894990  0.6345526336459177   T   T   T
  0.0002860867828452  0.2500638776695960  0.6118479235531544   T   T   T
  0.6961780068028828  0.2502472396738387  0.6334739927703984   T   T   T
  0.8036475196569708  0.2524948703833853  0.7453886210328982   T   T   T
  0.5017373131800575  0.2490725307270063  0.7260589690039847   T   T   T
  0.1938302101424423  0.2488566135052629  0.7381384356166023   T   T   T
  0.8141011533980276  0.2499999997859135  0.3013105672926031   F   F   F
  0.4999999994478088  0.2499999997859135  0.2564174481620327   F   F   F
  0.1858988466019724  0.2499999997859135  0.3013105672926031   F   F   F
  0.3088456122590841  0.5000000004281731  0.4099867722441957   F   F   F
  0.0000000000000000  0.5000000004281731  0.3930971035158137   F   F   F
  0.6911543877409159  0.5000000004281731  0.4099867722441957   F   F   F
  0.8016803237276749  0.4999588974941480  0.5218729834044624   T   T   T
  0.4999874476408490  0.5000063421508827  0.5027249616944646   T   T   T
  0.1992222120893391  0.5000842854972319  0.5221716702902989   T   T   T
  0.3050099619852706  0.5002054545444363  0.6347131908519286   T   T   T
  0.0004226807020667  0.4998764510737944  0.6117613653613277   T   T   T
  0.6962198876362734  0.4995619188015145  0.6335227178634721   T   T   T
  0.8033890486278973  0.4941875266078865  0.7448742975778077   T   T   T
  0.5034239816435668  0.5013454117416226  0.7258548965648078   T   T   T
  0.1929534391898543  0.5032516705752469  0.7383505691478162   T   T   T
  0.8141011533980276  0.5000000004281731  0.3013105672926031   F   F   F
  0.4999999994478088  0.5000000004281731  0.2564174481620327   F   F   F
  0.1858988466019724  0.5000000004281731  0.3013105672926031   F   F   F
  0.3088456122590841  0.7500000002140865  0.4099867722441957   F   F   F
  0.0000000000000000  0.7500000002140865  0.3930971035158137   F   F   F
  0.6911543877409159  0.7500000002140865  0.4099867722441957   F   F   F
  0.8016283534549286  0.7498849850823792  0.5217945822701343   T   T   T
  0.4999586901222131  0.7499408864539470  0.5026290168417972   T   T   T
  0.1990726359899339  0.7500492576168051  0.5221324463054775   T   T   T
  0.3042789419229942  0.7505354954604506  0.6345152649544270   T   T   T
  0.0000035683364875  0.7499991635805626  0.6119011334050204   T   T   T
  0.6962609273226799  0.7498925672321707  0.6331954674151793   T   T   T
  0.8013223168019168  0.7533784570383812  0.7459166562099607   T   T   T
  0.5009303124914213  0.7504416766460541  0.7252378341615018   T   T   T
  0.1914069147559256  0.7486365673481417  0.7380156392310605   T   T   T
  0.8141011533980276  0.7500000002140865  0.3013105672926031   F   F   F
  0.4999999994478088  0.7500000002140865  0.2564174481620327   F   F   F
  0.1858988466019724  0.7500000002140865  0.3013105672926031   F   F   F
  0.3088456122590841  0.0000000000000000  0.4099867722441957   F   F   F
  0.0000000000000000  0.0000000000000000  0.3930971035158137   F   F   F
  0.6911543877409159  0.0000000000000000  0.4099867722441957   F   F   F
  0.8015825448135675  0.0000532117566208  0.5217305601198894   T   T   T
  0.4999222328210872  0.0000419800993382  0.5026192797791368   T   T   T
  0.1991820704621538  0.0000367018879758  0.5221062419591829   T   T   T
  0.3042135193086614  0.0000165034767592  0.6345660908417744   T   T   T
  0.9999828152631207  0.9999858442222486  0.6114559084397952   T   T   T
  0.6958408672525517  0.0001715133773634  0.6331586962517222   T   T   T
  0.8011152457919809  0.9973024145040713  0.7445670965247309   T   T   T
  0.5013835690783641  0.0001918123774995  0.7253111903675238   T   T   T
  0.1909597935470461  0.0031440135497252  0.7382717019212065   T   T   T
  0.1280403118458618  0.0234078158556708  0.8157946518005954   T   T   T
  0.5679526583273599  0.0005653697249964  0.8056967435283846   T   T   T
  0.8780950204300859  0.1212133774911082  0.7976159712331882   T   T   T
  0.1297611874202389  0.5235550050048963  0.8158914329404471   T   T   T
  0.5673911115298113  0.5225293081889945  0.8069246888392828   T   T   T
  0.8748519464311140  0.6217717364820267  0.7971187257550704   T   T   T
  0.1383472830054642  0.2503502114168716  0.8167926535682144   T   T   T
  0.5434668721571987  0.2364182917502784  0.8093566713206903   T   T   T
  0.9053285502099947  0.3740131300870937  0.8018236066945174   T   T   T
  0.1315343328360181  0.7478121360771343  0.8163597815145357   T   T   T
  0.5523076779527979  0.7520727355890525  0.8071013084913525   T   T   T
  0.8936224897162787  0.8785397488466157  0.8001716455183807   T   T   T
  0.3461461305323216  0.8739923978146963  0.8368430845259036   T   T   T
  0.3578732058175086  0.6126523747256192  0.8457540145885341   T   T   T
  0.3538039068665549  0.3772724172529658  0.8386454504605940   T   T   T
  0.3588840504925072  0.1015007106603085  0.8468727050749926   T   T   T
  0.6893542686607566  0.3757685396582934  0.8678531968222005   T   T   T
 
  0.00000000E+00  0.00000000E+00  0.00000000E+00
  0.00000000E+00  0.00000000E+00  0.00000000E+00
  0.00000000E+00  0.00000000E+00  0.00000000E+00
  0.00000000E+00  0.00000000E+00  0.00000000E+00
  0.00000000E+00  0.00000000E+00  0.00000000E+00
  0.00000000E+00  0.00000000E+00  0.00000000E+00
  0.00000000E+00  0.00000000E+00  0.00000000E+00
  0.00000000E+00  0.00000000E+00  0.00000000E+00
  0.00000000E+00  0.00000000E+00  0.00000000E+00
  0.00000000E+00  0.00000000E+00  0.00000000E+00
  0.00000000E+00  0.00000000E+00  0.00000000E+00
  0.00000000E+00  0.00000000E+00  0.00000000E+00
  0.00000000E+00  0.00000000E+00  0.00000000E+00
  0.00000000E+00  0.00000000E+00  0.00000000E+00
  0.00000000E+00  0.00000000E+00  0.00000000E+00
  0.00000000E+00  0.00000000E+00  0.00000000E+00
  0.00000000E+00  0.00000000E+00  0.00000000E+00
  0.00000000E+00  0.00000000E+00  0.00000000E+00
  0.00000000E+00  0.00000000E+00  0.00000000E+00
  0.00000000E+00  0.00000000E+00  0.00000000E+00
  0.00000000E+00  0.00000000E+00  0.00000000E+00
  0.00000000E+00  0.00000000E+00  0.00000000E+00
  0.00000000E+00  0.00000000E+00  0.00000000E+00
  0.00000000E+00  0.00000000E+00  0.00000000E+00
  0.00000000E+00  0.00000000E+00  0.00000000E+00
  0.00000000E+00  0.00000000E+00  0.00000000E+00
  0.00000000E+00  0.00000000E+00  0.00000000E+00
  0.00000000E+00  0.00000000E+00  0.00000000E+00
  0.00000000E+00  0.00000000E+00  0.00000000E+00
  0.00000000E+00  0.00000000E+00  0.00000000E+00
  0.00000000E+00  0.00000000E+00  0.00000000E+00
  0.00000000E+00  0.00000000E+00  0.00000000E+00
  0.00000000E+00  0.00000000E+00  0.00000000E+00
  0.00000000E+00  0.00000000E+00  0.00000000E+00
  0.00000000E+00  0.00000000E+00  0.00000000E+00
  0.00000000E+00  0.00000000E+00  0.00000000E+00
  0.00000000E+00  0.00000000E+00  0.00000000E+00
  0.00000000E+00  0.00000000E+00  0.00000000E+00
  0.00000000E+00  0.00000000E+00  0.00000000E+00
  0.00000000E+00  0.00000000E+00  0.00000000E+00
  0.00000000E+00  0.00000000E+00  0.00000000E+00
  0.00000000E+00  0.00000000E+00  0.00000000E+00
  0.00000000E+00  0.00000000E+00  0.00000000E+00
  0.00000000E+00  0.00000000E+00  0.00000000E+00
  0.00000000E+00  0.00000000E+00  0.00000000E+00
  0.00000000E+00  0.00000000E+00  0.00000000E+00
  0.00000000E+00  0.00000000E+00  0.00000000E+00
  0.00000000E+00  0.00000000E+00  0.00000000E+00
  0.00000000E+00  0.00000000E+00  0.00000000E+00
  0.00000000E+00  0.00000000E+00  0.00000000E+00
  0.00000000E+00  0.00000000E+00  0.00000000E+00
  0.00000000E+00  0.00000000E+00  0.00000000E+00
  0.00000000E+00  0.00000000E+00  0.00000000E+00
  0.00000000E+00  0.00000000E+00  0.00000000E+00
  0.00000000E+00  0.00000000E+00  0.00000000E+00
  0.00000000E+00  0.00000000E+00  0.00000000E+00
  0.00000000E+00  0.00000000E+00  0.00000000E+00
  0.00000000E+00  0.00000000E+00  0.00000000E+00
  0.00000000E+00  0.00000000E+00  0.00000000E+00
  0.00000000E+00  0.00000000E+00  0.00000000E+00
  0.00000000E+00  0.00000000E+00  0.00000000E+00
  0.00000000E+00  0.00000000E+00  0.00000000E+00
  0.00000000E+00  0.00000000E+00  0.00000000E+00
  0.00000000E+00  0.00000000E+00  0.00000000E+00
  0.00000000E+00  0.00000000E+00  0.00000000E+00
  0.00000000E+00  0.00000000E+00  0.00000000E+00
  0.00000000E+00  0.00000000E+00  0.00000000E+00
  0.00000000E+00  0.00000000E+00  0.00000000E+00
  0.00000000E+00  0.00000000E+00  0.00000000E+00
  0.00000000E+00  0.00000000E+00  0.00000000E+00
  0.00000000E+00  0.00000000E+00  0.00000000E+00
  0.00000000E+00  0.00000000E+00  0.00000000E+00
  0.00000000E+00  0.00000000E+00  0.00000000E+00
  0.00000000E+00  0.00000000E+00  0.00000000E+00
  0.00000000E+00  0.00000000E+00  0.00000000E+00
  0.00000000E+00  0.00000000E+00  0.00000000E+00
  0.00000000E+00  0.00000000E+00  0.00000000E+00
  0.00000000E+00  0.00000000E+00  0.00000000E+00
  0.00000000E+00  0.00000000E+00  0.00000000E+00
  0.00000000E+00  0.00000000E+00  0.00000000E+00
  0.00000000E+00  0.00000000E+00  0.00000000E+00
  0.00000000E+00  0.00000000E+00  0.00000000E+00
  0.00000000E+00  0.00000000E+00  0.00000000E+00
  0.00000000E+00  0.00000000E+00  0.00000000E+00
  0.00000000E+00  0.00000000E+00  0.00000000E+00
  0.00000000E+00  0.00000000E+00  0.00000000E+00
  0.00000000E+00  0.00000000E+00  0.00000000E+00
  0.00000000E+00  0.00000000E+00  0.00000000E+00
  0.00000000E+00  0.00000000E+00  0.00000000E+00
  0.00000000E+00  0.00000000E+00  0.00000000E+00
  0.00000000E+00  0.00000000E+00  0.00000000E+00
  0.00000000E+00  0.00000000E+00  0.00000000E+00
  0.00000000E+00  0.00000000E+00  0.00000000E+00
  0.00000000E+00  0.00000000E+00  0.00000000E+00
  0.00000000E+00  0.00000000E+00  0.00000000E+00
  0.00000000E+00  0.00000000E+00  0.00000000E+00
  0.00000000E+00  0.00000000E+00  0.00000000E+00
  0.00000000E+00  0.00000000E+00  0.00000000E+00
  0.00000000E+00  0.00000000E+00  0.00000000E+00
  0.00000000E+00  0.00000000E+00  0.00000000E+00
  0.00000000E+00  0.00000000E+00  0.00000000E+00
  0.00000000E+00  0.00000000E+00  0.00000000E+00
  0.00000000E+00  0.00000000E+00  0.00000000E+00
  0.00000000E+00  0.00000000E+00  0.00000000E+00
  0.00000000E+00  0.00000000E+00  0.00000000E+00
  0.00000000E+00  0.00000000E+00  0.00000000E+00
  0.00000000E+00  0.00000000E+00  0.00000000E+00
  0.00000000E+00  0.00000000E+00  0.00000000E+00
  0.00000000E+00  0.00000000E+00  0.00000000E+00
  0.00000000E+00  0.00000000E+00  0.00000000E+00
  0.00000000E+00  0.00000000E+00  0.00000000E+00
  0.00000000E+00  0.00000000E+00  0.00000000E+00
  0.00000000E+00  0.00000000E+00  0.00000000E+00
  0.00000000E+00  0.00000000E+00  0.00000000E+00
  0.00000000E+00  0.00000000E+00  0.00000000E+00
  0.00000000E+00  0.00000000E+00  0.00000000E+00
  0.00000000E+00  0.00000000E+00  0.00000000E+00
  0.00000000E+00  0.00000000E+00  0.00000000E+00
  0.00000000E+00  0.00000000E+00  0.00000000E+00
  0.00000000E+00  0.00000000E+00  0.00000000E+00
  0.00000000E+00  0.00000000E+00  0.00000000E+00
  0.00000000E+00  0.00000000E+00  0.00000000E+00
  0.00000000E+00  0.00000000E+00  0.00000000E+00
  0.00000000E+00  0.00000000E+00  0.00000000E+00
  0.00000000E+00  0.00000000E+00  0.00000000E+00
  0.00000000E+00  0.00000000E+00  0.00000000E+00
  0.00000000E+00  0.00000000E+00  0.00000000E+00
  0.00000000E+00  0.00000000E+00  0.00000000E+00
  0.00000000E+00  0.00000000E+00  0.00000000E+00
  0.00000000E+00  0.00000000E+00  0.00000000E+00
  0.00000000E+00  0.00000000E+00  0.00000000E+00
  0.00000000E+00  0.00000000E+00  0.00000000E+00
  0.00000000E+00  0.00000000E+00  0.00000000E+00
  0.00000000E+00  0.00000000E+00  0.00000000E+00
  0.00000000E+00  0.00000000E+00  0.00000000E+00
  0.00000000E+00  0.00000000E+00  0.00000000E+00
  0.00000000E+00  0.00000000E+00  0.00000000E+00
