generated by phonopy                    
   1.00000000000000     
     5.3022841183967584   -0.0078952297606673   -0.0125853654182423
    -2.6579795287398320    4.5879651297340329    0.0125853654182423
    -0.0207731980819835    0.0119934115045626    8.7283926517475798
   B    N    Ga
    14    16     2
Direct
  0.6624850049252531  0.3257303476094016  0.0025134785736860
  0.1742696523905985  0.8375149950747469  0.0025134785736860
  0.6608995304957896  0.8391004695042104  0.0043274495783614
  0.1609288444136181  0.3390711555863819  0.5043354237534492
  0.6742863885115010  0.3375224247253772  0.5025384655070906
  0.1624775752746227  0.8257136114884990  0.5025384655070906
  0.3344734090768003  0.1655265909231997  0.2622223518134298
  0.8351507920712500  0.1735396686227003  0.2601069571796633
  0.3264603313772997  0.6648492079287500  0.2601069571796633
  0.8370864241774431  0.6629135758225569  0.2502817325791592
  0.3371778474339119  0.1628221525660880  0.7502799465303622
  0.8265711254413232  0.1647777953548866  0.7601091204280427
  0.3352222046451134  0.6734288745586768  0.7601091204280427
  0.8345310448416882  0.6654689551583118  0.7622183187983780
  0.3520386339862498  0.1479613660137502  0.9301152522229875
  0.7975294667402901  0.1526780931683591  0.9375825409611395
  0.3473219068316408  0.7024705332597099  0.9375825409611395
  0.8351181908372581  0.6648818091627419  0.9449038013118887
  0.3351112080694068  0.1648887919305933  0.4449218315146267
  0.8473296749389275  0.2025015112485589  0.4375810877459358
  0.2974984887514411  0.6526703250610725  0.4375810877459358
  0.8520259495239497  0.6479740504760503  0.4301204294947280
  0.1681831878156411  0.3318168121843589  0.2194638101737652
  0.6646916343628856  0.3315685236172375  0.1899898290089980
  0.1684314763827626  0.8353083656371144  0.1899898290089980
  0.6658057968439901  0.8341942031560099  0.1948313546235376
  0.1658985013927840  0.3341014986072161  0.6948326954741828
  0.6685232903318462  0.3352323628856200  0.6900004881344206
  0.1647676371143801  0.8314767096681538  0.6900004881344206
  0.6682633449014662  0.8317366550985338  0.7194461843817149
  0.1697323560885651  0.3302676439114349  0.0099103664102739
  0.6697090800103093  0.8302909199896907  0.5099055261792098
 
  0.00000000E+00  0.00000000E+00  0.00000000E+00
  0.00000000E+00  0.00000000E+00  0.00000000E+00
  0.00000000E+00  0.00000000E+00  0.00000000E+00
  0.00000000E+00  0.00000000E+00  0.00000000E+00
  0.00000000E+00  0.00000000E+00  0.00000000E+00
  0.00000000E+00  0.00000000E+00  0.00000000E+00
  0.00000000E+00  0.00000000E+00  0.00000000E+00
  0.00000000E+00  0.00000000E+00  0.00000000E+00
  0.00000000E+00  0.00000000E+00  0.00000000E+00
  0.00000000E+00  0.00000000E+00  0.00000000E+00
  0.00000000E+00  0.00000000E+00  0.00000000E+00
  0.00000000E+00  0.00000000E+00  0.00000000E+00
  0.00000000E+00  0.00000000E+00  0.00000000E+00
  0.00000000E+00  0.00000000E+00  0.00000000E+00
  0.00000000E+00  0.00000000E+00  0.00000000E+00
  0.00000000E+00  0.00000000E+00  0.00000000E+00
  0.00000000E+00  0.00000000E+00  0.00000000E+00
  0.00000000E+00  0.00000000E+00  0.00000000E+00
  0.00000000E+00  0.00000000E+00  0.00000000E+00
  0.00000000E+00  0.00000000E+00  0.00000000E+00
  0.00000000E+00  0.00000000E+00  0.00000000E+00
  0.00000000E+00  0.00000000E+00  0.00000000E+00
  0.00000000E+00  0.00000000E+00  0.00000000E+00
  0.00000000E+00  0.00000000E+00  0.00000000E+00
  0.00000000E+00  0.00000000E+00  0.00000000E+00
  0.00000000E+00  0.00000000E+00  0.00000000E+00
  0.00000000E+00  0.00000000E+00  0.00000000E+00
  0.00000000E+00  0.00000000E+00  0.00000000E+00
  0.00000000E+00  0.00000000E+00  0.00000000E+00
  0.00000000E+00  0.00000000E+00  0.00000000E+00
  0.00000000E+00  0.00000000E+00  0.00000000E+00
  0.00000000E+00  0.00000000E+00  0.00000000E+00
