generated by phonopy
1.0000000000000
     5.1891420871854397    0.0000000000000000    0.0000000000000000
    -2.5945710435927198    4.4939288713495928    0.0000000000000000
     0.0000000000000000    0.0000000000000000    8.5631844482261332
B    N    Ga
14   16   2
Direct
  0.6666666666666667  0.3333333333333333  0.0070395900820243
  0.1666666666666667  0.8333333333333333  0.0070395900820243
  0.6666666666666667  0.8333333333333333  0.0082412184221841
  0.1666666666666667  0.3333333333333333  0.5024475597903399
  0.6666666666666667  0.3333333333333333  0.5024475597903399
  0.1666666666666667  0.8333333333333333  0.5024475597903399
  0.3333333333333333  0.1666666666666667  0.2546446207864447
  0.8333333333333333  0.1666666666666667  0.2532882914894341
  0.3333333333333333  0.6666666666666667  0.2532882914894341
  0.8333333333333333  0.6666666666666667  0.2532882914894341
  0.3333333333333333  0.1666666666666667  0.7553047729485692
  0.8333333333333333  0.1666666666666667  0.7626108085016127
  0.3333333333333333  0.6666666666666667  0.7626108085016127
  0.8333333333333333  0.6666666666666667  0.7626108085016127
  0.3333333333333333  0.1666666666666667  0.9425273310024872
  0.8333333333333333  0.1666666666666667  0.9469740096494411
  0.3333333333333333  0.6666666666666667  0.9469740096494411
  0.8333333333333333  0.6666666666666667  0.9469740096494411
  0.3333333333333333  0.1666666666666667  0.4417852515766292
  0.8333333333333333  0.1666666666666667  0.4349739906299219
  0.3333333333333333  0.6666666666666667  0.4349739906299219
  0.8333333333333333  0.6666666666666667  0.4349739906299219
  0.1666666666666667  0.3333333333333333  0.1910186317834841
  0.6666666666666667  0.3333333333333333  0.1910186317834841
  0.1666666666666667  0.8333333333333333  0.1910186317834841
  0.6666666666666667  0.8333333333333333  0.1944223009909688
  0.1666666666666667  0.3333333333333333  0.6939570519226108
  0.6666666666666667  0.3333333333333333  0.6939570519226108
  0.1666666666666667  0.8333333333333333  0.6939570519226107
  0.6666666666666667  0.8333333333333333  0.7165248828579571
  0.1666666666666679  0.3333333333333321  0.0000000000000000
  0.6666666666666667  0.8333333333333333  0.5096198198681993
