Ta  N  W Cu                             
   1.00000000000000     
    18.1096308199999996    0.0000000000000000    0.0000000000000000
     0.0000000000000000   23.3551997799999995    0.0000000000000000
     0.0000000000000000    0.0000000000000000   30.4818171199999988
   Ta   N    W    Cu
   192   240    48     4
Direct
  0.0001439366278717  0.0001183508612144  0.1968268828034638
  0.3338206708898568  0.0625712206868343  0.2027006451275213
  0.1663287240826108  0.0625590459143339  0.2026966282909299
  0.2501819980359912  0.1250540529471280  0.2780433388427781
  0.0823977051777831  0.0625268759811632  0.2836758879384504
  0.4177510465233354  0.0625358988722908  0.2837331393725506
  0.0001885402557988  0.1248188011960778  0.3694447526332141
  0.3327245438234314  0.0625063449242731  0.3678494759227036
  0.1677357211536830  0.0625047317907956  0.3678278196073919
  0.2502622698384371  0.1248767185091637  0.4538169285677398
  0.0839403156988183  0.0624808522654305  0.4538947469215060
  0.4164890704550288  0.0624362831219756  0.4543226861904870
  0.0002147888325510  0.1250160178616611  0.1968574311974933
  0.3338889369370364  0.1875653120741134  0.2027858508825133
  0.1664205989657432  0.1875622256445979  0.2027136713835134
  0.2502497228915459  0.2500419264385698  0.2781533702700756
  0.0825159905736967  0.1875233317970455  0.2837347590283343
  0.4178479565333362  0.1875235011425502  0.2837999486072746
  0.0003090737036047  0.2502097779929997  0.3694852588261810
  0.3327072430929263  0.1875030409217544  0.3679648020362762
  0.1677774108460710  0.1874828520510121  0.3678161594970604
  0.2503193730633484  0.2499173475015013  0.4538214523819022
  0.0839358636286747  0.1874218108011405  0.4542945151081810
  0.4166929200086216  0.1873402429133577  0.4540196262228022
  0.0003020398362779  0.2501207665189540  0.1969075703745418
  0.3339288294813443  0.3125270916708942  0.2028009641236110
  0.1664124023225995  0.3125429358944842  0.2027584444476815
  0.2502815063669459  0.3750426257921404  0.2782364753481446
  0.0825692332479875  0.3125195145765716  0.2837758381690989
  0.4178932058322573  0.3125284843544094  0.2838560544497071
  0.0003811238639742  0.3748357076164694  0.3695118958822263
  0.3327191986930202  0.3125225466059831  0.3680017697488438
  0.1679312249134455  0.3125203754699086  0.3679842258732720
  0.2508676076325997  0.3749174957388703  0.4541453337207813
  0.0842084898497220  0.3124648860921724  0.4539701968576964
  0.4167548336778779  0.3124058467885931  0.4544276762013482
  0.0003648043652476  0.3749899877065843  0.1969493283271930
  0.3339591350254594  0.4375031781730456  0.2028335279130999
  0.1664069021926977  0.4375108912622068  0.2027514681144211
  0.2500873390274947  0.0000364745318961  0.2779860832166605
  0.0826468322156160  0.4375285721047959  0.2838271234862404
  0.4179212817408740  0.4375088896279706  0.2838676286052788
  0.0001132594198694  0.0002291913763486  0.3694256854940221
  0.3326798381039282  0.4375367910533683  0.3680223896328698
  0.1679373911929360  0.4375327211326479  0.3679732942362151
  0.2501449700926344  0.0000536920935517  0.4537503607227222
  0.0841185780829363  0.4375579292224856  0.4543648780046325
  0.4166351094185501  0.4375547786902061  0.4540777755489103
  0.0003655597942895  0.5000167361320962  0.1969583220357549
  0.3339285854166931  0.5625042777215441  0.2027984887938175
  0.1664003993977232  0.5625042470503558  0.2027528038622606
  0.2502347069403541  0.6250119080601380  0.2781285718492157
  0.0825696155041271  0.5625204197536533  0.2837794734716041
  0.4178713091820256  0.5624916742214339  0.2838461514695823
  0.0003037668139427  0.6248499117474253  0.3694817836186104
  0.3327326566188944  0.5625640283412139  0.3679722548022752
  0.1679258289697856  0.5625464103472524  0.3679740512642766
  0.2502957193800270  0.6251919839980360  0.4537868464930384
  0.0841911483216791  0.5626268326167221  0.4539630273126249
  0.4167456699016370  0.5627298396022198  0.4543855029801449
  0.0002904018666641  0.6249074923300668  0.1969060604496065
  0.3338644887174098  0.6874559580494051  0.2027666887549984
  0.1664000060364472  0.6874698694626602  0.2027057817321349
  0.2501872722518854  0.7500109888930169  0.2780457371916185
  0.0825150506957115  0.6875168847095168  0.2837379290161266
  0.4178457820969896  0.6875172284261808  0.2837793434363007
  0.0001784272500487  0.7502365744781443  0.3694481448628224
  0.3327191854540672  0.6875814715552977  0.3679268393426156
  0.1677800931696609  0.6875894283948867  0.3678020669535513
  0.2502637956806311  0.7502234833556685  0.4537974101754756
  0.0839478700641578  0.6876697760849382  0.4542807320204219
  0.4167016744381158  0.6877774223757029  0.4539745564468731
  0.0002106976468141  0.7500211663234637  0.1968661034193033
  0.3338165147147123  0.8124854934733392  0.2026849702057234
  0.1663145827925732  0.8125022527785646  0.2026900728638381
  0.2500938264744619  0.8750171936851743  0.2779819968380792
  0.0823993677719201  0.8125149519168033  0.2836786934223952
  0.4177569002343731  0.8125193962480424  0.2837275102599222
  0.0001132345035515  0.8748315218813474  0.3694178968276987
  0.3327321068972253  0.8125901949664396  0.3678421971326884
  0.1677415043877630  0.8125816133958352  0.3678200705976025
  0.2501273636703019  0.8750560062984221  0.4537380714257324
  0.0839434833147337  0.8126158058086688  0.4538840397951418
  0.4165093970245763  0.8126698956476801  0.4543137127227723
  0.0001418205337060  0.8749280795591048  0.1968175762583755
  0.3337871072214043  0.9375199691061127  0.2026966752983981
  0.1663240892497058  0.9375213363235062  0.2026623346625058
  0.2502654694619935  0.5000085848093576  0.2782309507632874
  0.0823819183841437  0.9375176778589562  0.2836604480227365
  0.4177352323607266  0.9375311885295829  0.2837043502312611
  0.0003812354411110  0.5002333000934627  0.3695085798533810
  0.3326230572265700  0.9375395191497731  0.3678521876210326
  0.1676283955870304  0.9375413971028621  0.3677310119250734
  0.2508609705305460  0.5001818482515503  0.4541302887651497
  0.0838031038928548  0.9375415733859356  0.4542526474764443
  0.4165020163800861  0.9375556302907313  0.4539626480410917
  0.4998633782638606  0.0000043628056048  0.1968618042365833
  0.8337518705368865  0.0625591314144103  0.2026247327142343
  0.6662486398676535  0.0625546261538972  0.2026039374563595
  0.7501068531630679  0.1250589859396101  0.2778854356172431
  0.5823893654004522  0.0625314243095687  0.2836292843673220
  0.9178010676027029  0.0625289513082237  0.2835794267187595
  0.5002048389454146  0.1252366222926895  0.3695068798101673
  0.8326003703872971  0.0625164922086725  0.3676995432208230
  0.6676401719201621  0.0625216489256317  0.3677056412980590
  0.7501561199183655  0.1249509945788745  0.4536848334111099
  0.5840430751355683  0.0624750781843417  0.4542707528980117
  0.9163219777748566  0.0624879297804668  0.4538318000791790
  0.4999119849730249  0.1251186761780119  0.1968865389102206
  0.8337748000536962  0.1875389017082654  0.2026130668249877
  0.6663015018300484  0.1875502308303894  0.2026384048697309
  0.7502384738713772  0.2500336311852962  0.2779162774547004
  0.5824677157751097  0.1875262912384699  0.2836619013274628
  0.9178756930644667  0.1875278229762642  0.2836094291048212
  0.5002787674834082  0.2498538789480023  0.3695242424093479
  0.8327437855387956  0.1875027140171213  0.3676755971851122
  0.6678246384514424  0.1875261327242512  0.3677873135197842
  0.7502945951696134  0.2500177074644583  0.4536906223340083
  0.5840154362063714  0.1874333005924314  0.4539615127125316
  0.9165765520367515  0.1874473253379563  0.4542245542215895
  0.4999789596657251  0.2500323600848802  0.1969310700018241
  0.8338740462219363  0.3125265200635354  0.2026313936471382
  0.6663673247496362  0.3125512402351376  0.2026249451590374
  0.7503321203404809  0.3750320085348022  0.2779176393223963
  0.5825503679199500  0.3125184186877874  0.2836887806108095
  0.9180091462444793  0.3125201970116720  0.2836123466900062
  0.5002693215513787  0.3752366280676114  0.3695753550731879
  0.8327967816299093  0.3125144677310630  0.3677520242125993
  0.6679588671115866  0.3125110704976706  0.3677260643955051
  0.7503020051891838  0.3749408932131928  0.4537432257388687
  0.5840651065046316  0.3124202805482597  0.4542674166862355
  0.9165842461843070  0.3124705520751121  0.4538499887041638
  0.5000091114011127  0.3750823889127943  0.1969599483020943
  0.8339080266751395  0.4375074388661631  0.2026147232109423
  0.6663680947659714  0.4375137361127202  0.2026453312732599
  0.7500354973465306  0.0000449407849814  0.2778673185454821
  0.5825727843057749  0.4375172131997402  0.2836879907209351
  0.9179925608681216  0.4375223915427213  0.2836406498192048
  0.5001659237929417  0.9998235962376398  0.3694610230624278
  0.8328710286623959  0.4375356108213850  0.3677049386174147
  0.6680837501143202  0.4375268004800077  0.3677105179671685
  0.7501683079291084  0.0000498014037831  0.4536128386990299
  0.5842793378409610  0.4375390351440416  0.4537029373318120
  0.9168024239394725  0.4375332104527558  0.4542522615999331
  0.5000126816160630  0.4999571015972819  0.1969608844954820
  0.8338633424095860  0.5625172968838825  0.2026334403536865
  0.6663773698593687  0.5625051067064604  0.2026174994318808
  0.7502505113219229  0.6250284773458930  0.2778972052285695
  0.5825548189744296  0.5625085397957932  0.2836805093891073
  0.9179923651486916  0.5625157168036097  0.2836157885704722
  0.5002847745869801  0.6252118679143877  0.3695071633700309
  0.8327847656020140  0.5625525400469087  0.3677553560857518
  0.6679484810977883  0.5625378592990415  0.3677048639755611
  0.7503019106259217  0.6250400099859519  0.4536580453238841
  0.5840563552813833  0.5626826388083117  0.4542562318382437
  0.9165763810063581  0.5625948052670111  0.4538500103499032
  0.4999745855112891  0.6250207243459442  0.1969102740301594
  0.8337728936918651  0.6874811124306746  0.2026181070743291
  0.6663051051939632  0.6874745064336523  0.2026241885222433
  0.7500893002133964  0.7499906835822259  0.2778951548345034
  0.5824560995407850  0.6875207672096124  0.2836452029901650
  0.9178713482909018  0.6875066454624559  0.2836117592467104
  0.5002284409330073  0.7498395637740032  0.3694880011513320
  0.8327248932635598  0.6875583431256445  0.3676732943738656
  0.6678166635794298  0.6875434107083436  0.3677671173683947
  0.7501880097268412  0.7501076662157402  0.4536857789938935
  0.5840254822652540  0.6876589123640144  0.4539369326084355
  0.9165931271542647  0.6876192725066090  0.4542251773041386
  0.4999124234100734  0.7499261166078810  0.1968743055735089
  0.8337559634507556  0.8125023308220491  0.2026245993611440
  0.6662423195752893  0.8125036473678122  0.2025919465742874
  0.7500345440498890  0.8749900376333528  0.2778655162929766
  0.5823860313561511  0.8125025736191986  0.2836178981883037
  0.9178032807420848  0.8125024274960424  0.2835832895004273
  0.5001570640086612  0.8752576585532310  0.3694548686843859
  0.8325933100429381  0.8125361450550415  0.3677003686176761
  0.6676219250373876  0.8125531250299929  0.3677056222760910
  0.7501676715592538  0.8750050813123167  0.4535998395693639
  0.5840412864891817  0.8126170047864605  0.4542783289818928
  0.9163369414902789  0.8125749514808547  0.4538296443383913
  0.4998613033520840  0.8750310943434982  0.1968471228402180
  0.8337073412149749  0.9375169059728492  0.2026115816111087
  0.6662284412249946  0.9375193775427277  0.2026274896806228
  0.7503350697215012  0.5000075754177900  0.2779180842976672
  0.5823428507558290  0.9375351620163812  0.2836155136244543
  0.9177472564419915  0.9375193840331306  0.2835787693678711
  0.5002788538511069  0.4998293695638765  0.3695661517623918
  0.8326191735205839  0.9375232139605174  0.3676090037379396
  0.6676735273095531  0.9375383623454852  0.3677211959515461
  0.7503269722114965  0.5001062394864064  0.4537253521667068
  0.5840092253957252  0.9375622015556146  0.4538901629302003
  0.9164072123995339  0.9375334401448967  0.4541995137296269
  0.4059777489956460  0.0000293578573221  0.2320278943577136
  0.2500645607424730  0.0000383464676901  0.1992505455604316
  0.0940570143886532  0.0000489110454254  0.2319753193771916
  0.1545307077184006  0.1249751345827832  0.3155596515785604
  0.0001259623363126  0.1249841616134546  0.3029068246516644
  0.3457987999646264  0.1250574389105168  0.3156047778126663
  0.4014749383156655  0.1248463282201300  0.4024624132494381
  0.2501793873081581  0.1249824422297223  0.3865343774147760
  0.0989403965873805  0.1251037494438592  0.4024233320661850
  0.1535961609438701  0.1248070127815524  0.4870719110342279
  0.0001842351506127  0.1244510838140016  0.4749284080712215
  0.3469576868842807  0.1250253295354611  0.4871973080448129
  0.4010609414820436  0.1247196516464015  0.5676315994151722
  0.2504048439902391  0.1251519688103642  0.5573672161752086
  0.1001334459215002  0.1246813744050712  0.5674248490748610
  0.4060489409875956  0.1250597040408366  0.2320808717651843
  0.2501164525249422  0.1250547974510212  0.1992708558015082
  0.0941400487762394  0.1250491983547022  0.2320127189331131
  0.1545810977664033  0.2500506432953031  0.3156266848543794
  0.0002249288171896  0.2500498062158627  0.3029547247258080
  0.3458865822025103  0.2500079575311247  0.3156921135731849
  0.4015384746471966  0.2501236674143925  0.4025366741616239
  0.2502496857256560  0.2499693661270896  0.3865759208209454
  0.0990624961102995  0.2498495041035298  0.4024786836835048
  0.1537018484034931  0.2499559930495110  0.4871439911957296
  0.0003296250107780  0.2504455112887172  0.4749783648534702
  0.3470625120485309  0.2492636358313902  0.4871192950701158
  0.4001481146055141  0.2492948323520778  0.5680802286924589
  0.2503640727172325  0.2501289493409899  0.5575412580487438
  0.1002806462486134  0.2501590758748051  0.5674600614429721
  0.4061211069005353  0.2500433071467114  0.2321444098942465
  0.2501502674434519  0.2500664253946425  0.1994292208460351
  0.0942188810529956  0.2500530027371255  0.2320721821697873
  0.1546324108130079  0.3749953973447049  0.3156927922384725
  0.0002822938976195  0.3749884948542430  0.3029794235146497
  0.3459055336917274  0.3750598409253598  0.3157477020862558
  0.4014243867884630  0.3748808270290311  0.4025582832051384
  0.2503931600000584  0.3750426142398737  0.3868091121654587
  0.0991348821807350  0.3751546644914256  0.4025014223633576
  0.1537964685031028  0.3749474925062586  0.4871018856500058
  0.0004567808427893  0.3744576935796715  0.4749650813269781
  0.3476415693232227  0.3750364930406107  0.4878617915082870
  0.3991853717342408  0.3738462388982526  0.5691049121373055
  0.2501606798061147  0.3756542916164989  0.5575926140798515
  0.1002298821841876  0.3746281090554575  0.5676056200585009
  0.4061247142466300  0.3750213226049226  0.2321782342336434
  0.2501737170218519  0.3750331599694832  0.1995379748537118
  0.0942983753792674  0.3750241088657873  0.2321235690503300
  0.1544488267408894  0.0000580059625506  0.3155179056804656
  0.0000587529781981  0.0000576431265316  0.3028832291011625
  0.3457139222604795  0.0000096177498818  0.3155512202880075
  0.4014120688290959  0.0001188629744888  0.4024312051287851
  0.2501263418779516  0.9999972775844910  0.3864724583871322
  0.0988858242104556  0.9998980987496964  0.4023868908776436
  0.1535466098499398  0.0000857773790059  0.4870653117728665
  0.0000992010434970  0.0005173871960622  0.4749325466268459
  0.3468198405950957  0.9997342058558658  0.4871165123307009
  0.4005592794252095  0.9999027687216326  0.5676096613673636
  0.2502302524688176  0.9999357697722147  0.5573159665660725
  0.0999976821847852  0.0002854351397019  0.5673652704819432
  0.4061281727202797  0.4999912186142339  0.2321792972044747
  0.2501743527690294  0.5000066276187738  0.1995906312076769
  0.0942886616988119  0.5000083749697666  0.2321298270841297
  0.1545832000400722  0.6250004923513828  0.3156147680886363
  0.0002127438347088  0.6249923791943672  0.3029477584374689
  0.3458851689543323  0.6250439371371570  0.3156542186739415
  0.4015547695690316  0.6249606049273382  0.4024955374860824
  0.2502547627846923  0.6251049125448063  0.3865379694319131
  0.0990616886867812  0.6252302103197209  0.4024673519622155
  0.1536833394716695  0.6251424580007310  0.4871298979364980
  0.0003229741192641  0.6246358552895401  0.4749909366945175
  0.3470634000173618  0.6259020815423710  0.4870438785074782
  0.4001104532910489  0.6258705131555544  0.5680045636903017
  0.2503061532034749  0.6250347176170763  0.5575037377176599
  0.1002284732189835  0.6249562925337884  0.5674339026737556
  0.4061144052699319  0.6249899159842798  0.2321195051979572
  0.2501407880703965  0.6249692046433779  0.1993195076545291
  0.0942209778958372  0.6249843644477835  0.2320652431483339
  0.1545282447618632  0.7500877418819272  0.3155517031545543
  0.0001284560107280  0.7500540934361624  0.3029079993204675
  0.3458149823327332  0.7500134141445685  0.3155930437274890
  0.4014796168632699  0.7502486567831994  0.4024442383822091
  0.2501981292614346  0.7501054019217435  0.3865105603615859
  0.0989430411074821  0.7499732931281855  0.4024121096344615
  0.1536057895850931  0.7502929904680826  0.4870579529790362
  0.0002035787244594  0.7506352042647251  0.4749293787282838
  0.3469754895750086  0.7501094801523109  0.4871755886051972
  0.4011078622846256  0.7503744716142293  0.5675887556076731
  0.2504072933101327  0.7500032292008143  0.5573511293922451
  0.1001348388703605  0.7504437053065658  0.5674358518879501
  0.4060401648641943  0.7499854561275754  0.2320617558856881
  0.2500938146425540  0.7499867837934744  0.1993333091571259
  0.0941324658505422  0.7499925566650063  0.2320167730899030
  0.1544515748104303  0.8750089824019796  0.3155105426869724
  0.0000587477824752  0.8749801377407991  0.3028835917749007
  0.3457238861058087  0.8750666617864695  0.3155546619078748
  0.4014315924533420  0.8749871965764626  0.4024272312488222
  0.2501350634884218  0.8750948860764467  0.3864682253643821
  0.0988810229372135  0.8751870503807666  0.4023800790641587
  0.1535671023454981  0.8750218460867316  0.4870719032643791
  0.0001071085693951  0.8745703091916468  0.4749223923220001
  0.3468459153785375  0.8753821351625248  0.4871116676028393
  0.4005678820773610  0.8752288328542406  0.5676313085768143
  0.2502203118923987  0.8751807562038678  0.5573071892122314
  0.1000042309834370  0.8748319821511288  0.5673638907844776
  0.4059761682852283  0.8750108602357543  0.2320164683587365
  0.2500600685120915  0.8749940624207753  0.1991741856252105
  0.0940436691690749  0.8750026614533510  0.2319694128415577
  0.1546315963879934  0.5000609387242037  0.3156937060341534
  0.0002719495476384  0.5000621072453058  0.3029785141675774
  0.3458977480130301  0.4999815704014381  0.3157376587686826
  0.4014287040097031  0.5002178801516024  0.4025530466989764
  0.2504007040519767  0.5000328778764782  0.3867920913683633
  0.0991385110437477  0.4999246553433281  0.4024961916880159
  0.1538082349229057  0.5001607003686033  0.4870932381591473
  0.0004494116450573  0.5006348294678631  0.4749574571959343
  0.3476488382643339  0.5001069931677833  0.4878420227460651
  0.3991421697767237  0.5016184843464373  0.5690655156623023
  0.2500976578164611  0.4995283822216052  0.5575948719250903
  0.1002110707770356  0.5004971894526093  0.5675904414837945
  0.9060970239881954  0.0000416007178785  0.2318701335878899
  0.7499733983027994  0.0000319093979684  0.1991665773735107
  0.5939160480157781  0.0000290657405841  0.2319006233929315
  0.6545053396038796  0.1250767400164605  0.3154611850516247
  0.5001558058343463  0.1250658005337186  0.3029587658181754
  0.8457757665490675  0.1250010501052401  0.3154205309700302
  0.9014350197953789  0.1251222671005863  0.4023522422029018
  0.7502292250308926  0.1250222997520822  0.3863959142159956
  0.5990434654934091  0.1248910644214973  0.4023897855178120
  0.6536144474052605  0.1251405301695954  0.4871629933420252
  0.5003344719197997  0.1253991028037191  0.4751084536954977
  0.8467893855048771  0.1248844835837133  0.4869838136288607
  0.9002326365357121  0.1246931410877963  0.5673739486233131
  0.7501421655111642  0.1252382461283830  0.5573437533172765
  0.5997231955069253  0.1248944426643206  0.5676786918484282
  0.9061261705695287  0.1250416948059510  0.2318760318737958
  0.7499980538955597  0.1250348337112115  0.1990855511920131
  0.5939779899769277  0.1250501597263849  0.2319223327117044
  0.6546234696845445  0.2499964364389271  0.3154810534672876
  0.5002438794267334  0.2499974747186897  0.3029988846764695
  0.8459122561670540  0.2500569051903696  0.3154476034777929
  0.9015342525212446  0.2498552148737545  0.4023719281778639
  0.7503478183410124  0.2499884023592855  0.3864075583733637
  0.5991331798361372  0.2501535532208692  0.4024204802132303
  0.6536597258368744  0.2496048212544935  0.4871265705721797
  0.5004073800467879  0.2495671283220346  0.4749194627941264
  0.8469404586052249  0.2500263591945284  0.4870327477345455
  0.9004949476526392  0.2501979931009402  0.5673369428773967
  0.7502114766821109  0.2501641240764201  0.5574843322318017
  0.6005028962004886  0.2497394051350526  0.5680145686537585
  0.9061787177174665  0.2500392759075396  0.2318985555618767
  0.7500542693551182  0.2500438986912457  0.1991369361625388
  0.5940648052211301  0.2500417748620194  0.2319561193707358
  0.6547292266261735  0.3750337146255376  0.3154645536543228
  0.5002849133720204  0.3750601672328600  0.3030439129106028
  0.8459857662863257  0.3749926347232986  0.3154572868205392
  0.9015983355309274  0.3751615386419260  0.4023566128956304
  0.7504014800776204  0.3750265392614978  0.3864499712535618
  0.5992910720821243  0.3748720699153125  0.4022817980507867
  0.6536418371893475  0.3749399927642543  0.4872204474961634
  0.5004511953610731  0.3755172926461654  0.4741663361485422
  0.8471554794047478  0.3748787582542548  0.4869749633065794
  0.9007591560549173  0.3745757340400218  0.5674948649899676
  0.7509283616218667  0.3752653407281414  0.5573528610468870
  0.6015264697601026  0.3762623152715392  0.5685220685737988
  0.9062107142463489  0.3750122099720556  0.2319093542163699
  0.7501160666240025  0.3750342749083941  0.1991038344553999
  0.5941127968715847  0.3750250645505560  0.2319717860420525
  0.6544391488840020  0.0000085689015421  0.3154367583062623
  0.5000781525466280  0.9999973866251892  0.3029257506296688
  0.8457145582270584  0.0000611968061150  0.3153960838459327
  0.9013396899386947  0.9998945345588126  0.4023239467618396
  0.7501668933101584  0.0000039680093025  0.3863174794277811
  0.5989841245960292  0.0001392605443655  0.4023519152993273
  0.6536598837418381  0.9997638782898264  0.4870447971584184
  0.5002650698240600  0.9996025876462014  0.4749168839585352
  0.8467140570807956  0.0000928758858265  0.4869954330366966
  0.9002242381940491  0.0002878784921023  0.5673280340623208
  0.7501003105136306  0.9999480824251208  0.5572732637364837
  0.5998694248353473  0.9999352273324007  0.5675181368365401
  0.9062061762588840  0.5000184172642079  0.2319182552534400
  0.7501150724637213  0.5000114811970064  0.1991753217587089
  0.5941086856506885  0.5000064025948276  0.2319699378663032
  0.6546174904763546  0.6250550643173014  0.3154561691273585
  0.5002417801308638  0.6250335715659929  0.3029678167398586
  0.8458997898183611  0.6249932708081616  0.3154448120722861
  0.9015127270177530  0.6252186357044565  0.4023728433128753
  0.7503314025556946  0.6250665719514998  0.3863890297805170
  0.5991255813753753  0.6249148053175091  0.4023951849331908
  0.6536565113368979  0.6254773258840771  0.4870895481704167
  0.5004007585536527  0.6255471121889897  0.4748867574311149
  0.8469355574685267  0.6250322638825310  0.4870342579804543
  0.9004641592690277  0.6248529831477754  0.5673612007292732
  0.7502275191530359  0.6249193534747661  0.5574645218461001
  0.6005819491218816  0.6253406835786564  0.5679768814571631
  0.9061848186914787  0.6249924647319105  0.2318895756810306
  0.7500622756568873  0.6249939277990606  0.1990541432788646
  0.5940562655535260  0.6250037586952359  0.2319365401189160
  0.6544873646272933  0.7499929980703328  0.3154497518269892
  0.5001526431788008  0.7499854214174988  0.3029398559564740
  0.8457717790901356  0.7500409896571156  0.3154206030128606
  0.9014250533545294  0.7499311165670051  0.4023488655200040
  0.7502134530684259  0.7500442569546948  0.3863878643839840
  0.5990510590294704  0.7501959968187037  0.4023889473251998
  0.6536002520077204  0.7499388311093185  0.4871646385636055
  0.5003618653475499  0.7496771515374050  0.4750843405144423
  0.8467857565251649  0.7501625594602217  0.4869737573221258
  0.9002708468621705  0.7503647864442797  0.5673875120356087
  0.7501701895807713  0.7498187098383795  0.5573391700871042
  0.5997544047094792  0.7501640413792501  0.5676653783824079
  0.9061204039331514  0.7499950766576546  0.2318807225261281
  0.7499990044457974  0.7500006755173629  0.1991671907262855
  0.5939737142889143  0.7499969619984483  0.2319083486226106
  0.6544272358068142  0.8750459559527854  0.3154334248794441
  0.5000764365940924  0.8750632026231671  0.3029208570450521
  0.8457076566725590  0.8749755777921209  0.3153900971362873
  0.9013299800453822  0.8751640727881949  0.4023208452684486
  0.7501585529524917  0.8750482548200011  0.3863228029292856
  0.5989922754338082  0.8749559956148545  0.4023661037251856
  0.6536355521068558  0.8753460472460830  0.4870493083075402
  0.5002746995668375  0.8754982527887307  0.4749027542904471
  0.8467182557235802  0.8749565053231692  0.4869945530908950
  0.9002245711274171  0.8747752408565432  0.5673274441087770
  0.7501033600169578  0.8750997454584493  0.5572730234806187
  0.5998986058025864  0.8751633947190598  0.5675200757638450
  0.9061002529636539  0.8749969123961350  0.2318676573559486
  0.7499687909634929  0.8749986089207269  0.1991051808560655
  0.5939165102698141  0.8750099238799294  0.2318856270465588
  0.6547341073205075  0.4999968669959074  0.3154579575800867
  0.5002909471163690  0.4999560067402413  0.3030432197036390
  0.8459733138928769  0.5000628534978375  0.3154651682869556
  0.9015892698883903  0.4999115152162119  0.4023632522024130
  0.7503959058820939  0.5000134923048165  0.3864419663269913
  0.5992827250949446  0.5002024138547299  0.4022698217392673
  0.6536608500798593  0.5001417080560131  0.4871953318871149
  0.5004340645817038  0.4996466213778206  0.4740919219562585
  0.8471830767600608  0.5001458269168850  0.4869672102079292
  0.9007456103595715  0.5004613217511391  0.5675130650951274
  0.7509613402469029  0.4997999954058727  0.5573294701071276
  0.6016667666218112  0.4990035528000547  0.5684378269752912
  0.0001887104254976  0.1144806991476912  0.5414544738711839
  0.3364230430178239  0.0622039914195085  0.5393166033563759
  0.1669377096874953  0.0625154675583985  0.5388158484173147
  0.0004135363769748  0.2604881257096139  0.5415078243804246
  0.3339818921848376  0.1869567562310266  0.5389971720010038
  0.1644253861662648  0.1873338379412246  0.5393449827486663
  0.0005185128448630  0.3644184572224134  0.5414780206430976
  0.3354653248094763  0.3107446882425648  0.5392136473931401
  0.1665018222209156  0.3124845938158813  0.5388127189407541
  0.0000773558273508  0.0105489954484028  0.5414667894082896
  0.3311514073696813  0.4376343953569588  0.5390297089512046
  0.1637932939638276  0.4375780937055609  0.5393766522822219
  0.0003577419291503  0.6145983129626273  0.5415082884416265
  0.3354403620287343  0.5644476912787866  0.5391474345900136
  0.1664622524711845  0.5626074873371323  0.5388079214172521
  0.0002185722909758  0.7606071299717527  0.5414508314433704
  0.3339676668773635  0.6881921763046535  0.5389522630949841
  0.1644309400872146  0.6878062276018824  0.5393386788765682
  0.0000995418944427  0.8645566249087224  0.5414699206514157
  0.3364181710190124  0.8129206942248999  0.5392901469173879
  0.1669281535776364  0.8125739102177363  0.5388195961092492
  0.0004722717747256  0.5106569605702447  0.5414837997865405
  0.3337258807587702  0.9375416431584114  0.5389339825661636
  0.1642911997362120  0.9375453220914167  0.5393412687784149
  0.5003907008484347  0.1350417068932899  0.5416788780977271
  0.8334404392772399  0.0625374511380983  0.5387415355370919
  0.6640906686060575  0.0623357953341142  0.5392719481978361
  0.5003844400807722  0.2410724343648951  0.5415462767464945
  0.8360942081786575  0.1873687843970302  0.5392687804102181
  0.6667424828610962  0.1872647546090391  0.5389667806478045
  0.5011099588718935  0.3843766587727018  0.5406824974733127
  0.8341338484157248  0.3124901257772450  0.5387170180986303
  0.6648083842369275  0.3114752288604876  0.5393392099267587
  0.5001940011314261  0.9902344839283543  0.5414354889782160
  0.8374962397423076  0.4375261524657788  0.5393141357994082
  0.6704519314817077  0.4375364925628986  0.5378789284011702
  0.5004122437071032  0.6339474792759745  0.5414995339602271
  0.8341327831744181  0.5625486148866585  0.5387137387722305
  0.6648747508710642  0.5636691511421148  0.5393001016175205
  0.5004279839647197  0.7400278417664623  0.5416741129024487
  0.8361185326495075  0.6876725797631096  0.5392670466434950
  0.6667780346282584  0.6878131908983960  0.5389415706960037
  0.5001764374089532  0.8848447086647298  0.5414527554406021
  0.8334657158692664  0.8125146931586471  0.5387461063291354
  0.6640893982225293  0.8127298010237638  0.5392711386967832
  0.5010757511351969  0.4909867324337682  0.5406165404298733
  0.8359210309238563  0.9375229014600635  0.5392759416767063
  0.6666526393785546  0.9375369630946579  0.5388479155201722
  0.5659802924960928  0.4381838032543683  0.6131343086738710
  0.4485889309505140  0.4921015210032493  0.6239615927880351
  0.4468983489521463  0.3868543654373440  0.6240305710478680
  0.5026470039293756  0.4391851378018146  0.6827598833928334
 
  0.00000000E+00  0.00000000E+00  0.00000000E+00
  0.00000000E+00  0.00000000E+00  0.00000000E+00
  0.00000000E+00  0.00000000E+00  0.00000000E+00