Ta N Cu Ru                              
   1.00000000000000     
    18.1096308199999996    0.0000000000000000    0.0000000000000000
     0.0000000000000000   11.6775998899999998    0.0000000000000000
     0.0000000000000000    0.0000000000000000   23.4818170799999990
   Ta   N    Cu   Ru
   119   120     2     1
Direct
  0.0001437249730246  0.0002965588756552  0.2553001401818035
  0.3333039898371536  0.1255132739589600  0.2637633208238782
  0.1664991707038371  0.1255338744700326  0.2639415723206872
  0.2497236580024171  0.2503772533431959  0.3612801965292183
  0.0824175168116071  0.1254447410997415  0.3686567861956083
  0.4173640670163262  0.1254501182997718  0.3682753214321630
  0.0000560118052452  0.2505575741350275  0.4804559436125108
  0.3322262547475426  0.1253179888496005  0.4779614585744225
  0.1678216009086002  0.1254687697979981  0.4781175992277094
  0.2498844455304669  0.2507746021760655  0.5907285284539033
  0.0838565327779142  0.1256251623683599  0.5902606532140058
  0.4160469674979422  0.1260230313089673  0.5887446331333555
  0.9988792951688031  0.2507462526271909  0.7022622225655831
  0.3351992771655183  0.1270584581054325  0.6996845970994867
  0.1617391483453872  0.1260549370489464  0.7034109729909009
  0.0000227826151909  0.2504492955682864  0.2552956895527401
  0.3333061373494899  0.3755047057360664  0.2637879550865185
  0.1664889228766017  0.3753801141231596  0.2639786937293836
  0.2498635735276891  0.5004567715683615  0.3613971258129076
  0.0824000546900322  0.3754043229120678  0.3687029351760395
  0.4174004463602172  0.3755787545516530  0.3683354996002979
  0.0000348500035073  0.5006243241119083  0.4803173186404175
  0.3322400911307013  0.3756486315927948  0.4780908536817254
  0.1678687648307899  0.3755833053727065  0.4782292132836085
  0.2502162068460841  0.5001684608635867  0.5912462985117669
  0.0838770538127519  0.3758756593525943  0.5902234386410256
  0.4160057265513584  0.3750708967690218  0.5892910475678338
 -0.0006443649691176  0.5005633720909808  0.7022684644025470
  0.3347006655253446  0.3786913781444149  0.7047349258412211
  0.1633411448242112  0.3770881059505781  0.7045350714854490
  0.0001395677987817  0.5005731032803421  0.2552555126813746
  0.3335517996068199  0.6256722281475443  0.2637917025438009
  0.1661024537819312  0.6255547495417523  0.2639796482247606
  0.2499909369775885  0.7504523802950192  0.3614038257017465
  0.0825408792671277  0.6254160092801623  0.3688044421658797
  0.4173184806894106  0.6255770134262764  0.3684669141174534
  0.0000904441938461  0.7505234149778865  0.4802957826484375
  0.3324477732309926  0.6255538908099861  0.4783788506431945
  0.1676886370369813  0.6255485687356329  0.4783910582558973
  0.2502862801588708  0.7507628215634211  0.5914072695978639
  0.0837648105568287  0.6257436664912904  0.5902553314338267
  0.4164531101072208  0.6253136135379583  0.5903327294216585
  0.9993815384714839  0.7508696999931361  0.7023157045451798
  0.3356248833190735  0.6258489887845813  0.7044024693002895
  0.1648549048332613  0.6258942229917621  0.7043568106374393
  0.0000131535354319  0.7504029841015253  0.2552304415673651
  0.3335087746369488  0.8753263073231610  0.2637619013185344
  0.1661414959938041  0.8753316284050917  0.2640027031067066
  0.2498185661977579  0.0005191789815967  0.3613464130892391
  0.0824879898930953  0.8753914781148526  0.3688284034696213
  0.4173809229288048  0.8754173724490999  0.3684317144884247
  0.0001056696807907  0.0004192487576406  0.4803724288742778
  0.3323879034681481  0.8753307803954236  0.4783276431806331
  0.1676740428765534  0.8754148812088022  0.4784380851600272
  0.2504176532644689  0.0009218275220095  0.5909926362610289
  0.0840413568012939  0.8755917618448166  0.5903282962228253
  0.4164806362669953  0.8753244107094211  0.5903304067864630
  0.9991417560260808  0.0009029501936377  0.7022905145358627
  0.3356060665181688  0.8728550439962223  0.7055524801613571
  0.1637451138534242  0.8750410034061290  0.7048191426765934
  0.4997952979497222  0.0003043710156214  0.2548010190330326
  0.8334224272161137  0.1253234179306995  0.2640191527133836
  0.6667226749233829  0.1253512577785631  0.2637835781363803
  0.7502542984822940  0.2504493887568199  0.3613252149638269
  0.5824650731068761  0.1254734744372011  0.3681890858987634
  0.9176700214654380  0.1254267009147315  0.3686691063013051
  0.4998303867658254  0.2505376377036508  0.4793369823741652
  0.8320039933407839  0.1254365612828627  0.4780852315258425
  0.6677071881877694  0.1252956476245302  0.4777643016137739
  0.7498765088385988  0.2504403296766192  0.5907602687025860
  0.5839731405268618  0.1259173434851692  0.5885175238255024
  0.9161811116138084  0.1256168283428810  0.5900348910064107
  0.8345198185015036  0.1254580261849695  0.7040466806895685
  0.6644507978868849  0.1264672842776679  0.7030438399437637
  0.4998900813647840  0.2505310582509855  0.2547692811600597
  0.8334337363862607  0.3754691818320985  0.2639843078755187
  0.6667034258560568  0.3755893561368567  0.2637600980681806
  0.7501203072871785  0.5004088079942627  0.3613562956024595
  0.5824566923360903  0.3756007041766796  0.3682326401133967
  0.9176567780669699  0.3754016497890044  0.3686585980606571
  0.4998456666173532  0.5006047682529419  0.4796972717137367
  0.8320668459433972  0.3755509201669540  0.4780568380056223
  0.6676348936597167  0.3756309625928519  0.4778397236835293
  0.7495960651434905  0.5001338597607252  0.5910554620155685
  0.5838171396764043  0.3748383248900529  0.5887741731893248
  0.9162167240460781  0.3756841945176791  0.5900379602033645
  0.5000804683392465  0.4925773387324396  0.7030772418926954
  0.8345951817268467  0.3753457837454776  0.7040488849117860
  0.6643021586627926  0.3747474848224850  0.7033185919419791
  0.4997788544358158  0.5006297886960003  0.2548267982257664
  0.8338276710866102  0.6253358196845156  0.2640179859385479
  0.6665010468974769  0.6254400766934820  0.2637637442229039
  0.7500096300159814  0.7504529054430312  0.3614462473559837
  0.5824708012162372  0.6255911055517911  0.3683242598977223
  0.9175574983601340  0.6254043343260991  0.3687712683117637
  0.4998613156648901  0.7504516379072942  0.4799753436721549
  0.8322530611189257  0.6255280088382862  0.4783081893353768
  0.6674554609281693  0.6255393019505172  0.4781123205837173
  0.7497383915098526  0.7504724660708795  0.5911319946633147
  0.5832957647118796  0.6252620472262849  0.5900134904372591
  0.9161922689750193  0.6256480297106507  0.5900245719506774
  0.5001828625550355  0.7505379473484962  0.7024821019292276
  0.8345589616333572  0.6253894543409061  0.7042374594752783
  0.6642217419378386  0.6253963177851599  0.7042903861469092
  0.4998886149192895  0.7505084815522257  0.2548321332656761
  0.8337887761550515  0.8755560743704679  0.2640137337003715
  0.6664877430484182  0.8754922461078046  0.2637189288279275
  0.7501647832153879  0.0004172686225365  0.3613347189268561
  0.5824529808050559  0.8754398124464144  0.3683294356798482
  0.9175851739889441  0.8754017972051107  0.3687955449852695
  0.4998546134104341  0.0001406981274712  0.4796330049753359
  0.8323092649916616  0.8754526108275874  0.4782824458316643
  0.6675331177315728  0.8753555918816872  0.4780321557557399
  0.7496629395020890  0.0009890799411660  0.5910363288643573
  0.5834474562887462  0.8754059315065913  0.5898938880189390
  0.9161946912030555  0.8756193341933300  0.5900422886033834
  0.5017327351513603  0.0065498210207585  0.7020453102391087
  0.8346636731737435  0.8759143151421207  0.7041544762130159
  0.6644022256910830  0.8757406105797446  0.7040277021717636
  0.4066121379791407  0.0003513340730480  0.3011595548595480
  0.2498596081549225  0.0002909010919631  0.2581636843043786
  0.0932507757972946  0.0004884643288307  0.3016017082399111
  0.1544349408480390  0.2505085369766131  0.4101682714724178
  0.0000371498207141  0.2504385210533074  0.3936531803167960
  0.3454292521902485  0.2505321128633488  0.4098045361099849
  0.4006835825383833  0.2505829435900795  0.5215741502915685
  0.2499353060505352  0.2504706890684915  0.5026628804128886
  0.0991577596715835  0.2506361306815228  0.5222795872134866
  0.1520212739871873  0.2515754878749137  0.6337303285658130
 -0.0000934792185813  0.2506618602160858  0.6136757087781370
  0.3480672994421470  0.2525558284853237  0.6334222396605137
  0.4053344235569193  0.2556670273940513  0.7410144835786374
  0.2498017496699400  0.2488699194845440  0.7283729814101837
  0.0957288740104979  0.2515848875298537  0.7409112142546505
  0.4066674658266494  0.2505117990193210  0.3010707811724949
  0.2499386251661053  0.2504776956675061  0.2575049036930058
  0.0931623877071958  0.2504527066257543  0.3015201128268580
  0.1545329674335860  0.5004874496333841  0.4102703653170749
  0.0000465638803787  0.5004649483396683  0.3936067172634168
  0.3454594150465519  0.5005604113395900  0.4100533092995386
  0.4009988472627118  0.5005236713509967  0.5222954539609096
  0.2500301289334878  0.5008422270300024  0.5031716171575343
  0.0991019371302780  0.5005402523814863  0.5223571261340012
  0.1519751600227494  0.5010635755124140  0.6335468017142919
 -0.0000857426059677  0.5007102013907225  0.6137278567190192
  0.3487165320156015  0.4998372735785470  0.6338269542529372
  0.4031411173045490  0.4991637274666142  0.7411061215088673
  0.2502650492401664  0.4997583686541603  0.7246652642393816
  0.0967144626120508  0.5010829394276237  0.7405713673536409
  0.4066169604090189  0.5006472205588596  0.3012277601767239
  0.2498581243586261  0.5006958460153904  0.2582739486538142
  0.0932337338569429  0.5003783381811818  0.3016019207720486
  0.1546317823526855  0.7504555487447682  0.4103003094550604
  0.0000408892203959  0.7503960444308414  0.3936158675131460
  0.3454844517925310  0.7504977924881511  0.4101589433360262
  0.4010045870198975  0.7504497121999638  0.5224010090827669
  0.2500936128828188  0.7503938578104750  0.5032291898817566
  0.0991456072705674  0.7506009422346583  0.5224847202263283
  0.1521535851882360  0.7506708835316637  0.6336551258427673
 -0.0000226694947643  0.7507501517725562  0.6137213605178042
  0.3484296294522549  0.7509972448364181  0.6339864105254139
  0.4029269192921654  0.7504959071053444  0.7412471001313248
  0.2506121513190979  0.7523032573698467  0.7247340696748586
  0.0968613878190038  0.7507947394662421  0.7405244979012998
  0.4067355220753563  0.7505203890362377  0.3012936033772257
  0.2497781821566847  0.7504470441418284  0.2582804507252554
  0.0931458853374794  0.7504483476559135  0.3016672983581770
  0.1545013885085565  0.0003982395774641  0.4102338816513406
  0.0000636926728822  0.0004227359370102  0.3936418440533581
  0.3454272800157520  0.0003377330182539  0.4099509202796230
  0.4009200718007656  0.0001503995292603  0.5220482030061505
  0.2500578322531353  0.0003163257490645  0.5029799320848037
  0.0991951897425648  0.0005926639780431  0.5223631867092893
  0.1524007369215342  0.9998629649591468  0.6337777817136262
 -0.0000155579990281  0.0006265705579347  0.6137245764819159
  0.3488780482694340 -0.0007014382860308  0.6341390031051560
  0.4055726229146529 -0.0001079097435580  0.7434319716817751
  0.2501980186826451  0.0047299187144301  0.7286318243826839
  0.0960238437513993  0.0002540676755622  0.7409204940077118
  0.9069154033470160  0.0004639056978901  0.3015387196130909
  0.7500922811461181  0.0002320658020948  0.2575347439912072
  0.5931328751102661  0.0003228803733320  0.3010293850527614
  0.6544148539112606  0.2504888883702740  0.4096337357630560
  0.4999251776351767  0.2504787142166838  0.3927984908127299
  0.8456395509007664  0.2504521779659434  0.4100933661821596
  0.9008894610831506  0.2504946771769435  0.5221719478437407
  0.7499427273079855  0.2505791972197894  0.5025822549980705
  0.5991168710078902  0.2505299181521104  0.5213207239442232
  0.6514520428843823  0.2505633462340106  0.6326365601339847
  0.4998680284022899  0.2501013039586474  0.6119635804092795
  0.8478609851874972  0.2506657901327339  0.6334030056915451
  0.9023728797781713  0.2504144434288839  0.7406483626380443
  0.7487160674212063  0.2506140871389965  0.7243665695060350
  0.5946985096775377  0.2505635159391231  0.7378295370869944
  0.9068309279133989  0.2504187858946478  0.3014949550956939
  0.7500264103952371  0.2504571757923629  0.2575843728869709
  0.5932372590393061  0.2505431540507698  0.3009522026084737
  0.6544093113410382  0.5006136272341403  0.4098266084614725
  0.4999252954828176  0.5006396559374100  0.3930401700364352
  0.8455406988358846  0.5004831532085545  0.4101426390514440
  0.9009071653743043  0.5005615352851638  0.5222109931555545
  0.7498655401332153  0.5006941174767753  0.5029286034973492
  0.5987918868677181  0.5005883937190420  0.5219767092387234
  0.6509743347636987  0.5001017769892498  0.6332153069913651
  0.4999395860593262  0.4983610743450821  0.6143216971833053
  0.8478970221768389  0.5008798664555330  0.6332062919548581
  0.9027152350031323  0.5002591671739537  0.7403329457877039
  0.7493804125167671  0.5003577530010510  0.7239222639630045
  0.5962003380673797  0.4982715442316709  0.7406757513367295
  0.9069187316529650  0.5003778588304543  0.3015139698650287
  0.7501281288254215  0.5006507134615175  0.2576544796419489
  0.5931252129729269  0.5006453088051677  0.3010475875910871
  0.6543675981625415  0.7504607166210541  0.4099312211568422
  0.4999333028554215  0.7504691435134976  0.3931979710651236
  0.8454508884522388  0.7504378461560859  0.4101900612632682
  0.9009206537104012  0.7505368743214830  0.5222915664642575
  0.7498183401235330  0.7504906788022078  0.5029621244708016
  0.5988137533718698  0.7503665886337787  0.5220749796947824
  0.6514798479371490  0.7502942405475391  0.6333041696452060
  0.4999826093715662  0.7502589190802315  0.6138352200259838
  0.8479114046017012  0.7504589141354403  0.6332276470287713
  0.9027477566081046  0.7504591931539292  0.7403940861739364
  0.7491523672455412  0.7505255783972384  0.7238460726157685
  0.5964658428153113  0.7505560520942416  0.7406433280175814
  0.9068429611897858  0.7504298354753749  0.3016161312887268
  0.7501977388511875  0.7504428582820190  0.2584926508824550
  0.5931652043460560  0.7505092643126584  0.3011412281563753
  0.6544037529875789  0.0003646509071967  0.4097713438570235
  0.4999075662465495  0.0004097727912890  0.3929963855830786
  0.8455850708240871  0.0004093155925845  0.4101585535685501
  0.9009355649596847  0.0007063617114905  0.5222219689359987
  0.7498811055605782  0.0001364516161821  0.5028810630977109
  0.5989093303325033  0.0000977993961350  0.5217860097180274
  0.6509902974776250  0.0008758654545364  0.6332053979786669
  0.5001092887209546  0.0021580101482040  0.6136468631878880
  0.8479054126698364  0.0003612734785741  0.6332686784149786
  0.9025442802327092  0.0009839778746224  0.7405210090411151
  0.7494710981862878  0.0005578175439146  0.7239821956645967
  0.5966111234765528  0.0031811578057402  0.7407933462220688
  0.2612062171723741  0.1282955026884949  0.7931508596385478
  0.4122694160852555  0.1317884771348116  0.7933168978217179
  0.5009591570997430  0.2503152685441865  0.6975414503304106
 
  0.00000000E+00  0.00000000E+00  0.00000000E+00
  0.00000000E+00  0.00000000E+00  0.00000000E+00
  0.00000000E+00  0.00000000E+00  0.00000000E+00
  0.00000000E+00  0.00000000E+00  0.00000000E+00
  0.00000000E+00  0.00000000E+00  0.00000000E+00
  0.00000000E+00  0.00000000E+00  0.00000000E+00
  0.00000000E+00  0.00000000E+00  0.00000000E+00
  0.00000000E+00  0.00000000E+00  0.00000000E+00
  0.00000000E+00  0.00000000E+00  0.00000000E+00
  0.00000000E+00  0.00000000E+00  0.00000000E+00
  0.00000000E+00  0.00000000E+00  0.00000000E+00
  0.00000000E+00  0.00000000E+00  0.00000000E+00
  0.00000000E+00  0.00000000E+00  0.00000000E+00
  0.00000000E+00  0.00000000E+00  0.00000000E+00
  0.00000000E+00  0.00000000E+00  0.00000000E+00
  0.00000000E+00  0.00000000E+00  0.00000000E+00
  0.00000000E+00  0.00000000E+00  0.00000000E+00
  0.00000000E+00  0.00000000E+00  0.00000000E+00
  0.00000000E+00  0.00000000E+00  0.00000000E+00
  0.00000000E+00  0.00000000E+00  0.00000000E+00
  0.00000000E+00  0.00000000E+00  0.00000000E+00
  0.00000000E+00  0.00000000E+00  0.00000000E+00
  0.00000000E+00  0.00000000E+00  0.00000000E+00
  0.00000000E+00  0.00000000E+00  0.00000000E+00
  0.00000000E+00  0.00000000E+00  0.00000000E+00
  0.00000000E+00  0.00000000E+00  0.00000000E+00
  0.00000000E+00  0.00000000E+00  0.00000000E+00
  0.00000000E+00  0.00000000E+00  0.00000000E+00
  0.00000000E+00  0.00000000E+00  0.00000000E+00
  0.00000000E+00  0.00000000E+00  0.00000000E+00
  0.00000000E+00  0.00000000E+00  0.00000000E+00
  0.00000000E+00  0.00000000E+00  0.00000000E+00
  0.00000000E+00  0.00000000E+00  0.00000000E+00
  0.00000000E+00  0.00000000E+00  0.00000000E+00
  0.00000000E+00  0.00000000E+00  0.00000000E+00
  0.00000000E+00  0.00000000E+00  0.00000000E+00
  0.00000000E+00  0.00000000E+00  0.00000000E+00
  0.00000000E+00  0.00000000E+00  0.00000000E+00
  0.00000000E+00  0.00000000E+00  0.00000000E+00
  0.00000000E+00  0.00000000E+00  0.00000000E+00
  0.00000000E+00  0.00000000E+00  0.00000000E+00
  0.00000000E+00  0.00000000E+00  0.00000000E+00
  0.00000000E+00  0.00000000E+00  0.00000000E+00
  0.00000000E+00  0.00000000E+00  0.00000000E+00
  0.00000000E+00  0.00000000E+00  0.00000000E+00
  0.00000000E+00  0.00000000E+00  0.00000000E+00
  0.00000000E+00  0.00000000E+00  0.00000000E+00
  0.00000000E+00  0.00000000E+00  0.00000000E+00
  0.00000000E+00  0.00000000E+00  0.00000000E+00
  0.00000000E+00  0.00000000E+00  0.00000000E+00
  0.00000000E+00  0.00000000E+00  0.00000000E+00
  0.00000000E+00  0.00000000E+00  0.00000000E+00
  0.00000000E+00  0.00000000E+00  0.00000000E+00
  0.00000000E+00  0.00000000E+00  0.00000000E+00
  0.00000000E+00  0.00000000E+00  0.00000000E+00
  0.00000000E+00  0.00000000E+00  0.00000000E+00
  0.00000000E+00  0.00000000E+00  0.00000000E+00
  0.00000000E+00  0.00000000E+00  0.00000000E+00
  0.00000000E+00  0.00000000E+00  0.00000000E+00
  0.00000000E+00  0.00000000E+00  0.00000000E+00
  0.00000000E+00  0.00000000E+00  0.00000000E+00
  0.00000000E+00  0.00000000E+00  0.00000000E+00
  0.00000000E+00  0.00000000E+00  0.00000000E+00
  0.00000000E+00  0.00000000E+00  0.00000000E+00
  0.00000000E+00  0.00000000E+00  0.00000000E+00
  0.00000000E+00  0.00000000E+00  0.00000000E+00
  0.00000000E+00  0.00000000E+00  0.00000000E+00
  0.00000000E+00  0.00000000E+00  0.00000000E+00
  0.00000000E+00  0.00000000E+00  0.00000000E+00
  0.00000000E+00  0.00000000E+00  0.00000000E+00
  0.00000000E+00  0.00000000E+00  0.00000000E+00
  0.00000000E+00  0.00000000E+00  0.00000000E+00
  0.00000000E+00  0.00000000E+00  0.00000000E+00
  0.00000000E+00  0.00000000E+00  0.00000000E+00
  0.00000000E+00  0.00000000E+00  0.00000000E+00
  0.00000000E+00  0.00000000E+00  0.00000000E+00
  0.00000000E+00  0.00000000E+00  0.00000000E+00
  0.00000000E+00  0.00000000E+00  0.00000000E+00
  0.00000000E+00  0.00000000E+00  0.00000000E+00
  0.00000000E+00  0.00000000E+00  0.00000000E+00
  0.00000000E+00  0.00000000E+00  0.00000000E+00
  0.00000000E+00  0.00000000E+00  0.00000000E+00
  0.00000000E+00  0.00000000E+00  0.00000000E+00
  0.00000000E+00  0.00000000E+00  0.00000000E+00
  0.00000000E+00  0.00000000E+00  0.00000000E+00
  0.00000000E+00  0.00000000E+00  0.00000000E+00
  0.00000000E+00  0.00000000E+00  0.00000000E+00
  0.00000000E+00  0.00000000E+00  0.00000000E+00
  0.00000000E+00  0.00000000E+00  0.00000000E+00
  0.00000000E+00  0.00000000E+00  0.00000000E+00
  0.00000000E+00  0.00000000E+00  0.00000000E+00
  0.00000000E+00  0.00000000E+00  0.00000000E+00
  0.00000000E+00  0.00000000E+00  0.00000000E+00
  0.00000000E+00  0.00000000E+00  0.00000000E+00
  0.00000000E+00  0.00000000E+00  0.00000000E+00
  0.00000000E+00  0.00000000E+00  0.00000000E+00
  0.00000000E+00  0.00000000E+00  0.00000000E+00
  0.00000000E+00  0.00000000E+00  0.00000000E+00
  0.00000000E+00  0.00000000E+00  0.00000000E+00
  0.00000000E+00  0.00000000E+00  0.00000000E+00
  0.00000000E+00  0.00000000E+00  0.00000000E+00
  0.00000000E+00  0.00000000E+00  0.00000000E+00
  0.00000000E+00  0.00000000E+00  0.00000000E+00
  0.00000000E+00  0.00000000E+00  0.00000000E+00
  0.00000000E+00  0.00000000E+00  0.00000000E+00
  0.00000000E+00  0.00000000E+00  0.00000000E+00
  0.00000000E+00  0.00000000E+00  0.00000000E+00
  0.00000000E+00  0.00000000E+00  0.00000000E+00
  0.00000000E+00  0.00000000E+00  0.00000000E+00
  0.00000000E+00  0.00000000E+00  0.00000000E+00
  0.00000000E+00  0.00000000E+00  0.00000000E+00
  0.00000000E+00  0.00000000E+00  0.00000000E+00
  0.00000000E+00  0.00000000E+00  0.00000000E+00
  0.00000000E+00  0.00000000E+00  0.00000000E+00
  0.00000000E+00  0.00000000E+00  0.00000000E+00
  0.00000000E+00  0.00000000E+00  0.00000000E+00
  0.00000000E+00  0.00000000E+00  0.00000000E+00
  0.00000000E+00  0.00000000E+00  0.00000000E+00
  0.00000000E+00  0.00000000E+00  0.00000000E+00
  0.00000000E+00  0.00000000E+00  0.00000000E+00
  0.00000000E+00  0.00000000E+00  0.00000000E+00
  0.00000000E+00  0.00000000E+00  0.00000000E+00
  0.00000000E+00  0.00000000E+00  0.00000000E+00
  0.00000000E+00  0.00000000E+00  0.00000000E+00
  0.00000000E+00  0.00000000E+00  0.00000000E+00
  0.00000000E+00  0.00000000E+00  0.00000000E+00
  0.00000000E+00  0.00000000E+00  0.00000000E+00
  0.00000000E+00  0.00000000E+00  0.00000000E+00
  0.00000000E+00  0.00000000E+00  0.00000000E+00
  0.00000000E+00  0.00000000E+00  0.00000000E+00
  0.00000000E+00  0.00000000E+00  0.00000000E+00
  0.00000000E+00  0.00000000E+00  0.00000000E+00
  0.00000000E+00  0.00000000E+00  0.00000000E+00
  0.00000000E+00  0.00000000E+00  0.00000000E+00
  0.00000000E+00  0.00000000E+00  0.00000000E+00
  0.00000000E+00  0.00000000E+00  0.00000000E+00
  0.00000000E+00  0.00000000E+00  0.00000000E+00
  0.00000000E+00  0.00000000E+00  0.00000000E+00
  0.00000000E+00  0.00000000E+00  0.00000000E+00
  0.00000000E+00  0.00000000E+00  0.00000000E+00
  0.00000000E+00  0.00000000E+00  0.00000000E+00
  0.00000000E+00  0.00000000E+00  0.00000000E+00
  0.00000000E+00  0.00000000E+00  0.00000000E+00
  0.00000000E+00  0.00000000E+00  0.00000000E+00
  0.00000000E+00  0.00000000E+00  0.00000000E+00
  0.00000000E+00  0.00000000E+00  0.00000000E+00
  0.00000000E+00  0.00000000E+00  0.00000000E+00
  0.00000000E+00  0.00000000E+00  0.00000000E+00
  0.00000000E+00  0.00000000E+00  0.00000000E+00
  0.00000000E+00  0.00000000E+00  0.00000000E+00
  0.00000000E+00  0.00000000E+00  0.00000000E+00
  0.00000000E+00  0.00000000E+00  0.00000000E+00
  0.00000000E+00  0.00000000E+00  0.00000000E+00
  0.00000000E+00  0.00000000E+00  0.00000000E+00
  0.00000000E+00  0.00000000E+00  0.00000000E+00
  0.00000000E+00  0.00000000E+00  0.00000000E+00
  0.00000000E+00  0.00000000E+00  0.00000000E+00
  0.00000000E+00  0.00000000E+00  0.00000000E+00
  0.00000000E+00  0.00000000E+00  0.00000000E+00
  0.00000000E+00  0.00000000E+00  0.00000000E+00
  0.00000000E+00  0.00000000E+00  0.00000000E+00
  0.00000000E+00  0.00000000E+00  0.00000000E+00
  0.00000000E+00  0.00000000E+00  0.00000000E+00
  0.00000000E+00  0.00000000E+00  0.00000000E+00
  0.00000000E+00  0.00000000E+00  0.00000000E+00
  0.00000000E+00  0.00000000E+00  0.00000000E+00
  0.00000000E+00  0.00000000E+00  0.00000000E+00
  0.00000000E+00  0.00000000E+00  0.00000000E+00
  0.00000000E+00  0.00000000E+00  0.00000000E+00
  0.00000000E+00  0.00000000E+00  0.00000000E+00
  0.00000000E+00  0.00000000E+00  0.00000000E+00
  0.00000000E+00  0.00000000E+00  0.00000000E+00
  0.00000000E+00  0.00000000E+00  0.00000000E+00
  0.00000000E+00  0.00000000E+00  0.00000000E+00
  0.00000000E+00  0.00000000E+00  0.00000000E+00
  0.00000000E+00  0.00000000E+00  0.00000000E+00
  0.00000000E+00  0.00000000E+00  0.00000000E+00
  0.00000000E+00  0.00000000E+00  0.00000000E+00
  0.00000000E+00  0.00000000E+00  0.00000000E+00
  0.00000000E+00  0.00000000E+00  0.00000000E+00
  0.00000000E+00  0.00000000E+00  0.00000000E+00
  0.00000000E+00  0.00000000E+00  0.00000000E+00
  0.00000000E+00  0.00000000E+00  0.00000000E+00
  0.00000000E+00  0.00000000E+00  0.00000000E+00
  0.00000000E+00  0.00000000E+00  0.00000000E+00
  0.00000000E+00  0.00000000E+00  0.00000000E+00
  0.00000000E+00  0.00000000E+00  0.00000000E+00
  0.00000000E+00  0.00000000E+00  0.00000000E+00
  0.00000000E+00  0.00000000E+00  0.00000000E+00
  0.00000000E+00  0.00000000E+00  0.00000000E+00
  0.00000000E+00  0.00000000E+00  0.00000000E+00
  0.00000000E+00  0.00000000E+00  0.00000000E+00
  0.00000000E+00  0.00000000E+00  0.00000000E+00
  0.00000000E+00  0.00000000E+00  0.00000000E+00
  0.00000000E+00  0.00000000E+00  0.00000000E+00
  0.00000000E+00  0.00000000E+00  0.00000000E+00
  0.00000000E+00  0.00000000E+00  0.00000000E+00
  0.00000000E+00  0.00000000E+00  0.00000000E+00
  0.00000000E+00  0.00000000E+00  0.00000000E+00
  0.00000000E+00  0.00000000E+00  0.00000000E+00
  0.00000000E+00  0.00000000E+00  0.00000000E+00
  0.00000000E+00  0.00000000E+00  0.00000000E+00
  0.00000000E+00  0.00000000E+00  0.00000000E+00
  0.00000000E+00  0.00000000E+00  0.00000000E+00
  0.00000000E+00  0.00000000E+00  0.00000000E+00
  0.00000000E+00  0.00000000E+00  0.00000000E+00
  0.00000000E+00  0.00000000E+00  0.00000000E+00
  0.00000000E+00  0.00000000E+00  0.00000000E+00
  0.00000000E+00  0.00000000E+00  0.00000000E+00
  0.00000000E+00  0.00000000E+00  0.00000000E+00
  0.00000000E+00  0.00000000E+00  0.00000000E+00
  0.00000000E+00  0.00000000E+00  0.00000000E+00
  0.00000000E+00  0.00000000E+00  0.00000000E+00
  0.00000000E+00  0.00000000E+00  0.00000000E+00
  0.00000000E+00  0.00000000E+00  0.00000000E+00
  0.00000000E+00  0.00000000E+00  0.00000000E+00
  0.00000000E+00  0.00000000E+00  0.00000000E+00
  0.00000000E+00  0.00000000E+00  0.00000000E+00
  0.00000000E+00  0.00000000E+00  0.00000000E+00
  0.00000000E+00  0.00000000E+00  0.00000000E+00
  0.00000000E+00  0.00000000E+00  0.00000000E+00
  0.00000000E+00  0.00000000E+00  0.00000000E+00
  0.00000000E+00  0.00000000E+00  0.00000000E+00
  0.00000000E+00  0.00000000E+00  0.00000000E+00
  0.00000000E+00  0.00000000E+00  0.00000000E+00
  0.00000000E+00  0.00000000E+00  0.00000000E+00
  0.00000000E+00  0.00000000E+00  0.00000000E+00
  0.00000000E+00  0.00000000E+00  0.00000000E+00
  0.00000000E+00  0.00000000E+00  0.00000000E+00
  0.00000000E+00  0.00000000E+00  0.00000000E+00
  0.00000000E+00  0.00000000E+00  0.00000000E+00
  0.00000000E+00  0.00000000E+00  0.00000000E+00
  0.00000000E+00  0.00000000E+00  0.00000000E+00
  0.00000000E+00  0.00000000E+00  0.00000000E+00
  0.00000000E+00  0.00000000E+00  0.00000000E+00
  0.00000000E+00  0.00000000E+00  0.00000000E+00
  0.00000000E+00  0.00000000E+00  0.00000000E+00
  0.00000000E+00  0.00000000E+00  0.00000000E+00
  0.00000000E+00  0.00000000E+00  0.00000000E+00
  0.00000000E+00  0.00000000E+00  0.00000000E+00
  0.00000000E+00  0.00000000E+00  0.00000000E+00
  0.00000000E+00  0.00000000E+00  0.00000000E+00
