Mo  S Cu                                
   1.00000000000000     
    15.9214998300000001    0.0000000000000000    0.0000000000000000
    -7.9622501300000001   13.7910221699999997    0.0000000000000000
     0.0000000000000000    0.0000000000000000   13.5821998300000004
   Mo   S    Cu
    25    49     4
Direct
  0.1337137536640185  0.0670141306843135  0.6764721325486676
  0.1357254450992329  0.2701116506777694  0.6769825335386628
  0.1334504472272471  0.4651936297583958  0.6786249433700107
  0.1330726498667261  0.6660688115409954  0.6799261480035099
  0.1330965258840351  0.8660131564113556  0.6787401461740927
  0.3326388564189315  0.0652700114946896  0.6770481505090444
  0.3357337309605413  0.2646098025406829  0.6678500819506965
  0.3299291009259449  0.4639591415825564  0.6751065693568208
  0.3326004342812610  0.6649916355046273  0.6798289440405085
  0.3330380990068349  0.8656777697388449  0.6800322031103718
  0.5335203070292351  0.0660969826731943  0.6816240484175609
  0.5316591839223292  0.2655181512301468  0.6782211508802263
  0.5307797005368471  0.4642943495626781  0.6764105942178418
  0.5320652269610520  0.6648448523553441  0.6798406104367771
  0.5331265806244119  0.8657407191267410  0.6814365165937559
  0.7339755939075232  0.0664257427727577  0.6829347444993132
  0.7336755824305712  0.2663274975400967  0.6855052869239771
  0.7325358704735123  0.4658502844404353  0.6818111785541348
  0.7328568518439766  0.6661961660755580  0.6800687268863470
  0.7332401264051285  0.8660946470655233  0.6812710999546141
  0.9345243410316613  0.0669468729831308  0.6807212388403983
  0.9350794927336068  0.2660680497120111  0.6811012026499412
  0.9332600517033640  0.4662737627279725  0.6824263144324263
  0.9330327353318495  0.6663267676569689  0.6798838370390712
  0.9331288742007047  0.8661654920118096  0.6796998282214091
  0.0665136087310358  0.1342639532612324  0.5633123285503032
  0.0721389060916593  0.1374065064224155  0.7927077919156673
  0.0656265592209522  0.3316104959802999  0.5628927278552140
  0.0714834384352656  0.3343272116729423  0.7955329903660058
  0.0651049250145093  0.5322498402120175  0.5653690721967095
  0.0683451941920339  0.5331279952233459  0.7951980149899995
  0.0659435671906721  0.7320964580903251  0.5643745979851360
  0.0667089109440866  0.7334203190153019  0.7946764169527611
  0.0655393463644458  0.9319494290606301  0.5634689703320888
  0.0675434900847875  0.9343235302097952  0.7930359708064927
  0.2651373839800897  0.1288691299007567  0.5579704559496719
  0.2672540563088006  0.1365726292578060  0.7889591185737075
  0.2660672471294987  0.3321260492827065  0.5602748782691620
  0.2664779006010818  0.5332586236496653  0.5618911106919455
  0.2654874096034163  0.5288300506309653  0.7936254103847347
  0.2664503005256620  0.7324083560473511  0.5649128539991395
  0.2663003384817557  0.7320956819913178  0.7949687899022564
  0.2664122800653885  0.9312083774762101  0.5634276626785777
  0.2661765993426641  0.9332971228692983  0.7938353097141402
  0.4675118044453512  0.1317776296610376  0.5640387598961851
  0.4643831915514696  0.1320274215362787  0.7941024942685928
  0.4700217603718073  0.3328311964203294  0.5574103393285057
  0.4593856507925693  0.3317782350720435  0.7896491163607493
  0.4654949151512255  0.5328210963525919  0.5618717778366360
  0.4610027734257613  0.5273724692257744  0.7927893574655442
  0.4665771066867848  0.7328177844045811  0.5656437781839543
  0.4655910543112540  0.7312835455979680  0.7954878161074461
  0.4674608063788455  0.9330493488022356  0.5661365269144341
  0.4657415377308638  0.9320738468604191  0.7960430691901550
  0.6681063013125907  0.1341582869771045  0.5686689592178240
  0.6659381082912503  0.1316956844332466  0.7990688359250413
  0.6679378648236209  0.3318377908304129  0.5675860928355831
  0.6627125307038568  0.3328742556391333  0.7976316275387916
  0.6673083829137170  0.5328338038232445  0.5649367761479454
  0.6632604130555180  0.5320942201680339  0.7943099278835462
  0.6660357849289085  0.7329680722089833  0.5655596543494070
  0.6653530193272772  0.7316825805095704  0.7954666485819004
  0.6669620513551422  0.9336092338614890  0.5670255061316922
  0.6664462824264348  0.9320558862861219  0.7969566223156264
  0.8665193559656359  0.1326399843507033  0.5668493041538696
  0.8685172265591561  0.1328490721774784  0.7970424671585192
  0.8657994739604717  0.3320716546974793  0.5687194043662913
  0.8697383054652548  0.3335939422904701  0.7990408875415866
  0.8658125477433103  0.5317617742276965  0.5664363147624769
  0.8665811504841088  0.5339211106037567  0.7965170760082358
  0.8660273076360170  0.7326163663326781  0.5648356795776053
  0.8665233846746929  0.7330850333394210  0.7951212315405485
  0.8663846792065542  0.9334510755111012  0.5656549037507261
  0.8676678454889810  0.9331808599504896  0.7956383105216744
  0.2765700802318420  0.3320323525380573  0.8130312484845916
  0.4532147678023435  0.3488849911161793  0.9476799815620964
  0.6929737571496730  0.3431312305427809  0.9585572992693727
  0.8364001846520210  0.3431112916124164  0.9555809731623697
 
  0.00000000E+00  0.00000000E+00  0.00000000E+00
  0.00000000E+00  0.00000000E+00  0.00000000E+00
  0.00000000E+00  0.00000000E+00  0.00000000E+00
  0.00000000E+00  0.00000000E+00  0.00000000E+00
  0.00000000E+00  0.00000000E+00  0.00000000E+00
  0.00000000E+00  0.00000000E+00  0.00000000E+00
  0.00000000E+00  0.00000000E+00  0.00000000E+00
  0.00000000E+00  0.00000000E+00  0.00000000E+00
  0.00000000E+00  0.00000000E+00  0.00000000E+00
  0.00000000E+00  0.00000000E+00  0.00000000E+00
  0.00000000E+00  0.00000000E+00  0.00000000E+00
  0.00000000E+00  0.00000000E+00  0.00000000E+00
  0.00000000E+00  0.00000000E+00  0.00000000E+00
  0.00000000E+00  0.00000000E+00  0.00000000E+00
  0.00000000E+00  0.00000000E+00  0.00000000E+00
  0.00000000E+00  0.00000000E+00  0.00000000E+00
  0.00000000E+00  0.00000000E+00  0.00000000E+00
  0.00000000E+00  0.00000000E+00  0.00000000E+00
  0.00000000E+00  0.00000000E+00  0.00000000E+00
  0.00000000E+00  0.00000000E+00  0.00000000E+00
  0.00000000E+00  0.00000000E+00  0.00000000E+00
  0.00000000E+00  0.00000000E+00  0.00000000E+00
  0.00000000E+00  0.00000000E+00  0.00000000E+00
  0.00000000E+00  0.00000000E+00  0.00000000E+00
  0.00000000E+00  0.00000000E+00  0.00000000E+00
  0.00000000E+00  0.00000000E+00  0.00000000E+00
  0.00000000E+00  0.00000000E+00  0.00000000E+00
  0.00000000E+00  0.00000000E+00  0.00000000E+00
  0.00000000E+00  0.00000000E+00  0.00000000E+00
  0.00000000E+00  0.00000000E+00  0.00000000E+00
  0.00000000E+00  0.00000000E+00  0.00000000E+00
  0.00000000E+00  0.00000000E+00  0.00000000E+00
  0.00000000E+00  0.00000000E+00  0.00000000E+00
  0.00000000E+00  0.00000000E+00  0.00000000E+00
  0.00000000E+00  0.00000000E+00  0.00000000E+00
  0.00000000E+00  0.00000000E+00  0.00000000E+00
  0.00000000E+00  0.00000000E+00  0.00000000E+00
  0.00000000E+00  0.00000000E+00  0.00000000E+00
  0.00000000E+00  0.00000000E+00  0.00000000E+00
  0.00000000E+00  0.00000000E+00  0.00000000E+00
  0.00000000E+00  0.00000000E+00  0.00000000E+00
  0.00000000E+00  0.00000000E+00  0.00000000E+00
  0.00000000E+00  0.00000000E+00  0.00000000E+00
  0.00000000E+00  0.00000000E+00  0.00000000E+00
  0.00000000E+00  0.00000000E+00  0.00000000E+00
  0.00000000E+00  0.00000000E+00  0.00000000E+00
  0.00000000E+00  0.00000000E+00  0.00000000E+00
  0.00000000E+00  0.00000000E+00  0.00000000E+00
  0.00000000E+00  0.00000000E+00  0.00000000E+00
  0.00000000E+00  0.00000000E+00  0.00000000E+00
  0.00000000E+00  0.00000000E+00  0.00000000E+00
  0.00000000E+00  0.00000000E+00  0.00000000E+00
  0.00000000E+00  0.00000000E+00  0.00000000E+00
  0.00000000E+00  0.00000000E+00  0.00000000E+00
  0.00000000E+00  0.00000000E+00  0.00000000E+00
  0.00000000E+00  0.00000000E+00  0.00000000E+00
  0.00000000E+00  0.00000000E+00  0.00000000E+00
  0.00000000E+00  0.00000000E+00  0.00000000E+00
  0.00000000E+00  0.00000000E+00  0.00000000E+00
  0.00000000E+00  0.00000000E+00  0.00000000E+00
  0.00000000E+00  0.00000000E+00  0.00000000E+00
  0.00000000E+00  0.00000000E+00  0.00000000E+00
  0.00000000E+00  0.00000000E+00  0.00000000E+00
  0.00000000E+00  0.00000000E+00  0.00000000E+00
  0.00000000E+00  0.00000000E+00  0.00000000E+00
  0.00000000E+00  0.00000000E+00  0.00000000E+00
  0.00000000E+00  0.00000000E+00  0.00000000E+00
  0.00000000E+00  0.00000000E+00  0.00000000E+00
  0.00000000E+00  0.00000000E+00  0.00000000E+00
  0.00000000E+00  0.00000000E+00  0.00000000E+00
  0.00000000E+00  0.00000000E+00  0.00000000E+00
  0.00000000E+00  0.00000000E+00  0.00000000E+00
  0.00000000E+00  0.00000000E+00  0.00000000E+00
  0.00000000E+00  0.00000000E+00  0.00000000E+00
  0.00000000E+00  0.00000000E+00  0.00000000E+00
  0.00000000E+00  0.00000000E+00  0.00000000E+00
  0.00000000E+00  0.00000000E+00  0.00000000E+00
  0.00000000E+00  0.00000000E+00  0.00000000E+00
