Ru Ta  N  Cu                            
   1.00000000000000     
    18.1096308199999996    0.0000000000000000    0.0000000000000000
     0.0000000000000000   23.3551997799999995    0.0000000000000000
     0.0000000000000000    0.0000000000000000   30.4818170799999990
   Ru   Ta   N    Cu
    64   240   240     3
Selective dynamics
Direct
  0.0673665659340572  0.0100105749298189  0.5337143279427470   T   T   T
  0.2840162887888267  0.5020117619988241  0.5266755040530479   T   T   T
  0.4409163195698576  0.0625595032843275  0.5191884872513350   T   T   T
  0.0705434281819073  0.2612136969884712  0.5344085596523253   T   T   T
  0.2833569339626654  0.2487203511692396  0.5258126345345874   T   T   T
  0.4351268918319509  0.3081807881898745  0.5199239521551522   T   T   T
  0.0666447473759228  0.1217626275520546  0.5332678902954606   T   T   T
  0.2842783624457114  0.1324642361602192  0.5253761826477282   T   T   T
  0.4447242631261433  0.1838218071054437  0.5208381735647548   T   T   T
  0.0688216930068525  0.3739801556033936  0.5330576330514742   T   T   T
  0.2815469861969125  0.3850639579371332  0.5273607121499773   T   T   T
  0.4283615856700917  0.4367302136748656  0.5211470447440431   T   T   T
  0.1709869445174425  0.4372605906877453  0.5488597352059135   T   T   T
  0.1888317658767812  0.3097948665901694  0.5514595134773258   T   T   T
  0.1713909172113056  0.1829896636559589  0.5491673181798202   T   T   T
  0.1860096435363132  0.0608786099032655  0.5500489013201366   T   T   T
  0.0698080825965807  0.5125869857337269  0.5328414582507571   T   T   T
  0.2844948775920582  0.9986067554927753  0.5250372841960410   T   T   T
  0.4358452710766209  0.5655465861729064  0.5194864954117741   T   T   T
  0.0676256027346083  0.7610770048530501  0.5338359055342131   T   T   T
  0.2844658708322799  0.7491824294430167  0.5251816806194417   T   T   T
  0.4408888959038167  0.8115574357445334  0.5191169415425658   T   T   T
  0.0672959997734806  0.6226575977625386  0.5335005365484020   T   T   T
  0.2825915472977701  0.6330946613550030  0.5260622111523147   T   T   T
  0.4451842468348373  0.6896833840256921  0.5207690243507170   T   T   T
  0.0671432615785591  0.8722698933378865  0.5333727915105430   T   T   T
  0.2839570158706854  0.8820706484837868  0.5253419958951209   T   T   T
  0.4446599588823812  0.9370608016335839  0.5209217285329587   T   T   T
  0.1726532301362903  0.9363084450050666  0.5485674333160897   T   T   T
  0.1863972678169974  0.8119788633049890  0.5506390550793219   T   T   T
  0.1716992275350293  0.6885139052574084  0.5487851553123789   T   T   T
  0.1867978699715759  0.5628839832595569  0.5521961507116643   T   T   T
  0.5679026987866491  0.0034590184203449  0.5335178362968973   T   T   T
  0.7922368923325169  0.4981620694801157  0.5236294667883604   T   T   T
  0.9406984413701115  0.0608592482657941  0.5191884515511483   T   T   T
  0.5672287994587042  0.2450810052908146  0.5350772953297799   T   T   T
  0.7822155184366810  0.2460058939146071  0.5258630209466310   T   T   T
  0.9436649867308549  0.3084881170936840  0.5198705821716042   T   T   T
  0.5651200224198446  0.1142162335811362  0.5333551318951816   T   T   T
  0.7867086085353722  0.1227631917764247  0.5244768819862839   T   T   T
  0.9452954600384399  0.1876165658251646  0.5211354130382022   T   T   T
  0.5658076141547487  0.3534493673553041  0.5355091647120066   T   T   T
  0.7937927364225954  0.3758191107251010  0.5230934526171001   T   T   T
  0.9523835586386572  0.4378617675707173  0.5222075112410203   T   T   T
  0.6811589949122266  0.4352056308902273  0.5438019976015740   T   T   T
  0.6888887724861574  0.3203006417470756  0.5508200744245147   T   T   T
  0.6760762426712794  0.1859609199905740  0.5480262377280805   T   T   T
  0.6835616460427930  0.0667682211734100  0.5520274664538417   T   T   T
  0.5675299750230834  0.5216550708661061  0.5360188435530251   T   T   T
  0.7819204189011012 -0.0006677378432939  0.5256348334830268   T   T   T
  0.9420946704259926  0.5625384506955778  0.5195479666762071   T   T   T
  0.5659087318153033  0.7611276916667582  0.5332967977095384   T   T   T
  0.7864663049066348  0.7516683253091118  0.5245557148565126   T   T   T
  0.9406583360068164  0.8115582067311496  0.5192262616375271   T   T   T
  0.5667260071907145  0.6299943091869962  0.5353268350828192   T   T   T
  0.7816721933981419  0.6295886122072029  0.5258165022151025   T   T   T
  0.9450792391582441  0.6870959306339671  0.5213052222228584   T   T   T
  0.5668504951776306  0.8716951212561270  0.5334689941958650   T   T   T
  0.7827443177098110  0.8761694615013270  0.5255068448616224   T   T   T
  0.9454629110785162  0.9372238711904677  0.5210571771254682   T   T   T
  0.6753836299083931  0.9373478963009321  0.5482296011272706   T   T   T
  0.6838860072402327  0.8091413563365624  0.5515232337504554   T   T   T
  0.6751235183090732  0.6896204816954844  0.5481217237116307   T   T   T
  0.6896800980824765  0.5552128948586722  0.5506118632972622   T   T   T
  0.9996246524628063  0.9999635445867767  0.1022212275957983   F   F   F
  0.3339438256838960  0.0624457813299060  0.1075563970202325   F   F   F
  0.1656734882889026  0.0624869619810369  0.1076523577670159   F   F   F
  0.2496380332605455  0.1248777014917124  0.1827535963680589   F   F   F
  0.0820753910794778  0.0624168821917976  0.1887361965005994   F   F   F
  0.4168249566545654  0.0624128089775482  0.1889653308070223   F   F   F
  0.0002325219326070  0.1249264436526054  0.2747649428243276   T   T   T
  0.3319555735811501  0.0624212309921749  0.2731334184159984   T   T   T
  0.1676284993553450  0.0624358839359177  0.2728077978218084   T   T   T
  0.2489978077374619  0.1249041814017248  0.3595330631974984   T   T   T
  0.0837846642960873  0.0624774765732390  0.3592323810037117   T   T   T
  0.4159379431249119  0.0623511030127405  0.3588793299427641   T   T   T
  0.4964461474721170  0.1244995437287404  0.4434182645597960   T   T   T
  0.3318934912853773  0.0620183204049496  0.4450357724354244   T   T   T
  0.1654055973823713  0.0624673090484534  0.4474253067443640   T   T   T
  0.9996175425524214  0.1249358288969233  0.1022184789678420   F   F   F
  0.3339435537114426  0.1874256191358299  0.1075504356733603   F   F   F
  0.1656688965935942  0.1874633245330628  0.1076544484778310   F   F   F
  0.2496428192825420  0.2499248694537357  0.1827745152021549   F   F   F
  0.0820483011947246  0.1874164370395803  0.1887315368489411   F   F   F
  0.4168235962087010  0.1874178821048673  0.1889761876915443   F   F   F
  0.0002499984548175  0.2499139744077687  0.2747878046305735   T   T   T
  0.3320347894524516  0.1874738228787147  0.2731772363482020   T   T   T
  0.1676542539188495  0.1874732624193176  0.2728446480722519   T   T   T
  0.2490154475074789  0.2500040414939604  0.3596420053101805   T   T   T
  0.0837248734396146  0.1875119882815490  0.3594491014674288   T   T   T
  0.4158479915977834  0.1874335573086552  0.3587258022446699   T   T   T
  0.4972352269137659  0.2486059539170380  0.4439317392679243   T   T   T
  0.3321633008791001  0.1867798193820918  0.4440505212777187   T   T   T
  0.1640519604633019  0.1875097790658151  0.4481209440621302   T   T   T
  0.9996247444640574  0.2499647011854407  0.1022230082490267   F   F   F
  0.3339438339619036  0.3124448417397900  0.1075557633545969   F   F   F
  0.1656741876920407  0.3124866150128511  0.1076519504247102   F   F   F
  0.2496342491082189  0.3748782083517597  0.1827543288382500   F   F   F
  0.0820773763724816  0.3124181279228466  0.1887355922833933   F   F   F
  0.4168238893201348  0.3124134579098339  0.1889644027201030   F   F   F
  0.0002149038741453  0.3749352854708011  0.2747993706781175   T   T   T
  0.3320511109083932  0.3124802758128155  0.2732104045631386   T   T   T
  0.1675627794022398  0.3124766190490480  0.2729368390387471   T   T   T
  0.2492097301627216  0.3749943929854745  0.3597139142643723   T   T   T
  0.0837942988064909  0.3125401421129200  0.3595215894865773   T   T   T
  0.4160365294319217  0.3124700291112404  0.3591852893213973   T   T   T
  0.4983685266957120  0.3747446127920118  0.4445411853725881   T   T   T
  0.3325497409477067  0.3118319811431424  0.4454282579031998   T   T   T
  0.1658647697693887  0.3126282487837963  0.4475364373236870   T   T   T
  0.9996196554118555  0.3749345235867736  0.1022175688270863   F   F   F
  0.3339389444248013  0.4374272239936090  0.1075500232538360   F   F   F
  0.1656692123176882  0.4374660331456823  0.1076535614342404   F   F   F
  0.2496367764464793  0.9999279799998888  0.1827742299965678   F   F   F
  0.0820476334098430  0.4374171254006285  0.1887298800136392   F   F   F
  0.4168193524269412  0.4374154383080295  0.1889763507298241   F   F   F
  0.5003065213362685  0.4998649362148108  0.2748548245086604   T   T   T
  0.3321304987439570  0.4374137776563199  0.2732673244508869   T   T   T
  0.1675159964671259  0.4374291463773813  0.2729596135892419   T   T   T
  0.2492781573385981  0.5000158724354297  0.3596812523602114   T   T   T
  0.0836464037058092  0.4375062785731081  0.3597401004054866   T   T   T
  0.4160712845247629  0.4374062864083272  0.3593414079686354   T   T   T
  0.4984564633279756  0.4996716629653679  0.4445573321623578   T   T   T
  0.3333904725964591  0.4371378131110565  0.4451625139903631   T   T   T
  0.1647611684579913  0.4378208544687948  0.4479146813916247   T   T   T
  0.9996246524628063  0.4999635445867767  0.1022212275957983   F   F   F
  0.3339438256838960  0.5624457813299060  0.1075563970202325   F   F   F
  0.1656734882889026  0.5624869619810369  0.1076523577670159   F   F   F
  0.2496380332605455  0.6248777014917124  0.1827535963680589   F   F   F
  0.0820753910794778  0.5624168821917976  0.1887361965005994   F   F   F
  0.4168249566545654  0.5624128089775482  0.1889653308070223   F   F   F
  0.0001867163068992  0.6248910187919854  0.2747749924813989   T   T   T
  0.3320832901488861  0.5623351672831504  0.2732039416400118   T   T   T
  0.1676121840229587  0.5623744764240557  0.2729030001929677   T   T   T
  0.2491449800965982  0.6249685125047971  0.3596036305724278   T   T   T
  0.0838021958755912  0.5624378352042133  0.3593714256355514   T   T   T
  0.4160619306104483  0.5623607322823717  0.3592015207784380   T   T   T
  0.4975591260050595  0.6258658871011605  0.4438176893152200   T   T   T
  0.3327088909403139  0.5626186950399827  0.4454157685292971   T   T   T
  0.1658611239558878  0.5627581113051143  0.4472069185019167   T   T   T
  0.9996175425524214  0.6249358288969233  0.1022184789678420   F   F   F
  0.3339435537114426  0.6874256191358228  0.1075504356733603   F   F   F
  0.1656688965935942  0.6874633245330557  0.1076544484778310   F   F   F
  0.2496428192825420  0.7499248694537357  0.1827745152021549   F   F   F
  0.0820483011947246  0.6874164370395732  0.1887315368489411   F   F   F
  0.4168235962087010  0.6874178821048602  0.1889761876915443   F   F   F
  0.0002045991399397  0.7498918803171531  0.2747692513521984   T   T   T
  0.3320618770980926  0.6873681307455141  0.2731859287097026   T   T   T
  0.1676372920170517  0.6873742578000662  0.2728380494819134   T   T   T
  0.2490438693674968  0.7500558640188517  0.3595763632562331   T   T   T
  0.0836578001820357  0.6874578000867887  0.3594292276207433   T   T   T
  0.4158731128026720  0.6874227148867258  0.3587678025315950   T   T   T
  0.4962476264736333  0.7500543396765915  0.4435297945883758   T   T   T
  0.3321888444292959  0.6875561209585078  0.4441802514595844   T   T   T
  0.1640904224718921  0.6878401279872652  0.4481321348521497   T   T   T
  0.9996247444640574  0.7499647011854407  0.1022230082490267   F   F   F
  0.3339438339619036  0.8124448417397900  0.1075557633545969   F   F   F
  0.1656741876920407  0.8124866150128511  0.1076519504247102   F   F   F
  0.2496342491082189  0.8748782083517597  0.1827543288382500   F   F   F
  0.0820773763724816  0.8124181279228466  0.1887355922833933   F   F   F
  0.4168238893201348  0.8124134579098339  0.1889644027201030   F   F   F
  0.0001834826727418  0.8749080267529847  0.2747580566986537   T   T   T
  0.3319656505062237  0.8123954778365053  0.2731348442461761   T   T   T
  0.1676358117900747  0.8123940616938979  0.2728107028747237   T   T   T
  0.2491054131815637  0.8749550711689408  0.3595946589986911   T   T   T
  0.0837692656097859  0.8124719674192832  0.3592210435556569   T   T   T
  0.4159308357688309  0.8124625534451538  0.3589079546181926   T   T   T
  0.4960205888207256  0.8751075089690787  0.4439570097107655   T   T   T
  0.3320547735177735  0.8125756458038104  0.4451514015663083   T   T   T
  0.1655064986317430  0.8126790151415157  0.4473646145666701   T   T   T
  0.9996196554118555  0.8749345235867736  0.1022175688270863   F   F   F
  0.3339389444248013  0.9374272239936019  0.1075500232538360   F   F   F
  0.1656692123176882  0.9374660331456752  0.1076535614342404   F   F   F
  0.2496367764464793  0.4999279799998888  0.1827742299965678   F   F   F
  0.0820476334098430  0.9374171254006214  0.1887298800136392   F   F   F
  0.4168193524269412  0.9374154383080224  0.1889763507298241   F   F   F
  0.5001676230659349 -0.0001037357340637  0.2747242304784702   T   T   T
  0.3320335251329423  0.9374105505421279  0.2731914844797698   T   T   T
  0.1676537002683194  0.9374137251722588  0.2728100047210298   T   T   T
  0.2490558055115053 -0.0000231121322345  0.3596080114567293   T   T   T
  0.0836351456041888  0.9374503342133114  0.3593178733716031   T   T   T
  0.4158491216232095  0.9374171718673338  0.3588169448718582   T   T   T
  0.4958409972079701  0.9995186325577393  0.4440589758769486   T   T   T
  0.3323471888722178  0.9372221968030704  0.4442962104837723   T   T   T
  0.1640552461433536  0.9375993117194348  0.4479525200444951   T   T   T
  0.4996261485864011  0.9999638794554073  0.1022212895025945   F   F   F
  0.8339437371848675  0.0624482785398897  0.1075580759875550   F   F   F
  0.6656689243728380  0.0624780056916450  0.1076592327669417   F   F   F
  0.7496377014008289  0.1248750966894079  0.1827574333080477   F   F   F
  0.5820735458319604  0.0624174442172745  0.1887352315057669   F   F   F
  0.9168252921289621  0.0624138005358219  0.1889639379559043   F   F   F
  0.5002174371972067  0.1249282581732290  0.2747423219360913   T   T   T
  0.8320825274521824  0.0624014293166174  0.2731819641816279   T   T   T
  0.6677332581870824  0.0623913570256158  0.2728075363023538   T   T   T
  0.7492938430487339  0.1246968737557504  0.3596707475826142   T   T   T
  0.5837354100250679  0.0623146031315143  0.3590167710101032   T   T   T
  0.9161189967547178  0.0623361669956274  0.3590460567499698   T   T   T
  0.9954574570391557  0.1247266702954615  0.4441108349873440   T   T   T
  0.8326415788268288  0.0622580610812703  0.4452125028602338   T   T   T
  0.6653917607390685  0.0621141436143952  0.4469620838743404   T   T   T
  0.4996213536236240  0.1249348955726433  0.1022183024833154   F   F   F
  0.8339388961320680  0.1874236234033546  0.1075519903559652   F   F   F
  0.6656669566206190  0.1874574838225769  0.1076541056651124   F   F   F
  0.7496375557706187  0.2499211919418656  0.1827775726101990   F   F   F
  0.5820467926301731  0.1874136002736648  0.1887331258771638   F   F   F
  0.9168211714113710  0.1874148173649246  0.1889752459503455   F   F   F
  0.5002617678812222  0.2499984656484687  0.2747939662587484   T   T   T
  0.8321431786966369  0.1874115328829883  0.2732408689419114   T   T   T
  0.6677002790340075  0.1874228133031835  0.2728650299317601   T   T   T
  0.7491274695096017  0.2497843096351442  0.3598417729647382   T   T   T
  0.5837269633825015  0.1873642543017591  0.3593504686674492   T   T   T
  0.9160647472233423  0.1873303677239946  0.3589551991774155   T   T   T
  0.9962001797011646  0.2493297888754473  0.4441762347196754   T   T   T
  0.8321266034791038  0.1872665338892937  0.4446367782860043   T   T   T
  0.6643639178963846  0.1868123816733668  0.4482085788034528   T   T   T
  0.4996265847195431  0.2499624135589542  0.1022211658925301   F   F   F
  0.8339432913754052  0.3124470264806618  0.1075580597257542   F   F   F
  0.6656786166489255  0.3124812578813660  0.1076589101753385   F   F   F
  0.7496359798815462  0.3748756411498491  0.1827578042801292   F   F   F
  0.5820751330297256  0.3124154754956550  0.1887345581865603   F   F   F
  0.9168256971425777  0.3124110138011744  0.1889624020058491   F   F   F
  0.5003037619899630  0.3749463867786079  0.2748563726935097   T   T   T
  0.8320603496448346  0.3124205390349733  0.2732948901894650   T   T   T
  0.6677129502347160  0.3124329706148635  0.2729533642339930   T   T   T
  0.7488544352972702  0.3747203525211505  0.3600523523622406   T   T   T
  0.5838908571824726  0.3123491631928286  0.3595218456410523   T   T   T
  0.9162933762555403  0.3123209692623848  0.3591983537106230   T   T   T
  0.9935435204412391  0.3745767898009231  0.4454443736895224   T   T   T
  0.8322869651545119  0.3119273957324830  0.4451352731649419   T   T   T
  0.6649659264385426  0.3122106561447002  0.4482358307026612   T   T   T
  0.4996231203952064  0.3749337364865255  0.1022171720136171   F   F   F
  0.8339311317052278  0.4374224703005467  0.1075522038351053   F   F   F
  0.6656706818776428  0.4374574332997483  0.1076540871022118   F   F   F
  0.7496383104150084  0.9999213865668750  0.1827756388646549   F   F   F
  0.5820474546648100  0.4374150382907018  0.1887310280212660   F   F   F
  0.9168210958579976  0.4374163027642837  0.1889749839040178   F   F   F
  0.0001640358575194  0.4999006721443539  0.2747948291722407   T   T   T
  0.8321747860308379  0.4373814346881431  0.2734120483165501   T   T   T
  0.6676569968984334  0.4374119920963949  0.2730535608016276   T   T   T
  0.7488619275270424  0.4999486086354973  0.3600775436946838   T   T   T
  0.5836837311256128  0.4374007743525578  0.3599604223390674   T   T   T
  0.9162965427651443  0.4373702750550233  0.3592458834543030   T   T   T
  0.9936648894851382  0.4994461154566097  0.4453137831988524   T   T   T
  0.8315672286604660  0.4372256276948631  0.4438034382125532   T   T   T
  0.6632153788448013  0.4372405585908318  0.4493146302638678   T   T   T
  0.4996261485864011  0.4999638794554073  0.1022212895025945   F   F   F
  0.8339437371848675  0.5624482785398897  0.1075580759875550   F   F   F
  0.6656689243728380  0.5624780056916450  0.1076592327669417   F   F   F
  0.7496377014008289  0.6248750966894079  0.1827574333080477   F   F   F
  0.5820735458319604  0.5624174442172745  0.1887352315057669   F   F   F
  0.9168252921289621  0.5624138005358219  0.1889639379559043   F   F   F
  0.5002842232923544  0.6248242386926962  0.2747992535481062   T   T   T
  0.8320563331700858  0.5623678658595853  0.2733031970894291   T   T   T
  0.6677203969932101  0.5623759635886342  0.2729632934737430   T   T   T
  0.7491393315246094  0.6249249483724931  0.3599147729343730   T   T   T
  0.5839312649663010  0.5624190734105307  0.3595691877192025   T   T   T
  0.9162013574367590  0.5623975254610126  0.3592193582022803   T   T   T
  0.9955596003379527  0.6248865417814849  0.4441953457572042   T   T   T
  0.8320551341907704  0.5626049180461876  0.4453569594187888   T   T   T
  0.6648178101297698  0.5623755973676285  0.4484170794286174   T   T   T
  0.4996213536236240  0.6249348955726433  0.1022183024833154   F   F   F
  0.8339388961320680  0.6874236234033475  0.1075519903559652   F   F   F
  0.6656669566206190  0.6874574838225698  0.1076541056651124   F   F   F
  0.7496375557706187  0.7499211919418656  0.1827775726101990   F   F   F
  0.5820467926301731  0.6874136002736577  0.1887331258771638   F   F   F
  0.9168211714113710  0.6874148173649175  0.1889752459503455   F   F   F
  0.5002363059720448  0.7498715338178304  0.2747453448237089   T   T   T
  0.8321408602327964  0.6873634639060405  0.2732566720349492   T   T   T
  0.6677306601176888  0.6873664634217916  0.2728672315421874   T   T   T
  0.7493266823107294  0.7500111315748862  0.3597067199463715   T   T   T
  0.5837541327590906  0.6874313818957083  0.3593690317275312   T   T   T
  0.9160467459640775  0.6873921402128367  0.3589922406607592   T   T   T
  0.9960244145986289  0.7494460227110935  0.4441410976618018   T   T   T
  0.8321843071112368  0.6872452495638081  0.4446509745056669   T   T   T
  0.6643680729535865  0.6879830134027234  0.4481839786833605   T   T   T
  0.4996265847195431  0.7499624135589542  0.1022211658925301   F   F   F
  0.8339432913754052  0.8124470264806618  0.1075580597257542   F   F   F
  0.6656786166489255  0.8124812578813660  0.1076589101753385   F   F   F
  0.7496359798815462  0.8748756411498491  0.1827578042801292   F   F   F
  0.5820751330297256  0.8124154754956550  0.1887345581865603   F   F   F
  0.9168256971425777  0.8124110138011744  0.1889624020058491   F   F   F
  0.5001724518686289  0.8748935941968569  0.2747278247636314   T   T   T
  0.8321003240718403  0.8123721023388858  0.2732010491549825   T   T   T
  0.6677508239317405  0.8123831433661685  0.2728173261718930   T   T   T
  0.7493382476036421  0.8748397460020093  0.3596556419204782   T   T   T
  0.5837478376183771  0.8124708385245836  0.3590306868210312   T   T   T
  0.9160787950228721  0.8124201020593038  0.3590915008655312   T   T   T
  0.9955668067065878  0.8748150872780919  0.4440094277216483   T   T   T
  0.8326088387709824  0.8123018686011266  0.4452756217735853   T   T   T
  0.6654305357883081  0.8126865633065475  0.4470642973294265   T   T   T
  0.4996231203952064  0.8749337364865255  0.1022171720136171   F   F   F
  0.8339311317052278  0.9374224703005396  0.1075522038351053   F   F   F
  0.6656706818776428  0.9374574332997412  0.1076540871022118   F   F   F
  0.7496383104150084  0.4999213865668750  0.1827756388646549   F   F   F
  0.5820474546648100  0.9374150382906947  0.1887310280212660   F   F   F
  0.9168210958579976  0.9374163027642766  0.1889749839040178   F   F   F
  0.0001973160121735  0.9999039430908812  0.2747618108594110   T   T   T
  0.8321276591512611  0.9373802249416853  0.2731884581647205   T   T   T
  0.6677308996829535  0.9373864974699387  0.2727894588632181   T   T   T
  0.7493380927144246 -0.0001197274572284  0.3596284689432674   T   T   T
  0.5835739112846837  0.9374141355163762  0.3591923882111412   T   T   T
  0.9159327349653424  0.9373750444337328  0.3589201150479283   T   T   T
  0.9960499263654260  0.9994146185411110  0.4439028953633903   T   T   T
  0.8321745525438311  0.9372845117345009  0.4448779831621187   T   T   T
  0.6645759860900677  0.9373906185069829  0.4477936929562073   T   T   T
  0.4054220745019208  0.9999222115495812  0.1371706404740110   F   F   F
  0.2498130538845231  0.9999469596221715  0.1043552466225179   F   F   F
  0.0938777968594522  0.9999465964224399  0.1371098030237761   F   F   F
  0.1543635830516692  0.1248899271375592  0.2204647086472562   F   F   F
  0.9995670073461937  0.1248966516782701  0.2080976692853085   F   F   F
  0.3446973568903360  0.1248674306196307  0.2206598414842134   F   F   F
  0.4004431768005924  0.1248934914760814  0.3066611821235263   T   T   T
  0.2495662526109549  0.1249484664133974  0.2919187927077147   T   T   T
  0.0995526800267204  0.1249987531806286  0.3071085630792048   T   T   T
  0.1517019518961679  0.1251035747902023  0.3937092165587579   T   T   T
  0.4996051023023604  0.1248147314481394  0.3757080501605683   T   T   T
  0.3475002449728173  0.1245747065025264  0.3921182491678171   T   T   T
  0.3999042701746431  0.1254562626438970  0.4777246995191214   T   T   T
  0.2506210057010613  0.1252477578844972  0.4634778359135012   T   T   T
  0.0946115537676383  0.1243838731188640  0.4728963459317971   T   T   T
  0.4054214644049878  0.1249282036816339  0.1371697875501496   F   F   F
  0.2498118312390858  0.1249501818115135  0.1042602234590362   F   F   F
  0.0938664600244081  0.1249385922007349  0.1371069089706722   F   F   F
  0.1543560911150905  0.2498790211591952  0.2204709660202369   F   F   F
  0.9995706735895027  0.2499094862395950  0.2080999580462830   F   F   F
  0.3447055266517580  0.2498932390428195  0.2206623926809286   F   F   F
  0.4005040230322440  0.2500680742230446  0.3068003145310378   T   T   T
  0.2495880012609798  0.2499970076064644  0.2919938093483513   T   T   T
  0.0995329956137860  0.2500293248520584  0.3072117361162078   T   T   T
  0.1517649320333263  0.2501197442133337  0.3939346184043647   T   T   T
  0.4996574911455899  0.2497544118250309  0.3762040258623230   T   T   T
  0.3474275059570356  0.2503180755403140  0.3924218860808862   T   T   T
  0.4007356095619320  0.2463558527542631  0.4779924643150807   T   T   T
  0.2505678994818809  0.2495554131257774  0.4637153295277718   T   T   T
  0.0949629917261115  0.2514174551149487  0.4736120016188241   T   T   T
  0.4054229972694188  0.2499207711709062  0.1371716336629376   F   F   F
  0.2498138581555835  0.2499451823925298  0.1043557657097551   F   F   F
  0.0938776901322669  0.2499459403779412  0.1371098843944125   F   F   F
  0.1543617400249389  0.3748920346981564  0.2204674382050342   F   F   F
  0.9995672189247742  0.3748993922795947  0.2080981530608312   F   F   F
  0.3446956533108718  0.3748674624887514  0.2206599019871973   F   F   F
  0.4005905826894201  0.3749848750930349  0.3069981186393996   T   T   T
  0.2496197536708745  0.3749685353121455  0.2920493981622228   T   T   T
  0.0993607980243065  0.3750160810102351  0.3073361816437979   T   T   T
  0.1520863307398582  0.3751461737701053  0.3938412610048885   T   T   T
  0.4997538962411870  0.3747333860648164  0.3766309637364447   T   T   T
  0.3473575600295025  0.3747809861110852  0.3928363192648253   T   T   T
  0.4024514895481149  0.3733130117699094  0.4777183264422981   T   T   T
  0.2512654792756704  0.3755675774062400  0.4645328062136750   T   T   T
  0.0946099156933586  0.3747142317162674  0.4722013997717051   T   T   T
  0.4054204481464510  0.3749288137657416  0.1371674470345781   F   F   F
  0.2498106243523637  0.3749504007233213  0.1042578114000037   F   F   F
  0.0938682935435935  0.3749385903486697  0.1371059653233644   F   F   F
  0.1543531827738107  0.9998787448957458  0.2204712064644667   F   F   F
  0.9995677263797802  0.9999081653989563  0.2081008624749074   F   F   F
  0.3447067510723798  0.9998918897834912  0.2206650007889195   F   F   F
  0.4006022800235422  0.4998271983570865  0.3070150959399544   T   T   T
  0.2496396266230854  0.4998940528544427  0.2920506198330613   T   T   T
  0.0993601684986536  0.4998934095081722  0.3072887506391642   T   T   T
  0.1520736885538463  0.5000898338828588  0.3937619349215771   T   T   T
  0.4997736043445223  0.4999940500987980  0.3766526714169090   T   T   T
  0.3475772261615289  0.0001866479828253  0.3923588129322981   T   T   T
  0.4023431205994841  0.5005378445409491  0.4777846024283716   T   T   T
  0.2511086478851008  0.5001639482917577  0.4640909212608273   T   T   T
  0.0945148118840133  0.0010642003600099  0.4733943605460582   T   T   T
  0.4054220745019208  0.4999222115495883  0.1371706404740110   F   F   F
  0.2498130538845231  0.4999469596221715  0.1043552466225179   F   F   F
  0.0938777968594522  0.4999465964224399  0.1371098030237761   F   F   F
  0.1543635830516692  0.6248899271375592  0.2204647086472562   F   F   F
  0.9995670073461937  0.6248966516782701  0.2080976692853085   F   F   F
  0.3446973568903360  0.6248674306196307  0.2206598414842134   F   F   F
  0.4005331704740312  0.6247603242146427  0.3067934129071537   T   T   T
  0.2496142991503121  0.6248800954813485  0.2919658271678104   T   T   T
  0.0994904119920197  0.6248837613053773  0.3071510070699094   T   T   T
  0.1518752605676093  0.6251306469420992  0.3937393785911436   T   T   T
  0.4997043000909889  0.6250243235273516  0.3760986779868753   T   T   T
  0.3475749227814298  0.6247073028205961  0.3923680337423417   T   T   T
  0.4012338694946768  0.6280076804411278  0.4779483233647426   T   T   T
  0.2508097324030674  0.6256504328047218  0.4638767162979053   T   T   T
  0.0949592290946981  0.6243357205413566  0.4728756066055484   T   T   T
  0.4054214644049878  0.6249282036816339  0.1371697875501496   F   F   F
  0.2498118312390858  0.6249501818115135  0.1042602234590362   F   F   F
  0.0938664600244081  0.6249385922007349  0.1371069089706722   F   F   F
  0.1543560911150905  0.7498790211591952  0.2204709660202369   F   F   F
  0.9995706735895027  0.7499094862395950  0.2080999580462830   F   F   F
  0.3447055266517580  0.7498932390428195  0.2206623926809286   F   F   F
  0.4004597269981390  0.7499331958494700  0.3066899115255878   T   T   T
  0.2495701839173848  0.7498911668426644  0.2919463770470946   T   T   T
  0.0995137779839016  0.7499095055491571  0.3071109111628825   T   T   T
  0.1516738732032943  0.7500233237312757  0.3937308609696382   T   T   T
  0.4996252655061965  0.7499992511783959  0.3758164288594417   T   T   T
  0.3475146016998689  0.7503069880319226  0.3922712055757935   T   T   T
  0.3995711825772807  0.7488858747224141  0.4781400623475170   T   T   T
  0.2504671014340430  0.7499765451104410  0.4632906283224529   T   T   T
  0.0946289593845892  0.7513506560897373  0.4734427153906281   T   T   T
  0.4054229972694188  0.7499207711709062  0.1371716336629376   F   F   F
  0.2498138581555835  0.7499451823925369  0.1043557657097551   F   F   F
  0.0938776901322669  0.7499459403779412  0.1371098843944125   F   F   F
  0.1543617400249389  0.8748920346981564  0.2204674382050342   F   F   F
  0.9995672189247742  0.8748993922795947  0.2080981530608312   F   F   F
  0.3446956533108718  0.8748674624887514  0.2206599019871973   F   F   F
  0.4004236459859847  0.8748981131274705  0.3067136758919872   T   T   T
  0.2495659049702808  0.8749176699873412  0.2919495023675079   T   T   T
  0.0994875826209906  0.8749288163908931  0.3070576050965291   T   T   T
  0.1516846730301669  0.8751132601627051  0.3936588944036639   T   T   T
  0.4996407015228373  0.8749865270600294  0.3760880017912501   T   T   T
  0.3476764915554537  0.8747097073032719  0.3923088073451947   T   T   T