Mo  S Co                                
   1.00000000000000     
    15.9214998300000001    0.0000000000000000    0.0000000000000000
    -7.9622501300000001   13.7910221699999997    0.0000000000000000
     0.0000000000000000    0.0000000000000000   13.5821998300000004
   Mo   S    Co
    25    49     4
Direct
  0.1328754754299766  0.0670066117716459  0.6729463250958858
  0.1387473328906736  0.2698413556849104  0.6722515999859127
  0.1323696211642940  0.4648253381541068  0.6752909521209176
  0.1346300349235818  0.6663329974471139  0.6792621910300909
  0.1344987877827961  0.8668830271975239  0.6776889865773512
  0.3328195587486817  0.0664573936403627  0.6757547552220586
  0.3302068522080077  0.2643729261016574  0.6661461157787443
  0.3290123811215864  0.4638663909007050  0.6633934540520841
  0.3341373866947919  0.6647617583367591  0.6790438062875239
  0.3343370989067509  0.8665083765910424  0.6798169800969447
  0.5339267535486982  0.0671614541617203  0.6816314476754073
  0.5334005825894721  0.2688800544542431  0.6810800897353602
  0.5115291630172081  0.4543907903649895  0.6760042476746904
  0.5377191513069022  0.6706804363292420  0.6802599770656030
  0.5341347871773792  0.8669865202319187  0.6821234192443271
  0.7341659590941489  0.0676346322346575  0.6825256583113912
  0.7331872833687640  0.2670819891892151  0.6847408221071518
  0.7356427607232234  0.4663624973045728  0.6902436522119473
  0.7355203546180604  0.6693646450004920  0.6899827370383278
  0.7354398841772394  0.8685680176400510  0.6824078117925652
  0.9352967035075821  0.0688646492259721  0.6792454206283054
  0.9343895965670725  0.2667716202634693  0.6804761700913744
  0.9337797615433274  0.4668778848645445  0.6816497597911138
  0.9351840524037982  0.6676474807569974  0.6831455828589554
  0.9352487750320293  0.8684022963722242  0.6796692597044398
  0.0656678360917340  0.1349624504198275  0.5598941506292263
  0.0741762908959771  0.1395117384716258  0.7896442027617283
  0.0649492785719445  0.3314586942149589  0.5609934635835216
  0.0729293360440693  0.3334176423791817  0.7910685595260887
  0.0643636713009599  0.5327725816165767  0.5635512412520853
  0.0688223182709251  0.5325832718064163  0.7934211133897193
  0.0660846635419645  0.7318954395510815  0.5648839038056650
  0.0705803017723454  0.7352606772730326  0.7949631098567380
  0.0652891503044515  0.9308350677295820  0.5613345891887676
  0.0700342923795176  0.9366701231389598  0.7916267408062154
  0.2645436229450837  0.1286757499824560  0.5553652501735016
  0.2641502911360547  0.1347681578346993  0.7860499465867647
  0.2658493923008294  0.3318185467244277  0.5510599165612504
  0.2636565733009917  0.5356535147829291  0.5560471923345247
  0.2644513787902483  0.5261631445455208  0.7905950130573558
  0.2686018261740699  0.7332293951964601  0.5648775059848177
  0.2679466275986613  0.7319339193508299  0.7943686740262166
  0.2678634514283829  0.9318916332805642  0.5625463446052663
  0.2673870765020538  0.9347106921487764  0.7927677419850099
  0.4694929626437201  0.1349019832829939  0.5650441764793612
  0.4646581168878612  0.1341036782572900  0.7934404686953300
  0.4655176919770838  0.3280446173706437  0.5570763826169696
  0.4403745507817050  0.3266888066492015  0.8001215385813936
  0.4675023056202079  0.5384096053234302  0.5596469322753421
  0.4497036495228670  0.4999910527809917  0.9267493378261733
  0.4692040319446917  0.7348812985124766  0.5652781370609361
  0.4670297616336185  0.7309574159335810  0.7994440725439915
  0.4688162823466158  0.9341532179193663  0.5663726357180963
  0.4663261402125656  0.9333955905007230  0.7963201658338619
  0.6677376201837859  0.1351605490769998  0.5680913619564194
  0.6663500656335870  0.1327462025461443  0.7982171652352505
  0.6685989978112374  0.3365422055715044  0.5715307724324816
  0.6652113424479893  0.3329020552824389  0.8067413209312591
  0.6611413003205016  0.5304702649170991  0.5820466766284724
  0.6991881753984117  0.5570269869325486  0.8335771390171942
  0.6713576309826905  0.7340765149770263  0.5684679462783606
  0.6660936745021786  0.7351369092554521  0.8014700937812123
  0.6673512185478643  0.9339473905060629  0.5675801780170104
  0.6678376172626841  0.9345457217936044  0.7974256243106836
  0.8659784244446769  0.1337711518604294  0.5658065161627590
  0.8691155396722721  0.1344557995412359  0.7960702431789812
  0.8647688047595850  0.3327355343756508  0.5677078878086874
  0.8690908910243067  0.3337262857060352  0.7973173201203281
  0.8644399160093457  0.5333590467304887  0.5693997362790810
  0.8723064789343269  0.5351041095256406  0.8000932817066442
  0.8643511651915574  0.7310802422548548  0.5694204229885855
  0.8744175558583223  0.7401718819070666  0.7984923865154059
  0.8669842859887709  0.9343226446255528  0.5654799842151945
  0.8705391632942749  0.9366542862670570  0.7956072283977704
  0.3512968337639535  0.3945657312392754  0.8187452843863596
  0.5895007829584884  0.4147085707815634  0.8234748577711244
  0.5656001895537131  0.5586341823131633  0.8219482296356873
  0.4151336572588207  0.5699963229245668  0.8182428460313389
 
  0.00000000E+00  0.00000000E+00  0.00000000E+00
  0.00000000E+00  0.00000000E+00  0.00000000E+00
  0.00000000E+00  0.00000000E+00  0.00000000E+00
  0.00000000E+00  0.00000000E+00  0.00000000E+00
  0.00000000E+00  0.00000000E+00  0.00000000E+00
  0.00000000E+00  0.00000000E+00  0.00000000E+00
  0.00000000E+00  0.00000000E+00  0.00000000E+00
  0.00000000E+00  0.00000000E+00  0.00000000E+00
  0.00000000E+00  0.00000000E+00  0.00000000E+00
  0.00000000E+00  0.00000000E+00  0.00000000E+00
  0.00000000E+00  0.00000000E+00  0.00000000E+00
  0.00000000E+00  0.00000000E+00  0.00000000E+00
  0.00000000E+00  0.00000000E+00  0.00000000E+00
  0.00000000E+00  0.00000000E+00  0.00000000E+00
  0.00000000E+00  0.00000000E+00  0.00000000E+00
  0.00000000E+00  0.00000000E+00  0.00000000E+00
  0.00000000E+00  0.00000000E+00  0.00000000E+00
  0.00000000E+00  0.00000000E+00  0.00000000E+00
  0.00000000E+00  0.00000000E+00  0.00000000E+00
  0.00000000E+00  0.00000000E+00  0.00000000E+00
  0.00000000E+00  0.00000000E+00  0.00000000E+00
  0.00000000E+00  0.00000000E+00  0.00000000E+00
  0.00000000E+00  0.00000000E+00  0.00000000E+00
  0.00000000E+00  0.00000000E+00  0.00000000E+00
  0.00000000E+00  0.00000000E+00  0.00000000E+00
  0.00000000E+00  0.00000000E+00  0.00000000E+00
  0.00000000E+00  0.00000000E+00  0.00000000E+00
  0.00000000E+00  0.00000000E+00  0.00000000E+00
  0.00000000E+00  0.00000000E+00  0.00000000E+00
  0.00000000E+00  0.00000000E+00  0.00000000E+00
  0.00000000E+00  0.00000000E+00  0.00000000E+00
  0.00000000E+00  0.00000000E+00  0.00000000E+00
  0.00000000E+00  0.00000000E+00  0.00000000E+00
  0.00000000E+00  0.00000000E+00  0.00000000E+00
  0.00000000E+00  0.00000000E+00  0.00000000E+00
  0.00000000E+00  0.00000000E+00  0.00000000E+00
  0.00000000E+00  0.00000000E+00  0.00000000E+00
  0.00000000E+00  0.00000000E+00  0.00000000E+00
  0.00000000E+00  0.00000000E+00  0.00000000E+00
  0.00000000E+00  0.00000000E+00  0.00000000E+00
  0.00000000E+00  0.00000000E+00  0.00000000E+00
  0.00000000E+00  0.00000000E+00  0.00000000E+00
  0.00000000E+00  0.00000000E+00  0.00000000E+00
  0.00000000E+00  0.00000000E+00  0.00000000E+00
  0.00000000E+00  0.00000000E+00  0.00000000E+00
  0.00000000E+00  0.00000000E+00  0.00000000E+00
  0.00000000E+00  0.00000000E+00  0.00000000E+00
  0.00000000E+00  0.00000000E+00  0.00000000E+00
  0.00000000E+00  0.00000000E+00  0.00000000E+00
  0.00000000E+00  0.00000000E+00  0.00000000E+00
  0.00000000E+00  0.00000000E+00  0.00000000E+00
  0.00000000E+00  0.00000000E+00  0.00000000E+00
  0.00000000E+00  0.00000000E+00  0.00000000E+00
  0.00000000E+00  0.00000000E+00  0.00000000E+00
  0.00000000E+00  0.00000000E+00  0.00000000E+00
  0.00000000E+00  0.00000000E+00  0.00000000E+00
  0.00000000E+00  0.00000000E+00  0.00000000E+00
  0.00000000E+00  0.00000000E+00  0.00000000E+00
  0.00000000E+00  0.00000000E+00  0.00000000E+00
  0.00000000E+00  0.00000000E+00  0.00000000E+00
  0.00000000E+00  0.00000000E+00  0.00000000E+00
  0.00000000E+00  0.00000000E+00  0.00000000E+00
  0.00000000E+00  0.00000000E+00  0.00000000E+00
  0.00000000E+00  0.00000000E+00  0.00000000E+00
  0.00000000E+00  0.00000000E+00  0.00000000E+00
  0.00000000E+00  0.00000000E+00  0.00000000E+00
  0.00000000E+00  0.00000000E+00  0.00000000E+00
  0.00000000E+00  0.00000000E+00  0.00000000E+00
  0.00000000E+00  0.00000000E+00  0.00000000E+00
  0.00000000E+00  0.00000000E+00  0.00000000E+00
  0.00000000E+00  0.00000000E+00  0.00000000E+00
  0.00000000E+00  0.00000000E+00  0.00000000E+00
  0.00000000E+00  0.00000000E+00  0.00000000E+00
  0.00000000E+00  0.00000000E+00  0.00000000E+00
  0.00000000E+00  0.00000000E+00  0.00000000E+00
  0.00000000E+00  0.00000000E+00  0.00000000E+00
  0.00000000E+00  0.00000000E+00  0.00000000E+00
  0.00000000E+00  0.00000000E+00  0.00000000E+00
