Ta  N Ru Cu                             
   1.00000000000000     
     9.0548154099999998    0.0000000000000000    0.0000000000000000
     0.0000000000000000   11.6775998899999998    0.0000000000000000
     0.0000000000000000    0.0000000000000000   23.4818170799999990
   Ta   N    Ru   Cu
    60    60    16     1
Selective dynamics
Direct
  0.0000000000000000  0.0000000000000000  0.2546926809530987   F   F   F
  0.6670845899906297  0.1250000003211298  0.2638822399803757   F   F   F
  0.3329153514769843  0.1250000003211298  0.2638822399803757   F   F   F
  0.4999999994478088  0.2499999997859135  0.3618861993156202   F   F   F
  0.1650707596845180  0.1250000003211298  0.3684425577811794   F   F   F
  0.8349292403154820  0.1250000003211298  0.3684425577811794   F   F   F
  0.0005043256359779  0.2500084893164430  0.4799500396722461   T   T   T
  0.6639834210612996  0.1249405139740963  0.4779216314260266   T   T   T
  0.3351583966541922  0.1249608105724787  0.4779449114182261   T   T   T
  0.4983727559391391  0.2499194605984627  0.5904101943402621   T   T   T
  0.1689184446257579  0.1248894388059885  0.5901344286578825   T   T   T
  0.8318587565370109  0.1248313877789033  0.5892946714843921   T   T   T
  0.9952672764214406  0.2484491587294636  0.6988175125777442   T   T   T
  0.6642627393060375  0.1243623139762570  0.7011521425690170   T   T   T
  0.3314368526020169  0.1245462625267579  0.7049350240725177   T   T   T
  0.0000000000000000  0.2499999997859135  0.2546926809530987   F   F   F
  0.6670845899906297  0.3750000001070433  0.2638822399803757   F   F   F
  0.3329153514769843  0.3750000001070433  0.2638822399803757   F   F   F
  0.4999999994478088  0.5000000004281731  0.3618861993156202   F   F   F
  0.1650707596845180  0.3750000001070433  0.3684425577811794   F   F   F
  0.8349292403154820  0.3750000001070433  0.3684425577811794   F   F   F
  0.0004728010874878  0.4998723379251316  0.4799754951193999   T   T   T
  0.6641489477379697  0.3749614427864248  0.4779969763660365   T   T   T
  0.3353090519344969  0.3749634714553755  0.4780070355537535   T   T   T
  0.4984360889753169  0.4998200952381128  0.5905930898012116   T   T   T
  0.1687367142016388  0.3749989476887265  0.5903822646244246   T   T   T
  0.8321935770305390  0.3748912388592173  0.5892907703274344   T   T   T
  0.9959468846939917  0.4989750850158015  0.6998237964785351   T   T   T
  0.6661354412706635  0.3743386019298721  0.7010275185717769   T   T   T
  0.3294654103059138  0.3750336273784289  0.7060039714596135   T   T   T
  0.0000000000000000  0.5000000004281731  0.2546926809530987   F   F   F
  0.6670845899906297  0.6249999998929567  0.2638822399803757   F   F   F
  0.3329153514769843  0.6249999998929567  0.2638822399803757   F   F   F
  0.4999999994478088  0.7500000002140865  0.3618861993156202   F   F   F
  0.1650707596845180  0.6249999998929567  0.3684425577811794   F   F   F
  0.8349292403154820  0.6249999998929567  0.3684425577811794   F   F   F
  0.0005063504885843  0.7499394910486837  0.4799447646845087   T   T   T
  0.6640574752199464  0.6248928334720963  0.4779564393516230   T   T   T
  0.3351469010812260  0.6248918370654107  0.4780027235230889   T   T   T
  0.4982825777380242  0.7496949092930095  0.5903822672968095   T   T   T
  0.1685893563288501  0.6247778650813027  0.5902595223022729   T   T   T
  0.8321606657590573  0.6246550775415596  0.5894802826336404   T   T   T
  0.9951538641741994  0.7509200632424285  0.6989522271366255   T   T   T
  0.6657891735272983  0.6241838475510155  0.7017582698237252   T   T   T
  0.3317712178022029  0.6246995383786695  0.7049701826545912   T   T   T
  0.0000000000000000  0.7500000002140865  0.2546926809530987   F   F   F
  0.6670845899906297  0.8750000005352163  0.2638822399803757   F   F   F
  0.3329153514769843  0.8750000005352163  0.2638822399803757   F   F   F
  0.4999999994478088  0.0000000000000000  0.3618861993156202   F   F   F
  0.1650707596845180  0.8750000005352163  0.3684425577811794   F   F   F
  0.8349292403154820  0.8750000005352163  0.3684425577811794   F   F   F
  0.0004906755161669  0.9998965800990420  0.4799269852639826   T   T   T
  0.6640073067586247  0.8748797628494670  0.4779484806293889   T   T   T
  0.3351776491651223  0.8749060510368436  0.4779757470660578   T   T   T
  0.4981147887943850  0.9998114624381800  0.5902769786069663   T   T   T
  0.1686233639234020  0.8748443308099852  0.5902869695992939   T   T   T
  0.8319372108702472  0.8747436384101550  0.5890828159240413   T   T   T
  0.9935941892948847  0.9991686740605416  0.6990691622993850   T   T   T
  0.6646593263102494  0.8740462730619143  0.7001280157556526   T   T   T
  0.3283367713061434  0.8747677268664033  0.7056910793728746   T   T   T
  0.8141011533980276  0.0000000000000000  0.3013105672926031   F   F   F
  0.4999999994478088  0.0000000000000000  0.2564174481620327   F   F   F
  0.1858988466019724  0.0000000000000000  0.3013105672926031   F   F   F
  0.3088456122590841  0.2499999997859135  0.4099867722441957   F   F   F
  0.0000000000000000  0.2499999997859135  0.3930971035158137   F   F   F
  0.6911543877409159  0.2499999997859135  0.4099867722441957   F   F   F
  0.8012670009869572  0.2498798310745809  0.5216263069904608   T   T   T
  0.4995184918435197  0.2499540586415774  0.5027048721198686   T   T   T
  0.1990551349511191  0.2500434303079764  0.5222742376272494   T   T   T
  0.3039110423203689  0.2502929747425854  0.6352487398652948   T   T   T
  0.9996913145697999  0.2498460430564496  0.6111871597630207   T   T   T
  0.6949685068028919  0.2498212864320231  0.6330289665634763   T   T   T
  0.8036406342235550  0.2498193036326528  0.7435760881785545   T   T   T
  0.5024969441279454  0.2506726999518898  0.7263352017347408   T   T   T
  0.1912441382928057  0.2481694031951777  0.7383250376885362   T   T   T
  0.8141011533980276  0.2499999997859135  0.3013105672926031   F   F   F
  0.4999999994478088  0.2499999997859135  0.2564174481620327   F   F   F
  0.1858988466019724  0.2499999997859135  0.3013105672926031   F   F   F
  0.3088456122590841  0.5000000004281731  0.4099867722441957   F   F   F
  0.0000000000000000  0.5000000004281731  0.3930971035158137   F   F   F
  0.6911543877409159  0.5000000004281731  0.4099867722441957   F   F   F
  0.8013191911574156  0.4999262176659673  0.5217189442998702   T   T   T
  0.4994959674933492  0.4999146194299980  0.5028080229472390   T   T   T
  0.1989689793181830  0.4998055938326811  0.5223501683891331   T   T   T
  0.3038833701976864  0.4997341256904099  0.6353909329169468   T   T   T
  0.9996778546782248  0.4996277817024975  0.6118882522417716   T   T   T
  0.6950866199156076  0.5000328407272214  0.6332663559340606   T   T   T
  0.8042416695447269  0.4970390798697826  0.7440690670508161   T   T   T
  0.5024215446902295  0.4993752491450104  0.7261897619790250   T   T   T
  0.1911095272518998  0.5014986116914775  0.7396078092156363   T   T   T
  0.8141011533980276  0.5000000004281731  0.3013105672926031   F   F   F
  0.4999999994478088  0.5000000004281731  0.2564174481620327   F   F   F
  0.1858988466019724  0.5000000004281731  0.3013105672926031   F   F   F
  0.3088456122590841  0.7500000002140865  0.4099867722441957   F   F   F
  0.0000000000000000  0.7500000002140865  0.3930971035158137   F   F   F
  0.6911543877409159  0.7500000002140865  0.4099867722441957   F   F   F
  0.8012361189605809  0.7497438119706892  0.5216107531139405   T   T   T
  0.4994467378477676  0.7498317853866225  0.5027037984909879   T   T   T
  0.1989860015094798  0.7499581541776710  0.5222856044863823   T   T   T
  0.3037128868736047  0.7498225363244246  0.6352318832701681   T   T   T
  0.9994163953280533  0.7499907424363588  0.6113062208122289   T   T   T
  0.6950196816488666  0.7488409843064420  0.6329567276790903   T   T   T
  0.8034408610976046  0.7535878253397743  0.7440226161078092   T   T   T
  0.5022276909895527  0.7501358467957222  0.7259555288432593   T   T   T
  0.1905814714329676  0.7485354370573984  0.7386229571672586   T   T   T
  0.8141011533980276  0.7500000002140865  0.3013105672926031   F   F   F
  0.4999999994478088  0.7500000002140865  0.2564174481620327   F   F   F
  0.1858988466019724  0.7500000002140865  0.3013105672926031   F   F   F
  0.3088456122590841  0.0000000000000000  0.4099867722441957   F   F   F
  0.0000000000000000  0.0000000000000000  0.3930971035158137   F   F   F
  0.6911543877409159  0.0000000000000000  0.4099867722441957   F   F   F
  0.8012429414729272  0.9998988159500373  0.5215503845774947   T   T   T
  0.4994221713318773  0.9999245233513813  0.5026208148464006   T   T   T
  0.1990184305869094  0.9998416282008266  0.5222523026928205   T   T   T
  0.3037022203419956  0.9996335931271140  0.6351425823157204   T   T   T
  0.9993435832835659  0.9997363545529535  0.6112808886792748   T   T   T
  0.6946778042673536  0.0002099140315405  0.6328425768100662   T   T   T
  0.8008546341609014  0.9973432410289222  0.7440396930639305   T   T   T
  0.5014315866558690  0.9989415392609723  0.7252503877200831   T   T   T
  0.1892033817678216  0.0015318303088560  0.7385284218568051   T   T   T
  0.1317310923797409  0.0191928617706503  0.8164202322252695   T   T   T
  0.5665122146870469  0.9955174669843598  0.8056736364100734   T   T   T
  0.8771786774017083  0.1219784878828570  0.7978090091624827   T   T   T
  0.1315827596360629  0.5226157791774841  0.8174848824010674   T   T   T
  0.5544529631960201  0.4973025056353908  0.8093607096621108   T   T   T
  0.8721584468734765  0.6268795149201322  0.7977086017848702   T   T   T
  0.1276166095199494  0.2418863803822670  0.8159954661260322   T   T   T
  0.5611055009455562  0.2645620033731503  0.8075716510093967   T   T   T
  0.8824354184795807  0.3696385219909235  0.7999772401523755   T   T   T
  0.1291615893582757  0.7432763604332312  0.8166406054241151   T   T   T
  0.5639061888024371  0.7616276193872215  0.8068951099308102   T   T   T
  0.8852869220142668  0.8766395068243685  0.7995904579876908   T   T   T
  0.3428004820084140  0.8727306543439561  0.8367256642498241   T   T   T
  0.3666300879345766  0.6248837499991002  0.8401256988235474   T   T   T
  0.3382392821626496  0.3680077899282198  0.8380548793060215   T   T   T
  0.3682954075589667  0.1188024165746895  0.8382823493985101   T   T   T
  0.7833175333303185  0.4991182027137008  0.8758361362478362   T   T   T
 
  0.00000000E+00  0.00000000E+00  0.00000000E+00
  0.00000000E+00  0.00000000E+00  0.00000000E+00
  0.00000000E+00  0.00000000E+00  0.00000000E+00
  0.00000000E+00  0.00000000E+00  0.00000000E+00
  0.00000000E+00  0.00000000E+00  0.00000000E+00
  0.00000000E+00  0.00000000E+00  0.00000000E+00
  0.00000000E+00  0.00000000E+00  0.00000000E+00
  0.00000000E+00  0.00000000E+00  0.00000000E+00
  0.00000000E+00  0.00000000E+00  0.00000000E+00
  0.00000000E+00  0.00000000E+00  0.00000000E+00
  0.00000000E+00  0.00000000E+00  0.00000000E+00
  0.00000000E+00  0.00000000E+00  0.00000000E+00
  0.00000000E+00  0.00000000E+00  0.00000000E+00
  0.00000000E+00  0.00000000E+00  0.00000000E+00
  0.00000000E+00  0.00000000E+00  0.00000000E+00
  0.00000000E+00  0.00000000E+00  0.00000000E+00
  0.00000000E+00  0.00000000E+00  0.00000000E+00
  0.00000000E+00  0.00000000E+00  0.00000000E+00
  0.00000000E+00  0.00000000E+00  0.00000000E+00
  0.00000000E+00  0.00000000E+00  0.00000000E+00
  0.00000000E+00  0.00000000E+00  0.00000000E+00
  0.00000000E+00  0.00000000E+00  0.00000000E+00
  0.00000000E+00  0.00000000E+00  0.00000000E+00
  0.00000000E+00  0.00000000E+00  0.00000000E+00
  0.00000000E+00  0.00000000E+00  0.00000000E+00
  0.00000000E+00  0.00000000E+00  0.00000000E+00
  0.00000000E+00  0.00000000E+00  0.00000000E+00
  0.00000000E+00  0.00000000E+00  0.00000000E+00
  0.00000000E+00  0.00000000E+00  0.00000000E+00
  0.00000000E+00  0.00000000E+00  0.00000000E+00
  0.00000000E+00  0.00000000E+00  0.00000000E+00
  0.00000000E+00  0.00000000E+00  0.00000000E+00
  0.00000000E+00  0.00000000E+00  0.00000000E+00
  0.00000000E+00  0.00000000E+00  0.00000000E+00
  0.00000000E+00  0.00000000E+00  0.00000000E+00
  0.00000000E+00  0.00000000E+00  0.00000000E+00
  0.00000000E+00  0.00000000E+00  0.00000000E+00
  0.00000000E+00  0.00000000E+00  0.00000000E+00
  0.00000000E+00  0.00000000E+00  0.00000000E+00
  0.00000000E+00  0.00000000E+00  0.00000000E+00
  0.00000000E+00  0.00000000E+00  0.00000000E+00
  0.00000000E+00  0.00000000E+00  0.00000000E+00
  0.00000000E+00  0.00000000E+00  0.00000000E+00
  0.00000000E+00  0.00000000E+00  0.00000000E+00
  0.00000000E+00  0.00000000E+00  0.00000000E+00
  0.00000000E+00  0.00000000E+00  0.00000000E+00
  0.00000000E+00  0.00000000E+00  0.00000000E+00
  0.00000000E+00  0.00000000E+00  0.00000000E+00
  0.00000000E+00  0.00000000E+00  0.00000000E+00
  0.00000000E+00  0.00000000E+00  0.00000000E+00
  0.00000000E+00  0.00000000E+00  0.00000000E+00
  0.00000000E+00  0.00000000E+00  0.00000000E+00
  0.00000000E+00  0.00000000E+00  0.00000000E+00
  0.00000000E+00  0.00000000E+00  0.00000000E+00
  0.00000000E+00  0.00000000E+00  0.00000000E+00
  0.00000000E+00  0.00000000E+00  0.00000000E+00
  0.00000000E+00  0.00000000E+00  0.00000000E+00
  0.00000000E+00  0.00000000E+00  0.00000000E+00
  0.00000000E+00  0.00000000E+00  0.00000000E+00
  0.00000000E+00  0.00000000E+00  0.00000000E+00
  0.00000000E+00  0.00000000E+00  0.00000000E+00
  0.00000000E+00  0.00000000E+00  0.00000000E+00
  0.00000000E+00  0.00000000E+00  0.00000000E+00
  0.00000000E+00  0.00000000E+00  0.00000000E+00
  0.00000000E+00  0.00000000E+00  0.00000000E+00
  0.00000000E+00  0.00000000E+00  0.00000000E+00
  0.00000000E+00  0.00000000E+00  0.00000000E+00
  0.00000000E+00  0.00000000E+00  0.00000000E+00
  0.00000000E+00  0.00000000E+00  0.00000000E+00
  0.00000000E+00  0.00000000E+00  0.00000000E+00
  0.00000000E+00  0.00000000E+00  0.00000000E+00
  0.00000000E+00  0.00000000E+00  0.00000000E+00
  0.00000000E+00  0.00000000E+00  0.00000000E+00
  0.00000000E+00  0.00000000E+00  0.00000000E+00
  0.00000000E+00  0.00000000E+00  0.00000000E+00
  0.00000000E+00  0.00000000E+00  0.00000000E+00
  0.00000000E+00  0.00000000E+00  0.00000000E+00
  0.00000000E+00  0.00000000E+00  0.00000000E+00
  0.00000000E+00  0.00000000E+00  0.00000000E+00
  0.00000000E+00  0.00000000E+00  0.00000000E+00
  0.00000000E+00  0.00000000E+00  0.00000000E+00
  0.00000000E+00  0.00000000E+00  0.00000000E+00
  0.00000000E+00  0.00000000E+00  0.00000000E+00
  0.00000000E+00  0.00000000E+00  0.00000000E+00
  0.00000000E+00  0.00000000E+00  0.00000000E+00
  0.00000000E+00  0.00000000E+00  0.00000000E+00
  0.00000000E+00  0.00000000E+00  0.00000000E+00
  0.00000000E+00  0.00000000E+00  0.00000000E+00
  0.00000000E+00  0.00000000E+00  0.00000000E+00
  0.00000000E+00  0.00000000E+00  0.00000000E+00
  0.00000000E+00  0.00000000E+00  0.00000000E+00
  0.00000000E+00  0.00000000E+00  0.00000000E+00
  0.00000000E+00  0.00000000E+00  0.00000000E+00
  0.00000000E+00  0.00000000E+00  0.00000000E+00
  0.00000000E+00  0.00000000E+00  0.00000000E+00
  0.00000000E+00  0.00000000E+00  0.00000000E+00
  0.00000000E+00  0.00000000E+00  0.00000000E+00
  0.00000000E+00  0.00000000E+00  0.00000000E+00
  0.00000000E+00  0.00000000E+00  0.00000000E+00
  0.00000000E+00  0.00000000E+00  0.00000000E+00
  0.00000000E+00  0.00000000E+00  0.00000000E+00
  0.00000000E+00  0.00000000E+00  0.00000000E+00
  0.00000000E+00  0.00000000E+00  0.00000000E+00
  0.00000000E+00  0.00000000E+00  0.00000000E+00
  0.00000000E+00  0.00000000E+00  0.00000000E+00
  0.00000000E+00  0.00000000E+00  0.00000000E+00
  0.00000000E+00  0.00000000E+00  0.00000000E+00
  0.00000000E+00  0.00000000E+00  0.00000000E+00
  0.00000000E+00  0.00000000E+00  0.00000000E+00
  0.00000000E+00  0.00000000E+00  0.00000000E+00
  0.00000000E+00  0.00000000E+00  0.00000000E+00
  0.00000000E+00  0.00000000E+00  0.00000000E+00
  0.00000000E+00  0.00000000E+00  0.00000000E+00
  0.00000000E+00  0.00000000E+00  0.00000000E+00
  0.00000000E+00  0.00000000E+00  0.00000000E+00
  0.00000000E+00  0.00000000E+00  0.00000000E+00
  0.00000000E+00  0.00000000E+00  0.00000000E+00
  0.00000000E+00  0.00000000E+00  0.00000000E+00
  0.00000000E+00  0.00000000E+00  0.00000000E+00
  0.00000000E+00  0.00000000E+00  0.00000000E+00
  0.00000000E+00  0.00000000E+00  0.00000000E+00
  0.00000000E+00  0.00000000E+00  0.00000000E+00
  0.00000000E+00  0.00000000E+00  0.00000000E+00
  0.00000000E+00  0.00000000E+00  0.00000000E+00
  0.00000000E+00  0.00000000E+00  0.00000000E+00
  0.00000000E+00  0.00000000E+00  0.00000000E+00
  0.00000000E+00  0.00000000E+00  0.00000000E+00
  0.00000000E+00  0.00000000E+00  0.00000000E+00
  0.00000000E+00  0.00000000E+00  0.00000000E+00
  0.00000000E+00  0.00000000E+00  0.00000000E+00
  0.00000000E+00  0.00000000E+00  0.00000000E+00
  0.00000000E+00  0.00000000E+00  0.00000000E+00
  0.00000000E+00  0.00000000E+00  0.00000000E+00
  0.00000000E+00  0.00000000E+00  0.00000000E+00
  0.00000000E+00  0.00000000E+00  0.00000000E+00
  0.00000000E+00  0.00000000E+00  0.00000000E+00
  0.00000000E+00  0.00000000E+00  0.00000000E+00
