Mo  S Co                                
   1.00000000000000     
    15.9214998300000001    0.0000000000000000    0.0000000000000000
    -7.9622501300000001   13.7910221699999997    0.0000000000000000
     0.0000000000000000    0.0000000000000000   13.5821998300000004
   Mo   S    Co
    25    49     4
Direct
  0.1346989880442897  0.0683325081138466  0.6761978868067547
  0.1370944919080574  0.2698089792146531  0.6727796884071243
  0.1341188576051418  0.4648068687279062  0.6758845006412598
  0.1334550343226230  0.6657372341869402  0.6784078745872684
  0.1335745434046111  0.8665192059344360  0.6783670816072584
  0.3334268894586738  0.0667756741106792  0.6779666031720721
  0.3323609602968821  0.2666248075161006  0.6714498227897837
  0.3294077348785478  0.4611975043272355  0.6729280920646031
  0.3329176832019909  0.6643807546099799  0.6789159355609042
  0.3331380993006466  0.8656112020592194  0.6795480310978589
  0.5332688552711011  0.0656531312852267  0.6795096164960809
  0.5335279264252659  0.2655704153638373  0.6774012263480462
  0.5315012157807368  0.4653646818704419  0.6751285304934694
  0.5318650735892183  0.6643686829035160  0.6786819020074109
  0.5330149318527114  0.8652802966325371  0.6800484200787362
  0.7335268282629206  0.0658239667345601  0.6798422513898444
  0.7337044134993769  0.2659224084498398  0.6790412647007371
  0.7329756126694442  0.4656349457691417  0.6777562313307854
  0.7330078776712293  0.6657545745614363  0.6782126306596674
  0.7332730326806837  0.8656882056188346  0.6796908487370472
  0.9344377881030218  0.0670924174512283  0.6786325033003437
  0.9344806061736632  0.2660548814440910  0.6786768363707989
  0.9335048756724506  0.4656899458961425  0.6781055183129541
  0.9333586915779565  0.6660902983403656  0.6781304137542395
  0.9336107315940848  0.8665378099284118  0.6784871275080472
  0.0665661841712885  0.1338503354560633  0.5610603363843399
  0.0727329343493856  0.1390455982267402  0.7907428975769503
  0.0658834616353897  0.3312306508542732  0.5603057950991468
  0.0725732128129145  0.3337442571988612  0.7919760981092496
  0.0666505033455920  0.5327833360517239  0.5626715939599587
  0.0674787802412355  0.5315525863484649  0.7921223879332390
  0.0670032953790232  0.7329525802437589  0.5634051983460607
  0.0666963705521546  0.7327855603566651  0.7932022064767589
  0.0667507572760847  0.9330237356067300  0.5630295452846680
  0.0678317401624484  0.9350060156937346  0.7923227582453631
  0.2675512473584606  0.1326334401916158  0.5599764116768491
  0.2670651755757004  0.1380741951694651  0.7908276267493436
  0.2666112187521897  0.3318478697706682  0.5569982369340190
  0.2679048650442819  0.5328107693760609  0.5606002718383032
  0.2653669663272040  0.5261110794512841  0.7917338735011981
  0.2671691453133768  0.7324718385711467  0.5641608522820005
  0.2661794344947016  0.7312467540728443  0.7940836323797593
  0.2671368813223129  0.9325916035743186  0.5638090402256322
  0.2665224803916094  0.9336309634274603  0.7937273414234163
  0.4668684582574655  0.1317965877306418  0.5634763878544600
  0.4662736443145825  0.1330857314267672  0.7935641729294632
  0.4669847590247070  0.3315643876017929  0.5603361255853371
  0.4626987747138835  0.3325602132200928  0.7910440831722165
  0.4648958690857969  0.5325952670730667  0.5606561945048825
  0.4603900813160762  0.5260261411153841  0.7907683034717257
  0.4663983256544317  0.7322967020358521  0.5645902124533513
  0.4657981009440026  0.7308993847964272  0.7944612521387292
  0.4666458204753708  0.9320510084251248  0.5648112562945620
  0.4662772428796003  0.9322401186683468  0.7948257485852938
  0.6667091719644866  0.1320875189963928  0.5645310367904601
  0.6668565153508917  0.1328024015315412  0.7945533595195383
  0.6672762121500874  0.3321556096980076  0.5630054920555315
  0.6662855613376265  0.3328484129317221  0.7933645011040255
  0.6669418413773163  0.5329789088222209  0.5622316595305052
  0.6644438486278654  0.5313689354096263  0.7917234336540687
  0.6659286962172616  0.7325572958261442  0.5640932412186448
  0.6655949281969301  0.7310921049023125  0.7939236535865216
  0.6664018581454847  0.9322700243925844  0.5650109395467994
  0.6667117532285700  0.9322224044947046  0.7949640042276758
  0.8665078684152836  0.1324168130564387  0.5643821957395667
  0.8678188528469309  0.1331510073032871  0.7942568072258835
  0.8667666859614793  0.3319601812588316  0.5637180166359721
  0.8678219119510557  0.3329000883587316  0.7937187893840726
  0.8667811575602655  0.5326169319268615  0.5630695044104863
  0.8664803595704386  0.5324836988916868  0.7928324460592188
  0.8666825308163225  0.7330761650029609  0.5633633263878570
  0.8666605154093283  0.7327226087865604  0.7932114848966881
  0.8664378264582490  0.9330663056384115  0.5641455915141607
  0.8678429396923627  0.9335707823160553  0.7940496485059728
  0.2269197851757878  0.3347213081754573  1.0114362673970652
  0.4756833961602820  0.3370465451842865  0.9515071614137390
  0.5154161012335101  0.3459702196498525  0.1139520161445786
  0.2261051478609120  0.3391660068859663  0.1569639664806476
 
  0.00000000E+00  0.00000000E+00  0.00000000E+00
  0.00000000E+00  0.00000000E+00  0.00000000E+00
  0.00000000E+00  0.00000000E+00  0.00000000E+00
  0.00000000E+00  0.00000000E+00  0.00000000E+00
  0.00000000E+00  0.00000000E+00  0.00000000E+00
  0.00000000E+00  0.00000000E+00  0.00000000E+00
  0.00000000E+00  0.00000000E+00  0.00000000E+00
  0.00000000E+00  0.00000000E+00  0.00000000E+00
  0.00000000E+00  0.00000000E+00  0.00000000E+00
  0.00000000E+00  0.00000000E+00  0.00000000E+00
  0.00000000E+00  0.00000000E+00  0.00000000E+00
  0.00000000E+00  0.00000000E+00  0.00000000E+00
  0.00000000E+00  0.00000000E+00  0.00000000E+00
  0.00000000E+00  0.00000000E+00  0.00000000E+00
  0.00000000E+00  0.00000000E+00  0.00000000E+00
  0.00000000E+00  0.00000000E+00  0.00000000E+00
  0.00000000E+00  0.00000000E+00  0.00000000E+00
  0.00000000E+00  0.00000000E+00  0.00000000E+00
  0.00000000E+00  0.00000000E+00  0.00000000E+00
  0.00000000E+00  0.00000000E+00  0.00000000E+00
  0.00000000E+00  0.00000000E+00  0.00000000E+00
  0.00000000E+00  0.00000000E+00  0.00000000E+00
  0.00000000E+00  0.00000000E+00  0.00000000E+00
  0.00000000E+00  0.00000000E+00  0.00000000E+00
  0.00000000E+00  0.00000000E+00  0.00000000E+00
  0.00000000E+00  0.00000000E+00  0.00000000E+00
  0.00000000E+00  0.00000000E+00  0.00000000E+00
  0.00000000E+00  0.00000000E+00  0.00000000E+00
  0.00000000E+00  0.00000000E+00  0.00000000E+00
  0.00000000E+00  0.00000000E+00  0.00000000E+00
  0.00000000E+00  0.00000000E+00  0.00000000E+00
  0.00000000E+00  0.00000000E+00  0.00000000E+00
  0.00000000E+00  0.00000000E+00  0.00000000E+00
  0.00000000E+00  0.00000000E+00  0.00000000E+00
  0.00000000E+00  0.00000000E+00  0.00000000E+00
  0.00000000E+00  0.00000000E+00  0.00000000E+00
  0.00000000E+00  0.00000000E+00  0.00000000E+00
  0.00000000E+00  0.00000000E+00  0.00000000E+00
  0.00000000E+00  0.00000000E+00  0.00000000E+00
  0.00000000E+00  0.00000000E+00  0.00000000E+00
  0.00000000E+00  0.00000000E+00  0.00000000E+00
  0.00000000E+00  0.00000000E+00  0.00000000E+00
  0.00000000E+00  0.00000000E+00  0.00000000E+00
  0.00000000E+00  0.00000000E+00  0.00000000E+00
  0.00000000E+00  0.00000000E+00  0.00000000E+00
  0.00000000E+00  0.00000000E+00  0.00000000E+00
  0.00000000E+00  0.00000000E+00  0.00000000E+00
  0.00000000E+00  0.00000000E+00  0.00000000E+00
  0.00000000E+00  0.00000000E+00  0.00000000E+00
  0.00000000E+00  0.00000000E+00  0.00000000E+00
  0.00000000E+00  0.00000000E+00  0.00000000E+00
  0.00000000E+00  0.00000000E+00  0.00000000E+00
  0.00000000E+00  0.00000000E+00  0.00000000E+00
  0.00000000E+00  0.00000000E+00  0.00000000E+00
  0.00000000E+00  0.00000000E+00  0.00000000E+00
  0.00000000E+00  0.00000000E+00  0.00000000E+00
  0.00000000E+00  0.00000000E+00  0.00000000E+00
  0.00000000E+00  0.00000000E+00  0.00000000E+00
  0.00000000E+00  0.00000000E+00  0.00000000E+00
  0.00000000E+00  0.00000000E+00  0.00000000E+00
  0.00000000E+00  0.00000000E+00  0.00000000E+00
  0.00000000E+00  0.00000000E+00  0.00000000E+00
  0.00000000E+00  0.00000000E+00  0.00000000E+00
  0.00000000E+00  0.00000000E+00  0.00000000E+00
  0.00000000E+00  0.00000000E+00  0.00000000E+00
  0.00000000E+00  0.00000000E+00  0.00000000E+00
  0.00000000E+00  0.00000000E+00  0.00000000E+00
  0.00000000E+00  0.00000000E+00  0.00000000E+00
  0.00000000E+00  0.00000000E+00  0.00000000E+00
  0.00000000E+00  0.00000000E+00  0.00000000E+00
  0.00000000E+00  0.00000000E+00  0.00000000E+00
  0.00000000E+00  0.00000000E+00  0.00000000E+00
  0.00000000E+00  0.00000000E+00  0.00000000E+00
  0.00000000E+00  0.00000000E+00  0.00000000E+00
  0.00000000E+00  0.00000000E+00  0.00000000E+00
  0.00000000E+00  0.00000000E+00  0.00000000E+00
  0.00000000E+00  0.00000000E+00  0.00000000E+00
  0.00000000E+00  0.00000000E+00  0.00000000E+00
