Ta  N  W Cu                             
   1.00000000000000     
    18.1096308199999996    0.0000000000000000    0.0000000000000000
     0.0000000000000000   23.3551997799999995    0.0000000000000000
     0.0000000000000000    0.0000000000000000   30.4818171199999988
   Ta   N    W    Cu
   216   240    24     4
Direct
  0.0005361876079277  0.9999307955302399  0.1974757513142578
  0.3317733232674769  0.0646727401819831  0.2021856428118696
  0.1721676802770702  0.0662921350812979  0.2035905302160756
  0.2490912965481655  0.1248798463013401  0.2817822322963295
  0.0829731229863668  0.0622077574491016  0.2843085318356060
  0.4174951769427508  0.0623116713112708  0.2845002485293833
  0.0002932762719681  0.1250131887304775  0.3701595909530013
  0.3334040213089082  0.0623976612887418  0.3694427389569341
  0.1672228523677717  0.0623610297631387  0.3695309975783658
  0.2505101793156541  0.1251359593603780  0.4558120409271353
  0.0837582701250525  0.0625173218148731  0.4557969493048475
  0.4169551110896492  0.0624636204156062  0.4558897205535999
  0.0004437928064789  0.1281949097170525  0.5421760725198368
  0.3358729183701143  0.0625947558158515  0.5432461970326656
  0.1650097613105999  0.0629392744009394  0.5431674855098692
  0.0007658577256748  0.1247226333937377  0.1963161735825665
  0.3316560838739449  0.1848624762415199  0.2019145668895348
  0.1723216327513413  0.1832513478666726  0.2033494244110514
  0.2501686604850732  0.2498184000786168  0.2808684026599835
  0.0829385951100861  0.1874888352343831  0.2839307739287094
  0.4174885633531318  0.1873943404561302  0.2841366547903021
  0.0001381223857919  0.2501111909933869  0.3695756948661639
  0.3335085633875607  0.1873258987147537  0.3689706034436497
  0.1669997549672217  0.1874163662462180  0.3690359563910164
  0.2503749288669468  0.2503146240874301  0.4545641306327681
  0.0838835773092157  0.1877516049770662  0.4551390204260528
  0.4168529334707287  0.1876506429893325  0.4554411939140337
  0.0000019690983208  0.2524752639684493  0.5414024766308572
  0.0004995607386817  0.2496735086764232  0.1969328917282027
  0.3317197454015783  0.3145943246261993  0.2015277770069801
  0.1722983418433870  0.3161841645171677  0.2029022756915424
  0.2490667329280143  0.3750057193021163  0.2808813328074748
  0.0828325545980348  0.3121967317231267  0.2834389684285554
  0.4175030494447469  0.3122676871099230  0.2837078497270085
  0.0001173478109635  0.3750820573554421  0.3690759772175127
  0.3334155804461716  0.3124360643895088  0.3683797230941224
  0.1668941844957814  0.3124056845313703  0.3684299803027997
  0.2496856404576775  0.3752541594604182  0.4536975970439769
  0.0836354170164100  0.3128086365598293  0.4545149448437442
  0.4167655865720477  0.3127460219957996  0.4545045526016551
  0.9999567791628152  0.3761635408034536  0.5411228879888696
  0.0006677150443650  0.3747293617114380  0.1955560098517850
  0.3316651250599421  0.4349369366677962  0.2013501136451765
  0.1723886613805803  0.4333831452749095  0.2027553016361594
  0.2502259418582895  0.9999404767568478  0.2814668890958458
  0.0827790684691010  0.4376093900105147  0.2831913191920563
  0.4174948987115457  0.4375363459834958  0.2834507526451162
  0.0002989237721067  0.9999606163480834  0.3704789722164250
  0.3333487963773436  0.4375288302352374  0.3681179727864503
  0.1668687878888733  0.4375770837865218  0.3681548076637284
  0.2504475652151470  0.9998952392468254  0.4562977373138679
  0.0837677506127861  0.4377123470281177  0.4542737420178469
  0.4165772448730820  0.4377780522408017  0.4542753152102890
  0.0004241257749484  0.9998603405570989  0.5421679596814499
  0.0003802878445782  0.4999449935521554  0.1964443907038458
  0.3316536635280087  0.5650079169683551  0.2013469084390067
  0.1723675633815347  0.5665829408034426  0.2027612370118916
  0.2490792060816531  0.6249523837799984  0.2809785739302271
  0.0828064743167189  0.5623500129153030  0.2832348338350883
  0.4175094306595213  0.5624406695977839  0.2834568715078234
  0.0001957611566681  0.6248545235699581  0.3691732165169270
  0.3334115854023452  0.5625487783335430  0.3681962960804199
  0.1668964611700261  0.5624499313582731  0.3682490369596252
  0.2503594720508602  0.6247292635110711  0.4542694587575298
  0.0837491751484478  0.5623112698591015  0.4543615339390428
  0.4169503910161723  0.5624365883918330  0.4546050509133011
  0.0002760993313302  0.6239120975590922  0.5414134151980434
  0.0007110786977975  0.6251948012348905  0.1955435959884184
  0.3316954036146029  0.6853460454731959  0.2015345102708395
  0.1722838485993279  0.6837458529809268  0.2029297300766757
  0.2501662033406262  0.7500696161910199  0.2808952455963905
  0.0828957730569684  0.6877291852882976  0.2835003501742506
  0.4175363563482648  0.6876509762511489  0.2837043178988807
  0.0002267817231356  0.7497889197332057  0.3696672490944835
  0.3334922556417581  0.6874496042389069  0.3684659135474462
  0.1669334020860163  0.6875084827090490  0.3685668484296087
  0.2503804773738096  0.7494081520259073  0.4546591647467508
  0.0836137851082484  0.6870910100927290  0.4547011521258639
  0.4170059557075945  0.6871174538250173  0.4547598050003714
  0.0003306265084362  0.7473531488020271  0.5415906756308146
  0.0005183644499880  0.7502716495412329  0.1969563352553436
  0.3316917621065727  0.8150847527201606  0.2018706481276169
  0.1723435987824544  0.8166362624911514  0.2033644369176955
  0.2490851281323287  0.8750258225332246  0.2817642500613076
  0.0829689848088151  0.8123892348527662  0.2839575925351809
  0.4175073752042380  0.8124970369084821  0.2841270209823108
  0.0003111223809711  0.8748706054748965  0.3702077514130480
  0.3335805349793119  0.8124998422203049  0.3689588995327071
  0.1669759069197028  0.8124339234283582  0.3690654952083534
  0.2504096403481100  0.8747129069251400  0.4557586243328302
  0.0838817576964388  0.8120755657644096  0.4552695341533521
  0.4166858855938784  0.8121103325553420  0.4553106776859650
  0.0004917158946469  0.8715996704495765  0.5421766992630097
  0.0007731967453282  0.8751589761728482  0.1963395609050238
  0.3317605548952969  0.9352203322931985  0.2021605845811223
  0.1722406262831768  0.9336191561485450  0.2035985433153087
  0.2501765413171597  0.4999925724149890  0.2804220481866935
  0.0829726568276001  0.9376624872626564  0.2843145998159073
  0.4174753404168641  0.9375657755131144  0.2844804016092155
  0.0001279859005479  0.4999764135976932  0.3689815014892446
  0.3333869057773740  0.9374263966035628  0.3694188356687249
  0.1672202315659987  0.9374806193083316  0.3695278169452010
  0.2503490535385637  0.5001614552768672  0.4539499639838951
  0.0837413514955543  0.9373138245425281  0.4558027953367514
  0.4169320029253072  0.9372901232217359  0.4558296039442524
  0.0000164186978466  0.5000905127342890  0.5412756255786135
  0.3357279037529324  0.9366070736181626  0.5432095681884661
  0.1651931140600240  0.9367085975319114  0.5431842435276621
  0.5004485892272541  0.9999133640152351  0.1975250252090817
  0.8317492695557434  0.0646530492307278  0.2021022223127815
  0.6721298008818337  0.0662634817890151  0.2036037370480912
  0.7489661459057615  0.1248730305330952  0.2817342405440613
  0.5829101271620090  0.0621935851970790  0.2843415920114580
  0.9174937708764261  0.0623158109204098  0.2843803006801906
  0.5002419080995395  0.1249670333935669  0.3702862072438222
  0.8333385930629902  0.0624013936279013  0.3693053016864596
  0.6671112009951230  0.0623538198673685  0.3695536707092302
  0.7503595155489506  0.1251054494736010  0.4556591636042668
  0.5837622517383565  0.0624518962075129  0.4558871490052283
  0.9169250186765368  0.0625390942366337  0.4557171084848690
  0.5002731235071209  0.1281010068325941  0.5425719475349879
  0.8357460126208309  0.0629622097206308  0.5431496070248656
  0.6651395061971783  0.0627413581422402  0.5431229986529900
  0.5006628694159616  0.1247343890473900  0.1963601397344377
  0.8316196169363081  0.1848550919687781  0.2018312566823042
  0.6722512041277469  0.1832421161282625  0.2033827098314376
  0.7500720935407941  0.2498195951112905  0.2808240080215114
  0.5829252009870558  0.1874981766772947  0.2839744662613128
  0.9174984308564333  0.1874007974610947  0.2840099529754028
  0.5002162415659015  0.2500556506833576  0.3697368551486733
  0.8334551187307326  0.1873469944945469  0.3687844198729522
  0.6669470283076748  0.1874103597424082  0.3690388847358079
  0.7502699899422325  0.2504203841605275  0.4544665811214372
  0.5838792088068416  0.1877083881935704  0.4552808044528049
  0.9166639902459863  0.1877587845409110  0.4550763819765820
  0.5010243058747292  0.2534576741918144  0.5419501852718227
  0.5004523581575526  0.2496358787980952  0.1969955911593075
  0.8316242983254654  0.3145649176327652  0.2014638310307646
  0.6721618880608773  0.3161977292565439  0.2029452766898387
  0.7489457963808519  0.3749842692081415  0.2808915838475059
  0.5828284770170100  0.3121780527941098  0.2835818273214912
  0.9174856691246163  0.3122769958793867  0.2835657310914712
  0.5002195754665664  0.3750792231216522  0.3692113725340178
  0.8333927209734924  0.3124915082196651  0.3682947021560565
  0.6669567367509259  0.3124084062805608  0.3686131615602051
  0.7499235422589052  0.3752659300691974  0.4542669965580046
  0.5837709521182362  0.3127934156500842  0.4546869338861512
  0.9166643458177717  0.3128371964104915  0.4544756575050144
  0.5004740548207209  0.3758694510551308  0.5402175766707416
  0.5006698415237167  0.3747487657586177  0.1956288140335687
  0.8315419589628519  0.4349684607065782  0.2012698402081696
  0.6722462469513033  0.4333483257893960  0.2027846813030223
  0.7501588451310681  0.9999137099004543  0.2814483389214999
  0.5828099215431948  0.4376065364267845  0.2833230483315887
  0.9174791121253776  0.4375237159778820  0.2833089222205061
  0.5002688616687223  0.9999153414453588  0.3705576975862286
  0.8333380970944333  0.4374798460016436  0.3680327903612266
  0.6669261607705721  0.4375713112586368  0.3683046315485186
  0.7504556100002802  0.9998706156859853  0.4562276321449446
  0.5838837729444251  0.4377363639433511  0.4544650569521735
  0.9165027668557215  0.4376819787135986  0.4542418721853636
  0.5004447268232042  0.9997791375701439  0.5422835316140606
  0.5003948282751836  0.4999409733276963  0.1964853728287963
  0.8315776461384417  0.5649937972078050  0.2012633827058750
  0.6722530312164778  0.5665831371422243  0.2027831233274142
  0.7489795129474501  0.6249239582194761  0.2809098544250759
  0.5828367411235931  0.5623511620359665  0.2832968239304279
  0.9174700753473317  0.5624290405930239  0.2833164658318239
  0.5001265024366148  0.6248725812525677  0.3692655815438286
  0.8333978579366388  0.5624844611745843  0.3680232313190785
  0.6668290794407810  0.5624493514098816  0.3682611520892891
  0.7502353879426806  0.6247588564506330  0.4540792601327368
  0.5836251102014032  0.5623479086043801  0.4544813523144882
  0.9165961064028991  0.5622994911685453  0.4542977199350204
  0.5002305928123363  0.6241813881964120  0.5416761384532265
  0.5006993547235936  0.6251676928756638  0.1955926727982060
  0.8316908313967204  0.6853749437495935  0.2014512865076341
  0.6722036263685567  0.6837372040398080  0.2029350629776516
  0.7501131712925257  0.7500691055068884  0.2808440487831447
  0.5828639115793450  0.6877303594308657  0.2835426098458314
  0.9175306079596268  0.6876460654178587  0.2836042264300858
  0.5001959808441256  0.7498205517192602  0.3697447327826282
  0.8334999897874908  0.6874271633104385  0.3683337100174029
  0.6668526885860473  0.6875056651951255  0.3686111575552573
  0.7503366370208155  0.7494425511242184  0.4545796940992517
  0.5835195384214771  0.6871284261237491  0.4547866849205278
  0.9168278491522983  0.6870555518523176  0.4546004323537858
  0.5003633221629684  0.7469154693867850  0.5418200333818319
  0.5004819303634420  0.7502544878386246  0.1969948333339033
  0.8316677727788644  0.8151039459012210  0.2018373639596120
  0.6722908610555933  0.8166492100244014  0.2033591603699918
  0.7490140444624842  0.8750179052771969  0.2817368460300287
  0.5829478905192005  0.8123955288770830  0.2839745275464693
  0.9175439639841940  0.8124890073366089  0.2840535968151272
  0.5002783156940040  0.8748698412655358  0.3702664883843880
  0.8335061834478665  0.8124802433566316  0.3688353077312527
  0.6669485379372020  0.8124328726554921  0.3690640700612420
  0.7504034431016962  0.8747163215946259  0.4557161763688669
  0.5839670213226142  0.8121082786775347  0.4553478732074936
  0.9167346197618826  0.8120913791702549  0.4551362121564964
  0.5003739845539599  0.8721389786805887  0.5424028806652714
  0.5007079726862855  0.8751794337776957  0.1963615783827208
  0.8317034045362561  0.9351999588526567  0.2021108684941737
  0.6722000623052367  0.9336000508213473  0.2036052277862552
  0.7500785541635295  0.4999482225201106  0.2803499607446156
  0.5829427760418326  0.9376502681775705  0.2843373749205540
  0.9174879946811458  0.9375571206174982  0.2843962942770162
  0.5001630067414666  0.5000165747555272  0.3691450272427659
  0.8333406111210167  0.9374184804625898  0.3693257406068540
  0.6671445448310465  0.9374790635028845  0.3695552344352677
  0.7502061812173153  0.5000402930197865  0.4538518338102477
  0.5837784398965766  0.9372930861783928  0.4558665689453534
  0.9169411964776089  0.9373076249732364  0.4556982372815526
  0.5008543177061213  0.4990873017072843  0.5419531238342046
  0.8357180621109990  0.9366802479497309  0.5431474570608401
  0.6651740851720191  0.9366443945844054  0.5431710910496790
  0.4064282521522884  0.9999511914774359  0.2326789543693764
  0.2513587563645387  0.9999589263810620  0.2112563256008855
  0.0956204213624048  0.9999280031653726  0.2321763212022319
  0.1527206720717444  0.1248770588810757  0.3173633661747175
  0.0001634814171467  0.1249203617205623  0.3030620079997846
  0.3472915852279073  0.1248836144253289  0.3170407602755034
  0.4017172825304129  0.1250609545751828  0.4035263580445019
  0.2502636180990194  0.1249767385421805  0.3882010666398230
  0.0988200764929843  0.1250381046407014  0.4034235053859376
  0.1527523120303940  0.1258465236475388  0.4887486555275160
  0.0003447870414703  0.1258101847929964  0.4745311902655516
  0.3480905746320246  0.1257772650301021  0.4890044716063926
  0.4006847316220998  0.1296957294875014  0.5709535397477481
  0.2504600699644399  0.1311984871086338  0.5586859971139901
  0.0999665425717140  0.1294625960721376  0.5705208661300460
  0.4056880482484146  0.1247883052963559  0.2325816101505325
  0.2531253189151741  0.1246433121975628  0.1778814785303950
  0.0943994667834076  0.1247598684757989  0.2328381358447444
  0.1531292004036331  0.2499034966485709  0.3165391278314686
  0.0002277942688309  0.2499362983358537  0.3026934631866141
  0.3471804482132654  0.2498889019030130  0.3164518944652315
  0.4015767681996820  0.2500866101556696  0.4029479015931585
  0.2502519082256782  0.2499546381345468  0.3873570438436218
  0.0987515285542813  0.2501909343546060  0.4028118082719345
  0.1531387046900576  0.2507159687494465  0.4877135232143104
  0.0001902050814664  0.2507517620394850  0.4739312390682215
  0.3475081161838460  0.2503143963951260  0.4882277800967501
  0.3983269907036444  0.2537023203425477  0.5713433758483646
  0.2495523422834083  0.2532008376520096  0.5582162292912471
  0.1011217213800748  0.2519744827844548  0.5693158783869805
  0.4064294229189684  0.2497299794963297  0.2321092054140621
  0.2513484984469940  0.2497653926942576  0.2106657892337012
  0.0955811905603952  0.2497174511892766  0.2315588181829114
  0.1525303661072712  0.3749506671505927  0.3164149631272366
  0.0000777425604497  0.3749485602308766  0.3021189836221083
  0.3472379692926921  0.3749258155453958  0.3161376782929963
  0.4016134726354395  0.3751354334089001  0.4023724681162051
  0.2500334327066867  0.3750325287039473  0.3866119914812103
  0.0985762578542833  0.3751435431721006  0.4024565961226898
  0.1528132326215612  0.3754255559645188  0.4872395833063123
  0.0000779811007661  0.3755322076275007  0.4735534214372734
  0.3464028837304625  0.3754395127561452  0.4868386048217701
  0.3953288706318290  0.3759476558061081  0.5671890938556530
  0.2489254989071767  0.3762052678882810  0.5573432076947284
  0.1014024481581970  0.3759533118574154  0.5689653992006640
  0.4057743021462414  0.3747871309124875  0.2318069439063564
  0.2531141251100095  0.3746697696320069  0.1773358972415835
  0.0943558849379755  0.3747995462181493  0.2319645271985920
  0.1532645655869231  0.9999452496606338  0.3172581559488208
  0.0002692760043317  0.9999450971747166  0.3034381692107289
  0.3471629172520494  0.9999365287902648  0.3171247471247440
  0.4015618194232857  0.9999027181765854  0.4036630947193984
  0.2503411124602621  0.9999171404191500  0.3885108826578616
  0.0989681597651000  0.9999412738833584  0.4036499405230529
  0.1521589335203331  0.9998933584644831  0.4890453615576860
  0.0003558509518200  0.9999496513850872  0.4743639790218097
  0.3486250779794631  0.9998570290179956  0.4891357513815606
  0.4027264802516441  0.9998070965051227  0.5714072503494663
  0.2504028079805707  0.0000183366739392  0.5589521585303672
  0.0980513322462429  0.9998748288743258  0.5712646263520966
  0.4064441424391774  0.4999744132122430  0.2316143167911093
  0.2513813699117691  0.4999757901669568  0.2102318143600854
  0.0955215505461098  0.4999804544134463  0.2310164607747893
  0.1525631563451100  0.6249881295643291  0.3165246727268922
  0.0001048410759665  0.6249800249279218  0.3021986741327041
  0.3473129747878616  0.6250093134375803  0.3162119070892402
  0.4016772109461542  0.6248195285400300  0.4026609677177788
  0.2501743311914026  0.6249444386947900  0.3869818288582039
  0.0986573087154738  0.6248376750854732  0.4025874771860174
  0.1533063046938423  0.6245162407750016  0.4874754068291267
  0.0002091318666189  0.6244294650639262  0.4737877006608642
  0.3473184004824077  0.6245496954359382  0.4876621407459112
  0.3980757279336018  0.6242033899855244  0.5694269373279681
  0.2503424728269650  0.6231968385261055  0.5578510721623218
  0.1020952670782762  0.6241464216260084  0.5689735116535033
  0.4057530663623581  0.6251337930053538  0.2318107133514573
  0.2531234386095917  0.6252650135133280  0.1773137607866389
  0.0943373971359307  0.6251653235183596  0.2320322557784635
  0.1531673510563962  0.7499868252985138  0.3166017146894617
  0.0002697234158759  0.7499664678776057  0.3027801104221766
  0.3472260510902743  0.7499967028583470  0.3164577779429294
  0.4016037037560949  0.7497136506639990  0.4029436741587133
  0.2503034043810572  0.7498943647292435  0.3874291580225062
  0.0988290281614326  0.7496940884586394  0.4029319886692093
  0.1533099579882489  0.7490782507131257  0.4878827901870935
  0.0002570874322245  0.7490940873439627  0.4740740937164674
  0.3473689918182288  0.7490882422949028  0.4879458143540489
  0.3988807915943582  0.7476720654836839  0.5693986469444923
  0.2503010122753295  0.7465502352649906  0.5581968941110063
  0.1016563355531517  0.7477767820193435  0.5692611004729571
  0.4064623163128047  0.7501746441160009  0.2320907118175271
  0.2513592275696013  0.7501441411876968  0.2107016947397540
  0.0955724638095177  0.7501859362743204  0.2316037375553250
  0.1527323835127632  0.8750169510678276  0.3173803207886792
  0.0001898003023797  0.8749819191084711  0.3030940884379945
  0.3472616479515835  0.8749871556461173  0.3170022047537913
  0.4017298978682362  0.8748092232058795  0.4034088823938902
  0.2502746156111684  0.8748529180304914  0.3881554262210400
  0.0988463474823931  0.8747965543302954  0.4034544132711915
  0.1526934145997529  0.8740085795440464  0.4887194067239662
  0.0003469172860804  0.8740457831283663  0.4745170740352549
  0.3479895772390691  0.8740123160726725  0.4887753623267272
  0.4009094971074063  0.8702557347645765  0.5705805851836203
  0.2503245440311161  0.8690397649438140  0.5585693027408354
  0.0999634891176555  0.8703011485413441  0.5704656239692127
  0.4057170373139201  0.8751101728275756  0.2325641515817836
  0.2531584663230220  0.8752235830051163  0.1778082442697411
  0.0944417280288121  0.8751005303035555  0.2328568681379934
  0.1529770510124280  0.4999953233970089  0.3160239700716261
  0.0001674465372119  0.4999829033794185  0.3021856673672687
  0.3472604656408720  0.5000123302068431  0.3159603327541660
  0.4015442853226290  0.5000844979832380  0.4025072210078164
  0.2502187175804877  0.5000497399334876  0.3867547706398042
  0.0987196439970219  0.4999943446873232  0.4023742668791002
  0.1532462905268233  0.5001071847033316  0.4872714274482632
  0.0001421817229286  0.5000203367938170  0.4736753882899123
  0.3473444787776785  0.5006015583585040  0.4877180333528770
  0.3980223415754978  0.4983935500615146  0.5710775252519440
  0.2497995274999667  0.5000094759902041  0.5578334391158393
  0.1015978246785281  0.5001402132130721  0.5690255324924536
  0.9064798334284703  0.9999322349204789  0.2325824011598883
  0.7513163957457891  0.9999656177895631  0.2112436320014695
  0.5955732353358911  0.9999342204552377  0.2321965850797980
  0.6526354787421980  0.1248506116091974  0.3173730583515422
  0.5001750976638064  0.1249275405905337  0.3031755582246802
  0.8472207585357694  0.1248664029153232  0.3168864617716878
  0.9016682700644409  0.1250593708222638  0.4032891025424732
  0.7502571164223184  0.1249812449736680  0.3880901583083656
  0.5987853576290689  0.1250214613647813  0.4034976151112133
  0.6527483341943494  0.1256849147729042  0.4887039272295652
  0.5003651576569581  0.1257253035553774  0.4748320336350034
  0.8480255197705304  0.1257904144202868  0.4886608762898561
  0.9009134148572642  0.1295759883232535  0.5704097567387123
  0.7504828739436604  0.1309094608887236  0.5585975205841223
  0.6000354285774421  0.1294662443379266  0.5705008464131254
  0.9057139227093813  0.1247766919377469  0.2324567492131919
  0.7530643262603007  0.1246452329761780  0.1778762740924904
  0.5943070973591134  0.1247840296276905  0.2328602832832729
  0.6530920499039610  0.2499416218850072  0.3166146623318724
  0.5002556290811810  0.2498994983104836  0.3028572016545965
  0.8471542375380707  0.2499146325795962  0.3163217030812930
  0.9015312795836437  0.2501800830273666  0.4027572781526487
  0.7502885592577471  0.2499638785837561  0.3872788090129333
  0.5988327360570125  0.2501460064368857  0.4029577867085123
  0.6533332834292622  0.2506215313869475  0.4877760555801061
  0.5002958430552340  0.2508403447415262  0.4742278528418495
  0.8473502456349848  0.2507619787546247  0.4877167257785118
  0.8989181891468050  0.2520416983130289  0.5692132260179719
  0.7506385799715432  0.2537631789428971  0.5579822793140465
  0.6029124174104510  0.2517098257914654  0.5693285019926719
  0.9064223976801884  0.2497167633440753  0.2319781161186398
  0.7512711189297647  0.2497656090374534  0.2106327142895665
  0.5954816374871186  0.2497543746147812  0.2316406467228873
  0.6525683441006151  0.3749314468182376  0.3165796020622835
  0.5001256827005136  0.3749331403983973  0.3022844563173308
  0.8472381196987513  0.3749407380680339  0.3160631929724502
  0.9016322333218483  0.3751489741144880  0.4023872779629301
  0.7501383063336533  0.3750517282839567  0.3869499258988114
  0.5988024077439462  0.3751635759592915  0.4026320063504301
  0.6529375918408462  0.3754645744390928  0.4881022085673408
  0.5002560918888221  0.3754989696886994  0.4727569594156122
  0.8471488774932538  0.3754200134441916  0.4872334180120603
  0.8988548931086200  0.3759568724325817  0.5689192079480847
  0.7509083246560735  0.3763261385186638  0.5577444648278274
  0.6046150061439448  0.3759329614776377  0.5706259121588104
  0.9056362819788006  0.3748006612555557  0.2316636014777984
  0.7529940003968179  0.3746635151896029  0.1773412262711034
  0.5942709437302582  0.3747795068352744  0.2320858884089745
  0.6532326361965204  0.9999309285102171  0.3172695659939251
  0.5002626195747197  0.9999384865784577  0.3035129498612221
  0.8471532766471199  0.9999217005264853  0.3170167130596724
  0.9015644983272537  0.9999500640107755  0.4035379746383541
  0.7503260593010594  0.9999371465644131  0.3884392797437215
  0.5989700946104790  0.9999018576302774  0.4036938079602521
  0.6522874892898045  0.9998281996668013  0.4890716838198159
  0.5003659858844358  0.9999009836117168  0.4744164266425983
  0.8487008435525709  0.9999015252119818  0.4890108451490320
  0.9028794303009491  0.9998936721073548  0.5712420848821509
  0.7505359377749130  0.9999211285040204  0.5589169619059717
  0.5981338797889748  0.9998139865479061  0.5713180729545826
  0.9063886347973380  0.4999718413605407  0.2314855018144684
  0.7512720573283431  0.4999655141569050  0.2101847931645509
  0.5954400029477398  0.4999483725241802  0.2311289733651236
  0.6525704654950033  0.6250071560409793  0.3165353099035002
  0.5001422051441011  0.6249966268218330  0.3022921918817545
  0.8472885063052686  0.6249915918471984  0.3160757133456897
  0.9016694638321283  0.6247761941329983  0.4024393274635969
  0.7501673053864764  0.6249302590224133  0.3868468563535288
  0.5986342303219629  0.6248191730231483  0.4026358922845148
  0.6532907083284698  0.6246477844644573  0.4873787230083764
  0.5002777883906404  0.6244028413237857  0.4739963602203616
  0.8471898892364180  0.6245435779318314  0.4873790804748239
  0.8985116157701043  0.6239489302703376  0.5688939056335514
  0.7503535477418311  0.6235293375381588  0.5576848616007553
  0.6023056109934686  0.6241997997803850  0.5689114767791850
  0.9057315018142731  0.6251508178155163  0.2317033352994571
  0.7530501102711042  0.6252906888599341  0.1772978803336898
  0.5943063915877786  0.6251527510557366  0.2320830951179929
  0.6531351458320884  0.7499708073742042  0.3166057565899223
  0.5002664302267732  0.7499728057224431  0.3028342866615219
  0.8471873494805706  0.7499773120367266  0.3163568761308966
  0.9015916776645057  0.7496792132294985  0.4028165191372324
  0.7502759588172481  0.7498636398874794  0.3873469735847834
  0.5988212625753206  0.7497396074226401  0.4029686866576512
  0.6533603666594772  0.7490994307227794  0.4878607089035611
  0.5002943490287990  0.7492188309299053  0.4742754491582915
  0.8473899262561844  0.7490780683396281  0.4878407102305786
  0.8990159967688740  0.7477157177797338  0.5692406338405931
  0.7504472518684437  0.7465669409797684  0.5580813821539650
  0.6018749233243099  0.7476554856444935  0.5692593642292962
  0.9064652366560395  0.7501880116137727  0.2320107504608941
  0.7513104789901703  0.7501303696481898  0.2106479994462234
  0.5955363032858401  0.7501673995329980  0.2316226764514226
  0.6526959849595642  0.8750157945913486  0.3173855611734737
  0.5001756106336401  0.8749709914690342  0.3031444556355822
  0.8472409803888326  0.8749947551694035  0.3169234302020882
  0.9016997885290934  0.8748117249207112  0.4033148166164153
  0.7502731253718053  0.8748391794741934  0.3881044786986436
  0.5988252866608903  0.8747900878481403  0.4034901537792521
  0.6528452934867204  0.8740319952274334  0.4887471980395475
  0.5003536393540884  0.8740718197898332  0.4747151975336479
  0.8481209705074946  0.8740223637368558  0.4886899079299170
  0.9009533654400457  0.8702986194388487  0.5704265870829843
  0.7505398548594968  0.8690097105969983  0.5585394750522994
  0.5999638723637517  0.8702317957235195  0.5704950588641751
  0.9057375999439685  0.8751063690742384  0.2325055282130961
  0.7530706640808660  0.8752150836561228  0.1777800630660096
  0.5943924748463800  0.8751042866290106  0.2328614633539274
  0.6530010501928061  0.4999527004894091  0.3160983325424525
  0.5002061825577044  0.4999948681950244  0.3023282311546680
  0.8472363191980392  0.4999592591526394  0.3158422268841079
  0.9015146783273451  0.4999892714090706  0.4023040606418178
  0.7502154288929574  0.5000299192962174  0.3866895394852961
  0.5987382679648547  0.5000141114551582  0.4025123162367734
  0.6533678199890645  0.5002161966713103  0.4872800096085541
  0.5002330351832001  0.4998644628740152  0.4740678933098295
  0.8471779662562113  0.5000151201479071  0.4872625842362055
  0.8984963477392753  0.5000789235719338  0.5689350653327523
  0.7505378562268277  0.4994585469523898  0.5575613515814482
  0.6032510953597949  0.5004310927771485  0.5690674057523992
  0.3346408210904670  0.1879274729655123  0.5411710940489414
  0.1650773901881735  0.1888306798037362  0.5405577143440397
  0.3309503236724254  0.3127235570839133  0.5384491933083737
  0.1642184077568132  0.3133368345582923  0.5396404547859674
  0.3309788690526361  0.4386264952417349  0.5381728924430647
  0.1642308912579793  0.4379637690981966  0.5394302084505114
  0.3342982699807564  0.5630391679090039  0.5401521879663136
  0.1653131233637595  0.5621539687517370  0.5395352196257974
  0.3349177734239390  0.6868059096034713  0.5400000337443842
  0.1657506265415236  0.6866022164618926  0.5398564562275112
  0.3351636217888512  0.8110595784819168  0.5406566538137056
  0.1655835840903350  0.8110731579765371  0.5406600447999494
  0.8353176521022831  0.1886494142812012  0.5404491593731606
  0.6655974364752026  0.1882704165182147  0.5404659137567762
  0.8353875248052205  0.3134714546239152  0.5396206947158433
  0.6673500721826287  0.3124721145816665  0.5398221155788505
  0.8353463101117740  0.4377972570427673  0.5393888719261071
  0.6673654175098491  0.4388639512701786  0.5395767656026536
  0.8350171326553308  0.5622075015192110  0.5394807069233494
  0.6657740860730641  0.5626583358377673  0.5394665659378006
  0.8348836470396890  0.6866100110353699  0.5397976549367769
  0.6660463819474742  0.6867231347106753  0.5397993404841941
  0.8352977200458298  0.8111052222201849  0.5406210454017710
  0.6656414357417120  0.8110619762871494  0.5406064803781945
  0.5484395083221116  0.3758902087696896  0.6237544208614452
  0.4342563259671692  0.4357553598308570  0.6129418037659917
  0.4344809169739321  0.3161556505765475  0.6130289309597359
  0.4558902492198769  0.3762251924396338  0.6774906291694407
 
  0.00000000E+00  0.00000000E+00  0.00000000E+00
  0.00000000E+00  0.00000000E+00  0.00000000E+00
  0.00000000E+00  0.00000000E+00  0.00000000E+00