Cu	N	Ru	Ta                              
   1.00000000000000     
    18.1096308199999996    0.0000000000000000    0.0000000000000000
     0.0000000000000000   23.3551997799999995    0.0000000000000000
     0.0000000000000000    0.0000000000000000   30.4818171199999988
   Cu   N    Ru   Ta
     2   240    36   204
Selective dynamics
Direct
  0.5782389409465506  0.4378237884568400  0.6101577401423690   T   T   T
  0.6009976598075297  0.5718306021214761  0.6097383305377684   T   T   T
  0.0007546365873381  0.7508357331636546  0.3024712727493721   F   F   F
  0.0007546365873381  0.2508357331636546  0.3024712727493721   F   F   F
  0.0007971388342227  0.6259226757939587  0.3025555019798603   F   F   F
  0.0007971388342227  0.1259226757939587  0.3025555019798603   F   F   F
  0.0009289261701255  0.8759179472966139  0.3027706837052264   F   F   F
  0.0009289261701255  0.3759179472966139  0.3027706837052264   F   F   F
  0.0009959888293309  0.0008861705399639  0.3028813086718003   F   F   F
  0.0009959888293309  0.5008861705399639  0.3028813086718003   F   F   F
  0.0021963332290899  0.5006511295125088  0.4726303839548271   T   T   T
  0.0022748284477989  0.0005669236207733  0.4726856775192753   T   T   T
  0.5638882217718225  0.7617932279835591  0.5808456779932069   T   T   T
  0.5636041674698868  0.2613012913514917  0.5802293529689148   T   T   T
  0.5944407181460178  0.8759335502460033  0.2316533513143781   F   F   F
  0.5944407181460178  0.3759335502460033  0.2316533513143781   F   F   F
  0.5944879250719026  0.6260651198762730  0.2317376786361365   F   F   F
  0.5944879250719026  0.1260651198762730  0.2317376786361365   F   F   F
  0.5945319922319641  0.7509793277392376  0.2318466107902424   F   F   F
  0.5945319922319641  0.2509793277392376  0.2318466107902424   F   F   F
  0.5946973191803622  0.0011281697544092  0.2317203788144795   F   F   F
  0.5946973191803622  0.5011281697544092  0.2317203788144795   F   F   F
  0.6045670345129509  0.8771585750487920  0.5687241702744348   T   T   T
  0.5993851225203846  0.2514505795770269  0.4022483520651282   T   T   T
  0.5993192494067877  0.7520892303740506  0.4019881378036684   T   T   T
  0.5995629227883648  0.6269550707448667  0.4010518449987500   T   T   T
  0.6002289696041236  0.3757735895450951  0.4014557486623161   T   T   T
  0.5999335523430613  0.1264022536723060  0.4014879769278202   T   T   T
  0.6003094721990774  0.8763040957221662  0.4011393928182257   T   T   T
  0.6005679092102881  0.5010826444814123  0.4009207291007424   T   T   T
  0.6007431253132328  0.0014667972656011  0.4008908055406503   T   T   T
  0.6073515767682913  0.3767061839052437  0.5718979262978205   T   T   T
  0.6047785062062261  0.9981882237771512  0.5689789200802796   T   T   T
  0.6086047632034548  0.5017147634666699  0.5763064283206395   T   T   T
  0.6148229147921774  0.6373159701449244  0.5717709178311459   T   T   T
  0.6135271242533246  0.1414531009978985  0.5675805907477237   T   T   T
  0.6480976170516727  0.7525673762475928  0.4868690073803156   T   T   T
  0.6483718388900689  0.2500978159319830  0.4874477345796140   T   T   T
  0.6507769217720699  0.6294600635057439  0.4848882297221456   T   T   T
  0.6528887581716375  0.3786653171033794  0.4857635682713149   T   T   T
  0.6523389440188559  0.1258044100966757  0.4854185346248777   T   T   T
  0.6539319604621753  0.8796534065256683  0.4846869420935978   T   T   T
  0.6553183508300330  0.9991426269843285  0.4858565475181724   T   T   T
  0.6562296125933857  0.4972488268239307  0.4859682562264090   T   T   T
  0.6549923804575926  0.7511371041673840  0.3152775575080256   F   F   F
  0.6549923804575926  0.2511371041673840  0.3152775575080256   F   F   F
  0.6552059756456146  0.6260466862938543  0.3150601846403305   F   F   F
  0.6552059756456146  0.1260466862938543  0.3150601846403305   F   F   F
  0.6552570788408829  0.8758846061131820  0.3149041322638837   F   F   F
  0.6552570788408829  0.3758846061131820  0.3149041322638837   F   F   F
  0.6554052259801963  0.0012023099894023  0.3149218625060755   F   F   F
  0.6554052259801963  0.5012023099894023  0.3149218625060755   F   F   F
  0.0696721186314576  0.1315119357309101  0.5735021652065376   T   T   T
  0.0693356256600653  0.6321022854403004  0.5736475760282829   T   T   T
  0.7289320787386857  0.2626671373819038  0.5564036341831423   T   T   T
  0.7276005649710249  0.7616828016848560  0.5570326921158973   T   T   T
  0.7576446695061015  0.8824993814485129  0.5562168933246596   T   T   T
  0.7584468683146958  0.3831441550996828  0.5550718893430570   T   T   T
  0.7503366049286063  0.2509759998616282  0.3870842595926415   T   T   T
  0.7502762734871535  0.7510341736073296  0.3871037857263766   T   T   T
  0.7504812758137813  0.6261882368895115  0.3869196468463694   T   T   T
  0.7508273565136926  0.3761807349353099  0.3863047528188626   T   T   T
  0.7507221121008421  0.1260429361318318  0.3868812103214745   T   T   T
  0.7509620533039969  0.8762884472492007  0.3859674780962324   T   T   T
  0.7503837756312706  0.8759246053428527  0.1980143607002915   F   F   F
  0.7503837756312706  0.3759246053428527  0.1980143607002915   F   F   F
  0.7504065850415813  0.0010474442621131  0.1995662990185920   F   F   F
  0.7504065850415813  0.5010474442621131  0.1995662990185920   F   F   F
  0.7504116177228610  0.6259067547141299  0.1982016356247982   F   F   F
  0.7504116177228610  0.1259067547141299  0.1982016356247982   F   F   F
  0.7512088450323896  0.5010065783314558  0.3866431680214267   T   T   T
  0.7504539896523426  0.7509563452768688  0.1993173260006742   F   F   F
  0.7504539896523426  0.2509563452768688  0.1993173260006742   F   F   F
  0.7512885314520096  0.0010163687134023  0.3866858596916346   T   T   T
  0.7659456788603676  0.9975646540008137  0.5566349830611340   T   T   T
  0.7686063454558141  0.4969736337493017  0.5583842480066374   T   T   T
  0.7720693177671463  0.1384291767620246  0.5570787784171386   T   T   T
  0.7739854674578339  0.6386767651588928  0.5596552606748185   T   T   T
  0.0806248460920047  0.2421399360258376  0.5719246646859750   T   T   T
  0.0804187787058800  0.7424245447207485  0.5720569208018245   T   T   T
  0.8467554918986148  0.2545101382031085  0.4848774698377399   T   T   T
  0.8463952463263711  0.7545876740912852  0.4852889586902446   T   T   T
  0.8457971856104365  0.7508865770875488  0.3147238720130474   F   F   F
  0.8457971856104365  0.2508865770875488  0.3147238720130474   F   F   F
  0.8459094352758285  0.6257770200071491  0.3148105564777453   F   F   F
  0.8459094352758285  0.1257770200071491  0.3148105564777453   F   F   F
  0.8459894799777032  0.8758569369000710  0.3146601051453359   F   F   F
  0.8459894799777032  0.3758569369000710  0.3146601051453359   F   F   F
  0.8462370857983075  0.0009253177109869  0.3148622358114821   F   F   F
  0.8462370857983075  0.5009253177109869  0.3148622358114821   F   F   F
  0.8498353438818993  0.8730498844649804  0.4852344912645964   T   T   T
  0.8499519345878211  0.3733591294096560  0.4851543510691707   T   T   T
  0.8488523110471264  0.6251580951896347  0.4847987467941925   T   T   T
  0.8498587459834925  0.1251535854689967  0.4848058644129619   T   T   T
  0.8518042602092327  0.5018116130166884  0.4864071869825466   T   T   T
  0.8520718554971881  0.0011365205106209  0.4860149540728462   T   T   T
  0.0888196422476910  0.3618593838718801  0.5742079357777564   T   T   T
  0.8969164043125492  0.3696299627517445  0.5717031741783152   T   T   T
  0.8977779418590895  0.2486315167890163  0.5670127502867728   T   T   T
  0.8964854827609353  0.8704693700806263  0.5714968358559419   T   T   T
  0.8980025303997284  0.7489906530975192  0.5674134190915271   T   T   T
  0.9006040991846147  0.7505701722463738  0.4007146244361688   T   T   T
  0.9007466588028709  0.2506797675059366  0.4006001496467473   T   T   T
  0.9010524346870086  0.6258930815997122  0.4011933784079189   T   T   T
  0.9012064649747658  0.1258167125033661  0.4012600731132702   T   T   T
  0.9019701399844395  0.8760137330963621  0.4009486610606345   T   T   T
  0.9027671113569911  0.1064531943021294  0.5676006875933534   T   T   T
  0.9020270669403631  0.3761896449920405  0.4009284666163566   T   T   T
  0.9021151729884112  0.5007277069217229  0.4013985710609810   T   T   T
  0.9022353971405713  0.0006808515529855  0.4013161053376575   T   T   T
  0.9036837527078802  0.6059784195884260  0.5669691467747682   T   T   T
  0.0884910327913310  0.8619733537860539  0.5740857183716729   T   T   T
  0.9063370116785165  0.7509661375287990  0.2314450664875594   F   F   F
  0.9063370116785165  0.2509661375287990  0.2314450664875594   F   F   F
  0.9065036119825223  0.6258452416457985  0.2314281613274076   F   F   F
  0.9065036119825223  0.1258452416457985  0.2314281613274076   F   F   F
  0.9065431196901699  0.0009511492176983  0.2315080614196674   F   F   F
  0.9065431196901699  0.5009511492176983  0.2315080614196674   F   F   F
  0.9067333030259945  0.8759844438376305  0.2313964578368939   F   F   F
  0.9067333030259945  0.3759844438376305  0.2313964578368939   F   F   F
  0.9242597360578284  0.9838655477571951  0.5701333719975418   T   T   T
  0.9262168929623706  0.4832336394333501  0.5703328665062836   T   T   T
  0.0952407101582224  0.7510020395980561  0.2320892091881959   F   F   F
  0.0952407101582224  0.2510020395980561  0.2320892091881959   F   F   F
  0.0953260277450525  0.0008979764762245  0.2323666739458474   F   F   F
  0.0953260277450525  0.5008979764762245  0.2323666739458474   F   F   F
  0.0953735919394063  0.6258547564434522  0.2322437075234305   F   F   F
  0.0953735919394063  0.1258547564434522  0.2322437075234305   F   F   F
  0.0955543013107132  0.8759987254538473  0.2323923499085652   F   F   F
  0.0955543013107132  0.3759987254538473  0.2323923499085652   F   F   F
  0.0993808607497838  0.6252675589393731  0.4015732859871463   T   T   T
  0.0994831832114420  0.7510290567499124  0.4017549872703580   T   T   T
  0.0995472336674831  0.2510456416416236  0.4017706688867860   T   T   T
  0.0994170059930682  0.1253547118690992  0.4016414603024863   T   T   T
  0.1003218025260317  0.8756717580936449  0.4028779825698317   T   T   T
  0.1004203183559660  0.3757758029689772  0.4028806504929202   T   T   T
  0.9986486417287959  0.2506819798365597  0.4723291794567616   T   T   T
  0.9984878919249738  0.7505344812535037  0.4723968384658740   T   T   T
  0.9984465628891344  0.6246107360982370  0.4718365186889219   T   T   T
  0.9986348842720733  0.1246881284889311  0.4721020822703198   T   T   T
  0.0002267104333865  0.3745537936275259  0.4735877832331808   T   T   T
  0.0002278036813598  0.8744764090564575  0.4735767734100557   T   T   T
  0.1007391520833720  0.5012405167903339  0.4027611028462405   T   T   T
  0.1007243126124302  0.0013141096818345  0.4028415323534886   T   T   T
  0.1047402803217719  0.0009139488910991  0.5671500218574406   T   T   T
  0.1063384595594807  0.5008071628390867  0.5668687527362385   T   T   T
  0.1483495582138260  0.1284840867789553  0.4859646920352303   T   T   T
  0.1482274230556463  0.6284816525817009  0.4858767837991577   T   T   T
  0.1487009176619340  0.2462331631810780  0.4871325656005456   T   T   T
  0.1485396329574624  0.7460031064395014  0.4871915574408863   T   T   T
  0.1535627935602493  0.8765823143571504  0.4880202467990056   T   T   T
  0.1537946563958655  0.3766544424048986  0.4878955021343453   T   T   T
  0.1550002632061591  0.0015643396196584  0.4871186198354214   T   T   T
  0.1554278840897965  0.7509669489112838  0.3157714680232928   F   F   F
  0.1554278840897965  0.2509669489112767  0.3157714680232928   F   F   F
  0.1552054829159721  0.5016589428883067  0.4868056224005557   T   T   T
  0.1555300833018336  0.8760083006234964  0.3161854069282626   F   F   F
  0.1555300833018336  0.3760083006234964  0.3161854069282626   F   F   F
  0.1556347359045702  0.6258770940815310  0.3158690852351640   F   F   F
  0.1556347359045702  0.1258770940815310  0.3158690852351640   F   F   F
  0.1557688557010550  0.0008265358541948  0.3160543218953578   F   F   F
  0.1557688557010550  0.5008265358541948  0.3160543218953578   F   F   F
  0.2098793967084190  0.1124565569185458  0.5661423258857202   T   T   T
  0.2103706719865647  0.6126444308802736  0.5656453816842973   T   T   T
  0.2226393217170525  0.2498372495854310  0.5626442800564050   T   T   T
  0.2219070605302993  0.7498002744647498  0.5630516027826927   T   T   T
  0.2502130274958561  0.2513162252267346  0.3876984468261813   T   T   T
  0.2501783156094585  0.7513036607498108  0.3877074763550893   T   T   T
  0.2504369735925587  0.1255443474203661  0.3886910177138388   T   T   T
  0.2505162823699094  0.6255755141183886  0.3888334759012482   T   T   T
  0.2509057895779641  0.8756320491358897  0.3887710529637012   T   T   T
  0.2510057263079913  0.3756694445749662  0.3886850064230916   T   T   T
  0.2510768883858357  0.0014239066267115  0.3880370501712461   T   T   T
  0.2506886730670530  0.7509740783728773  0.1986783637654739   F   F   F
  0.2506886730670530  0.2509740783728773  0.1986783637654739   F   F   F
  0.2512329388432175  0.5014235686610187  0.3880870795322175   T   T   T
  0.2507303928573421  0.8760426103278647  0.2004520155719618   F   F   F
  0.2507303928573421  0.3760426103278647  0.2004520155719618   F   F   F
  0.2507787477911734  0.6260460958471867  0.2004465916827201   F   F   F
  0.2507787477911734  0.1260460958471867  0.2004465916827201   F   F   F
  0.2507842901460080  0.0010521164550710  0.1987081864626035   F   F   F
  0.2507842901460080  0.5010521164550710  0.1987081864626035   F   F   F
  0.2813308682915435 -0.0000386419180656  0.5646247062531722   T   T   T
  0.2822488622129285  0.5009563582295631  0.5645616149495947   T   T   T
  0.2893306768889241  0.3655445531650273  0.5651768365696843   T   T   T
  0.2903598974180480  0.8641233223781499  0.5651490289753519   T   T   T
  0.3453569803218594  0.2521086255520583  0.4858604653124216   T   T   T
  0.3457709857389588  0.7509801434034244  0.3160634932646005   F   F   F
  0.3457709857389588  0.2509801434034244  0.3160634932646005   F   F   F
  0.3458124879654534  0.8762438730036024  0.3160546332285037   F   F   F
  0.3458124879654534  0.3762438730036024  0.3160546332285037   F   F   F
  0.3458692307014104  0.0011300682609701  0.3160825482309733   F   F   F
  0.3458692307014104  0.5011300682609701  0.3160825482309733   F   F   F
  0.3458914509224655  0.6260993829100983  0.3163092197569100   F   F   F
  0.3458914509224655  0.1260993829100983  0.3163092197569100   F   F   F
  0.3453398318127697  0.7522974127259981  0.4857592784855309   T   T   T
  0.3476637990241938  0.1268581423460531  0.4879701860747842   T   T   T
  0.3482685055278225  0.6273762167766793  0.4880319915452954   T   T   T
  0.3522796006277428  0.9972240243396001  0.4877769005868862   T   T   T
  0.3531424121482213  0.3784702623179705  0.4865386364228071   T   T   T
  0.3530053377656509  0.8788830398199164  0.4867122822429925   T   T   T
  0.3531135804107431  0.4973382698022095  0.4878242306303023   T   T   T
  0.3886949751063402  0.2534401789474623  0.5656800939377143   T   T   T
  0.3904880848008416  0.7521349118509403  0.5649047377839237   T   T   T
  0.4009046042191766  0.2517292150469016  0.4025543048829431   T   T   T
  0.4007768618033127  0.7519017445766658  0.4025886997594129   T   T   T
  0.4012827931610882  0.1260461481073770  0.4029511672006227   T   T   T
  0.4012923793957751  0.6260952645024054  0.4030161112592549   T   T   T
  0.4018234581505409  0.0017373200294754  0.4022489400142566   T   T   T
  0.4020174200293717  0.8759577958589249  0.4021227871509441   T   T   T
  0.4021347575040211  0.5018333707168769  0.4022577952656570   T   T   T
  0.4021816659801816  0.3757557506324550  0.4020147736627139   T   T   T
  0.4059113337573805  0.8760558925948985  0.2324750129594619   F   F   F
  0.4059113337573805  0.3760558925948985  0.2324750129594619   F   F   F
  0.4059234726022964  0.6261621252550071  0.2326545521246786   F   F   F
  0.4059234726022964  0.1261621252550071  0.2326545521246786   F   F   F
  0.4060644417929637  0.7510364413590125  0.2325227387887452   F   F   F
  0.4060644417929637  0.2510364413590125  0.2325227387887452   F   F   F
  0.4061374416245584  0.0011248655651599  0.2324172293308493   F   F   F
  0.4061374416245584  0.5011248655651599  0.2324172293308493   F   F   F
  0.4164480466962467  0.1137504383207787  0.5725992537736125   T   T   T
  0.4202899692999986  0.6129329400120461  0.5726566182980121   T   T   T
  0.4251600459991260  0.9952809319963751  0.5720727869151052   T   T   T
  0.4257473303211677  0.4943492918332069  0.5713964695220300   T   T   T
  0.4351108425960088  0.3872503510970505  0.5740321663583673   T   T   T
  0.4353147533597959  0.8886000902109127  0.5754204982188634   T   T   T
  0.4984851861222766  0.7523978178166817  0.4734312234049209   T   T   T
  0.4985699613456233  0.2516698461943354  0.4734520222933785   T   T   T
  0.5004630585837617  0.7510598909550410  0.3031888444713573   F   F   F
  0.5004630585837617  0.2510598909550410  0.3031888444713573   F   F   F
  0.5004977600090044  0.6261199205207575  0.3031516629609641   F   F   F
  0.5004977600090044  0.1261199205207575  0.3031516629609641   F   F   F
  0.5005209432535551  0.8761149809355189  0.3028206587442455   F   F   F
  0.5005209432535551  0.3761149809355189  0.3028206587442455   F   F   F
  0.5006083602757840  0.0011215981985515  0.3028334437431965   F   F   F
  0.5006083602757840  0.5011215981985515  0.3028334437431965   F   F   F
  0.5025093100202630  0.3767948738409039  0.4730033708431209   T   T   T
  0.5024755731721552  0.8773184989163237  0.4729127655115448   T   T   T
  0.5015631995438249  0.1272020867165531  0.4739946966668904   T   T   T
  0.5022752734807656  0.6272798849744557  0.4737150326147735   T   T   T
  0.5029073929754473  0.0019172566498957  0.4726956558974839   T   T   T
  0.5034891676786806  0.5017791909614475  0.4731275386019964   T   T   T
  0.0041750928132686  0.9979091912849037  0.5407445632354602   T   T   T
  0.0057733122628009  0.4977910361494824  0.5406245759055985   T   T   T
  0.6265202157409016  0.0682302084673040  0.5397367833140408   T   T   T
  0.6403752749277880  0.5647610198659498  0.5310559594869909   T   T   T
  0.6264795557121220  0.8008717998775015  0.5458567986909595   T   T   T
  0.6265611047717352  0.3002654651748926  0.5460607581326761   T   T   T
  0.7006079130726853  0.6873157412447094  0.5416315366017880   T   T   T
  0.6997431965630838  0.1885957385256629  0.5381976777688900   T   T   T
  0.8062334410190263  0.5668941102853601  0.5375281438787127   T   T   T
  0.8073215584693909  0.0662319811701921  0.5374390292709270   T   T   T
  0.8462176608201903  0.9372528533982385  0.5366665112798876   T   T   T
  0.8484886066804531  0.4372784939919079  0.5373869948726833   T   T   T
  0.8735508499015381  0.1771303703929089  0.5421297414929190   T   T   T
  0.8741633339835598  0.6774857400027017  0.5420803872311407   T   T   T
  0.9963473902367658  0.1161599981644459  0.5396392963140100   T   T   T
  0.9963558821728484  0.2541744250988680  0.5393938060045640   T   T   T
  0.9965817877625219  0.6161790979178665  0.5392046223021948   T   T   T
  0.9961582721091314  0.7543158468792753  0.5395391940385411   T   T   T
  0.1206072344072102  0.9290163615995118  0.5431138743927919   T   T   T
  0.1215261780205189  0.4285549123666976  0.5430274781953534   T   T   T
  0.1413379115836197  0.3027479588458168  0.5413885317222681   T   T   T
  0.1411576566020972  0.8029302697593933  0.5411730276197236   T   T   T
  0.2021702367978260  0.0412296477776119  0.5428495421604740   T   T   T
  0.2027274555000552  0.5415242532376955  0.5423565372472856   T   T   T
  0.2988616199625533  0.2951870087161170  0.5410713821669249   T   T   T
  0.2990105497124419  0.7936282888965088  0.5412017609152763   T   T   T
  0.3619193121675530  0.0544769076212556  0.5415822680404020   T   T   T
  0.3644186943504572  0.5540960396884188  0.5418512691074717   T   T   T
  0.3766607196496360  0.1792214649447539  0.5417011521091236   T   T   T
  0.3795217604242301  0.6778016476279954  0.5419469763758258   T   T   T
  0.4875220274983942  0.2525529731945287  0.5415999495109332   T   T   T
  0.4900149608601466  0.7511590322551238  0.5415391490185733   T   T   T
  0.5109449879380896  0.8829814512044062  0.5403930700674523   T   T   T
  0.5092166516730527  0.9985266408840693  0.5399909587421790   T   T   T
  0.5123579804268067  0.3829721988569517  0.5402625897236724   T   T   T
  0.5115868289780068  0.5013408179348154  0.5404718979708799   T   T   T
  0.0017886981400559  0.5007027044260467  0.3696361342234664   T   T   T
  0.0016708467459716  0.8758455096381630  0.3694361690515242   T   T   T
  0.0017709249773661  0.3759410990975220  0.3694485680414596   T   T   T
  0.0010343750342656  0.7509675273691911  0.1970340395507222   F   F   F
  0.0010343750342656  0.2509675273691911  0.1970340395507222   F   F   F
  0.0018509849170507  0.0007270720042647  0.3696105139737318   T   T   T
  0.0013074606674977  0.0009931951008113  0.1970949867046485   F   F   F
  0.0013074606674977  0.5009931951008113  0.1970949867046485   F   F   F
  0.0014056432322107  0.6258753569951239  0.1970772590869743   F   F   F
  0.0014056432322107  0.1258753569951239  0.1970772590869743   F   F   F
  0.0016300205284878  0.8760244032474702  0.1970602374639512   F   F   F
  0.0016300205284878  0.3760244032474702  0.1970602374639512   F   F   F
  0.5828489970288615  0.8134981673875430  0.2835797008416634   F   F   F
  0.5828489970288615  0.3134981673875430  0.2835797008416634   F   F   F
  0.5829043521053947  0.6885407361734863  0.2836251512160501   F   F   F
  0.5829043521053947  0.1885407361734863  0.2836251512160501   F   F   F
  0.5829602019462925  0.4385545752758304  0.2833243807611936   F   F   F
  0.5829602019462925  0.9385545752758304  0.2833243807611936   F   F   F
  0.5830265959005345  0.5635893986773652  0.2835447360626375   F   F   F
  0.5830265959005345  0.0635893986773652  0.2835447360626375   F   F   F
  0.5844923150502747  0.3141415916759614  0.4553770072376254   T   T   T
  0.5839504910396305  0.6901038005308147  0.4536791711014551   T   T   T
  0.5855729626322332  0.4385616563668139  0.4530806022581737   T   T   T
  0.5844447818981998  0.8151372604947196  0.4549298527468337   T   T   T
  0.5856827266879112  0.9393376866666869  0.4525171269406201   T   T   T
  0.5843200216938635  0.1890174065536590  0.4535420880299537   T   T   T
  0.5865279349342515  0.0633795391069973  0.4533917242901925   T   T   T
  0.5871325984938209  0.5637550777117365  0.4528667304413793   T   T   T
  0.6662453414939336  0.5635923628994988  0.2021068355520654   F   F   F
  0.6662453414939336  0.0635923628994988  0.2021068355520654   F   F   F
  0.6663404610475681  0.8134949072998268  0.2022484366903115   F   F   F
  0.6663404610475681  0.3134949072998268  0.2022484366903115   F   F   F
  0.6663750951053373  0.6883939277525641  0.2022233082671292   F   F   F
  0.6663750951053373  0.1883939277525641  0.2022233082671292   F   F   F
  0.6663864277493872  0.4383644600106251  0.2021335334354930   F   F   F
  0.6663864277493872  0.9383644600106251  0.2021335334354930   F   F   F
  0.6681711289759266  0.3135901478494013  0.3679622312028799   T   T   T
  0.6683093492702581  0.1887162518325992  0.3676878164208059   T   T   T
  0.6681095644469681  0.6889147965456038  0.3676429725683813   T   T   T
  0.6681903983106462  0.8137080377082736  0.3678162303152677   T   T   T
  0.6686344969792066  0.4385551988802084  0.3672326714097996   T   T   T
  0.6685206933198508  0.5638144918282372  0.3675973757402196   T   T   T
  0.6688411602102499  0.9387032912031367  0.3669313074330069   T   T   T
  0.6688827636870972  0.0637761398941951  0.3675084998330869   T   T   T
  0.6759951598683552  0.9362087762745682  0.5401202299763841   T   T   T
  0.6790304420726893  0.4384492114402936  0.5408101057305951   T   T   T
  0.7476558057355552  0.2522513328864413  0.4552937404641990   T   T   T
  0.7475425667217369  0.7526056566471110  0.4553824925489754   T   T   T
  0.7494580592612733  0.6269804007794754  0.4549299418061803   T   T   T
  0.7507614614535548  0.3756088941472059  0.4541028582372730   T   T   T
  0.7503533448378301  0.1259293857092799  0.4549661035476003   T   T   T
  0.7501730562611186  0.7507079098083409  0.2774330469442816   F   F   F
  0.7501730562611186  0.2507079098083409  0.2774330469442816   F   F   F
  0.7504750055418299  0.6259680682551618  0.2773981497465243   F   F   F
  0.7504750055418299  0.1259680682551618  0.2773981497465243   F   F   F
  0.7505173338481086  0.8759365097582545  0.2770578193141517   F   F   F
  0.7505173338481086  0.3759365097582545  0.2770578193141517   F   F   F
  0.7516998186049251  0.8758172281453601  0.4535946025912601   T   T   T
  0.7507337004896470  0.0010587017123740  0.2774432067716575   F   F   F
  0.7507337004896470  0.5010587017123740  0.2774432067716575   F   F   F
  0.7538475403681056  0.0009310961580907  0.4546511225901779   T   T   T
  0.7541931229785152  0.5005058999688172  0.4544009264768998   T   T   T
  0.0812853389407392  0.6878309216233005  0.4526071834906572   T   T   T
  0.0814238244249653  0.1878798974902058  0.4527152665902999   T   T   T
  0.8270029513744542  0.3147725230521257  0.5403241170767764   T   T   T
  0.8270699754357964  0.8151579638538518  0.5407947715302440   T   T   T
  0.8323491383314809  0.6883604111063746  0.3671652843199428   T   T   T
  0.8324619602261373  0.1883609406577533  0.3671552960323806   T   T   T
  0.8324049253159498  0.8134265616728782  0.3670143505121743   T   T   T
  0.8323922560894841  0.3134428405194956  0.3670231336876816   T   T   T
  0.8329417029346703  0.0634130574196070  0.3673730213618536   T   T   T
  0.8330334503895988  0.5634523252132710  0.3673981877926558   T   T   T
  0.8333776892460801  0.4384090695953087  0.3672696516290380   T   T   T
  0.8333402489282816  0.9384268150780930  0.3671690041622717   T   T   T
  0.8344344719226058  0.6883603527882158  0.2020465356692611   F   F   F
  0.8344344719226058  0.1883603527882158  0.2020465356692611   F   F   F
  0.8344691253071090  0.4383027932291981  0.2021423465583752   F   F   F
  0.8344691253071090  0.9383027932291981  0.2021423465583752   F   F   F
  0.8345236995836203  0.8136019065986346  0.2020593032807980   F   F   F
  0.8345236995836203  0.3136019065986346  0.2020593032807980   F   F   F
  0.8345432068835521  0.5635442939465207  0.2020614199525141   F   F   F
  0.8345432068835521  0.0635442939465207  0.2020614199525141   F   F   F
  0.0835181835032017  0.8134609632527869  0.2839000862688721   F   F   F
  0.0835181835032017  0.3134609632527869  0.2839000862688721   F   F   F
  0.0836480050342630  0.5633752300961916  0.2839758639034855   F   F   F
  0.0836480050342630  0.0633752300961916  0.2839758639034855   F   F   F
  0.0836768758602418  0.6884091217994310  0.2837888281379435   F   F   F
  0.0836768758602418  0.1884091217994310  0.2837888281379435   F   F   F
  0.0836920180794749  0.4383888699923588  0.2841732146708722   F   F   F
  0.0836920180794749  0.9383888699923588  0.2841732146708722   F   F   F
  0.0850004545675766  0.3127979152091279  0.4547743038264532   T   T   T
  0.0850053638676661  0.8127183005722021  0.4547263386317366   T   T   T
  0.0854957552333388  0.5637405129242428  0.4552110292189772   T   T   T
  0.0856881638303071  0.0637440827880861  0.4553095174722182   T   T   T
  0.0861706424093516  0.4383017162653897  0.4551779123353908   T   T   T
  0.0862725473137550  0.9382728306137095  0.4551500256444624   T   T   T
  0.9143736577075322  0.6888317235148492  0.4539307613105130   T   T   T
  0.9146952385816469  0.1889581639913033  0.4538086834072230   T   T   T
  0.9168182640666600  0.3128231633277631  0.4518584853056379   T   T   T
  0.9169815456158354  0.8126386577603991  0.4519713420473319   T   T   T
  0.9178177064857482  0.4379340296083124  0.4537824326277433   T   T   T
  0.9170377206287769  0.5630424597515467  0.4530950905944188   T   T   T
  0.9175989272079302  0.0629300508668324  0.4530809564429116   T   T   T
  0.9180188658367839  0.9377719524812242  0.4535000240549438   T   T   T
  0.9181839152478091  0.6884040565462470  0.2831378587445599   F   F   F
  0.9181839152478091  0.1884040565462470  0.2831378587445599   F   F   F
  0.9183594213103916  0.8134327656776748  0.2832265145484243   F   F   F
  0.9183594213103916  0.3134327656776748  0.2832265145484243   F   F   F
  0.9184058656586132  0.5633566590711467  0.2833389507587185   F   F   F
  0.9184058656586132  0.0633566590711467  0.2833389507587185   F   F   F
  0.9185001265531056  0.4384185648785746  0.2832681567508857   F   F   F
  0.9185001265531056  0.9384185648785746  0.2832681567508857   F   F   F
  0.9921328104050141  0.3663761029921316  0.5419931695699833   T   T   T
  0.9917659243787156  0.8666283971422161  0.5418933240510948   T   T   T
  0.0003634164558950  0.7509519250470160  0.3690389413129880   T   T   T
  0.0002954834843295  0.6256615289763742  0.3691613390470840   T   T   T
  0.0005117877784089  0.2510083498080640  0.3690258398842809   T   T   T
  0.0003912830867195  0.1256744165398531  0.3691507329425998   T   T   T
  0.1533200268518510  0.1800947644140041  0.5439060357568195   T   T   T
  0.1527770458844648  0.6800463305979013  0.5439661162727107   T   T   T
  0.1667765378554549  0.5633392265506032  0.2026421323795375   F   F   F
  0.1667765378554549  0.0633392265506032  0.2026421323795375   F   F   F
  0.1668059973185052  0.6886073834303943  0.2025943133799615   F   F   F
  0.1668059973185052  0.1886073834303943  0.2025943133799615   F   F   F
  0.1668155121452699  0.8133424731509606  0.2025799106952988   F   F   F
  0.1668155121452699  0.3133424731509606  0.2025799106952988   F   F   F
  0.1668272738427916  0.4386259927766716  0.2026791524822329   F   F   F
  0.1668272738427916  0.9386259927766716  0.2026791524822329   F   F   F