Mo  S Co                                
   1.00000000000000     
    15.9215000000000000    0.0000000000000000    0.0000000000000000
    -7.9622500000000000   13.7910219999999999    0.0000000000000000
     0.0000000000000000    0.0000000000000000   13.5822000000000003
   Mo   S    Co
    25    50     2
Direct
  0.1325747496843235  0.0653682412558823  0.6792548441960591
  0.1292740945801185  0.2640113446293313  0.6794139406567723
  0.1326321271454276  0.4660179774850377  0.6794625458111057
  0.1328106345873934  0.6659857106354821  0.6782527087727104
  0.1327907034601523  0.8656339328579179  0.6781452924686420
  0.3325666317549292  0.0650789430481140  0.6790715010024613
  0.3328619550061518  0.2638024002602606  0.6850544658602828
  0.3328936371537310  0.4677643443156683  0.6853635024587845
  0.3325990232168010  0.6662523286128135  0.6793828249936311
  0.3327466399549479  0.8657684697375387  0.6775559400737450
  0.5329172953814378  0.0654141573983011  0.6768388119619146
  0.5338931299725829  0.2649449623717999  0.6793891611912244
  0.5332332936275819  0.4660524798099885  0.6868098389871520
  0.5338489043734924  0.6677366183669307  0.6797330994568043
  0.5328989000004043  0.8663286108416131  0.6770070584902115
  0.7327512109039986  0.0658069086709716  0.6762790771338274
  0.7331426333442153  0.2657644280564853  0.6771469620055868
  0.7332983129887154  0.4658768434450522  0.6799370061481582
  0.7332612774781424  0.6662395792107247  0.6800224468734868
  0.7331026610049776  0.8662137030477837  0.6772990988686018
  0.9321035156414510  0.0651470392777398  0.6771817668725220
  0.9321428770540336  0.2658231963108406  0.6771950641204967
  0.9328859079461154  0.4659805122455296  0.6779559287226249
  0.9330053832593350  0.6659269862106356  0.6784893609041589
  0.9328328444574012  0.8657290528208605  0.6779482100235583
  0.0662917663285540  0.1321027460823245  0.5631883108889326
  0.0632783390308873  0.1300232128945353  0.7935913852477015
  0.0663894034824679  0.3331218513500929  0.5632761489768114
  0.0632785766325199  0.3319956600608194  0.7936556051082349
  0.0666999226581169  0.5325690396116514  0.5633631858867005
  0.0656877364751765  0.5328793139111170  0.7936155826061579
  0.0660292993075871  0.7323966695861728  0.5630779826996175
  0.0663005874757872  0.7326036990820484  0.7934654524216214
  0.0665576068160263  0.9328469442049325  0.5632378526923247
  0.0657049883258196  0.9316650832727902  0.7935097604048593
  0.2671569046416522  0.1340915528170612  0.5656852026351658
  0.2647080770671622  0.1291905415203445  0.7966000145409851
  0.2676107787709938  0.3332496716668132  0.5714875840909741
  0.2545182497477612  0.3263020710786790  0.8023913652632757
  0.2672608736376461  0.5318554286126940  0.5660145395423939
  0.2647131932628923  0.5342235568564391  0.7968819169229135
  0.2660959897921273  0.7319606352314025  0.5631209944516584
  0.2659467573418866  0.7333035474183163  0.7935385908002246
  0.2660509710234038  0.9327762788467808  0.5629526837670653
  0.2659510903022237  0.9315302609882607  0.7933981848485274
  0.4657101475427297  0.1328352158316051  0.5633284496839011
  0.4666150448528441  0.1302717699645157  0.7934018962386276
  0.4658815145831738  0.3338511075847066  0.5704592971692648
  0.4714446239528343  0.3264520330388834  0.8058998157740191
  0.4658125063874365  0.5309393549994823  0.5706447931511320
  0.4714467537973803  0.5436225657995237  0.8060717929255716
  0.4656774639343695  0.7316218545326620  0.5636239723969254
  0.4666397200497201  0.7352444481983866  0.7937175045772449
  0.4656935544616090  0.9322020551740096  0.5616821168073685
  0.4664151767178666  0.9326955803904085  0.7921418442606694
  0.6661223702514647  0.1327447222282387  0.5613662036614642
  0.6663295551967607  0.1320724876441020  0.7916588329426233
  0.6660852681958787  0.3332986924422485  0.5636184417191856
  0.6681040785478274  0.3318113343282576  0.7939048431125570
  0.6638180613496445  0.5313549212415154  0.5673232788510276
  0.6692425390032781  0.5340140913318550  0.7970517132359163
  0.6659608796781669  0.7315967158912571  0.5638388418424825
  0.6681589841096098  0.7351469510477315  0.7941086556694543
  0.6660541897870544  0.9321495855263180  0.5614926363624306
  0.6663539052133061  0.9331994755215547  0.7917813228938257
  0.8664111432139947  0.1326429463202317  0.5615735952721224
  0.8652742021047573  0.1320752032941144  0.7918293612865313
  0.8663455796740891  0.3331484998367884  0.5620132239084867
  0.8658208564089946  0.3322730989536353  0.7924710664004024
  0.8655498170171683  0.5325449975509784  0.5635723319376424
  0.8672137016256229  0.5328356910169205  0.7938934044816506
  0.8654684583330550  0.7318230292623724  0.5636070120217909
  0.8672272680703728  0.7332345249697738  0.7939274919748769
  0.8662132509708727  0.9319920746027037  0.5620642388257551
  0.8658489153322719  0.9324315374665346  0.7925257246077564
  0.2658313126232699  0.3287130231524671  0.9525312770204906
  0.3978125995371258  0.3980815512929752  0.8447695253061909
 
  0.00000000E+00  0.00000000E+00  0.00000000E+00
  0.00000000E+00  0.00000000E+00  0.00000000E+00
  0.00000000E+00  0.00000000E+00  0.00000000E+00
  0.00000000E+00  0.00000000E+00  0.00000000E+00
  0.00000000E+00  0.00000000E+00  0.00000000E+00
  0.00000000E+00  0.00000000E+00  0.00000000E+00
  0.00000000E+00  0.00000000E+00  0.00000000E+00
  0.00000000E+00  0.00000000E+00  0.00000000E+00
  0.00000000E+00  0.00000000E+00  0.00000000E+00
  0.00000000E+00  0.00000000E+00  0.00000000E+00
  0.00000000E+00  0.00000000E+00  0.00000000E+00
  0.00000000E+00  0.00000000E+00  0.00000000E+00
  0.00000000E+00  0.00000000E+00  0.00000000E+00
  0.00000000E+00  0.00000000E+00  0.00000000E+00
  0.00000000E+00  0.00000000E+00  0.00000000E+00
  0.00000000E+00  0.00000000E+00  0.00000000E+00
  0.00000000E+00  0.00000000E+00  0.00000000E+00
  0.00000000E+00  0.00000000E+00  0.00000000E+00
  0.00000000E+00  0.00000000E+00  0.00000000E+00
  0.00000000E+00  0.00000000E+00  0.00000000E+00
  0.00000000E+00  0.00000000E+00  0.00000000E+00
  0.00000000E+00  0.00000000E+00  0.00000000E+00
  0.00000000E+00  0.00000000E+00  0.00000000E+00
  0.00000000E+00  0.00000000E+00  0.00000000E+00
  0.00000000E+00  0.00000000E+00  0.00000000E+00
  0.00000000E+00  0.00000000E+00  0.00000000E+00
  0.00000000E+00  0.00000000E+00  0.00000000E+00
  0.00000000E+00  0.00000000E+00  0.00000000E+00
  0.00000000E+00  0.00000000E+00  0.00000000E+00
  0.00000000E+00  0.00000000E+00  0.00000000E+00
  0.00000000E+00  0.00000000E+00  0.00000000E+00
  0.00000000E+00  0.00000000E+00  0.00000000E+00
  0.00000000E+00  0.00000000E+00  0.00000000E+00
  0.00000000E+00  0.00000000E+00  0.00000000E+00
  0.00000000E+00  0.00000000E+00  0.00000000E+00
  0.00000000E+00  0.00000000E+00  0.00000000E+00
  0.00000000E+00  0.00000000E+00  0.00000000E+00
  0.00000000E+00  0.00000000E+00  0.00000000E+00
  0.00000000E+00  0.00000000E+00  0.00000000E+00
  0.00000000E+00  0.00000000E+00  0.00000000E+00
  0.00000000E+00  0.00000000E+00  0.00000000E+00
  0.00000000E+00  0.00000000E+00  0.00000000E+00
  0.00000000E+00  0.00000000E+00  0.00000000E+00
  0.00000000E+00  0.00000000E+00  0.00000000E+00
  0.00000000E+00  0.00000000E+00  0.00000000E+00
  0.00000000E+00  0.00000000E+00  0.00000000E+00
  0.00000000E+00  0.00000000E+00  0.00000000E+00
  0.00000000E+00  0.00000000E+00  0.00000000E+00
  0.00000000E+00  0.00000000E+00  0.00000000E+00
  0.00000000E+00  0.00000000E+00  0.00000000E+00
  0.00000000E+00  0.00000000E+00  0.00000000E+00
  0.00000000E+00  0.00000000E+00  0.00000000E+00
  0.00000000E+00  0.00000000E+00  0.00000000E+00
  0.00000000E+00  0.00000000E+00  0.00000000E+00
  0.00000000E+00  0.00000000E+00  0.00000000E+00
  0.00000000E+00  0.00000000E+00  0.00000000E+00
  0.00000000E+00  0.00000000E+00  0.00000000E+00
  0.00000000E+00  0.00000000E+00  0.00000000E+00
  0.00000000E+00  0.00000000E+00  0.00000000E+00
  0.00000000E+00  0.00000000E+00  0.00000000E+00
  0.00000000E+00  0.00000000E+00  0.00000000E+00
  0.00000000E+00  0.00000000E+00  0.00000000E+00
  0.00000000E+00  0.00000000E+00  0.00000000E+00
  0.00000000E+00  0.00000000E+00  0.00000000E+00
  0.00000000E+00  0.00000000E+00  0.00000000E+00
  0.00000000E+00  0.00000000E+00  0.00000000E+00
  0.00000000E+00  0.00000000E+00  0.00000000E+00
  0.00000000E+00  0.00000000E+00  0.00000000E+00
  0.00000000E+00  0.00000000E+00  0.00000000E+00
  0.00000000E+00  0.00000000E+00  0.00000000E+00
  0.00000000E+00  0.00000000E+00  0.00000000E+00
  0.00000000E+00  0.00000000E+00  0.00000000E+00
  0.00000000E+00  0.00000000E+00  0.00000000E+00
  0.00000000E+00  0.00000000E+00  0.00000000E+00
  0.00000000E+00  0.00000000E+00  0.00000000E+00
  0.00000000E+00  0.00000000E+00  0.00000000E+00
  0.00000000E+00  0.00000000E+00  0.00000000E+00
