Ta N Co                                 
   1.00000000000000     
    18.1096308199999996    0.0000000000000000    0.0000000000000000
     0.0000000000000000   23.3551997799999995    0.0000000000000000
     0.0000000000000000    0.0000000000000000   30.4818171199999988
   Ta   N    Co
   216   240    24
Direct
  0.0011978181963244  0.0000000000000000  0.1972048690232597
  0.3352377104685331  0.0627208819273832  0.2025148282622311
  0.1669723826975513  0.0627393403828265  0.2024317882930475
  0.2514870404484810  0.1249716679906712  0.2779732311370111
  0.0843375213112552  0.0625152702348828  0.2837849762897946
  0.4187732752346349  0.0625137921857899  0.2837819741597372
  0.0022032490189474  0.1248007304239138  0.3692676847731278
  0.3344849382469945  0.0623970917531551  0.3683829091146293
  0.1697998732991906  0.0623919412516543  0.3682437318169676
  0.2537918230186875  0.1242745732477886  0.4559797563828738
  0.0858709111591622  0.0620924769672655  0.4538772423010471
  0.4210551948636763  0.0622144113853693  0.4534315659336343
  0.3410311098120431  0.0621456019038291  0.5414319733869846
  0.1671917732450012  0.0645584615441237  0.5420444459131346
  0.0010990339404700  0.1251800314965266  0.1973796409731108
  0.3346535928996133  0.1878139674455639  0.2030220595150070
  0.1672736262740386  0.1878403599114336  0.2029501455762599
  0.2508678875327206  0.2502811179429543  0.2785575800658151
  0.0840074186030506  0.1876500506498644  0.2841812729181328
  0.4184092423283019  0.1876570139525526  0.2842625527453464
  0.0015942895944789  0.2499621278577280  0.3700658784537367
  0.3340119245636330  0.1872836387008547  0.3688119790176145
  0.1692863827433442  0.1872855966777109  0.3685943807473393
  0.2529221281672989  0.2465115314353312  0.4555176886668377
  0.0853116572289423  0.1859043436327994  0.4537521864439213
  0.4203071626557673  0.1865563174046230  0.4536953123642249
  0.3462167671374559  0.1859568076931950  0.5426126923877135
  0.1733821217392588  0.1939379544993400  0.5417215662217387
  0.0007273080593038  0.2508245512509504  0.1980458262605111
  0.3351793693398619  0.3129084604900640  0.2033462643417607
  0.1661314744267059  0.3128711837543179  0.2033521023493066
  0.2500850347176282  0.3751831474768466  0.2795392355401916
  0.0835103201356588  0.3126558793122243  0.2849650717271217
  0.4177842388372710  0.3126734090338203  0.2850796445069435
  0.0004984502540708  0.3746174836147702  0.3707430363120210
  0.3325507414587747  0.3126215799862706  0.3693702300538177
  0.1682083929329536  0.3126096230104096  0.3696280080053995
  0.2461513370421429  0.3743416807432070  0.4629566973588979
  0.0844539936333035  0.3112629519196517  0.4568855016023932
  0.4179744456414269  0.3119380366033866  0.4544269913869385
  0.3388531451299102  0.3096686142384328  0.5434276221867691
  0.0005258083224078  0.3752822406025729  0.1986522916139037
  0.3344790461853151  0.4376434660140802  0.2038765101127140
  0.1662751747224647  0.4377354994693050  0.2039529534945004
  0.2516942939227960  0.0000000000000000  0.2780365539302778
  0.0832470043246474  0.4375595796073597  0.2855024691821839
  0.4170681517615051  0.4375559713551027  0.2855951462913211
  0.0025610628977546  0.0000000000000000  0.3691549056822652
  0.3305624811662042  0.4373974550961961  0.3704328936617500
  0.1680087407387774  0.4373828392870109  0.3706947242262331
  0.2533380097092319  0.0000000000000000  0.4558818086785905
  0.0801410330369308  0.4374279240104642  0.4548523132529638
  0.4167096674901103  0.4369257535823508  0.4539552343234448
  0.3320877753630498  0.4379086343613494  0.5398061819392979
  0.0003828988694963  0.5000000000000000  0.1988839073438129
  0.3344790461853151  0.5623565344140857  0.2038765101127140
  0.1662751747224647  0.5622645009588680  0.2039529534945004
  0.2500850347176282  0.6248168525231534  0.2795392355401916
  0.0832470043246474  0.5624404208208063  0.2855024691821839
  0.4170681517615051  0.5624440290730632  0.2855951462913211
  0.0004984502540708  0.6253825163852298  0.3707430363120210
  0.3305624811662042  0.5626025453319698  0.3704328936617500
  0.1680087407387774  0.5626171611411550  0.3706947242262331
  0.2461513370421429  0.6256583192567930  0.4629566973588979
  0.0801410330369308  0.5625720764177018  0.4548523132529638
  0.4167096674901103  0.5630742468458152  0.4539552343234448
  0.3320877753630498  0.5620913660668165  0.5398061819392979
  0.0005258083224078  0.6247177593974271  0.1986522916139037
  0.3351793693398619  0.6870915395099360  0.2033462643417607
  0.1661314744267059  0.6871288162456821  0.2033521023493066
  0.2508678875327206  0.7497188824852188  0.2785575800658151
  0.0835103201356588  0.6873441206877757  0.2849650717271217
  0.4177842388372710  0.6873265909661797  0.2850796445069435
  0.0015942895944789  0.7500378725704451  0.3700658784537367
  0.3325507414587747  0.6873784200137294  0.3693702300538177
  0.1682083929329536  0.6873903769895904  0.3696280080053995
  0.2529221281672989  0.7534884689928418  0.4555176886668377
  0.0844539936333035  0.6887370480803483  0.4568855016023932
  0.4179744456414269  0.6880619633966134  0.4544269913869385
  0.3388531451299102  0.6903313857615672  0.5434276221867691
  0.0007273080593038  0.7491754491772298  0.1980458262605111
  0.3346535928996133  0.8121860325544361  0.2030220595150070
  0.1672736262740386  0.8121596400885664  0.2029501455762599
  0.2514870404484810  0.8750283320093288  0.2779732311370111
  0.0840074186030506  0.8123499493501285  0.2841812729181328
  0.4184092423283019  0.8123429860474474  0.2842625527453464
  0.0022032490189474  0.8751992695760933  0.3692676847731278
  0.3340119245636330  0.8127163612991453  0.3688119790176145
  0.1692863827433442  0.8127144033222891  0.3685943807473393
  0.2537918230186875  0.8757254267522114  0.4559797563828738
  0.0853116572289423  0.8140956563672006  0.4537521864439213
  0.4203071626557673  0.8134436825953841  0.4536953123642249
  0.3462167671374559  0.8140431923068050  0.5426126923877135
  0.1733821217392588  0.8060620455006600  0.5417215662217387
  0.0010990339404700  0.8748199685034734  0.1973796409731108
  0.3352377104685331  0.9372791185007827  0.2025148282622311
  0.1669723826975513  0.9372606600453395  0.2024317882930475
  0.2498862880291313  0.5000000000000000  0.2797825159247154
  0.0843375213112552  0.9374847301932832  0.2837849762897946
  0.4187732752346349  0.9374862082423761  0.2837819741597372
  0.9995627744425093  0.5000000000000000  0.3706179535345200
  0.3344849382469945  0.9376029086750108  0.3683829091146293
  0.1697998732991906  0.9376080591765117  0.3682437318169676
  0.2435961878891817  0.5000000000000000  0.4633371447840773
  0.0858709111591622  0.9379075234609004  0.4538772423010471
  0.4210551948636763  0.9377855890427966  0.4534315659336343
  0.3410311098120431  0.9378543985243368  0.5414319733869846
  0.1671917732450012  0.9354415388840422  0.5420444459131346
  0.5011990729023736  0.0000000000000000  0.1972032473113430
  0.8352413257126940  0.0627213275880294  0.2025157954162822
  0.6669779687079398  0.0627395985822048  0.2024292493816517
  0.7514886505889535  0.1249712028759831  0.2779733893666148
  0.5843383901003278  0.0625129946754583  0.2837816299891287
  0.9187733233667714  0.0625130416751460  0.2837856660577174
  0.5022032231843454  0.1248013248581969  0.3692657161649251
  0.8344810917261327  0.0623932782778880  0.3683839065067858
  0.6697963647178753  0.0623902415133273  0.3682426401171384
  0.7537873684478882  0.1242742955871492  0.4559821318082200
  0.5858713327136726  0.0620930264555710  0.4538771135651984
  0.9210511381667388  0.0622082322868920  0.4534308109262923
  0.8410329749990950  0.0621437929263351  0.5414322081156442
  0.6671944327119803  0.0645640942483681  0.5420454953683134
  0.5011019121817100  0.1251798900609415  0.1973810959637063
  0.8346573250310598  0.1878140276908766  0.2030237672034900
  0.6672786027198754  0.1878416196251251  0.2029471240400085
  0.7508705531263189  0.2502803392129849  0.2785557099209228
  0.5840060245588674  0.1876507155783784  0.2841758400523275
  0.9184115369067030  0.1876579879341591  0.2842650793306660
  0.5015843448110360  0.2499595796815157  0.3700608348506762
  0.8340115588488288  0.1872838271036272  0.3688127548917635
  0.6692840785675997  0.1872838545364885  0.3685899389788858
  0.7529213679282520  0.2465101428483720  0.4555149326081533
  0.5853138784311795  0.1859023780090610  0.4537499040289745
  0.9203038160981905  0.1865594041736642  0.4536973029446258
  0.8462172996433850  0.1859523371251726  0.5426123174955535
  0.6733786657017831  0.1939312370396067  0.5417208909720586
  0.5007232796093746  0.2508238517913242  0.1980418112276183
  0.8351821812011195  0.3129105488808150  0.2033483544546684
  0.6661390648817473  0.3128720244671968  0.2033505764021442
  0.7500893668880835  0.3751830013168913  0.2795366314879288
  0.5835079169543178  0.3126552522380095  0.2849576654956891
  0.9177890689418220  0.3126745284969914  0.2850847598346959
  0.5005010604373226  0.3746166817270549  0.3707315140689715
  0.8325528706730907  0.3126204484814039  0.3693712916899017
  0.6682058549105960  0.3126118544461320  0.3696152919818800
  0.7461606954151918  0.3743444816859878  0.4629429405865224
  0.5844558651484633  0.3112594528792911  0.4568686448177672
  0.9179689388745587  0.3119392022051741  0.4544332212330247
  0.8388246001328241  0.3096586894920392  0.5434306573363941
  0.5005185290242977  0.3752817280440865  0.1986451137910521
  0.8344850797578687  0.4376453026645777  0.2038787949041065
  0.6662750789101608  0.4377346067814898  0.2039473387142650
  0.7516947522150232  0.0000000000000000  0.2780364835269253
  0.5832437064015750  0.4375603184148460  0.2854920498860665
  0.9170751842929761  0.4375557729794721  0.2856013022717363
  0.5025658478435275  0.0000000000000000  0.3691502771961908
  0.8305670165657801  0.4373927474459123  0.3704325274902018
  0.6680119519686230  0.4373814013873556  0.3706812902821497
  0.7533379059298539  0.0000000000000000  0.4558812462502217
  0.5801540700216989  0.4374205395335053  0.4548311314898115
  0.9166979286264407  0.4369244153210374  0.4539656949568851
  0.8320361678578294  0.4378997556198811  0.5398128334180612
  0.5003837623326106  0.5000000000000000  0.1988776626228059
  0.8344850797578687  0.5623546977635883  0.2038787949041065
  0.6662750789101608  0.5622653936466762  0.2039473387142650
  0.7500893668880835  0.6248169986831087  0.2795366314879288
  0.5832437064015750  0.5624396820133200  0.2854920498860665
  0.9170751842929761  0.5624442274486938  0.2856013022717363
  0.5005010604373226  0.6253833182729451  0.3707315140689715
  0.8305670165657801  0.5626072529822537  0.3704325274902018
  0.6680119519686230  0.5626185990408104  0.3706812902821497
  0.7461606954151918  0.6256555183140122  0.4629429405865224
  0.5801540700216989  0.5625794608946606  0.4548311314898115
  0.9166979286264407  0.5630755851071285  0.4539656949568851
  0.8320361678578294  0.5621002448082777  0.5398128334180612
  0.5005185290242977  0.6247182719559135  0.1986451137910521
  0.8351821812011195  0.6870894511191850  0.2033483544546684
  0.6661390648817473  0.6871279755328032  0.2033505764021442
  0.7508705531263189  0.7497196612151882  0.2785557099209228
  0.5835079169543178  0.6873447477619905  0.2849576654956891
  0.9177890689418220  0.6873254715030086  0.2850847598346959
  0.5015843448110360  0.7500404207466573  0.3700608348506762
  0.8325528706730907  0.6873795515185961  0.3693712916899017
  0.6682058549105960  0.6873881455538680  0.3696152919818800
  0.7529213679282520  0.7534898575798010  0.4555149326081533
  0.5844558651484633  0.6887405471207089  0.4568686448177672
  0.9179689388745587  0.6880607977948259  0.4544332212330247
  0.8388246001328241  0.6903413105079608  0.5434306573363941
  0.5007232796093746  0.7491761486368489  0.1980418112276183
  0.8346573250310598  0.8121859723091234  0.2030237672034900
  0.6672786027198754  0.8121583803748749  0.2029471240400085
  0.7514886505889535  0.8750287971240169  0.2779733893666148
  0.5840060245588674  0.8123492844216216  0.2841758400523275
  0.9184115369067030  0.8123420120658409  0.2842650793306660
  0.5022032231843454  0.8751986751418102  0.3692657161649251
  0.8340115588488288  0.8127161728963728  0.3688127548917635
  0.6692840785675997  0.8127161454635115  0.3685899389788858
  0.7537873684478882  0.8757257044128508  0.4559821318082200
  0.5853138784311795  0.8140976219909390  0.4537499040289745
  0.9203038160981905  0.8134405958263429  0.4536973029446258
  0.8462172996433850  0.8140476628748274  0.5426123174955535
  0.6733786657017831  0.8060687629603933  0.5417208909720586
  0.5011019121817100  0.8748201099390585  0.1973810959637063
  0.8352413257126940  0.9372786728401366  0.2025157954162822
  0.6669779687079398  0.9372604018459612  0.2024292493816517
  0.7498878253443380  0.5000000000000000  0.2797801364865506
  0.5843383901003278  0.9374870057527076  0.2837816299891287
  0.9187733233667714  0.9374869587530199  0.2837856660577174
  0.4995641146173284  0.5000000000000000  0.3706080899174182
  0.8344810917261327  0.9376067221502780  0.3683839065067858
  0.6697963647178753  0.9376097589148387  0.3682426401171384
  0.7436300147923944  0.5000000000000000  0.4633271515950952
  0.5858713327136726  0.9379069739725949  0.4538771135651984
  0.9210511381667388  0.9377917681412740  0.4534308109262923
  0.8410329749990950  0.9378562075018309  0.5414322081156442
  0.6671944327119803  0.9354359061797979  0.5420454953683134
  0.4068232556726699  0.0000000000000000  0.2320507075464704
  0.2510737389967161  0.0000000000000000  0.2000241095143096
  0.0957254955952536  0.0000000000000000  0.2320495874685449
  0.1564774720228925  0.1250037864770164  0.3157224618436913
  0.0014800677516291  0.1250499646475163  0.3026606351495005
  0.3466040936149923  0.1249786539988236  0.3157927825774109
  0.4035943264380961  0.1246709985555725  0.4018758410825143
  0.2520296622823395  0.1245438585308065  0.3878690043525523
  0.1008711521668886  0.1244664079920028  0.4019289412926739
  0.1539108629990693  0.1248437389234311  0.4866975976440955
  0.0031988368984486  0.1241424180725446  0.4750312707256299
  0.3545058396341005  0.1236585102380374  0.4871756127569924
  0.4130807275634822  0.1216868745946655  0.5660993099514613
  0.2554204704085947  0.1221095204149520  0.5559048581737898
  0.1026167772114093  0.1302556465752076  0.5653811749282767
  0.4067421081982658  0.1252645699820505  0.2322360037282110
  0.2510047859391022  0.1251596214197690  0.1987330625645285
  0.0955131811445966  0.1252493022729624  0.2322094909606705
  0.1560497708659341  0.2501786432400408  0.3164171420130657
  0.0009914251353962  0.2500780148903132  0.3034302085677467
  0.3457875718520356  0.2500636625531385  0.3163846761737830
  0.4023976678936521  0.2498887667007565  0.4022718735295072
  0.2511604743290832  0.2499841562174439  0.3882439096349017
  0.1003860941296821  0.2497029202871559  0.4025161194895972
  0.1545871044170894  0.2448567061389255  0.4851303780152776
  0.0020290713749631  0.2484334108275306  0.4747757883308168
  0.3524266811478824  0.2483839284111369  0.4875917113030894
  0.4151033995608913  0.2473913954304052  0.5655140124431171
  0.2625033738677018  0.2401953130425980  0.5610561556404292
  0.0967474705154601  0.2604814376866074  0.5611685314961647
  0.4063553006735461  0.2504594352206695  0.2329464789324973
  0.2508137864933246  0.2506915360775324  0.1999492279812642
  0.0952405571964761  0.2504186870350722  0.2328557317925188
  0.1553110685293930  0.3751897001250128  0.3173862691501981
  0.0004449561641522  0.3750989892330523  0.3041122272578960
  0.3449888760968634  0.3752097547130404  0.3171490035287192
  0.4008728392481515  0.3744783031868621  0.4025107132168557
  0.2496353069197141  0.3747169519548663  0.3912614543666280
  0.0992530529116635  0.3737291615489582  0.4034546120245324
  0.1425528880605640  0.3763201209896962  0.4883998553993933
  0.9978884066441225  0.3740717065242265  0.4747880068622834
  0.3514326095612432  0.3745139603852863  0.4872089136204778
  0.3919921370328083  0.3742339298511439  0.5710051784148504
  0.2440330326869713  0.3582317141724332  0.5367012811502079
  0.0685333481730908  0.3797306451953659  0.5637614442824628
  0.4060104851486699  0.3752578224058922  0.2335749639290441
  0.2505041752192696  0.3751907131558667  0.2012647697871870
  0.0949529348699443  0.3752317334217850  0.2335652692542567
  0.1566152900497713  0.0000000000000000  0.3156313942336482
  0.0016524655760648  0.0000000000000000  0.3025186518530560
  0.3468466903869967  0.0000000000000000  0.3156746614111512
  0.4039629235516315  0.0000000000000000  0.4017334608177023
  0.2522336004710724  0.0000000000000000  0.3877977607007352
  0.1012405312639260  0.0000000000000000  0.4019301091872407
  0.1536667738871458  0.0000000000000000  0.4871642133718055
  0.0034747500052177  0.0000000000000000  0.4751436696750204
  0.3538616979695419  0.0000000000000000  0.4868388790836704
  0.4125732207406685  0.0000000000000000  0.5645476547276544
  0.2545200642601628  0.0000000000000000  0.5562894106827230
  0.0988561688250371  0.0000000000000000  0.5651185232026990
  0.4057741411721807  0.5000000000000000  0.2337440258611991
  0.2504804469234898  0.5000000000000000  0.2003011195100797
  0.0948230054114276  0.5000000000000000  0.2337995121376082
  0.1553110685293930  0.6248102998749872  0.3173862691501981
  0.0004449561641522  0.6249010107669548  0.3041122272578960
  0.3449888760968634  0.6247902452869596  0.3171490035287192
  0.4008728392481515  0.6255216968131450  0.4025107132168557
  0.2496353069197141  0.6252830480451337  0.3912614543666280
  0.0992530529116635  0.6262708384510418  0.4034546120245324
  0.1425528880605640  0.6236798790103038  0.4883998553993933
  0.9978884066441225  0.6259282934757735  0.4747880068622834
  0.3514326095612432  0.6254860396147137  0.4872089136204778
  0.3919921370328083  0.6257660701488561  0.5710051784148504
  0.2440330326869713  0.6417682858275668  0.5367012811502079
  0.0685333481730908  0.6202693548046341  0.5637614442824628
  0.4060104851486699  0.6247421775941078  0.2335749639290441
  0.2505041752192696  0.6248092868441333  0.2012647697871870
  0.0949529348699443  0.6247682665782150  0.2335652692542567
  0.1560497708659341  0.7498213571881323  0.3164171420130657
  0.0009914251353962  0.7499219855378598  0.3034302085677467
  0.3457875718520356  0.7499363378750346  0.3163846761737830
  0.4023976678936521  0.7501112337274165  0.4022718735295072
  0.2511604743290832  0.7500158442107292  0.3882439096349017
  0.1003860941296821  0.7502970801410171  0.4025161194895972
  0.1545871044170894  0.7551432942892475  0.4851303780152776
  0.0020290713749631  0.7515665896006425  0.4747757883308168
  0.3524266811478824  0.7516160720170362  0.4875917113030894
  0.4151033995608913  0.7526086049977678  0.5655140124431171
  0.2625033738677018  0.7598046873855751  0.5610561556404292
  0.0967474705154601  0.7395185627415657  0.5611685314961647
  0.4063553006735461  0.7495405652075036  0.2329464789324973
  0.2508137864933246  0.7493084643506407  0.1999492279812642
  0.0952405571964761  0.7495813133931009  0.2328557317925188
  0.1564774720228925  0.8749962135229836  0.3157224618436913
  0.0014800677516291  0.8749500353524837  0.3026606351495005
  0.3466040936149923  0.8750213460011764  0.3157927825774109
  0.4035943264380961  0.8753290014444275  0.4018758410825143
  0.2520296622823395  0.8754561414691935  0.3878690043525523
  0.1008711521668886  0.8755335920079972  0.4019289412926739
  0.1539108629990693  0.8751562610765689  0.4866975976440955
  0.0031988368984486  0.8758575819274554  0.4750312707256299
  0.3545058396341005  0.8763414897619626  0.4871756127569924
  0.4130807275634822  0.8783131254053345  0.5660993099514613
  0.2554204704085947  0.8778904795850480  0.5559048581737898
  0.1026167772114093  0.8697443534247924  0.5653811749282767
  0.4067421081982658  0.8747354300179495  0.2322360037282110
  0.2510047859391022  0.8748403785802310  0.1987330625645285
  0.0955131811445966  0.8747506977270376  0.2322094909606705
  0.1551717560029431  0.5000000000000000  0.3177051178270460
  0.0000967878367177  0.5000000000000000  0.3041172345880128
  0.3445010580663705  0.5000000000000000  0.3174664536887093
  0.3998735992149633  0.5000000000000000  0.4022464320171792
  0.2489989034318896  0.5000000000000000  0.3918332514568021
  0.0986764967878102  0.5000000000000000  0.4029863378532639
  0.1402447562032307  0.5000000000000000  0.4896316939472811
  0.9963005637267131  0.5000000000000000  0.4733992961923121
  0.3507010706526188  0.5000000000000000  0.4858761373670433
  0.3944537408068669  0.5000000000000000  0.5684523290598875
  0.2515522721990919  0.5000000000000000  0.5424037232818080
  0.0642054607393518  0.5000000000000000  0.5668410503766950
  0.9068240509963346  0.0000000000000000  0.2320535037447939
  0.7510792746333550  0.0000000000000000  0.2000231658629801
  0.5957288687163782  0.0000000000000000  0.2320458710970783
  0.6564756956811308  0.1250039991931615  0.3157204248207819
  0.5014798247977836  0.1250493005835551  0.3026571724104912
  0.8466040837554161  0.1249794335051817  0.3157939957762110
  0.9035906712257145  0.1246722224042713  0.4018778735317525
  0.7520258810903755  0.1245444920320580  0.3878700563972544
  0.6008713429107218  0.1244651751756223  0.4019282018872232
  0.6539119821092498  0.1248461735471906  0.4867001847884467
  0.5032021070966053  0.1241402017679647  0.4750324191779853
  0.8545030122560675  0.1236610589190903  0.4871785871170857
  0.9130870917890803  0.1216902935906887  0.5660974856104986
  0.7554236418573410  0.1221122495983664  0.5559063758145015
  0.6026197831645987  0.1302508768328750  0.5653845268049622
  0.9067446573400417  0.1252643355311278  0.2322389288424844
  0.7510102133772065  0.1251603535035244  0.1987316349926331
  0.5955203071103199  0.1252491747734155  0.2322074628302602
  0.6560483567743134  0.2501778963966075  0.3164110143454977
  0.5009901225946791  0.2500780232023700  0.3034234946935968
  0.8457895968093325  0.2500630033201858  0.3163857522899391
  0.9023940334926195  0.2498887197644919  0.4022763124648918
  0.7511600466776045  0.2499818483515881  0.3882406563491401
  0.6003903840255091  0.2496997079939902  0.4025088431802075
  0.6545921488046957  0.2448610416127579  0.4851289958938310
  0.5020326557071755  0.2484317063315302  0.4747695663302096
  0.8524212927341566  0.2483853265888953  0.4875954750480318
  0.9151036474587428  0.2474010386682508  0.5655085526193915
  0.7625023756605458  0.2401992428973116  0.5610569958303060
  0.5967462926561922  0.2604820865912103  0.5611655831410047
  0.9063583383072569  0.2504604946231694  0.2329499868056715
  0.7508196243476277  0.2506914928499100  0.1999469662426279
  0.5952384253746317  0.2504170316096719  0.2328497914706915
  0.6553103373363527  0.3751889852528763  0.3173765185369604
  0.5004418301760367  0.3750989828411164  0.3041021241022648
  0.8449926915056594  0.3752091883525992  0.3171506511842566
  0.9008702878806574  0.3744779641909801  0.4025172923740072
  0.7496357333989181  0.3747145628720858  0.3912543601673235
  0.5992559613218660  0.3737272621962333  0.4034402698066728
  0.6425711647391807  0.3763109823842186  0.4883767483270276
  0.4979039820976965  0.3740682183313808  0.4747615931533673
  0.8514276447691032  0.3745087292577338  0.4872194159317047
  0.8919632173758814  0.3742386202307983  0.5710134161929830
  0.7440154353379853  0.3582470219679337  0.5367080534162554
  0.5685571914873009  0.3797580889063212  0.5637365091509139
  0.9060140684181661  0.3752588460413193  0.2335790906672131
  0.7505073535966531  0.3751917067548618  0.2012620198819306
  0.5949477588083170  0.3752309475047397  0.2335561321998583
  0.6566139540553095  0.0000000000000000  0.3156295112221272
  0.5016529323547587  0.0000000000000000  0.3025162048312566
  0.8468438496474704  0.0000000000000000  0.3156764034730628
  0.9039599105990987  0.0000000000000000  0.4017349698853607
  0.7522296487955700  0.0000000000000000  0.3877976983213074
  0.6012403135433075  0.0000000000000000  0.4019307294336443
  0.6536671026789378  0.0000000000000000  0.4871667147095096
  0.5034800111383291  0.0000000000000000  0.4751445411816064
  0.8538591996464149  0.0000000000000000  0.4868383275442483
  0.9125874476749374  0.0000000000000000  0.5645412203151920
  0.7545273849686183  0.0000000000000000  0.5562905114465337
  0.5988592945829367  0.0000000000000000  0.5651206601877874
  0.9057786919051907  0.5000000000000000  0.2337484259956639
  0.7504813318842380  0.5000000000000000  0.2002988101429679
  0.5948186904860933  0.5000000000000000  0.2337893415514287
  0.6553103373363527  0.6248110147471237  0.3173765185369604
  0.5004418301760367  0.6249010171588836  0.3041021241022648
  0.8449926915056594  0.6247908116474008  0.3171506511842566
  0.9008702878806574  0.6255220358090199  0.4025172923740072
  0.7496357333989181  0.6252854371279142  0.3912543601673235
  0.5992559613218660  0.6262727378037667  0.4034402698066728
  0.6425711647391807  0.6236890176157814  0.4883767483270276
  0.4979039820976965  0.6259317816686192  0.4747615931533673
  0.8514276447691032  0.6254912707422662  0.4872194159317047
  0.8919632173758814  0.6257613797692017  0.5710134161929830
  0.7440154353379853  0.6417529780320663  0.5367080534162554
  0.5685571914873009  0.6202419110936788  0.5637365091509139
  0.9060140684181661  0.6247411539586807  0.2335790906672131
  0.7505073535966531  0.6248082932451382  0.2012620198819306
  0.5949477588083170  0.6247690524952532  0.2335561321998583
  0.6560483567743134  0.7498221040315656  0.3164110143454977
  0.5009901225946791  0.7499219772258030  0.3034234946935968
  0.8457895968093325  0.7499369971079872  0.3163857522899391
  0.9023940334926195  0.7501112806636812  0.4022763124648918
  0.7511600466776045  0.7500181520765850  0.3882406563491401
  0.6003903840255091  0.7503002924341828  0.4025088431802075
  0.6545921488046957  0.7551389588154152  0.4851289958938310
  0.5020326557071755  0.7515682940966428  0.4747695663302096
  0.8524212927341566  0.7516146738392777  0.4875954750480318
  0.9151036474587428  0.7525989617599222  0.5655085526193915
  0.7625023756605458  0.7598007575308614  0.5610569958303060
  0.5967462926561922  0.7395179138369627  0.5611655831410047
  0.9063583383072569  0.7495395058050036  0.2329499868056715
  0.7508196243476277  0.7493085075782631  0.1999469662426279
  0.5952384253746317  0.7495829688185012  0.2328497914706915
  0.6564756956811308  0.8749960008068385  0.3157204248207819
  0.5014798247977836  0.8749506994164449  0.3026571724104912
  0.8466040837554161  0.8750205664948183  0.3157939957762110
  0.9035906712257145  0.8753277775957287  0.4018778735317525
  0.7520258810903755  0.8754555079679420  0.3878700563972544
  0.6008713429107218  0.8755348248243777  0.4019282018872232
  0.6539119821092498  0.8751538264528094  0.4867001847884467
  0.5032021070966053  0.8758597982320353  0.4750324191779853
  0.8545030122560675  0.8763389410809097  0.4871785871170857
  0.9130870917890803  0.8783097064093113  0.5660974856104986
  0.7554236418573410  0.8778877504016336  0.5559063758145015
  0.6026197831645987  0.8697491231671250  0.5653845268049622
  0.9067446573400417  0.8747356644688722  0.2322389288424844
  0.7510102133772065  0.8748396464964756  0.1987316349926331
  0.5955203071103199  0.8747508252265845  0.2322074628302602
  0.6551724229327434  0.5000000000000000  0.3176954216973513
  0.5000939349112841  0.5000000000000000  0.3041074285716547
  0.8445086764062637  0.5000000000000000  0.3174681307236327
  0.8998668429839114  0.5000000000000000  0.4022558373488749
  0.7489991730517431  0.5000000000000000  0.3918236241817823
  0.5986871541458711  0.5000000000000000  0.4029711728435927
  0.6402674045374397  0.5000000000000000  0.4896020711128770
  0.4963186225975704  0.5000000000000000  0.4733561578128018
  0.8506991243368986  0.5000000000000000  0.4858978413261568
  0.8944127960992034  0.5000000000000000  0.5684743395166123
  0.7515098522416750  0.5000000000000000  0.5424074189608064
  0.5642014194850091  0.5000000000000000  0.5667752955086769
  0.0067454193104339  0.1274359687818887  0.5427805523104183
  0.0066838786996541  0.2473740357948842  0.5399560859567885
  0.9810661103900671  0.3814697363609127  0.5395784363707037
  0.1320566013520477  0.3293927344716465  0.5425898181043749
  0.0050582368945840  0.0000000000000000  0.5419423313280092
  0.1043690718047898  0.4421982458422207  0.5386598393463231
  0.9810661103900671  0.6185302636390873  0.5395784363707037
  0.1043690718047898  0.5578017545859453  0.5386598393463231
  0.0066838786996541  0.7526259646332889  0.5399560859567885
  0.1320566013520477  0.6706072655283535  0.5425898181043749
  0.0067454193104339  0.8725640312181113  0.5427805523104183
  0.9801121894977456  0.5000000000000000  0.5376965798867275
  0.5067669397458729  0.1274109308610178  0.5427843136240398
  0.5066726962606936  0.2473854582411121  0.5399557350042627
  0.4811350865524631  0.3814541887968659  0.5395476187176556
  0.6320215868273849  0.3293777024538187  0.5425584280540861
  0.5050460425997230  0.0000000000000000  0.5419493070868953
  0.6044374387832221  0.4422121451478276  0.5386360624881874
  0.4811350865524631  0.6185458112031341  0.5395476187176556
  0.6044374387832221  0.5577878552803384  0.5386360624881874
  0.5066726962606936  0.7526145421870609  0.5399557350042627
  0.6320215868273849  0.6706222975461813  0.5425584280540861
  0.5067669397458729  0.8725890691389822  0.5427843136240398
  0.4801482491174198  0.5000000000000000  0.5376361537515635
 
  0.00000000E+00  0.00000000E+00  0.00000000E+00
  0.00000000E+00  0.00000000E+00  0.00000000E+00
  0.00000000E+00  0.00000000E+00  0.00000000E+00
  0.00000000E+00  0.00000000E+00  0.00000000E+00
  0.00000000E+00  0.00000000E+00  0.00000000E+00
  0.00000000E+00  0.00000000E+00  0.00000000E+00
  0.00000000E+00  0.00000000E+00  0.00000000E+00
  0.00000000E+00  0.00000000E+00  0.00000000E+00