Ta  N Ru Cu                             
   1.00000000000000     
    18.1096308199999996    0.0000000000000000    0.0000000000000000
     0.0000000000000000   23.3551997799999995    0.0000000000000000
     0.0000000000000000    0.0000000000000000   30.4818171199999988
   Ta   N    Ru   Cu
   216   240    24    29
Direct
  0.9989990151594947  0.0008353805663878  0.1946265289902326
  0.3278212369379073  0.0605237036009920  0.2010806017888830
  0.1692617791666153  0.0606077787898205  0.2011301497156997
  0.2485624326352904  0.1250512182143192  0.2794460953448077
  0.0815346723961067  0.0633483836908725  0.2828782398730878
  0.4155970876057872  0.0632284518848101  0.2827117700638489
  0.9985217024632166  0.1255335017258588  0.3688312813273954
  0.3312574452933521  0.0629819590883594  0.3678101198494638
  0.1657266709803691  0.0630208379847059  0.3679000503594366
  0.2489295849936789  0.1247173364359931  0.4544079998897996
  0.0816320665684975  0.0625504425756195  0.4535769160920998
  0.4150504282995638  0.0626840981606231  0.4533681093096134
  0.9979631808208015  0.1261298168358680  0.1961371879357854
  0.3354135956948128  0.1884010477582038  0.2023112338410554
  0.1619472881399553  0.1885314768893633  0.2024092524743192
  0.2485948767482385  0.2512022529849246  0.2793328047990441
  0.0812498273343294  0.1881091085550154  0.2837797311794350
  0.4163512532655277  0.1879611226472798  0.2835020759452537
  0.9983336665452323  0.2506056458624512  0.3696246263627491
  0.3312431840280411  0.1879779025761818  0.3681960316087116
  0.1660525242951623  0.1880762809272665  0.3685087752012525
  0.2491478426328016  0.2476875265814596  0.4547782950467229
  0.0813555297925745  0.1871226094076975  0.4539007562482306
  0.4153849960101403  0.1872451775582520  0.4539312572272508
  0.3342053081625129  0.1843266144437121  0.5413622338088351
  0.0000871704889933  0.2499393426790114  0.1959962941246706
  0.3277349928043227  0.3162737603257395  0.2015965693879818
  0.1695988940890080  0.3163525323463033  0.2018200407216207
  0.2485041907474885  0.3753250049607120  0.2816072627217567
  0.0816978824785011  0.3130332133818313  0.2839926763814585
  0.4159811642004440  0.3128980536116199  0.2834808695926732
  0.9984529501523294  0.3755791775783980  0.3701179966905608
  0.3318984619155492  0.3129983322788724  0.3685131373807792
  0.1653038787637863  0.3130181234830908  0.3693928224267520
  0.2487953172995510  0.3745081359983642  0.4545269044754386
  0.0827188147729092  0.3126127576924912  0.4562100028451379
  0.4160861004988504  0.3124859725622184  0.4553383604030658
  0.9982585818505799  0.3759563854173196  0.1963026533657922
  0.3281471079978119  0.4350009693777891  0.2019282298127834
  0.1688278774856272  0.4349947930691299  0.2021552500336205
  0.2485418436174780  0.0009489833442534  0.2801401630819312
  0.0813889427513936  0.4382331620804655  0.2840056828279956
  0.4162135038069488  0.4381931705538311  0.2832641919303100
  0.9984441720845704  0.0005621339278142  0.3681979538541446
  0.3316993998807295  0.4380094388870149  0.3684598133487474
  0.1655088242805865  0.4379192112482637  0.3693119956855835
  0.2484274136293510  0.0001474276560494  0.4541754187712507
  0.0835430334474010  0.4382916204034975  0.4563664040489026
  0.4158862760164044  0.4378150198189509  0.4547756230470804
  0.3407789617070106  0.4383067784134916  0.5415005521537641
  0.0013142592340892  0.5002327486147601  0.1965582212521528
  0.3281669780260230  0.5657198632293823  0.2017456416903495
  0.1689404917331093  0.5657607765591472  0.2018973263562641
  0.2486424639834954  0.6256117491360362  0.2809164782762709
  0.0814347220182841  0.5627631512716592  0.2836753706393746
  0.4160337350353810  0.5627851603574134  0.2832256027539470
  0.9982293884511647  0.6260458245110169  0.3693218102903316
  0.3315027403088704  0.5631413829586832  0.3684648748514175
  0.1658458049733141  0.5631471807864978  0.3689206003940870
  0.2489864145433518  0.6257181804608027  0.4544618527779818
  0.0822191017279159  0.5631879067806611  0.4546991599445629
  0.4161608926850008  0.5632394320077388  0.4540091159793719
  0.9980826073521609  0.6248400226949570  0.1958384144667262
  0.3275304786183739  0.6845321153612735  0.2011067290121829
  0.1693336542479810  0.6844930041977922  0.2012912450691301
  0.2485490281262014  0.7499149773572981  0.2785084657240672
  0.0815741213170257  0.6881086525929162  0.2833291416246206
  0.4156024343068273  0.6881006753273881  0.2830548602271076
  0.9979455639594671  0.7505601012366707  0.3687195676436554
  0.3316645969378788  0.6883011263160311  0.3681129558869170
  0.1655721375833508  0.6882878714590198  0.3681776034940037
  0.2476806274269786  0.7527574426724004  0.4547545438465951
  0.0831451532177997  0.6887617512505758  0.4545234864672121
  0.4157293356405479  0.6889157048766265  0.4543328491727668
  0.3340709359378785  0.6911155229128534  0.5415209524480296
  0.9998408704442912  0.7512824315841763  0.1953322751614347
  0.3350131355145672  0.8127483299116898  0.2018516123651357
  0.1617405679533556  0.8127649577031753  0.2019397132603222
  0.2484785023528419  0.8762864854158173  0.2787800481631377
  0.0811843920316388  0.8131848582881910  0.2831358401748534
  0.4158038518201035  0.8131322513696790  0.2830433045996477
  0.9982022219389242  0.8758294267878629  0.3682245627105276
  0.3309526203504993  0.8132001801077933  0.3678347925358548
  0.1658922544938086  0.8131540305918623  0.3678174607466997
  0.2482616355057939  0.8758353988088057  0.4540222558937795
  0.0805706493170445  0.8138997130214277  0.4530058036353820
  0.4146726678684390  0.8137161049484140  0.4538911733074971
  0.9978563512933722  0.8751917865047554  0.1957301985664276
  0.3279327479902213  0.9408492090318108  0.2006822954097167
  0.1689353101130456  0.9409006431535980  0.2007518114216294
  0.2485943355332798  0.5002933021595016  0.2812037570154132
  0.0814142039380840  0.9380003557340579  0.2826201523867756
  0.4155189570288665  0.9379394818874545  0.2825333314330231
  0.9986846170910264  0.5006088537436630  0.3699308828808196
  0.3311590234175584  0.9381346076312367  0.3675946144482712
  0.1657079537291482  0.9381761352940311  0.3675802080414019
  0.2479945362156153  0.5025276848077653  0.4548935234468907
  0.0817226267480047  0.9381681410359340  0.4528739069601272
  0.4145794917876841  0.9382761654225745  0.4530173640631378
  0.3322381099325423  0.9383613242160002  0.5396412330959752
  0.1620272586449706  0.9370793082297961  0.5394982683483773
  0.4982148423388313  0.0007134809344598  0.1945476529322333
  0.8280322152908922  0.0599012628680589  0.2014583779705366
  0.6691688404517400  0.0599704898976612  0.2013365808256596
  0.7488692932372707  0.1256368861180775  0.2802877761326592
  0.5813037507320822  0.0632969549259290  0.2825442175317657
  0.9159666987965897  0.0633505423920503  0.2826274613379320
  0.4985974347156003  0.1254886749281378  0.3685816387947494
  0.8315035529708213  0.0631276572682843  0.3676934853807804
  0.6656312427942797  0.0631265287572090  0.3675598606969127
  0.7487903089114192  0.1250082248864069  0.4541014234989321
  0.5815236126744610  0.0628159030596116  0.4533486734039973
  0.9150040567514546  0.0627157895849541  0.4535987072816532
  0.4995291278712787  0.1259927907267625  0.1959466275316405
  0.8287129094764475  0.1913073726747037  0.2018729466158229
  0.6685442079799747  0.1911086509354375  0.2014656070075986
  0.7492604670827212  0.2508919426835009  0.2811943632609030
  0.5813215956455973  0.1878969383230414  0.2830691666208228
  0.9164139808483194  0.1879336930133699  0.2832896139331573
  0.4985989280029560  0.2505946488367039  0.3692049221616227
  0.8317666875478624  0.1880101490063959  0.3684263200621666
  0.6661710556549014  0.1879637938119389  0.3682083390843278
  0.7492419028488584  0.2482275988322075  0.4550055168003509
  0.5815298258811479  0.1871659859230050  0.4534363180815419
  0.9149948382835651  0.1877909142724813  0.4543080272254683
  0.8341712349315754  0.1842647992751373  0.5413847278060954
  0.4976418801268713  0.2497940067103057  0.1957579218061621
  0.8280350510298455  0.3094960707514776  0.2016113429583510
  0.6697270300408725  0.3095921012054092  0.2014339071317774
  0.7493581499195267  0.3745350554555755  0.2795447275079415
  0.5817865657313973  0.3129926700881379  0.2834076134419084
  0.9162257930830745  0.3131043194721935  0.2836174083037905
  0.4986357167378146  0.3752104399409761  0.3693351791971609
  0.8321561570178300  0.3129661477165712  0.3686354709639504
  0.6665562973022097  0.3127548311036796  0.3683160024532636
  0.7494708525657801  0.3763676519293147  0.4550149031329512
  0.5852733069482497  0.3126839245988721  0.4552571068752522
  0.9164079620552164  0.3128572916262529  0.4560313454011190
  0.4995014865099074  0.3758989784913330  0.1959988659432960
  0.8341708359989515  0.4390034941252397  0.2027123736376951
  0.6638155113676860  0.4387937417580553  0.2025060201205968
  0.7486773465606228  0.0008309145014817  0.2801319072317662
  0.5813882214518319  0.4378757691702065  0.2836182566949520
  0.9166486017763296  0.4379545678727083  0.2840162291790676
  0.4984137136609062  0.0005115952666901  0.3680920980051302
  0.8320852705336672  0.4380388973051155  0.3686926784835393
  0.6673046449703083  0.4379833303145382  0.3678247073290147
  0.7480303215120278  0.0003802222790728  0.4539495945629773
  0.5831315654061514  0.4380627928752319  0.4521860308659519
  0.9162544061017043  0.4378492192908688  0.4555088619669841
  0.8310942251040525  0.4394438483056467  0.5425883143507074
  0.4963604505836082  0.5002877210919784  0.1962387915554981
  0.8337901507313256  0.5618479677669733  0.2026409107928279
  0.6638326016509960  0.5620142179806292  0.2023946307655576
  0.7490308300904466  0.6264637342077713  0.2789533769878899
  0.5812921458327246  0.5631598856875407  0.2832978428818460
  0.9164973713057506  0.5630942172441110  0.2835899957152649
  0.4982082419480013  0.6259510183356098  0.3686506926619396
  0.8319923677918534  0.5633313808444554  0.3680005364035717
  0.6666056408988907  0.5634396171980194  0.3672921148487324
  0.7483660129963025  0.6258631959622670  0.4538750747440590
  0.5832045122320580  0.5631349713554173  0.4530207720675977
  0.9149770150003618  0.5634123496609438  0.4552238486874465
  0.4991903881456337  0.6248523963409345  0.1956022644467101
  0.8278698780531072  0.6916663149546518  0.2010345711155284
  0.6693753260773018  0.6915235900597992  0.2009929349836402
  0.7487399992441126  0.7507374969904805  0.2805751282636336
  0.5814414330985150  0.6881251017034189  0.2828587687314528
  0.9159045042583757  0.6880730976450207  0.2829683380920516
  0.4982752617928550  0.7506095726785997  0.3685921069581343
  0.8316835852200234  0.6884675132594060  0.3679019805073606
  0.6657314290149123  0.6885177153603685  0.3679051367043256
  0.7475836381322628  0.7528502027553686  0.4543040401451902
  0.5833523249949764  0.6889197431084785  0.4542580324543142
  0.9144772841113422  0.6887291616527944  0.4549234709124083
  0.8355756089092239  0.6915712298420574  0.5432486491050995
  0.4971990561414567  0.7512707310874419  0.1952949973668861
  0.8283934623287941  0.8098820790675331  0.2014274303148897
  0.6684228767610272  0.8100870374368927  0.2012085105761530
  0.7485300817872359  0.8756774719409890  0.2799052351502373
  0.5809724780458138  0.8133442244491736  0.2826234592609815
  0.9160654402131513  0.8133662402577739  0.2826524025686652
  0.4982895121991802  0.8757911615765425  0.3682503055817877
  0.8311273496952635  0.8133652087754468  0.3677439944049780
  0.6655347662693176  0.8133743151669268  0.3677970922831378
  0.7478385343181869  0.8764237553645118  0.4538058095742015
  0.5806200310961577  0.8140893708089244  0.4531774730890444
  0.9143731495762808  0.8137835543750437  0.4536208256823868
  0.4991586266011850  0.8751139301932158  0.1955987458123971
  0.8279338037646712  0.9414916240724899  0.2012928601113857
  0.6688576641803812  0.9413589639480667  0.2010890871492440
  0.7494213894108852  0.5005995749124379  0.2781977661940381
  0.5810666853706971  0.9379464582964198  0.2823928047226504
  0.9159517459387316  0.9379737322232086  0.2824343745584795
  0.4985664818650543  0.5007032468430416  0.3690122669862893
  0.8312520203423845  0.9382715626447973  0.3674644014506604
  0.6654853925864315  0.9382596107507720  0.3674067887530954
  0.7501548371565593  0.5002330838860258  0.4539002454789002
  0.5816386429882239  0.9384188021627579  0.4530011628415272
  0.9144766623839595  0.9383478688389102  0.4529834390443864
  0.8324242782137343  0.9385800288838707  0.5397524469282787
  0.6628587675141424  0.9379727307522859  0.5396137033855312
  0.3343109016260439  0.0612496830072534  0.5409175227757107
  0.1621729980981895  0.0607042880175940  0.5404069087826615
  0.3365959410069347  0.3093813758852621  0.5433382649338360
  0.3297903694383927  0.5668069522312298  0.5413818200624779
  0.3336218856289497  0.8149190912480154  0.5419838477975546
  0.8340759878577673  0.0613062697213075  0.5408335654878261
  0.6624246036126120  0.0621590061425579  0.5404179634505705
  0.8406333255548517  0.3117650571690320  0.5432802083781154
  0.8401292963986420  0.5654417482256640  0.5438183472833901
  0.8331264588618463  0.8156841044764360  0.5412191465637520
  0.1657929669317226  0.1862233382344969  0.5407145020689194
  0.6645250385990088  0.1865166323568142  0.5400329221306530
  0.1638862106846364  0.8115258634988788  0.5404950279684333
  0.6615072207634504  0.8125504325730889  0.5414771766417908
  0.4040008060193007  0.0005992281760770  0.2309923030141566
  0.2484562844709851  0.0006953641350907  0.1760650624690696
  0.0930947549494047  0.0007595499317644  0.2311202326544339
  0.1522117429414827  0.1256086739614403  0.3157717885622902
  0.9987470594970708  0.1255587849354834  0.3020209550805691
  0.3450687500339607  0.1254946722458700  0.3155874347598339
  0.4000923156045073  0.1254334582070231  0.4017795679822641
  0.2485825899447719  0.1252913374792255  0.3866662611578621
  0.0969375300635878  0.1253846653241163  0.4019526310198694
  0.1500894498312085  0.1247403765372521  0.4871685212628012
  0.9983066933011007  0.1250706239979378  0.4734475094303153
  0.3474020392862670  0.1241031883002089  0.4871016958851102
  0.4036296298465947  0.1227387103174983  0.5680741409122639
  0.2485484397922853  0.1236084120914783  0.5571884936842929
  0.0903370170805112  0.1220325392760392  0.5670057659593819
  0.4046205036314359  0.1251473910755133  0.2312298859392811
  0.2486219792073375  0.1266312639203117  0.2074603494618041
  0.0927743573427869  0.1253154399205840  0.2314507431882337
  0.1525966407332104  0.2507567875944720  0.3163381044119208
  0.9987616912729825  0.2506849626706970  0.3026000659467059
  0.3449599567251647  0.2505802238930283  0.3158867510939537
  0.4002134326250410  0.2503999450129399  0.4025473810273436
  0.2489194135473790  0.2504360146154007  0.3871368504085098
  0.0964135001901278  0.2507293522089913  0.4028796047553056
  0.1506791885959706  0.2468130533448125  0.4865602206532259
  0.9987635134441678  0.2491974750730236  0.4755930755963082
  0.3486374998882394  0.2486156233841379  0.4887622388750982
  0.4006677442891843  0.2456618763652403  0.5733600552889124
  0.2505202475321813  0.2462147608868894  0.5587519868345026
  0.0846364082968040  0.2306420206285046  0.5730605436449113
  0.4047287160583866  0.2509812836995926  0.2318879383830411
  0.2486981262891719  0.2500096009165431  0.2059452907824450
  0.0928968409636577  0.2511675016777515  0.2322659044798693
  0.1512203721417938  0.3754767360658504  0.3170207934517555
  0.9988275143058850  0.3754686801542030  0.3029137228272698
  0.3462048081145249  0.3755019153711640  0.3164022515678532
  0.4000901268616976  0.3751190874796039  0.4026421236388228
  0.2490330305911455  0.3753499691893762  0.3870968044960814
  0.0961458627899167  0.3752852386849204  0.4034753149137996
  0.1510383198777990  0.3745061899849821  0.4851278775514929
  0.0000827195552374  0.3763190974824972  0.4778214144039593
  0.3478810768232162  0.3740553778603227  0.4884503774708537
  0.4005797951394551  0.3736377744696937  0.5715521328202974
  0.2543996909450084  0.3731637725756774  0.5639073836802015
  0.0590594887369843  0.3774789266848526  0.5999449321952615
  0.4046016806454056  0.3754320216144614  0.2318437506294598
  0.2485823852502339  0.3759032613157737  0.1765649961302941
  0.0929731481439020  0.3755029390351903  0.2323839499246383
  0.1512704557499424  0.0006603231327531  0.3155413898125039
  0.9986781456322342  0.0006718857866194  0.3012129888263398
  0.3458011121825971  0.0006018388211536  0.3154666285466520
  0.4000444979056468  0.0005884101242874  0.4014229832675534
  0.2485043610518986  0.0005402491130054  0.3864236514711277
  0.0968142805974311  0.0006167528170746  0.4013790203267299
  0.1496460119756414 -0.0000116861551823  0.4866428096579762
  0.9983212774522408  0.9998762234333906  0.4727855320094525
  0.3469989702241018  0.0003744029772118  0.4868170894739541
  0.4044543428084707  0.9981841657398201  0.5674548665822116
  0.2474427971101631  0.9998725994722526  0.5570482306305669
  0.0910193441180618  0.9987633944380883  0.5671230599348739
  0.4029059407208211  0.5003936631639384  0.2313113263147464
  0.2485606142118369  0.5002961525629763  0.2118145532706261
  0.0946168206552855  0.5003618587075549  0.2318776893859981
  0.1514721922089547  0.6255210238321858  0.3163133084084710
  0.9987264954130718  0.6256482263716480  0.3022498573626712
  0.3459344855381928  0.6255988565236495  0.3160584330279709
  0.4000860089117322  0.6260443913185985  0.4020637323288937
  0.2488455887942451  0.6261885394065134  0.3869178772962751
  0.0966106862153942  0.6265324173108217  0.4020644254133692
  0.1504198217318120  0.6243950103843831  0.4848795797112901
  0.9984836751495526  0.6272656978155594  0.4721421043358873
  0.3489028555350066  0.6265720323174691  0.4874808267811842
  0.3989200364737184  0.6287887403188894  0.5719078564674295
  0.2544579480970254  0.6289957553399890  0.5563336939630232
  0.0837499282274469  0.6501861633478517  0.5597812833775393
  0.4043014303419546  0.6254201651586951  0.2315106313508788
  0.2484444184850874  0.6246716044464151  0.1761578043829753
  0.0928871760041462  0.6253794106017109  0.2318657148581105
  0.1525713699730434  0.7505043343887001  0.3154702615536189
  0.9985010300279262  0.7506074602846914  0.3017867404105998
  0.3445742256094885  0.7505113689668040  0.3154070751342476
  0.3999224216004387  0.7510973224180101  0.4020309124091961
  0.2486044286600725  0.7506610672052973  0.3868862612747019
  0.0964324052102377  0.7505678051168344  0.4017458601238726
  0.1487909647827502  0.7539265914522020  0.4863558028456744
  0.9978405747554500  0.7522056565506838  0.4736021122430711
  0.3471032224798404  0.7525612523830683  0.4878078888972602
  0.3989840122805193  0.7542203176477718  0.5732368099705785
  0.2479262710775132  0.7542368480320544  0.5583758653985139
  0.0731091715967098  0.7669456136776400  0.5692988197926043
  0.4042488059779889  0.7500196651446329  0.2314038587011063
  0.2484262230980971  0.7509637806171985  0.2049040130348808
  0.0926773022726899  0.7499582832105971  0.2315725753263211
  0.1522602386278628  0.8757770410980709  0.3152156495750135
  0.9985784728413448  0.8756567537238676  0.3014652435083073
  0.3446622388143860  0.8757563087964892  0.3152011073347957
  0.3998177387097004  0.8755416047859321  0.4014545268787795
  0.2484419622421242  0.8757589303915212  0.3862614102877588
  0.0967741913966492  0.8756603408947398  0.4011883372914269
  0.1494041150118839  0.8749869680716755  0.4865410355301391
  0.9979521726635788  0.8769690244737869  0.4723821563592916
  0.3469431067714230  0.8759878177224466  0.4869243516314291
  0.4037619385186416  0.8783924664508712  0.5683145880614456
  0.2468331224999228  0.8751609025421874  0.5566212583624950
  0.0890475089408356  0.8766172226446275  0.5661354843603841
  0.4043121195930613  0.8760814436205590  0.2309046745114426
  0.2483993173448771  0.8748171387970021  0.2065488876944110
  0.0926856614841748  0.8761794466617860  0.2310351024346323
  0.1513274578229426  0.5004620332934906  0.3166459498269882
  0.9986702517568401  0.5006066582458369  0.3029632842573863
  0.3460824784937341  0.5004685562698831  0.3161336566609704
  0.3999055561692819  0.5005042855439720  0.4022392133722651
  0.2488492851435382  0.5004550558921954  0.3871188757324723
  0.0970344138029033  0.5000897618469478  0.4030530678545385
  0.1508552521043232  0.5027622939785049  0.4875453018086160
  0.9991010232740405  0.5008675225788893  0.4752744843147770
  0.3479465916723694  0.5021490279723074  0.4881557960038336
  0.4016723329483126  0.5037832543805230  0.5733359692020622
  0.2581251194724537  0.4975170816117091  0.5595609016576869
  0.0716435286682076  0.5242217127975611  0.5842544077603740
  0.9047017691095843  0.0007147019186493  0.2309008123618768
  0.7484823644800049  0.0006635678328550  0.1762104643177466
  0.5925128861601753  0.0006487690908273  0.2308323075877690
  0.6515421769576902  0.1257331656219102  0.3155084894494293
  0.4985973668334988  0.1254976214530792  0.3017712054470635
  0.8460070795885292  0.1257906029588902  0.3156793923411531
  0.9000896479773119  0.1254429721655210  0.4020253034274681
  0.7487757438224144  0.1253463606405993  0.3864659018595328
  0.5969842283933047  0.1252819052487593  0.4015675750418579
  0.6501526267814601  0.1248357372480117  0.4866478740907171
  0.4983898419078371  0.1251443180372980  0.4729389235405779
  0.8471886539723108  0.1242971067503983  0.4870952548904126
  0.9027077526557231  0.1223486446241912  0.5686118818945490
  0.7476722891132543  0.1241927086644113  0.5571418960859860
  0.5908004604621978  0.1261814020334089  0.5661784604980601
  0.9035740403330732  0.1259088462106532  0.2309639918424196
  0.7486812918246658  0.1258412512555574  0.2103779335456573
  0.5938613520260676  0.1257838021381560  0.2308509040609952
  0.6515329947565519  0.2503036946165271  0.3160360172458014
  0.4988552978812383  0.2505990165317166  0.3022152483965569
  0.8466216575509888  0.2505038565708304  0.3164124860883337
  0.9002435852658056  0.2507994905313576  0.4031132462679560
  0.7493227763814315  0.2505340097632337  0.3871624611106752
  0.5971611207275246  0.2507705938817118  0.4021191013376308
  0.6505308101328056  0.2463028586321075  0.4863442479789370
  0.4995464266515387  0.2496836367308657  0.4740952446505972
  0.8479697777567986  0.2491810979294821  0.4892328112717160
  0.9025832325649787  0.2445414592816789  0.5732662540913277
  0.7505558958777433  0.2461039493062231  0.5610715243985535
  0.5838394247864267  0.2398741636900727  0.5702330103333106
  0.9049354511825118  0.2508370431114900  0.2316401491216431
  0.7487339232242477  0.2501641330374775  0.1764107221969969
  0.5929199702457378  0.2507356607520541  0.2313865888611120
  0.6527918127647715  0.3753514627651414  0.3156571402322828
  0.4987917182982868  0.3754289361382662  0.3023422149869228
  0.8456923437437034  0.3754033889541498  0.3162128186168738
  0.9004467100813279  0.3755496617712284  0.4035223475590915
  0.7495751511719767  0.3751529071620860  0.3871245195983278
  0.5977861083200064  0.3744911714224474  0.4015834609814464
  0.6514032754580327  0.3777647299254733  0.4862230657528022
  0.5000418932897931  0.3747768093917846  0.4720749123751383
  0.8488436991927356  0.3761540038116616  0.4891804566512289
  0.9040214382426254  0.3801517564601716  0.5701799955790783
  0.7575273535134730  0.3718561962893636  0.5588445978035201
  0.5831383751335286  0.3766910906287162  0.5703794698275257
  0.9049161672807653  0.3751694610466165  0.2320427236183332
  0.7489727461753422  0.3751879723234899  0.2075103624196002
  0.5928653032944590  0.3750897403609188  0.2317246283672944
  0.6510340521517326  0.0006437718551663  0.3153073139605898
  0.4983621542937647  0.0006111369304875  0.3010916746518961
  0.8461097544286497  0.0006901103138899  0.3153995762817819
  0.9000064335954662  0.0007468120199744  0.4014486286874708
  0.7484152690311396  0.0006396188257640  0.3862155169100266
  0.5967347296798005  0.0007094253756545  0.4013305639999972
  0.6494516459189097  0.0006795489822040  0.4867623459169642
  0.4982772227244895  0.9997148991651380  0.4732179561459424
  0.8466506900931988  0.0005932212428652  0.4866020239142184
  0.9046347501836030  0.9993403806312229  0.5674729524313633
  0.7473809457242094  0.0006674772633218  0.5570843381546040
  0.5911280679077364  0.9996612512800218  0.5671756859620881
  0.9065906818163056  0.5003728402895210  0.2318393274973066
  0.7487162480595916  0.5003378822434867  0.1978471897440553
  0.5914066265443052  0.5003523781888717  0.2314425543446810
  0.6525347866784491  0.6259712172828287  0.3151895865617769
  0.4985225866409965  0.6256642990104628  0.3017729775550922
  0.8452802852847799  0.6258240664743944  0.3155416907983171
  0.8995392736415025  0.6259542603204458  0.4023688055489036
  0.7491170318852367  0.6259410076314145  0.3862691460515457
  0.5970838383421182  0.6260069503814312  0.4010869412656954
  0.6500534206934685  0.6249889851016200  0.4832071255170078
  0.4998461871461518  0.6264326783045396  0.4713577157305488
  0.8469808256646048  0.6262796411996201  0.4877344806583343
  0.8988320781510568  0.6303912002795242  0.5713410462999146
  0.7469656673026285  0.6258109173517586  0.5554129354897779
  0.5848416033372937  0.6377137285467784  0.5601288579859786
  0.9048168109572756  0.6258543868975981  0.2315092337707158
  0.7487477278735006  0.6259062767943703  0.2068244669680726
  0.5925968585396952  0.6259388907860034  0.2312973065093537
  0.6510687635689368  0.7508979283959676  0.3155726731833059
  0.4984578406976736  0.7505840768016673  0.3016371187366196
  0.8461202395823212  0.7508271414040985  0.3156769891212961
  0.8995893476528896  0.7509261528795335  0.4021022837820764
  0.7485447485310468  0.7508240686580303  0.3865748474826956
  0.5966135381418285  0.7507277888347447  0.4017155713048061
  0.6491115757577134  0.7544038107806730  0.4860706762826601
  0.4984801993967438  0.7518538570131170  0.4740333472449678
  0.8464652343731149  0.7523936441657686  0.4875243196397497
  0.8977031225708290  0.7550755871764532  0.5706565116621961
  0.7466657959108444  0.7544339468177856  0.5581397811845311
  0.5795953427771272  0.7605427780185444  0.5716376161111513
  0.9047318321341667  0.7503393706397508  0.2310021124322375
  0.7484211375621040  0.7509809497674186  0.1759702503482458
  0.5925526524898729  0.7503958992291271  0.2308809710794088
  0.6511902991970362  0.8756506536807568  0.3152066313137106
  0.4982715727403546  0.8756172475614948  0.3014334753682855
  0.8457236019796717  0.8756996265087461  0.3152445263326862
  0.8997113026032800  0.8757919640464413  0.4013683528718343
  0.7483098580308287  0.8759664703457659  0.3860946555943925
  0.5967892883539979  0.8759705758542884  0.4013153311984297
  0.6491569267119294  0.8754063883638309  0.4867224359178858
  0.4980554947002082  0.8771076885133180  0.4730478044670642
  0.8464037617416055  0.8763894906539679  0.4865827903937073
  0.9021690362146221  0.8789462996443180  0.5682125047845653
  0.7465457921154913  0.8758283600607282  0.5567700220949369
  0.5914535160641308  0.8776982430141848  0.5673567676228299
  0.9034215694854899  0.8755277635027312  0.2305399823375370
  0.7484795085261965  0.8755238686130956  0.2100401631403681
  0.5935201095655174  0.8755042417653337  0.2305103847712025
  0.6535821725362656  0.5005803113103793  0.3151052553117813
  0.4988827122898321  0.5005050603259458  0.3022366088132240
  0.8449001209417621  0.5005488247397152  0.3157303922115766
  0.9001801720575833  0.5007413220530325  0.4030566666068618
  0.7495136339253694  0.5010902868318219  0.3861808658541387
  0.5980006860102154  0.5012717203769383  0.4006913208958416
  0.6522897042612884  0.4996030930298311  0.4836557660001218
  0.4995877481096765  0.5011279852690655  0.4708862807719507
  0.8474627815181585  0.5003061937865463  0.4890401546505837
  0.9024011511762574  0.5011607286208889  0.5717007223739879
  0.7570638720039832  0.5038367786496225  0.5640115918797075
  0.5901449877335674  0.5141206229663197  0.5598859738746920
  0.9954615949131022  0.8817522855400306  0.5388520472748822
  0.4968875537022928  0.8830918612857989  0.5400065577759476
  0.9974954157490495  0.9946962931534963  0.5391696078285618
  0.4979901615083053  0.9912242225581317  0.5399029425933117
  0.9975537436413933  0.1268266419300117  0.5401264949482136
  0.0022990105024221  0.3918509298681601  0.5474442157598397
  0.1940421801951596  0.4384188558697588  0.5269823559083212
  0.9892630665315446  0.6403135327388276  0.5374393086057238
  0.1853472731461996  0.6859829074814277  0.5295930108455437
  0.4970594715322862  0.1301792748425678  0.5392764988619266
  0.4934167581098369  0.3748438613945861  0.5383559797012203
  0.6158639818529955  0.4415052774239071  0.5373611881349732
  0.4928492908996285  0.6318048645498859  0.5374870955238001
  0.6860474373013307  0.6883288372662383  0.5293448427202561
  0.9957908762317290  0.2350644372559947  0.5419727103878255
  0.1904971541449585  0.3106658244647460  0.5286016856126455
  0.1074425010448836  0.5762477238396987  0.5423501742043164
  0.9920391176453842  0.7594705225258526  0.5407532284932214
  0.9940375187671552  0.5001850146087058  0.5433850343743258
  0.4966238108063454  0.2431832375932608  0.5412787774701676
  0.6942347106523199  0.3132266539009148  0.5270627078901721
  0.6913571905290883  0.5607334376106126  0.5314335120470424
  0.4934826411887085  0.7553820389357979  0.5406231092878068
  0.4930259232726714  0.5091853794786720  0.5368831584503067
  0.4397996673852708  0.3918146899670711  0.6281269308898150
  0.5811892982105278  0.4141877534038759  0.6273294134179013
  0.4987839367127974  0.4411234772759157  0.6892181819177995
  0.7827894506802802  0.3272938917825815  0.6780104859499149
  0.8616763858509230  0.3745734667932774  0.6270941984450603
  0.1658495801678226  0.3839737159970324  0.6020011114706559