Ta  N  W Cu                             
   1.00000000000000     
    18.1096308199999996    0.0000000000000000    0.0000000000000000
     0.0000000000000000   23.3551997799999995    0.0000000000000000
     0.0000000000000000    0.0000000000000000   30.4818171199999988
   Ta   N    W    Cu
   228   240    12     1
Direct
  0.0000020448270703  0.0000564492568671  0.1975311650927978
  0.3341636349771733  0.0625662559731452  0.2026723922793678
  0.1657520579209404  0.0625966067742283  0.2027792235597730
  0.2498756047161308  0.1251109145006453  0.2779186912329337
  0.0827685780036020  0.0626205112059282  0.2841380063736452
  0.4170739611831493  0.0625985122582051  0.2839754044106826
  0.9999810663502799  0.1251603600572651  0.3699279797124007
  0.3324432717461363  0.0626474817780860  0.3684041235425184
  0.1672937371980225  0.0626566425799737  0.3684352634241179
  0.2502711867427010  0.1255164291167787  0.4550471887351506
  0.0839178916844858  0.0626505180463894  0.4546912739895603
  0.4161043672640474  0.0626687721320636  0.4542841146160512
  0.9999839602388292  0.1252778075213570  0.5411131342488389
  0.3353145691215786  0.0630324684788235  0.5418640510242483
  0.0000020704887547  0.1250733034420080  0.1975256440531226
  0.3341475070290940  0.1875531088185411  0.2026766185882920
  0.1657472916465750  0.1875585321277242  0.2027658749701189
  0.2499416916498447  0.2501057115657517  0.2779156047570694
  0.0827040416172764  0.1876224796111927  0.2841125230169581
  0.4171365360467121  0.1876018998464275  0.2839985924023694
  0.0000283873618017  0.2501587250673936  0.3699120621972156
  0.3324397614380814  0.1876324141869645  0.3684316138978829
  0.1673646331641621  0.1876406861295337  0.3685157688275069
  0.2505027100387807  0.2497862500641617  0.4550497548713750
  0.0836295429084188  0.1876443034406989  0.4547656043474859
  0.4162372628691102  0.1875714926154473  0.4543146055219154
  0.9999727768089315  0.2500594148862945  0.5411610907811379
  0.3358311739874011  0.1871311422627144  0.5416684445573594
  0.1656573905595451  0.1874665256257941  0.5419505207673012
  0.0000016695544574  0.2500329538991437  0.1975364492382710
  0.3341621494237188  0.3125621895276112  0.2026687321496610
  0.1657435604242536  0.3125895711525573  0.2027688409003474
  0.2498907110023367  0.3750977935310615  0.2778817311218091
  0.0827725071671352  0.3126227865202367  0.2841317449174028
  0.4170900929451591  0.3125961850350123  0.2839703665865940
  0.0000843816302805  0.3751388426120741  0.3699659816710152
  0.3324365176583726  0.3126359423847731  0.3684067095255159
  0.1673313778933831  0.3126462341247773  0.3684431890698292
  0.2502887931724871  0.3755401968220440  0.4551247617239511
  0.0840047203617260  0.3125879697454650  0.4547432783803771
  0.4160607045552212  0.3126260357942172  0.4543315560459931
  0.9996809976758527  0.3751417580358947  0.5410435195999739
  0.3351285280492320  0.3124919233090324  0.5419145319317238
  0.0000034716704747  0.3750797900004770  0.1975291017352490
  0.3341372469317321  0.4375513716930328  0.2026779026764842
  0.1657446565398502  0.4375516872811076  0.2027659030083058
  0.2499410725707634  0.0000969184997075  0.2779221378618146
  0.0827011962738240  0.4376206850933002  0.2841211016350087
  0.4171766623833051  0.4375926795430942  0.2839845092572446
  0.9999849335031072  0.0001353673651394  0.3698918804163824
  0.3324420795244833  0.4376148139791525  0.3683984906261060
  0.1673901548118408  0.4376188395644789  0.3685108107473170
  0.2505071215724755  0.9997811089203239  0.4550411521049966
  0.0838082168349032  0.4375449599626080  0.4548826288473578
  0.4160317180522384  0.4375212384356217  0.4544173172675983
  0.9999632364293944  0.0000757551724959  0.5411345428106955
  0.3366494316758164  0.4363028294764959  0.5421601390325392
  0.1649342196304886  0.4364874322334273  0.5424024524204540
  0.0000039600767607  0.5000381978076405  0.1975413344503778
  0.3341536377161631  0.5625530005176387  0.2026761021386392
  0.1657462487009198  0.5625838949479984  0.2027830000483632
  0.2498797050539991  0.6250961353560953  0.2778519929348491
  0.0827772472254722  0.5626199801670353  0.2841543199755705
  0.4171141739981863  0.5625991611374346  0.2839653859474751
  0.0001308423113073  0.6251728172402622  0.3699980157235672
  0.3324347240428835  0.5626419065903576  0.3683722958840363
  0.1673037938021551  0.5626471023012556  0.3684774663966763
  0.2501915341435463  0.6255077930727353  0.4549668594408303
  0.0841110523875059  0.5626452841462353  0.4546977020686640
  0.4160126051402244  0.5626845343384232  0.4542639086150118
  0.9992950000972982  0.6253447228595306  0.5410471623182005
  0.3383847149043930  0.5629602780474983  0.5410631134719637
  0.0000073295262695  0.6250852473520112  0.1975354648010708
  0.3341396629315980  0.6875517043116446  0.2026762117959748
  0.1657567762160852  0.6875452772754258  0.2027673316926979
  0.2499500939105346  0.7500956860951291  0.2778892117579304
  0.0827099360522894  0.6876120435180226  0.2841194838430425
  0.4171751566776862  0.6875981531201489  0.2839908447381205
  0.0000842389735283  0.7501566843553817  0.3699255434233635
  0.3324322821908794  0.6876565098742162  0.3683926381833160
  0.1673859587767694  0.6876602716601283  0.3685130871548665
  0.2505105095131483  0.7497828022487525  0.4551040813413110
  0.0837967232023971  0.6877931113386424  0.4548450201339449
  0.4160609157006050  0.6877154146828062  0.4544064706570339
  0.9997270649270789  0.7502281281166248  0.5410743691266404
  0.3367351926949738  0.6884922047380329  0.5420436217496061
  0.1650524101501958  0.6889759854717425  0.5423626046388250
  0.0000080743327047  0.7500632772272979  0.1975318684538721
  0.3341592439393466  0.8125597946149199  0.2026671323226381
  0.1657578930581991  0.8125955104700822  0.2027742452867685
  0.2498800375408052  0.8750968567230757  0.2779127237921344
  0.0827764685730017  0.8126168003898186  0.2841351397449259
  0.4170920806629468  0.8125994026156036  0.2839687416770502
  0.0000226441562887  0.8751419798632938  0.3699387528191380
  0.3324342009031866  0.8126542599819757  0.3683883483664872
  0.1673366176810518  0.8126636321858172  0.3684363153773518
  0.2502737729761364  0.8755049924968361  0.4550504808140872
  0.0839860188126735  0.8127185769549499  0.4547149102759533
  0.4160726752802049  0.8127369808888574  0.4543118717396268
  0.9999875477388329  0.8753034896217216  0.5411370002827027
  0.3353056080705272  0.8135026201473039  0.5419476569775128
  0.0000018951459637  0.8750956760663158  0.1975233785761574
  0.3341510347204206  0.9375491982476944  0.2026754233455321
  0.1657491418292665  0.9375575038900053  0.2027646275195423
  0.2499481176643954  0.5000850847196077  0.2778621820084410
  0.0827102222124267  0.9376090045666388  0.2841128568787923
  0.4171355169577708  0.9375935796725869  0.2839995520179386
  0.0001371331151176  0.5001186048711830  0.3699748731251304
  0.3324329473384395  0.9376438914430949  0.3684267921533717
  0.1673664566936068  0.9376485163326649  0.3685132638406898
  0.2504048920643172  0.4998076586563158  0.4549675873133410
  0.0836181917304515  0.9377145478852427  0.4547657132005583
  0.4162442012599641  0.9376354313414552  0.4543057935934058
  0.9993132774908489  0.5000054721277820  0.5410806367860346
  0.3357682440070846  0.9375635294471323  0.5416481307169505
  0.1656530150637181  0.9379236578123198  0.5419505650164638
  0.5000001065958557  0.0000666892560091  0.1974792892987551
  0.8342455054488340  0.0625967422979627  0.2027850783697644
  0.6658363921138459  0.0625674110666523  0.2026790269762486
  0.7501120809041950  0.1251111728738081  0.2779166499349159
  0.5829256396104299  0.0625984153284662  0.2839838467357794
  0.9172230459460238  0.0626207441302356  0.2841382080086206
  0.5000013260316720  0.1251359016478304  0.3696429891365653
  0.8326869905725118  0.0626542177138916  0.3684417948248111
  0.6675276595720305  0.0626485462316850  0.3684326466106356
  0.7497137282058617  0.1255091012102270  0.4550544812808610
  0.5838899912079469  0.0626638899995413  0.4543292247634767
  0.9160555185739412  0.0626440120562108  0.4546945558176958
  0.5000591179098421  0.1251257634937559  0.5410464162924242
  0.6647912563693126  0.0630461058929797  0.5418600838845933
  0.5000003867284093  0.1250723429677336  0.1974617093650508
  0.8342564962224586  0.1875584402700738  0.2027704175787051
  0.6658543922594689  0.1875520646451179  0.2026812169755488
  0.7500432683341174  0.2501031456894651  0.2779110051883933
  0.5828684814064999  0.1875995060026696  0.2840019549706554
  0.9172917900188864  0.1876223749271588  0.2841098374673621
  0.4999812866141085  0.2501188923070856  0.3696219463490564
  0.8326371946363267  0.1876464234412722  0.3685126338047908
  0.6675266188774955  0.1876383382832429  0.3684492695210437
  0.7494961440834302  0.2498005851927019  0.4550380522434523
  0.5837445954517904  0.1875948727882104  0.4543152692669992
  0.9163678211598523  0.1876742724361904  0.4547603874247272
  0.8343576254770539  0.1876475821891219  0.5419238251212306
  0.6643159777311780  0.1873242904893502  0.5416312455310148
  0.5000023528770754  0.2500267200587203  0.1974764232907589
  0.8342492487395674  0.3126061497775652  0.2027841545457747
  0.6658391316055088  0.3125671612331757  0.2026793397552566
  0.7501082360979439  0.3751043862460293  0.2778921983812594
  0.5829117588260360  0.3125956241030963  0.2839739374326982
  0.9172519514184785  0.3126202676469845  0.2841366854780603
  0.4999209614376809  0.3751392713087682  0.3696777339300041
  0.8327096848867157  0.3126659868964552  0.3684317423192667
  0.6675055929545266  0.3126596686795367  0.3684198588304568
  0.7497280275914022  0.3755015668051342  0.4550239728508032
  0.5838613213785138  0.3126501184733570  0.4543133805197783
  0.9160650812266766  0.3126216399023676  0.4546804445826069
  0.5004169289991083  0.3749950770692365  0.5409545715207358
  0.6648662524349049  0.3129572354049941  0.5418041317536435
  0.5000030057383640  0.3750662801109144  0.1974525335302602
  0.8342444712165928  0.4375574819626138  0.2027778199650996
  0.6658624234958381  0.4375554206841343  0.2026896712617798
  0.7500432015097687  0.0001026101748636  0.2779224439549068
  0.5828315744113013  0.4375923180082495  0.2840011727423928
  0.9173294183127396  0.4376192749070000  0.2841168992958814
  0.5000094271531879  0.0001161999144159  0.3696078747655918
  0.8326700157829663  0.4376557194731063  0.3684852665306337
  0.6674631915666751  0.4376462456360173  0.3684369119788897
  0.7494902415344527  0.9997811809225254  0.4550503579241862
  0.5836665148020472  0.4376039808667969  0.4543258658630052
  0.9164625654594616  0.4376555211056399  0.4547452071226417
  0.8342828575473504  0.4376274532834543  0.5418706431985925
  0.6644810173780940  0.4373607583966646  0.5415607234353246
  0.5000110799199291  0.5000478354734597  0.1974658194483752
  0.8342399130665044  0.5625956155147662  0.2028069215444148
  0.6658426192909346  0.5625668925171183  0.2026977453205632
  0.7501059992866956  0.6251246825651293  0.2779022095373875
  0.5828807526017741  0.5625986095441320  0.2839889643944815
  0.9172801996257718  0.5626218710902293  0.2841491631664468
  0.4998700681215666  0.6251534281489342  0.3697071546661874
  0.8327255572912264  0.5626564918677914  0.3684221735165707
  0.6674587234990028  0.5626539950762108  0.3684310705531502
  0.7497451905603327  0.6254842255027739  0.4550157618658304
  0.5837267242284483  0.5626826051168976  0.4543649454729319
  0.9162140612645828  0.5626485886609061  0.4547099553033718
  0.5008078119775234  0.6252388057702873  0.5409718565215371
  0.6649679113844940  0.5630128937309280  0.5417837354864190
  0.5000116186754298  0.6250914300763455  0.1974489285725909
  0.8342442902109255  0.6875647689384081  0.2027791781980923
  0.6658558398836121  0.6875596104571429  0.2026898495503744
  0.7500409083823030  0.7500977604858932  0.2778997477598892
  0.5828355293079781  0.6876047546576345  0.2840008552247326
  0.9173367171614544  0.6876197828111472  0.2841112812395963
  0.4999330173184120  0.7501221321516667  0.3696352190089698
  0.8326666642715281  0.6876342006973886  0.3684817631941399
  0.6674775899069019  0.6876295495818638  0.3684368868486700
  0.7494920768406388  0.7497927774777153  0.4550109079332572
  0.5836778824501181  0.6876298652075974  0.4543220703389110
  0.9164663694935626  0.6877012921225827  0.4547333481651776
  0.8343120106724271  0.6877669298379985  0.5418566570910173
  0.6645670640337258  0.6873818245799086  0.5415902455274377
  0.5000052552103611  0.7500696523139041  0.1974692596504113
  0.8342336146194498  0.8125950894721257  0.2027868735655858
  0.6658346987462451  0.8125630438847722  0.2026805015859452
  0.7501084492975281  0.8751132625361748  0.2779094826498323
  0.5829063844472984  0.8125969910536028  0.2839820292225994
  0.9172528448693740  0.8126204351318975  0.2841360772828381
  0.4999762476363330  0.8751298467759341  0.3696510509261230
  0.8327169041426217  0.8126441547636460  0.3684260055677839
  0.6674979590856296  0.8126360995112520  0.3684302938288795
  0.7497286936263947  0.8754782020456275  0.4550407605534375
  0.5838752136420879  0.8126872520345856  0.4543132211210050
  0.9160832854348868  0.8126680076276855  0.4546860393470240
  0.5000820101505568  0.8751908549311054  0.5410423944212752
  0.6648703173179342  0.8131032644587108  0.5418027529763805
  0.5000063397183681  0.8751180283480053  0.1974629046709353
  0.8342424100060413  0.9375534908777894  0.2027698941289557
  0.6658478769396439  0.9375597063811156  0.2026814833194948
  0.7500390455033781  0.5000913940361471  0.2779026675104390
  0.5828712730104755  0.9375983677376212  0.2840036183365910
  0.9172937214942394  0.9376138844199247  0.2841104673154788
  0.4998688395117910  0.5000909327001892  0.3696865734049197
  0.8326409803899821  0.9376390075133401  0.3685099975228709
  0.6675269458443509  0.9376282314008648  0.3684516020029918
  0.7495104842137650  0.4998169622607307  0.4550029154877464
  0.5837431549926393  0.9376039882014737  0.4543229235322244
  0.9163733454022847  0.9376803345982907  0.4547533483517228
  0.8343548944850099  0.9377338914819049  0.5419216563335354
  0.6643388909287680  0.9373918985234440  0.5416335252863718
  0.4055695460568884  0.0000661129360893  0.2322719587931488
  0.2499400673586578  0.0000769543403649  0.1994090101658514
  0.0943127117547604  0.0000890561869369  0.2323921966086431
  0.1549898252427582  0.1251744821949927  0.3158563358048951
  0.9999963196270585  0.1251084484917087  0.3032428810570380
  0.3449757730207779  0.1251389841130788  0.3157622822547523
  0.4008856447128650  0.1251800800965341  0.4021940798483143
  0.2497849615304233  0.1251173615767271  0.3872560295238827
  0.0989991861417892  0.1251595990385681  0.4024836300054915
  0.1523971201075085  0.1250228827895299  0.4877242181916230
  0.0000018652831031  0.1250025511054531  0.4731791711156248
  0.3483752429886238  0.1251489934089989  0.4878866410835627
  0.4026756265784215  0.1252251466756107  0.5703267373070346
  0.2492745092808093  0.1238573797965543  0.5576342237627117
  0.0987610283774671  0.1230577787187741  0.5696151475278910
  0.4055862349909063  0.1250871881774174  0.2322463534274917
  0.2499640134629075  0.1250614455012169  0.1993035218794574
  0.0942933727926345  0.1250951332309072  0.2324066300110985
  0.1549722770546751  0.2501029746794359  0.3158306717663919
  0.0000154847459584  0.2501525697413811  0.3032517827184762
  0.3449387253539626  0.2501089654865751  0.3157858521451189
  0.4009005608267344  0.2500797172570444  0.4021130616848865
  0.2499150997898241  0.2501777127703235  0.3872457978984087
  0.0990945822282114  0.2501391480904971  0.4024949651694598
  0.1526355862352986  0.2502058647137204  0.4878171244205518
  0.0000200100146444  0.2503369129402628  0.4732907913671909
  0.3483862430779752  0.2500732615809937  0.4878857305700706
  0.4072944126786666  0.2498290647001653  0.5696286136315152
  0.2498775878385402  0.2512114929360934  0.5581735359203321
  0.0988432753549233  0.2520296527726273  0.5697291659928538
  0.4055783287965937  0.2500670103902394  0.2322680627411415
  0.2499289278432926  0.2500713621646469  0.1993861273290776
  0.0943068090097938  0.2500956429664924  0.2323957970332273
  0.1550214227528315  0.3751733722884723  0.3158619480874023
  0.0000315168708553  0.3751201638334223  0.3032719086661757
  0.3449596068754417  0.3751357716912409  0.3157515241048543
  0.4007885236979547  0.3751708583475519  0.4022319788497626
  0.2498136459857463  0.3751180497371678  0.3873179785202154
  0.0991278258286599  0.3751411314851083  0.4025302356447611
  0.1525158252492460  0.3749190750916611  0.4879056663609660
  0.0000667769441023  0.3749780593322001  0.4731481492220979
  0.3483100972924404  0.3751078307068241  0.4880410240419124
  0.4028039992159549  0.3750621863700445  0.5704398790626968
  0.2493639499564040  0.3740271890678528  0.5580190463555468
  0.0986378090871369  0.3729305550132480  0.5697308808822825
  0.4056033330725555  0.3750923530329118  0.2322421119380778
  0.2499537011641735  0.3750528552200478  0.1992586917897299
  0.0942966047910474  0.3751057163843612  0.2324131212382952
  0.1549676583290207  0.0000879872396524  0.3158279068848131
  0.9999991177899190  0.0001358591831746  0.3032339033540765
  0.3449406643958639  0.0000965142826885  0.3157842397399548
  0.4009294806025707  0.0000847140532372  0.4021048082459302
  0.2499060540430165  0.0001701201859490  0.3872377594658118
  0.0990416405386085  0.0001587297227417  0.4024779674954289
  0.1526157028238373  0.0002966133773725  0.4877586824312985
  0.9999955801255069  0.0003429178249021  0.4732548667218239
  0.3484051207435002  0.0001696790276213  0.4878420324897448
  0.4073773356705104  0.9999730750615754  0.5695957503273306
  0.2499073302538903  0.0012863330767061  0.5581533789450361
  0.0987648780581978  0.0022445747927620  0.5696777778452073
  0.4055930030789909  0.5000631761779886  0.2322661176372947
  0.2499271519252062  0.5000677057820084  0.1993415696210263
  0.0943230764796397  0.5000919582477010  0.2324079456897010
  0.1550312998016281  0.6251728881822629  0.3158680052201177
  0.0000450142508726  0.6250935129377098  0.3032941879489144
  0.3449274737799684  0.6251389114922716  0.3157344426419542
  0.4006898200503386  0.6252384022619211  0.4022222780625313
  0.2498229897150850  0.6251206350000089  0.3872366778932985
  0.0991860000499472  0.6251965910782573  0.4025390712090555
  0.1526528214489602  0.6255741729930122  0.4880568918899826
  0.0001375394357126  0.6250379833144919  0.4731282354786970
  0.3480187376327208  0.6256351868765151  0.4881331617440594
  0.4034783837260250  0.6256443778299001  0.5704952559076020
  0.2491652747427082  0.6233597847362589  0.5607231149970247
  0.0979364373381912  0.6236908212828070  0.5698036134370668
  0.4056062534628850  0.6250891491475912  0.2322374882286766
  0.2499581626244449  0.6250555129836570  0.1992373384915140
  0.0943085461597164  0.6250880316219565  0.2324208953124085
  0.1549970412186923  0.7500808554355416  0.3158310686118568
  0.0000353872291754  0.7501243724980000  0.3032601332791813
  0.3449218443322550  0.7500938872835832  0.3157696484907007
  0.4008503778884034  0.7500911701436976  0.4021352403330667
  0.2499341922022609  0.7501739984432874  0.3872945192383526
  0.0991612269227744  0.7501711873443995  0.4025108596943525
  0.1527186509732061  0.7504135669314138  0.4879186225534227
  0.0000679659874763  0.7503495254864347  0.4732330598035333
  0.3483677978549764  0.7502478625922606  0.4879564770708242
  0.4073408999415449  0.7501119843608635  0.5696809417603461
  0.2500555187288853  0.7511341450268105  0.5584388839344001
  0.0986987136077460  0.7524348139816937  0.5697950121743034
  0.4055882567131519  0.7500609144558936  0.2322645683613302
  0.2499366981533058  0.7500746898917612  0.1993668266147282
  0.0943224319012543  0.7500838320505352  0.2323947914930571
  0.1549987997044937  0.8751631248055318  0.3158588472965107
  0.0000162418701066  0.8750934948862223  0.3032525214771269
  0.3449710790540763  0.8751278675020302  0.3157588341338240
  0.4008577820010899  0.8752053344712181  0.4021884905284949
  0.2497972213483877  0.8751096897340531  0.3872608676086458
  0.0990546607882195  0.8751731836760754  0.4024892552007131
  0.1523912287631646  0.8751216245196005  0.4877647788457296
  0.0000180205384339  0.8750083844898953  0.4732064696823173
  0.3483777000729731  0.8752707779187716  0.4879114778549365
  0.4026470555040760  0.8754628672779674  0.5703584489397713
  0.2492492452144361  0.8739845558649364  0.5576471664022122
  0.0988047613883580  0.8733111258198321  0.5696692920783946
  0.4055959212070803  0.8750886056462264  0.2322435554085800
  0.2499689822227609  0.8750691865026070  0.1992800919658677
  0.0943011161933143  0.8750876879741796  0.2324041143235220
  0.1550104267570944  0.5000780655010573  0.3158357949481143
  0.0000447496071345  0.5001470872599398  0.3032958763840554
  0.3449072501564743  0.5000868302443635  0.3157645922544177
  0.4007305803073393  0.5000506773414628  0.4021503497906451
  0.2499380531063906  0.5001577695642112  0.3872198267647917
  0.0992349600372577  0.5000968966037220  0.4025487727288422
  0.1528713832275415  0.4997712056997514  0.4880993383673342
  0.0001347597270964  0.5003092914066229  0.4732115200440461
  0.3480678433403455  0.4996966010353674  0.4881104390678459
  0.4079329780952889  0.4996849309252767  0.5697647204195562
  0.2500688586509128  0.5021172675439942  0.5614017145052301
  0.0979854178640380  0.5016693634264797  0.5698713178601054
  0.9056917464343641  0.0000972757903170  0.2323925207272168
  0.7500590992701888  0.0000776900760115  0.1994225768957989
  0.5944202567641454  0.0000721320963137  0.2322738732168474
  0.6550213110465961  0.1251342864397742  0.3157708502737648
  0.4999995566532149  0.1250902542586090  0.3029901836418389
  0.8449987449961185  0.1251706141450200  0.3158549330486267
  0.9009820376814943  0.1251653758722142  0.4024870160527030
  0.7502062003836159  0.1251199381064225  0.3872527347336856
  0.5990953109016885  0.1251790020170063  0.4022148979953926
  0.6516155580322263  0.1251946037744176  0.4878909255018300
  0.4999912816060288  0.1250447629242188  0.4730092434029700
  0.8476067633092441  0.1250444831166320  0.4877114008533709
  0.9012154482543338  0.1231020353768457  0.5695710877349001
  0.7507530726828548  0.1238816506941305  0.5576038927960809
  0.5974160332638547  0.1253059486249981  0.5702983736390621
  0.9057108786113233  0.1250940258356152  0.2324068719170285
  0.7500347346284286  0.1250662351378224  0.1993252147829381
  0.5944073209469281  0.1250859603497148  0.2322466405330275
  0.6550597801318148  0.2501088442341839  0.3157907377007092
  0.4999932613656171  0.2501275341432176  0.3029814271007396
  0.8450300140168352  0.2501032975699076  0.3158215802325302
  0.9009538452211814  0.2501554663706997  0.4024734951018871
  0.7500795530344888  0.2501845669178451  0.3872314057949424
  0.5990511192306656  0.2500990468501954  0.4021177280288484
  0.6515817056333688  0.2501400024803502  0.4878478961345678
  0.4999673220356229  0.2501849248681864  0.4725385113320328
  0.8474015993730717  0.2502680987330450  0.4877411232414630
  0.9012021670047687  0.2521616715650410  0.5696423032596485
  0.7501026021551169  0.2512927740969388  0.5580995907674335
  0.5926022377590456  0.2499460646229963  0.5695829491258735
  0.9056961495910230  0.2500961250423046  0.2323961795409915
  0.7500694879182390  0.2500719979009745  0.1994071486852178
  0.5944182744420559  0.2500629130209688  0.2322718643624100
  0.6550219955119161  0.3751399829087134  0.3157604391597317
  0.4999807056748935  0.3750852463843444  0.3030174414970404
  0.8450036532336895  0.3751738883783986  0.3158424246171592
  0.9010270354006664  0.3751643966558049  0.4024634876405031
  0.7502026700485303  0.3751561683523548  0.3872435886628551
  0.5990586289096740  0.3751879386116244  0.4022038107122938
  0.6516115925089281  0.3752162523163065  0.4878211485650041
  0.4999332154041554  0.3750509779013598  0.4729539224211834
  0.8476215884467067  0.3750496001927317  0.4876551939647555
  0.9011475404166589  0.3730403504874999  0.5695521047076610
  0.7507734907067771  0.3738820052794765  0.5575255741274532
  0.5975114928522629  0.3752858364485476  0.5702586482394167
  0.9057133040434096  0.3750975434175174  0.2324102789971647
  0.7500447872848426  0.3750672232852210  0.1992663952022866
  0.5943970690865896  0.3750890039494550  0.2322507025465299
  0.6550582021807116  0.0001041107071558  0.3157953820375994
  0.5000016795336748  0.0001092331888444  0.3029713427934837
  0.8450236110187959  0.0000932732492558  0.3158255371156145
  0.9009412341323326  0.0001441395499171  0.4024803546616980
  0.7500786636770300  0.0001605691630999  0.3872336737813100
  0.5990624040632824  0.0000812812328377  0.4021255894449354
  0.6515910481107028  0.0001216820895067  0.4878641365192351
  0.4999884568268982  0.0001942250387188  0.4725395061895341
  0.8473829627896663  0.0002574326052738  0.4877465024997818
  0.9011968951266667  0.0021745769040962  0.5696385550415641
  0.7501124609009011  0.0012633311356396  0.5581317407845034
  0.5926190733294305  0.9999087707359919  0.5695984227636828
  0.9056990220311576  0.5000996188313209  0.2324120356802410
  0.7500614976957536  0.5000760523566754  0.1993853816747588
  0.5944056031768383  0.5000660528446090  0.2322829992614217
  0.6550153020863831  0.6251301947818604  0.3157640723969308
  0.4999676036632366  0.6250754329646782  0.3030406242029073
  0.8450147434676865  0.6251650415023988  0.3158439124579857
  0.9010451345625654  0.6251490776108923  0.4024618731448868
  0.7502030346240076  0.6251140245013076  0.3872393174910229
  0.5990476349582678  0.6251831809582598  0.4022139528779576
  0.6516059353506023  0.6252163464123370  0.4878293190073038
  0.4998791030680536  0.6250872318634819  0.4729439134379021
  0.8476531857713354  0.6250494501150854  0.4876484772564638
  0.9008668374139219  0.6230778224236175  0.5696656214496869
  0.7507972541373107  0.6239004128542760  0.5574512861425518
  0.5978813401551548  0.6253224555763879  0.5704170712855756
  0.9057152804158903  0.6250983383551088  0.2324182733350568
  0.7500377683407038  0.6250690645792005  0.1992994394657970
  0.5943899178275132  0.6250888634998049  0.2322573931767167
  0.6550508568605196  0.7501033966203181  0.3157856632689047
  0.4999777735775481  0.7501126965634910  0.3029914247349836
  0.8450329374462484  0.7500902953674071  0.3158103963188452
  0.9009927623406853  0.7501505588788930  0.4024587091424152
  0.7500800471204556  0.7501295062059512  0.3872168503871194
  0.5990218177730071  0.7500777179555911  0.4021192632013779
  0.6516012726249443  0.7501162100566674  0.4878226112083226
  0.4999354862539676  0.7502159591871660  0.4725253298859116
  0.8473971674601302  0.7502537643337206  0.4876839147947720
  0.9011713613872487  0.7522387886480217  0.5696102199120077
  0.7501467530598873  0.7512738061479709  0.5580612425175104
  0.5926656803221135  0.7499742838553516  0.5695868802543131
  0.9056995451474634  0.7500978540735659  0.2323963733278944
  0.7500606685055971  0.7500783599300789  0.1993617583697471
  0.5944102383998953  0.7500714346830506  0.2322756560935773
  0.6550206439099568  0.8751246139408337  0.3157725682230321
  0.4999882635342274  0.8750763721840400  0.3029979235925140
  0.8450038943839644  0.8751611438079010  0.3158494715677165
  0.9009989905947506  0.8751454099275691  0.4024762942266804
  0.7502084535839515  0.8750959785808732  0.3872481468273676
  0.5990859350634139  0.8751741261669039  0.4022113085539090
  0.6516191091255052  0.8751873564023782  0.4878732672074406
  0.4999822032776962  0.8750461015995725  0.4730076111336814
  0.8476301051844217  0.8750358175656103  0.4876990356676814
  0.9012128883133173  0.8731175171888310  0.5695721983222484
  0.7507646243407180  0.8738539785798523  0.5575697394356212
  0.5974467190965314  0.8752703389848477  0.5702762725591413
  0.9057103620473441  0.8750977688401491  0.2324058070924764
  0.7500294851933305  0.8750747371720777  0.1993127686886140
  0.5944049255081367  0.8750936393046729  0.2322503943453214
  0.6550565696139472  0.5001097164998711  0.3157887832581636
  0.4999700536672762  0.5001236420018813  0.3030286717079136
  0.8450318633127338  0.5000996570986231  0.3158164542362769
  0.9010041088835621  0.5001595922952262  0.4024618171554835
  0.7500670464344168  0.5001724713437099  0.3872189186793804
  0.5990056619161450  0.5001045692803530  0.4021256667653503
  0.6515826234753490  0.5001259571181649  0.4878050422981914
  0.4998526160642314  0.5001925990707008  0.4725198837306479
  0.8474134081072151  0.5002621007173644  0.4876949652245059
  0.9008417814968084  0.5022042429880642  0.5697420636804651
  0.7501060109300752  0.5012601175690534  0.5580014395557811
  0.5929338985830057  0.4999528422678807  0.5696952119321566
  0.1645737689603308  0.0626220871062557  0.5404385852177782
  0.1647876418454643  0.3121228592840666  0.5405170318079229
  0.1617024730186500  0.5627277873482157  0.5396795056962631
  0.1647727602341078  0.8131827023407112  0.5404838544200246
  0.8353568723280773  0.0626165519529138  0.5404155931463848
  0.5000662753258425  0.2499610359905802  0.5398266786958885
  0.8353108927686321  0.3125258305445655  0.5403594390536028
  0.5000720394733733  0.9999216736198591  0.5398279344673753
  0.8351678063972585  0.5626298852364542  0.5403131632917777
  0.5003959502389037  0.7500245164150243  0.5397891157707235
  0.8353410787937747  0.8127262174857961  0.5403468477598565
  0.5007568977143109  0.4999613380092356  0.5397901802076319
  0.2458370128642784  0.5633897391650748  0.6092885665883614
 
  0.00000000E+00  0.00000000E+00  0.00000000E+00
  0.00000000E+00  0.00000000E+00  0.00000000E+00
  0.00000000E+00  0.00000000E+00  0.00000000E+00
  0.00000000E+00  0.00000000E+00  0.00000000E+00
  0.00000000E+00  0.00000000E+00  0.00000000E+00
  0.00000000E+00  0.00000000E+00  0.00000000E+00