Ta  N Ru Cu                             
   1.00000000000000     
    18.1096308199999996    0.0000000000000000    0.0000000000000000
     0.0000000000000000   23.3551997799999995    0.0000000000000000
     0.0000000000000000    0.0000000000000000   30.4818171199999988
   Ta   N    Ru   Cu
   192   240    48    29
Selective dynamics
Direct
  0.0000000000000000  0.0000000000000000  0.1972002480802644   F   F   F
  0.3342894068167936  0.0625000001605613  0.2025710526885689   F   F   F
  0.1657105639170098  0.0625000001605613  0.2025710526885689   F   F   F
  0.2499999997239044  0.1249999998929567  0.2777865629601095   F   F   F
  0.0825346300841332  0.0625000001605613  0.2838671249264877   F   F   F
  0.4174653699158668  0.0625000001605613  0.2838671249264877   F   F   F
  0.0013024861186178  0.1250373464176475  0.3701713483152146   T   T   T
  0.3342962313991132  0.0634306369445626  0.3670853612444088   T   T   T
  0.1655628113921545  0.0625239816464565  0.3681755495207706   T   T   T
  0.2491466228850148  0.1251287266141432  0.4541536516566629   T   T   T
  0.0865527224208261  0.0635801661402910  0.4533387409193931   T   T   T
  0.4151204314276429  0.0608944705773577  0.4541889276853153   T   T   T
  0.0000000000000000  0.1249999998929567  0.1972002480802644   F   F   F
  0.3342894068167936  0.1875000000535181  0.2025710526885689   F   F   F
  0.1657105639170098  0.1875000000535181  0.2025710526885689   F   F   F
  0.2499999997239044  0.2500000002140865  0.2777865629601095   F   F   F
  0.0825346300841332  0.1875000000535181  0.2838671249264877   F   F   F
  0.4174653699158668  0.1875000000535181  0.2838671249264877   F   F   F
  0.0031104623462464  0.2509349183291366  0.3690779126348895   T   T   T
  0.3344028622147820  0.1875533675375375  0.3675113695911331   T   T   T
  0.1705637242104554  0.1876966519409711  0.3687733195420799   T   T   T
  0.2546549030769295  0.2483594321209118  0.4557260307283813   T   T   T
  0.0884671812432075  0.1883843318564613  0.4538674066989101   T   T   T
  0.4180320568737950  0.1876557562270343  0.4583910251929308   T   T   T
  0.0000000000000000  0.2500000002140865  0.1972002480802644   F   F   F
  0.3342894068167936  0.3124999999464819  0.2025710526885689   F   F   F
  0.1657105639170098  0.3124999999464819  0.2025710526885689   F   F   F
  0.2499999997239044  0.3750000001070433  0.2777865629601095   F   F   F
  0.0825346300841332  0.3124999999464819  0.2838671249264877   F   F   F
  0.4174653699158668  0.3124999999464819  0.2838671249264877   F   F   F
  0.0048477666286909  0.3730439852286444  0.3697117788901135   T   T   T
  0.3311127167136086  0.3106969927922987  0.3679137157374011   T   T   T
  0.1654809384545031  0.3130080856030794  0.3686816550924577   T   T   T
  0.2548099187131394  0.3759654494899733  0.4544794714569615   T   T   T
  0.0898598821278197  0.3132321922238926  0.4570171173641883   T   T   T
  0.4186397410656419  0.3141596554858760  0.4570974934566918   T   T   T
  0.0000000000000000  0.3750000001070433  0.1972002480802644   F   F   F
  0.3342894068167936  0.4375000002676046  0.2025710526885689   F   F   F
  0.1657105639170098  0.4375000002676046  0.2025710526885689   F   F   F
  0.2499999997239044  0.0000000000000000  0.2777865629601095   F   F   F
  0.0825346300841332  0.4375000002676046  0.2838671249264877   F   F   F
  0.4174653699158668  0.4375000002676046  0.2838671249264877   F   F   F
  0.9960854433243256  0.0013752970863282  0.3699615803089005   T   T   T
  0.3353021357862865  0.4369323881419191  0.3679593989394278   T   T   T
  0.1686555663383951  0.4375666128543202  0.3694190035074912   T   T   T
  0.2464940256259875  0.0025093392435261  0.4554039455676298   T   T   T
  0.0897480030250372  0.4354306351523297  0.4555287328599273   T   T   T
  0.4206904912324548  0.4351799926103234  0.4554495763817975   T   T   T
  0.0000000000000000  0.5000000000000000  0.1972002480802644   F   F   F
  0.3342894068167936  0.5625000001605613  0.2025710526885689   F   F   F
  0.1657105639170098  0.5625000001605613  0.2025710526885689   F   F   F
  0.2499999997239044  0.6249999998929567  0.2777865629601095   F   F   F
  0.0825346300841332  0.5625000001605613  0.2838671249264877   F   F   F
  0.4174653699158668  0.5625000001605613  0.2838671249264877   F   F   F
  0.0024900800764561  0.6202652210847834  0.3707310929925237   T   T   T
  0.3282807366672763  0.5631355426064738  0.3678575002177354   T   T   T
  0.1686675450178648  0.5603543958317784  0.3689000660365781   T   T   T
  0.2515716035732286  0.6234636484702654  0.4556079320675196   T   T   T
  0.0882218218662724  0.5623304228720980  0.4544119304718360   T   T   T
  0.4212881366473127  0.5601515162769530  0.4533892125995437   T   T   T
  0.0000000000000000  0.6249999998929567  0.1972002480802644   F   F   F
  0.3342894068167936  0.6875000000535181  0.2025710526885689   F   F   F
  0.1657105639170098  0.6875000000535181  0.2025710526885689   F   F   F
  0.2499999997239044  0.7500000002140865  0.2777865629601095   F   F   F
  0.0825346300841332  0.6875000000535181  0.2838671249264877   F   F   F
  0.4174653699158668  0.6875000000535181  0.2838671249264877   F   F   F
  0.0007354656197251  0.7493338177366313  0.3707768643947141   T   T   T
  0.3286101673427553  0.6891373046773308  0.3675402735739456   T   T   T
  0.1642700277717616  0.6845366078295605  0.3678186052789858   T   T   T
  0.2490117422159692  0.7501756633309520  0.4541301158175753   T   T   T
  0.0880123046138965  0.6862522013246677  0.4575389740885512   T   T   T
  0.4144562032040530  0.6881003912652183  0.4533417174186808   T   T   T
  0.0000000000000000  0.7500000002140865  0.1972002480802644   F   F   F
  0.3342894068167936  0.8124999999464819  0.2025710526885689   F   F   F
  0.1657105639170098  0.8124999999464819  0.2025710526885689   F   F   F
  0.2499999997239044  0.8750000001070433  0.2777865629601095   F   F   F
  0.0825346300841332  0.8124999999464819  0.2838671249264877   F   F   F
  0.4174653699158668  0.8124999999464819  0.2838671249264877   F   F   F
  0.9984364585946804  0.8739334160686643  0.3698603099437897   T   T   T
  0.3341091512739545  0.8129537968007414  0.3676853064938084   T   T   T
  0.1651189596427448  0.8125977542202851  0.3664444177926774   T   T   T
  0.2544290117856592  0.8762917685556283  0.4515373357472149   T   T   T
  0.0891026139772396  0.8132737439814073  0.4562460279572797   T   T   T
  0.4160241576892924  0.8116661393096435  0.4518382689366631   T   T   T
  0.0000000000000000  0.8750000001070433  0.1972002480802644   F   F   F
  0.3342894068167936  0.9375000002676046  0.2025710526885689   F   F   F
  0.1657105639170098  0.9375000002676046  0.2025710526885689   F   F   F
  0.2499999997239044  0.5000000000000000  0.2777865629601095   F   F   F
  0.0825346300841332  0.9375000002676046  0.2838671249264877   F   F   F
  0.4174653699158668  0.9375000002676046  0.2838671249264877   F   F   F
  0.0021796791080946  0.5037090423123382  0.3698019668718254   T   T   T
  0.3334117973916896  0.9370171443733967  0.3683167541462922   T   T   T
  0.1675596797268423  0.9394854830096936  0.3681845436025047   T   T   T
  0.2510656348003686  0.4981704320225038  0.4547809431920526   T   T   T
  0.0836418268645959  0.9362318931426497  0.4538316533969422   T   T   T
  0.4182312924801573  0.9385365188064233  0.4535831930726189   T   T   T
  0.5000000000000000  0.0000000000000000  0.1972002480802644   F   F   F
  0.8342894062646025  0.0625000001605613  0.2025710526885689   F   F   F
  0.6657105639170098  0.0625000001605613  0.2025710526885689   F   F   F
  0.7499999997239044  0.1249999998929567  0.2777865629601095   F   F   F
  0.5825346300841332  0.0625000001605613  0.2838671249264877   F   F   F
  0.9174653699158668  0.0625000001605613  0.2838671249264877   F   F   F
  0.5009799220823815  0.1267785006868292  0.3682955901104676   T   T   T
  0.8295253867689798  0.0620471205185987  0.3667224583392793   T   T   T
  0.6669662769854308  0.0619034145879257  0.3687973603570797   T   T   T
  0.7508997736230688  0.1267347380965872  0.4560966790534099   T   T   T
  0.5811390613105953  0.0636448208886303  0.4516022870801439   T   T   T
  0.9156264445530328  0.0631144573669242  0.4527754570261139   T   T   T
  0.5000000000000000  0.1249999998929567  0.1972002480802644   F   F   F
  0.8342894062646025  0.1875000000535181  0.2025710526885689   F   F   F
  0.6657105639170098  0.1875000000535181  0.2025710526885689   F   F   F
  0.7499999997239044  0.2500000002140865  0.2777865629601095   F   F   F
  0.5825346300841332  0.1875000000535181  0.2838671249264877   F   F   F
  0.9174653699158668  0.1875000000535181  0.2838671249264877   F   F   F
  0.5034741196305043  0.2514407504243983  0.3699124685983416   T   T   T
  0.8282130660201532  0.1889975593356599  0.3664320941098579   T   T   T
  0.6698302771515677  0.1910666120843397  0.3714576978998751   T   T   T
  0.7528969304777106  0.2498768436140597  0.4531707390521435   T   T   T
  0.5863495997676481  0.1862079136052144  0.4527479214087582   T   T   T
  0.9180552863619861  0.1891051710200315  0.4538131468398893   T   T   T
  0.5000000000000000  0.2500000002140865  0.1972002480802644   F   F   F
  0.8342894062646025  0.3124999999464819  0.2025710526885689   F   F   F
  0.6657105639170098  0.3124999999464819  0.2025710526885689   F   F   F
  0.7499999997239044  0.3750000001070433  0.2777865629601095   F   F   F
  0.5825346300841332  0.3124999999464819  0.2838671249264877   F   F   F
  0.9174653699158668  0.3124999999464819  0.2838671249264877   F   F   F
  0.5001979706173516  0.3707864767414986  0.3700729491804602   T   T   T
  0.8343980425970094  0.3170040195912459  0.3695632749391088   T   T   T
  0.6674483974027970  0.3152879836103361  0.3673460976842070   T   T   T
  0.7556030989992979  0.3744238432508201  0.4557842177121041   T   T   T
  0.5912166026736630  0.3131604361697902  0.4570397149361000   T   T   T
  0.9214520528615109  0.3138826136754191  0.4567684226799135   T   T   T
  0.5000000000000000  0.3750000001070433  0.1972002480802644   F   F   F
  0.8342894062646025  0.4375000002676046  0.2025710526885689   F   F   F
  0.6657105639170098  0.4375000002676046  0.2025710526885689   F   F   F
  0.7499999997239044  0.0000000000000000  0.2777865629601095   F   F   F
  0.5825346300841332  0.4375000002676046  0.2838671249264877   F   F   F
  0.9174653699158668  0.4375000002676046  0.2838671249264877   F   F   F
  0.5026338173143999  0.0007774737217204  0.3695391442958468   T   T   T
  0.8346546874255124  0.4386474515144077  0.3690450987276093   T   T   T
  0.6681340257303734  0.4414926425594382  0.3690849016758708   T   T   T
  0.7483184661445398  0.9995815958633375  0.4559813683033508   T   T   T
  0.5881163931029800  0.4373824674731893  0.4545792565076837   T   T   T
  0.9195448479671036  0.4376948055241257  0.4532910429159363   T   T   T
  0.5000000000000000  0.5000000000000000  0.1972002480802644   F   F   F
  0.8342894062646025  0.5625000001605613  0.2025710526885689   F   F   F
  0.6657105639170098  0.5625000001605613  0.2025710526885689   F   F   F
  0.7499999997239044  0.6249999998929567  0.2777865629601095   F   F   F
  0.5825346300841332  0.5625000001605613  0.2838671249264877   F   F   F
  0.9174653699158668  0.5625000001605613  0.2838671249264877   F   F   F
  0.4985743753491023  0.6261703972701841  0.3703385083469517   T   T   T
  0.8319656550645175  0.5632898624865317  0.3690720272060634   T   T   T
  0.6697798561619166  0.5633031981849779  0.3688940517514970   T   T   T
  0.7508591656971222  0.6251894018708847  0.4576859595617156   T   T   T
  0.5886711311016093  0.5614983655513801  0.4543503863233659   T   T   T
  0.9209124806727843  0.5617738902938858  0.4551030135597806   T   T   T
  0.5000000000000000  0.6249999998929567  0.1972002480802644   F   F   F
  0.8342894062646025  0.6875000000535181  0.2025710526885689   F   F   F
  0.6657105639170098  0.6875000000535181  0.2025710526885689   F   F   F
  0.7499999997239044  0.7500000002140865  0.2777865629601095   F   F   F
  0.5825346300841332  0.6875000000535181  0.2838671249264877   F   F   F
  0.9174653699158668  0.6875000000535181  0.2838671249264877   F   F   F
  0.5028837794196518  0.7518350172070436  0.3688899165433888   T   T   T
  0.8355231606408914  0.6866256600096986  0.3683429278494339   T   T   T
  0.6680968591818004  0.6880754954130676  0.3692150546437046   T   T   T
  0.7486242338720496  0.7483863206325804  0.4545520482248182   T   T   T
  0.5816715192068056  0.6842389604076722  0.4543567072331157   T   T   T
  0.9170896860412593  0.6879444817793766  0.4532299214182240   T   T   T
  0.5000000000000000  0.7500000002140865  0.1972002480802644   F   F   F
  0.8342894062646025  0.8124999999464819  0.2025710526885689   F   F   F
  0.6657105639170098  0.8124999999464819  0.2025710526885689   F   F   F
  0.7499999997239044  0.8750000001070433  0.2777865629601095   F   F   F
  0.5825346300841332  0.8124999999464819  0.2838671249264877   F   F   F
  0.9174653699158668  0.8124999999464819  0.2838671249264877   F   F   F
  0.5021530089139448  0.8712998825387792  0.3697123532816647   T   T   T
  0.8332151387508633  0.8127261858474727  0.3679439123052870   T   T   T
  0.6681878838035117  0.8117188399408201  0.3672759729680699   T   T   T
  0.7554574031061058  0.8741456642121058  0.4549585110830479   T   T   T
  0.5888650139842685  0.8111886463318713  0.4556493723531087   T   T   T
  0.9206185007866103  0.8126773984314726  0.4555330982302290   T   T   T
  0.5000000000000000  0.8750000001070433  0.1972002480802644   F   F   F
  0.8342894062646025  0.9375000002676046  0.2025710526885689   F   F   F
  0.6657105639170098  0.9375000002676046  0.2025710526885689   F   F   F
  0.7499999997239044  0.5000000000000000  0.2777865629601095   F   F   F
  0.5825346300841332  0.9375000002676046  0.2838671249264877   F   F   F
  0.9174653699158668  0.9375000002676046  0.2838671249264877   F   F   F
  0.4996981939440003  0.4995701681006124  0.3710570725890546   T   T   T
  0.8327111779764008  0.9374895196410796  0.3671867729195324   T   T   T
  0.6639797584490540  0.9373060976817408  0.3694892598673109   T   T   T
  0.7529979678338913  0.4978192206005576  0.4556082259867047   T   T   T
  0.5822371119126699  0.9373952467067033  0.4557153977145312   T   T   T
  0.9211093534623471  0.9402205243502906  0.4517563559365125   T   T   T
  0.4058866008042799  0.0000000000000000  0.2322132027086568   F   F   F
  0.2499999997239044  0.0000000000000000  0.1996562655205665   F   F   F
  0.0941133991957201  0.0000000000000000  0.2322132027086568   F   F   F
  0.1545990962481767  0.1249999998929567  0.3156671842807413   F   F   F
  0.0000000000000000  0.1249999998929567  0.3032267790298775   F   F   F
  0.3454009037518233  0.1249999998929567  0.3156671842807413   F   F   F
  0.4027388360988282  0.1260627675564893  0.4022689658356805   T   T   T
  0.2529199072216211  0.1274340149847096  0.3867650905806478   T   T   T
  0.0995759728105875  0.1248347632614470  0.4012727129457373   T   T   T
  0.1545969078738360  0.1261910911906510  0.4860834939972339   T   T   T
  0.0003568724251743  0.1251492507848020  0.4664750106942430   T   T   T
  0.3511364406731800  0.1272920531550796  0.4857982679082286   T   T   T
  0.4574841182107013  0.0865554726725632  0.5684497221912622   T   T   T
  0.2865179213708622  0.1195310807019546  0.5726528936077274   T   T   T
  0.0768918663065013  0.1033947968860752  0.5637125278524390   T   T   T
  0.4058866008042799  0.1249999998929567  0.2322132027086568   F   F   F
  0.2499999997239044  0.1249999998929567  0.1996562655205665   F   F   F
  0.0941133991957201  0.1249999998929567  0.2322132027086568   F   F   F
  0.1545990962481767  0.2500000002140865  0.3156671842807413   F   F   F
  0.0000000000000000  0.2500000002140865  0.3032267790298775   F   F   F
  0.3454009037518233  0.2500000002140865  0.3156671842807413   F   F   F
  0.4000321357388404  0.2517832250182815  0.4055601480560613   T   T   T
  0.2486824037578800  0.2485363243946815  0.3875222971606623   T   T   T
  0.1043289302209479  0.2499392354026521  0.4030498988138465   T   T   T
  0.1555709637843148  0.2479025753129632  0.4876760624102535   T   T   T
  0.0009015254559492  0.2470063081549509  0.4739087180643109   T   T   T
  0.3514805083701650  0.2532195876202631  0.4906465485787772   T   T   T
  0.4212836930591298  0.2083316745479272  0.5748582573023643   T   T   T
  0.2314649548974396  0.2770006179846306  0.5746272419238904   T   T   T
  0.0905988694563872  0.2415168327757594  0.5750623247550246   T   T   T
  0.4058866008042799  0.2500000002140865  0.2322132027086568   F   F   F
  0.2499999997239044  0.2500000002140865  0.1996562655205665   F   F   F
  0.0941133991957201  0.2500000002140865  0.2322132027086568   F   F   F
  0.1545990962481767  0.3750000001070433  0.3156671842807413   F   F   F
  0.0000000000000000  0.3750000001070433  0.3032267790298775   F   F   F
  0.3454009037518233  0.3750000001070433  0.3156671842807413   F   F   F
  0.4012692230822995  0.3734423824774450  0.4000577428089581   T   T   T
  0.2507943779462982  0.3761184768083803  0.3872260059329432   T   T   T
  0.1003574871330483  0.3748989907344827  0.4023021704577125   T   T   T
  0.1579216660656354  0.3761338701917467  0.4853281045915301   T   T   T
  0.0053272914952195  0.3748733675356128  0.4730866263022255   T   T   T
  0.3574231628186963  0.3752460501470549  0.4869946851557697   T   T   T
  0.3794382119735518  0.3479291612325162  0.6344504439636744   T   T   T
  0.2803157370180372  0.4002409177695375  0.5543272933200166   T   T   T
  0.0850953237881418  0.3694571814106762  0.5760865758292339   T   T   T
  0.4058866008042799  0.3750000001070433  0.2322132027086568   F   F   F
  0.2499999997239044  0.3750000001070433  0.1996562655205665   F   F   F
  0.0941133991957201  0.3750000001070433  0.2322132027086568   F   F   F
  0.1545990962481767  0.0000000000000000  0.3156671842807413   F   F   F
  0.0000000000000000  0.0000000000000000  0.3032267790298775   F   F   F
  0.3454009037518233  0.0000000000000000  0.3156671842807413   F   F   F
  0.4040031673870461  0.0026217599334717  0.4015179261193797   T   T   T
  0.2526080200709802  0.0017012325102878  0.3893264594431702   T   T   T
  0.1002085316337346  0.9985949443471311  0.4022697434187046   T   T   T
  0.1460612323544906  0.0003044933685162  0.4859315656064906   T   T   T
  0.0011626425371049  0.0008077497421864  0.4664531296574109   T   T   T
  0.3461195188935117  0.9989131857934116  0.4851645424580075   T   T   T
  0.3674685586765863  0.0003323930069004  0.5742626968634037   T   T   T
  0.1976064350112278  0.9885286030226516  0.5725119141172380   T   T   T
  0.0266175206091634  0.9779091768841279  0.5676599031725200   T   T   T
  0.4058866008042799  0.5000000000000000  0.2322132027086568   F   F   F
  0.2499999997239044  0.5000000000000000  0.1996562655205665   F   F   F
  0.0941133991957201  0.5000000000000000  0.2322132027086568   F   F   F
  0.1545990962481767  0.6249999998929567  0.3156671842807413   F   F   F
  0.0000000000000000  0.6249999998929567  0.3032267790298775   F   F   F
  0.3454009037518233  0.6249999998929567  0.3156671842807413   F   F   F
  0.3948265022748771  0.6235142135655166  0.3992036448670426   T   T   T
  0.2463806674011532  0.6236963097060364  0.3870065863760961   T   T   T
  0.1009640294729931  0.6233982678978327  0.4004852153571841   T   T   T
  0.1544573957206419  0.6242314984893871  0.4882756196172694   T   T   T
  0.0026698023452979  0.6181373398585333  0.4716713208511039   T   T   T
  0.3486722620798068  0.6164538080523123  0.4828393568978633   T   T   T
  0.3697373098772199  0.6218056163575690  0.5725169411105104   T   T   T
  0.2155636800225660  0.6290503573144169  0.5832795990904328   T   T   T
  0.0650860158159025  0.5780678271555613  0.5612214168516702   T   T   T
  0.4058866008042799  0.6249999998929567  0.2322132027086568   F   F   F
  0.2499999997239044  0.6249999998929567  0.1996562655205665   F   F   F
  0.0941133991957201  0.6249999998929567  0.2322132027086568   F   F   F
  0.1545990962481767  0.7500000002140865  0.3156671842807413   F   F   F
  0.0000000000000000  0.7500000002140865  0.3032267790298775   F   F   F
  0.3454009037518233  0.7500000002140865  0.3156671842807413   F   F   F
  0.3991720460048288  0.7492113664132576  0.4005869369684641   T   T   T
  0.2489714576552552  0.7472432453341296  0.3871342528340649   T   T   T
  0.0980297149679137  0.7523253646407482  0.4020502909728014   T   T   T
  0.1558160601030525  0.7523385149301990  0.4849894674741561   T   T   T
  0.0016766570875985  0.7484463499568944  0.4724880412244996   T   T   T
  0.3506734930204126  0.7471468815057096  0.4860092985685501   T   T   T
  0.3719213298088307  0.7449526963199004  0.5803148525749691   T   T   T
  0.2333877845409152  0.7495574211304511  0.5688117961866179   T   T   T
  0.0788636374197857  0.7196031357418328  0.5770324321503673   T   T   T
  0.4058866008042799  0.7500000002140865  0.2322132027086568   F   F   F
  0.2499999997239044  0.7500000002140865  0.1996562655205665   F   F   F
  0.0941133991957201  0.7500000002140865  0.2322132027086568   F   F   F
  0.1545990962481767  0.8750000001070433  0.3156671842807413   F   F   F
  0.0000000000000000  0.8750000001070433  0.3032267790298775   F   F   F
  0.3454009037518233  0.8750000001070433  0.3156671842807413   F   F   F
  0.4042434578211234  0.8757072157410758  0.4002907317716867   T   T   T
  0.2494447916141862  0.8774170666429321  0.3849992788385670   T   T   T
  0.1000542062039529  0.8770765103329535  0.3990303644936625   T   T   T
  0.1533282376661126  0.8784956445913406  0.4825449619503491   T   T   T
  0.0041381999611645  0.8775059995396491  0.4747316136366264   T   T   T
  0.3487841988667256  0.8736216882601132  0.4821269825200335   T   T   T
  0.4456028919560213  0.9116884285689233  0.5601178020509319   T   T   T
  0.2887392465518593  0.8734598677462740  0.5586857807878109   T   T   T
  0.1173423014612191  0.8552468145107299  0.5690614058477775   T   T   T
  0.4058866008042799  0.8750000001070433  0.2322132027086568   F   F   F
  0.2499999997239044  0.8750000001070433  0.1996562655205665   F   F   F
  0.0941133991957201  0.8750000001070433  0.2322132027086568   F   F   F
  0.1545990962481767  0.5000000000000000  0.3156671842807413   F   F   F
  0.0000000000000000  0.5000000000000000  0.3032267790298775   F   F   F
  0.3454009037518233  0.5000000000000000  0.3156671842807413   F   F   F
  0.4028576824376434  0.4984319673823544  0.4008785220152289   T   T   T
  0.2509404965164055  0.4998382904517630  0.3866861971532806   T   T   T
  0.1020321420141020  0.4993621462911332  0.4037281096013689   T   T   T
  0.1491647691371168  0.5004159133369642  0.4902667388281414   T   T   T
  0.0079911591886753  0.4965722768021636  0.4745646737528519   T   T   T
  0.3496495598544916  0.4949531006172060  0.4777263881370634   T   T   T
  0.3906155979535358  0.4903292688648443  0.5710523059927060   T   T   T
  0.2467969998831722  0.5218277539159136  0.5548121740082294   T   T   T
  0.1371957124776077  0.4998299362651458  0.6389565424274690   T   T   T
  0.9058866008042799  0.0000000000000000  0.2322132027086568   F   F   F
  0.7499999997239044  0.0000000000000000  0.1996562655205665   F   F   F
  0.5941133991957201  0.0000000000000000  0.2322132027086568   F   F   F
  0.6545990962481767  0.1249999998929567  0.3156671842807413   F   F   F
  0.5000000000000000  0.1249999998929567  0.3032267790298775   F   F   F
  0.8454009037518233  0.1249999998929567  0.3156671842807413   F   F   F
  0.8988725820505782  0.1257407413423664  0.4000808353977610   T   T   T
  0.7490772124085505  0.1234832133751686  0.3887847779206652   T   T   T
  0.6016152141380067  0.1270341242946957  0.4000429806912824   T   T   T
  0.6484043733846500  0.1245428909952320  0.4853027469745516   T   T   T
  0.4968856543835248  0.1255457931051064  0.4704919217090091   T   T   T
  0.8511310141341933  0.1250758964230193  0.4850869468438495   T   T   T
  0.9037619992921285  0.1352970922602186  0.5746128934501272   T   T   T
  0.7331752520234945  0.1207255762075908  0.5585122159663836   T   T   T
  0.5906436113387764  0.1783384843958828  0.5623601637849338   T   T   T
  0.9058866008042799  0.1249999998929567  0.2322132027086568   F   F   F
  0.7499999997239044  0.1249999998929567  0.1996562655205665   F   F   F
  0.5941133991957201  0.1249999998929567  0.2322132027086568   F   F   F
  0.6545990962481767  0.2500000002140865  0.3156671842807413   F   F   F
  0.5000000000000000  0.2500000002140865  0.3032267790298775   F   F   F
  0.8454009037518233  0.2500000002140865  0.3156671842807413   F   F   F
  0.9032249133919603  0.2495374518380413  0.3985103684679858   T   T   T
  0.7531396339003359  0.2542660023082719  0.3858363660227880   T   T   T
  0.6005170431283068  0.2515369473425507  0.4029805007119299   T   T   T
  0.6569130714138895  0.2510125877603073  0.4863723745009405   T   T   T
  0.5064573682428221  0.2501979706403518  0.4794187187995294   T   T   T
  0.8564873686910734  0.2496818685586751  0.4849226808872627   T   T   T
  0.9131252579413154  0.2711194591006229  0.5780182720794491   T   T   T
  0.7499383318973858  0.2380085634533232  0.5747503552110532   T   T   T
  0.5017566524983144  0.2961816462853459  0.5853258969387910   T   T   T
  0.9058866008042799  0.2500000002140865  0.2322132027086568   F   F   F
  0.7499999997239044  0.2500000002140865  0.1996562655205665   F   F   F
  0.5941133991957201  0.2500000002140865  0.2322132027086568   F   F   F
  0.6545990962481767  0.3750000001070433  0.3156671842807413   F   F   F
  0.5000000000000000  0.3750000001070433  0.3032267790298775   F   F   F
  0.8454009037518233  0.3750000001070433  0.3156671842807413   F   F   F
  0.9041928076694837  0.3752161756340138  0.4003793623524537   T   T   T
  0.7524948953594086  0.3751361420023742  0.3890044358323496   T   T   T
  0.6038155840201106  0.3757013754597495  0.4033772761912172   T   T   T
  0.6561325093943196  0.3750687417651176  0.4868114941028286   T   T   T
  0.5028941623224586  0.3759806192849218  0.4761793366900152   T   T   T
  0.8530987473046761  0.3738104478627770  0.4830545938273278   T   T   T
  0.9197746742595097  0.4037350494573868  0.5767702136860506   T   T   T
  0.7674265991083810  0.3716470736270338  0.5571946988470401   T   T   T
  0.5283472272046298  0.3666939515537231  0.6815569025674967   T   T   T
  0.9058866008042799  0.3750000001070433  0.2322132027086568   F   F   F
  0.7499999997239044  0.3750000001070433  0.1996562655205665   F   F   F
  0.5941133991957201  0.3750000001070433  0.2322132027086568   F   F   F
  0.6545990962481767  0.0000000000000000  0.3156671842807413   F   F   F
  0.5000000000000000  0.0000000000000000  0.3032267790298775   F   F   F
  0.8454009037518233  0.0000000000000000  0.3156671842807413   F   F   F
  0.8986408550406642  0.0018698621577775  0.4003057717442633   T   T   T
  0.7493967779646306  0.0025482431048466  0.3894465220135645   T   T   T
  0.6007220387586273  0.9993671421703845  0.4020213835912346   T   T   T
  0.6462444623399186  0.0055806796410198  0.4862382196224260   T   T   T
  0.4959466581520219  0.0015423109714231  0.4785240108235970   T   T   T
  0.8520943460136451  0.0012133089386768  0.4816233986209861   T   T   T
  0.8595173685923767  0.0154111442319533  0.5662640378477030   T   T   T
  0.7182874882258995  0.9894298822509929  0.5569210474607746   T   T   T
  0.5616243713059231  0.0068622912684289  0.5762248008610653   T   T   T
  0.9058866008042799  0.5000000000000000  0.2322132027086568   F   F   F
  0.7499999997239044  0.5000000000000000  0.1996562655205665   F   F   F
  0.5941133991957201  0.5000000000000000  0.2322132027086568   F   F   F
  0.6545990962481767  0.6249999998929567  0.3156671842807413   F   F   F
  0.5000000000000000  0.6249999998929567  0.3032267790298775   F   F   F
  0.8454009037518233  0.6249999998929567  0.3156671842807413   F   F   F
  0.9036394398507547  0.6207428673080893  0.4014447236822632   T   T   T
  0.7543166149332614  0.6210687369847914  0.3900745493032846   T   T   T
  0.5988651402742461  0.6242589423901383  0.4000227144792273   T   T   T
  0.6490002006659140  0.6273246425312520  0.4895330269263614   T   T   T
  0.4999303464640567  0.6232237042525413  0.4730320481374545   T   T   T
  0.8512124626046744  0.6234678833179796  0.4803451219360899   T   T   T
  0.8755017873379802  0.6087105771695718  0.5715900906502295   T   T   T
  0.6953652710873544  0.6265994470783096  0.5745808319863354   T   T   T
  0.5469039590871086  0.6153169572969128  0.5693552973340696   T   T   T
  0.9058866008042799  0.6249999998929567  0.2322132027086568   F   F   F
  0.7499999997239044  0.6249999998929567  0.1996562655205665   F   F   F
  0.5941133991957201  0.6249999998929567  0.2322132027086568   F   F   F
  0.6545990962481767  0.7500000002140865  0.3156671842807413   F   F   F
  0.5000000000000000  0.7500000002140865  0.3032267790298775   F   F   F
  0.8454009037518233  0.7500000002140865  0.3156671842807413   F   F   F
  0.8978396906705183  0.7510624322333758  0.4010752226805965   T   T   T
  0.7509231663631968  0.7471522774160398  0.3849604812227746   T   T   T
  0.6005789826423803  0.7490216802609243  0.4007399624890045   T   T   T
  0.6483606153180451  0.7424371498125145  0.4853682664019829   T   T   T
  0.5008861249936036  0.7475195244231211  0.4745186236902664   T   T   T
  0.8470898839788008  0.7469415931658748  0.4844626745943025   T   T   T
  0.9020255740982317  0.7452721277778437  0.5646684878951304   T   T   T
  0.7177214626916395  0.7692273341222687  0.5574734554685018   T   T   T
  0.5172378328525927  0.7931442224632697  0.5789412487894048   T   T   T
  0.9058866008042799  0.7500000002140865  0.2322132027086568   F   F   F
  0.7499999997239044  0.7500000002140865  0.1996562655205665   F   F   F
  0.5941133991957201  0.7500000002140865  0.2322132027086568   F   F   F
  0.6545990962481767  0.8750000001070433  0.3156671842807413   F   F   F