Ta  N Ru Cu 
 1.0000000000000000
    18.1096308199999996    0.0000000000000000    0.0000000000000000
     0.0000000000000000   23.3551997799999995    0.0000000000000000
     0.0000000000000000    0.0000000000000000   30.4818171199999988
 228 240  12  29
Selective dynamics
Cartesian
   0.000000    0.001679   6.009014  F  F  F
   6.053917    1.457674   6.178475  F  F  F
   3.012006    1.461299   6.178298  F  F  F
   4.531153    2.921544   8.472142  F  F  F
   1.495909    1.464206   8.645480  F  F  F
   7.557842    1.453803   8.658006  F  F  F
   0.008016    2.916796  11.260751  F  F  F
   6.008551    1.456958  11.224624  F  F  F
   3.042352    1.462005  11.229073  F  F  F
   4.521189    2.946843  13.893198  F  F  F
   1.593274    1.444689  13.878653  F  F  F
   7.521308    1.446658  13.846143  F  F  F
   0.076504    2.724067  16.627582  F  F  F
   6.125147    1.431777  16.562497  F  F  F
   0.000000    2.924065   6.008802  F  F  F
   6.054719    4.378062   6.179304  F  F  F
   3.010915    4.382166   6.179341  F  F  F
   4.531029    5.836202   8.470972  F  F  F
   1.495362    4.383375   8.647985  F  F  F
   7.557100    4.373273   8.659481  F  F  F
   0.007708    5.845554  11.259553  F  F  F
   6.009386    4.375800  11.228553  F  F  F
   3.042901    4.382818  11.227493  F  F  F
   4.530821    5.825369  13.877176  F  F  F
   1.519767    4.397321  13.830024  F  F  F
   7.523648    4.384950  13.837360  F  F  F
  17.990438    5.597237  16.687295  F  F  F
   6.142745    4.349571  16.525999  F  F  F
   3.209754    4.433156  16.507079  F  F  F
   0.000000    5.840479   6.009014  F  F  F
   6.053917    7.296474   6.178475  F  F  F
   3.012006    7.300098   6.178298  F  F  F
   4.531153    8.760344   8.472142  F  F  F
   1.495909    7.303006   8.645480  F  F  F
   7.557842    7.292603   8.658006  F  F  F
   0.006628    8.756778  11.257953  F  F  F
   6.007100    7.298229  11.222515  F  F  F
   3.033011    7.304324  11.227471  F  F  F
   4.536316    8.807100  13.863834  F  F  F
   1.564347    7.327580  13.897119  F  F  F
   7.536520    7.287103  13.839662  F  F  F
   0.117420    8.690964  16.736367  F  F  F
   6.088963    7.290151  16.535787  F  F  F
   0.000000    8.762865   6.008802  F  F  F
   6.054719   10.216862   6.179304  F  F  F
   3.010915   10.220965   6.179341  F  F  F
   4.531029   23.352602   8.470972  F  F  F
   1.495362   10.222175   8.647985  F  F  F
   7.557100   10.212073   8.659481  F  F  F
   0.005565    0.014530  11.260095  F  F  F
   6.008660   10.219420  11.226729  F  F  F
   3.037069   10.224439  11.219479  F  F  F
   4.508327   23.311868  13.889335  F  F  F
   1.499181   10.253578  13.829814  F  F  F
   7.551542   10.231947  13.818519  F  F  F
  18.100984   23.240692  16.592162  F  F  F
   6.121648   10.253060  16.448457  F  F  F
   3.034526   10.374340  16.541115  F  F  F
   0.000000   11.679279   6.009014  F  F  F
   6.053917   13.135274   6.178475  F  F  F
   3.012006   13.138898   6.178298  F  F  F
   4.531153   14.599144   8.472142  F  F  F
   1.495909   13.141806   8.645480  F  F  F
   7.557842   13.131403   8.658006  F  F  F
  18.106808   14.596750  11.251782  F  F  F
   6.009399   13.136119  11.230940  F  F  F
   3.032228   13.142255  11.222034  F  F  F
   4.531311   14.617013  13.909822  F  F  F
   1.511635   13.170714  13.864008  F  F  F
   7.552054   13.136418  13.841166  F  F  F
  17.934625   14.769385  16.598958  F  F  F
   5.897428   13.195829  16.550229  F  F  F
   0.000000   14.601665   6.008802  F  F  F
   6.054719   16.055662   6.179304  F  F  F
   3.010915   16.059765   6.179341  F  F  F
   4.531029   17.513802   8.470972  F  F  F
   1.495362   16.060975   8.647985  F  F  F
   7.557100   16.050873   8.659481  F  F  F
  18.106351   17.529467  11.257635  F  F  F
   6.017222   16.048394  11.227689  F  F  F
   3.053774   16.057826  11.206302  F  F  F
   4.523122   17.487153  13.843494  F  F  F
   1.499583   16.089390  13.766821  F  F  F
   7.561686   16.064027  13.830031  F  F  F
   0.071230   17.777485  17.807764  F  F  F
   6.077851   16.083899  16.452809  F  F  F
   3.046676   16.095728  16.528666  F  F  F
   0.000000   17.518079   6.009014  F  F  F
   6.053917   18.974074   6.178475  F  F  F
   3.012006   18.977698   6.178298  F  F  F
   4.531153   20.437944   8.472142  F  F  F
   1.495909   18.980606   8.645480  F  F  F
   7.557842   18.970203   8.658006  F  F  F
  -0.000088   20.438336  11.260508  F  F  F
   6.019710   18.973110  11.220312  F  F  F
   3.060429   18.977310  11.205199  F  F  F
   4.529783   20.447507  13.877607  F  F  F
   1.526449   18.970751  13.817132  F  F  F
   7.547801   18.971068  13.842515  F  F  F
  17.854704   20.540536  17.882162  F  F  F
   6.058506   18.961681  16.510569  F  F  F
   0.000000   20.440465   6.008802  F  F  F
   6.054719   21.894462   6.179304  F  F  F
   3.010915   21.898565   6.179341  F  F  F
   4.531029   11.675002   8.470972  F  F  F
   1.495362   21.899774   8.647985  F  F  F
   7.557100   21.889673   8.659481  F  F  F
   0.002708   11.687316  11.255241  F  F  F
   6.016556   21.891979  11.229178  F  F  F
   3.058545   21.898086  11.215881  F  F  F
   4.526193   11.690997  13.881492  F  F  F
   1.508037   21.847451  13.782195  F  F  F
   7.531178   21.899066  13.840982  F  F  F
  18.001820   11.791031  16.616007  F  F  F
   6.134938   21.902235  16.532006  F  F  F
   3.149506   21.807845  16.504938  F  F  F
   9.054815   23.349334   6.012908  F  F  F
  15.097625    1.461299   6.178298  F  F  F
  12.055713    1.457674   6.178475  F  F  F
  13.578478    2.921544   8.472142  F  F  F
  10.551789    1.453803   8.658006  F  F  F
  16.613722    1.464206   8.645480  F  F  F
   9.051725    2.913594  11.267441  F  F  F
  15.086637    1.458812  11.237067  F  F  F
  12.100388    1.455248  11.217058  F  F  F
  13.560490    2.935417  13.865020  F  F  F
  10.566372    1.446716  13.835368  F  F  F
  16.565704    1.437414  13.933464  F  F  F
   9.028186    3.034598  16.503492  F  F  F
  11.922131    1.429689  16.554165  F  F  F
   9.054815    2.917798   6.013242  F  F  F
  15.098716    4.382166   6.179341  F  F  F
  12.054912    4.378062   6.179304  F  F  F
  13.578602    5.836202   8.470972  F  F  F
  10.552531    4.373273   8.659481  F  F  F
  16.614269    4.383375   8.647985  F  F  F
   9.055479    5.834963  11.265640  F  F  F
  15.074665    4.376057  11.228156  F  F  F
  12.105293    4.374232  11.223657  F  F  F
  13.605754    5.802778  13.871032  F  F  F
  10.576976    4.380770  13.827027  F  F  F
  16.610456    4.373794  13.816505  F  F  F
  14.873952    4.311605  16.454550  F  F  F
  11.929077    4.331129  16.499762  F  F  F
   9.054815    5.832934   6.012908  F  F  F
  15.097625    7.300098   6.178298  F  F  F
  12.055713    7.296474   6.178475  F  F  F
  13.578478    8.760344   8.472142  F  F  F
  10.551789    7.292603   8.658006  F  F  F
  16.613722    7.303006   8.645480  F  F  F
   9.060947    8.753636  11.268249  F  F  F
  15.080811    7.297093  11.228200  F  F  F
  12.108749    7.293955  11.219955  F  F  F
  13.604350    8.779159  13.883983  F  F  F
  10.586877    7.287398  13.838353  F  F  F
  16.572529    7.294399  13.889469  F  F  F
   9.047320    8.902028  16.475350  F  F  F
  11.984666    7.261167  16.528240  F  F  F
   9.054815    8.756598   6.013242  F  F  F
  15.098716   10.220965   6.179341  F  F  F
  12.054912   10.216862   6.179304  F  F  F
  13.578602   23.352602   8.470972  F  F  F
  10.552531   10.212073   8.659481  F  F  F
  16.614269   10.222175   8.647985  F  F  F
   9.051902   23.352830  11.265828  F  F  F
  15.069469   10.218019  11.225737  F  F  F
  12.108295   10.214202  11.226482  F  F  F
  13.576538   23.316451  13.867683  F  F  F
  10.601339   10.226631  13.835204  F  F  F
  16.624961   10.213831  13.810151  F  F  F
  14.979700   10.220030  16.471690  F  F  F
  12.022073   10.255338  16.489943  F  F  F
   9.054815   11.671734   6.012908  F  F  F
  15.097625   13.138898   6.178298  F  F  F
  12.055713   13.135274   6.178475  F  F  F
  13.578478   14.599144   8.472142  F  F  F
  10.551789   13.131403   8.658006  F  F  F
  16.613722   13.141806   8.645480  F  F  F
   9.064997   14.590981  11.267406  F  F  F
  15.071772   13.140603  11.223351  F  F  F
  12.108511   13.134843  11.222954  F  F  F
  13.622425   14.635484  13.891467  F  F  F
  10.592337   13.131745  13.852521  F  F  F
  16.548802   13.165805  13.840981  F  F  F
   9.084769   14.745552  16.525406  F  F  F
  12.057932   13.170546  16.554136  F  F  F
   9.054815   14.595398   6.013242  F  F  F
  15.098716   16.059765   6.179341  F  F  F
  12.054912   16.055662   6.179304  F  F  F
  13.578602   17.513802   8.470972  F  F  F
  10.552531   16.050873   8.659481  F  F  F
  16.614269   16.060975   8.647985  F  F  F
   9.064292   17.511608  11.265510  F  F  F
  15.058997   16.066653  11.222528  F  F  F
  12.101662   16.053341  11.232267  F  F  F
  13.614120   17.498191  13.878368  F  F  F
  10.597116   16.065748  13.842281  F  F  F
  16.623507   16.110945  13.778899  F  F  F
  14.957082   16.146764  16.518323  F  F  F
  12.000675   16.071218  16.502174  F  F  F
   9.054815   17.510534   6.012908  F  F  F
  15.097625   18.977698   6.178298  F  F  F
  12.055713   18.974074   6.178475  F  F  F
  13.578478   20.437944   8.472142  F  F  F
  10.551789   18.970203   8.658006  F  F  F
  16.613722   18.980606   8.645480  F  F  F
   9.057851   20.430708  11.267286  F  F  F
  15.068166   18.981603  11.228049  F  F  F
  12.097968   18.974947  11.221263  F  F  F
  13.600336   20.466321  13.871137  F  F  F
  10.586994   18.971573  13.857704  F  F  F
  16.640019   18.990899  13.921088  F  F  F
   9.041030   20.531270  16.525565  F  F  F
  11.985858   18.990791  16.574849  F  F  F
   9.054815   20.434198   6.013242  F  F  F
  15.098716   21.898565   6.179341  F  F  F
  12.054912   21.894462   6.179304  F  F  F
  13.578602   11.675002   8.470972  F  F  F
  10.552531   21.889673   8.659481  F  F  F
  16.614269   21.899774   8.647985  F  F  F
   9.064473   11.673389  11.266401  F  F  F
  15.063776   21.898783  11.229059  F  F  F
  12.099155   21.892215  11.224853  F  F  F
  13.613892   11.655029  13.885733  F  F  F
  10.571065   21.899137  13.827709  F  F  F
  16.613605   21.858243  13.790838  F  F  F
  14.875336   21.900741  16.517665  F  F  F
  11.915159   21.910772  16.513938  F  F  F
   7.351617   23.350771   7.082145  F  F  F
   4.532511    0.000234   6.074116  F  F  F
   1.706746    0.003278   7.072370  F  F  F
   2.804278    2.923829   9.618451  F  F  F
   0.000000    2.924231   9.229069  F  F  F
   6.252124    2.911903   9.631240  F  F  F
   7.256451    2.915447  12.262155  F  F  F
   4.525471    2.919568  11.818641  F  F  F
   1.785512    2.912716  12.279022  F  F  F
   2.733333    3.045840  14.866915  F  F  F
   0.042469    2.914149  14.559511  F  F  F
   6.330114    2.913766  14.887301  F  F  F
   7.312161    2.897440  17.430582  F  F  F
   4.547277    2.997014  17.032277  F  F  F
   1.317004    1.279806  17.031676  F  F  F
   7.350637    2.915768   7.082412  F  F  F
   4.532223    2.920083   6.075700  F  F  F
   1.707441    2.922941   7.071920  F  F  F
   2.803719    5.843329   9.617047  F  F  F
   0.000000    5.845008   9.229303  F  F  F
   6.252538    5.831988   9.629520  F  F  F
   7.253163    5.838092  12.252241  F  F  F
   4.522517    5.844267  11.807512  F  F  F
   1.782895    5.859428  12.279231  F  F  F
   2.756831    5.802244  14.872303  F  F  F
  -0.001428    5.825776  14.583686  F  F  F
   6.308747    5.842976  14.901330  F  F  F
   7.291993    5.814664  17.418230  F  F  F
   4.551965    5.869096  17.204411  F  F  F
   1.353096    4.403001  17.247208  F  F  F
   7.351617    5.834371   7.082145  F  F  F
   4.532511    5.839034   6.074116  F  F  F
   1.706746    5.842078   7.072370  F  F  F
   2.804278    8.762629   9.618451  F  F  F
   0.000000    8.763031   9.229069  F  F  F
   6.252124    8.750703   9.631240  F  F  F
   7.261820    8.754578  12.254827  F  F  F
   4.522695    8.763210  11.801830  F  F  F
   1.781734    8.760968  12.266978  F  F  F
   2.764567    8.906005  14.794383  F  F  F
   0.018924    8.737507  14.583898  F  F  F
   6.344472    8.757395  14.874738  F  F  F
   7.316742    8.755476  17.432565  F  F  F
   4.591383    8.827615  17.008695  F  F  F
   1.927386    8.815341  17.323078  F  F  F
   7.350637    8.754568   7.082412  F  F  F
   4.532223    8.758883   6.075700  F  F  F
   1.707441    8.761741   7.071920  F  F  F
   2.803719    0.004529   9.617047  F  F  F
   0.000000    0.006208   9.229303  F  F  F
   6.252538   23.348388   9.629520  F  F  F
   7.255197   23.353301  12.259386  F  F  F
   4.528832    0.003376  11.813417  F  F  F
   1.792145    0.015636  12.265077  F  F  F
   2.718523   23.212364  14.868528  F  F  F
   0.020387   23.303626  14.515476  F  F  F
   6.307172   23.340444  14.887122  F  F  F
   7.345081   23.320764  17.378137  F  F  F
   4.545111   23.259353  17.018670  F  F  F
   1.276511   21.699676  17.291010  F  F  F
   7.351617   11.673171   7.082145  F  F  F
   4.532511   11.677834   6.074116  F  F  F
   1.706746   11.680878   7.072370  F  F  F
   2.804278   14.601429   9.618451  F  F  F
   0.000000   14.601830   9.229069  F  F  F
   6.252124   14.589503   9.631240  F  F  F
   7.274779   14.588282  12.264258  F  F  F
   4.528317   14.592048  11.828776  F  F  F
   1.790299   14.603670  12.240710  F  F  F
   2.707591   14.683309  14.838760  F  F  F
  18.071245   14.658444  14.476519  F  F  F
   6.358219   14.596233  14.890634  F  F  F
   7.334652   14.632496  17.520994  F  F  F
   4.595642   14.704284  16.997041  F  F  F
   1.590693   14.880664  17.376415  F  F  F
   7.350637   14.593367   7.082412  F  F  F
   4.532223   14.597683   6.075700  F  F  F
   1.707441   14.600541   7.071920  F  F  F
   2.803719   17.520929   9.617047  F  F  F
   0.000000   17.522608   9.229303  F  F  F
   6.252538   17.509588   9.629520  F  F  F
   7.268903   17.516303  12.249352  F  F  F
   4.538669   17.511777  11.784123  F  F  F
   1.810845   17.534293  12.204785  F  F  F
   2.737076   17.431210  14.784906  F  F  F
   0.024164   17.522453  14.303675  F  F  F
   6.320028   17.522141  14.846015  F  F  F
   7.295345   17.508847  17.358532  F  F  F
   4.610894   17.474764  17.036451  F  F  F
   1.921553   17.649758  17.289135  F  F  F
   7.351617   17.511971   7.082145  F  F  F
   4.532511   17.516634   6.074116  F  F  F
   1.706746   17.519678   7.072370  F  F  F
   2.804278   20.440229   9.618451  F  F  F
   0.000000   20.440630   9.229069  F  F  F
   6.252124   20.428303   9.631240  F  F  F
   7.267993   20.428323  12.264705  F  F  F
   4.538578   20.433091  11.805444  F  F  F
   1.814895   20.420168  12.214025  F  F  F
   2.721819   20.471637  14.855778  F  F  F
   0.028341   20.455793  14.286092  F  F  F
   6.340710   20.428548  14.895890  F  F  F
   7.318417   20.375539  17.508588  F  F  F
   4.534873   20.444960  17.003812  F  F  F
  17.466576   19.156631  16.601566  F  F  F
   7.350637   20.432167   7.082412  F  F  F
   4.532223   20.436483   6.075700  F  F  F
   1.707441   20.439341   7.071920  F  F  F
   2.803719   11.682129   9.617047  F  F  F
   0.000000   11.683808   9.229303  F  F  F
   6.252538   11.670788   9.629520  F  F  F
   7.265473   11.683278  12.252360  F  F  F
   4.519983   11.683656  11.812150  F  F  F
   1.787397   11.688233  12.259767  F  F  F
   2.721213   11.693042  14.866327  F  F  F
  18.071625   11.679406  14.505109  F  F  F
   6.311014   11.718280  14.865156  F  F  F
   7.348805   11.733854  17.247204  F  F  F
   4.659469   11.624776  17.131774  F  F  F
   1.650251   11.582963  17.441118  F  F  F
  16.402885    0.003278   7.072370  F  F  F
  13.577120    0.000234   6.074116  F  F  F
  10.758014   23.350771   7.082145  F  F  F
  11.857507    2.911903   9.631240  F  F  F
   9.054815    2.913211   9.239478  F  F  F
  15.305353    2.923829   9.618451  F  F  F
  16.345035    2.897673  12.283204  F  F  F
  13.587390    2.911202  11.802942  F  F  F
  10.849028    2.916144  12.254141  F  F  F
  11.757918    2.906791  14.872924  F  F  F
   9.045802    2.914050  14.420298  F  F  F
  15.356313    3.007477  14.818377  F  F  F
  16.751550    1.405372  16.669126  F  F  F
  13.501870    2.963305  17.026886  F  F  F
  10.743397    2.908917  17.422407  F  F  F
  16.402190    2.922941   7.071920  F  F  F
  13.577408    2.920083   6.075700  F  F  F
  10.758994    2.915768   7.082412  F  F  F
  11.857093    5.831988   9.629520  F  F  F
   9.054815    5.830323   9.239646  F  F  F
  15.305912    5.843329   9.617047  F  F  F
  16.341277    5.844890  12.273039  F  F  F
  13.594037    5.838844  11.804727  F  F  F
  10.859584    5.836461  12.249190  F  F  F
  11.805461    5.829084  14.883392  F  F  F
   9.056043    5.831186  14.357132  F  F  F
  15.391958    5.744792  14.855541  F  F  F
  16.705646    4.231542  17.230862  F  F  F
  13.543785    5.800875  17.135148  F  F  F
  10.755416    5.793477  17.371423  F  F  F
  16.402885    5.842078   7.072370  F  F  F
  13.577120    5.839034   6.074116  F  F  F
  10.758014    5.834371   7.082145  F  F  F
  11.857507    8.750703   9.631240  F  F  F
   9.054815    8.752011   9.239478  F  F  F
  15.305353    8.762629   9.618451  F  F  F
  16.340073    8.742687  12.269827  F  F  F
  13.592358    8.751817  11.814635  F  F  F
  10.858802    8.752743  12.258161  F  F  F
  11.796698    8.747406  14.893082  F  F  F
   9.064366    8.758934  14.408367  F  F  F
  15.399556    8.843313  14.857504  F  F  F
  17.591283    7.152678  17.672612  F  F  F
  13.570586    8.808373  17.118638  F  F  F
  10.797222    8.739611  17.379334  F  F  F
  16.402190    8.761741   7.071920  F  F  F
  13.577408    8.758883   6.075700  F  F  F
  10.758994    8.754568   7.082412  F  F  F
  11.857093   23.348388   9.629520  F  F  F
   9.054815   23.346723   9.239646  F  F  F
  15.305912    0.004529   9.617047  F  F  F
  16.335907    0.022286  12.278492  F  F  F
  13.584972    0.007406  11.801538  F  F  F
  10.849443   23.352923  12.250686  F  F  F
  11.772454   23.346830  14.871840  F  F  F
   9.045518   23.350174  14.389685  F  F  F
  15.367506   23.244508  14.838937  F  F  F
  16.573770   22.062898  17.547541  F  F  F
  13.482254   23.306848  17.017004  F  F  F
  10.702614   23.327979  17.372196  F  F  F
  16.402885   11.680878   7.072370  F  F  F
  13.577120   11.677834   6.074116  F  F  F
  10.758014   11.673171   7.082145  F  F  F
  11.857507   14.589503   9.631240  F  F  F
   9.054815   14.590811   9.239478  F  F  F
  15.305353   14.601429   9.618451  F  F  F
  16.319993   14.600594  12.250355  F  F  F
  13.586947   14.593726  11.816936  F  F  F
  10.855778   14.587178  12.267667  F  F  F
  11.810289   14.599278  14.880545  F  F  F
   9.075160   14.587737  14.450181  F  F  F
  15.420659   14.731137  14.865516  F  F  F
  16.880138   13.253319  17.212122  F  F  F
  13.591430   14.684984  17.022490  F  F  F
  10.806198   14.584163  17.403552  F  F  F
  16.402190   14.600541   7.071920  F  F  F
  13.577408   14.597683   6.075700  F  F  F
  10.758994   14.593367   7.082412  F  F  F
  11.857093   17.509588   9.629520  F  F  F
   9.054815   17.507923   9.239646  F  F  F
  15.305912   17.520929   9.617047  F  F  F
  16.308305   17.556373  12.241868  F  F  F
  13.580290   17.523932  11.807694  F  F  F
  10.859398   17.519087  12.260137  F  F  F
  11.812322   17.526045  14.894083  F  F  F
   9.071894   17.512272  14.379393  F  F  F
  15.412424   17.457548  14.871669  F  F  F
  16.802967   16.255654  17.374584  F  F  F
  13.556039   17.488362  17.056099  F  F  F
  10.860456   17.509462  17.458198  F  F  F
  16.402885   17.519678   7.072370  F  F  F
  13.577120   17.516634   6.074116  F  F  F
  10.758014   17.511971   7.082145  F  F  F
  11.857507   20.428303   9.631240  F  F  F
   9.054815   20.429611   9.239478  F  F  F
  15.305353   20.440229   9.618451  F  F  F
  16.308706   20.417239  12.245813  F  F  F
  13.579585   20.432657  11.804600  F  F  F
  10.848771   20.428331  12.260512  F  F  F
  11.781092   20.442506  14.879158  F  F  F
   9.058524   20.436882  14.434380  F  F  F
  15.396530   20.538588  14.868901  F  F  F
  -0.002789   19.140391  19.165960  F  F  F
  13.505316   20.499334  17.039639  F  F  F
  10.752220   20.416926  17.429176  F  F  F
  16.402190   20.439341   7.071920  F  F  F
  13.577408   20.436483   6.075700  F  F  F
  10.758994   20.432167   7.082412  F  F  F
  11.857093   11.670788   9.629520  F  F  F
   9.054815   11.669123   9.239646  F  F  F
  15.305912   11.682129   9.617047  F  F  F
  16.329140   11.684042  12.256124  F  F  F
  13.590157   11.678445  11.813359  F  F  F
  10.864327   11.678662  12.257839  F  F  F
  11.818021   11.695334  14.888410  F  F  F
   9.076467   11.660864  14.384452  F  F  F
  15.410011   11.575500  14.849115  F  F  F
  16.913484   10.169309  17.188195  F  F  F
  13.609437   11.614822  17.033566  F  F  F
  10.869423   11.689222  17.424701  F  F  F
   3.437874    1.439457  16.054028  F  F  F
   3.304114    7.443403  16.119291  F  F  F
   2.202745   13.213806  16.336107  F  F  F
   3.386405   18.874749  16.095984  F  F  F
  14.630399    1.446382  16.043778  F  F  F
   9.041475    5.706818  16.351321  F  F  F
  14.667414    7.293834  16.097668  F  F  F
   9.027079   23.249010  16.406401  F  F  F
  14.749453   13.154315  16.078178  F  F  F
   9.063522   17.392888  16.378763  F  F  F
  14.630522   19.007200  16.063495  F  F  F
   9.114951   11.469098  16.393682  F  F  F
   7.979879   11.149854  18.916849  T  T  T
  10.302968    8.693451  19.222124  T  T  T
   8.276843    6.116757  18.980334  T  T  T
   9.107857   10.064818  20.783252  T  T  T
  10.483078   11.629035  21.944601  T  T  T
   5.436160    8.428466  20.870428  T  T  T
  10.546393   11.359198  19.269988  T  T  T
   7.626375    8.624179  22.050977  T  T  T
   9.291096    7.211097  20.961235  T  T  T
  10.218651    8.899119  22.538458  T  T  T
  10.670827    6.154223  19.220991  T  T  T
   4.210380   10.500380  20.841900  T  T  T
   6.874658    6.576734  20.841060  T  T  T
  12.934571    8.825392  19.009515  T  T  T
   4.333577    9.058987  18.894093  T  T  T
   5.358351   11.547032  18.987469  T  T  T
   8.358218   12.443695  20.959616  T  T  T
   7.562948    8.592423  19.398353  T  T  T
   5.062293    6.651422  19.073447  T  T  T
  11.807439    7.532059  20.879066  T  T  T
  13.099517    6.366577  18.984116  T  T  T
   7.750997   16.166654  18.823891  T  T  T
  11.790189    9.927231  20.877433  T  T  T
   6.624563   10.679299  20.960151  T  T  T
   8.243351   17.563329  20.739771  T  T  T
   7.174721   13.529932  19.128754  T  T  T
   8.351728   10.825919  22.905228  T  T  T
   7.758541   18.882395  18.764747  T  T  T
   9.812913   17.538714  18.988686  T  T  T
