Ta N Ru                                 
   1.00000000000000     
    18.1096308199999996    0.0000000000000000    0.0000000000000000
     0.0000000000000000   23.3551997799999995    0.0000000000000000
     0.0000000000000000    0.0000000000000000   30.4818171199999988
   Ta   N    Ru
   216   240    24
Direct
 -0.0005675447216785  0.0001902874745233  0.1955993435659731
  0.3333903588189822  0.0626783890730986  0.2017974758238356
  0.1659344121687376  0.0626400435556539  0.2018027401073890
  0.2495826963967026  0.1254290733769318  0.2773641206981497
  0.0821355680027289  0.0627639557477747  0.2826871877219472
  0.4170747462362965  0.0627948350770230  0.2826957782118802
 -0.0006323659353589  0.1251094367208318  0.3683231294637517
  0.3316255984806256  0.0628690303778403  0.3671862616273761
  0.1671446901828061  0.0628050012440046  0.3671595770022930
  0.2489201843837968  0.1250948373938530  0.4539069285488468
  0.0828083088605968  0.0624502040205180  0.4524995130005444
  0.4154182257900343  0.0627425893932004  0.4526439609292090
  0.0000300387728178  0.1254370976742080  0.1958471250496195
  0.3334813648884432  0.1881681459082409  0.2020188215753143
  0.1658664458920867  0.1881381680508253  0.2020239108728346
  0.2496675186583284  0.2503047200045311  0.2774757794655129
  0.0822998305564967  0.1878280615991739  0.2831010265070710
  0.4169486529007511  0.1878269217519688  0.2830133862216614
 -0.0006444360404089  0.2503058903297869  0.3690255288533506
  0.3316208537634738  0.1879343821198539  0.3675731561637523
  0.1672351252593352  0.1879354620943224  0.3677143145339323
  0.2485747546413400  0.2491445490904809  0.4548393092434301
  0.0817701426724240  0.1871586523783069  0.4528911901050302
  0.4153727732637079  0.1875487093235359  0.4534657304677631
  0.3356746541596222  0.1867432637861774  0.5412488212073233
 -0.0004405031692742  0.2503867417789085  0.1961573525115326
  0.3338135181140429  0.3126261666653307  0.2021919984394519
  0.1656674381760962  0.3126147670416525  0.2022367780177343
  0.2497916643773367  0.3753146884456542  0.2778491943058352
  0.0824650165541722  0.3127366892064791  0.2834670938554081
  0.4171758384079344  0.3127935535811515  0.2832719059983310
 -0.0004551795383941  0.3749053403473622  0.3691873880294192
  0.3321888400380679  0.3128582963745162  0.3677646678542043
  0.1672756243566179  0.3128711073123411  0.3682111784053684
  0.2497195096712859  0.3761163540574510  0.4544327595090700
  0.0846544720376996  0.3127224709680287  0.4547250212850761
  0.4158997208743679  0.3126978240135013  0.4543339228598122
  0.0002216507439917  0.3751955616156600  0.1964049617444957
  0.3336613279968998  0.4380601628299524  0.2022924873699014
  0.1660026805561124  0.4380182801982023  0.2023116768836933
  0.2496525491475531  0.0001874584742285  0.2769235919410401
  0.0825489537587360  0.4376975521700836  0.2834511791597092
  0.4173545497791399  0.4377541146103227  0.2832117097418856
 -0.0005308916102973  0.0001212037600648  0.3681242812082994
  0.3324760837601903  0.4379127661025240  0.3677902912744928
  0.1677823803412942  0.4379198566043884  0.3678513079872355
  0.2489130156315847  0.0004596685439109  0.4537407290196717
  0.0833894635427153  0.4385330979082550  0.4534646393545314
  0.4164926177347567  0.4377950398247472  0.4539702854668379
  0.3429755720513327  0.4374994661759926  0.5425518662740563
 -0.0004175942734156  0.5000632593467609  0.1964745506814719
  0.3339012282293171  0.5623936186731026  0.2021963787978142
  0.1659454859464645  0.5623037565182120  0.2021684756946525
  0.2502119602026748  0.6253240051912149  0.2776723868394570
  0.0824946620732864  0.5626522371909182  0.2833226142269421
  0.4176694251300665  0.5627148354102562  0.2832647613436689
  0.9995388534817830  0.6251140892253839  0.3690043940674609
  0.3329726850243626  0.5629409349060640  0.3677860104446415
  0.1679847834789646  0.5630181976575128  0.3677491671185035
  0.2520877635076972  0.6261674245557973  0.4538784012469454
  0.0834227635359878  0.5636037927975994  0.4535985887214867
  0.4171633570493097  0.5629250999546508  0.4543801115454531
  0.0001465744291102  0.6250564820437639  0.1962438753196680
  0.3340604623519970  0.6877858450251410  0.2019935582235954
  0.1658812911778201  0.6877363887972637  0.2020378750245197
  0.2500574799873120  0.7501579291464840  0.2772060888145498
  0.0825149961985437  0.6876028807423886  0.2831317891985800
  0.4176776583275614  0.6876508123366589  0.2830769191568518
  0.9996178093556869  0.7500714655596761  0.3685794574649058
  0.3329174819138017  0.6879447816567420  0.3674335215201494
  0.1679141560711719  0.6879821323492968  0.3674229956923756
  0.2510761815606014  0.7528152860304599  0.4538709678312107
  0.0844140475803187  0.6888576387591936  0.4532351123202488
  0.4173269430558008  0.6885161224403763  0.4544377909467117
  0.3442327907954922  0.6910162050057976  0.5446937016962077
 -0.0005103233086000  0.7499228617426879  0.1959983179916657
  0.3335535407373302  0.8122334752379462  0.2018175480336085
  0.1660931865166002  0.8122425874785111  0.2017759551489012
  0.2498583341220227  0.8751995800926468  0.2771551229520094
  0.0823189162256296  0.8125886753251850  0.2827144308448382
  0.4175296619219074  0.8126307760760197  0.2827884898611931
  0.9995534132793980  0.8749768465223204  0.3681766729559721
  0.3323827363598571  0.8128801555788883  0.3671970560080204
  0.1679657640866702  0.8128522231727209  0.3671585648412860
  0.2496750267208431  0.8758138048465198  0.4534847558137712
  0.0829965911749279  0.8136110007351466  0.4523328340946505
  0.4165506038750026  0.8135858423524540  0.4528406246312516
 -0.0000050962968916  0.8750271913945228  0.1956941900562870
  0.3334177357427864  0.9379015910300345  0.2017683883011123
  0.1661048952494922  0.9378866290367558  0.2017593425542889
  0.2500418732488588  0.5001666712714123  0.2775741928444913
  0.0822641903275143  0.9376718159526742  0.2825297742693202
  0.4171895035964482  0.9377341723315636  0.2825431426144995
 -0.0001949494320854  0.5001877012750224  0.3690586134055885
  0.3319052233739591  0.9379428445359269  0.3669798426884660
  0.1673810507105642  0.9378179311092303  0.3669403891556371
  0.2509810286086562  0.5013850124821527  0.4543415877309680
  0.0827415313521582  0.9378808646735350  0.4525989344661484
  0.4160475637315663  0.9382007177906344  0.4528104124680516
  0.3347473767164419  0.9392233182703972  0.5401799728022948
  0.1628063392653712  0.9375644958466387  0.5401707783957326
  0.4999178424224345  0.0001737583140792  0.1956202499420263
  0.8334038329272052  0.0629750706203537  0.2017604167586485
  0.6659730172080344  0.0630440643863041  0.2017706730727660
  0.7495991786410431  0.1251867779813512  0.2770526228532769
  0.5820343689728722  0.0627115914367446  0.2826107614145751
  0.9171225252239014  0.0626674068216594  0.2826313378947152
  0.4991742050877982  0.1252017038239533  0.3683181423763379
  0.8316480733126072  0.0624055371205622  0.3669852487327955
  0.6671266905099055  0.0625048603351364  0.3670033742306597
  0.7486343690876295  0.1241123016050882  0.4536070632914599
  0.5826471628571982  0.0623073215527715  0.4523939982943396
  0.9153762632938456  0.0619530518988687  0.4524514723874229
  0.4993564727239701  0.1254534762823840  0.1958044629876460
  0.8337784238651048  0.1876065197401098  0.2018962111583002
  0.6657689086256449  0.1875553318040918  0.2019395218588981
  0.7498532078970587  0.2501079582778699  0.2775896523463039
  0.5821513922867232  0.1877036148601477  0.2829771724394951
  0.9171321787807108  0.1876882759866874  0.2829918035046325
  0.4991592145277740  0.2504309731138626  0.3688244763941431
  0.8316569713570857  0.1874052979038794  0.3675323975840656
  0.6670164515034092  0.1875113819037516  0.3675227786601430
  0.7488504639154461  0.2478626165674116  0.4546816822761338
  0.5816582391844619  0.1868291079587731  0.4526672381654091
  0.9154650026695024  0.1866695563868198  0.4531952556570348
  0.8340467707082951  0.1840038958623418  0.5407804210649358
  0.4999307111439728  0.2503997779426012  0.1960994026242694
  0.8338135281326905  0.3130457953934878  0.2021246517649293
  0.6658493001518730  0.3129788664091962  0.2021237973929420
  0.7500804942948127  0.3750367547536592  0.2775584295059098
  0.5822888370461139  0.3126311506024345  0.2832397804151174
  0.9172591497953858  0.3126327361207362  0.2832985884882102
  0.4996305027607973  0.3747998841479433  0.3689978460449333
  0.8324185113171720  0.3122321289527237  0.3677504484484801
  0.6673120552196302  0.3122048919230866  0.3675773222305445
  0.7504133423710677  0.3745977862197998  0.4542248807044783
  0.5849411762733288  0.3120532810238186  0.4546403811913092
  0.9164652119666195  0.3118738875075310  0.4547183753961858
  0.4995277211225007  0.3751758116364093  0.1963339134601335
  0.8337483781179733  0.4373340770329233  0.2022883052772347
  0.6659915778374844  0.4374519038174632  0.2022918851956834
  0.7496292159796488  0.0000471487338095  0.2770989118001921
  0.5826103999413887  0.4376105747911360  0.2833648510885042
  0.9173799819162327  0.4375608972237132  0.2834577945389846
  0.4993659483576577  0.0003104637336028  0.3681955562611046
  0.8321634951400422  0.4373044733895083  0.3681268266163340
  0.6681218861703243  0.4373303860911421  0.3675649039069516
  0.7490413304527415 -0.0002767382257802  0.4535996688471154
  0.5832555397396861  0.4370288141268522  0.4521698727519883
  0.9167007471943932  0.4372222881683727  0.4542082083731396
  0.8323147347464699  0.4339016293502422  0.5444482341505811
  0.5002824528487533  0.5001782701496003  0.1964117285313342
  0.8337452525265910  0.5627949910612841  0.2022650364458043
  0.6660073327846263  0.5628375483714022  0.2022990093668036
  0.7501019626248964  0.6250474227467957  0.2776047762425470
  0.5826335185593770  0.5626263988354741  0.2834579828368276
  0.9174020503290354  0.5625178499929908  0.2832917501885019
  0.4999677429292770  0.6251736979935150  0.3692330551898350
  0.8329085590578552  0.5624539093080563  0.3679222123184969
  0.6681841389233675  0.5625741705905140  0.3677725855006586
  0.7496690717594269  0.6242194779825029  0.4550355671397684
  0.5849094882259972  0.5620669019032574  0.4542590913315300
  0.9167450161874857  0.5626232656439446  0.4544271711795341
  0.4997806279237576  0.6251025946134999  0.1962752043307821
  0.8338397905540169  0.6871890108524294  0.2020215841924946
  0.6658442590260718  0.6872338503951372  0.2021546542692736
  0.7498965148825631  0.7499642877262531  0.2775628842908090
  0.5827311505282553  0.6875685236437400  0.2833773708409578
  0.9173599459978186  0.6874977374892431  0.2830600557185580
  0.5000389713100036  0.7500609370998484  0.3688522133413675
  0.8326213728603170  0.6874425178114796  0.3676958993855505
  0.6678820067901350  0.6874690134508638  0.3681239509414098
  0.7500213838105101  0.7516675867919022  0.4544237278191823
  0.5853057060637160  0.6879155156991045  0.4542968187708819
  0.9165175584881939  0.6877478063264242  0.4545408568735443
  0.8451503536466339  0.6867721754389777  0.5437540990195603
  0.5002713318910741  0.7499613627457340  0.1960125654434326
  0.8334921543871541  0.8126914918084930  0.2018680501829745
  0.6658613465927109  0.8126232476698065  0.2018897690739683
  0.7497373256673380  0.8749903409075626  0.2770491149114945
  0.5823935131866009  0.8125221014566540  0.2829274491066938
  0.9173659398533169  0.8125082189711127  0.2828032063259799
  0.4997354832489679  0.8751130713373652  0.3682613789820021
  0.8321524387896398  0.8123986953788727  0.3672643727903898
  0.6679176396070561  0.8124663245145785  0.3674667382522622
  0.7498169659099461  0.8749943788237642  0.4536126748152034
  0.5831248546313814  0.8132528096784207  0.4526832788108296
  0.9162874718802758  0.8128183717174019  0.4527282365181448
  0.4995387204734479  0.8750567942246619  0.1956726319669355
  0.8332435119264399  0.9373011655242669  0.2017852158852173
  0.6660169058991392  0.9373017006695903  0.2018013519919758
  0.7502364037189508  0.5000355063294806  0.2778722649272755
  0.5822079760742254  0.9375992035706978  0.2825676163652425
  0.9171523628403572  0.9375754186476909  0.2825420588582748
  0.5001044600437468  0.5003712993011454  0.3690786882609535
  0.8318833229464629  0.9375076500958203  0.3669454427573939
  0.6672455836187121  0.9375189990600376  0.3669701421866020
  0.7505240462277393  0.4987179771193305  0.4545325653275615
  0.5828089501498754  0.9376451881200439  0.4526726497695606
  0.9160398750945373  0.9374590128986072  0.4527438908836171
  0.8349611355074090  0.9370709320982255  0.5401470579562029
  0.6628909508404350  0.9369699920544690  0.5400099749602258
  0.3325264396648856  0.0628941867539574  0.5394659065920197
  0.1624545367864917  0.0625416964887774  0.5393305132710957
  0.3384751070989463  0.3110052840666938  0.5428022714910778
  0.3446912980784286  0.5652453398361381  0.5437975712697761
  0.3361420448488248  0.8160084916525665  0.5401843353439074
  0.8333140472730752  0.0608017806470936  0.5394491710464090
  0.6632646603582156  0.0621090449824591  0.5392199047197063
  0.8397636548192500  0.3092930059273696  0.5433705469398897
  0.8432280505706690  0.5585601453024663  0.5426238478581867
  0.8362494862077021  0.8125999600378291  0.5402363219869515
  0.1653373339133460  0.1892933096294421  0.5408308090130570
  0.6635835737099497  0.1884365047038526  0.5401862665273327
  0.1665026540363323  0.8117722986240994  0.5398486879854641
  0.6671274265769008  0.8113018488528589  0.5403637393380138
  0.4060774129106199  0.0003204743761549  0.2307548281471229
  0.2497271538912758  0.0003031173952374  0.1970882297860519
  0.0932825812246221  0.0002534902740844  0.2307172698959010
  0.1541066697564944  0.1253239115872564  0.3148319258559291
 -0.0003550604297027  0.1252432880528818  0.3017373964041604
  0.3450066148457669  0.1253082181997961  0.3147897171124920
  0.4004164890829356  0.1253981127615655  0.4011663951758070
  0.2493550397456762  0.1253051994447182  0.3860984655940356
  0.0981531013398070  0.1252262755616712  0.4009974941578727
  0.1501944847959753  0.1258259302501480  0.4865448352145021
 -0.0011032007375347  0.1236148881091265  0.4718754163692543
  0.3475282059895169  0.1250905663363053  0.4865862568858380
  0.4034329625403986  0.1229216224967389  0.5679182656160879
  0.2474928273233779  0.1256591545465142  0.5565577204668124
  0.0894296649923030  0.1234000631696585  0.5659743957470779
  0.4057220300810491  0.1254120292830179  0.2310713681931925
  0.2496576535588052  0.1254403539517350  0.1991062794903542
  0.0936771097149791  0.1254273120691049  0.2311243911195143
  0.1542814606060833  0.2503711469749462  0.3152748183893859
 -0.0002960343570689  0.2502127197063597  0.3022808370530924
  0.3449950482350537  0.2504027428755740  0.3151006733453982
  0.4004964577069938  0.2503855396397545  0.4018169883566960
  0.2496448431836580  0.2505175128074409  0.3869024778509297
  0.0980985391851804  0.2506425626092138  0.4019341686300266
  0.1496972204116665  0.2473867040429029  0.4866558380390266
 -0.0007411901445637  0.2480885723888283  0.4740689691669397
  0.3478736816605163  0.2497253021015053  0.4873583805338814
  0.4016019272729988  0.2485426140266951  0.5694600031851369
  0.2491950425973184  0.2485517762593553  0.5578911051822851
  0.0745578635745542  0.2303350893583050  0.5708745055989750
  0.4060511207582879  0.2503811708358133  0.2313066625529954
  0.2497016647809643  0.2505049940312882  0.1976737906834855
  0.0934085830103362  0.2504045658055203  0.2314195137809574
  0.1544583240352315  0.3752524925812017  0.3154044500470446
 -0.0001276031058526  0.3751872250904013  0.3024769974178624
  0.3453534900530444  0.3753434332578020  0.3152751932793623
  0.4007626813210113  0.3751858357580312  0.4019393373010793
  0.2501570943149580  0.3753527517216513  0.3867225891741725
  0.0983545497335681  0.3752419219330369  0.4016096403602721
  0.1515610981096682  0.3779761810094426  0.4840374434067131
  0.0009250931542492  0.3741064575638542  0.4723329112462624
  0.3488330446077059  0.3755790619998853  0.4877000209554457
  0.4036117729050757  0.3736402289692949  0.5694236549392633
  0.2483887931383781  0.3796260482353169  0.5555858174534948
  0.0846378542823294  0.3437996231698149  0.5539229816731965
  0.4058188995050591  0.3752789900104109  0.2315484786105539
  0.2498048675857129  0.3752535024722038  0.2001373839539871
  0.0938672802552215  0.3752415404384209  0.2317005364398071
  0.1541365087949389  0.0003311876813993  0.3144729429561718
 -0.0003876841567696  0.0001352774598303  0.3015205112907302
  0.3450625347837210  0.0003803390190385  0.3145000789414104
  0.4005345451591913  0.0003730359041505  0.4009564132013419
  0.2494475324839117  0.0003518113701735  0.3858756873224464
  0.0982106271706143  0.0000856476350759  0.4007786148497740
  0.1502441503179770 -0.0000746351781734  0.4863824605166656
 -0.0006473219965344  0.0004784936448617  0.4722407934550900
  0.3474696167791203  0.0005270152743774  0.4862416343232217
  0.4045586221312006  0.0023807989902831  0.5669491126530117
  0.2475483213001171  0.0003285006082145  0.5565282521460063
  0.0913824195207235  0.0002480367450472  0.5664222353390672
  0.4063427663332326  0.5002583700337762  0.2314416066008445
  0.2498885972481410  0.5002460444476102  0.1974732819754845
  0.0935788901748764  0.5001583943413601  0.2315329891505082
  0.1546652785600818  0.6251699955413854  0.3150058706830829
 -0.0000630062764807  0.6251065106851914  0.3022823286879096
  0.3458139432817873  0.6252230544535042  0.3150635822689580
  0.4010112147785214  0.6255718951836067  0.4020633378940075
  0.2507981354082429  0.6256709843845130  0.3861668715064495
  0.0984863635658044  0.6258258099961457  0.4010021943806111
  0.1529881130551420  0.6273470182972645  0.4822190777244906
  0.0017683129391819  0.6254670662401871  0.4726891294970161
  0.3515184942916016  0.6261916335234023  0.4882961696105830
  0.4041524946735790  0.6277670525004770  0.5726529077360721
  0.2568756158095189  0.6290418380275319  0.5594087351385392
  0.0899226753281976  0.5981717663311831  0.5553088774087614
  0.4060678445141327  0.6251155950005107  0.2314519062180260
  0.2499297720486529  0.6250962276251726  0.2001227268341899
  0.0938933417166364  0.6250302736843578  0.2314447239281530
  0.1545372281434229  0.7503404690812424  0.3146987561837880
 -0.0001438955910591  0.7499914766015888  0.3019194088276858
  0.3456368767230075  0.7503107854499027  0.3147822617977088
  0.4011526017088410  0.7504006802008096  0.4015849072168739
  0.2504186227676494  0.7503224514544371  0.3861085841405797
  0.0986903413466532  0.7503169410346689  0.4008958441822088
  0.1520869380617381  0.7535104029595846  0.4851895809917925
  0.0005288286882602  0.7514882284554540  0.4729764900376315
  0.3504433219794436  0.7521140048868952  0.4875374862106205
  0.4049414500709012  0.7568314599774543  0.5706660568255894
  0.2525835254332599  0.7542779558161407  0.5576529349683392
  0.0838080537060943  0.7583058722476826  0.5691545542129971
  0.4063536301529251  0.7500398506367482  0.2311017327627872
  0.2498529969760063  0.7498601797558804  0.1973957267279395
  0.0934978412812636  0.7499496198243805  0.2310741668183166
  0.1542644972275037  0.8752178941919768  0.3144737026983652
 -0.0002101955953071  0.8751229115357122  0.3015709013015996
  0.3453836556521187  0.8753026504333192  0.3144981535701577
  0.4009170535364687  0.8756786952020356  0.4009078869914158
  0.2498827256273677  0.8755285008915490  0.3857091942005982
  0.0985160583249351  0.8754934486339772  0.4006976885203166
  0.1509845711520742  0.8753885714290638  0.4861406048768613
 -0.0004850044710922  0.8751487548668986  0.4720714601193740
  0.3482376304784227  0.8766721823960149  0.4861281624580246
  0.4046931619446941  0.8786963656466290  0.5670200110009720
  0.2487556952163441  0.8762916232451016  0.5561777318368746
  0.0928286789742441  0.8729613742299469  0.5660658984527821
  0.4058424651087953  0.8750526643632299  0.2308653143391260
  0.2497939797119590  0.8750359905567598  0.1987856684534087
  0.0937438872727330  0.8750493831476250  0.2308290150123158
  0.1547692839974552  0.5003591939551397  0.3152216173052266
 -0.0001240722799730  0.5001221370913757  0.3023773953828306
  0.3455769048659083  0.5003383204857008  0.3151657129351678
  0.4010074394078531  0.5003826063069592  0.4018895656361033
  0.2504956238988344  0.5005575961881303  0.3865219426082478
  0.0987900061459246  0.5005847067969034  0.4013217770120822
  0.1525831007289126  0.5026928324825011  0.4838775128533931
  0.0010792671764831  0.4996574243958047  0.4722708697071207
  0.3499951183267883  0.5004234647223580  0.4879815913337929
  0.4063963719532886  0.5008082344202812  0.5701861652082097
  0.2512276630726756  0.5092975837528305  0.5575046549246215
  0.0854125767228746  0.4682529581231700  0.5551567535727249
  0.9057792660988644  0.0001698845801701  0.2307751314722296
  0.7496530824806947  0.0001965433794922  0.1988144304783500
  0.5935984876804844  0.0002118523523951  0.2307959297670537
  0.6540557564931924  0.1250888545097750  0.3146231690317964
  0.4994787194595161  0.1252971124390695  0.3017218169739297
  0.8450099461211614  0.1250260077429883  0.3146223532411017
  0.9004283896286177  0.1247451921233826  0.4009181801460531
  0.7493250840650850  0.1248174806490047  0.3858528633057520
  0.5979690929725385  0.1249553015783709  0.4008894910438923
  0.6499774285163584  0.1250569462807588  0.4862480322970609
  0.4989485188832093  0.1239996534042831  0.4725720133713832
  0.8473365324122660  0.1235146168221207  0.4861877776596880
  0.9023323269282839  0.1203484529261700  0.5679156194252707
  0.7471447571537329  0.1239707226843262  0.5561546249278277
  0.5912226973222899  0.1234687199534228  0.5662211269425714
  0.9060978221111780  0.1253200733585132  0.2309353060817373
  0.7497697232602287  0.1254233686998304  0.1972205905723113
  0.5932250417584214  0.1253388529098245  0.2309413203717905
  0.6542067029345386  0.2500273394883739  0.3149732996352282
  0.4995865644043246  0.2502235474929753  0.3021336510016804
  0.8452430734763964  0.2500120051432470  0.3150838320820974
  0.9005712301751516  0.2497021189249968  0.4018328873192633
  0.7496077155697189  0.2499609461947159  0.3867578248188162
  0.5979688510521846  0.2503063339348776  0.4015592057301751
  0.6500523709465423  0.2472149982909124  0.4861553215288291
  0.4991833741521409  0.2494219878648648  0.4730209332970231
  0.8480571707063042  0.2478220825590398  0.4871275153361870
  0.9004910329872009  0.2429370867158848  0.5707688132879458
  0.7477121977226492  0.2462368179416199  0.5567663214010194
  0.5790516603688521  0.2395569837539443  0.5681030201701280
  0.9058412394245541  0.2503081377213316  0.2313802131253344
  0.7498040648434988  0.2502946552691642  0.1999179762735217
  0.5936689796744020  0.2502785048891620  0.2313451386063147
  0.6545342560671841  0.3748863606642804  0.3150307502953420
  0.4997830225894077  0.3752588106887695  0.3023272864454461
  0.8453756467868033  0.3749405576631569  0.3153139176313478
  0.9007632843623916  0.3745466104757494  0.4021268713245574
  0.7500299663932085  0.3742340319433515  0.3865228797037278
  0.5987763709663422  0.3737440886286595  0.4011836009382811
  0.6529831712035996  0.3761131395152846  0.4847669440533600
  0.5004241867203075  0.3740846188731153  0.4721615288565435
  0.8488223560965652  0.3745817516365401  0.4875870955312175
  0.9027852974764295  0.3707164157922430  0.5703758867750115
  0.7578163908685507  0.3672620292590943  0.5589562487010888
  0.5919501977827378  0.3646699360439472  0.5618497010110705
  0.9062887460339075  0.3751741785422380  0.2315131213389444
  0.7497522453589953  0.3751780404491948  0.1975903038528645
  0.5935172770294345  0.3751590865681935  0.2314097323660249
  0.6540348802794640  0.0001266688648940  0.3144578551063603
  0.4996291822018183  0.0001994359201001  0.3015736414559943
  0.8451236240691986  0.0000636468500945  0.3144332595650122
  0.9005692900019610 -0.0001805419198902  0.4008228626701328
  0.7494048608123817 -0.0000925441225905  0.3857636305264392
  0.5982019786145925 -0.0000231972259715  0.4007521461954709
  0.6503471907877570 -0.0004688277615278  0.4862878565912862
  0.4992371089953042  0.0009984123668006  0.4724773263330718
  0.8475824923840012 -0.0008021667118217  0.4861248040975842
  0.9051592552865464 -0.0007913600663897  0.5669442205797263
  0.7479943903810463 -0.0010893050889113  0.5564167181727142
  0.5913383094814809  0.0005409793787437  0.5662147864052428
  0.9057924655068530  0.4999934680653173  0.2316085194692117
  0.7498751317829194  0.5000797989307989  0.1998788690909556
  0.5940194220247490  0.5001757556943709  0.2316147442045041
  0.6548056087455636  0.6250663071788239  0.3152915032494583
  0.5000560815398861  0.6251639796282062  0.3024535085887020
  0.8455121852497248  0.6249838506182367  0.3152146438557762
  0.9009646678182837  0.6251951442272522  0.4020302853114629
  0.7505539839050386  0.6249631386836272  0.3870234206349768
  0.5988345882444266  0.6250246434265118  0.4016671395958974
  0.6508181656082953  0.6237832769009458  0.4851099899513361
  0.5016568422222714  0.6257485967198478  0.4721854106947508
  0.8495180508319868  0.6250377535545003  0.4876885689602100
  0.9052612213669988  0.6222079769103352  0.5700482871471994
  0.7491055320007780  0.6192887694376088  0.5537004636918779
  0.5753059368975144  0.6362813892205895  0.5672964072822517
  0.9062973607742880  0.6249744516912521  0.2313643294804806
  0.7498524365432168  0.6250385151230464  0.1975635683925354
  0.5935904276687030  0.6250477522179152  0.2315584874312170
  0.6545014076264078  0.7500068590364675  0.3151112115539399
  0.5000362383332964  0.7500342194050955  0.3021342325107898
  0.8454584074552480  0.7499363377829568  0.3149309158830810
  0.9009728289803631  0.7497966993430185  0.4015642139243946
  0.7502859828325352  0.7497851913193770  0.3865434339015683
  0.5988670965946169  0.7498820619441439  0.4015695367634414
  0.6514833879577335  0.7530645865174488  0.4862785585055904
  0.5007336989987139  0.7517578097544531  0.4733714101528373
  0.8497325706990831  0.7508329796318534  0.4872639819827107
  0.9066850662635566  0.7520743469643310  0.5688564686915015
  0.7532307467262945  0.7525974666918394  0.5579345808759365
  0.5808203460209497  0.7618219472363377  0.5698381379681301
  0.9057888430859679  0.7499589580874153  0.2312174195292566
  0.7498009944637311  0.7498456703568731  0.1997142762729873
  0.5938520442641754  0.7499262771295362  0.2314064333092529
  0.6542685723748358  0.8749807139921374  0.3146082963125474
  0.4997444984946195  0.8751717191065642  0.3016673233014955
  0.8452525913368005  0.8749800054505040  0.3144909768853349
  0.9007925084338051  0.8751512758627913  0.4009065343935252
  0.7498194211254514  0.8751507509018193  0.3858113338880036
  0.5985867193107894  0.8752175610709166  0.4008655926764960
  0.6513926452016484  0.8748214943822759  0.4862631509314322
  0.4997348474368319  0.8755844748619060  0.4718596485499357
  0.8482431142985696  0.8752320052801854  0.4863043367318874
  0.9052700816494841  0.8755114049662411  0.5669842672972207
  0.7490396098465714  0.8750386720027347  0.5563656797334661
  0.5924827524408839  0.8733712436972682  0.5657507689034462
  0.9060924924093156  0.8749612177249294  0.2307977813906850
  0.7496437522956866  0.8749092339931802  0.1969874899692414
  0.5933421601030768  0.8749500514170334  0.2308821717023788
  0.6546897959027822  0.5001038515032421  0.3151616148333664
  0.5000551531990922  0.5001248399799961  0.3024179881270878
  0.8456465162209872  0.4999623519678041  0.3153815292064269
  0.9010328870104353  0.4996129283850750  0.4020884030601420
  0.7503343341147466  0.5001265068017103  0.3866623456711190
  0.5993657800680373  0.5006049586866163  0.4011114184183850
  0.6526123082881652  0.4969561699615025  0.4848620791559294
  0.5006714144707741  0.5006245687916042  0.4718229979895242
  0.8494592810789514  0.4979347738383180  0.4874342195662815
  0.9043200484920692  0.4935340945593716  0.5702796143815978
  0.7590834474714478  0.4997760161280193  0.5582635275755453
  0.5929765059507581  0.5106044530584577  0.5630676847480660
 -0.0014408648630354  0.8692067196751703  0.5386008585289838
  0.4984088182399922  0.8717552118696622  0.5382562683118693
  0.9978545159762147  0.0050207683683727  0.5390822142164685
  0.4977251100618361  0.0085064935105253  0.5393371897576037
  0.9963511861798355  0.1185102100825826  0.5383399913724481
 -0.0047277516147767  0.3608448686051970  0.5388307030152429
  0.1913635107581810  0.4463740921040380  0.5338207801730289
 -0.0005883779150971  0.6098629870750807  0.5389393671124755
  0.1985989144791736  0.6890150620072596  0.5271883631988593
  0.4972716810696010  0.1185261310955772  0.5393743389593763
  0.4964881805171747  0.3697241133203625  0.5385998772500470
  0.6121529019773206  0.4380999750737407  0.5377985029453690
  0.4972542040581276  0.6283730815753842  0.5399852927915141
  0.6978355265865748  0.6860748752757947  0.5276180707013948
  0.9934151419389912  0.2370732381231423  0.5412646016811047
  0.1855639178372352  0.3162035950533677  0.5301932011493475
  0.1889704287708880  0.5712704170519521  0.5341026739881941
  0.0008785706096825  0.7589510671424743  0.5402755345837846
 -0.0029894944256533  0.4858555907685939  0.5388770203373637
  0.4965016319280291  0.2465448312884879  0.5397696377917340
  0.6842694370039778  0.3150703176003304  0.5334573429134730
  0.6882625662419347  0.5552958247222238  0.5355262145984091
  0.4981602214069466  0.7611534603225092  0.5409859119591871
  0.4973171290895107  0.5074382635520654  0.5382190502603684
 
  0.00000000E+00  0.00000000E+00  0.00000000E+00
  0.00000000E+00  0.00000000E+00  0.00000000E+00
  0.00000000E+00  0.00000000E+00  0.00000000E+00
  0.00000000E+00  0.00000000E+00  0.00000000E+00
  0.00000000E+00  0.00000000E+00  0.00000000E+00
  0.00000000E+00  0.00000000E+00  0.00000000E+00
  0.00000000E+00  0.00000000E+00  0.00000000E+00
  0.00000000E+00  0.00000000E+00  0.00000000E+00