Mo  S Cu                                
   1.00000000000000     
    15.9214998300000001    0.0000000000000000    0.0000000000000000
    -7.9622501300000001   13.7910221699999997    0.0000000000000000
     0.0000000000000000    0.0000000000000000   13.5821998300000004
   Mo   S    Ru
    25    50     4
Direct
  0.1312050177035857  0.0632230807389575  0.6813819774482965
  0.1298969680625319  0.2632808519003405  0.6844086523495037
  0.1307735401947738  0.4637992871178440  0.6853559215323912
  0.1314192118859765  0.6639453113480798  0.6811302065467828
  0.1317347583063366  0.8638615674311012  0.6790900739553010
  0.3311560536299893  0.0623003161717719  0.6778447880157685
  0.3302744628704772  0.2624174159489883  0.6888844482590528
  0.3334656369799305  0.4649166129926599  0.6935928256667978
  0.3318241361152801  0.6643005781800042  0.6833800852702012
  0.3313707692466537  0.8632972232203286  0.6780756946476814
  0.5315906896184686  0.0623355424441669  0.6741131872527006
  0.5315133708706909  0.2598887307689566  0.6718702290793885
  0.5320821217585134  0.4648883062368441  0.6864996117389310
  0.5338500855329897  0.6669609559835195  0.6807584573291408
  0.5319984010419816  0.8641743871881431  0.6772998651963320
  0.7319713962723071  0.0637806048895300  0.6765742496467055
  0.7319684381510214  0.2622964306429125  0.6748910300906772
  0.7321552403517231  0.4656691542782951  0.6727519618084230
  0.7326421660840765  0.6653026308149137  0.6781953114121748
  0.7326829381027480  0.8650281637724007  0.6774860211385771
  0.9316872369598457  0.0641025253175584  0.6794950615465041
  0.9313836912464666  0.2643471357404508  0.6815089897328974
  0.9313640182753105  0.4641600023735180  0.6790046578060469
  0.9326671755725258  0.6657240646999796  0.6783557895430548
  0.9321384042303080  0.8645893789852579  0.6783904456526813
  0.0667625020370011  0.1325095235087943  0.5668406808685873
  0.0621782496970553  0.1275548225686336  0.7970093463123362
  0.0662173689310848  0.3317520060507562  0.5689917168555709
  0.0617375661604740  0.3296805065340465  0.7992863431505484
  0.0668231263065024  0.5302632482620098  0.5668787372679418
  0.0626743057348307  0.5312290034644107  0.7971916220041777
  0.0660472820023017  0.7307077040501539  0.5642649182015305
  0.0647378807605321  0.7314428378709579  0.7949172122464816
  0.0659783738341559  0.9318420643006249  0.5642751062800713
  0.0642361236571247  0.9291925623217949  0.7949102758536881
  0.2651005097337134  0.1334114741143893  0.5676482493769512
  0.2640607500350782  0.1257307050575918  0.7977536495313515
  0.2670940178553565  0.3333045780443911  0.5764406059504310
  0.2521003890743003  0.3225411932791289  0.8149081142523826
  0.2659531956689705  0.5277055482271393  0.5735161171689143
  0.2639592793193870  0.5331339455391415  0.8019817969085850
  0.2643821119278584  0.7280769941643470  0.5657164257349052
  0.2650882860596298  0.7323780269797879  0.7960070074114256
  0.2638815140865702  0.9293752866345670  0.5628312550747481
  0.2653620736020699  0.9300144663528371  0.7935339532747108
  0.4621164101362396  0.1264396688554328  0.5584411947899852
  0.4659973493554332  0.1282145751741837  0.7895028417816903
  0.4613459815237064  0.3317391272915273  0.5702147125542254
  0.4731419203543297  0.3200259049066219  0.7988666794485795
  0.4622210800351780  0.5287163010198626  0.5737167911255412
  0.4727887511944360  0.5469496270962821  0.8112836878375873
  0.4633008831156502  0.7284997141126581  0.5652125598189670
  0.4672097980050012  0.7346935209099001  0.7956689565922019
  0.4635502823639897  0.9278628435339300  0.5609372398374646
  0.4658145514080942  0.9313287227505569  0.7914901040843105
  0.6655808876854508  0.1290529423429447  0.5592737277923376
  0.6641045098700928  0.1293343010204211  0.7900798399493496
  0.6663401272195699  0.3306065633452704  0.5584025025036539
  0.6652041468926626  0.3306892087822817  0.7843474385836302
  0.6606989943125541  0.5312187498182439  0.5637785721612119
  0.6686679635961923  0.5311989520313460  0.7944822097572555
  0.6649787915793439  0.7306328512767308  0.5635297163823125
  0.6686845981181335  0.7341319899030410  0.7940676946498755
  0.6653548250143686  0.9303128041821509  0.5616091778257868
  0.6655652690682956  0.9313322121677814  0.7920722558277262
  0.8672020087866912  0.1325829130067859  0.5640407511389043
  0.8632596084251460  0.1293609789228967  0.7942114488711383
  0.8675973128499948  0.3312751972805188  0.5638061409482233
  0.8600980358556995  0.3316916636098171  0.7972033094429989
  0.8677383993956198  0.5329715976766352  0.5621130041288609
  0.8623907830851962  0.5295269670216456  0.7935630091515833
  0.8654659602862154  0.7314629535096273  0.5629269323038528
  0.8656880010537762  0.7318587926460438  0.7935855741056272
  0.8663849708132147  0.9319575734585115  0.5629815365152240
  0.8648633905290879  0.9305729651074657  0.7935283764867478
  0.4063937767715871  0.3963013227328034  0.8630839894525835
  0.5021294798743554  0.3229106446046472  0.9575973344495452
  0.6583421383953976  0.3755749008993163  0.9385424840263141
  0.8106244264284470  0.4222487575816416  0.9229671658531942
 
  0.00000000E+00  0.00000000E+00  0.00000000E+00
  0.00000000E+00  0.00000000E+00  0.00000000E+00
  0.00000000E+00  0.00000000E+00  0.00000000E+00
  0.00000000E+00  0.00000000E+00  0.00000000E+00
  0.00000000E+00  0.00000000E+00  0.00000000E+00
  0.00000000E+00  0.00000000E+00  0.00000000E+00
  0.00000000E+00  0.00000000E+00  0.00000000E+00
  0.00000000E+00  0.00000000E+00  0.00000000E+00
  0.00000000E+00  0.00000000E+00  0.00000000E+00
  0.00000000E+00  0.00000000E+00  0.00000000E+00
  0.00000000E+00  0.00000000E+00  0.00000000E+00
  0.00000000E+00  0.00000000E+00  0.00000000E+00
  0.00000000E+00  0.00000000E+00  0.00000000E+00
  0.00000000E+00  0.00000000E+00  0.00000000E+00
  0.00000000E+00  0.00000000E+00  0.00000000E+00
  0.00000000E+00  0.00000000E+00  0.00000000E+00
  0.00000000E+00  0.00000000E+00  0.00000000E+00
  0.00000000E+00  0.00000000E+00  0.00000000E+00
  0.00000000E+00  0.00000000E+00  0.00000000E+00
  0.00000000E+00  0.00000000E+00  0.00000000E+00
  0.00000000E+00  0.00000000E+00  0.00000000E+00
  0.00000000E+00  0.00000000E+00  0.00000000E+00
  0.00000000E+00  0.00000000E+00  0.00000000E+00
  0.00000000E+00  0.00000000E+00  0.00000000E+00
  0.00000000E+00  0.00000000E+00  0.00000000E+00
  0.00000000E+00  0.00000000E+00  0.00000000E+00
  0.00000000E+00  0.00000000E+00  0.00000000E+00
  0.00000000E+00  0.00000000E+00  0.00000000E+00
  0.00000000E+00  0.00000000E+00  0.00000000E+00
  0.00000000E+00  0.00000000E+00  0.00000000E+00
  0.00000000E+00  0.00000000E+00  0.00000000E+00
  0.00000000E+00  0.00000000E+00  0.00000000E+00
  0.00000000E+00  0.00000000E+00  0.00000000E+00
  0.00000000E+00  0.00000000E+00  0.00000000E+00
  0.00000000E+00  0.00000000E+00  0.00000000E+00
  0.00000000E+00  0.00000000E+00  0.00000000E+00
  0.00000000E+00  0.00000000E+00  0.00000000E+00
  0.00000000E+00  0.00000000E+00  0.00000000E+00
  0.00000000E+00  0.00000000E+00  0.00000000E+00
  0.00000000E+00  0.00000000E+00  0.00000000E+00
  0.00000000E+00  0.00000000E+00  0.00000000E+00
  0.00000000E+00  0.00000000E+00  0.00000000E+00
  0.00000000E+00  0.00000000E+00  0.00000000E+00
  0.00000000E+00  0.00000000E+00  0.00000000E+00
  0.00000000E+00  0.00000000E+00  0.00000000E+00
  0.00000000E+00  0.00000000E+00  0.00000000E+00
  0.00000000E+00  0.00000000E+00  0.00000000E+00
  0.00000000E+00  0.00000000E+00  0.00000000E+00
  0.00000000E+00  0.00000000E+00  0.00000000E+00
  0.00000000E+00  0.00000000E+00  0.00000000E+00
  0.00000000E+00  0.00000000E+00  0.00000000E+00
  0.00000000E+00  0.00000000E+00  0.00000000E+00
  0.00000000E+00  0.00000000E+00  0.00000000E+00
  0.00000000E+00  0.00000000E+00  0.00000000E+00
  0.00000000E+00  0.00000000E+00  0.00000000E+00
  0.00000000E+00  0.00000000E+00  0.00000000E+00
  0.00000000E+00  0.00000000E+00  0.00000000E+00
  0.00000000E+00  0.00000000E+00  0.00000000E+00
  0.00000000E+00  0.00000000E+00  0.00000000E+00
  0.00000000E+00  0.00000000E+00  0.00000000E+00
  0.00000000E+00  0.00000000E+00  0.00000000E+00
  0.00000000E+00  0.00000000E+00  0.00000000E+00
  0.00000000E+00  0.00000000E+00  0.00000000E+00
  0.00000000E+00  0.00000000E+00  0.00000000E+00
  0.00000000E+00  0.00000000E+00  0.00000000E+00
  0.00000000E+00  0.00000000E+00  0.00000000E+00
  0.00000000E+00  0.00000000E+00  0.00000000E+00
  0.00000000E+00  0.00000000E+00  0.00000000E+00
  0.00000000E+00  0.00000000E+00  0.00000000E+00
  0.00000000E+00  0.00000000E+00  0.00000000E+00
  0.00000000E+00  0.00000000E+00  0.00000000E+00
  0.00000000E+00  0.00000000E+00  0.00000000E+00
  0.00000000E+00  0.00000000E+00  0.00000000E+00
  0.00000000E+00  0.00000000E+00  0.00000000E+00
  0.00000000E+00  0.00000000E+00  0.00000000E+00
  0.00000000E+00  0.00000000E+00  0.00000000E+00
  0.00000000E+00  0.00000000E+00  0.00000000E+00
  0.00000000E+00  0.00000000E+00  0.00000000E+00
  0.00000000E+00  0.00000000E+00  0.00000000E+00
