Ta  N Ru                                
   1.00000000000000     
    10.4555999800000006    0.0000000000000000    0.0000000000000000
     0.0000000000000000   11.6775998899999998    0.0000000000000000
     0.0000000000000000    0.0000000000000000   24.0732377500000005
   Ta   N    Ru
    64    64     1
Selective dynamics
Direct
  0.4991785186325330  0.1250000003211298  0.3753726828051569   F   F   F
  0.2600588226580172  0.1250000003211298  0.3190980514078845   F   F   F
  0.2470962603561304  0.0000000000000000  0.4358978840493251   F   F   F
  0.2472493134401907  0.1248043363856532  0.5620409972864781   T   T   T
  0.9988036570969373  0.1249999609036652  0.5005801326706835   T   T   T
  0.9960043543058755  0.9996952454421061  0.6269633421411657   T   T   T
  0.4992711123104387  0.1299016995181054  0.7440099987865053   T   T   T
  0.2527322244436477  0.1255932711527760  0.6873149893407920   T   T   T
  0.4991785186325330  0.3750000001070433  0.3753726828051569   F   F   F
  0.2600588226580172  0.3750000001070433  0.3190980514078845   F   F   F
  0.2470962603561304  0.2499999997859135  0.4358978840493251   F   F   F
  0.2472507177969574  0.3752001183275282  0.5620408272468910   T   T   T
  0.9988023960384907  0.3750055277054286  0.5005805555280155   T   T   T
  0.9959814682101401  0.2500071149451450  0.6278268897242620   T   T   T
  0.4992681553090165  0.3701042507960002  0.7440091166045597   T   T   T
  0.2527353295859686  0.3744042406552537  0.6873189324884585   T   T   T
  0.4991785186325330  0.6249999998929567  0.3753726828051569   F   F   F
  0.2600588226580172  0.6249999998929567  0.3190980514078845   F   F   F
  0.2470962603561304  0.5000000004281731  0.4358978840493251   F   F   F
  0.2477935245867411  0.6249992514592491  0.5617196741088841   T   T   T
  0.9983767690027795  0.6251380471304846  0.5005607846412056   T   T   T
  0.9960045833182032  0.5003214244300216  0.6269626391913889   T   T   T
  0.5103305740973954  0.6234677252342427  0.7422885205200022   T   T   T
  0.2486144359745169  0.6255583032287931  0.6866008977237708   T   T   T
  0.4991785186325330  0.8750000005352163  0.3753726828051569   F   F   F
  0.2600588226580172  0.8750000005352163  0.3190980514078845   F   F   F
  0.2470962603561304  0.7500000002140865  0.4358978840493251   F   F   F
  0.2477940578283633  0.8750078228271875  0.5617239428023697   T   T   T
  0.9983748653873420  0.8748687637015720  0.5005608451475277   T   T   T
  0.9958095748247044  0.7500065734188608  0.6268937379330846   T   T   T
  0.5103281120261586  0.8765438353696378  0.7422902676251286   T   T   T
  0.2486138427969661  0.8744538973617421  0.6866008438304610   T   T   T
  0.9991784928090510  0.1250000003211298  0.3753726828051569   F   F   F
  0.7600587968345351  0.1250000003211298  0.3190980514078845   F   F   F
  0.7470962345326484  0.0000000000000000  0.4358978840493251   F   F   F
  0.7498847311403941  0.1250481047791638  0.5618943326673692   T   T   T
  0.4986071353665923  0.1248083045893970  0.5000216836634721   T   T   T
  0.4983079681176914  0.9990858655938686  0.6249362969567905   T   T   T
  0.0140059987870225  0.1232018675608736  0.7438884845883081   T   T   T
  0.7472202537616591  0.1247012380106621  0.6882063153120905   T   T   T
  0.9991784928090510  0.3750000001070433  0.3753726828051569   F   F   F
  0.7600587968345351  0.3750000001070433  0.3190980514078845   F   F   F
  0.7470962345326484  0.2499999997859135  0.4358978840493251   F   F   F
  0.7498859951231791  0.3749622691170192  0.5618904076540724   T   T   T
  0.4986088236288526  0.3751933245347027  0.5000210876183063   T   T   T
  0.5027461645805922  0.2500049364247384  0.6211902366512901   T   T   T
  0.0140017007368045  0.3768165146302075  0.7438843373185492   T   T   T
  0.7472281193985124  0.3753252345119890  0.6882084207124521   T   T   T
  0.9991784928090510  0.6249999998929567  0.3753726828051569   F   F   F
  0.7600587968345351  0.6249999998929567  0.3190980514078845   F   F   F
  0.7470962345326484  0.5000000004281731  0.4358978840493251   F   F   F
  0.7487031358299280  0.6249309498241945  0.5619811862461417   T   T   T
  0.4983794853876259  0.6250215416178819  0.5004925146728301   T   T   T
  0.4983073583312079  0.5009195811884415  0.6249365850642388   T   T   T
  0.0099751010887395  0.6241397510314515  0.7437339191502315   T   T   T
  0.7481837207304227  0.6244018973861882  0.6876930384141025   T   T   T
  0.9991784928090439  0.8750000005352163  0.3753726828051569   F   F   F
  0.7600587968345351  0.8750000005352163  0.3190980514078845   F   F   F
  0.7470962345326484  0.7500000002140865  0.4358978840493251   F   F   F
  0.7487026615731933  0.8750829242710670  0.5619825497053376   T   T   T
  0.4983789963400460  0.8749862711867916  0.5004926271094561   T   T   T
  0.4972862636901653  0.7500046116558731  0.6259414040493469   T   T   T
  0.0099718915203626  0.8758870778002351  0.7437326696847931   T   T   T
  0.7481851121783063  0.8756113057039350  0.6876932595671699   T   T   T
  0.1472195596423447  0.0000000000000000  0.3601606351366584   F   F   F
  0.4003222342624682  0.0000000000000000  0.3237632067519129   F   F   F
  0.4439214822817661  0.0000000000000000  0.4377276028165085   F   F   F
  0.3998375783044539  0.0001340610860597  0.5512856290753472   T   T   T
  0.1503661107905615  0.9997991419763039  0.5102222019437308   T   T   T
  0.1928564822318058  0.9997215450740750  0.6245212254869843   T   T   T
  0.1521497053201123  0.9990662412287539  0.7382647439092034   T   T   T
  0.3985365095632435  0.0001151310668929  0.7000317399080674   T   T   T
  0.1472195596423447  0.2499999997859135  0.3601606351366584   F   F   F
  0.4003222342624682  0.2499999997859135  0.3237632067519129   F   F   F
  0.4439214822817661  0.2499999997859135  0.4377276028165085   F   F   F
  0.3986127589775451  0.2500039240071887  0.5497601720194795   T   T   T
  0.1502963699368918  0.2500035749351865  0.5103041165026734   T   T   T
  0.1924995048602950  0.2500059279107852  0.6249037953955746   T   T   T
  0.1641387806917037  0.2499990483924329  0.7429060089458027   T   T   T
  0.4040205892259109  0.2500046736942005  0.6913701955891217   T   T   T
  0.1472195596423447  0.5000000004281731  0.3601606351366584   F   F   F
  0.4003222342624682  0.5000000004281731  0.3237632067519129   F   F   F
  0.4439214822817661  0.5000000004281731  0.4377276028165085   F   F   F
  0.3998392621096679  0.4998716098741818  0.5512851998267140   T   T   T
  0.1503664408946048  0.5002058926923046  0.5102227760243899   T   T   T
  0.1928594114282123  0.5002851114948650  0.6245225620775338   T   T   T
  0.1521496296590068  0.5009449000936631  0.7382648485714880   T   T   T
  0.3985359791384191  0.4998934271689546  0.7000349609200405   T   T   T
  0.1472195596423447  0.7500000002140865  0.3601606351366584   F   F   F
  0.4003222342624682  0.7500000002140865  0.3237632067519129   F   F   F
  0.4439214822817661  0.7500000002140865  0.4377276028165085   F   F   F
  0.4001154714022743  0.7500037635209832  0.5518052316349420   T   T   T
  0.1504126238699527  0.7500023503543974  0.5101979985539669   T   T   T
  0.1926855347800484  0.7500033842525680  0.6243098241027133   T   T   T
  0.1485740373018733  0.7500082748276754  0.7379896232097555   T   T   T
  0.3973377698568697  0.7500046603799475  0.7015737168723520   T   T   T
  0.6472195338188556  0.0000000000000000  0.3601606351366584   F   F   F
  0.9003222591295312  0.0000000000000000  0.3237632067519129   F   F   F
  0.9439215071488221  0.0000000000000000  0.4377276028165085   F   F   F
  0.9011036480964060  0.9998136348811619  0.5520846510273523   T   T   T
  0.6509733501963701  0.9999670663782411  0.5104295932282400   T   T   T
  0.6951073502010190  0.0003925008692932  0.6248071700989513   T   T   T
  0.6481458576536765  0.0011608514784286  0.7397044791690364   T   T   T
  0.8963310848642206  0.0007020033913669  0.7031907083653837   T   T   T
  0.6472195338188556  0.2499999997859135  0.3601606351366584   F   F   F
  0.9003222591295312  0.2499999997859135  0.3237632067519129   F   F   F
  0.9439215071488221  0.2499999997859135  0.4377276028165085   F   F   F
  0.9019471043873520  0.2500045614013278  0.5522242758339462   T   T   T
  0.6509995612512341  0.2500031413896372  0.5104630787884770   T   T   T
  0.6988442271632437  0.2500045895701187  0.6246838304721760   T   T   T
  0.6455929759378206  0.2500057020700644  0.7380940226974919   T   T   T
  0.8970101436886517  0.2500060087296918  0.7043305677162500   T   T   T
  0.6472195338188556  0.5000000004281731  0.3601606351366584   F   F   F
  0.9003222591295312  0.5000000004281731  0.3237632067519129   F   F   F
  0.9439215071488221  0.5000000004281731  0.4377276028165085   F   F   F
  0.9011047536866449  0.5001987526667977  0.5520845888931993   T   T   T
  0.6509730481796272  0.5000421845890611  0.5104291194916419   T   T   T
  0.6951059787690760  0.4996225264400025  0.6248061643278091   T   T   T
  0.6481441631588972  0.4988410503900337  0.7397031996261905   T   T   T
  0.8963312271361805  0.4993190375083583  0.7031906194149489   T   T   T
  0.6472195338188556  0.7500000002140865  0.3601606351366584   F   F   F
  0.9003222591295312  0.7500000002140865  0.3237632067519129   F   F   F
  0.9439215071488221  0.7500000002140865  0.4377276028165085   F   F   F
  0.9004699265170080  0.7500056888610949  0.5522187194321908   T   T   T
  0.6507394613149697  0.7500055038690825  0.5104584022846407   T   T   T
  0.6947571356574348  0.7500064615985983  0.6249535132351747   T   T   T
  0.6494829951018173  0.7500091106065965  0.7388605461531137   T   T   T
  0.8963750999748503  0.7500065305617891  0.7031609453235468   T   T   T
  0.3227875539508532  0.2499339699481501  0.7945354625256622   T   T   T
 
  0.00000000E+00  0.00000000E+00  0.00000000E+00
  0.00000000E+00  0.00000000E+00  0.00000000E+00
  0.00000000E+00  0.00000000E+00  0.00000000E+00
  0.00000000E+00  0.00000000E+00  0.00000000E+00
  0.00000000E+00  0.00000000E+00  0.00000000E+00
  0.00000000E+00  0.00000000E+00  0.00000000E+00
  0.00000000E+00  0.00000000E+00  0.00000000E+00
  0.00000000E+00  0.00000000E+00  0.00000000E+00
  0.00000000E+00  0.00000000E+00  0.00000000E+00
  0.00000000E+00  0.00000000E+00  0.00000000E+00
  0.00000000E+00  0.00000000E+00  0.00000000E+00
  0.00000000E+00  0.00000000E+00  0.00000000E+00
  0.00000000E+00  0.00000000E+00  0.00000000E+00
  0.00000000E+00  0.00000000E+00  0.00000000E+00
  0.00000000E+00  0.00000000E+00  0.00000000E+00
  0.00000000E+00  0.00000000E+00  0.00000000E+00
  0.00000000E+00  0.00000000E+00  0.00000000E+00
  0.00000000E+00  0.00000000E+00  0.00000000E+00
  0.00000000E+00  0.00000000E+00  0.00000000E+00
  0.00000000E+00  0.00000000E+00  0.00000000E+00
  0.00000000E+00  0.00000000E+00  0.00000000E+00
  0.00000000E+00  0.00000000E+00  0.00000000E+00
  0.00000000E+00  0.00000000E+00  0.00000000E+00
  0.00000000E+00  0.00000000E+00  0.00000000E+00
  0.00000000E+00  0.00000000E+00  0.00000000E+00
  0.00000000E+00  0.00000000E+00  0.00000000E+00
  0.00000000E+00  0.00000000E+00  0.00000000E+00
  0.00000000E+00  0.00000000E+00  0.00000000E+00
  0.00000000E+00  0.00000000E+00  0.00000000E+00
  0.00000000E+00  0.00000000E+00  0.00000000E+00
  0.00000000E+00  0.00000000E+00  0.00000000E+00
  0.00000000E+00  0.00000000E+00  0.00000000E+00
  0.00000000E+00  0.00000000E+00  0.00000000E+00
  0.00000000E+00  0.00000000E+00  0.00000000E+00
  0.00000000E+00  0.00000000E+00  0.00000000E+00
  0.00000000E+00  0.00000000E+00  0.00000000E+00
  0.00000000E+00  0.00000000E+00  0.00000000E+00
  0.00000000E+00  0.00000000E+00  0.00000000E+00
  0.00000000E+00  0.00000000E+00  0.00000000E+00
  0.00000000E+00  0.00000000E+00  0.00000000E+00
  0.00000000E+00  0.00000000E+00  0.00000000E+00
  0.00000000E+00  0.00000000E+00  0.00000000E+00
  0.00000000E+00  0.00000000E+00  0.00000000E+00
  0.00000000E+00  0.00000000E+00  0.00000000E+00
  0.00000000E+00  0.00000000E+00  0.00000000E+00
  0.00000000E+00  0.00000000E+00  0.00000000E+00
  0.00000000E+00  0.00000000E+00  0.00000000E+00
  0.00000000E+00  0.00000000E+00  0.00000000E+00
  0.00000000E+00  0.00000000E+00  0.00000000E+00
  0.00000000E+00  0.00000000E+00  0.00000000E+00
  0.00000000E+00  0.00000000E+00  0.00000000E+00
  0.00000000E+00  0.00000000E+00  0.00000000E+00
  0.00000000E+00  0.00000000E+00  0.00000000E+00
  0.00000000E+00  0.00000000E+00  0.00000000E+00
  0.00000000E+00  0.00000000E+00  0.00000000E+00
  0.00000000E+00  0.00000000E+00  0.00000000E+00
  0.00000000E+00  0.00000000E+00  0.00000000E+00
  0.00000000E+00  0.00000000E+00  0.00000000E+00
  0.00000000E+00  0.00000000E+00  0.00000000E+00
  0.00000000E+00  0.00000000E+00  0.00000000E+00
  0.00000000E+00  0.00000000E+00  0.00000000E+00
  0.00000000E+00  0.00000000E+00  0.00000000E+00
  0.00000000E+00  0.00000000E+00  0.00000000E+00
  0.00000000E+00  0.00000000E+00  0.00000000E+00
  0.00000000E+00  0.00000000E+00  0.00000000E+00
  0.00000000E+00  0.00000000E+00  0.00000000E+00
  0.00000000E+00  0.00000000E+00  0.00000000E+00
  0.00000000E+00  0.00000000E+00  0.00000000E+00
  0.00000000E+00  0.00000000E+00  0.00000000E+00
  0.00000000E+00  0.00000000E+00  0.00000000E+00
  0.00000000E+00  0.00000000E+00  0.00000000E+00
  0.00000000E+00  0.00000000E+00  0.00000000E+00
  0.00000000E+00  0.00000000E+00  0.00000000E+00
  0.00000000E+00  0.00000000E+00  0.00000000E+00
  0.00000000E+00  0.00000000E+00  0.00000000E+00
  0.00000000E+00  0.00000000E+00  0.00000000E+00
  0.00000000E+00  0.00000000E+00  0.00000000E+00
  0.00000000E+00  0.00000000E+00  0.00000000E+00
  0.00000000E+00  0.00000000E+00  0.00000000E+00
  0.00000000E+00  0.00000000E+00  0.00000000E+00
  0.00000000E+00  0.00000000E+00  0.00000000E+00
  0.00000000E+00  0.00000000E+00  0.00000000E+00
  0.00000000E+00  0.00000000E+00  0.00000000E+00
  0.00000000E+00  0.00000000E+00  0.00000000E+00
  0.00000000E+00  0.00000000E+00  0.00000000E+00
  0.00000000E+00  0.00000000E+00  0.00000000E+00
  0.00000000E+00  0.00000000E+00  0.00000000E+00
  0.00000000E+00  0.00000000E+00  0.00000000E+00
  0.00000000E+00  0.00000000E+00  0.00000000E+00
  0.00000000E+00  0.00000000E+00  0.00000000E+00
  0.00000000E+00  0.00000000E+00  0.00000000E+00
  0.00000000E+00  0.00000000E+00  0.00000000E+00
  0.00000000E+00  0.00000000E+00  0.00000000E+00
  0.00000000E+00  0.00000000E+00  0.00000000E+00
  0.00000000E+00  0.00000000E+00  0.00000000E+00
  0.00000000E+00  0.00000000E+00  0.00000000E+00
  0.00000000E+00  0.00000000E+00  0.00000000E+00
  0.00000000E+00  0.00000000E+00  0.00000000E+00
  0.00000000E+00  0.00000000E+00  0.00000000E+00
  0.00000000E+00  0.00000000E+00  0.00000000E+00
  0.00000000E+00  0.00000000E+00  0.00000000E+00
  0.00000000E+00  0.00000000E+00  0.00000000E+00
  0.00000000E+00  0.00000000E+00  0.00000000E+00
  0.00000000E+00  0.00000000E+00  0.00000000E+00
  0.00000000E+00  0.00000000E+00  0.00000000E+00
  0.00000000E+00  0.00000000E+00  0.00000000E+00
  0.00000000E+00  0.00000000E+00  0.00000000E+00
  0.00000000E+00  0.00000000E+00  0.00000000E+00
  0.00000000E+00  0.00000000E+00  0.00000000E+00
  0.00000000E+00  0.00000000E+00  0.00000000E+00
  0.00000000E+00  0.00000000E+00  0.00000000E+00
  0.00000000E+00  0.00000000E+00  0.00000000E+00
  0.00000000E+00  0.00000000E+00  0.00000000E+00
  0.00000000E+00  0.00000000E+00  0.00000000E+00
  0.00000000E+00  0.00000000E+00  0.00000000E+00
  0.00000000E+00  0.00000000E+00  0.00000000E+00
  0.00000000E+00  0.00000000E+00  0.00000000E+00
  0.00000000E+00  0.00000000E+00  0.00000000E+00
  0.00000000E+00  0.00000000E+00  0.00000000E+00
  0.00000000E+00  0.00000000E+00  0.00000000E+00
  0.00000000E+00  0.00000000E+00  0.00000000E+00
  0.00000000E+00  0.00000000E+00  0.00000000E+00
  0.00000000E+00  0.00000000E+00  0.00000000E+00
  0.00000000E+00  0.00000000E+00  0.00000000E+00
  0.00000000E+00  0.00000000E+00  0.00000000E+00
  0.00000000E+00  0.00000000E+00  0.00000000E+00
  0.00000000E+00  0.00000000E+00  0.00000000E+00
  0.00000000E+00  0.00000000E+00  0.00000000E+00
  0.00000000E+00  0.00000000E+00  0.00000000E+00
