Ta  N Cu                                
   1.00000000000000     
     9.0548154099999998    0.0000000000000000    0.0000000000000000
     0.0000000000000000   11.6775998899999998    0.0000000000000000
     0.0000000000000000    0.0000000000000000   23.4818170799999990
   Ta   N    Cu
    60    60     1
Selective dynamics
Direct
  0.0000000000000000  0.0000000000000000  0.2546926809530987   F   F   F
  0.6670845899906297  0.1250000003211298  0.2638822399803757   F   F   F
  0.3329153514769843  0.1250000003211298  0.2638822399803757   F   F   F
  0.4999999994478088  0.2499999997859135  0.3618861993156202   F   F   F
  0.1650707596845180  0.1250000003211298  0.3684425577811794   F   F   F
  0.8349292403154820  0.1250000003211298  0.3684425577811794   F   F   F
 -0.0007808523794696  0.2499640030681588  0.4798303483840223   T   T   T
  0.6643323431859726  0.1250214181889563  0.4781509216551549   T   T   T
  0.3345402508076015  0.1250247915462700  0.4782011887081589   T   T   T
  0.4997862648501880  0.2499340518296441  0.5915153097773275   T   T   T
  0.1671470022111509  0.1248570813184220  0.5899742222733227   T   T   T
  0.8308478548240738  0.1248623699043513  0.5901775489049373   T   T   T
  0.0006217692855688  0.2498567727955649  0.7003466375865386   T   T   T
  0.6663509936967418  0.1229118617011611  0.7042902682612776   T   T   T
  0.3266797224490613  0.1246422867290794  0.7041708818105824   T   T   T
  0.0000000000000000  0.2499999997859135  0.2546926809530987   F   F   F
  0.6670845899906297  0.3750000001070433  0.2638822399803757   F   F   F
  0.3329153514769843  0.3750000001070433  0.2638822399803757   F   F   F
  0.4999999994478088  0.5000000004281731  0.3618861993156202   F   F   F
  0.1650707596845180  0.3750000001070433  0.3684425577811794   F   F   F
  0.8349292403154820  0.3750000001070433  0.3684425577811794   F   F   F
 -0.0007519113086448  0.4999827988181977  0.4798153064371529   T   T   T
  0.6643479820440403  0.3749462539654863  0.4781477638425252   T   T   T
  0.3345498787357277  0.3749452282125100  0.4781955105925140   T   T   T
  0.4989195146731655  0.5001204829210826  0.5909988645704350   T   T   T
  0.1671478234691553  0.3750427460959248  0.5899734118229834   T   T   T
  0.8308709554301825  0.3751041920810652  0.5901758438980350   T   T   T
  0.9980125516815761  0.4986788214152253  0.7022153412526849   T   T   T
  0.6661403216487551  0.3769395984665119  0.7041804171335471   T   T   T
  0.3266815556627308  0.3751471516886442  0.7041537785538498   T   T   T
  0.0000000000000000  0.5000000004281731  0.2546926809530987   F   F   F
  0.6670845899906297  0.6249999998929567  0.2638822399803757   F   F   F
  0.3329153514769843  0.6249999998929567  0.2638822399803757   F   F   F
  0.4999999994478088  0.7500000002140865  0.3618861993156202   F   F   F
  0.1650707596845180  0.6249999998929567  0.3684425577811794   F   F   F
  0.8349292403154820  0.6249999998929567  0.3684425577811794   F   F   F
 -0.0007156797198088  0.7499760407275682  0.4798029718595415   T   T   T
  0.6644433150231297  0.6249470089159295  0.4781962467584855   T   T   T
  0.3345005670095881  0.6249682366989299  0.4782645255366137   T   T   T
  0.4990014144978726  0.7499681190921519  0.5909592592908363   T   T   T
  0.1666300725930702  0.6249793778625861  0.5901012138349975   T   T   T
  0.8310725030531086  0.6249599782581052  0.5901945055000430   T   T   T
  0.9981655100710266  0.7499255607629461  0.7022567454253191   T   T   T
  0.6698142519252311  0.6252055657562687  0.7045501147988033   T   T   T
  0.3272318660949802  0.6248869728510325  0.7043855631841861   T   T   T
  0.0000000000000000  0.7500000002140865  0.2546926809530987   F   F   F
  0.6670845899906297  0.8750000005352163  0.2638822399803757   F   F   F
  0.3329153514769843  0.8750000005352163  0.2638822399803757   F   F   F
  0.4999999994478088  0.0000000000000000  0.3618861993156202   F   F   F
  0.1650707596845180  0.8750000005352163  0.3684425577811794   F   F   F
  0.8349292403154820  0.8750000005352163  0.3684425577811794   F   F   F
 -0.0007510619962128 -0.0000125091156210  0.4798155190316327   T   T   T
  0.6644303278596334  0.8750136451419086  0.4781912630712165   T   T   T
  0.3345153648693272  0.8749925570642622  0.4782548663700893   T   T   T
  0.4988986810210582 -0.0001805145794936  0.5909851422467693   T   T   T
  0.1666131263968460  0.8749375050194862  0.5900876569527462   T   T   T
  0.8310671799749848  0.8749544108532805  0.5901846331369210   T   T   T
  0.9980543868476808  0.0009508942662165  0.7021517013190460   T   T   T
  0.6698257749333040  0.8746726706224291  0.7045187320907396   T   T   T
  0.3272537972162497  0.8748897430499318  0.7043746473704513   T   T   T
  0.8141011533980276  0.0000000000000000  0.3013105672926031   F   F   F
  0.4999999994478088  0.0000000000000000  0.2564174481620327   F   F   F
  0.1858988466019724  0.0000000000000000  0.3013105672926031   F   F   F
  0.3088456122590841  0.2499999997859135  0.4099867722441957   F   F   F
  0.0000000000000000  0.2499999997859135  0.3930971035158137   F   F   F
  0.6911543877409159  0.2499999997859135  0.4099867722441957   F   F   F
  0.8012812046162344  0.2499710303025415  0.5221704112583446   T   T   T
  0.4995293093419299  0.2499895820441770  0.5032556113311188   T   T   T
  0.1971033771224133  0.2499693722819898  0.5220116922190874   T   T   T
  0.3025619004012215  0.2499075049525221  0.6335358711455747   T   T   T
 -0.0007875613436874  0.2499531148412732  0.6123871437042818   T   T   T
  0.6966294390646856  0.2499125485658783  0.6346398605343454   T   T   T
  0.8025705123870874  0.2500225460015105  0.7431312669926333   T   T   T
  0.4971862050008974  0.2499309251621238  0.7250066329050050   T   T   T
  0.1900705988200299  0.2499859829820955  0.7411572930099005   T   T   T
  0.8141011533980276  0.2499999997859135  0.3013105672926031   F   F   F
  0.4999999994478088  0.2499999997859135  0.2564174481620327   F   F   F
  0.1858988466019724  0.2499999997859135  0.3013105672926031   F   F   F
  0.3088456122590841  0.5000000004281731  0.4099867722441957   F   F   F
  0.0000000000000000  0.5000000004281731  0.3930971035158137   F   F   F
  0.6911543877409159  0.5000000004281731  0.4099867722441957   F   F   F
  0.8015166962390374  0.4999673465291704  0.5222159692713135   T   T   T
  0.4993912676520562  0.4998696669926322  0.5029497384962406   T   T   T
  0.1968737641927667  0.5000597383946597  0.5221526630827111   T   T   T
  0.3027244467232532  0.5003005207448022  0.6334239483678149   T   T   T
 -0.0011942747136769  0.4999971939478706  0.6137368552292632   T   T   T
  0.6948319158347559  0.5004434601696388  0.6335607589792794   T   T   T
  0.8039390884202214  0.4986669708644678  0.7411948263491857   T   T   T
  0.4981629216105375  0.4992968792645853  0.7240754174397843   T   T   T
  0.1917990781753432  0.4996306188879578  0.7408285608658056   T   T   T
  0.8141011533980276  0.5000000004281731  0.3013105672926031   F   F   F
  0.4999999994478088  0.5000000004281731  0.2564174481620327   F   F   F
  0.1858988466019724  0.5000000004281731  0.3013105672926031   F   F   F
  0.3088456122590841  0.7500000002140865  0.4099867722441957   F   F   F
  0.0000000000000000  0.7500000002140865  0.3930971035158137   F   F   F
  0.6911543877409159  0.7500000002140865  0.4099867722441957   F   F   F
  0.8015920142488153  0.7499750362963272  0.5222498083836551   T   T   T
  0.4993920671073372  0.7499810002851139  0.5029470099849310   T   T   T
  0.1968141154248056  0.7499668838570893  0.5222208144549503   T   T   T
  0.3029388274128055  0.7499461007541675  0.6333615493904393   T   T   T
 -0.0010770836851245  0.7499522826080613  0.6137886420573743   T   T   T
  0.6949094693655717  0.7499632509953691  0.6334816097946606   T   T   T
  0.8047611275076938  0.7499247694331536  0.7409543610121898   T   T   T
  0.4985693665312690  0.7499091867611746  0.7242994040531150   T   T   T
  0.1918144262397050  0.7498975798511448  0.7405042509884865   T   T   T
  0.8141011533980276  0.7500000002140865  0.3013105672926031   F   F   F
  0.4999999994478088  0.7500000002140865  0.2564174481620327   F   F   F
  0.1858988466019724  0.7500000002140865  0.3013105672926031   F   F   F
  0.3088456122590841  0.0000000000000000  0.4099867722441957   F   F   F
  0.0000000000000000  0.0000000000000000  0.3930971035158137   F   F   F
  0.6911543877409159  0.0000000000000000  0.4099867722441957   F   F   F
  0.8014993198365791 -0.0000050593155730  0.5222088087356688   T   T   T
  0.4993832806481744  0.0000821458058060  0.5029417893299515   T   T   T
  0.1968750459766607 -0.0001291609997661  0.5221454029699001   T   T   T
  0.3027376756072754 -0.0004160144000211  0.6334108805651520   T   T   T
 -0.0011999728440787 -0.0001186848778993  0.6136830584525591   T   T   T
  0.6947988375817669 -0.0004798366394307  0.6335506190384435   T   T   T
  0.8040964675653026  0.0011121573275857  0.7411240528232396   T   T   T
  0.4982270515567339  0.0006132787695407  0.7240720025131709   T   T   T
  0.1917810287951920  0.0001101554011914  0.7407927140717632   T   T   T
  0.9169973861464048  0.2557848931336686  0.8087246491119880   T   T   T
 
  0.00000000E+00  0.00000000E+00  0.00000000E+00
  0.00000000E+00  0.00000000E+00  0.00000000E+00
  0.00000000E+00  0.00000000E+00  0.00000000E+00
  0.00000000E+00  0.00000000E+00  0.00000000E+00
  0.00000000E+00  0.00000000E+00  0.00000000E+00
  0.00000000E+00  0.00000000E+00  0.00000000E+00
  0.00000000E+00  0.00000000E+00  0.00000000E+00
  0.00000000E+00  0.00000000E+00  0.00000000E+00
  0.00000000E+00  0.00000000E+00  0.00000000E+00
  0.00000000E+00  0.00000000E+00  0.00000000E+00
  0.00000000E+00  0.00000000E+00  0.00000000E+00
  0.00000000E+00  0.00000000E+00  0.00000000E+00
  0.00000000E+00  0.00000000E+00  0.00000000E+00
  0.00000000E+00  0.00000000E+00  0.00000000E+00
  0.00000000E+00  0.00000000E+00  0.00000000E+00
  0.00000000E+00  0.00000000E+00  0.00000000E+00
  0.00000000E+00  0.00000000E+00  0.00000000E+00
  0.00000000E+00  0.00000000E+00  0.00000000E+00
  0.00000000E+00  0.00000000E+00  0.00000000E+00
  0.00000000E+00  0.00000000E+00  0.00000000E+00
  0.00000000E+00  0.00000000E+00  0.00000000E+00
  0.00000000E+00  0.00000000E+00  0.00000000E+00
  0.00000000E+00  0.00000000E+00  0.00000000E+00
  0.00000000E+00  0.00000000E+00  0.00000000E+00
  0.00000000E+00  0.00000000E+00  0.00000000E+00
  0.00000000E+00  0.00000000E+00  0.00000000E+00
  0.00000000E+00  0.00000000E+00  0.00000000E+00
  0.00000000E+00  0.00000000E+00  0.00000000E+00
  0.00000000E+00  0.00000000E+00  0.00000000E+00
  0.00000000E+00  0.00000000E+00  0.00000000E+00
  0.00000000E+00  0.00000000E+00  0.00000000E+00
  0.00000000E+00  0.00000000E+00  0.00000000E+00
  0.00000000E+00  0.00000000E+00  0.00000000E+00
  0.00000000E+00  0.00000000E+00  0.00000000E+00
  0.00000000E+00  0.00000000E+00  0.00000000E+00
  0.00000000E+00  0.00000000E+00  0.00000000E+00
  0.00000000E+00  0.00000000E+00  0.00000000E+00
  0.00000000E+00  0.00000000E+00  0.00000000E+00
  0.00000000E+00  0.00000000E+00  0.00000000E+00
  0.00000000E+00  0.00000000E+00  0.00000000E+00
  0.00000000E+00  0.00000000E+00  0.00000000E+00
  0.00000000E+00  0.00000000E+00  0.00000000E+00
  0.00000000E+00  0.00000000E+00  0.00000000E+00
  0.00000000E+00  0.00000000E+00  0.00000000E+00
  0.00000000E+00  0.00000000E+00  0.00000000E+00
  0.00000000E+00  0.00000000E+00  0.00000000E+00
  0.00000000E+00  0.00000000E+00  0.00000000E+00
  0.00000000E+00  0.00000000E+00  0.00000000E+00
  0.00000000E+00  0.00000000E+00  0.00000000E+00
  0.00000000E+00  0.00000000E+00  0.00000000E+00
  0.00000000E+00  0.00000000E+00  0.00000000E+00
  0.00000000E+00  0.00000000E+00  0.00000000E+00
  0.00000000E+00  0.00000000E+00  0.00000000E+00
  0.00000000E+00  0.00000000E+00  0.00000000E+00
  0.00000000E+00  0.00000000E+00  0.00000000E+00
  0.00000000E+00  0.00000000E+00  0.00000000E+00
  0.00000000E+00  0.00000000E+00  0.00000000E+00
  0.00000000E+00  0.00000000E+00  0.00000000E+00
  0.00000000E+00  0.00000000E+00  0.00000000E+00
  0.00000000E+00  0.00000000E+00  0.00000000E+00
  0.00000000E+00  0.00000000E+00  0.00000000E+00
  0.00000000E+00  0.00000000E+00  0.00000000E+00
  0.00000000E+00  0.00000000E+00  0.00000000E+00
  0.00000000E+00  0.00000000E+00  0.00000000E+00
  0.00000000E+00  0.00000000E+00  0.00000000E+00
  0.00000000E+00  0.00000000E+00  0.00000000E+00
  0.00000000E+00  0.00000000E+00  0.00000000E+00
  0.00000000E+00  0.00000000E+00  0.00000000E+00
  0.00000000E+00  0.00000000E+00  0.00000000E+00
  0.00000000E+00  0.00000000E+00  0.00000000E+00
  0.00000000E+00  0.00000000E+00  0.00000000E+00
  0.00000000E+00  0.00000000E+00  0.00000000E+00
  0.00000000E+00  0.00000000E+00  0.00000000E+00
  0.00000000E+00  0.00000000E+00  0.00000000E+00
  0.00000000E+00  0.00000000E+00  0.00000000E+00
  0.00000000E+00  0.00000000E+00  0.00000000E+00
  0.00000000E+00  0.00000000E+00  0.00000000E+00
  0.00000000E+00  0.00000000E+00  0.00000000E+00
  0.00000000E+00  0.00000000E+00  0.00000000E+00
  0.00000000E+00  0.00000000E+00  0.00000000E+00
  0.00000000E+00  0.00000000E+00  0.00000000E+00
  0.00000000E+00  0.00000000E+00  0.00000000E+00
  0.00000000E+00  0.00000000E+00  0.00000000E+00
  0.00000000E+00  0.00000000E+00  0.00000000E+00
  0.00000000E+00  0.00000000E+00  0.00000000E+00
  0.00000000E+00  0.00000000E+00  0.00000000E+00
  0.00000000E+00  0.00000000E+00  0.00000000E+00
  0.00000000E+00  0.00000000E+00  0.00000000E+00
  0.00000000E+00  0.00000000E+00  0.00000000E+00
  0.00000000E+00  0.00000000E+00  0.00000000E+00
  0.00000000E+00  0.00000000E+00  0.00000000E+00
  0.00000000E+00  0.00000000E+00  0.00000000E+00
  0.00000000E+00  0.00000000E+00  0.00000000E+00
  0.00000000E+00  0.00000000E+00  0.00000000E+00
  0.00000000E+00  0.00000000E+00  0.00000000E+00
  0.00000000E+00  0.00000000E+00  0.00000000E+00
  0.00000000E+00  0.00000000E+00  0.00000000E+00
  0.00000000E+00  0.00000000E+00  0.00000000E+00
  0.00000000E+00  0.00000000E+00  0.00000000E+00
  0.00000000E+00  0.00000000E+00  0.00000000E+00
  0.00000000E+00  0.00000000E+00  0.00000000E+00
  0.00000000E+00  0.00000000E+00  0.00000000E+00
  0.00000000E+00  0.00000000E+00  0.00000000E+00
  0.00000000E+00  0.00000000E+00  0.00000000E+00
  0.00000000E+00  0.00000000E+00  0.00000000E+00
  0.00000000E+00  0.00000000E+00  0.00000000E+00
  0.00000000E+00  0.00000000E+00  0.00000000E+00
  0.00000000E+00  0.00000000E+00  0.00000000E+00
  0.00000000E+00  0.00000000E+00  0.00000000E+00
  0.00000000E+00  0.00000000E+00  0.00000000E+00
  0.00000000E+00  0.00000000E+00  0.00000000E+00
  0.00000000E+00  0.00000000E+00  0.00000000E+00
  0.00000000E+00  0.00000000E+00  0.00000000E+00
  0.00000000E+00  0.00000000E+00  0.00000000E+00
  0.00000000E+00  0.00000000E+00  0.00000000E+00
  0.00000000E+00  0.00000000E+00  0.00000000E+00
  0.00000000E+00  0.00000000E+00  0.00000000E+00
  0.00000000E+00  0.00000000E+00  0.00000000E+00
  0.00000000E+00  0.00000000E+00  0.00000000E+00
  0.00000000E+00  0.00000000E+00  0.00000000E+00
  0.00000000E+00  0.00000000E+00  0.00000000E+00
