Cu	N	Ru	Ta                              
   1.00000000000000     
    18.1096308199999996    0.0000000000000000    0.0000000000000000
     0.0000000000000000   23.3551997799999995    0.0000000000000000
     0.0000000000000000    0.0000000000000000   30.4818171199999988
   Cu   N    Ru   Ta
     4   240    48   192
Selective dynamics
Direct
  0.5757892779704754  0.4434917116835471  0.6060879958256189   T   T   T
  0.7662608010502493  0.4387079829328357  0.5704514417959945   T   T   T
  0.2606640202331483  0.4441111472971094  0.5728888684193382   T   T   T
  0.4446723850388273  0.4471547731264846  0.6108681883410095   T   T   T
  0.0000000000000000  0.0000000000000000  0.3032267788896164   F   F   F
  0.0000000000000000  0.5000000000000000  0.3032267788896164   F   F   F
  0.0000000000000000  0.6249999998929567  0.3032267788896164   F   F   F
  0.0000000000000000  0.7500000002140865  0.3032267788896164   F   F   F
  0.0000000000000000  0.8750000001070433  0.3032267788896164   F   F   F
  0.0000000000000000  0.1249999998929567  0.3032267788896164   F   F   F
  0.0000000000000000  0.2500000002140865  0.3032267788896164   F   F   F
  0.0000000000000000  0.3750000001070433  0.3032267788896164   F   F   F
  0.0007305623789824  0.7484506460096838  0.4720477754674463   T   T   T
  0.0015740747358409  0.9998091210584414  0.4753225499401315   T   T   T
  0.0019101924655987  0.3737075099190683  0.4742418513614483   T   T   T
  0.0030854334625817  0.5013340761104873  0.4751995174607146   T   T   T
  0.0286476962524329  0.5988386423343122  0.5750248917368356   T   T   T
  0.0437013318153346  0.2431365937259899  0.5816231432214806   T   T   T
  0.0519797976179204  0.0959335503500991  0.5597413996671385   T   T   T
  0.0550878102692380  0.8716235050579444  0.5846068356600874   T   T   T
  0.5559336057899491  0.8819825768903571  0.5858589533989481   T   T   T
  0.5609077027871280  0.6449645326123145  0.5740116633271064   T   T   T
  0.5791879185542079  0.1300248140297546  0.5699465273862744   T   T   T
  0.5806898867459149  0.2380146363519298  0.5713455433824841   T   T   T
  0.5941133989389655  0.0000000000000000  0.2322132027803434   F   F   F
  0.5941133989389655  0.5000000000000000  0.2322132027803434   F   F   F
  0.5941133989389655  0.6249999998929567  0.2322132027803434   F   F   F
  0.5941133989389655  0.7500000002140865  0.2322132027803434   F   F   F
  0.5941133989389655  0.8750000001070433  0.2322132027803434   F   F   F
  0.5941133989389655  0.1249999998929567  0.2322132027803434   F   F   F
  0.5941133989389655  0.2500000002140865  0.2322132027803434   F   F   F
  0.5941133989389655  0.3750000001070433  0.2322132027803434   F   F   F
  0.5978068682041466  0.1256385927296358  0.4008177516720827   T   T   T
  0.5985131678204054  0.2507926533560869  0.4020239444184514   T   T   T
  0.5987259328938365  0.0002240868828398  0.4013306353772751   T   T   T
  0.5986745391568346  0.8750064060044226  0.4029906489550484   T   T   T
  0.5989906633614641  0.7508129019935984  0.4021579088765308   T   T   T
  0.5990534411930037  0.6246533986045915  0.4018317252485814   T   T   T
  0.5996455742696880  0.3741269379775367  0.4019969100882475   T   T   T
  0.5999928666607676  0.5003368059008576  0.4015489198601937   T   T   T
  0.6043638830505246  0.3715119751436086  0.5687145059840604   T   T   T
  0.6081019172661909  0.7619739461649216  0.5640597681928803   T   T   T
  0.6085405671831881  0.5101488110205972  0.5656572790092479   T   T   T
  0.6162376218926462  0.9958605771569684  0.5662413698321542   T   T   T
  0.6451616359685315  0.1267623853423027  0.4842001364936288   T   T   T
  0.6474171017716596  0.8764038222003918  0.4888815534362535   T   T   T
  0.6485369427676537  0.2488443386798984  0.4867619501020548   T   T   T
  0.6487486609303695  0.6238121628298895  0.4857279530267483   T   T   T
  0.6497753238569567  0.0039079331589367  0.4832916292099171   T   T   T
  0.6529017204353991  0.7489194555765035  0.4857689736665995   T   T   T
  0.6545990963497701  0.0000000000000000  0.3156671842141137   F   F   F
  0.6545990963497701  0.5000000000000000  0.3156671842141137   F   F   F
  0.6545990963497701  0.6249999998929567  0.3156671842141137   F   F   F
  0.6545990963497701  0.7500000002140865  0.3156671842141137   F   F   F
  0.6545990963497701  0.8750000001070433  0.3156671842141137   F   F   F
  0.6545990963497701  0.1249999998929567  0.3156671842141137   F   F   F
  0.6545990963497701  0.2500000002140865  0.3156671842141137   F   F   F
  0.6545990963497701  0.3750000001070433  0.3156671842141137   F   F   F
  0.6557869722230072  0.3735736608620152  0.4858098876192997   T   T   T
  0.6562410365628999  0.5001746735534571  0.4843044557505921   T   T   T
  0.7145859537174181  0.6376247203857253  0.5614624602685724   T   T   T
  0.7192326268632097  0.8772803620111675  0.5646609602358552   T   T   T
  0.7313060997688521  0.1200669129550588  0.5488995957588277   T   T   T
  0.7341017478033972  0.2335583747151066  0.5541310565514145   T   T   T
  0.7494146489764312  0.1246749703835242  0.3879908025584761   T   T   T
  0.7494089873280411  0.8750601929048228  0.3881070990642467   T   T   T
  0.7498746416054130  0.0001074712692202  0.3883443584266132   T   T   T
  0.7498391290691643  0.2498824707386177  0.3873794679461560   T   T   T
  0.7498254004575634  0.7501121502718986  0.3873192277444514   T   T   T
  0.7498406038148197  0.6245810531841396  0.3872782275085924   T   T   T
  0.7499999997239044  0.0000000000000000  0.1996562654398630   F   F   F
  0.7499999997239044  0.5000000000000000  0.1996562654398630   F   F   F
  0.7499999997239044  0.6249999998929567  0.1996562654398630   F   F   F
  0.7499999997239044  0.7500000002140865  0.1996562654398630   F   F   F
  0.7499999997239044  0.8750000001070433  0.1996562654398630   F   F   F
  0.7499999997239044  0.1249999998929567  0.1996562654398630   F   F   F
  0.7499999997239044  0.2500000002140865  0.1996562654398630   F   F   F
  0.7499999997239044  0.3750000001070433  0.1996562654398630   F   F   F
  0.7508403208324631  0.3745211302102791  0.3879351195298014   T   T   T
  0.7508961922355408  0.5000011822552213  0.3873057454672284   T   T   T
  0.7698403479461153  0.3588268126632143  0.5678501922719472   T   T   T
  0.7708562995057123  0.5186686768717866  0.5684321909903552   T   T   T
  0.7787307157694342  0.7591875202852236  0.5619691323501274   T   T   T
  0.7778401481536612 -0.0003379246216695  0.5622106519354365   T   T   T
  0.8454009036502299  0.0000000000000000  0.3156671842141137   F   F   F
  0.8454009036502299  0.5000000000000000  0.3156671842141137   F   F   F
  0.8454009036502299  0.6249999998929567  0.3156671842141137   F   F   F
  0.8454009036502299  0.7500000002140865  0.3156671842141137   F   F   F
  0.8454009036502299  0.8750000001070433  0.3156671842141137   F   F   F
  0.8454009036502299  0.1249999998929567  0.3156671842141137   F   F   F
  0.8454009036502299  0.2500000002140865  0.3156671842141137   F   F   F
  0.8454009036502299  0.3750000001070433  0.3156671842141137   F   F   F
  0.8455484349444572  0.8730939599179018  0.4861328926006200   T   T   T
  0.8457312998045315  0.2462893111565778  0.4836688439542465   T   T   T
  0.8473427756461147  0.1277458271842170  0.4833241849722902   T   T   T
  0.8473308138590008  0.6230322085868261  0.4849272453349855   T   T   T
  0.8506449351433466  0.7473476671488134  0.4859233914701591   T   T   T
  0.8515511685112522  0.4994852156734661  0.4867369511032556   T   T   T
  0.8516758177425857  0.3748014636667169  0.4887609417913736   T   T   T
  0.8520663686381851  0.0007213559182242  0.4890855011477505   T   T   T
  0.8730324157541045  0.6384093354548572  0.5680154646734580   T   T   T
  0.8803661643760546  0.2460363795395622  0.5652420223505549   T   T   T
  0.8802514115701391  0.1172735239284641  0.5676920818686551   T   T   T
  0.8868289600281455  0.8845307116578768  0.5653894163600532   T   T   T
  0.9001976832309450  0.1240045937947587  0.4014176449242614   T   T   T
  0.9003949299557847  0.8754086452652754  0.4025075211688008   T   T   T
  0.9007220416895297  0.9995827201631948  0.4033643002486630   T   T   T
  0.9005579250098347  0.7499726845393544  0.4015293084164865   T   T   T
  0.9005176027628998  0.2506710337535265  0.4014545336499303   T   T   T
  0.9006475258424131  0.6245741680947986  0.4015286668788868   T   T   T
  0.9013149085231531  0.3744380754532038  0.4029980418889800   T   T   T
  0.9016929038081269  0.4998153113603096  0.4022572727244140   T   T   T
  0.9058866010610345  0.0000000000000000  0.2322132027803434   F   F   F
  0.9058866010610345  0.5000000000000000  0.2322132027803434   F   F   F
  0.9058866010610345  0.6249999998929567  0.2322132027803434   F   F   F
  0.9058866010610345  0.7500000002140865  0.2322132027803434   F   F   F
  0.9058866010610345  0.8750000001070433  0.2322132027803434   F   F   F
  0.9058866010610345  0.1249999998929567  0.2322132027803434   F   F   F
  0.9058866010610345  0.2500000002140865  0.2322132027803434   F   F   F
  0.9058866010610345  0.3750000001070433  0.2322132027803434   F   F   F
  0.9221989366547008  0.5106508881377950  0.5710640504200802   T   T   T
  0.9250366507066026  0.3763130885828658  0.5779759815781594   T   T   T
  0.9368222366052597  0.7698260202538166  0.5714166111876154   T   T   T
  0.0941133989389655  0.0000000000000000  0.2322132027803434   F   F   F
  0.0941133989389655  0.5000000000000000  0.2322132027803434   F   F   F
  0.0941133989389655  0.6249999998929567  0.2322132027803434   F   F   F
  0.0941133989389655  0.7500000002140865  0.2322132027803434   F   F   F
  0.0941133989389655  0.8750000001070433  0.2322132027803434   F   F   F
  0.0941133989389655  0.1249999998929567  0.2322132027803434   F   F   F
  0.0941133989389655  0.2500000002140865  0.2322132027803434   F   F   F
  0.0941133989389655  0.3750000001070433  0.2322132027803434   F   F   F
  0.9418701605386092  0.0041282749592638  0.5859298560594212   T   T   T
  0.0982827365419236  0.2506827514597248  0.4019431511829250   T   T   T
  0.0985606737848976  0.8749748374951215  0.4032456011237151   T   T   T
  0.0985282195470848  0.1252195597835684  0.4012730846057311   T   T   T
  0.0986434156108868  0.9992443464947802  0.4025229116730075   T   T   T
  0.0988609832972314  0.6243369037259074  0.4015995381570379   T   T   T
  0.0991481373759293  0.7495296774922136  0.4018771638301163   T   T   T
  0.0995733252325060  0.3742389846805347  0.4022281084850840   T   T   T
  0.9973759276770232  0.8756572213850432  0.4744216541805698   T   T   T
  0.9980722439642032  0.6267469261840232  0.4733402495134578   T   T   T
  0.9986559656584607  0.2493612971780868  0.4740422340228811   T   T   T
  0.9988573272864056  0.1257404971873019  0.4719838817127450   T   T   T
  0.0999400375608217  0.5000550999308823  0.4019707772711995   T   T   T
  0.1045997846024350  0.3639885203135803  0.5652459237304626   T   T   T
  0.1073663838973496  0.7570740713166934  0.5671771929640134   T   T   T
  0.1139676653123181  0.5088574614240517  0.5683896252593411   T   T   T
  0.1159359842732279  0.9895626529324707  0.5665181320888714   T   T   T
  0.1466756459469773  0.8735521238564828  0.4886172993849902   T   T   T
  0.1477663335877669  0.2493472481812719  0.4856619996365442   T   T   T
  0.1488093212226121  0.1268778645602412  0.4838255448050698   T   T   T
  0.1497395106760157  0.6221901111345947  0.4844695066198623   T   T   T
  0.1516692968515525  0.7476454908066321  0.4839706668185654   T   T   T
  0.1532151177078168  0.0002761174056968  0.4861136679221648   T   T   T
  0.1545990963497701  0.0000000000000000  0.3156671842141137   F   F   F
  0.1545990963497701  0.5000000000000000  0.3156671842141137   F   F   F
  0.1545990963497701  0.6249999998929567  0.3156671842141137   F   F   F
  0.1545990963497701  0.7500000002140865  0.3156671842141137   F   F   F
  0.1545990963497701  0.8750000001070433  0.3156671842141137   F   F   F
  0.1545990963497701  0.1249999998929567  0.3156671842141137   F   F   F
  0.1545990963497701  0.2500000002140865  0.3156671842141137   F   F   F
  0.1545990963497701  0.3750000001070433  0.3156671842141137   F   F   F
  0.1559522447868747  0.3759385917319465  0.4861807036539397   T   T   T
  0.1563612827315360  0.4978574604773978  0.4858826876105232   T   T   T
  0.2024726837694183  0.6381389604477135  0.5607246042441737   T   T   T
  0.2183652860198668  0.2494631665041417  0.5582424618677174   T   T   T
  0.2210191688779541  0.8717582055797616  0.5629243192734606   T   T   T
  0.2253846974073746  0.1142033259409544  0.5570211899126594   T   T   T
  0.2492830036249190  0.8748598512943829  0.3883743952303286   T   T   T
  0.2493983412703518  0.1252953312804559  0.3866190392287295   T   T   T
  0.2495809326885383  0.9999484464524484  0.3874180013100508   T   T   T
  0.2497930823907204  0.2503460784241090  0.3882156330393329   T   T   T
  0.2501740222882445  0.7501378190765920  0.3882164321816539   T   T   T
  0.2499999997239044  0.0000000000000000  0.1996562654398630   F   F   F
  0.2499999997239044  0.5000000000000000  0.1996562654398630   F   F   F
  0.2499999997239044  0.6249999998929567  0.1996562654398630   F   F   F
  0.2499999997239044  0.7500000002140865  0.1996562654398630   F   F   F
  0.2499999997239044  0.8750000001070433  0.1996562654398630   F   F   F
  0.2499999997239044  0.1249999998929567  0.1996562654398630   F   F   F
  0.2499999997239044  0.2500000002140865  0.1996562654398630   F   F   F
  0.2499999997239044  0.3750000001070433  0.1996562654398630   F   F   F
  0.2501659777530759  0.6250838730190392  0.3876915063962613   T   T   T
  0.2504652599347215  0.5005235282731108  0.3868576880465643   T   T   T
  0.2504763942328966  0.3746808334871827  0.3869872824110224   T   T   T
  0.2668712170841375  0.5249786311630411  0.5679801566002147   T   T   T
  0.2724073847399647  0.3630839668238112  0.5702313320561276   T   T   T
  0.2766750313856798  0.7504015634512359  0.5629222278877133   T   T   T
  0.2860410189984950  0.9936351870722023  0.5620448192766132   T   T   T
  0.3456649747042052  0.1259620041510530  0.4854314066598477   T   T   T
  0.3454009036502299  0.0000000000000000  0.3156671842141137   F   F   F
  0.3454009036502299  0.5000000000000000  0.3156671842141137   F   F   F
  0.3454009036502299  0.6249999998929567  0.3156671842141137   F   F   F
  0.3454009036502299  0.7500000002140865  0.3156671842141137   F   F   F
  0.3454009036502299  0.8750000001070433  0.3156671842141137   F   F   F
  0.3454009036502299  0.1249999998929567  0.3156671842141137   F   F   F
  0.3454009036502299  0.2500000002140865  0.3156671842141137   F   F   F
  0.3454009036502299  0.3750000001070433  0.3156671842141137   F   F   F
  0.3461248468283685  0.8770722522444624  0.4862250754266914   T   T   T
  0.3477459736545055  0.2523967604575202  0.4875109680080902   T   T   T
  0.3487529054045507  0.6211841302816821  0.4854147759911012   T   T   T
  0.3496449701449875  0.4988478913644647  0.4853852365373152   T   T   T
  0.3500939273316178  0.3771307768845477  0.4863586029946918   T   T   T
  0.3510647804044287  0.0028941389764275  0.4856944354500019   T   T   T
  0.3524589990423471  0.7491499913152392  0.4892553938826877   T   T   T
  0.3883362141775525  0.8667478030200564  0.5659387111242263   T   T   T
  0.3898271745127955  0.6332824382610245  0.5684808458630735   T   T   T
  0.3991757743578520  0.1256601955552183  0.4015002164497321   T   T   T
  0.3997042046361423  0.1147150184353725  0.5643803889737045   T   T   T
  0.4000946689786197  0.0003724755822025  0.4015405823291360   T   T   T
  0.4002694240004547  0.8748110852851084  0.4025223262650353   T   T   T
  0.4000144046794351  0.2506649485799804  0.4021301179039224   T   T   T
  0.4007753663043140  0.7504701180207772  0.4033809196340920   T   T   T
  0.4007500223687512  0.6254919083617098  0.4021105929327826   T   T   T
  0.4012154090979997  0.3747702699997260  0.4017818246343860   T   T   T
  0.4014207467887149  0.5000300748958160  0.4012388809294892   T   T   T
  0.4054674610507001  0.2545914230915024  0.5711526103275172   T   T   T
  0.4058866010610345  0.0000000000000000  0.2322132027803434   F   F   F
  0.4058866010610345  0.5000000000000000  0.2322132027803434   F   F   F
  0.4058866010610345  0.6249999998929567  0.2322132027803434   F   F   F
  0.4058866010610345  0.7500000002140865  0.2322132027803434   F   F   F
  0.4058866010610345  0.8750000001070433  0.2322132027803434   F   F   F
  0.4058866010610345  0.1249999998929567  0.2322132027803434   F   F   F
  0.4058866010610345  0.2500000002140865  0.2322132027803434   F   F   F
  0.4058866010610345  0.3750000001070433  0.2322132027803434   F   F   F
  0.4149450411607964  0.5084520906918319  0.5691556482697349   T   T   T
  0.4182454569872228  0.3776816155237602  0.5761535700335564   T   T   T
  0.4413153529109526  0.7470798771234771  0.5848373178971777   T   T   T
  0.4431572056932241  0.9826499912506110  0.5697648777796495   T   T   T
  0.4965964795042281  0.1251018400819323  0.4718520155477350   T   T   T
  0.4979003000418090  0.8748289667000877  0.4743376924880929   T   T   T
  0.4985671662281621  0.2508316002313530  0.4737282739939083   T   T   T
  0.4994259501411460  0.6243489596742909  0.4727113749196485   T   T   T
  0.5001228984324042  0.0018235204438151  0.4712871896411502   T   T   T
  0.5000000000000000  0.0000000000000000  0.3032267788896164   F   F   F
  0.5000000000000000  0.5000000000000000  0.3032267788896164   F   F   F
  0.5000000000000000  0.6249999998929567  0.3032267788896164   F   F   F
  0.5000000000000000  0.7500000002140865  0.3032267788896164   F   F   F
  0.5000000000000000  0.8750000001070433  0.3032267788896164   F   F   F
  0.5000000000000000  0.1249999998929567  0.3032267788896164   F   F   F
  0.5000000000000000  0.2500000002140865  0.3032267788896164   F   F   F
  0.5000000000000000  0.3750000001070433  0.3032267788896164   F   F   F
  0.5013887155667247  0.7512900242589234  0.4737324109171073   T   T   T
  0.5023116022942541  0.3745540397637276  0.4747456771534352   T   T   T
  0.5026559309982210  0.5006338425739268  0.4732954611910746   T   T   T
  0.0094800696990449  0.3647109153877426  0.5418117178202492   T   T   T
  0.0117973906313928  0.7498761396126843  0.5392428200949071   T   T   T
  0.0146103692158609  0.9961125379156053  0.5459353071112585   T   T   T
  0.0175501167471621  0.5208775053379894  0.5440556065947871   T   T   T
  0.6263047096131680  0.9183090707405085  0.5518182600800288   T   T   T
  0.6315360787003620  0.6874516375580331  0.5396302747988522   T   T   T
  0.6326133405686302  0.4381027802313604  0.5347961234429645   T   T   T
  0.6444391645379591  0.1806347921218114  0.5380573730699623   T   T   T
  0.6984011947893161  0.5625544826255591  0.5406840190568107   T   T   T
  0.6998724434696816  0.8039194957998198  0.5404766367838778   T   T   T
  0.6998940893654753  0.0445420573027456  0.5386258809847679   T   T   T
  0.7070292142126217  0.3073400688028090  0.5387246662653684   T   T   T
  0.7931155210896432  0.6845397908737952  0.5420321808357941   T   T   T
  0.7958230837493311  0.9241107212164987  0.5417181644333351   T   T   T
  0.8211258861498579  0.1822638602724911  0.5348737057059721   T   T   T
  0.8514584622118683  0.5653704655054391  0.5419551213274568   T   T   T
  0.8603807144850413  0.3220492137417759  0.5478113051305137   T   T   T
  0.8630340090459562  0.8110427126552349  0.5395723664795827   T   T   T
  0.8715075492738407  0.0383601347244162  0.5520699919527057   T   T   T
  0.9019990705495849  0.4420944779002978  0.5436937391535500   T   T   T
  0.9708845105818646  0.6351442344233253  0.5410234115955643   T   T   T
  0.9710154359047313  0.1265868059480589  0.5376047683941437   T   T   T
  0.9805177431846925  0.2415306455137875  0.5430797233338727   T   T   T
  0.9860535592261964  0.8848006709475462  0.5433147158781253   T   T   T
  0.1209953325692930  0.4380550072987572  0.5392293129936812   T   T   T
  0.1241895035062975  0.8349074808109688  0.5513382449551810   T   T   T
  0.1418590121385370  0.0599934281690972  0.5372734948155947   T   T   T
  0.1889905794861774  0.5640242281092487  0.5367998583960226   T   T   T
  0.1898103879573154  0.1840496760261463  0.5317462772094199   T   T   T
  0.1916566180862440  0.7094290711572149  0.5417424560755711   T   T   T
  0.2006325810252997  0.3216555255104392  0.5387559040173677   T   T   T
  0.2061480843751261  0.9480248620250327  0.5429310668746294   T   T   T
  0.2979378853027204  0.8249675239268444  0.5407149942899070   T   T   T
  0.3034273233664280  0.0670350837693540  0.5376693005718964   T   T   T
  0.3463690147286151  0.5669584628200881  0.5392561864140267   T   T   T
  0.3554804225234758  0.3204381587203421  0.5429318586414374   T   T   T
  0.3656413908175631  0.9392037699028767  0.5399964526263529   T   T   T
  0.3722996640326868  0.7112789133712464  0.5513722500684005   T   T   T
  0.3782430656217574  0.1864605100445401  0.5409765355297514   T   T   T
  0.3857135573314864  0.4401010507811751  0.5378042296405736   T   T   T
  0.4863639685759789  0.6291019871673315  0.5401676877471211   T   T   T
  0.4881682092633478  0.8695930972135641  0.5443167813183135   T   T   T
  0.4985790268558487  0.1194293412398693  0.5393465026880516   T   T   T
  0.5009070514893292  0.2505689379968062  0.5422999182206446   T   T   T
  0.5077884097780893  0.3707658310424670  0.5434182133491974   T   T   T
  0.5096216931884520  0.7602181950873260  0.5423407893168187   T   T   T
  0.5099681675398861  0.5085233700942176  0.5405747641510993   T   T   T
  0.5184987662736978  0.0004991663424154  0.5376982770834657   T   T   T
  0.0000000000000000  0.0000000000000000  0.1972002481458333   F   F   F
  0.0000000000000000  0.5000000000000000  0.1972002481458333   F   F   F
  0.0000000000000000  0.6249999998929567  0.1972002481458333   F   F   F
  0.0000000000000000  0.7500000002140865  0.1972002481458333   F   F   F
  0.0000000000000000  0.8750000001070433  0.1972002481458333   F   F   F
  0.0000000000000000  0.1249999998929567  0.1972002481458333   F   F   F
  0.0000000000000000  0.2500000002140865  0.1972002481458333   F   F   F
  0.0000000000000000  0.3750000001070433  0.1972002481458333   F   F   F
  0.0001844960934099  0.7500013258591191  0.3697558088516332   T   T   T
  0.0001509748070338  0.3747318422359502  0.3700702161439486   T   T   T
  0.9998864933214667  0.6245852884267982  0.3696263035783575   T   T   T
  0.0005870821155799  0.4999477936062101  0.3698704774051463   T   T   T
  0.5805123369958263  0.1882706963578829  0.4533661288462817   T   T   T
  0.5821943271508829  0.0637495398771636  0.4528108677391063   T   T   T
  0.5825346300460907  0.4375000002676046  0.2838671249793236   F   F   F
  0.5825346300460907  0.5625000001605613  0.2838671249793236   F   F   F
  0.5825346300460907  0.0625000001605613  0.2838671249793236   F   F   F
  0.5825346300460907  0.6875000000535181  0.2838671249793236   F   F   F
  0.5825346300460907  0.8124999999464819  0.2838671249793236   F   F   F
  0.5825346300460907  0.9375000002676046  0.2838671249793236   F   F   F
  0.5825346300460907  0.1875000000535181  0.2838671249793236   F   F   F
  0.5825346300460907  0.3124999999464819  0.2838671249793236   F   F   F
  0.5832540674223077  0.9384138470740718  0.4555024632833282   T   T   T
  0.5838844073496754  0.8127993403634511  0.4558251072037355   T   T   T
  0.5837008590210467  0.6873473586587270  0.4537570079733390   T   T   T
  0.5845723644419032  0.3124815098414211  0.4554420515009948   T   T   T
  0.5851107060924988  0.5621343270479571  0.4547037300033868   T   T   T
  0.5862247087637912  0.4371373740459104  0.4530712813220188   T   T   T
  0.6657105641648826  0.4375000002676046  0.2025710526275901   F   F   F
  0.6657105641648826  0.5625000001605613  0.2025710526275901   F   F   F
  0.6657105641648826  0.0625000001605613  0.2025710526275901   F   F   F
  0.6657105641648826  0.6875000000535181  0.2025710526275901   F   F   F
  0.6657105641648826  0.8124999999464819  0.2025710526275901   F   F   F
  0.6657105641648826  0.9375000002676046  0.2025710526275901   F   F   F
  0.6657105641648826  0.1875000000535181  0.2025710526275901   F   F   F
  0.6657105641648826  0.3124999999464819  0.2025710526275901   F   F   F
  0.6673288760041657  0.0625405969762605  0.3679422301365378   T   T   T
  0.6672839461165786  0.1875849627055688  0.3681640257883718   T   T   T
  0.6673848476917281  0.8126925263445980  0.3685140549019636   T   T   T
  0.6675305322382470  0.9376021782538276  0.3686404471255002   T   T   T
  0.6675582794457869  0.6875360593935314  0.3681441934864125   T   T   T
  0.6676018108662785  0.3124399377823001  0.3683795112435260   T   T   T
  0.6677956562920869  0.5625123972801929  0.3680869574356297   T   T   T
  0.6682645594030988  0.4372769799195316  0.3683676865774380   T   T   T
  0.7467509157997374  0.8744712504075511  0.4567066850595951   T   T   T
  0.7468673832117401  0.1240179862302790  0.4560663880475815   T   T   T
  0.7476546588904869  0.2487432912743691  0.4552306078735417   T   T   T
  0.7485345825870220  0.6247790468110096  0.4552621067030354   T   T   T
  0.7499999997239044  0.0000000000000000  0.2777865629422820   F   F   F
  0.7499999997239044  0.5000000000000000  0.2777865629422820   F   F   F
  0.7499999997239044  0.6249999998929567  0.2777865629422820   F   F   F
  0.7499999997239044  0.7500000002140865  0.2777865629422820   F   F   F
  0.7499999997239044  0.8750000001070433  0.2777865629422820   F   F   F
  0.7499999997239044  0.1249999998929567  0.2777865629422820   F   F   F
  0.7499999997239044  0.2500000002140865  0.2777865629422820   F   F   F
  0.7499999997239044  0.3750000001070433  0.2777865629422820   F   F   F
  0.7513600956560078  0.9997575830558202  0.4571288098857976   T   T   T
  0.7512170101473086  0.7489807522157536  0.4553805671481067   T   T   T
  0.7530511876511615  0.3733680970616597  0.4561440614371787   T   T   T
  0.7536759494139185  0.5000032603628419  0.4549644762663136   T   T   T
  0.0824618672244860  0.1879611327795988  0.4534661089477033   T   T   T
  0.0825346300460907  0.4375000002676046  0.2838671249793236   F   F   F
  0.0825346300460907  0.5625000001605613  0.2838671249793236   F   F   F
  0.0825346300460907  0.0625000001605613  0.2838671249793236   F   F   F
  0.0825346300460907  0.6875000000535181  0.2838671249793236   F   F   F
  0.0825346300460907  0.8124999999464819  0.2838671249793236   F   F   F
  0.0825346300460907  0.9375000002676046  0.2838671249793236   F   F   F
  0.0825346300460907  0.1875000000535181  0.2838671249793236   F   F   F
  0.0825346300460907  0.3124999999464819  0.2838671249793236   F   F   F
  0.0831993570870434  0.9371935107141585  0.4564312086125598   T   T   T
  0.0833188519754378  0.8116449201567009  0.4555075627221665   T   T   T
  0.8320510785025651  0.9375356045151052  0.3689167187911827   T   T   T
  0.8318955733122783  0.1873173706045134  0.3678600198139700   T   T   T
  0.8321012950739998  0.0621877138419149  0.3686073553746691   T   T   T
  0.8318781187526851  0.6874059346390465  0.3681191948821551   T   T   T
  0.8321407509318626  0.8127121611277458  0.3682749494006770   T   T   T
  0.8326669907286053  0.3124915020768452  0.3682564632471469   T   T   T
  0.8330394300716017  0.5622807682327753  0.3680372145545109   T   T   T
  0.8331858989705065  0.4372820041919354  0.3684520418995673   T   T   T
  0.8342894060167296  0.4375000002676046  0.2025710526275901   F   F   F
  0.8342894060167296  0.5625000001605613  0.2025710526275901   F   F   F
  0.8342894060167296  0.0625000001605613  0.2025710526275901   F   F   F
  0.8342894060167296  0.6875000000535181  0.2025710526275901   F   F   F
  0.8342894060167296  0.8124999999464819  0.2025710526275901   F   F   F
  0.8342894060167296  0.9375000002676046  0.2025710526275901   F   F   F
  0.8342894060167296  0.1875000000535181  0.2025710526275901   F   F   F
  0.8342894060167296  0.3124999999464819  0.2025710526275901   F   F   F
  0.0838526065779335  0.0624462089921543  0.4538248557155094   T   T   T
  0.0843917103652369  0.3122157419315877  0.4553763311082679   T   T   T
  0.0848169876323357  0.6860411682589274  0.4541709233494408   T   T   T
  0.0852006942851411  0.5617873192487155  0.4543636217386289   T   T   T
  0.0854011544082341  0.4372623630255842  0.4538945854770204   T   T   T
  0.9147280644397953  0.6870618143029104  0.4532636868005888   T   T   T
  0.9149392302471114  0.9371864479368694  0.4562424646702599   T   T   T
  0.9149907922349972  0.1873898951874768  0.4522087057685876   T   T   T
  0.9155452452347320  0.8115875168375041  0.4541619150098890   T   T   T
  0.9157444792325597  0.0627100415520791  0.4563057663830455   T   T   T
  0.9158750647328101  0.3119173746567420  0.4558340198000675   T   T   T
  0.9168801747740151  0.5619832378229710  0.4543515966532730   T   T   T
  0.9174653699539093  0.4375000002676046  0.2838671249793236   F   F   F
  0.9174653699539093  0.5625000001605613  0.2838671249793236   F   F   F
  0.9174653699539093  0.0625000001605613  0.2838671249793236   F   F   F
  0.9174653699539093  0.6875000000535181  0.2838671249793236   F   F   F
  0.9174653699539093  0.8124999999464819  0.2838671249793236   F   F   F
  0.9174653699539093  0.9375000002676046  0.2838671249793236   F   F   F
  0.9174653699539093  0.1875000000535181  0.2838671249793236   F   F   F
  0.9174653699539093  0.3124999999464819  0.2838671249793236   F   F   F
  0.9184575921947218  0.4373515877914287  0.4557214952118582   T   T   T
  0.9992726886630241  0.1247714099269489  0.3695764164350334   T   T   T
  0.9993984264401287  0.9996437074148485  0.3702133046442540   T   T   T
  0.9994237938632684  0.2502873166861252  0.3696151539023086   T   T   T
  0.9997730556995111  0.8749361034927716  0.3701900566015132   T   T   T
  0.1657105641648826  0.4375000002676046  0.2025710526275901   F   F   F
  0.1657105641648826  0.5625000001605613  0.2025710526275901   F   F   F