Ta  N Ru                                
   1.00000000000000     
    18.1096308199999996    0.0000000000000000    0.0000000000000000
     0.0000000000000000   23.3551997799999995    0.0000000000000000
     0.0000000000000000    0.0000000000000000   30.4818171199999988
   Ta   N    Ru
   228   240    12
Direct
 -0.0000000000000000  0.0000718856546781  0.1971343718284150
  0.3342926847814249  0.0624132518977013  0.2026937805440634
  0.1663206548061572  0.0625684459108783  0.2026879703893160
  0.2502067873593207  0.1250918040142217  0.2779408447657609
  0.0826029581595549  0.0626929404336478  0.2836274496812357
  0.4173382514782716  0.0622475047871928  0.2840383744896501
 -0.0000000000000000  0.1255959984447523  0.3693521337256642
  0.3323249710720427  0.0621325632633930  0.3685384077175205
  0.1675707108255496  0.0627965908896473  0.3680568184268094
  0.2505553415138195  0.1263644196581711  0.4559161842198121
  0.0852115156873773  0.0636812834457858  0.4543639127179008
  0.4159221606727568  0.0611432422052478  0.4543196659236691
 -0.0000000000000000  0.1284517675204703  0.5422485707815604
  0.3311522257080429  0.0592862027497396  0.5437783254020940
 -0.0000000000000000  0.1251997475754409  0.1971274192404455
  0.3343369412500078  0.1874555756944798  0.2027209845130573
  0.1662604173406382  0.1876312578509043  0.2027221982441222
  0.2501999816055072  0.2498887646067159  0.2779024730234810
  0.0825727650861386  0.1876830281330931  0.2837096283809733
  0.4172972896996293  0.1872504991250778  0.2840867748275421
 -0.0000000000000000  0.2506510309738611  0.3693959322701186
  0.3322443333438846  0.1869887601198475  0.3684439364109427
  0.1678265826589345  0.1877463329191258  0.3677799244927273
  0.2506659186982412  0.2482635598508122  0.4550261298739570
  0.0823430407097363  0.1887928898544892  0.4536433528407522
  0.4161126195572191  0.1862246318414239  0.4540561383194644
 -0.0000000000000000  0.2510245961178039  0.5415632110341569
  0.3398257204137770  0.1851522620910349  0.5423509265952844
  0.1705705864580551  0.1917617533553410  0.5429561993732067
 -0.0000000000000000  0.2500718858687647  0.1971343718284150
  0.3342926847814249  0.3124132516836218  0.2026937805440634
  0.1663206548061572  0.3125684456967988  0.2026879703893160
  0.2502067873593207  0.3750918042283081  0.2779408447657609
  0.0826029581595549  0.3126929402195684  0.2836274496812357
  0.4173382514782716  0.3122475045731133  0.2840383744896501
 -0.0000000000000000  0.3755959986588388  0.3693521337256642
  0.3323249710720427  0.3121325630493136  0.3685384077175205
  0.1675707108255496  0.3127965906755679  0.3680568184268094
  0.2505553415138195  0.3763644198722576  0.4559161842198121
  0.0852115156873773  0.3136812832317063  0.4543639127179008
  0.4159221606727568  0.3111432419911755  0.4543196659236691
 -0.0000000000000000  0.3784517677345567  0.5422485707815604
  0.3311522257080429  0.3092862025356602  0.5437783254020940
 -0.0000000000000000  0.3751997477895276  0.1971274192404455
  0.3343369412500078  0.4374555759085663  0.2027209845130573
  0.1662604173406382  0.4376312580649908  0.2027221982441222
  0.2501999816055072 -0.0001112356073706  0.2779024730234810
  0.0825727650861386  0.4376830283471796  0.2837096283809733
  0.4172972896996293  0.4372504993391642  0.2840867748275421
 -0.0000000000000000  0.0006510307597746  0.3693959322701186
  0.3322443333438846  0.4369887603339340  0.3684439364109427
  0.1678265826589345  0.4377463331332124  0.3677799244927273
  0.2506659186982412  0.9982635596367324  0.4550261298739570
  0.0823430407097363  0.4387928900685758  0.4536433528407522
  0.4161126195572191  0.4362246320555105  0.4540561383194644
 -0.0000000000000000  0.0010245959037174  0.5415632110341569
  0.3398257204137770  0.4351522623051215  0.5423509265952844
  0.1705705864580551  0.4417617535694277  0.5429561993732067
 -0.0000000000000000  0.5000718856546781  0.1971343718284150
  0.3342926847814249  0.5624132518977014  0.2026937805440634
  0.1663206548061572  0.5625684459108786  0.2026879703893160
  0.2502067873593207  0.6250918040142217  0.2779408447657609
  0.0826029581595549  0.5626929404336478  0.2836274496812357
  0.4173382514782716  0.5622475047871929  0.2840383744896501
 -0.0000000000000000  0.6255959984447524  0.3693521337256642
  0.3323249710720427  0.5621325632633929  0.3685384077175205
  0.1675707108255496  0.5627965908896475  0.3680568184268094
  0.2505553415138195  0.6263644196581711  0.4559161842198121
  0.0852115156873773  0.5636812834457859  0.4543639127179008
  0.4159221606727568  0.5611432422052476  0.4543196659236691
 -0.0000000000000000  0.6284517675204704  0.5422485707815604
  0.3311522257080429  0.5592862027497324  0.5437783254020940
 -0.0000000000000000  0.6251997475754406  0.1971274192404455
  0.3343369412500078  0.6874555756944798  0.2027209845130573
  0.1662604173406382  0.6876312578509043  0.2027221982441222
  0.2501999816055072  0.7498887646067161  0.2779024730234810
  0.0825727650861386  0.6876830281330929  0.2837096283809733
  0.4172972896996293  0.6872504991250780  0.2840867748275421
 -0.0000000000000000  0.7506510309738611  0.3693959322701186
  0.3322443333438846  0.6869887601198477  0.3684439364109427
  0.1678265826589345  0.6877463329191258  0.3677799244927273
  0.2506659186982412  0.7482635598508189  0.4550261298739570
  0.0823430407097363  0.6887928898544893  0.4536433528407522
  0.4161126195572191  0.6862246318414239  0.4540561383194644
 -0.0000000000000000  0.7510245961178037  0.5415632110341569
  0.3398257204137770  0.6851522620910350  0.5423509265952844
  0.1705705864580551  0.6917617533553410  0.5429561993732067
 -0.0000000000000000  0.7500718858687646  0.1971343718284150
  0.3342926847814249  0.8124132516836220  0.2026937805440634
  0.1663206548061572  0.8125684456967992  0.2026879703893160
  0.2502067873593207  0.8750918042283082  0.2779408447657609
  0.0826029581595549  0.8126929402195684  0.2836274496812357
  0.4173382514782716  0.8122475045731135  0.2840383744896501
 -0.0000000000000000  0.8755959986588390  0.3693521337256642
  0.3323249710720427  0.8121325630493135  0.3685384077175205
  0.1675707108255496  0.8127965906755681  0.3680568184268094
  0.2505553415138195  0.8763644198722577  0.4559161842198121
  0.0852115156873773  0.8136812832317065  0.4543639127179008
  0.4159221606727568  0.8111432419911682  0.4543196659236691
 -0.0000000000000000  0.8784517677345569  0.5422485707815604
  0.3311522257080429  0.8092862025356601  0.5437783254020940
 -0.0000000000000000  0.8751997477895271  0.1971274192404455
  0.3343369412500078  0.9374555759085663  0.2027209845130573
  0.1662604173406382  0.9376312580649908  0.2027221982441222
  0.2501999816055072  0.4998887643926293  0.2779024730234810
  0.0825727650861386  0.9376830283471794  0.2837096283809733
  0.4172972896996293  0.9372504993391645  0.2840867748275421
 -0.0000000000000000  0.5006510307597746  0.3693959322701186
  0.3322443333438846  0.9369887603339342  0.3684439364109427
  0.1678265826589345  0.9377463331332123  0.3677799244927273
  0.2506659186982412  0.4982635596367256  0.4550261298739570
  0.0823430407097363  0.9387928900685758  0.4536433528407522
  0.4161126195572191  0.9362246320555104  0.4540561383194644
 -0.0000000000000000  0.5010245959037172  0.5415632110341569
  0.3398257204137770  0.9351522623051215  0.5423509265952844
  0.1705705864580551  0.9417617535694275  0.5429561993732067
  0.5000000000000000 -0.0002511529804348  0.1972621268646004
  0.8336793153754550  0.0625684459108783  0.2026879703893160
  0.6657072859523784  0.0624132518977013  0.2026937805440634
  0.7497932120884883  0.1250918040142217  0.2779408447657609
  0.5826617485217286  0.0622475047871928  0.2840383744896501
  0.9173970418404449  0.0626929404336478  0.2836274496812357
  0.5000000000000000  0.1243875611513304  0.3696365503119078
  0.8324292593560627  0.0627965908896473  0.3680568184268094
  0.6676749996617679  0.0621325632633930  0.3685384077175205
  0.7494446579339894  0.1263644196581711  0.4559161842198121
  0.5840778393272504  0.0611432422052478  0.4543196659236691
  0.9147884843126226  0.0636812834457858  0.4543639127179008
  0.5000000000000000  0.1121859265421859  0.5440064687928775
  0.6688477450257605  0.0592862027497396  0.5437783254020940
  0.5000000000000000  0.1249314217885612  0.1972730821371967
  0.8337395528409740  0.1876312578509043  0.2027221982441222
  0.6656630294837961  0.1874555756944798  0.2027209845130573
  0.7498000178423018  0.2498887646067159  0.2779024730234810
  0.5827027103003709  0.1872504991250778  0.2840867748275421
  0.9174272349138614  0.1876830281330931  0.2837096283809733
  0.5000000000000000  0.2492438951986131  0.3696882091949820
  0.8321733875226778  0.1877463329191258  0.3677799244927273
  0.6677556373899189  0.1869887601198475  0.3684439364109427
  0.7493340807495674  0.2482635598508122  0.4550261298739570
  0.5838873804427809  0.1862246318414239  0.4540561383194644
  0.9176569592902636  0.1887928898544892  0.4536433528407522
  0.8294293842757482  0.1917617533553410  0.5429561993732067
  0.6601742503200269  0.1851522620910349  0.5423509265952844
  0.5000000000000000  0.2497488472336517  0.1972621268646004
  0.8336793153754550  0.3125684456967988  0.2026879703893160
  0.6657072859523784  0.3124132516836218  0.2026937805440634
  0.7497932120884883  0.3750918042283081  0.2779408447657609
  0.5826617485217286  0.3122475045731133  0.2840383744896501
  0.9173970418404449  0.3126929402195684  0.2836274496812357
  0.5000000000000000  0.3743875613654170  0.3696365503119078
  0.8324292593560627  0.3127965906755679  0.3680568184268094
  0.6676749996617679  0.3121325630493136  0.3685384077175205
  0.7494446579339894  0.3763644198722576  0.4559161842198121
  0.5840778393272504  0.3111432419911755  0.4543196659236691
  0.9147884843126226  0.3136812832317063  0.4543639127179008
  0.5000000000000000  0.3621859267562654  0.5440064687928775
  0.6688477450257605  0.3092862025356602  0.5437783254020940
  0.5000000000000000  0.3749314220026478  0.1972730821371967
  0.8337395528409740  0.4376312580649908  0.2027221982441222
  0.6656630294837961  0.4374555759085663  0.2027209845130573
  0.7498000178423018 -0.0001112356073706  0.2779024730234810
  0.5827027103003709  0.4372504993391642  0.2840867748275421
  0.9174272349138614  0.4376830283471796  0.2837096283809733
  0.5000000000000000  0.9992438949845267  0.3696882091949820
  0.8321733875226778  0.4377463331332124  0.3677799244927273
  0.6677556373899189  0.4369887603339340  0.3684439364109427
  0.7493340807495674  0.9982635596367324  0.4550261298739570
  0.5838873804427809  0.4362246320555105  0.4540561383194644
  0.9176569592902636  0.4387928900685758  0.4536433528407522
  0.8294293842757482  0.4417617535694277  0.5429561993732067
  0.6601742503200269  0.4351522623051215  0.5423509265952844
  0.5000000000000000  0.4997488470195653  0.1972621268646004
  0.8336793153754550  0.5625684459108786  0.2026879703893160
  0.6657072859523784  0.5624132518977014  0.2026937805440634
  0.7497932120884883  0.6250918040142217  0.2779408447657609
  0.5826617485217286  0.5622475047871929  0.2840383744896501
  0.9173970418404449  0.5626929404336478  0.2836274496812357
  0.5000000000000000  0.6243875611513303  0.3696365503119078
  0.8324292593560627  0.5627965908896475  0.3680568184268094
  0.6676749996617679  0.5621325632633929  0.3685384077175205
  0.7494446579339894  0.6263644196581711  0.4559161842198121
  0.5840778393272504  0.5611432422052476  0.4543196659236691
  0.9147884843126226  0.5636812834457859  0.4543639127179008
  0.5000000000000000  0.6121859265421788  0.5440064687928775
  0.6688477450257605  0.5592862027497324  0.5437783254020940
  0.5000000000000000  0.6249314217885611  0.1972730821371967
  0.8337395528409740  0.6876312578509043  0.2027221982441222
  0.6656630294837961  0.6874555756944798  0.2027209845130573
  0.7498000178423018  0.7498887646067161  0.2779024730234810
  0.5827027103003709  0.6872504991250780  0.2840867748275421
  0.9174272349138614  0.6876830281330929  0.2837096283809733
  0.5000000000000000  0.7492438951986132  0.3696882091949820
  0.8321733875226778  0.6877463329191258  0.3677799244927273
  0.6677556373899189  0.6869887601198477  0.3684439364109427
  0.7493340807495674  0.7482635598508189  0.4550261298739570
  0.5838873804427809  0.6862246318414239  0.4540561383194644
  0.9176569592902636  0.6887928898544893  0.4536433528407522
  0.8294293842757482  0.6917617533553410  0.5429561993732067
  0.6601742503200269  0.6851522620910350  0.5423509265952844
  0.5000000000000000  0.7497488472336520  0.1972621268646004
  0.8336793153754550  0.8125684456967992  0.2026879703893160
  0.6657072859523784  0.8124132516836220  0.2026937805440634
  0.7497932120884883  0.8750918042283082  0.2779408447657609
  0.5826617485217286  0.8122475045731135  0.2840383744896501
  0.9173970418404449  0.8126929402195684  0.2836274496812357
  0.5000000000000000  0.8743875613654168  0.3696365503119078
  0.8324292593560627  0.8127965906755681  0.3680568184268094
  0.6676749996617679  0.8121325630493135  0.3685384077175205
  0.7494446579339894  0.8763644198722577  0.4559161842198121
  0.5840778393272504  0.8111432419911682  0.4543196659236691
  0.9147884843126226  0.8136812832317065  0.4543639127179008
  0.5000000000000000  0.8621859267562654  0.5440064687928775
  0.6688477450257605  0.8092862025356601  0.5437783254020940
  0.5000000000000000  0.8749314220026476  0.1972730821371967
  0.8337395528409740  0.9376312580649908  0.2027221982441222
  0.6656630294837961  0.9374555759085663  0.2027209845130573
  0.7498000178423018  0.4998887643926293  0.2779024730234810
  0.5827027103003709  0.9372504993391645  0.2840867748275421
  0.9174272349138614  0.9376830283471794  0.2837096283809733
  0.5000000000000000  0.4992438949845265  0.3696882091949820
  0.8321733875226778  0.9377463331332123  0.3677799244927273
  0.6677556373899189  0.9369887603339342  0.3684439364109427
  0.7493340807495674  0.4982635596367256  0.4550261298739570
  0.5838873804427809  0.9362246320555104  0.4540561383194644
  0.9176569592902636  0.9387928900685758  0.4536433528407522
  0.8294293842757482  0.9417617535694275  0.5429561993732067
  0.6601742503200269  0.9351522623051215  0.5423509265952844
  0.4059506995368915 -0.0001896430011997  0.2323399901924544
  0.2502818136972438  0.0000100120603918  0.1992701427820062
  0.0942451913851561  0.0001403620404142  0.2320193079771790
  0.1548500728727794  0.1251896284821221  0.3155471504414020
 -0.0000000000000000  0.1252068311979133  0.3027729437307728
  0.3452374976173233  0.1246790180981146  0.3159667219502018
  0.4011765435743531  0.1241947668367367  0.4024883442429988
  0.2497904384584644  0.1248926077952969  0.3878523652984753
  0.0988142416185584  0.1257406241981030  0.4019207734778269
  0.1510617045262320  0.1292819085932406  0.4862713244105696
 -0.0000000000000000  0.1254269845003737  0.4737971247878366
  0.3490999219736944  0.1230592900865386  0.4881560612799629
  0.4019944107331243  0.1212546872780795  0.5715497194586306
  0.2475389809061824  0.1220887525225117  0.5562251781566959
  0.0974246975994657  0.1351131560972557  0.5711797197304016
  0.4058965650769176  0.1248444725173220  0.2323487498080601
  0.2502659080337427  0.1250292587474793  0.1993221158785201
  0.0942835749489937  0.1251516263229610  0.2320045250220721
  0.1548192101321346  0.2501939211492811  0.3155011134344126
 -0.0000000000000000  0.2502658028626942  0.3027806051347769
  0.3452603591557351  0.2497083480957689  0.3159103143480504
  0.4008238854764548  0.2490848409835205  0.4022527266474279
  0.2498118836234301  0.2498811607871128  0.3872472222036489
  0.0989728302546115  0.2508474030460822  0.4018805667012477
  0.1533563674054583  0.2486445522532929  0.4860455608811919
 -0.0000000000000000  0.2523121765702559  0.4736943364405752
  0.3483309245626032  0.2490565057679751  0.4883531969892247
  0.4072764076559389  0.2496794630749597  0.5684559079394509
  0.2592936166108227  0.2417442449316252  0.5623708953695150
  0.0990895272792681  0.2590864251933900  0.5677681981763602
  0.4059506995368915  0.2498103572128868  0.2323399901924544
  0.2502818136972438  0.2500100122744784  0.1992701427820062
  0.0942451913851561  0.2501403622545007  0.2320193079771790
  0.1548500728727794  0.3751896286962088  0.3155471504414020
 -0.0000000000000000  0.3752068314119998  0.3027729437307728
  0.3452374976173233  0.3746790183122010  0.3159667219502018
  0.4011765435743531  0.3741947670508232  0.4024883442429988
  0.2497904384584644  0.3748926080093833  0.3878523652984753
  0.0988142416185584  0.3757406244121896  0.4019207734778269
  0.1510617045262320  0.3792819088073272  0.4862713244105696
 -0.0000000000000000  0.3754269847144603  0.4737971247878366
  0.3490999219736944  0.3730592903006252  0.4881560612799629
  0.4019944107331243  0.3712546874921659  0.5715497194586306
  0.2475389809061824  0.3720887527365980  0.5562251781566959
  0.0974246975994657  0.3851131563113423  0.5711797197304016
  0.4058965650769176  0.3748444727314087  0.2323487498080601
  0.2502659080337427  0.3750292589615659  0.1993221158785201
  0.0942835749489937  0.3751516265370475  0.2320045250220721
  0.1548192101321346  0.0001939209351945  0.3155011134344126
 -0.0000000000000000  0.0002658026486077  0.3027806051347769
  0.3452603591557351 -0.0002916521183176  0.3159103143480504
  0.4008238854764548  0.9990848407694339  0.4022527266474279
  0.2498118836234301  0.9998811605730263  0.3872472222036489
  0.0989728302546115  0.0008474028319957  0.4018805667012477
  0.1533563674054583  0.9986445520392063  0.4860455608811919
 -0.0000000000000000  0.0023121763561694  0.4736943364405752
  0.3483309245626032  0.9990565055538887  0.4883531969892247
  0.4072764076559389  0.9996794628608732  0.5684559079394509
  0.2592936166108227  0.9917442447175386  0.5623708953695150
  0.0990895272792681  0.0090864249793034  0.5677681981763602
  0.4059506995368915  0.4998103569988002  0.2323399901924544
  0.2502818136972438  0.5000100120603916  0.1992701427820062
  0.0942451913851561  0.5001403620404143  0.2320193079771790
  0.1548500728727794  0.6251896284821220  0.3155471504414020
 -0.0000000000000000  0.6252068311979133  0.3027729437307728
  0.3452374976173233  0.6246790180981145  0.3159667219502018
  0.4011765435743531  0.6241947668367368  0.4024883442429988
  0.2497904384584644  0.6248926077952969  0.3878523652984753
  0.0988142416185584  0.6257406241981032  0.4019207734778269
  0.1510617045262320  0.6292819085932406  0.4862713244105696
 -0.0000000000000000  0.6254269845003736  0.4737971247878366
  0.3490999219736944  0.6230592900865457  0.4881560612799629
  0.4019944107331243  0.6212546872780864  0.5715497194586306
  0.2475389809061824  0.6220887525225118  0.5562251781566959
  0.0974246975994657  0.6351131560972557  0.5711797197304016
  0.4058965650769176  0.6248444725173217  0.2323487498080601
  0.2502659080337427  0.6250292587474792  0.1993221158785201
  0.0942835749489937  0.6251516263229611  0.2320045250220721
  0.1548192101321346  0.7501939211492811  0.3155011134344126
 -0.0000000000000000  0.7502658028626942  0.3027806051347769
  0.3452603591557351  0.7497083480957688  0.3159103143480504
  0.4008238854764548  0.7490848409835205  0.4022527266474279
  0.2498118836234301  0.7498811607871129  0.3872472222036489
  0.0989728302546115  0.7508474030460819  0.4018805667012477
  0.1533563674054583  0.7486445522532928  0.4860455608811919
 -0.0000000000000000  0.7523121765702558  0.4736943364405752
  0.3483309245626032  0.7490565057679752  0.4883531969892247
  0.4072764076559389  0.7496794630749597  0.5684559079394509
  0.2592936166108227  0.7417442449316252  0.5623708953695150
  0.0990895272792681  0.7590864251933899  0.5677681981763602
  0.4059506995368915  0.7498103572128868  0.2323399901924544
  0.2502818136972438  0.7500100122744783  0.1992701427820062
  0.0942451913851561  0.7501403622545009  0.2320193079771790
  0.1548500728727794  0.8751896286962085  0.3155471504414020
 -0.0000000000000000  0.8752068314119998  0.3027729437307728
  0.3452374976173233  0.8746790183122011  0.3159667219502018
  0.4011765435743531  0.8741947670508233  0.4024883442429988
  0.2497904384584644  0.8748926080093834  0.3878523652984753
  0.0988142416185584  0.8757406244121897  0.4019207734778269
  0.1510617045262320  0.8792819088073272  0.4862713244105696
 -0.0000000000000000  0.8754269847144601  0.4737971247878366
  0.3490999219736944  0.8730592903006322  0.4881560612799629
  0.4019944107331243  0.8712546874921729  0.5715497194586306
  0.2475389809061824  0.8720887527365984  0.5562251781566959
  0.0974246975994657  0.8851131563113422  0.5711797197304016
  0.4058965650769176  0.8748444727314082  0.2323487498080601
  0.2502659080337427  0.8750292589615657  0.1993221158785201
  0.0942835749489937  0.8751516265370476  0.2320045250220721
  0.1548192101321346  0.5001939209351945  0.3155011134344126
 -0.0000000000000000  0.5002658026486076  0.3027806051347769
  0.3452603591557351  0.4997083478816824  0.3159103143480504
  0.4008238854764548  0.4990848407694339  0.4022527266474279
  0.2498118836234301  0.4998811605730263  0.3872472222036489
  0.0989728302546115  0.5008474028319954  0.4018805667012477
  0.1533563674054583  0.4986445520392064  0.4860455608811919
 -0.0000000000000000  0.5023121763561693  0.4736943364405752
  0.3483309245626032  0.4990565055538885  0.4883531969892247
  0.4072764076559389  0.4996794628608732  0.5684559079394509
  0.2592936166108227  0.4917442447175385  0.5623708953695150
  0.0990895272792681  0.5090864249793033  0.5677681981763602
  0.9057548086148438  0.0001403620404142  0.2320193079771790
  0.7497181857505651  0.0000100120603918  0.1992701427820062
  0.5940493004631086 -0.0001896430011997  0.2323399901924544
  0.6547625023826764  0.1246790180981146  0.3159667219502018
  0.5000000000000000  0.1247350155864275  0.3031143998011581
  0.8451499271272206  0.1251896284821221  0.3155471504414020
  0.9011857578292503  0.1257406241981030  0.4019207734778269
  0.7502095609893371  0.1248926077952969  0.3878523652984753
  0.5988234558734555  0.1241947668367367  0.4024883442429988
  0.6509000774741145  0.1230592900865386  0.4881560612799629
  0.5000000000000000  0.1230787046190801  0.4754122019531893
  0.8489382949215768  0.1292819085932406  0.4862713244105696
  0.9025753024005342  0.1351131560972557  0.5711797197304016
  0.7524610185416263  0.1220887525225117  0.5562251781566959
  0.5980055892668756  0.1212546872780795  0.5715497194586306
  0.9057164250510064  0.1251516263229610  0.2320045250220721
  0.7497340914140661  0.1250292587474793  0.1993221158785201
  0.5941034349230823  0.1248444725173220  0.2323487498080601
  0.6547396408442652  0.2497083480957689  0.3159103143480504
  0.5000000000000000  0.2496370424515121  0.3031199056982180
  0.8451807898678655  0.2501939211492811  0.3155011134344126
  0.9010271691931974  0.2508474030460822  0.4018805667012477
  0.7501881158243788  0.2498811607871128  0.3872472222036489
  0.5991761139713544  0.2490848409835205  0.4022527266474279
  0.6516690748852054  0.2490565057679751  0.4883531969892247
  0.5000000000000000  0.2490912155119692  0.4726390551074308
  0.8466436320423505  0.2486445522532929  0.4860455608811919
  0.9009104727207319  0.2590864251933900  0.5677681981763602
  0.7407063828369861  0.2417442449316252  0.5623708953695150
  0.5927235923440615  0.2496794630749597  0.5684559079394509
  0.9057548086148438  0.2501403622545007  0.2320193079771790
  0.7497181857505651  0.2500100122744784  0.1992701427820062
  0.5940493004631086  0.2498103572128868  0.2323399901924544
  0.6547625023826764  0.3746790183122010  0.3159667219502018
  0.5000000000000000  0.3747350158005141  0.3031143998011581
  0.8451499271272206  0.3751896286962088  0.3155471504414020
  0.9011857578292503  0.3757406244121896  0.4019207734778269
  0.7502095609893371  0.3748926080093833  0.3878523652984753
  0.5988234558734555  0.3741947670508232  0.4024883442429988
  0.6509000774741145  0.3730592903006252  0.4881560612799629
  0.5000000000000000  0.3730787048331667  0.4754122019531893
  0.8489382949215768  0.3792819088073272  0.4862713244105696
  0.9025753024005342  0.3851131563113423  0.5711797197304016
  0.7524610185416263  0.3720887527365980  0.5562251781566959
  0.5980055892668756  0.3712546874921659  0.5715497194586306
  0.9057164250510064  0.3751516265370475  0.2320045250220721
  0.7497340914140661  0.3750292589615659  0.1993221158785201
  0.5941034349230823  0.3748444727314087  0.2323487498080601
  0.6547396408442652 -0.0002916521183176  0.3159103143480504
  0.5000000000000000 -0.0003629577625745  0.3031199056982180
  0.8451807898678655  0.0001939209351945  0.3155011134344126
  0.9010271691931974  0.0008474028319957  0.4018805667012477
  0.7501881158243788  0.9998811605730263  0.3872472222036489
  0.5991761139713544  0.9990848407694339  0.4022527266474279
  0.6516690748852054  0.9990565055538887  0.4883531969892247
  0.5000000000000000  0.9990912152978828  0.4726390551074308
  0.8466436320423505  0.9986445520392063  0.4860455608811919
  0.9009104727207319  0.0090864249793034  0.5677681981763602
  0.7407063828369861  0.9917442447175386  0.5623708953695150
  0.5927235923440615  0.9996794628608732  0.5684559079394509
  0.9057548086148438  0.5001403620404143  0.2320193079771790
  0.7497181857505651  0.5000100120603916  0.1992701427820062
  0.5940493004631086  0.4998103569988002  0.2323399901924544
  0.6547625023826764  0.6246790180981145  0.3159667219502018
  0.5000000000000000  0.6247350155864274  0.3031143998011581
  0.8451499271272206  0.6251896284821220  0.3155471504414020
  0.9011857578292503  0.6257406241981032  0.4019207734778269
  0.7502095609893371  0.6248926077952969  0.3878523652984753
  0.5988234558734555  0.6241947668367368  0.4024883442429988
  0.6509000774741145  0.6230592900865457  0.4881560612799629
  0.5000000000000000  0.6230787046190800  0.4754122019531893
  0.8489382949215768  0.6292819085932406  0.4862713244105696
  0.9025753024005342  0.6351131560972557  0.5711797197304016
  0.7524610185416263  0.6220887525225118  0.5562251781566959
  0.5980055892668756  0.6212546872780864  0.5715497194586306
  0.9057164250510064  0.6251516263229611  0.2320045250220721
  0.7497340914140661  0.6250292587474792  0.1993221158785201
  0.5941034349230823  0.6248444725173217  0.2323487498080601
  0.6547396408442652  0.7497083480957688  0.3159103143480504
  0.5000000000000000  0.7496370424515121  0.3031199056982180
  0.8451807898678655  0.7501939211492811  0.3155011134344126
  0.9010271691931974  0.7508474030460819  0.4018805667012477
  0.7501881158243788  0.7498811607871129  0.3872472222036489
  0.5991761139713544  0.7490848409835205  0.4022527266474279
  0.6516690748852054  0.7490565057679752  0.4883531969892247
  0.5000000000000000  0.7490912155119693  0.4726390551074308
  0.8466436320423505  0.7486445522532928  0.4860455608811919
  0.9009104727207319  0.7590864251933899  0.5677681981763602
  0.7407063828369861  0.7417442449316252  0.5623708953695150
  0.5927235923440615  0.7496794630749597  0.5684559079394509
  0.9057548086148438  0.7501403622545009  0.2320193079771790
  0.7497181857505651  0.7500100122744783  0.1992701427820062
  0.5940493004631086  0.7498103572128868  0.2323399901924544
  0.6547625023826764  0.8746790183122011  0.3159667219502018
  0.5000000000000000  0.8747350158005139  0.3031143998011581
  0.8451499271272206  0.8751896286962085  0.3155471504414020
  0.9011857578292503  0.8757406244121897  0.4019207734778269
  0.7502095609893371  0.8748926080093834  0.3878523652984753
  0.5988234558734555  0.8741947670508233  0.4024883442429988
  0.6509000774741145  0.8730592903006322  0.4881560612799629
  0.5000000000000000  0.8730787048331665  0.4754122019531893
  0.8489382949215768  0.8792819088073272  0.4862713244105696
  0.9025753024005342  0.8851131563113422  0.5711797197304016
  0.7524610185416263  0.8720887527365984  0.5562251781566959
  0.5980055892668756  0.8712546874921729  0.5715497194586306
  0.9057164250510064  0.8751516265370476  0.2320045250220721
  0.7497340914140661  0.8750292589615657  0.1993221158785201
  0.5941034349230823  0.8748444727314082  0.2323487498080601
  0.6547396408442652  0.4997083478816824  0.3159103143480504
  0.5000000000000000  0.4996370422374253  0.3031199056982180
  0.8451807898678655  0.5001939209351945  0.3155011134344126
  0.9010271691931974  0.5008474028319954  0.4018805667012477
  0.7501881158243788  0.4998811605730263  0.3872472222036489
  0.5991761139713544  0.4990848407694339  0.4022527266474279
  0.6516690748852054  0.4990565055538885  0.4883531969892247
  0.5000000000000000  0.4990912152978826  0.4726390551074308
  0.8466436320423505  0.4986445520392064  0.4860455608811919
  0.9009104727207319  0.5090864249793033  0.5677681981763602
  0.7407063828369861  0.4917442447175385  0.5623708953695150
  0.5927235923440615  0.4996794628608732  0.5684559079394509
  0.1529402747621595  0.0698309749277828  0.5368156577260320
  0.1529402747621595  0.3198309747137034  0.5368156577260320
  0.1529402747621595  0.5698309749277829  0.5368156577260320
  0.1529402747621595  0.8198309747137035  0.5368156577260320
  0.8470596959716439  0.0698309749277828  0.5368156577260320
  0.5000000000000000  0.2563896954738451  0.5389245460762352
  0.8470596959716439  0.3198309747137034  0.5368156577260320
  0.5000000000000000  0.0063896952597586  0.5389245460762352
  0.8470596959716439  0.5698309749277829  0.5368156577260320
  0.5000000000000000  0.7563896954738450  0.5389245460762352
  0.8470596959716439  0.8198309747137035  0.5368156577260320
  0.5000000000000000  0.5063896952597585  0.5389245460762352
 
  0.00000000E+00  0.00000000E+00  0.00000000E+00
  0.00000000E+00  0.00000000E+00  0.00000000E+00
  0.00000000E+00  0.00000000E+00  0.00000000E+00
  0.00000000E+00  0.00000000E+00  0.00000000E+00
  0.00000000E+00  0.00000000E+00  0.00000000E+00
  0.00000000E+00  0.00000000E+00  0.00000000E+00
  0.00000000E+00  0.00000000E+00  0.00000000E+00
  0.00000000E+00  0.00000000E+00  0.00000000E+00