Ru  N  H  C                             
   1.00000000000000     
    10.8619003295999992    0.0000000000000000    0.0000000000000000
    -5.4309501647999996    9.4066816188000004    0.0000000000000000
     0.0000000000000000    0.0000000000000000   23.5699996947999999
   Ru   N    H    C 
    81    14    18     5
Selective dynamics
Direct
  0.0833500049999998  0.1671400079999970  0.0925699949999981   F   F   F
  0.0825401843061587  0.1660267108883685  0.2720519000297651   T   T   T
  0.1709000050000000  0.0898400080000030  0.0060599999999980   F   F   F
  0.1659100010000003  0.0828899990000025  0.1823199950000003   F   F   F
  0.1652655539104638  0.0744840855710393  0.3632580265923341   T   T   T
  0.3325800069999971  0.1661000000000001  0.0921099999999981   F   F   F
  0.3330673672068619  0.1659826916233836  0.2713672107835526   T   T   T
  0.4150200240000004  0.0855300030000024  0.0065799999999996   F   F   F
  0.4168800280000013  0.0831300030000008  0.1817700029999969   F   F   F
  0.4098840769973089  0.0739914827435081  0.3639987011649822   T   T   T
  0.5832000030000017  0.1660200090000004  0.0924799989999983   F   F   F
  0.5835121629777468  0.1677459840974965  0.2728391472617537   T   T   T
  0.6720800140000023  0.0893600050000032  0.0062799999999967   F   F   F
  0.6659199979999997  0.0829000040000025  0.1838899970000014   F   F   F
  0.6645354857212332  0.0824461515811106  0.3668714144706087   T   T   T
  0.8312299819999964  0.1653700060000034  0.0930999979999996   F   F   F
  0.8340020140221766  0.1675451500089719  0.2734620469810070   T   T   T
  0.9152200010000016  0.0825400009999981  0.0070300000000003   F   F   F
  0.9158699580000018  0.0827900040000031  0.1821700039999996   F   F   F
  0.9180006584590017  0.0821566765860593  0.3666480392944396   T   T   T
  0.0834400250000016  0.4162700159999986  0.0921299979999972   F   F   F
  0.0825644577165042  0.4169514909526357  0.2730493871635542   T   T   T
  0.1679400140000027  0.3291800129999984  0.0063099999999991   F   F   F
  0.1664100050000030  0.3339999969999994  0.1828899939999999   F   F   F
  0.1688511992514161  0.3330690141977019  0.3656501131059229   T   T   T
  0.3322399890000014  0.4157700219999967  0.0923999970000011   F   F   F
  0.3337275537130235  0.4170429229873810  0.2732433860040396   T   T   T
  0.4098000019999972  0.3277700080000017  0.0058700000000016   F   F   F
  0.4172799769999997  0.3341400070000020  0.1811799959999973   F   F   F
  0.4137204214746021  0.3296514498777657  0.3662290572080060   T   T   T
  0.5826100339999982  0.4163300350000014  0.0915099979999994   F   F   F
  0.5834570688807348  0.4161667733819804  0.2731457508675119   T   T   T
  0.6690100089999973  0.3305600079999991  0.0062700000000007   F   F   F
  0.6664100409999989  0.3340700019999971  0.1819799980000028   F   F   F
  0.6654163731412899  0.3323905857379585  0.3691007857479131   T   T   T
  0.8328100590000034  0.4170500290000021  0.0930499979999979   F   F   F
  0.8334915945977130  0.4167076268231811  0.2733186559956158   T   T   T
  0.9102699190000010  0.3321900130000017  0.0065999999999988   F   F   F
  0.9169399990000002  0.3337100179999979  0.1819300080000019   F   F   F
  0.9178531415668597  0.3343492752285377  0.3681639021015310   T   T   T
  0.0835000080000015  0.6668100159999995  0.0923700049999994   F   F   F
  0.0826062126904487  0.6660832461967544  0.2719763833176556   T   T   T
  0.1671600069999997  0.5888500530000016  0.0061899999999966   F   F   F
  0.1665300319999972  0.5827900569999969  0.1825899930000006   F   F   F
  0.1686661033819493  0.5884839924876758  0.3664564098520944   T   T   T
  0.3323000370000031  0.6660300289999981  0.0920400019999974   F   F   F
  0.3339939401378847  0.6659737880743799  0.2720878231778340   T   T   T
  0.4179100520000034  0.5848300279999989  0.0066699999999997   F   F   F
  0.4159899969999969  0.5825300609999999  0.1807399989999965   F   F   F
  0.4154895693211205  0.5818423257470109  0.3691085862651931   T   T   T
  0.5830900369999981  0.6659500379999983  0.0922999960000013   F   F   F
  0.5827343932683371  0.6663020358851003  0.2733729960680799   T   T   T
  0.6680400079999984  0.5884100520000004  0.0059200000000033   F   F   F
  0.6660199780000013  0.5822800010000009  0.1814099979999995   F   F   F
  0.6655580597997862  0.5824029355812292  0.3679453709495922   T   T   T
  0.8328599499999996  0.6666200250000003  0.0917299970000016   F   F   F
  0.8324701500122262  0.6656186170457129  0.2720299332359933   T   T   T
  0.9170500800000028  0.5805500580000000  0.0068699999999993   F   F   F
  0.9162500249999965  0.5836200259999984  0.1817499949999970   F   F   F
  0.9206489876203247  0.5872267184175887  0.3672221819995378   T   T   T
  0.0826899859999983  0.9161000180000016  0.0920400019999974   F   F   F
  0.0820961267379291  0.9168079690220220  0.2720758030759435   T   T   T
  0.1719600500000027  0.8309400620000034  0.0054200000000009   F   F   F
  0.1659100219999985  0.8332600520000000  0.1806399979999966   F   F   F
  0.1689914034957429  0.8380095843820683  0.3590246860368337   T   T   T
  0.3329000160000035  0.9163600649999992  0.0924600009999992   F   F   F
  0.3345792135752487  0.9170638712051644  0.2720235387952845   T   T   T
  0.4103800299999989  0.8266000730000016  0.0057800000000015   F   F   F
  0.4174800119999986  0.8336600570000030  0.1809200109999978   F   F   F
  0.4154098594621677  0.8374097105718085  0.3631256492228861   T   T   T
  0.5828599869999991  0.9174700020000017  0.0916099989999992   F   F   F
  0.5840032274892313  0.9162374468762156  0.2720324246472169   T   T   T
  0.6686300169999981  0.8304000469999977  0.0060700000000011   F   F   F
  0.6662200290000015  0.8328400740000035  0.1809200109999978   F   F   F
  0.6667116560462742  0.8330269287297106  0.3677684888466297   T   T   T
  0.8334500240000011  0.9162500649999998  0.0923599999999993   F   F   F
  0.8326338674437458  0.9166773822254113  0.2718847384576223   T   T   T
  0.9086999840000018  0.8315100350000009  0.0058799999999977   F   F   F
  0.9160800439999974  0.8331800610000002  0.1812000039999973   F   F   F
  0.9216662884874144  0.8369939650274497  0.3631946827653832   T   T   T
  0.3646856344933325  0.4790945142143837  0.4965618763909204   T   T   T
  0.8356126956333181  0.4197119649080535  0.4186247761650020   T   T   T
  0.5785182112978813  0.4142673792901967  0.4182593720074878   T   T   T
  0.3289554514405547  0.4105110649256965  0.4214378343705050   T   T   T
  0.0882886373464572  0.4194629832355516  0.4166939823711436   T   T   T
  0.8402542853037124  0.6747023198537856  0.4162625920832805   T   T   T
  0.5856853028645534  0.6674264213249081  0.4196002824024962   T   T   T
  0.8400939099404181  0.9162037221893050  0.4170853834756556   T   T   T
  0.0874541680203455  0.1612294312995886  0.4152713895515566   T   T   T
  0.3334130340670250  0.6771623447960912  0.4169570156241046   T   T   T
  0.5766931818915104  0.9156104876477834  0.4169386713791037   T   T   T
  0.0933987725026870  0.6855631528967985  0.4166023955829003   T   T   T
  0.3258218994979479  0.1519545756866718  0.4161687181448855   T   T   T
  0.8330280746450980  0.1647559739454854  0.4174904765258097   T   T   T
  0.5730157906552220  0.1581317887664674  0.4170817345147453   T   T   T
  0.8389344347848466  0.4208725310758785  0.4622005462659098   T   T   T
  0.5653574767002987  0.4179661360619693  0.4619109697170644   T   T   T
  0.1051534768807301  0.4236038214106800  0.4600671068639109   T   T   T
  0.8408161758932926  0.6750366683573079  0.4598102868855689   T   T   T
  0.5915944846400395  0.6684891523058817  0.4634976324016495   T   T   T
  0.0921521672152888  0.6791799855191556  0.4601031463813925   T   T   T
  0.8325894647636143  0.1630198084205520  0.4610805141364750   T   T   T
  0.5728234448943673  0.1559662913451913  0.4606198918337901   T   T   T
  0.3282106420596564  0.1628541807381942  0.4595112721112319   T   T   T
  0.0952747731743693  0.1701983090489097  0.4587044070768192   T   T   T
  0.8427628458899895  0.9190622263368011  0.4606418587527861   T   T   T
  0.5751604526475862  0.9154730207487226  0.4605088951283114   T   T   T
  0.3276258647987177  0.6725289803457357  0.4608248913596650   T   T   T
  0.3108531804449647  0.2420640177110631  0.5704000751036832   T   T   T
  0.0942359850012320  0.2965172660132103  0.5519441216150650   T   T   T
  0.2018877789915923  0.5816742349346267  0.5641497140561368   T   T   T
  0.4813763063693803  0.7008796139524844  0.5895265965515190   T   T   T
  0.5482551348923655  0.4927712536007636  0.5952914859366375   T   T   T
  0.4454894097372593  0.4791461758036853  0.5833435101632698   T   T   T
  0.3201085859498006  0.3464871036999478  0.5693242171281370   T   T   T
  0.2050623193229821  0.3754331231460814  0.5597437063291995   T   T   T
  0.2615170785463759  0.5258593012253765  0.5672111813210809   T   T   T
  0.4093250246200871  0.5885603780358373  0.5812387062808726   T   T   T
 
  0.00000000E+00  0.00000000E+00  0.00000000E+00
  0.00000000E+00  0.00000000E+00  0.00000000E+00
  0.00000000E+00  0.00000000E+00  0.00000000E+00
  0.00000000E+00  0.00000000E+00  0.00000000E+00
  0.00000000E+00  0.00000000E+00  0.00000000E+00
  0.00000000E+00  0.00000000E+00  0.00000000E+00
  0.00000000E+00  0.00000000E+00  0.00000000E+00
  0.00000000E+00  0.00000000E+00  0.00000000E+00
  0.00000000E+00  0.00000000E+00  0.00000000E+00
  0.00000000E+00  0.00000000E+00  0.00000000E+00
  0.00000000E+00  0.00000000E+00  0.00000000E+00
  0.00000000E+00  0.00000000E+00  0.00000000E+00
  0.00000000E+00  0.00000000E+00  0.00000000E+00
  0.00000000E+00  0.00000000E+00  0.00000000E+00
  0.00000000E+00  0.00000000E+00  0.00000000E+00
  0.00000000E+00  0.00000000E+00  0.00000000E+00
  0.00000000E+00  0.00000000E+00  0.00000000E+00
  0.00000000E+00  0.00000000E+00  0.00000000E+00
  0.00000000E+00  0.00000000E+00  0.00000000E+00
  0.00000000E+00  0.00000000E+00  0.00000000E+00
  0.00000000E+00  0.00000000E+00  0.00000000E+00
  0.00000000E+00  0.00000000E+00  0.00000000E+00
  0.00000000E+00  0.00000000E+00  0.00000000E+00
  0.00000000E+00  0.00000000E+00  0.00000000E+00
  0.00000000E+00  0.00000000E+00  0.00000000E+00
  0.00000000E+00  0.00000000E+00  0.00000000E+00
  0.00000000E+00  0.00000000E+00  0.00000000E+00
  0.00000000E+00  0.00000000E+00  0.00000000E+00
  0.00000000E+00  0.00000000E+00  0.00000000E+00
  0.00000000E+00  0.00000000E+00  0.00000000E+00
  0.00000000E+00  0.00000000E+00  0.00000000E+00
  0.00000000E+00  0.00000000E+00  0.00000000E+00
  0.00000000E+00  0.00000000E+00  0.00000000E+00
  0.00000000E+00  0.00000000E+00  0.00000000E+00
  0.00000000E+00  0.00000000E+00  0.00000000E+00
  0.00000000E+00  0.00000000E+00  0.00000000E+00
  0.00000000E+00  0.00000000E+00  0.00000000E+00
  0.00000000E+00  0.00000000E+00  0.00000000E+00
  0.00000000E+00  0.00000000E+00  0.00000000E+00
  0.00000000E+00  0.00000000E+00  0.00000000E+00
  0.00000000E+00  0.00000000E+00  0.00000000E+00
  0.00000000E+00  0.00000000E+00  0.00000000E+00
  0.00000000E+00  0.00000000E+00  0.00000000E+00
  0.00000000E+00  0.00000000E+00  0.00000000E+00
  0.00000000E+00  0.00000000E+00  0.00000000E+00
  0.00000000E+00  0.00000000E+00  0.00000000E+00
  0.00000000E+00  0.00000000E+00  0.00000000E+00
  0.00000000E+00  0.00000000E+00  0.00000000E+00
  0.00000000E+00  0.00000000E+00  0.00000000E+00
  0.00000000E+00  0.00000000E+00  0.00000000E+00
  0.00000000E+00  0.00000000E+00  0.00000000E+00
  0.00000000E+00  0.00000000E+00  0.00000000E+00
  0.00000000E+00  0.00000000E+00  0.00000000E+00
  0.00000000E+00  0.00000000E+00  0.00000000E+00
  0.00000000E+00  0.00000000E+00  0.00000000E+00
  0.00000000E+00  0.00000000E+00  0.00000000E+00
  0.00000000E+00  0.00000000E+00  0.00000000E+00
  0.00000000E+00  0.00000000E+00  0.00000000E+00
  0.00000000E+00  0.00000000E+00  0.00000000E+00
  0.00000000E+00  0.00000000E+00  0.00000000E+00
  0.00000000E+00  0.00000000E+00  0.00000000E+00
  0.00000000E+00  0.00000000E+00  0.00000000E+00
  0.00000000E+00  0.00000000E+00  0.00000000E+00
  0.00000000E+00  0.00000000E+00  0.00000000E+00
  0.00000000E+00  0.00000000E+00  0.00000000E+00
  0.00000000E+00  0.00000000E+00  0.00000000E+00
  0.00000000E+00  0.00000000E+00  0.00000000E+00
  0.00000000E+00  0.00000000E+00  0.00000000E+00
  0.00000000E+00  0.00000000E+00  0.00000000E+00
  0.00000000E+00  0.00000000E+00  0.00000000E+00
  0.00000000E+00  0.00000000E+00  0.00000000E+00
  0.00000000E+00  0.00000000E+00  0.00000000E+00
  0.00000000E+00  0.00000000E+00  0.00000000E+00
  0.00000000E+00  0.00000000E+00  0.00000000E+00
  0.00000000E+00  0.00000000E+00  0.00000000E+00
  0.00000000E+00  0.00000000E+00  0.00000000E+00
  0.00000000E+00  0.00000000E+00  0.00000000E+00
  0.00000000E+00  0.00000000E+00  0.00000000E+00
  0.00000000E+00  0.00000000E+00  0.00000000E+00
  0.00000000E+00  0.00000000E+00  0.00000000E+00
  0.00000000E+00  0.00000000E+00  0.00000000E+00
  0.00000000E+00  0.00000000E+00  0.00000000E+00
  0.00000000E+00  0.00000000E+00  0.00000000E+00
  0.00000000E+00  0.00000000E+00  0.00000000E+00
  0.00000000E+00  0.00000000E+00  0.00000000E+00
  0.00000000E+00  0.00000000E+00  0.00000000E+00
  0.00000000E+00  0.00000000E+00  0.00000000E+00
  0.00000000E+00  0.00000000E+00  0.00000000E+00
  0.00000000E+00  0.00000000E+00  0.00000000E+00
  0.00000000E+00  0.00000000E+00  0.00000000E+00
  0.00000000E+00  0.00000000E+00  0.00000000E+00
  0.00000000E+00  0.00000000E+00  0.00000000E+00
  0.00000000E+00  0.00000000E+00  0.00000000E+00
  0.00000000E+00  0.00000000E+00  0.00000000E+00
  0.00000000E+00  0.00000000E+00  0.00000000E+00
  0.00000000E+00  0.00000000E+00  0.00000000E+00
  0.00000000E+00  0.00000000E+00  0.00000000E+00
  0.00000000E+00  0.00000000E+00  0.00000000E+00
  0.00000000E+00  0.00000000E+00  0.00000000E+00
  0.00000000E+00  0.00000000E+00  0.00000000E+00
  0.00000000E+00  0.00000000E+00  0.00000000E+00
  0.00000000E+00  0.00000000E+00  0.00000000E+00
  0.00000000E+00  0.00000000E+00  0.00000000E+00
  0.00000000E+00  0.00000000E+00  0.00000000E+00
  0.00000000E+00  0.00000000E+00  0.00000000E+00
  0.00000000E+00  0.00000000E+00  0.00000000E+00
  0.00000000E+00  0.00000000E+00  0.00000000E+00
  0.00000000E+00  0.00000000E+00  0.00000000E+00
  0.00000000E+00  0.00000000E+00  0.00000000E+00
  0.00000000E+00  0.00000000E+00  0.00000000E+00
  0.00000000E+00  0.00000000E+00  0.00000000E+00
  0.00000000E+00  0.00000000E+00  0.00000000E+00
  0.00000000E+00  0.00000000E+00  0.00000000E+00
  0.00000000E+00  0.00000000E+00  0.00000000E+00
  0.00000000E+00  0.00000000E+00  0.00000000E+00
  0.00000000E+00  0.00000000E+00  0.00000000E+00
  0.00000000E+00  0.00000000E+00  0.00000000E+00
  0.00000000E+00  0.00000000E+00  0.00000000E+00
