CONTCAR                                                                                                                         
   1.00000000000000     
    10.8619003295999992    0.0000000000000000    0.0000000000000000
    -5.4309501647999996    9.4066816188000004    0.0000000000000000
     0.0000000000000000    0.0000000000000000   23.5699996947999999
   Ru   N    H    C 
    81    14    24    10
Selective dynamics
Direct
  0.0833484959040902  0.1671364931447954  0.0925660447076737   F   F   F
  0.0830184001805485  0.1670786009607345  0.2724714854580065   T   T   T
  0.1708965494744277  0.0898405557573412  0.0060630665535513   F   F   F
  0.1659141385474996  0.0828943452557169  0.1823191608101382   F   F   F
  0.1650971679633010  0.0740290908479541  0.3635171778036745   T   T   T
  0.3325838250440398  0.1661005053739828  0.0921122819062674   F   F   F
  0.3336698072702892  0.1669801253799773  0.2717554159778396   T   T   T
  0.4150233158085541  0.0855312886511612  0.0065759843435131   F   F   F
  0.4168841652926787  0.0831322737980145  0.1817663402819676   F   F   F
  0.4095810834615448  0.0740976816538023  0.3637921651968855   T   T   T
  0.5831966320182218  0.1660167785338373  0.0924768712482376   F   F   F
  0.5836449912612288  0.1678141647296389  0.2726094003389543   T   T   T
  0.6720751504950542  0.0893643172663374  0.0062779558030357   F   F   F
  0.6659221046245065  0.0828967538515428  0.1838875336792967   F   F   F
  0.6643030010435196  0.0823453645891173  0.3664430451430450   T   T   T
  0.8312327316903350  0.1653738080640110  0.0931038279580036   F   F   F
  0.8340119090850489  0.1677604529440368  0.2731681843820035   T   T   T
  0.9152181293768393  0.0825376745475168  0.0070328497283469   F   F   F
  0.9158674069630379  0.0827953926995519  0.1821690786873162   F   F   F
  0.9180847550605115  0.0823034088338386  0.3662908204853779   T   T   T
  0.0834396241094808  0.4162737378029320  0.0921318468030634   F   F   F
  0.0828080517193698  0.4168433448738162  0.2732134930948408   T   T   T
  0.1679405732681474  0.3291798395880576  0.0063119581046678   F   F   F
  0.1664098923638164  0.3339946332890520  0.1828949852261132   F   F   F
  0.1663338889112796  0.3328280759524098  0.3676216234018673   T   T   T
  0.3322415982363083  0.4157678116829970  0.0923960057599089   F   F   F
  0.3332031684468116  0.4158051643438798  0.2730620660896179   T   T   T
  0.4098024239224003  0.3277743762235374  0.0058713189390858   F   F   F
  0.4172806394896256  0.3341378070353116  0.1811777152339573   F   F   F
  0.4146367867657322  0.3286975840340635  0.3690535788894430   T   T   T
  0.5826061556168085  0.4163266581102434  0.0915074581177535   F   F   F
  0.5827881821320617  0.4158173775220837  0.2732351065048819   T   T   T
  0.6690120494384857  0.3305571838119619  0.0062714918514004   F   F   F
  0.6664057608252421  0.3340737235475260  0.1819793178572198   F   F   F
  0.6668257778077974  0.3330871695268446  0.3685025824770920   T   T   T
  0.8328048103587875  0.4170464338460533  0.0930477123653901   F   F   F
  0.8336334784817130  0.4171169074010990  0.2731124888217201   T   T   T
  0.9102701404224760  0.3321929009121405  0.0066046984119055   F   F   F
  0.9169373669398837  0.3337063131417892  0.1819319586948609   F   F   F
  0.9174588869961400  0.3349274158912662  0.3678538919010762   T   T   T
  0.0835004825692351  0.6668116277129670  0.0923727304384201   F   F   F
  0.0828583006581870  0.6661494311345219  0.2720714637337642   T   T   T
  0.1671637040355733  0.5888499030116989  0.0061910153765510   F   F   F
  0.1665260795389685  0.5827920487642899  0.1825885417079576   F   F   F
  0.1673930915845601  0.5887098628927733  0.3668177511147592   T   T   T
  0.3323010921357294  0.6660280353904966  0.0920409180443542   F   F   F
  0.3334965998588235  0.6660336802945069  0.2719015141067667   T   T   T
  0.4179089914285399  0.5848297019778173  0.0066728149896917   F   F   F
  0.4159917238482578  0.5825255642660707  0.1807364969409448   F   F   F
  0.4157894411434624  0.5832047512331920  0.3670332314914969   T   T   T
  0.5830905554192327  0.6659470539228280  0.0923009785925117   F   F   F
  0.5833160149331564  0.6665130031559833  0.2728877334354735   T   T   T
  0.6680421755778525  0.5884057404235250  0.0059166472691530   F   F   F
  0.6660184867375492  0.5822842012611602  0.1814071248532940   F   F   F
  0.6674835611671007  0.5828932297923439  0.3679786319455779   T   T   T
  0.8328558947911304  0.6666253105212760  0.0917309438550546   F   F   F
  0.8324307729284484  0.6657269813981300  0.2720558672888478   T   T   T
  0.9170503760104367  0.5805548206808240  0.0068704698346380   F   F   F
  0.9162495878803512  0.5836254396260898  0.1817489407644644   F   F   F
  0.9215581176928713  0.5886476316110281  0.3673814574684223   T   T   T
  0.0826856912690417  0.9161001886446414  0.0920390856443873   F   F   F
  0.0822201890170232  0.9170196000814560  0.2721640005434517   T   T   T
  0.1719635336444441  0.8309379694661772  0.0054224863539787   F   F   F
  0.1659111092847994  0.8332563846129446  0.1806441202114257   F   F   F
  0.1695055866500665  0.8386880428221628  0.3589092495081891   T   T   T
  0.3328950998558824  0.9163652635873660  0.0924627664508648   F   F   F
  0.3346015058744747  0.9171939057110815  0.2719809402987421   T   T   T
  0.4103763222502295  0.8265983962943508  0.0057772918333541   F   F   F
  0.4174821244557094  0.8336602989995328  0.1809185895000596   F   F   F
  0.4159767087280586  0.8380114708438964  0.3629976116064759   T   T   T
  0.5828559143558323  0.9174704466173225  0.0916046111917339   F   F   F
  0.5838250539194471  0.9163705693159233  0.2718353645040184   T   T   T
  0.6686245134942226  0.8303989488110304  0.0060739020347356   F   F   F
  0.6662202079797837  0.8328444996112907  0.1809203361674179   F   F   F
  0.6673175977828442  0.8346732570840658  0.3673491791687115   T   T   T
  0.8334457207846171  0.9162539480591150  0.0923615381661094   F   F   F
  0.8325977712338209  0.9167612286974627  0.2716989731357805   T   T   T
  0.9086992879836231  0.8315071886930596  0.0058760937886646   F   F   F
  0.9160834583264972  0.8331823281392374  0.1811978988114049   F   F   F
  0.9220558025680157  0.8376150319264413  0.3631412212025826   T   T   T
  0.3840998126053295  0.5722952518843465  0.6347403870037057   T   T   T
  0.8360174448145055  0.4206265327124123  0.4185047132295839   T   T   T
  0.5829137443160457  0.4154793720645185  0.4190228527411400   T   T   T
  0.3325341486072114  0.4160607949150510  0.4180315798125155   T   T   T
  0.0852926489253593  0.4204930729650747  0.4178587286441404   T   T   T
  0.8415089112900211  0.6765513851214767  0.4166054163129610   T   T   T
  0.5830754961812006  0.6673414021788963  0.4170846719788405   T   T   T
  0.8395706847473252  0.9162504397433623  0.4168579545234548   T   T   T
  0.0857137317275464  0.1589539701369904  0.4160348122208153   T   T   T
  0.3354085232442212  0.6760716430595146  0.4157468053862513   T   T   T
  0.5767230960770580  0.9162669101826192  0.4169564386411285   T   T   T
  0.0944621468651463  0.6875673049327987  0.4170189441341170   T   T   T
  0.3244829534932262  0.1487084747115659  0.4173486539120903   T   T   T
  0.8326903377333436  0.1649514686916262  0.4170274172623242   T   T   T
  0.5734075825075240  0.1585899084747036  0.4165632563590202   T   T   T
  0.8389348389706049  0.4208269805225547  0.4621394715431161   T   T   T
  0.5851115765888157  0.4156686945669843  0.4626241444079266   T   T   T
  0.0854849610459123  0.4214703201859913  0.4614995568631786   T   T   T
  0.8434150254690368  0.6777436140989201  0.4601656607072381   T   T   T
  0.5791006101457240  0.6663403916127038  0.4605301477149293   T   T   T
  0.0922961125471407  0.6807192669927666  0.4605273863132026   T   T   T
  0.8317868657247761  0.1629633789089498  0.4606609863423590   T   T   T
  0.5736373349576369  0.1558438959149425  0.4601465409184164   T   T   T
  0.3240986748389154  0.1474779302309998  0.4608900113644384   T   T   T
  0.0836755044040665  0.1572300380550977  0.4596471076189797   T   T   T
  0.8418146685674828  0.9195026586344714  0.4604585050771574   T   T   T
  0.5779741758310679  0.9188665867357442  0.4605198802647249   T   T   T
  0.3306742522099894  0.4192675454033490  0.4615087486038308   T   T   T
  0.1914997399764228  0.3557580457682524  0.7167923563391719   T   T   T
  0.1988128850148733  0.6090724238492622  0.7152663184845173   T   T   T
  0.4753795077186269  0.8181401286885662  0.7099917471220448   T   T   T
  0.6381065542101191  0.6933079731106114  0.7083272253878768   T   T   T
  0.4626583214297328  0.4079448277242962  0.7121745703940446   T   T   T
  0.1688460364409853  0.3502874816532154  0.5620326866096108   T   T   T
  0.1835925577632146  0.6074543185882531  0.5630642804065356   T   T   T
  0.4609205935828786  0.8119320129494606  0.5579344133138427   T   T   T
  0.6202800853490698  0.6824034266753899  0.5545592242131725   T   T   T
  0.4380467701022506  0.3954526940394271  0.5554020087118668   T   T   T
  0.3357998183590938  0.6761509227462182  0.4592201576171389   T   T   T
  0.4298962165064298  0.4875841551414165  0.7115240679251543   T   T   T
  0.2863002210289717  0.4600008100934520  0.7138324461863608   T   T   T
  0.2903574545368802  0.5939079937153511  0.7133586328036650   T   T   T
  0.4365561372576212  0.7044075728410457  0.7106365308590874   T   T   T
  0.5226926171711193  0.6386008653186098  0.7094444549377277   T   T   T
  0.4087989970911016  0.4777419438345825  0.5573625729114290   T   T   T
  0.2656987847275760  0.4532767098385282  0.5603355334428414   T   T   T
  0.2732497435257825  0.5894268837718868  0.5609182791058955   T   T   T
  0.4207529334552859  0.6980027632098323  0.5583959832561702   T   T   T
  0.5047153374644530  0.6291405171499551  0.5562241358228499   T   T   T
 
  0.00000000E+00  0.00000000E+00  0.00000000E+00
  0.00000000E+00  0.00000000E+00  0.00000000E+00
  0.00000000E+00  0.00000000E+00  0.00000000E+00
  0.00000000E+00  0.00000000E+00  0.00000000E+00
  0.00000000E+00  0.00000000E+00  0.00000000E+00
  0.00000000E+00  0.00000000E+00  0.00000000E+00
  0.00000000E+00  0.00000000E+00  0.00000000E+00
  0.00000000E+00  0.00000000E+00  0.00000000E+00
  0.00000000E+00  0.00000000E+00  0.00000000E+00
  0.00000000E+00  0.00000000E+00  0.00000000E+00
  0.00000000E+00  0.00000000E+00  0.00000000E+00
  0.00000000E+00  0.00000000E+00  0.00000000E+00
  0.00000000E+00  0.00000000E+00  0.00000000E+00
  0.00000000E+00  0.00000000E+00  0.00000000E+00
  0.00000000E+00  0.00000000E+00  0.00000000E+00
  0.00000000E+00  0.00000000E+00  0.00000000E+00
  0.00000000E+00  0.00000000E+00  0.00000000E+00
  0.00000000E+00  0.00000000E+00  0.00000000E+00
  0.00000000E+00  0.00000000E+00  0.00000000E+00
  0.00000000E+00  0.00000000E+00  0.00000000E+00
  0.00000000E+00  0.00000000E+00  0.00000000E+00
  0.00000000E+00  0.00000000E+00  0.00000000E+00
  0.00000000E+00  0.00000000E+00  0.00000000E+00
  0.00000000E+00  0.00000000E+00  0.00000000E+00
  0.00000000E+00  0.00000000E+00  0.00000000E+00
  0.00000000E+00  0.00000000E+00  0.00000000E+00
  0.00000000E+00  0.00000000E+00  0.00000000E+00
  0.00000000E+00  0.00000000E+00  0.00000000E+00
  0.00000000E+00  0.00000000E+00  0.00000000E+00
  0.00000000E+00  0.00000000E+00  0.00000000E+00
  0.00000000E+00  0.00000000E+00  0.00000000E+00
  0.00000000E+00  0.00000000E+00  0.00000000E+00
  0.00000000E+00  0.00000000E+00  0.00000000E+00
  0.00000000E+00  0.00000000E+00  0.00000000E+00
  0.00000000E+00  0.00000000E+00  0.00000000E+00
  0.00000000E+00  0.00000000E+00  0.00000000E+00
  0.00000000E+00  0.00000000E+00  0.00000000E+00
  0.00000000E+00  0.00000000E+00  0.00000000E+00
  0.00000000E+00  0.00000000E+00  0.00000000E+00
  0.00000000E+00  0.00000000E+00  0.00000000E+00
  0.00000000E+00  0.00000000E+00  0.00000000E+00
  0.00000000E+00  0.00000000E+00  0.00000000E+00
  0.00000000E+00  0.00000000E+00  0.00000000E+00
  0.00000000E+00  0.00000000E+00  0.00000000E+00
  0.00000000E+00  0.00000000E+00  0.00000000E+00
  0.00000000E+00  0.00000000E+00  0.00000000E+00
  0.00000000E+00  0.00000000E+00  0.00000000E+00
  0.00000000E+00  0.00000000E+00  0.00000000E+00
  0.00000000E+00  0.00000000E+00  0.00000000E+00
  0.00000000E+00  0.00000000E+00  0.00000000E+00
  0.00000000E+00  0.00000000E+00  0.00000000E+00
  0.00000000E+00  0.00000000E+00  0.00000000E+00
  0.00000000E+00  0.00000000E+00  0.00000000E+00
  0.00000000E+00  0.00000000E+00  0.00000000E+00
  0.00000000E+00  0.00000000E+00  0.00000000E+00
  0.00000000E+00  0.00000000E+00  0.00000000E+00
  0.00000000E+00  0.00000000E+00  0.00000000E+00
  0.00000000E+00  0.00000000E+00  0.00000000E+00
  0.00000000E+00  0.00000000E+00  0.00000000E+00
  0.00000000E+00  0.00000000E+00  0.00000000E+00
  0.00000000E+00  0.00000000E+00  0.00000000E+00
  0.00000000E+00  0.00000000E+00  0.00000000E+00
  0.00000000E+00  0.00000000E+00  0.00000000E+00
  0.00000000E+00  0.00000000E+00  0.00000000E+00
  0.00000000E+00  0.00000000E+00  0.00000000E+00
  0.00000000E+00  0.00000000E+00  0.00000000E+00
  0.00000000E+00  0.00000000E+00  0.00000000E+00
  0.00000000E+00  0.00000000E+00  0.00000000E+00
  0.00000000E+00  0.00000000E+00  0.00000000E+00
  0.00000000E+00  0.00000000E+00  0.00000000E+00
  0.00000000E+00  0.00000000E+00  0.00000000E+00
  0.00000000E+00  0.00000000E+00  0.00000000E+00
  0.00000000E+00  0.00000000E+00  0.00000000E+00
  0.00000000E+00  0.00000000E+00  0.00000000E+00
  0.00000000E+00  0.00000000E+00  0.00000000E+00
  0.00000000E+00  0.00000000E+00  0.00000000E+00
  0.00000000E+00  0.00000000E+00  0.00000000E+00
  0.00000000E+00  0.00000000E+00  0.00000000E+00
  0.00000000E+00  0.00000000E+00  0.00000000E+00
  0.00000000E+00  0.00000000E+00  0.00000000E+00
  0.00000000E+00  0.00000000E+00  0.00000000E+00
  0.00000000E+00  0.00000000E+00  0.00000000E+00
  0.00000000E+00  0.00000000E+00  0.00000000E+00
  0.00000000E+00  0.00000000E+00  0.00000000E+00
  0.00000000E+00  0.00000000E+00  0.00000000E+00
  0.00000000E+00  0.00000000E+00  0.00000000E+00
  0.00000000E+00  0.00000000E+00  0.00000000E+00
  0.00000000E+00  0.00000000E+00  0.00000000E+00
  0.00000000E+00  0.00000000E+00  0.00000000E+00
  0.00000000E+00  0.00000000E+00  0.00000000E+00
  0.00000000E+00  0.00000000E+00  0.00000000E+00
  0.00000000E+00  0.00000000E+00  0.00000000E+00
  0.00000000E+00  0.00000000E+00  0.00000000E+00
  0.00000000E+00  0.00000000E+00  0.00000000E+00
  0.00000000E+00  0.00000000E+00  0.00000000E+00
  0.00000000E+00  0.00000000E+00  0.00000000E+00
  0.00000000E+00  0.00000000E+00  0.00000000E+00
  0.00000000E+00  0.00000000E+00  0.00000000E+00
  0.00000000E+00  0.00000000E+00  0.00000000E+00
  0.00000000E+00  0.00000000E+00  0.00000000E+00
  0.00000000E+00  0.00000000E+00  0.00000000E+00
  0.00000000E+00  0.00000000E+00  0.00000000E+00
  0.00000000E+00  0.00000000E+00  0.00000000E+00
  0.00000000E+00  0.00000000E+00  0.00000000E+00
  0.00000000E+00  0.00000000E+00  0.00000000E+00
  0.00000000E+00  0.00000000E+00  0.00000000E+00
  0.00000000E+00  0.00000000E+00  0.00000000E+00
  0.00000000E+00  0.00000000E+00  0.00000000E+00
  0.00000000E+00  0.00000000E+00  0.00000000E+00
  0.00000000E+00  0.00000000E+00  0.00000000E+00
  0.00000000E+00  0.00000000E+00  0.00000000E+00
  0.00000000E+00  0.00000000E+00  0.00000000E+00
  0.00000000E+00  0.00000000E+00  0.00000000E+00
  0.00000000E+00  0.00000000E+00  0.00000000E+00
  0.00000000E+00  0.00000000E+00  0.00000000E+00
  0.00000000E+00  0.00000000E+00  0.00000000E+00
  0.00000000E+00  0.00000000E+00  0.00000000E+00
  0.00000000E+00  0.00000000E+00  0.00000000E+00
  0.00000000E+00  0.00000000E+00  0.00000000E+00
  0.00000000E+00  0.00000000E+00  0.00000000E+00
  0.00000000E+00  0.00000000E+00  0.00000000E+00
  0.00000000E+00  0.00000000E+00  0.00000000E+00
  0.00000000E+00  0.00000000E+00  0.00000000E+00
  0.00000000E+00  0.00000000E+00  0.00000000E+00
  0.00000000E+00  0.00000000E+00  0.00000000E+00
  0.00000000E+00  0.00000000E+00  0.00000000E+00
  0.00000000E+00  0.00000000E+00  0.00000000E+00
  0.00000000E+00  0.00000000E+00  0.00000000E+00
  0.00000000E+00  0.00000000E+00  0.00000000E+00