Ru  N  H  C                             
   1.00000000000000     
    10.8619003295999992    0.0000000000000000    0.0000000000000000
    -5.4309501647999996    9.4066816188000004    0.0000000000000000
     0.0000000000000000    0.0000000000000000   23.5699996947999999
   Ru   N    H    C 
    82    14    34    20
Selective dynamics
Direct
  0.0833299999999966  0.1666699980000033  0.0908999930000007   F   F   F
  0.0832621415013776  0.1672648314931872  0.2718099367476199   T   T   T
  0.1666700039999967  0.0833299999999966  0.0000000000000000   F   F   F
  0.1666700039999967  0.0833299999999966  0.1817999849999978   F   F   F
  0.1647271063251604  0.0741044166733268  0.3635785153848459   T   T   T
  0.3333300159999979  0.1666699980000033  0.0908999930000007   F   F   F
  0.3331979201576093  0.1666152456744648  0.2713432752038015   T   T   T
  0.4166700039999967  0.0833299999999966  0.0000000000000000   F   F   F
  0.4166700039999967  0.0833299999999966  0.1817999849999978   F   F   F
  0.4088099934158612  0.0741653075694523  0.3632298968843904   T   T   T
  0.5833299510000032  0.1666699980000033  0.0908999930000007   F   F   F
  0.5837119058799571  0.1670397447745127  0.2716490588745286   T   T   T
  0.6666700480000003  0.0833299999999966  0.0000000000000000   F   F   F
  0.6666700480000003  0.0833299999999966  0.1817999849999978   F   F   F
  0.6641587269045959  0.0821458752249490  0.3658455116607744   T   T   T
  0.8333299940000032  0.1666699980000033  0.0908999930000007   F   F   F
  0.8335570509801998  0.1671163271810923  0.2722303294742771   T   T   T
  0.9166700039999967  0.0833299999999966  0.0000000000000000   F   F   F
  0.9166700039999967  0.0833299999999966  0.1817999849999978   F   F   F
  0.9178766284002998  0.0823385518688127  0.3659675930282267   T   T   T
  0.0833300170000015  0.4166700210000016  0.0908999930000007   F   F   F
  0.0831201108540673  0.4167985290293986  0.2725073513818668   T   T   T
  0.1666699989999998  0.3333300099999974  0.0000000000000000   F   F   F
  0.1666699989999998  0.3333300099999974  0.1817999849999978   F   F   F
  0.1661871904538179  0.3328197130930226  0.3675680486034527   T   T   T
  0.3333300279999989  0.4166700210000016  0.0908999930000007   F   F   F
  0.3328484974493469  0.4158803084826384  0.2727787553524421   T   T   T
  0.4166699880000024  0.3333300099999974  0.0000000000000000   F   F   F
  0.4166699880000024  0.3333300099999974  0.1817999849999978   F   F   F
  0.4140512432531853  0.3286207795903089  0.3685557347111065   T   T   T
  0.5833300059999971  0.4166700210000016  0.0908999930000007   F   F   F
  0.5828307089772194  0.4160968958694193  0.2727140436229236   T   T   T
  0.6666700099999971  0.3333300099999974  0.0000000000000000   F   F   F
  0.6666700099999971  0.3333300099999974  0.1817999849999978   F   F   F
  0.6661727797649366  0.3326898147461111  0.3668249356621597   T   T   T
  0.8333300059999971  0.4166700210000016  0.0908999930000007   F   F   F
  0.8338199692033923  0.4170130501029485  0.2724138877716331   T   T   T
  0.9166700099999971  0.3333300099999974  0.0000000000000000   F   F   F
  0.9166700099999971  0.3333300099999974  0.1817999849999978   F   F   F
  0.9172535843105656  0.3347335708942289  0.3670682710935066   T   T   T
  0.0833300239999986  0.6666700569999975  0.0908999930000007   F   F   F
  0.0830384459307292  0.6662305025690866  0.2717614933211026   T   T   T
  0.1666700259999985  0.5833300210000019  0.0000000000000000   F   F   F
  0.1666700259999985  0.5833300210000019  0.1817999849999978   F   F   F
  0.1669676903704473  0.5883585591169738  0.3665039572779267   T   T   T
  0.3333300239999986  0.6666700569999975  0.0908999930000007   F   F   F
  0.3330356512595196  0.6655497992082096  0.2718310275574423   T   T   T
  0.4166700150000011  0.5833300210000019  0.0000000000000000   F   F   F
  0.4166700150000011  0.5833300210000019  0.1817999849999978   F   F   F
  0.4154099383352197  0.5829403664838427  0.3675193980453234   T   T   T
  0.5833299800000020  0.6666700569999975  0.0908999930000007   F   F   F
  0.5832306102001860  0.6665083651806643  0.2729528920672374   T   T   T
  0.6666700589999977  0.5833300210000019  0.0000000000000000   F   F   F
  0.6666700589999977  0.5833300210000019  0.1817999849999978   F   F   F
  0.6673852941356171  0.5830478539093386  0.3678889041790879   T   T   T
  0.8333299800000020  0.6666700569999975  0.0908999930000007   F   F   F
  0.8324180918949406  0.6656091469237871  0.2718902158389453   T   T   T
  0.9166700589999977  0.5833300210000019  0.0000000000000000   F   F   F
  0.9166700589999977  0.5833300210000019  0.1817999849999978   F   F   F
  0.9210419582588361  0.5883470212497294  0.3668041900093049   T   T   T
  0.0833300420000000  0.9166700930000005  0.0908999930000007   F   F   F
  0.0825508720403820  0.9172647640292956  0.2719312214046934   T   T   T
  0.1666700079999970  0.8333300059999971  0.0000000000000000   F   F   F
  0.1666700079999970  0.8333300059999971  0.1817999849999978   F   F   F
  0.1693617047029091  0.8389498790504748  0.3589698966364214   T   T   T
  0.3333300420000000  0.9166700930000005  0.0908999930000007   F   F   F
  0.3343186485078047  0.9171901205175068  0.2717816202252612   T   T   T
  0.4166700079999970  0.8333300059999971  0.0000000000000000   F   F   F
  0.4166700079999970  0.8333300059999971  0.1817999849999978   F   F   F
  0.4157705675323483  0.8380937531656084  0.3626496745030254   T   T   T
  0.5833299979999964  0.9166700930000005  0.0908999930000007   F   F   F
  0.5843614084856220  0.9171727543786823  0.2713393611954126   T   T   T
  0.6666700509999970  0.8333300059999971  0.0000000000000000   F   F   F
  0.6666700509999970  0.8333300059999971  0.1817999849999978   F   F   F
  0.6669255664014004  0.8346014018784871  0.3675118219177250   T   T   T
  0.8333299979999964  0.9166700930000005  0.0908999930000007   F   F   F
  0.8327136192654426  0.9171860946922973  0.2713846169309293   T   T   T
  0.9166700509999970  0.8333300059999971  0.0000000000000000   F   F   F
  0.9166700509999970  0.8333300059999971  0.1817999849999978   F   F   F
  0.9219814341788158  0.8377169922392181  0.3630824511199300   T   T   T
  0.3345829359466312  0.6681334408206352  0.6343270078230601   T   T   T
  0.6348164807802088  0.3206069916854319  0.6351884377599201   T   T   T
  0.8345481671514868  0.4195295825327287  0.4172167141950595   T   T   T
  0.5828343950076795  0.4145681566186413  0.4178962042314889   T   T   T
  0.3322427203442979  0.4153414059704332  0.4183058775994648   T   T   T
  0.0844787052010986  0.4203318256539311  0.4175304972716790   T   T   T
  0.8413589640933610  0.6760166138090367  0.4163423533846708   T   T   T
  0.5830699789193280  0.6670402936557076  0.4176101445347865   T   T   T
  0.8395023011907502  0.9165440968797676  0.4166896768904968   T   T   T
  0.0853079600348050  0.1591469936217472  0.4159635001324172   T   T   T
  0.3346601980974440  0.6763042147582521  0.4155865900515945   T   T   T
  0.5761921610708590  0.9166580361838197  0.4166561659748169   T   T   T
  0.0936321161831827  0.6869539363634928  0.4165305843107474   T   T   T
  0.3245338707762351  0.1491333788908278  0.4171750744597598   T   T   T
  0.8324048722221566  0.1652449949443385  0.4165519498128304   T   T   T
  0.5733496843618391  0.1592658240644151  0.4152976691731393   T   T   T
  0.8330552723861810  0.4174527960233139  0.4607723538106557   T   T   T
  0.5854885156020045  0.4120531784658766  0.4613900382868457   T   T   T
  0.3296214806058881  0.4166442510440511  0.4618291814759505   T   T   T
  0.0840068343489228  0.4219759543988374  0.4611015155074745   T   T   T
  0.8434244989465888  0.6760187705871429  0.4598773527853345   T   T   T
  0.5803263277477114  0.6665842263812055  0.4611444643355421   T   T   T
  0.3337843668374099  0.6779403621831513  0.4590312443212927   T   T   T
  0.0925829817898583  0.6799518502181227  0.4599442454903175   T   T   T
  0.8312763240228962  0.1643618627531095  0.4601586667569674   T   T   T
  0.5745729893281892  0.1596251806588769  0.4588126700621161   T   T   T
  0.3253083242139070  0.1485953708491951  0.4606569629418945   T   T   T
  0.0828852927752885  0.1574967008969235  0.4596241500827232   T   T   T
  0.8419817111350739  0.9201917886481560  0.4602708444398616   T   T   T
  0.5751693093435410  0.9188018872904744  0.4601931207888240   T   T   T
  0.1262045990032861  0.4535382734448494  0.7130171935079376   T   T   T
  0.1488548151894556  0.7143889801410392  0.7123057515698412   T   T   T
  0.4299853835735301  0.9120305307502024  0.7115637670616394   T   T   T
  0.5795864908594150  0.7744326389193545  0.7123553603138560   T   T   T
  0.3922062324552086  0.4919006939099164  0.7128247979870381   T   T   T
  0.1252692869511715  0.4489554998530258  0.5591900242252329   T   T   T
  0.1460442576406228  0.7098401608515160  0.5573348589807329   T   T   T
  0.4259926366916886  0.9089136005638692  0.5555329568374044   T   T   T
  0.5788966090339471  0.7739470434186995  0.5572651418331098   T   T   T
  0.3934228838665009  0.4901300635285292  0.5591768643557476   T   T   T
  0.4370965094929627  0.0980434498818449  0.7136973716729690   T   T   T
  0.4349890398502955  0.3428560182912216  0.7132173514961434   T   T   T
  0.7092418214734831  0.5611650326638339  0.7125854554110266   T   T   T
  0.8805933603951741  0.4460298373862298  0.7125041127273603   T   T   T
  0.7130976286289710  0.1588443901858373  0.7133000853451702   T   T   T
  0.4374983190768476  0.0953593683304294  0.5578538317712247   T   T   T
  0.4332797847106262  0.3396742028320113  0.5578314246832257   T   T   T
  0.7074265266753962  0.5599728292504661  0.5583445677779757   T   T   T
  0.8809833908302480  0.4464400923747111  0.5594910909314957   T   T   T
  0.7143699142099407  0.1581624980776812  0.5588375423722236   T   T   T
  0.3651395654774508  0.5753995025039970  0.7117774665686049   T   T   T
  0.2243513416127198  0.5554091519423239  0.7117890539150479   T   T   T
  0.2364896799758362  0.6929610966922537  0.7114259125451805   T   T   T
  0.3849467022710683  0.7975895786438861  0.7111691000839492   T   T   T
  0.4644671817556498  0.7249432075974177  0.7114111144322711   T   T   T
  0.3649663466862265  0.5726432207661764  0.5585963182028709   T   T   T
  0.2231607216057926  0.5512940400275855  0.5586527791698914   T   T   T
  0.2340589447291933  0.6888627579249584  0.5577487166598577   T   T   T
  0.3824497243576047  0.7947653112381550  0.5571641682554879   T   T   T
  0.4635145843425886  0.7231375598848255  0.5577668446590581   T   T   T
  0.6764895879740022  0.2354435032125589  0.7123904472292418   T   T   T
  0.5313057394257028  0.2029094584778499  0.7125890587768636   T   T   T
  0.5301456313132303  0.3340063861294882  0.7123443501876003   T   T   T
  0.6744850721606147  0.4483339156849083  0.7120038411662816   T   T   T
  0.7650300124365151  0.3872716270349821  0.7120492791136023   T   T   T
  0.6772461663978311  0.2344966244647999  0.5590392326123823   T   T   T
  0.5311767296550352  0.2006994966692096  0.5586829462085880   T   T   T
  0.5289465331037617  0.3316273532739449  0.5586213430556062   T   T   T
  0.6736200910644616  0.4472981085443093  0.5588817368722632   T   T   T
  0.7653402870525094  0.3869843828008492  0.5590837694999445   T   T   T
 
  0.00000000E+00  0.00000000E+00  0.00000000E+00
  0.00000000E+00  0.00000000E+00  0.00000000E+00
  0.00000000E+00  0.00000000E+00  0.00000000E+00
  0.00000000E+00  0.00000000E+00  0.00000000E+00
  0.00000000E+00  0.00000000E+00  0.00000000E+00
  0.00000000E+00  0.00000000E+00  0.00000000E+00
  0.00000000E+00  0.00000000E+00  0.00000000E+00
  0.00000000E+00  0.00000000E+00  0.00000000E+00
  0.00000000E+00  0.00000000E+00  0.00000000E+00
  0.00000000E+00  0.00000000E+00  0.00000000E+00
  0.00000000E+00  0.00000000E+00  0.00000000E+00
  0.00000000E+00  0.00000000E+00  0.00000000E+00
  0.00000000E+00  0.00000000E+00  0.00000000E+00
  0.00000000E+00  0.00000000E+00  0.00000000E+00
  0.00000000E+00  0.00000000E+00  0.00000000E+00
  0.00000000E+00  0.00000000E+00  0.00000000E+00
  0.00000000E+00  0.00000000E+00  0.00000000E+00
  0.00000000E+00  0.00000000E+00  0.00000000E+00
  0.00000000E+00  0.00000000E+00  0.00000000E+00
  0.00000000E+00  0.00000000E+00  0.00000000E+00
  0.00000000E+00  0.00000000E+00  0.00000000E+00
  0.00000000E+00  0.00000000E+00  0.00000000E+00
  0.00000000E+00  0.00000000E+00  0.00000000E+00
  0.00000000E+00  0.00000000E+00  0.00000000E+00
  0.00000000E+00  0.00000000E+00  0.00000000E+00
  0.00000000E+00  0.00000000E+00  0.00000000E+00
  0.00000000E+00  0.00000000E+00  0.00000000E+00
  0.00000000E+00  0.00000000E+00  0.00000000E+00
  0.00000000E+00  0.00000000E+00  0.00000000E+00
  0.00000000E+00  0.00000000E+00  0.00000000E+00
  0.00000000E+00  0.00000000E+00  0.00000000E+00
  0.00000000E+00  0.00000000E+00  0.00000000E+00
  0.00000000E+00  0.00000000E+00  0.00000000E+00
  0.00000000E+00  0.00000000E+00  0.00000000E+00
  0.00000000E+00  0.00000000E+00  0.00000000E+00
  0.00000000E+00  0.00000000E+00  0.00000000E+00
  0.00000000E+00  0.00000000E+00  0.00000000E+00
  0.00000000E+00  0.00000000E+00  0.00000000E+00
  0.00000000E+00  0.00000000E+00  0.00000000E+00
  0.00000000E+00  0.00000000E+00  0.00000000E+00
  0.00000000E+00  0.00000000E+00  0.00000000E+00
  0.00000000E+00  0.00000000E+00  0.00000000E+00
  0.00000000E+00  0.00000000E+00  0.00000000E+00
  0.00000000E+00  0.00000000E+00  0.00000000E+00
  0.00000000E+00  0.00000000E+00  0.00000000E+00
  0.00000000E+00  0.00000000E+00  0.00000000E+00
  0.00000000E+00  0.00000000E+00  0.00000000E+00
  0.00000000E+00  0.00000000E+00  0.00000000E+00
  0.00000000E+00  0.00000000E+00  0.00000000E+00
  0.00000000E+00  0.00000000E+00  0.00000000E+00
  0.00000000E+00  0.00000000E+00  0.00000000E+00
  0.00000000E+00  0.00000000E+00  0.00000000E+00
  0.00000000E+00  0.00000000E+00  0.00000000E+00
  0.00000000E+00  0.00000000E+00  0.00000000E+00
  0.00000000E+00  0.00000000E+00  0.00000000E+00
  0.00000000E+00  0.00000000E+00  0.00000000E+00
  0.00000000E+00  0.00000000E+00  0.00000000E+00
  0.00000000E+00  0.00000000E+00  0.00000000E+00
  0.00000000E+00  0.00000000E+00  0.00000000E+00
  0.00000000E+00  0.00000000E+00  0.00000000E+00
  0.00000000E+00  0.00000000E+00  0.00000000E+00
  0.00000000E+00  0.00000000E+00  0.00000000E+00
  0.00000000E+00  0.00000000E+00  0.00000000E+00
  0.00000000E+00  0.00000000E+00  0.00000000E+00
  0.00000000E+00  0.00000000E+00  0.00000000E+00
  0.00000000E+00  0.00000000E+00  0.00000000E+00
  0.00000000E+00  0.00000000E+00  0.00000000E+00
  0.00000000E+00  0.00000000E+00  0.00000000E+00
  0.00000000E+00  0.00000000E+00  0.00000000E+00
  0.00000000E+00  0.00000000E+00  0.00000000E+00
  0.00000000E+00  0.00000000E+00  0.00000000E+00
  0.00000000E+00  0.00000000E+00  0.00000000E+00
  0.00000000E+00  0.00000000E+00  0.00000000E+00
  0.00000000E+00  0.00000000E+00  0.00000000E+00
  0.00000000E+00  0.00000000E+00  0.00000000E+00
  0.00000000E+00  0.00000000E+00  0.00000000E+00
  0.00000000E+00  0.00000000E+00  0.00000000E+00
  0.00000000E+00  0.00000000E+00  0.00000000E+00
  0.00000000E+00  0.00000000E+00  0.00000000E+00
  0.00000000E+00  0.00000000E+00  0.00000000E+00
  0.00000000E+00  0.00000000E+00  0.00000000E+00
  0.00000000E+00  0.00000000E+00  0.00000000E+00
  0.00000000E+00  0.00000000E+00  0.00000000E+00
  0.00000000E+00  0.00000000E+00  0.00000000E+00
  0.00000000E+00  0.00000000E+00  0.00000000E+00
  0.00000000E+00  0.00000000E+00  0.00000000E+00
  0.00000000E+00  0.00000000E+00  0.00000000E+00
  0.00000000E+00  0.00000000E+00  0.00000000E+00
  0.00000000E+00  0.00000000E+00  0.00000000E+00
  0.00000000E+00  0.00000000E+00  0.00000000E+00
  0.00000000E+00  0.00000000E+00  0.00000000E+00
  0.00000000E+00  0.00000000E+00  0.00000000E+00
  0.00000000E+00  0.00000000E+00  0.00000000E+00
  0.00000000E+00  0.00000000E+00  0.00000000E+00
  0.00000000E+00  0.00000000E+00  0.00000000E+00
  0.00000000E+00  0.00000000E+00  0.00000000E+00
  0.00000000E+00  0.00000000E+00  0.00000000E+00
  0.00000000E+00  0.00000000E+00  0.00000000E+00
  0.00000000E+00  0.00000000E+00  0.00000000E+00
  0.00000000E+00  0.00000000E+00  0.00000000E+00
  0.00000000E+00  0.00000000E+00  0.00000000E+00
  0.00000000E+00  0.00000000E+00  0.00000000E+00
  0.00000000E+00  0.00000000E+00  0.00000000E+00
  0.00000000E+00  0.00000000E+00  0.00000000E+00
  0.00000000E+00  0.00000000E+00  0.00000000E+00
  0.00000000E+00  0.00000000E+00  0.00000000E+00
  0.00000000E+00  0.00000000E+00  0.00000000E+00
  0.00000000E+00  0.00000000E+00  0.00000000E+00
  0.00000000E+00  0.00000000E+00  0.00000000E+00
  0.00000000E+00  0.00000000E+00  0.00000000E+00
  0.00000000E+00  0.00000000E+00  0.00000000E+00
  0.00000000E+00  0.00000000E+00  0.00000000E+00
  0.00000000E+00  0.00000000E+00  0.00000000E+00
  0.00000000E+00  0.00000000E+00  0.00000000E+00
  0.00000000E+00  0.00000000E+00  0.00000000E+00
  0.00000000E+00  0.00000000E+00  0.00000000E+00
  0.00000000E+00  0.00000000E+00  0.00000000E+00
  0.00000000E+00  0.00000000E+00  0.00000000E+00
  0.00000000E+00  0.00000000E+00  0.00000000E+00
  0.00000000E+00  0.00000000E+00  0.00000000E+00
  0.00000000E+00  0.00000000E+00  0.00000000E+00
  0.00000000E+00  0.00000000E+00  0.00000000E+00
  0.00000000E+00  0.00000000E+00  0.00000000E+00
  0.00000000E+00  0.00000000E+00  0.00000000E+00
  0.00000000E+00  0.00000000E+00  0.00000000E+00
  0.00000000E+00  0.00000000E+00  0.00000000E+00
  0.00000000E+00  0.00000000E+00  0.00000000E+00
  0.00000000E+00  0.00000000E+00  0.00000000E+00
  0.00000000E+00  0.00000000E+00  0.00000000E+00
  0.00000000E+00  0.00000000E+00  0.00000000E+00
  0.00000000E+00  0.00000000E+00  0.00000000E+00
  0.00000000E+00  0.00000000E+00  0.00000000E+00
  0.00000000E+00  0.00000000E+00  0.00000000E+00
  0.00000000E+00  0.00000000E+00  0.00000000E+00
  0.00000000E+00  0.00000000E+00  0.00000000E+00
  0.00000000E+00  0.00000000E+00  0.00000000E+00
  0.00000000E+00  0.00000000E+00  0.00000000E+00
  0.00000000E+00  0.00000000E+00  0.00000000E+00
  0.00000000E+00  0.00000000E+00  0.00000000E+00
  0.00000000E+00  0.00000000E+00  0.00000000E+00
  0.00000000E+00  0.00000000E+00  0.00000000E+00
  0.00000000E+00  0.00000000E+00  0.00000000E+00
  0.00000000E+00  0.00000000E+00  0.00000000E+00
  0.00000000E+00  0.00000000E+00  0.00000000E+00
  0.00000000E+00  0.00000000E+00  0.00000000E+00
  0.00000000E+00  0.00000000E+00  0.00000000E+00
  0.00000000E+00  0.00000000E+00  0.00000000E+00
  0.00000000E+00  0.00000000E+00  0.00000000E+00
  0.00000000E+00  0.00000000E+00  0.00000000E+00
  0.00000000E+00  0.00000000E+00  0.00000000E+00
