Ta  N Ru                                
   1.00000000000000     
    10.4555999800000006    0.0000000000000000    0.0000000000000000
     0.0000000000000000   11.6775998899999998    0.0000000000000000
     0.0000000000000000    0.0000000000000000   24.0732377500000005
   Ta   N    Ru
    64    64     1
Selective dynamics
Direct
  0.4991785186325330  0.1250000003211298  0.3753726828051569   F   F   F
  0.2600588226580172  0.1250000003211298  0.3190980514078845   F   F   F
  0.2470962603561304  0.0000000000000000  0.4358978840493251   F   F   F
  0.2497706295431051  0.1250580948000258  0.5618870499561471   T   T   T
  0.9985621543111212  0.1247951609945986  0.5000049847537387   T   T   T
  0.9982706677721265  0.9990931513125554  0.6248638305825679   T   T   T
  0.5139103867113359  0.1231668333975393  0.7437941079558519   T   T   T
  0.2471356546025620  0.1246406434861786  0.6882103098882337   T   T   T
  0.4991785186325330  0.3750000001070433  0.3753726828051569   F   F   F
  0.2600588226580172  0.3750000001070433  0.3190980514078845   F   F   F
  0.2470962603561304  0.2499999997859135  0.4358978840493251   F   F   F
  0.2497731619313588  0.3749455690250834  0.5618857918753772   T   T   T
  0.9985634797562961  0.3752063036794521  0.5000041812324364   T   T   T
  0.0026673740437111  0.2500012560504931  0.6211326039918877   T   T   T
  0.5139124105923848  0.3768371570121400  0.7437882264671035   T   T   T
  0.2471438094860663  0.3753687865439746  0.6882064146456316   T   T   T
  0.4991785186325330  0.6249999998929567  0.3753726828051569   F   F   F
  0.2600588226580172  0.6249999998929567  0.3190980514078845   F   F   F
  0.2470962603561304  0.5000000004281731  0.4358978840493251   F   F   F
  0.2486642196036992  0.6249152576612098  0.5619356146408682   T   T   T
  0.9983572197475606  0.6250031186744845  0.5004606575556010   T   T   T
  0.9982781215998556  0.5009143828434609  0.6248561647660749   T   T   T
  0.5100873694885710  0.6241545357307815  0.7435833075705330   T   T   T
  0.2481815132044483  0.6243932245098448  0.6876209515559087   T   T   T
  0.4991785186325330  0.8750000005352163  0.3753726828051569   F   F   F
  0.2600588226580172  0.8750000005352163  0.3190980514078845   F   F   F
  0.2470962603561304  0.7500000002140865  0.4358978840493251   F   F   F
  0.2486635504639249  0.8750893103435373  0.5619371355044526   T   T   T
  0.9983563528259992  0.8750004146844633  0.5004617363423713   T   T   T
  0.9973657038305418  0.7500059852190064  0.6258029402002668   T   T   T
  0.5100812517590705  0.8758448180879439  0.7435876983953786   T   T   T
  0.2481835678114117  0.8756160843355891  0.6876208283189239   T   T   T
  0.9991784928090510  0.1250000003211298  0.3753726828051569   F   F   F
  0.7600587968345351  0.1250000003211298  0.3190980514078845   F   F   F
  0.7470962345326484  0.0000000000000000  0.4358978840493251   F   F   F
  0.7471825331943763  0.1248199636612089  0.5619871160816525   T   T   T
  0.4987331323991072  0.1250024718480346  0.5005513041075618   T   T   T
  0.4959834689579077  0.9996960584349539  0.6268610412607204   T   T   T
  0.9992335595570574  0.1299063691996536  0.7439881036578808   T   T   T
  0.7526916155491538  0.1256461923060007  0.6872242789730788   T   T   T
  0.9991784928090510  0.3750000001070433  0.3753726828051569   F   F   F
  0.7600587968345351  0.3750000001070433  0.3190980514078845   F   F   F
  0.7470962345326484  0.2499999997859135  0.4358978840493251   F   F   F
  0.7471840553835937  0.3751850381477006  0.5619848244962854   T   T   T
  0.4987338986114802  0.3749991489561459  0.5005499823464028   T   T   T
  0.4958217327341639  0.2500053738566684  0.6277829995979813   T   T   T
  0.9992382294888422  0.3701120768003328  0.7439806002944916   T   T   T
  0.7527085146480538  0.3743667350513887  0.6872170387206399   T   T   T
  0.9991784928090510  0.6249999998929567  0.3753726828051569   F   F   F
  0.7600587968345351  0.6249999998929567  0.3190980514078845   F   F   F
  0.7470962345326484  0.5000000004281731  0.4358978840493251   F   F   F
  0.7477307207296253  0.6249926012505042  0.5616644828927537   T   T   T
  0.4983125212186273  0.6251200630822902  0.5005210559445388   T   T   T
  0.4959855960431495  0.5003144147513032  0.6268560934982278   T   T   T
  0.0103828071666330  0.6235547379994110  0.7422301793579426   T   T   T
  0.7487462672894157  0.6255724619875006  0.6864887187878136   T   T   T
  0.9991784928090439  0.8750000005352163  0.3753726828051569   F   F   F
  0.7600587968345351  0.8750000005352163  0.3190980514078845   F   F   F
  0.7470962345326484  0.7500000002140865  0.4358978840493251   F   F   F
  0.7477427732643454  0.8750019826062964  0.5616559810303650   T   T   T
  0.4983120998624176  0.8748833531287552  0.5005219587145218   T   T   T
  0.4959116878506073  0.7500046134142423  0.6267566990012411   T   T   T
  0.0103813439605074  0.8764585523010757  0.7422325666706936   T   T   T
  0.7487516638925596  0.8744262276331356  0.6864894107257099   T   T   T
  0.1472195596423447  0.0000000000000000  0.3601606351366584   F   F   F
  0.4003222342624682  0.0000000000000000  0.3237632067519129   F   F   F
  0.4439214822817661  0.0000000000000000  0.4377276028165085   F   F   F
  0.4009983733261259  0.9998421609997996  0.5520280990733992   T   T   T
  0.1509207417451117  0.9999928463153540  0.5104149417637706   T   T   T
  0.1950200268970319  0.0003952136297128  0.6247819742122267   T   T   T
  0.1481314003978217  0.0011017421929223  0.7397227923191397   T   T   T
  0.3962978249474049  0.0006335132415970  0.7030800837035472   T   T   T
  0.1472195596423447  0.2499999997859135  0.3601606351366584   F   F   F
  0.4003222342624682  0.2499999997859135  0.3237632067519129   F   F   F
  0.4439214822817661  0.2499999997859135  0.4377276028165085   F   F   F
  0.4018130389868050  0.2500009491375557  0.5521892106080587   T   T   T
  0.1509487686554956  0.2500003709708611  0.5104577017842475   T   T   T
  0.1987282729679092  0.2500022883127966  0.6246916862399393   T   T   T
  0.1455116865184080  0.2500024748948467  0.7381255449327190   T   T   T
  0.3968730651360716  0.2500062864217540  0.7043004861538809   T   T   T
  0.1472195596423447  0.5000000004281731  0.3601606351366584   F   F   F
  0.4003222342624682  0.5000000004281731  0.3237632067519129   F   F   F
  0.4439214822817661  0.5000000004281731  0.4377276028165085   F   F   F
  0.4009979527728492  0.5001612448362280  0.5520250854132057   T   T   T
  0.1509204505522878  0.5000106126510785  0.5104141890865551   T   T   T
  0.1950256616458793  0.4996079267441099  0.6247803505875720   T   T   T
  0.1481395531064789  0.4989115180252142  0.7397212052557083   T   T   T
  0.3962993709835681  0.4993774110405585  0.7030731303998600   T   T   T
  0.1472195596423447  0.7500000002140865  0.3601606351366584   F   F   F
  0.4003222342624682  0.7500000002140865  0.3237632067519129   F   F   F
  0.4439214822817661  0.7500000002140865  0.4377276028165085   F   F   F
  0.4003687524044713  0.7500034044686013  0.5521227450203651   T   T   T
  0.1506923811088690  0.7500016747184145  0.5104305460713818   T   T   T
  0.1947586348138473  0.7500033157670752  0.6248772389518445   T   T   T
  0.1496338068503024  0.7500057054371304  0.7387830222159304   T   T   T
  0.3965267353065871  0.7500018806283659  0.7029518885964312   T   T   T
  0.6472195338188556  0.0000000000000000  0.3601606351366584   F   F   F
  0.9003222591295312  0.0000000000000000  0.3237632067519129   F   F   F
  0.9439215071488221  0.0000000000000000  0.4377276028165085   F   F   F
  0.8997685452976126  0.0001494352239803  0.5512321486736087   T   T   T
  0.6502773569147453  0.9998038444471007  0.5101874620597793   T   T   T
  0.6928329000470590  0.9997299209109251  0.6244438022473169   T   T   T
  0.6521317363923135  0.9991073558018687  0.7381181544157011   T   T   T
  0.8985631309473692  0.0001138888038353  0.6999714642684044   T   T   T
  0.6472195338188556  0.2499999997859135  0.3601606351366584   F   F   F
  0.9003222591295312  0.2499999997859135  0.3237632067519129   F   F   F
  0.9439215071488221  0.2499999997859135  0.4377276028165085   F   F   F
  0.8985183941706572  0.2500004609466960  0.5497114131223599   T   T   T
  0.6502081140862904  0.2500002436170534  0.5102699442050552   T   T   T
  0.6923722610592938  0.2500028445100579  0.6248400284236781   T   T   T
  0.6639767138757454  0.2500165271038379  0.7427889416160440   T   T   T
  0.9039657660168360  0.2499992288185008  0.6913385636142332   T   T   T
  0.6472195338188556  0.5000000004281731  0.3601606351366584   F   F   F
  0.9003222591295312  0.5000000004281731  0.3237632067519129   F   F   F
  0.9439215071488221  0.5000000004281731  0.4377276028165085   F   F   F
  0.8997682425021518  0.4998554316105516  0.5512279237718749   T   T   T
  0.6502776852149732  0.5002000318825709  0.5101866203560163   T   T   T
  0.6928353493057410  0.5002778243151998  0.6244382254848106   T   T   T
  0.6521441099662115  0.5009071884534790  0.7381094352938696   T   T   T
  0.8985755211532569  0.4999027564772913  0.6999616543830490   T   T   T
  0.6472195338188556  0.7500000002140865  0.3601606351366584   F   F   F
  0.9003222591295312  0.7500000002140865  0.3237632067519129   F   F   F
  0.9439215071488221  0.7500000002140865  0.4377276028165085   F   F   F
  0.9000390904331785  0.7500038903094933  0.5517079225417035   T   T   T
  0.6503262513570881  0.7500039025630383  0.5101603996271766   T   T   T
  0.6927645744176090  0.7500064038792943  0.6242254715324825   T   T   T
  0.6487875462546894  0.7500029331369463  0.7378927648900808   T   T   T
  0.8974657248977892  0.7500043484504165  0.7013735278855961   T   T   T
  0.8226939310922510  0.2500667294740897  0.7944596878791319   T   T   T
 
  0.00000000E+00  0.00000000E+00  0.00000000E+00
  0.00000000E+00  0.00000000E+00  0.00000000E+00
  0.00000000E+00  0.00000000E+00  0.00000000E+00
  0.00000000E+00  0.00000000E+00  0.00000000E+00
  0.00000000E+00  0.00000000E+00  0.00000000E+00
  0.00000000E+00  0.00000000E+00  0.00000000E+00
  0.00000000E+00  0.00000000E+00  0.00000000E+00
  0.00000000E+00  0.00000000E+00  0.00000000E+00
  0.00000000E+00  0.00000000E+00  0.00000000E+00
  0.00000000E+00  0.00000000E+00  0.00000000E+00
  0.00000000E+00  0.00000000E+00  0.00000000E+00
  0.00000000E+00  0.00000000E+00  0.00000000E+00
  0.00000000E+00  0.00000000E+00  0.00000000E+00
  0.00000000E+00  0.00000000E+00  0.00000000E+00
  0.00000000E+00  0.00000000E+00  0.00000000E+00
  0.00000000E+00  0.00000000E+00  0.00000000E+00
  0.00000000E+00  0.00000000E+00  0.00000000E+00
  0.00000000E+00  0.00000000E+00  0.00000000E+00
  0.00000000E+00  0.00000000E+00  0.00000000E+00
  0.00000000E+00  0.00000000E+00  0.00000000E+00
  0.00000000E+00  0.00000000E+00  0.00000000E+00
  0.00000000E+00  0.00000000E+00  0.00000000E+00
  0.00000000E+00  0.00000000E+00  0.00000000E+00
  0.00000000E+00  0.00000000E+00  0.00000000E+00
  0.00000000E+00  0.00000000E+00  0.00000000E+00
  0.00000000E+00  0.00000000E+00  0.00000000E+00
  0.00000000E+00  0.00000000E+00  0.00000000E+00
  0.00000000E+00  0.00000000E+00  0.00000000E+00
  0.00000000E+00  0.00000000E+00  0.00000000E+00
  0.00000000E+00  0.00000000E+00  0.00000000E+00
  0.00000000E+00  0.00000000E+00  0.00000000E+00
  0.00000000E+00  0.00000000E+00  0.00000000E+00
  0.00000000E+00  0.00000000E+00  0.00000000E+00
  0.00000000E+00  0.00000000E+00  0.00000000E+00
  0.00000000E+00  0.00000000E+00  0.00000000E+00
  0.00000000E+00  0.00000000E+00  0.00000000E+00
  0.00000000E+00  0.00000000E+00  0.00000000E+00
  0.00000000E+00  0.00000000E+00  0.00000000E+00
  0.00000000E+00  0.00000000E+00  0.00000000E+00
  0.00000000E+00  0.00000000E+00  0.00000000E+00
  0.00000000E+00  0.00000000E+00  0.00000000E+00
  0.00000000E+00  0.00000000E+00  0.00000000E+00
  0.00000000E+00  0.00000000E+00  0.00000000E+00
  0.00000000E+00  0.00000000E+00  0.00000000E+00
  0.00000000E+00  0.00000000E+00  0.00000000E+00
  0.00000000E+00  0.00000000E+00  0.00000000E+00
  0.00000000E+00  0.00000000E+00  0.00000000E+00
  0.00000000E+00  0.00000000E+00  0.00000000E+00
  0.00000000E+00  0.00000000E+00  0.00000000E+00
  0.00000000E+00  0.00000000E+00  0.00000000E+00
  0.00000000E+00  0.00000000E+00  0.00000000E+00
  0.00000000E+00  0.00000000E+00  0.00000000E+00
  0.00000000E+00  0.00000000E+00  0.00000000E+00
  0.00000000E+00  0.00000000E+00  0.00000000E+00
  0.00000000E+00  0.00000000E+00  0.00000000E+00
  0.00000000E+00  0.00000000E+00  0.00000000E+00
  0.00000000E+00  0.00000000E+00  0.00000000E+00
  0.00000000E+00  0.00000000E+00  0.00000000E+00
  0.00000000E+00  0.00000000E+00  0.00000000E+00
  0.00000000E+00  0.00000000E+00  0.00000000E+00
  0.00000000E+00  0.00000000E+00  0.00000000E+00
  0.00000000E+00  0.00000000E+00  0.00000000E+00
  0.00000000E+00  0.00000000E+00  0.00000000E+00
  0.00000000E+00  0.00000000E+00  0.00000000E+00
  0.00000000E+00  0.00000000E+00  0.00000000E+00
  0.00000000E+00  0.00000000E+00  0.00000000E+00
  0.00000000E+00  0.00000000E+00  0.00000000E+00
  0.00000000E+00  0.00000000E+00  0.00000000E+00
  0.00000000E+00  0.00000000E+00  0.00000000E+00
  0.00000000E+00  0.00000000E+00  0.00000000E+00
  0.00000000E+00  0.00000000E+00  0.00000000E+00
  0.00000000E+00  0.00000000E+00  0.00000000E+00
  0.00000000E+00  0.00000000E+00  0.00000000E+00
  0.00000000E+00  0.00000000E+00  0.00000000E+00
  0.00000000E+00  0.00000000E+00  0.00000000E+00
  0.00000000E+00  0.00000000E+00  0.00000000E+00
  0.00000000E+00  0.00000000E+00  0.00000000E+00
  0.00000000E+00  0.00000000E+00  0.00000000E+00
  0.00000000E+00  0.00000000E+00  0.00000000E+00
  0.00000000E+00  0.00000000E+00  0.00000000E+00
  0.00000000E+00  0.00000000E+00  0.00000000E+00
  0.00000000E+00  0.00000000E+00  0.00000000E+00
  0.00000000E+00  0.00000000E+00  0.00000000E+00
  0.00000000E+00  0.00000000E+00  0.00000000E+00
  0.00000000E+00  0.00000000E+00  0.00000000E+00
  0.00000000E+00  0.00000000E+00  0.00000000E+00
  0.00000000E+00  0.00000000E+00  0.00000000E+00
  0.00000000E+00  0.00000000E+00  0.00000000E+00
  0.00000000E+00  0.00000000E+00  0.00000000E+00
  0.00000000E+00  0.00000000E+00  0.00000000E+00
  0.00000000E+00  0.00000000E+00  0.00000000E+00
  0.00000000E+00  0.00000000E+00  0.00000000E+00
  0.00000000E+00  0.00000000E+00  0.00000000E+00
  0.00000000E+00  0.00000000E+00  0.00000000E+00
  0.00000000E+00  0.00000000E+00  0.00000000E+00
  0.00000000E+00  0.00000000E+00  0.00000000E+00
  0.00000000E+00  0.00000000E+00  0.00000000E+00
  0.00000000E+00  0.00000000E+00  0.00000000E+00
  0.00000000E+00  0.00000000E+00  0.00000000E+00
  0.00000000E+00  0.00000000E+00  0.00000000E+00
  0.00000000E+00  0.00000000E+00  0.00000000E+00
  0.00000000E+00  0.00000000E+00  0.00000000E+00
  0.00000000E+00  0.00000000E+00  0.00000000E+00
  0.00000000E+00  0.00000000E+00  0.00000000E+00
  0.00000000E+00  0.00000000E+00  0.00000000E+00
  0.00000000E+00  0.00000000E+00  0.00000000E+00
  0.00000000E+00  0.00000000E+00  0.00000000E+00
  0.00000000E+00  0.00000000E+00  0.00000000E+00
  0.00000000E+00  0.00000000E+00  0.00000000E+00
  0.00000000E+00  0.00000000E+00  0.00000000E+00
  0.00000000E+00  0.00000000E+00  0.00000000E+00
  0.00000000E+00  0.00000000E+00  0.00000000E+00
  0.00000000E+00  0.00000000E+00  0.00000000E+00
  0.00000000E+00  0.00000000E+00  0.00000000E+00
  0.00000000E+00  0.00000000E+00  0.00000000E+00
  0.00000000E+00  0.00000000E+00  0.00000000E+00
  0.00000000E+00  0.00000000E+00  0.00000000E+00
  0.00000000E+00  0.00000000E+00  0.00000000E+00
  0.00000000E+00  0.00000000E+00  0.00000000E+00
  0.00000000E+00  0.00000000E+00  0.00000000E+00
  0.00000000E+00  0.00000000E+00  0.00000000E+00
  0.00000000E+00  0.00000000E+00  0.00000000E+00
  0.00000000E+00  0.00000000E+00  0.00000000E+00
  0.00000000E+00  0.00000000E+00  0.00000000E+00
  0.00000000E+00  0.00000000E+00  0.00000000E+00
  0.00000000E+00  0.00000000E+00  0.00000000E+00
  0.00000000E+00  0.00000000E+00  0.00000000E+00
  0.00000000E+00  0.00000000E+00  0.00000000E+00
  0.00000000E+00  0.00000000E+00  0.00000000E+00
