Cu	N	Ru	Ta                              
   1.00000000000000     
    18.1096308199999996    0.0000000000000000    0.0000000000000000
     0.0000000000000000   23.3551997799999995    0.0000000000000000
     0.0000000000000000    0.0000000000000000   30.4818171199999988
   Cu   N    Ru   Ta
     4   240    12   228
Selective dynamics
Direct
  0.5626650121423658  0.4369891819242703  0.6106540263229051   T   T   T
  0.4428435020426912  0.3898531302850560  0.6272507137268393   T   T   T
  0.4519989611513967  0.4932362270676537  0.6234117829839734   T   T   T
  0.5052576243617447  0.4420120790141698  0.6829297588484812   T   T   T
  0.0000000000000000  0.0002658024790421  0.3027806050297599   F   F   F
  0.0000000000000000  0.5002658024790421  0.3027806050297599   F   F   F
  0.0000000000000000  0.6252068313499990  0.3027729437410898   F   F   F
  0.0000000000000000  0.7502658026931286  0.3027806050297599   F   F   F
  0.0000000000000000  0.8752068315640855  0.3027729437410898   F   F   F
  0.0000000000000000  0.1252068313499990  0.3027729437410898   F   F   F
  0.0000000000000000  0.2502658026931286  0.3027806050297599   F   F   F
  0.0000000000000000  0.3752068315640855  0.3027729437410898   F   F   F
  0.0000054274580635  0.5025151778559123  0.4731971450521285   T   T   T
  0.0000104086027774  0.2522179722440095  0.4735509849374663   T   T   T
  0.0000454346294258  0.3753628315203115  0.4734580043336047   T   T   T
  0.5927339565932892  0.7497215346233070  0.5685582746971110   T   T   T
  0.5928602221456478  0.9997454539414010  0.5685518702400502   T   T   T
  0.5931089954831925  0.2504175102284705  0.5684913143955318   T   T   T
  0.5940493004484111  0.9998103570065027  0.2323399901691943   F   F   F
  0.5940493004484111  0.4998103570065027  0.2323399901691943   F   F   F
  0.5940493004484111  0.7498103572205892  0.2323399901691943   F   F   F
  0.5940493004484111  0.2498103572205892  0.2323399901691943   F   F   F
  0.5941034351798038  0.6248444726427422  0.2323487498175751   F   F   F
  0.5941034351798038  0.8748444728568288  0.2323487498175751   F   F   F
  0.5941034351798038  0.1248444726427422  0.2323487498175751   F   F   F
  0.5941034351798038  0.3748444728568288  0.2323487498175751   F   F   F
  0.5973179708678740  0.4987287803883359  0.5711242227874785   T   T   T
  0.5980113367635940  0.1214732791981249  0.5715555054737109   T   T   T
  0.5980158265452769  0.6208988509579858  0.5717462602240496   T   T   T
  0.5980244005737544  0.8712705823067264  0.5715528502844659   T   T   T
  0.5986342907133605  0.3723632562780395  0.5722105794200850   T   T   T
  0.5988029427678562  0.6240428097936942  0.4025706324646473   T   T   T
  0.5988284743573992  0.8741867163514225  0.4025116812587505   T   T   T
  0.5988529333810110  0.1242011924464843  0.4025181862464618   T   T   T
  0.5988849807380221  0.3742270992999000  0.4024082512541701   T   T   T
  0.5991253729441736  0.7490752891596977  0.4022925017240194   T   T   T
  0.5991956447639424  0.9990833337156344  0.4022896003184488   T   T   T
  0.5991892469021683  0.2490668648039562  0.4022812666446693   T   T   T
  0.5991955097455545  0.4991967639701732  0.4022931546101833   T   T   T
  0.6507365456715218  0.6230924240759081  0.4883096845766720   T   T   T
  0.6510011702779029  0.8730184770373318  0.4882216915597480   T   T   T
  0.6510243739502363  0.1229490424534838  0.4882091166923102   T   T   T
  0.6510200609237493  0.3726050623434807  0.4881260166346599   T   T   T
  0.6516578721796386  0.7490989117715882  0.4883495310760957   T   T   T
  0.6516725196243581  0.9990785262788737  0.4883616672807052   T   T   T
  0.6517031712415322  0.2491727341409544  0.4883671747129406   T   T   T
  0.6518306069019795  0.4992485436007807  0.4886664677471078   T   T   T
  0.6547396409045092  0.9997083480310920  0.3159103144045119   F   F   F
  0.6547396409045092  0.4997083480310920  0.3159103144045119   F   F   F
  0.6547396409045092  0.7497083482451785  0.3159103144045119   F   F   F
  0.6547396409045092  0.2497083482451785  0.3159103144045119   F   F   F
  0.6547625022209047  0.6246790182669955  0.3159667218028375   F   F   F
  0.6547625022209047  0.8746790184810820  0.3159667218028375   F   F   F
  0.6547625022209047  0.1246790182669955  0.3159667218028375   F   F   F
  0.6547625022209047  0.3746790184810820  0.3159667218028375   F   F   F
  0.7406303617093146  0.7416258797502210  0.5623534252505771   T   T   T
  0.7408607730963531  0.9918672047882268  0.5623488121306481   T   T   T
  0.7408694664242313  0.2423250483849234  0.5619734316342506   T   T   T
  0.7436337906084933  0.4924644166293860  0.5619244226143667   T   T   T
  0.7497181855858486  0.0000100119032282  0.1992701427899632   F   F   F
  0.7497181855858486  0.5000100119032282  0.1992701427899632   F   F   F
  0.7497181855858486  0.7500100121173077  0.1992701427899632   F   F   F
  0.7497181855858486  0.2500100121173077  0.1992701427899632   F   F   F
  0.7497340914871273  0.6250292589019324  0.1993221157413743   F   F   F
  0.7497340914871273  0.8750292591160189  0.1993221157413743   F   F   F
  0.7497340914871273  0.1250292589019324  0.1993221157413743   F   F   F
  0.7497340914871273  0.3750292591160189  0.1993221157413743   F   F   F
  0.7501419633472233  0.7498663512930437  0.3872671398984576   T   T   T
  0.7501217393363588  0.6249622573017889  0.3879547886117076   T   T   T
  0.7501638242964180  0.8748870780327259  0.3878583842716116   T   T   T
  0.7501624630569037  0.9998977543420774  0.3872529073275100   T   T   T
  0.7501847708807677  0.1249086390419965  0.3878376964228891   T   T   T
  0.7501636701080717  0.4998969168082510  0.3873845215171103   T   T   T
  0.7501981300587020  0.2498299149365788  0.3872649041404148   T   T   T
  0.7501890273357614  0.3749066560906770  0.3878695292629726   T   T   T
  0.7521738957083314  0.6220590917455953  0.5561885797625985   T   T   T
  0.7522514015529241  0.1225272440943556  0.5563359277295044   T   T   T
  0.7525423377374604  0.8721103257254971  0.5562703459337320   T   T   T
  0.7532340994719147  0.3723296738232848  0.5561938996232282   T   T   T
  0.8451499272473839  0.6251896283286698  0.3155471503596488   F   F   F
  0.8451499272473839  0.8751896285427563  0.3155471503596488   F   F   F
  0.8451499272473839  0.1251896283286698  0.3155471503596488   F   F   F
  0.8451499272473839  0.3751896285427563  0.3155471503596488   F   F   F
  0.8451807898312538  0.0001939208417241  0.3155011134060643   F   F   F
  0.8451807898312538  0.5001939208417241  0.3155011134060643   F   F   F
  0.8451807898312538  0.7501939210558106  0.3155011134060643   F   F   F
  0.8451807898312538  0.2501939210558106  0.3155011134060643   F   F   F
  0.8466677877565884  0.9986380193723153  0.4860519379362835   T   T   T
  0.8466996049252140  0.7486312734999725  0.4860699404960603   T   T   T
  0.8468198865122002  0.2486771518756623  0.4860365421686820   T   T   T
  0.8472952135519202  0.4988057545442945  0.4858417410179181   T   T   T
  0.8489114621489097  0.1292743188086326  0.4862456721858971   T   T   T
  0.8489789983372293  0.8792996564821786  0.4862668353511899   T   T   T
  0.8489685716525381  0.6291607711180062  0.4862149545813408   T   T   T
  0.8493253271680621  0.3791159634074669  0.4861735602190397   T   T   T
  0.9008191255241247  0.7589162710660119  0.5678015426616679   T   T   T
  0.9009178016137498  0.0089456047037189  0.5678108361804002   T   T   T
  0.9009519944306861  0.5008574574003016  0.4016827542297852   T   T   T
  0.9009792913725403  0.7508674482975379  0.4018526629376586   T   T   T
  0.9009884984742510  0.2508106087030860  0.4018060864590051   T   T   T
  0.9009922024992940  0.2585731204605802  0.5678893905137681   T   T   T
  0.9009931133908571  0.0008311840867061  0.4018587209398450   T   T   T
  0.9010409678226716  0.6258488578594844  0.4017957318928973   T   T   T
  0.9011269098765057  0.1257316074796712  0.4018723131473509   T   T   T
  0.9011387812351476  0.8757677970233700  0.4018974418354898   T   T   T
  0.9011448060070051  0.3756843743044023  0.4017771495908589   T   T   T
  0.9013675886545329  0.5086680895786001  0.5680067513394536   T   T   T
  0.9021451195186694  0.6346321706378064  0.5710284774544181   T   T   T
  0.9025155887737600  0.1347816641715517  0.5711398574318814   T   T   T
  0.9025563999404046  0.8849434866433596  0.5711645036101809   T   T   T
  0.9030269738809396  0.3841459878076290  0.5715124472388486   T   T   T
  0.9057164253114252  0.6251516265128672  0.2320045249323357   F   F   F
  0.9057164253114252  0.8751516267269537  0.2320045249323357   F   F   F
  0.9057164253114252  0.1251516265128672  0.2320045249323357   F   F   F
  0.9057164253114252  0.3751516267269537  0.2320045249323357   F   F   F
  0.9057548087553968  0.0001403618907503  0.2320193078436787   F   F   F
  0.9057548087553968  0.5001403618907503  0.2320193078436787   F   F   F
  0.9057548087553968  0.7501403621048368  0.2320193078436787   F   F   F
  0.9057548087553968  0.2501403621048368  0.2320193078436787   F   F   F
  0.0942451912446032  0.0001403618907503  0.2320193078436787   F   F   F
  0.0942451912446032  0.5001403618907503  0.2320193078436787   F   F   F
  0.0942451912446032  0.7501403621048368  0.2320193078436787   F   F   F
  0.0942451912446032  0.2501403621048368  0.2320193078436787   F   F   F
  0.0942835746885748  0.6251516265128672  0.2320045249323357   F   F   F
  0.0942835746885748  0.8751516267269537  0.2320045249323357   F   F   F
  0.0942835746885748  0.1251516265128672  0.2320045249323357   F   F   F
  0.0942835746885748  0.3751516267269537  0.2320045249323357   F   F   F
  0.0967420503529381  0.3843032609596772  0.5714478720199382   T   T   T
  0.0972006190415500  0.6349300834888881  0.5710142022535253   T   T   T
  0.0974089119461991  0.1346644675661008  0.5711395330274316   T   T   T
  0.0974431861533939  0.8849482633220046  0.5711621064506194   T   T   T
  0.0982854476345288  0.5088551728501529  0.5678532567408288   T   T   T
  0.0988334810899498  0.8757722023132078  0.4018900507385356   T   T   T
  0.0988597217194374  0.1257204879718572  0.4018605568708547   T   T   T
  0.0988607416474406  0.2585777846726386  0.5678910875649411   T   T   T
  0.0989248028218494  0.3756633146514999  0.4017714789908163   T   T   T
  0.0989574117598760  0.6258250404045188  0.4017963192006762   T   T   T
  0.0989414452655986  0.7590380077380159  0.5678051696549129   T   T   T
  0.0989818666091626  0.0008244047821228  0.4018504581896548   T   T   T
  0.0989819194461066  0.7508825227609294  0.4018331093415846   T   T   T
  0.0990581575926803  0.2508289711178302  0.4018102945236400   T   T   T
  0.0990907497590203  0.0089010415597513  0.5677990130802062   T   T   T
  0.0990905469194975  0.5008587576843827  0.4016686758793839   T   T   T
  0.9999620797906563  0.6254354321187457  0.4736496501229746   T   T   T
  0.9999733897369388  0.1253890622752821  0.4736807520285092   T   T   T
  0.9999675587807936  0.7523678773255210  0.4735791166916637   T   T   T
  0.9999755221206870  0.0023703860079343  0.4736543352172540   T   T   T
  0.9999812326683936  0.8754184051304398  0.4737497356757440   T   T   T
  0.1508939471997358  0.3791467849312610  0.4861241261245605   T   T   T
  0.1508857863518573  0.6292196687681127  0.4862340422300155   T   T   T
  0.1509928261042377  0.8792900921835336  0.4862626845469246   T   T   T
  0.1510470911794811  0.1292248539501092  0.4862023007064295   T   T   T
  0.1527897690403462  0.4987862420991386  0.4857702790093729   T   T   T
  0.1531650791679417  0.2486443267494857  0.4860512245704886   T   T   T
  0.1532022389033580  0.7486772446021034  0.4860459092333692   T   T   T
  0.1532896619739818  0.9986607107811615  0.4860467631256606   T   T   T
  0.1548192101687462  0.0001939208417241  0.3155011134060643   F   F   F
  0.1548192101687462  0.5001939208417241  0.3155011134060643   F   F   F
  0.1548192101687462  0.7501939210558106  0.3155011134060643   F   F   F
  0.1548192101687462  0.2501939210558106  0.3155011134060643   F   F   F
  0.1548500727526161  0.6251896283286698  0.3155471503596488   F   F   F
  0.1548500727526161  0.8751896285427563  0.3155471503596488   F   F   F
  0.1548500727526161  0.1251896283286698  0.3155471503596488   F   F   F
  0.1548500727526161  0.3751896285427563  0.3155471503596488   F   F   F
  0.2468324466680977  0.3722721798366938  0.5562603579085279   T   T   T
  0.2471150420894469  0.6225619022018711  0.5563966468111314   T   T   T
  0.2474267827716898  0.8721481816651470  0.5562637648702542   T   T   T
  0.2475913567931172  0.1222453352131569  0.5562631914784295   T   T   T
  0.2498166739380606  0.1248921300314730  0.3878216022006944   T   T   T
  0.2498244083016045  0.8748937322341399  0.3878468723418817   T   T   T
  0.2498337528335295  0.9998880280727346  0.3872445520525447   T   T   T
  0.2498392904027795  0.2498359837820098  0.3872389645852924   T   T   T
  0.2498377166101237  0.7498783320435335  0.3872501012395327   T   T   T
  0.2498618631735449  0.6249599800584041  0.3878838723839403   T   T   T
  0.2498977911887027  0.4998549905208227  0.3874615160000196   T   T   T
  0.2499221823247403  0.3749229500312646  0.3880204366715467   T   T   T
  0.2502659079606815  0.6250292589019324  0.1993221157413743   F   F   F
  0.2502659079606815  0.8750292591160189  0.1993221157413743   F   F   F
  0.2502659079606815  0.1250292589019324  0.1993221157413743   F   F   F
  0.2502659079606815  0.3750292591160189  0.1993221157413743   F   F   F
  0.2502818138619602  0.0000100119032282  0.1992701427899632   F   F   F
  0.2502818138619602  0.5000100119032282  0.1992701427899632   F   F   F
  0.2502818138619602  0.7500100121173077  0.1992701427899632   F   F   F
  0.2502818138619602  0.2500100121173077  0.1992701427899632   F   F   F
  0.2563647401492480  0.4922806912445081  0.5618833167402411   T   T   T
  0.2589109697558327  0.2417922885524313  0.5621721771092377   T   T   T
  0.2591616476879853  0.7419099935700414  0.5623137759021748   T   T   T
  0.2591629852931998  0.9917943278104395  0.5623612429199505   T   T   T
  0.3452374977790953  0.6246790182669955  0.3159667218028375   F   F   F
  0.3452374977790953  0.8746790184810820  0.3159667218028375   F   F   F
  0.3452374977790953  0.1246790182669955  0.3159667218028375   F   F   F
  0.3452374977790953  0.3746790184810820  0.3159667218028375   F   F   F
  0.3452603590954908  0.9997083480310920  0.3159103144045119   F   F   F
  0.3452603590954908  0.4997083480310920  0.3159103144045119   F   F   F
  0.3452603590954908  0.7497083482451785  0.3159103144045119   F   F   F
  0.3452603590954908  0.2497083482451785  0.3159103144045119   F   F   F
  0.3481851740604343  0.2488773502500002  0.4883148125735232   T   T   T
  0.3482886457287457  0.7492134506606423  0.4883020286621347   T   T   T
  0.3483375327844442  0.9990229978645857  0.4883281174874476   T   T   T
  0.3483994716324108  0.4990424541633950  0.4889626130694564   T   T   T
  0.3489362110780474  0.6232918463131295  0.4882178391213139   T   T   T
  0.3489516964536276  0.1228180752482766  0.4881564804174413   T   T   T
  0.3489885273991650  0.8730366064251281  0.4882030801017505   T   T   T
  0.3495405937452397  0.3727263060341605  0.4887085862565508   T   T   T
  0.3997965139015869  0.3704593303119744  0.5729813545971181   T   T   T
  0.4008231273910807  0.4991539869333786  0.4023739448253200   T   T   T
  0.4008336680347239  0.9990713632504944  0.4022661675201654   T   T   T
  0.4008236378149326  0.2490630403905211  0.4022897960790799   T   T   T
  0.4008839082761313  0.7490903095736138  0.4022692287998703   T   T   T
  0.4011148052622381  0.3742672560898902  0.4025523978725435   T   T   T
  0.4011765144423723  0.1241683008656417  0.4024928957661985   T   T   T
  0.4011833796722800  0.6240587810335548  0.4025531653334082   T   T   T
  0.4011815181540237  0.8741894114767825  0.4024947952561385   T   T   T
  0.4013490717392799  0.5003044692374609  0.5707057988346347   T   T   T
  0.4016221203862642  0.6209179796051857  0.5715075754971554   T   T   T
  0.4019231297990818  0.1212292777018979  0.5715619105033609   T   T   T
  0.4020315686619546  0.8713057610733075  0.5715510214293598   T   T   T
  0.4058965648201962  0.6248444726427422  0.2323487498175751   F   F   F
  0.4058965648201962  0.8748444728568288  0.2323487498175751   F   F   F
  0.4058965648201962  0.1248444726427422  0.2323487498175751   F   F   F
  0.4058965648201962  0.3748444728568288  0.2323487498175751   F   F   F
  0.4059506995515889  0.9998103570065027  0.2323399901691943   F   F   F
  0.4059506995515889  0.4998103570065027  0.2323399901691943   F   F   F
  0.4059506995515889  0.7498103572205892  0.2323399901691943   F   F   F
  0.4059506995515889  0.2498103572205892  0.2323399901691943   F   F   F
  0.4068204769433552  0.2499209405255978  0.5682990359820718   T   T   T
  0.4071826837506883  0.7497961464155262  0.5685836523330381   T   T   T
  0.4072314061864368  0.9996570804800976  0.5685266183527431   T   T   T
  0.4999269181759618  0.6232156434024666  0.4756941936042539   T   T   T
  0.4999740279543098  0.7491055442559366  0.4727045318190873   T   T   T
  0.4999949479780791  0.1230951195471019  0.4754958911028185   T   T   T
  0.4999832131648655  0.2492794755014659  0.4730568822157341   T   T   T
  0.5000000000000000  0.9996370422826644  0.3031199056678844   F   F   F
  0.5000000000000000  0.4996370422826644  0.3031199056678844   F   F   F
  0.5000000000000000  0.6247350156471256  0.3031143997625279   F   F   F
  0.5000000000000000  0.7496370424967509  0.3031199056678844   F   F   F
  0.5000000000000000  0.8747350158612122  0.3031143997625279   F   F   F
  0.5000000000000000  0.1247350156471256  0.3031143997625279   F   F   F
  0.5000000000000000  0.2496370424967509  0.3031199056678844   F   F   F
  0.5000000000000000  0.3747350158612122  0.3031143997625279   F   F   F
  0.5000082149327036  0.9991715626138834  0.4727371618727174   T   T   T
  0.5000068485973876  0.8730406305653329  0.4755274345512849   T   T   T
  0.5000541492719237  0.4991178973317447  0.4730788778031524   T   T   T
  0.5000544579779643  0.3730638370245746  0.4746521466411419   T   T   T
  0.8468536374303517  0.5692428009459344  0.5365302961891365   T   T   T
  0.8470311351032503  0.0696735686116680  0.5367305378457338   T   T   T
  0.8470734191857600  0.8197845747476290  0.5367875262017200   T   T   T
  0.8477241494294404  0.3195044406478085  0.5367907576295854   T   T   T
  0.1519920966928985  0.3195677201881207  0.5368259962218019   T   T   T
  0.1525030640362889  0.5695437100872379  0.5367227969142627   T   T   T
  0.1529152081763563  0.8198026328884912  0.5367923123856817   T   T   T
  0.1529749367025939  0.0695549665458784  0.5366723805973864   T   T   T
  0.4999703004719632  0.2585611218675566  0.5393167842173074   T   T   T
  0.4999927895540806  0.0066210654646790  0.5389939677762183   T   T   T
  0.4999764377767346  0.7562905426351719  0.5389952909393931   T   T   T
  0.5007676021796901  0.5055399988511305  0.5393443909681729   T   T   T
  0.0000000000000000  0.0000718854908470  0.1971343718238288   F   F   F
  0.0000000000000000  0.5000718854908470  0.1971343718238288   F   F   F
  0.0000000000000000  0.6251997477026094  0.1971274191543344   F   F   F
  0.0000000000000000  0.7500718857049335  0.1971343718238288   F   F   F
  0.0000000000000000  0.8751997479166960  0.1971274191543344   F   F   F
  0.0000000000000000  0.1251997477026094  0.1971274191543344   F   F   F
  0.0000000000000000  0.2500718857049335  0.1971343718238288   F   F   F
  0.0000000000000000  0.3751997479166960  0.1971274191543344   F   F   F
  0.9999950027322417  0.6256242196997779  0.3693338474990053   T   T   T
  0.9999942428854239  0.8785041060505736  0.5422126614124764   T   T   T
  0.0000181072365772  0.5006949327324336  0.3693499438550027   T   T   T
  0.0000120446186680  0.0010981040582765  0.5415672561941326   T   T   T
  0.0000161415760834  0.2506440251619073  0.3693744858115318   T   T   T
  0.0000345243871606  0.3756253166449625  0.3693174100824063   T   T   T
  0.5826617485954912  0.5622475047824267  0.2840383746124928   F   F   F
  0.5826617485954912  0.0622475047824267  0.2840383746124928   F   F   F
  0.5826617485954912  0.8122475045683402  0.2840383746124928   F   F   F
  0.5826617485954912  0.3122475045683402  0.2840383746124928   F   F   F
  0.5827027102256537  0.4372504995116770  0.2840867749422387   F   F   F
  0.5827027102256537  0.6872504992975905  0.2840867749422387   F   F   F
  0.5827027102256537  0.9372504995116770  0.2840867749422387   F   F   F
  0.5827027102256537  0.1872504992975905  0.2840867749422387   F   F   F
  0.5838393838758635  0.6861601896776174  0.4541117082841615   T   T   T
  0.5838675145889161  0.1861262368237820  0.4541859661167053   T   T   T
  0.5838652360791025  0.4362670151815185  0.4541753513225948   T   T   T
  0.5839290013425081  0.9361586019194672  0.4541394288771182   T   T   T
  0.5839754416726453  0.5610746532363359  0.4545567239459503   T   T   T
  0.5840854321376118  0.0611710536332011  0.4543137025526313   T   T   T
  0.5840783632627151  0.3110984307028204  0.4541850478489972   T   T   T
  0.5841194745080109  0.8112105905940533  0.4543373660051730   T   T   T
  0.6600302170533956  0.6854984991729005  0.5423834645512643   T   T   T
  0.6602106800580666  0.1848071846024177  0.5421829277392014   T   T   T
  0.6602345703533433  0.9352307025797220  0.5423133314250062   T   T   T
  0.6648302226461240  0.4354663278283959  0.5407415806312632   T   T   T
  0.6656630292367254  0.4374555758991647  0.2027209846340057   F   F   F
  0.6656630292367254  0.6874555756850853  0.2027209846340057   F   F   F
  0.6656630292367254  0.9374555758991647  0.2027209846340057   F   F   F
  0.6656630292367254  0.1874555756850853  0.2027209846340057   F   F   F
  0.6657072857987743  0.5624132520265661  0.2026937805471647   F   F   F
  0.6657072857987743  0.0624132520265661  0.2026937805471647   F   F   F
  0.6657072857987743  0.8124132518124867  0.2026937805471647   F   F   F
  0.6657072857987743  0.3124132518124867  0.2026937805471647   F   F   F
  0.6676704157834727  0.6869602955102787  0.3684862814702962   T   T   T
  0.6676627928609148  0.8121243779112499  0.3685443149567776   T   T   T
  0.6676881541148506  0.9369739519323933  0.3684729153865218   T   T   T
  0.6677088197099399  0.0621435138381061  0.3685261682155315   T   T   T
  0.6677084107366132  0.4370103728252033  0.3685291303714955   T   T   T
  0.6677326017438456  0.1869758618913232  0.3684615691175507   T   T   T
  0.6678089724694064  0.3121320929942175  0.3685038680698752   T   T   T
  0.6678399735785714  0.5621566106259669  0.3684630119365805   T   T   T
  0.6687928201434418  0.0592241539183584  0.5437994587225232   T   T   T
  0.6688579406557951  0.8096052808031299  0.5437030286103863   T   T   T
  0.6693412330937000  0.5600661499720510  0.5441474761327353   T   T   T
  0.6698271343141894  0.3085488277110044  0.5438470819466971   T   T   T
  0.7493371085213295  0.9982588319052829  0.4550207380786002   T   T   T
  0.7493415069296677  0.6264309795309608  0.4560263782691688   T   T   T
  0.7493536332057861  0.7482995990699416  0.4550583548463000   T   T   T
  0.7494363700358608  0.2483072683517531  0.4550318851185585   T   T   T
  0.7494451298453513  0.1263316760560850  0.4558814079036067   T   T   T
  0.7495099440388502  0.8763518151060520  0.4559163054687287   T   T   T
  0.7495743517610965  0.4983096819343006  0.4551598885645475   T   T   T
  0.7496720358035547  0.3762150339125695  0.4558860080796643   T   T   T
  0.7497932119634427  0.6250918038603928  0.2779408447549940   F   F   F
  0.7497932119634427  0.8750918040744793  0.2779408447549940   F   F   F
  0.7497932119634427  0.1250918038603928  0.2779408447549940   F   F   F
  0.7497932119634427  0.3750918040744793  0.2779408447549940   F   F   F
  0.7498000177344295  0.9998887643854673  0.2779024730268418   F   F   F
  0.7498000177344295  0.4998887643854673  0.2779024730268418   F   F   F
  0.7498000177344295  0.7498887645995538  0.2779024730268418   F   F   F
  0.7498000177344295  0.2498887645995538  0.2779024730268418   F   F   F
  0.0822610313545377  0.4387677884266791  0.4534152256797197   T   T   T
  0.0822488553290859  0.6888022361464572  0.4535561833891606   T   T   T
  0.0822747630197464  0.9387912907072351  0.4536210146501160   T   T   T
  0.0822847689104888  0.1887766050671279  0.4535615065024860   T   T   T
  0.0825727650034978  0.4376830284600572  0.2837096284632494   F   F   F
  0.0825727650034978  0.6876830282459707  0.2837096284632494   F   F   F
  0.0825727650034978  0.9376830284600572  0.2837096284632494   F   F   F
  0.0825727650034978  0.1876830282459707  0.2837096284632494   F   F   F
  0.0826029583302130  0.5626929404925889  0.2836274496354534   F   F   F
  0.0826029583302130  0.0626929404925889  0.2836274496354534   F   F   F
  0.0826029583302130  0.8126929402785024  0.2836274496354534   F   F   F
  0.0826029583302130  0.3126929402785024  0.2836274496354534   F   F   F
  0.8293424070698951  0.6916018508639695  0.5428675119158942   T   T   T
  0.8294157240061516  0.9416673218613978  0.5429593382830604   T   T   T
  0.8298117405896622  0.1914658890323184  0.5428158278393057   T   T   T
  0.8316821887138577  0.4415807248266287  0.5428466045227449   T   T   T
  0.8320789958114866  0.6877732084210436  0.3677896023507056   T   T   T
  0.8321068837983243  0.9377487513057720  0.3677886265464377   T   T   T
  0.8320972491174987  0.4377665878035484  0.3677690296686466   T   T   T
  0.8321365067744364  0.1877348021305607  0.3677592258158059   T   T   T
  0.8322235684096847  0.5628328938275043  0.3679380556797028   T   T   T
  0.8323735423523854  0.8128009309243748  0.3680496202647210   T   T   T
  0.8323415119763633  0.3127696993279682  0.3679769649321304   T   T   T
  0.8323881992324184  0.0627830027131212  0.3680329763411017   T   T   T
  0.8336793151700448  0.5625684457322180  0.2026879705260853   F   F   F
  0.8336793151700448  0.0625684457322180  0.2026879705260853   F   F   F
  0.8336793151700448  0.8125684455181315  0.2026879705260853   F   F   F
  0.8336793151700448  0.3125684455181315  0.2026879705260853   F   F   F
  0.8337395527315365  0.4376312579759087  0.2027221981443361   F   F   F
  0.8337395527315365  0.6876312577618222  0.2027221981443361   F   F   F
  0.8337395527315365  0.9376312579759087  0.2027221981443361   F   F   F
  0.8337395527315365  0.1876312577618222  0.2027221981443361   F   F   F
  0.0851005192508971  0.5637383289392047  0.4540668046194631   T   T   T
  0.0851318561906027  0.3136160829099873  0.4542313585642705   T   T   T
  0.0851581097921174  0.0636642143159946  0.4542940329682400   T   T   T
  0.0851586507727557  0.8136962018409540  0.4543261248056813   T   T   T
  0.9147671926212302  0.0636761671552411  0.4543223652089399   T   T   T
  0.9147818436970903  0.8136857339299802  0.4543390381114531   T   T   T
  0.9149171901955112  0.5637444015903851  0.4540314734289870   T   T   T
  0.9149481153784140  0.3136194929762635  0.4542141835936819   T   T   T
  0.9173970416697870  0.5626929404925889  0.2836274496354534   F   F   F
  0.9173970416697870  0.0626929404925889  0.2836274496354534   F   F   F
  0.9173970416697870  0.8126929402785024  0.2836274496354534   F   F   F
  0.9173970416697870  0.3126929402785024  0.2836274496354534   F   F   F
  0.9174272349965022  0.4376830284600572  0.2837096284632494   F   F   F
  0.9174272349965022  0.6876830282459707  0.2837096284632494   F   F   F
  0.9174272349965022  0.9376830284600572  0.2837096284632494   F   F   F
  0.9174272349965022  0.1876830282459707  0.2837096284632494   F   F   F
  0.9176779312950567  0.6887882679429495  0.4535987776887848   T   T   T
  0.9176925980582755  0.1887943616736758  0.4535766538790649   T   T   T
  0.9176842414065753  0.9387873481423679  0.4536211705121522   T   T   T
  0.9178865125303400  0.4387741080033519  0.4534706355906351   T   T   T
  0.9996752574882740  0.6286985915466079  0.5421340906644274   T   T   T
  0.9997270937262730  0.5012557701693798  0.5410600366067854   T   T   T
  0.9998397133334216  0.3787495983576271  0.5418975270302725   T   T   T
  0.9998798683278020  0.7509889630376773  0.5415272527996928   T   T   T
  0.9999253523876750  0.2509087558425047  0.5415050810619381   T   T   T
  0.9999596619311580  0.1285443114138994  0.5421173186801733   T   T   T
  0.9999846295450641  0.8756357204435794  0.3693484649571368   T   T   T
  0.9999833948145141  0.0006555319632803  0.3693879600970800   T   T   T
  0.9999819414911933  0.7506664260891970  0.3693873819581616   T   T   T
  0.9999976750873762  0.1255833149842798  0.3693496139178680   T   T   T
  0.1662604174500757  0.4376312579759087  0.2027221981443361   F   F   F
  0.1662604174500757  0.6876312577618222  0.2027221981443361   F   F   F
  0.1662604174500757  0.9376312579759087  0.2027221981443361   F   F   F
  0.1662604174500757  0.1876312577618222  0.2027221981443361   F   F   F
  0.1663206550115603  0.5625684457322180  0.2026879705260853   F   F   F
  0.1663206550115603  0.0625684457322180  0.2026879705260853   F   F   F
  0.1663206550115603  0.8125684455181315  0.2026879705260853   F   F   F
  0.1663206550115603  0.3125684455181315  0.2026879705260853   F   F   F
  0.1676109849322303  0.0627809533728982  0.3680258304346967   T   T   T
  0.1676086383642760  0.8128051398992874  0.3680372355496417   T   T   T
  0.1677468423114513  0.3127836172778886  0.3679925634316483   T   T   T
  0.1678156390289819  0.5628129838205606  0.3679372364161044   T   T   T
  0.1678757392050895  0.9377483559351567  0.3677863063594164   T   T   T
  0.1678674544286396  0.1877314656265964  0.3677547796854471   T   T   T
  0.1678767280322048  0.6877745535205817  0.3677680063316104   T   T   T
  0.1679665289386047  0.4377499777635807  0.3677739845932432   T   T   T
  0.1680538938137657  0.4415311478387512  0.5426305840050905   T   T   T
  0.1699596729321283  0.1913576435840841  0.5427952791982453   T   T   T