Ta  N Cu                                
   1.00000000000000     
     9.0548154099999998    0.0000000000000000    0.0000000000000000
     0.0000000000000000   11.6775998899999998    0.0000000000000000
     0.0000000000000000    0.0000000000000000   23.4818170799999990
   Ta   N    Cu
    60    60     1
Selective dynamics
Direct
  0.0000000000000000  0.0000000000000000  0.2546926809530987   F   F   F
  0.6670845899906297  0.1250000003211298  0.2638822399803757   F   F   F
  0.3329153514769843  0.1250000003211298  0.2638822399803757   F   F   F
  0.4999999994478088  0.2499999997859135  0.3618861993156202   F   F   F
  0.1650707596845180  0.1250000003211298  0.3684425577811794   F   F   F
  0.8349292403154820  0.1250000003211298  0.3684425577811794   F   F   F
 -0.0000248739375119  0.2499914395831993  0.4798223401451242   T   T   T
  0.6647863590771251  0.1250539012951657  0.4781356280577833   T   T   T
  0.3347847981566376  0.1250892635033393  0.4782718048204588   T   T   T
  0.4991250821021189  0.2499581795663079  0.5910886955779689   T   T   T
  0.1674336537885410  0.1250210366731964  0.5903303673169177   T   T   T
  0.8316397729673991  0.1250166906681744  0.5899098922645898   T   T   T
  0.9992738556022261  0.2507936963172164  0.7018450555316990   T   T   T
  0.6718141713033895  0.1251285344499981  0.7039627630704292   T   T   T
  0.3301947609711735  0.1235611424907548  0.7049574275084534   T   T   T
  0.0000000000000000  0.2499999997859135  0.2546926809530987   F   F   F
  0.6670845899906297  0.3750000001070433  0.2638822399803757   F   F   F
  0.3329153514769843  0.3750000001070433  0.2638822399803757   F   F   F
  0.4999999994478088  0.5000000004281731  0.3618861993156202   F   F   F
  0.1650707596845180  0.3750000001070433  0.3684425577811794   F   F   F
  0.8349292403154820  0.3750000001070433  0.3684425577811794   F   F   F
 -0.0000227832947540  0.5000465898436943  0.4798194224673256   T   T   T
  0.6647090810033193  0.3750047568793612  0.4780696713012018   T   T   T
  0.3346104199997539  0.3750207502092843  0.4782320729470098   T   T   T
  0.4991217835350764  0.5001962162943697  0.5910652003983864   T   T   T
  0.1673228727038058  0.3750978547181734  0.5904123656650049   T   T   T
  0.8316921487794431  0.3750550664939261  0.5899795198980458   T   T   T
  0.9992528497186179  0.4995544815032511  0.7018182032495782   T   T   T
  0.6718979207203555  0.3751325233868418  0.7036515357484548   T   T   T
  0.3365234553258479  0.3752269154988031  0.7023461367949612   T   T   T
  0.0000000000000000  0.5000000004281731  0.2546926809530987   F   F   F
  0.6670845899906297  0.6249999998929567  0.2638822399803757   F   F   F
  0.3329153514769843  0.6249999998929567  0.2638822399803757   F   F   F
  0.4999999994478088  0.7500000002140865  0.3618861993156202   F   F   F
  0.1650707596845180  0.6249999998929567  0.3684425577811794   F   F   F
  0.8349292403154820  0.6249999998929567  0.3684425577811794   F   F   F
 -0.0000268124744970  0.7500076759430052  0.4797623797298751   T   T   T
  0.6647824064640517  0.6249698867736571  0.4781315804221913   T   T   T
  0.3347927201060968  0.6249607566741131  0.4782620622752193   T   T   T
  0.4995340803794583  0.7502355300013851  0.5908150705925430   T   T   T
  0.1674619170988721  0.6251741618683935  0.5903000439783227   T   T   T
  0.8316598596823332  0.6250955331635483  0.5898833211473529   T   T   T
  0.0004566701176840  0.7500178342386140  0.7020377659733785   T   T   T
  0.6718442126557044  0.6250749952033448  0.7039333161271856   T   T   T
  0.3302727573198097  0.6269825045817033  0.7048861609564684   T   T   T
  0.0000000000000000  0.7500000002140865  0.2546926809530987   F   F   F
  0.6670845899906297  0.8750000005352163  0.2638822399803757   F   F   F
  0.3329153514769843  0.8750000005352163  0.2638822399803757   F   F   F
  0.4999999994478088  0.0000000000000000  0.3618861993156202   F   F   F
  0.1650707596845180  0.8750000005352163  0.3684425577811794   F   F   F
  0.8349292403154820  0.8750000005352163  0.3684425577811794   F   F   F
 -0.0000266058857195  0.0000487493371041  0.4797660521382932   T   T   T
  0.6646546769073048  0.8750197185472022  0.4780984855685574   T   T   T
  0.3348716181933117  0.8750273455613692  0.4781712141919045   T   T   T
  0.4994947450507546  0.9999322892906640  0.5908345330654388   T   T   T
  0.1674043653311413  0.8751004082661824  0.5901297573162301   T   T   T
  0.8319395458322112  0.8750544532385993  0.5899211671596949   T   T   T
  0.0004960099785639  0.0002679317786872  0.7020766894479696   T   T   T
  0.6710294280142902  0.8751270626918000  0.7041408946446810   T   T   T
  0.3285465595430518  0.8752454809927211  0.7043086257227593   T   T   T
  0.8141011533980276  0.0000000000000000  0.3013105672926031   F   F   F
  0.4999999994478088  0.0000000000000000  0.2564174481620327   F   F   F
  0.1858988466019724  0.0000000000000000  0.3013105672926031   F   F   F
  0.3088456122590841  0.2499999997859135  0.4099867722441957   F   F   F
  0.0000000000000000  0.2499999997859135  0.3930971035158137   F   F   F
  0.6911543877409159  0.2499999997859135  0.4099867722441957   F   F   F
  0.8021594438686577  0.2500125509204567  0.5220228114296188   T   T   T
  0.4996813432202957  0.2501882801232856  0.5030080099021248   T   T   T
  0.1974817327602018  0.2500308060729019  0.5223380582839958   T   T   T
  0.3026828635811704  0.2493217400247116  0.6341892913439086   T   T   T
  0.9992993046384331  0.2500248292003050  0.6135852378024240   T   T   T
  0.6957177811220547  0.2496749851579411  0.6331610758678358   T   T   T
  0.8070991921960224  0.2504323197369205  0.7404166290851514   T   T   T
  0.5012013591035968  0.2505682105169275  0.7242233850168993   T   T   T
  0.1949616088292949  0.2485638842957448  0.7436841913568718   T   T   T
  0.8141011533980276  0.2499999997859135  0.3013105672926031   F   F   F
  0.4999999994478088  0.2499999997859135  0.2564174481620327   F   F   F
  0.1858988466019724  0.2499999997859135  0.3013105672926031   F   F   F
  0.3088456122590841  0.5000000004281731  0.4099867722441957   F   F   F
  0.0000000000000000  0.5000000004281731  0.3930971035158137   F   F   F
  0.6911543877409159  0.5000000004281731  0.4099867722441957   F   F   F
  0.8021540159461666  0.5000158654048085  0.5220154933923569   T   T   T
  0.4996741264906737  0.4998404175298690  0.5029948314040180   T   T   T
  0.1974936511339721  0.5000710014405191  0.5223272894361132   T   T   T
  0.3026998956720681  0.5009508778732955  0.6341484076899325   T   T   T
  0.9993158578224771  0.5001421032321567  0.6135599820383756   T   T   T
  0.6957036260674332  0.5004617370894373  0.6331378918984202   T   T   T
  0.8070823911515113  0.4997777735330701  0.7404110254538584   T   T   T
  0.5012354254400916  0.4997457146778204  0.7241966145521053   T   T   T
  0.1949578541879652  0.5021091357154344  0.7435917215060620   T   T   T
  0.8141011533980276  0.5000000004281731  0.3013105672926031   F   F   F
  0.4999999994478088  0.5000000004281731  0.2564174481620327   F   F   F
  0.1858988466019724  0.5000000004281731  0.3013105672926031   F   F   F
  0.3088456122590841  0.7500000002140865  0.4099867722441957   F   F   F
  0.0000000000000000  0.7500000002140865  0.3930971035158137   F   F   F
  0.6911543877409159  0.7500000002140865  0.4099867722441957   F   F   F
  0.8021908441182160  0.7500580353860236  0.5220323317369067   T   T   T
  0.4998079756425850  0.7500227068035062  0.5028191573859537   T   T   T
  0.1975462145879763  0.7499854492747989  0.5222352793487307   T   T   T
  0.3035900268446644  0.7502107142630038  0.6334358595660134   T   T   T
  0.9995756858234098  0.7501302797577351  0.6136012927531962   T   T   T
  0.6955540368761444  0.7502607042180606  0.6331461373471627   T   T   T
  0.8065648446666168  0.7502066108340351  0.7402825893792198   T   T   T
  0.4996730558477476  0.7493482239519380  0.7239545618230629   T   T   T
  0.1940398216898568  0.7502561549495451  0.7409066774498018   T   T   T
  0.8141011533980276  0.7500000002140865  0.3013105672926031   F   F   F
  0.4999999994478088  0.7500000002140865  0.2564174481620327   F   F   F
  0.1858988466019724  0.7500000002140865  0.3013105672926031   F   F   F
  0.3088456122590841  0.0000000000000000  0.4099867722441957   F   F   F
  0.0000000000000000  0.0000000000000000  0.3930971035158137   F   F   F
  0.6911543877409159  0.0000000000000000  0.4099867722441957   F   F   F
  0.8021920027510593  0.9999945965467628  0.5220406018735361   T   T   T
  0.4998047134224621  0.0000303871018819  0.5028326902067559   T   T   T
  0.1975318848403410  0.0001328313077359  0.5222502143275193   T   T   T
  0.3035590678677195  0.0000817943043631  0.6334631833429479   T   T   T
  0.9995460223590640  0.0000357402518880  0.6136425415137519   T   T   T
  0.6955234690398658  0.9998484606902492  0.6331675212467854   T   T   T
  0.8065704414219987 -0.0000143304073631  0.7403069315250285   T   T   T
  0.4996236263883391  0.0010010652715168  0.7239852997736510   T   T   T
  0.1940983388848224  0.0002198754651490  0.7409331110090456   T   T   T
  0.1426400692851538  0.3754954899279063  0.7919888827740877   T   T   T
 
  0.00000000E+00  0.00000000E+00  0.00000000E+00
  0.00000000E+00  0.00000000E+00  0.00000000E+00
  0.00000000E+00  0.00000000E+00  0.00000000E+00
  0.00000000E+00  0.00000000E+00  0.00000000E+00
  0.00000000E+00  0.00000000E+00  0.00000000E+00
  0.00000000E+00  0.00000000E+00  0.00000000E+00
  0.00000000E+00  0.00000000E+00  0.00000000E+00
  0.00000000E+00  0.00000000E+00  0.00000000E+00
  0.00000000E+00  0.00000000E+00  0.00000000E+00
  0.00000000E+00  0.00000000E+00  0.00000000E+00
  0.00000000E+00  0.00000000E+00  0.00000000E+00
  0.00000000E+00  0.00000000E+00  0.00000000E+00
  0.00000000E+00  0.00000000E+00  0.00000000E+00
  0.00000000E+00  0.00000000E+00  0.00000000E+00
  0.00000000E+00  0.00000000E+00  0.00000000E+00
  0.00000000E+00  0.00000000E+00  0.00000000E+00
  0.00000000E+00  0.00000000E+00  0.00000000E+00
  0.00000000E+00  0.00000000E+00  0.00000000E+00
  0.00000000E+00  0.00000000E+00  0.00000000E+00
  0.00000000E+00  0.00000000E+00  0.00000000E+00
  0.00000000E+00  0.00000000E+00  0.00000000E+00
  0.00000000E+00  0.00000000E+00  0.00000000E+00
  0.00000000E+00  0.00000000E+00  0.00000000E+00
  0.00000000E+00  0.00000000E+00  0.00000000E+00
  0.00000000E+00  0.00000000E+00  0.00000000E+00
  0.00000000E+00  0.00000000E+00  0.00000000E+00
  0.00000000E+00  0.00000000E+00  0.00000000E+00
  0.00000000E+00  0.00000000E+00  0.00000000E+00
  0.00000000E+00  0.00000000E+00  0.00000000E+00
  0.00000000E+00  0.00000000E+00  0.00000000E+00
  0.00000000E+00  0.00000000E+00  0.00000000E+00
  0.00000000E+00  0.00000000E+00  0.00000000E+00
  0.00000000E+00  0.00000000E+00  0.00000000E+00
  0.00000000E+00  0.00000000E+00  0.00000000E+00
  0.00000000E+00  0.00000000E+00  0.00000000E+00
  0.00000000E+00  0.00000000E+00  0.00000000E+00
  0.00000000E+00  0.00000000E+00  0.00000000E+00
  0.00000000E+00  0.00000000E+00  0.00000000E+00
  0.00000000E+00  0.00000000E+00  0.00000000E+00
  0.00000000E+00  0.00000000E+00  0.00000000E+00
  0.00000000E+00  0.00000000E+00  0.00000000E+00
  0.00000000E+00  0.00000000E+00  0.00000000E+00
  0.00000000E+00  0.00000000E+00  0.00000000E+00
  0.00000000E+00  0.00000000E+00  0.00000000E+00
  0.00000000E+00  0.00000000E+00  0.00000000E+00
  0.00000000E+00  0.00000000E+00  0.00000000E+00
  0.00000000E+00  0.00000000E+00  0.00000000E+00
  0.00000000E+00  0.00000000E+00  0.00000000E+00
  0.00000000E+00  0.00000000E+00  0.00000000E+00
  0.00000000E+00  0.00000000E+00  0.00000000E+00
  0.00000000E+00  0.00000000E+00  0.00000000E+00
  0.00000000E+00  0.00000000E+00  0.00000000E+00
  0.00000000E+00  0.00000000E+00  0.00000000E+00
  0.00000000E+00  0.00000000E+00  0.00000000E+00
  0.00000000E+00  0.00000000E+00  0.00000000E+00
  0.00000000E+00  0.00000000E+00  0.00000000E+00
  0.00000000E+00  0.00000000E+00  0.00000000E+00
  0.00000000E+00  0.00000000E+00  0.00000000E+00
  0.00000000E+00  0.00000000E+00  0.00000000E+00
  0.00000000E+00  0.00000000E+00  0.00000000E+00
  0.00000000E+00  0.00000000E+00  0.00000000E+00
  0.00000000E+00  0.00000000E+00  0.00000000E+00
  0.00000000E+00  0.00000000E+00  0.00000000E+00
  0.00000000E+00  0.00000000E+00  0.00000000E+00
  0.00000000E+00  0.00000000E+00  0.00000000E+00
  0.00000000E+00  0.00000000E+00  0.00000000E+00
  0.00000000E+00  0.00000000E+00  0.00000000E+00
  0.00000000E+00  0.00000000E+00  0.00000000E+00
  0.00000000E+00  0.00000000E+00  0.00000000E+00
  0.00000000E+00  0.00000000E+00  0.00000000E+00
  0.00000000E+00  0.00000000E+00  0.00000000E+00
  0.00000000E+00  0.00000000E+00  0.00000000E+00
  0.00000000E+00  0.00000000E+00  0.00000000E+00
  0.00000000E+00  0.00000000E+00  0.00000000E+00
  0.00000000E+00  0.00000000E+00  0.00000000E+00
  0.00000000E+00  0.00000000E+00  0.00000000E+00
  0.00000000E+00  0.00000000E+00  0.00000000E+00
  0.00000000E+00  0.00000000E+00  0.00000000E+00
  0.00000000E+00  0.00000000E+00  0.00000000E+00
  0.00000000E+00  0.00000000E+00  0.00000000E+00
  0.00000000E+00  0.00000000E+00  0.00000000E+00
  0.00000000E+00  0.00000000E+00  0.00000000E+00
  0.00000000E+00  0.00000000E+00  0.00000000E+00
  0.00000000E+00  0.00000000E+00  0.00000000E+00
  0.00000000E+00  0.00000000E+00  0.00000000E+00
  0.00000000E+00  0.00000000E+00  0.00000000E+00
  0.00000000E+00  0.00000000E+00  0.00000000E+00
  0.00000000E+00  0.00000000E+00  0.00000000E+00
  0.00000000E+00  0.00000000E+00  0.00000000E+00
  0.00000000E+00  0.00000000E+00  0.00000000E+00
  0.00000000E+00  0.00000000E+00  0.00000000E+00
  0.00000000E+00  0.00000000E+00  0.00000000E+00
  0.00000000E+00  0.00000000E+00  0.00000000E+00
  0.00000000E+00  0.00000000E+00  0.00000000E+00
  0.00000000E+00  0.00000000E+00  0.00000000E+00
  0.00000000E+00  0.00000000E+00  0.00000000E+00
  0.00000000E+00  0.00000000E+00  0.00000000E+00
  0.00000000E+00  0.00000000E+00  0.00000000E+00
  0.00000000E+00  0.00000000E+00  0.00000000E+00
  0.00000000E+00  0.00000000E+00  0.00000000E+00
  0.00000000E+00  0.00000000E+00  0.00000000E+00
  0.00000000E+00  0.00000000E+00  0.00000000E+00
  0.00000000E+00  0.00000000E+00  0.00000000E+00
  0.00000000E+00  0.00000000E+00  0.00000000E+00
  0.00000000E+00  0.00000000E+00  0.00000000E+00
  0.00000000E+00  0.00000000E+00  0.00000000E+00
  0.00000000E+00  0.00000000E+00  0.00000000E+00
  0.00000000E+00  0.00000000E+00  0.00000000E+00
  0.00000000E+00  0.00000000E+00  0.00000000E+00
  0.00000000E+00  0.00000000E+00  0.00000000E+00
  0.00000000E+00  0.00000000E+00  0.00000000E+00
  0.00000000E+00  0.00000000E+00  0.00000000E+00
  0.00000000E+00  0.00000000E+00  0.00000000E+00
  0.00000000E+00  0.00000000E+00  0.00000000E+00
  0.00000000E+00  0.00000000E+00  0.00000000E+00
  0.00000000E+00  0.00000000E+00  0.00000000E+00
  0.00000000E+00  0.00000000E+00  0.00000000E+00
  0.00000000E+00  0.00000000E+00  0.00000000E+00
  0.00000000E+00  0.00000000E+00  0.00000000E+00
  0.00000000E+00  0.00000000E+00  0.00000000E+00
  0.00000000E+00  0.00000000E+00  0.00000000E+00
