Ru Ta N                                 
   1.00000000000000     
    18.1096308199999996    0.0000000000000000    0.0000000000000000
     0.0000000000000000   23.3551997799999995    0.0000000000000000
     0.0000000000000000    0.0000000000000000   28.4818170799999990
   Ru   Ta   N 
    64   240   240
Direct
  0.0674142540245872  0.0118248099348366  0.6729009041803089
  0.2854787905341472  0.4997045115028941  0.6635265870999865
  0.4411301711785002  0.0602090772486892  0.6578273924557243
  0.0674084814355246  0.2617975436284312  0.6729263737943519
  0.2853780186683667  0.2497039308120292  0.6635416252918460
  0.4410874981498589  0.3102365056645103  0.6578246932116131
  0.0676730742401893  0.1239912108499365  0.6727746713326056
  0.2822807634134522  0.1296353335063626  0.6641088292597367
  0.4459449780737215  0.1872347994167025  0.6596092719239408
  0.0676574597782871  0.3738941767002558  0.6727190228182468
  0.2826674622503418  0.3795679733507027  0.6639697312200001
  0.4459727630944269  0.4372760666036951  0.6596280813632907
  0.1732871748230348  0.4373411234872356  0.6884623150140468
  0.1855284341782708  0.3094707254849510  0.6915075926460298
  0.1731769748448897  0.1873814963499030  0.6885766543507549
  0.1854309768499626  0.0592698249835811  0.6915846598536527
  0.0674142540245872  0.5118248099348365  0.6729009041803089
  0.2854787905341472  0.9997045115028940  0.6635265870999865
  0.4411301711785002  0.5602090772486892  0.6578273924557243
  0.0674084814355246  0.7617975436284312  0.6729263737943519
  0.2853780186683667  0.7497039308120294  0.6635416252918460
  0.4410874981498589  0.8102365056645031  0.6578246932116131
  0.0676730742401893  0.6239912108499365  0.6727746713326056
  0.2822807634134522  0.6296353335063624  0.6641088292597367
  0.4459449780737215  0.6872347994167026  0.6596092719239408
  0.0676574597782871  0.8738941767002557  0.6727190228182468
  0.2826674622503418  0.8795679733507022  0.6639697312200001
  0.4459727630944269  0.9372760666036879  0.6596280813632907
  0.1732871748230348  0.9373411234872355  0.6884623150140468
  0.1855284341782708  0.8094707254849438  0.6915075926460298
  0.1731769748448897  0.6873814963499030  0.6885766543507549
  0.1854309768499626  0.5592698249835812  0.6915846598536527
  0.5674282060215865  0.0117984615674098  0.6728989655551550
  0.7854746833645091  0.4996677205935213  0.6635410530440611
  0.9411308215605462  0.0602385432495595  0.6578460392497996
  0.5673755047788489  0.2617883579741447  0.6729110750098252
  0.7853929864179263  0.2496885106107570  0.6635545644729501
  0.9410773112553136  0.3102167638662289  0.6578122765924146
  0.5676793009918980  0.1239744151458240  0.6727875504890319
  0.7823161013197679  0.1296496859326668  0.6641144532329203
  0.9459635666653059  0.1872386196597544  0.6596139538651369
  0.5677103503307127  0.3738716182891225  0.6727227945683422
  0.7826562717761913  0.3795927077931279  0.6639888382181962
  0.9459918009869083  0.4372956273322716  0.6596336744964929
  0.6732964324022820  0.4374161433849073  0.6885005844318147
  0.6854476290528996  0.3095115391536982  0.6915142231476770
  0.6732118287520159  0.1874357054229067  0.6885785415526455
  0.6853995419241218  0.0593150194518400  0.6915880569399190
  0.5674282060215865  0.5117984615674099  0.6728989655551550
  0.7854746833645091  0.9996677205935212  0.6635410530440611
  0.9411308215605462  0.5602385432495597  0.6578460392497996
  0.5673755047788489  0.7617883579741449  0.6729110750098252
  0.7853929864179263  0.7496885106107571  0.6635545644729501
  0.9410773112553136  0.8102167638662217  0.6578122765924146
  0.5676793009918980  0.6239744151458241  0.6727875504890319
  0.7823161013197679  0.6296496859326668  0.6641144532329203
  0.9459635666653059  0.6872386196597544  0.6596139538651369
  0.5677103503307127  0.8738716182891223  0.6727227945683422
  0.7826562717761913  0.8795927077931281  0.6639888382181962
  0.9459918009869083  0.9372956273322646  0.6596336744964929
  0.6732964324022820  0.9374161433849073  0.6885005844318147
  0.6854476290528996  0.8095115391536911  0.6915142231476770
  0.6732118287520159  0.6874357054229068  0.6885785415526455
  0.6853995419241218  0.5593150194518398  0.6915880569399190
 -0.0003753475371957 -0.0000364554132205  0.2112185730415520
  0.3339438256838956  0.0624457813299089  0.2169283793376045
  0.1656734882889051  0.0624869619810371  0.2170310784709532
  0.2496380332605427  0.1248777014917154  0.2974059439891375
  0.0820753910794792  0.0624168821918006  0.3038086437323012
  0.4168249566545634  0.0624128089775467  0.3040538679044619
  0.0000750043917728  0.1248518479352523  0.3958716756281705
  0.3319785930594546  0.0623504650277507  0.3942157666376526
  0.1676046724739046  0.0623551686294834  0.3937945196245241
  0.2491193715257147  0.1247768116845101  0.4867632672680762
  0.0835955554869553  0.0623975144145985  0.4862233890849011
  0.4158984961024494  0.0622723590394157  0.4861852136718918
  0.4949385689221280  0.1244858770913531  0.5773551251847101
  0.3319439014076833  0.0621138643610244  0.5785037574495856
  0.1650583771580671  0.0625271396964706  0.5804573082318276
 -0.0003824574475791  0.1249358288969215  0.2112156314042856
  0.3339435537114449  0.1874256191358277  0.2169219993835360
  0.1656688965935912  0.1874633245330612  0.2170333159919875
  0.2496428192825413  0.2499248694537372  0.2974283317487599
  0.0820483011947230  0.1874164370395833  0.3038036568787871
  0.4168235962087011  0.1874178821048662  0.3040654871620060
  0.0000852963927905  0.2498586091204072  0.3958854232821933
  0.3320710463733114  0.1873453535836168  0.3942622683005704
  0.1676151973635374  0.1873517614115144  0.3938008063294057
  0.2491078000152464  0.2498790248255119  0.4867812466827730
  0.0834474283669080  0.1873715346128904  0.4864425123111413
  0.4158359485074151  0.1872673842328474  0.4860581149640290
  0.4954660804012058  0.2491482927316448  0.5771562119568590
  0.3319397495487545  0.1870030258224671  0.5776302301303240
  0.1637826639196612  0.1876591797007013  0.5812584763648315
 -0.0003752555359442  0.2499647011854395  0.2112204787326759
  0.3339438339619060  0.3124448417397879  0.2169277011758220
  0.1656741876920406  0.3124866150128506  0.2170306425249769
  0.2496342491082193  0.3748782083517564  0.2974067278935570
  0.0820773763724800  0.3124181279228455  0.3038079970868186
  0.4168238893201334  0.3124134579098313  0.3040528746470545
  0.0000659572448058  0.3748522804339338  0.3958707258069631
  0.3319789970119006  0.3123481867984708  0.3942168397751209
  0.1676071158679164  0.3123527156809223  0.3937969712819234
  0.2491213854560497  0.3747732311209760  0.4867566492282439
  0.0835909079210949  0.3123937898569633  0.4862221473681467
  0.4158904845258840  0.3122619720821618  0.4861899606957547
  0.4947828261297216  0.3744935827618759  0.5773823312728638
  0.3319144371636945  0.3121008877384154  0.5785034048817252
  0.1650318071403137  0.3125220043457370  0.5804581363389486
 -0.0003803445881439  0.3749345235867739  0.2112146573532320
  0.3339389444247990  0.4374272239936087  0.2169215580038104
  0.1656692123176875  0.4374660331456802  0.2170323666599785
  0.2496367764464765 -0.0000720200001086  0.2974280265159686
  0.0820476334098435  0.4374171254006284  0.3038018837001123
  0.4168193524269391  0.4374154383080288  0.3040656616488766
  0.5000805091229542  0.4998635134335823  0.3958847428701558
  0.3320682711348606  0.4373469365487567  0.3942620420542483
  0.1676085714888650  0.4373517363861394  0.3938017594596690
  0.2491033711572185  0.4998865679730444  0.4867683265214577
  0.0834405949946378  0.4373689398294208  0.4864375395027274
  0.4158247916422874  0.4372717905628458  0.4860557103528975
  0.4954409609038739  0.4991566882666726  0.5771509305418685
  0.3318885669384791  0.4370183226595385  0.5775982994388245
  0.1637654447462255  0.4376542526744845  0.5812306145376697
 -0.0003753475371957  0.4999635445867796  0.2112185730415520
  0.3339438256838956  0.5624457813299090  0.2169283793376045
  0.1656734882889051  0.5624869619810371  0.2170310784709532
  0.2496380332605427  0.6248777014917160  0.2974059439891375
  0.0820753910794792  0.5624168821918005  0.3038086437323012
  0.4168249566545634  0.5624128089775468  0.3040538679044619
  0.0000750043917728  0.6248518479352523  0.3958716756281705
  0.3319785930594546  0.5623504650277509  0.3942157666376526
  0.1676046724739046  0.5623551686294833  0.3937945196245241
  0.2491193715257147  0.6247768116845103  0.4867632672680762
  0.0835955554869553  0.5623975144145985  0.4862233890849011
  0.4158984961024494  0.5622723590394156  0.4861852136718918
  0.4949385689221280  0.6244858770913531  0.5773551251847101
  0.3319439014076833  0.5621138643610242  0.5785037574495856
  0.1650583771580671  0.5625271396964633  0.5804573082318276
 -0.0003824574475791  0.6249358288969215  0.2112156314042856
  0.3339435537114449  0.6874256191358203  0.2169219993835360
  0.1656688965935912  0.6874633245330543  0.2170333159919875
  0.2496428192825413  0.7499248694537375  0.2974283317487599
  0.0820483011947230  0.6874164370395760  0.3038036568787871
  0.4168235962087011  0.6874178821048591  0.3040654871620060
  0.0000852963927905  0.7498586091204070  0.3958854232821933
  0.3320710463733114  0.6873453535836171  0.3942622683005704
  0.1676151973635374  0.6873517614115146  0.3938008063294057
  0.2491078000152464  0.7498790248255118  0.4867812466827730
  0.0834474283669080  0.6873715346128904  0.4864425123111413
  0.4158359485074151  0.6872673842328475  0.4860581149640290
  0.4954660804012058  0.7491482927316448  0.5771562119568590
  0.3319397495487545  0.6870030258224668  0.5776302301303240
  0.1637826639196612  0.6876591797007013  0.5812584763648315
 -0.0003752555359442  0.7499647011854395  0.2112204787326759
  0.3339438339619060  0.8124448417397879  0.2169277011758220
  0.1656741876920406  0.8124866150128506  0.2170306425249769
  0.2496342491082193  0.8748782083517562  0.2974067278935570
  0.0820773763724800  0.8124181279228452  0.3038079970868186
  0.4168238893201334  0.8124134579098308  0.3040528746470545
  0.0000659572448058  0.8748522804339340  0.3958707258069631
  0.3319789970119006  0.8123481867984707  0.3942168397751209
  0.1676071158679164  0.8123527156809227  0.3937969712819234
  0.2491213854560497  0.8747732311209757  0.4867566492282439
  0.0835909079210949  0.8123937898569631  0.4862221473681467
  0.4158904845258840  0.8122619720821621  0.4861899606957547
  0.4947828261297216  0.8744935827618758  0.5773823312728638
  0.3319144371636945  0.8121008877384156  0.5785034048817252
  0.1650318071403137  0.8125220043457371  0.5804581363389486
 -0.0003803445881439  0.8749345235867738  0.2112146573532320
  0.3339389444247990  0.9374272239936016  0.2169215580038104
  0.1656692123176875  0.9374660331456732  0.2170323666599785
  0.2496367764464765  0.4999279799998914  0.2974280265159686
  0.0820476334098435  0.9374171254006209  0.3038018837001123
  0.4168193524269391  0.9374154383080218  0.3040656616488766
  0.5000805091229542  0.9998635134335823  0.3958847428701558
  0.3320682711348606  0.9373469365487568  0.3942620420542483
  0.1676085714888650  0.9373517363861323  0.3938017594596690
  0.2491033711572185 -0.0001134320269484  0.4867683265214577
  0.0834405949946378  0.9373689398294209  0.4864375395027274
  0.4158247916422874  0.9372717905628460  0.4860557103528975
  0.4954409609038739  0.9991566882666728  0.5771509305418685
  0.3318885669384791  0.9370183226595381  0.5775982994388245
  0.1637654447462255  0.9376542526744845  0.5812306145376697
  0.4996261485863990 -0.0000361205445925  0.2112186392954638
  0.8339437371848698  0.0624482785398907  0.2169301762024173
  0.6656689243728404  0.0624780056916424  0.2170384362350153
  0.7496377014008294  0.1248750966894056  0.2974100503599657
  0.5820735458319612  0.0624174442172774  0.3038076109753007
  0.9168252921289588  0.0624138005358207  0.3040523772470011
  0.5000796116622847  0.1248508483677127  0.3958748289746051
  0.8319822940664283  0.0623495327879241  0.3942176028696179
  0.6676072431349397  0.0623544091675785  0.3937960351471249
  0.7491225983136406  0.1247792104365623  0.4867671747987242
  0.5835958668882728  0.0623931351985193  0.4862276925187047
  0.9158960884008598  0.0622704919713777  0.4861914903403378
  0.9949369075043198  0.1244873214701549  0.5773586643605706
  0.8319381546347908  0.0621197985374648  0.5785152385828006
  0.6650576636756351  0.0625318909395849  0.5804776936856223
  0.4996213536236225  0.1249348955726431  0.2112154425269772
  0.8339388961320710  0.1874236234033544  0.2169236632363204
  0.6656669566206164  0.1874574838225762  0.2170329491068751
  0.7496375557706184  0.2499211919418674  0.2974316038487256
  0.5820467926301701  0.1874136002736654  0.3038053574889535
  0.9168211714113734  0.1874148173649213  0.3040644792915193
  0.5000857221397774  0.2498575006831232  0.3958858895543851
  0.8320778674500036  0.1873488113024524  0.3942581448127164
  0.6676154530452310  0.1873506322894838  0.3938019262905493
  0.7491153416472508  0.2498809664842642  0.4867799284868320
  0.5834515680367631  0.1873720884519616  0.4864439771145213
  0.9158318080820629  0.1872708831673429  0.4860634582146055
  0.9954591146017677  0.2491437683961426  0.5771595045595338
  0.8319366974538244  0.1870132543147354  0.5776418760349651
  0.6637965000211244  0.1876621265881818  0.5812630242984401
  0.4996265847195461  0.2499624135589557  0.2112185070054694
  0.8339432913754072  0.3124470264806620  0.2169301587987066
  0.6656786166489229  0.3124812578813655  0.2170380909909525
  0.7496359798815435  0.3748756411498479  0.2974104473817980
  0.5820751330297281  0.3124154754956549  0.3038068903754560
  0.9168256971425752  0.3124110138011749  0.3040507334421665
  0.5000638621560759  0.3748497727045755  0.3958697384567499
  0.8319840710910789  0.3123473709076160  0.3942176781643836
  0.6676063594080842  0.3123527066830831  0.3937981484577363
  0.7491151872185318  0.3747775356910236  0.4867528481289451
  0.5835903761948285  0.3123949562313807  0.4862172609112209
  0.9158919948106899  0.3122621730288513  0.4861941098477928
  0.9947728330955284  0.3744928147588700  0.5773839848786376
  0.8319037280898136  0.3121059710938322  0.5785090229400023
  0.6650365040938333  0.3125267701503866  0.5804600446416868
  0.4996231203952039  0.3749337364865278  0.2112142326754246
  0.8339311317052283  0.4374224703005483  0.2169238917060198
  0.6656706818776430  0.4374574332997488  0.2170329292404796
  0.7496383104150095 -0.0000786134331242  0.2974295343151112
  0.5820474546648123  0.4374150382907014  0.3038031123211096
  0.9168210958579984  0.4374163027642847  0.3040641988442323
  0.0000775540510344  0.4998617836287707  0.3958836595115084
  0.8320751801487080  0.4373468005344700  0.3942643543597594
  0.6676119250945493  0.4373519856511753  0.3938004443023165
  0.7491091984020384  0.4998863946422540  0.4867723789641782
  0.5834440084914071  0.4373723754289805  0.4864313966210446
  0.9158287962280663  0.4372707988817245  0.4860625644814620
  0.9954345027275001  0.4991498654188737  0.5771598329510902
  0.8318842836352041  0.4370233232866884  0.5776134661477607
  0.6637679528762301  0.4376629342590671  0.5812308446951155
  0.4996261485863990  0.4999638794554074  0.2112186392954638
  0.8339437371848698  0.5624482785398905  0.2169301762024173
  0.6656689243728404  0.5624780056916426  0.2170384362350153
  0.7496377014008294  0.6248750966894053  0.2974100503599657
  0.5820735458319612  0.5624174442172776  0.3038076109753007
  0.9168252921289588  0.5624138005358206  0.3040523772470011
  0.5000796116622847  0.6248508483677127  0.3958748289746051
  0.8319822940664283  0.5623495327879239  0.3942176028696179
  0.6676072431349397  0.5623544091675786  0.3937960351471249
  0.7491225983136406  0.6247792104365625  0.4867671747987242
  0.5835958668882728  0.5623931351985191  0.4862276925187047
  0.9158960884008598  0.5622704919713776  0.4861914903403378
  0.9949369075043198  0.6244873214701551  0.5773586643605706
  0.8319381546347908  0.5621197985374647  0.5785152385828006
  0.6650576636756351  0.5625318909395781  0.5804776936856223
  0.4996213536236225  0.6249348955726431  0.2112154425269772
  0.8339388961320710  0.6874236234033470  0.2169236632363204
  0.6656669566206164  0.6874574838225693  0.2170329491068751
  0.7496375557706184  0.7499211919418673  0.2974316038487256
  0.5820467926301701  0.6874136002736582  0.3038053574889535
  0.9168211714113734  0.6874148173649143  0.3040644792915193
  0.5000857221397774  0.7498575006831232  0.3958858895543851
  0.8320778674500036  0.6873488113024524  0.3942581448127164
  0.6676154530452310  0.6873506322894840  0.3938019262905493
  0.7491153416472508  0.7498809664842645  0.4867799284868320
  0.5834515680367631  0.6873720884519617  0.4864439771145213
  0.9158318080820629  0.6872708831673431  0.4860634582146055
  0.9954591146017677  0.7491437683961429  0.5771595045595338
  0.8319366974538244  0.6870132543147354  0.5776418760349651
  0.6637965000211244  0.6876621265881817  0.5812630242984401
  0.4996265847195461  0.7499624135589555  0.2112185070054694
  0.8339432913754072  0.8124470264806622  0.2169301587987066
  0.6656786166489229  0.8124812578813656  0.2170380909909525
  0.7496359798815435  0.8748756411498482  0.2974104473817980
  0.5820751330297281  0.8124154754956545  0.3038068903754560
  0.9168256971425752  0.8124110138011753  0.3040507334421665
  0.5000638621560759  0.8748497727045756  0.3958697384567499
  0.8319840710910789  0.8123473709076159  0.3942176781643836
  0.6676063594080842  0.8123527066830831  0.3937981484577363
  0.7491151872185318  0.8747775356910236  0.4867528481289451
  0.5835903761948285  0.8123949562313802  0.4862172609112209
  0.9158919948106899  0.8122621730288510  0.4861941098477928
  0.9947728330955284  0.8744928147588702  0.5773839848786376
  0.8319037280898136  0.8121059710938321  0.5785090229400023
  0.6650365040938333  0.8125267701503863  0.5804600446416868
  0.4996231203952039  0.8749337364865277  0.2112142326754246
  0.8339311317052283  0.9374224703005413  0.2169238917060198
  0.6656706818776430  0.9374574332997415  0.2170329292404796
  0.7496383104150095  0.4999213865668758  0.2974295343151112
  0.5820474546648123  0.9374150382906942  0.3038031123211096
  0.9168210958579984  0.9374163027642777  0.3040641988442323
  0.0000775540510344  0.9998617836287708  0.3958836595115084
  0.8320751801487080  0.9373468005344697  0.3942643543597594
  0.6676119250945493  0.9373519856511684  0.3938004443023165
  0.7491091984020384 -0.0001136053577391  0.4867723789641782
  0.5834440084914071  0.9373723754289811  0.4864313966210446
  0.9158287962280663  0.9372707988817246  0.4860625644814620
  0.9954345027275001  0.9991498654188736  0.5771598329510902
  0.8318842836352041  0.9370233232866885  0.5776134661477607
  0.6637679528762301  0.9376629342590668  0.5812308446951155
  0.4054220745019225 -0.0000777884504153  0.2486221420419056
  0.2498130538845201 -0.0000530403778307  0.2135024433941738
  0.0938777968594540 -0.0000534035775615  0.2485570325713735
  0.1543635830516717  0.1248899271375580  0.3377651395822116
 -0.0004329926538044  0.1248966516782723  0.3245296837616358
  0.3446973568903393  0.1248674306196325  0.3379739746935990
  0.4003938517543028  0.1247738544645514  0.4302396114529144
  0.2495699665908989  0.1248648605899760  0.4143406550053039
  0.0993802146914118  0.1248812980482160  0.4304756351389197
  0.1515633168870769  0.1250129568558864  0.5230651986807855
  0.4994929172998728  0.1247961836486321  0.5046663314304839
  0.3476716224297362  0.1245390563221190  0.5219418396013424
  0.3986363965042879  0.1258244471962900  0.6155580359964178
  0.2500879295891765  0.1250295143350237  0.5975977542861142
  0.0944065185044100  0.1244341879086222  0.6078641722974907
  0.4054214644049858  0.1249282036816308  0.2486212292255262
  0.2498118312390847  0.1249501818115159  0.2134007476814483
  0.0938664600244078  0.1249385922007342  0.2485539352971706
  0.1543560911150908  0.2498790211591964  0.3377718363494148
 -0.0004293264104951  0.2499094862395961  0.3245321332399531
  0.3447055266517583  0.2498932390428220  0.3379767050359586
  0.4004031798186510  0.2498361539690729  0.4302251558435363
  0.2495728657158491  0.2498398232752221  0.4143530097857542
  0.0994109730806092  0.2498555181926409  0.4304819466259694
  0.1515413304009913  0.2499599673159333  0.5231660415832668
  0.4995377086765181  0.2497479743845059  0.5045128486982143
  0.3475832446149461  0.2499841373172358  0.5219459634111501
  0.3989679248208122  0.2478573626240515  0.6146988230441138
  0.2502562661979549  0.2496915496520269  0.5975159052949464
  0.0942330814548661  0.2512888650894595  0.6083814225352295
  0.4054229972694202  0.2499207711709091  0.2486232049727890
  0.2498138581555824  0.2499451823925332  0.2135029989318412
  0.0938776901322688  0.2499459403779391  0.2485571196558803
  0.1543617400249387  0.3748920346981567  0.3377680608101827
 -0.0004327810752253  0.3748993922795978  0.3245302015079855
  0.3446956533108683  0.3748674624887522  0.3379740394451120
  0.4003883278648346  0.3747695968504837  0.4302423251539473
  0.2495659790353439  0.3748639452517097  0.4143398831344277
  0.0993738267693421  0.3748810213724822  0.4304757131108244
  0.1515563164013459  0.3750064889348699  0.5230477207696818
  0.4994707238027457  0.3747891985810842  0.5046820758951271
  0.3476729825906060  0.3745302818503041  0.5219330183867836
  0.3984223342485586  0.3758833347187877  0.6156510807681717
  0.2500562502029260  0.3750212636907005  0.5975374210160215
  0.0943291686729196  0.3744261057901580  0.6077816097684148
  0.4054204481464529  0.3749288137657434  0.2486187243583905
  0.2498106243523668  0.3749504007233199  0.2133981662470583
  0.0938682935435941  0.3749385903486671  0.2485529253867268
  0.1543531827738126 -0.0001212551042539  0.3377720936776987
 -0.0004322736202211 -0.0000918346010402  0.3245331011777662
  0.3447067510723828 -0.0001081102165062  0.3379794962859130
  0.4003948654527595  0.4998408966562092  0.4302274830997944
  0.2495704425171409  0.4998440456612551  0.4143485708016738
  0.0993982396081138  0.4998563632095417  0.4304796939720151
  0.1515526615807349  0.4999639668804065  0.5231506598443109
  0.4995326666768609  0.4997504972801542  0.5045057737220647
  0.3475921197950425  0.0000159196411127  0.5219420256614937
  0.3989336830495860  0.4978768149770451  0.6147099543962615
  0.2502687734835670  0.4997000586734769  0.5975219166159140
  0.0942200477918220  0.0013076844035323  0.6083607450085750
  0.4054220745019225  0.4999222115495848  0.2486221420419056
  0.2498130538845201  0.4999469596221692  0.2135024433941738
  0.0938777968594540  0.4999465964224383  0.2485570325713735
  0.1543635830516717  0.6248899271375580  0.3377651395822116
 -0.0004329926538044  0.6248966516782724  0.3245296837616358
  0.3446973568903393  0.6248674306196323  0.3379739746935990
  0.4003938517543028  0.6247738544645512  0.4302396114529144
  0.2495699665908989  0.6248648605899760  0.4143406550053039
  0.0993802146914118  0.6248812980482088  0.4304756351389197
  0.1515633168870769  0.6250129568558862  0.5230651986807855
  0.4994929172998728  0.6247961836486321  0.5046663314304839
  0.3476716224297362  0.6245390563221190  0.5219418396013424
  0.3986363965042879  0.6258244471962902  0.6155580359964178
  0.2500879295891765  0.6250295143350164  0.5975977542861142
  0.0944065185044100  0.6244341879086222  0.6078641722974907
  0.4054214644049858  0.6249282036816306  0.2486212292255262
  0.2498118312390847  0.6249501818115161  0.2134007476814483
  0.0938664600244078  0.6249385922007341  0.2485539352971706
  0.1543560911150908  0.7498790211591962  0.3377718363494148
 -0.0004293264104951  0.7499094862395962  0.3245321332399531
  0.3447055266517583  0.7498932390428220  0.3379767050359586
  0.4004031798186510  0.7498361539690729  0.4302251558435363
  0.2495728657158491  0.7498398232752220  0.4143530097857542
  0.0994109730806092  0.7498555181926408  0.4304819466259694
  0.1515413304009913  0.7499599673159336  0.5231660415832668
  0.4995377086765181  0.7497479743845057  0.5045128486982143
  0.3475832446149461  0.7499841373172357  0.5219459634111501
  0.3989679248208122  0.7478573626240514  0.6146988230441138
  0.2502562661979549  0.7496915496520198  0.5975159052949464
  0.0942330814548661  0.7512888650894596  0.6083814225352295
  0.4054229972694202  0.7499207711709092  0.2486232049727890
  0.2498138581555824  0.7499451823925333  0.2135029989318412
  0.0938776901322688  0.7499459403779394  0.2485571196558803
  0.1543617400249387  0.8748920346981566  0.3377680608101827
 -0.0004327810752253  0.8748993922795976  0.3245302015079855
  0.3446956533108683  0.8748674624887519  0.3379740394451120
  0.4003883278648346  0.8747695968504841  0.4302423251539473
  0.2495659790353439  0.8748639452517095  0.4143398831344277
  0.0993738267693421  0.8748810213724819  0.4304757131108244
  0.1515563164013459  0.8750064889348698  0.5230477207696818
  0.4994707238027457  0.8747891985810914  0.5046820758951271
  0.3476729825906060  0.8745302818503045  0.5219330183867836
  0.3984223342485586  0.8758833347187878  0.6156510807681717
  0.2500562502029260  0.8750212636907004  0.5975374210160215
  0.0943291686729196  0.8744261057901581  0.6077816097684148
  0.4054204481464529  0.8749288137657435  0.2486187243583905
  0.2498106243523668  0.8749504007233198  0.2133981662470583
  0.0938682935435941  0.8749385903486671  0.2485529253867268
  0.1543531827738126  0.4998787448957460  0.3377720936776987
 -0.0004322736202211  0.4999081653989597  0.3245331011777662
  0.3447067510723828  0.4998918897834939  0.3379794962859130
  0.4003948654527595  0.9998408966562091  0.4302274830997944
  0.2495704425171409  0.9998440456612555  0.4143485708016738
  0.0993982396081138  0.9998563632095416  0.4304796939720151
  0.1515526615807349 -0.0000360331195937  0.5231506598443109
  0.4995326666768609  0.9997504972801466  0.5045057737220647
  0.3475921197950425  0.5000159196411127  0.5219420256614937
  0.3989336830495860  0.9978768149770519  0.6147099543962615
  0.2502687734835670  0.9997000586734769  0.5975219166159140
  0.0942200477918220  0.5013076844035395  0.6083607450085750
  0.9054186171262840 -0.0000775784967760  0.2486202453079214
  0.7498186266399545 -0.0000635775432288  0.2135027590378685
  0.5938759235621328 -0.0000558563541505  0.2485588897371013
  0.6543628332412024  0.1248883022257559  0.3377684955632601
  0.4995667868553905  0.1248959324474211  0.3245327026470620
  0.8446982581737269  0.1248663876989010  0.3379735201032835
  0.9003939535071814  0.1247724705516804  0.4302431454581273
  0.7495693883532308  0.1248636592379795  0.4143439612951865
  0.5993865728018318  0.1248813578487705  0.4304777381691154
  0.6515660010759337  0.1250125592297626  0.5230708398578492
  0.9994907423556889  0.1247944199094702  0.5046661842253173
  0.8476689392249890  0.1245416552458634  0.5219478178731594
  0.8986369406914329  0.1258260288089968  0.6155642519316571
  0.7500872593790117  0.1250323603740584  0.5976088691582483
  0.5944109152641748  0.1244420192146198  0.6078806307990436
  0.9054163139975558  0.1249300515076546  0.2486203987378585
  0.7498043035527938  0.1249479521656807  0.2133995120444183
  0.5938705739592389  0.1249320479523300  0.2485526166048667
  0.6543544632978036  0.2498760247735215  0.3377742493817698
  0.4995691554505235  0.2499064609508473  0.3245338283418483
  0.8447117793445251  0.2498910068525461  0.3379794474318246
  0.9004049804585473  0.2498360639855390  0.4302272476880991
  0.7495759454849781  0.2498408293306181  0.4143530315672933
  0.5994126210902447  0.2498528431186333  0.4304808403954758
  0.6515480381956882  0.2499615983516099  0.5231592436665105
  0.9995360658617113  0.2497479669426442  0.5045105854449941
  0.8475817740413568  0.2499885486087682  0.5219503802457547
  0.8989707063543954  0.2478578721343436  0.6146930562466125
  0.7502526527886418  0.2496948414819858  0.5975313090809807
  0.5942401039106286  0.2512842019764580  0.6083806437181114
  0.9054177617187528  0.2499208095196776  0.2486217892552888
  0.7498204213545975  0.2499332339189693  0.2135043474616808
  0.5938759963886601  0.2499398712197641  0.2485599397850780
  0.6543601236449419  0.3748890608860640  0.3377691483697542
  0.4995656703657426  0.3748976068370360  0.3245293332493602
  0.8447002409168083  0.3748678519232979  0.3379759189971783
  0.9003952303446036  0.3747691692677536  0.4302458399476055
  0.7495703408557799  0.3748651342563486  0.4143398967233692
  0.5993715590416216  0.3748816551394785  0.4304689810151721
  0.6515595940636962  0.3750087224951250  0.5230388248646715
  0.9994744974424765  0.3747883504295538  0.5046843727834864
  0.8476720208027658  0.3745322301902683  0.5219398568355580
  0.8984309171426135  0.3758790775826329  0.6156507634659451
  0.7500424701116140  0.3750273590805023  0.5975505638177053
  0.5943388472265516  0.3744340600044512  0.6077883105089715
  0.9054158829325467  0.3749282379402128  0.2486186819688246
  0.7498050081771478  0.3749467895004327  0.2133966395717471
  0.5938722485444556  0.3749309548331695  0.2485507634940960
  0.6543549985730676 -0.0001220332968919  0.3377725173208718
  0.4995684172112132 -0.0000921268162339  0.3245348864025305
  0.8447123673613237 -0.0001079924439519  0.3379795305851563
  0.9003962188709553  0.4998406029262684  0.4302331080054383
  0.7495749114209197  0.4998441744946419  0.4143501467647743
  0.5994027006186127  0.4998571989187367  0.4304782537758208
  0.6515547400608180  0.4999691087601115  0.5231505802867346
  0.9995327474321074  0.4997487785055925  0.5045090229047194
  0.8475943887673055  0.0000126647595689  0.5219480624977066
  0.8989293861453821  0.4978804096333912  0.6147058923692305
  0.7502654392452669  0.4996986027930484  0.5975345872067243
  0.5942194954050849  0.0012947804053143  0.6083585864934788
  0.9054186171262840  0.4999224215032240  0.2486202453079214
  0.7498186266399545  0.4999364224567712  0.2135027590378685