Ta  N Co Cu                             
   1.00000000000000     
    18.1096308199999996    0.0000000000000000    0.0000000000000000
     0.0000000000000000   23.3551997799999995    0.0000000000000000
     0.0000000000000000    0.0000000000000000   30.4818171199999988
   Ta   N    Co   Cu
   192   240    48     1
Direct
  0.9996971170930351  0.9990700109930941  0.1996702510465624
  0.3341401959018384  0.0615504381119933  0.2035940193366415
  0.1650880821625478  0.0615542100627309  0.2042004014449859
  0.2493100083253026  0.1239812834015339  0.2791381615070918
  0.0825184586355405  0.0617929275019762  0.2860872570641106
  0.4175012299948548  0.0618774403497255  0.2846135947957151
  0.0009000990519539  0.1244724536523094  0.3728783539288330
  0.3327827900654157  0.0618774514880585  0.3687786902737145
  0.1671782504611201  0.0618989944221866  0.3705463346438975
  0.2518232363500275  0.1260873892916408  0.4537308407673990
  0.0845820528470682  0.0606923870631064  0.4585776952184943
  0.4167564988250376  0.0614144403752377  0.4545490062424022
  0.9999194914135003  0.1237129535411228  0.1988556117909965
  0.3340199992484756  0.1865953810952021  0.2029448339616238
  0.1648834960659258  0.1864026928511038  0.2034199558851029
  0.2493360066333565  0.2492210683659053  0.2779167135855545
  0.0823455556921999  0.1865227617176330  0.2851201214051287
  0.4173745487623393  0.1868885684497599  0.2838446444159359
  0.0008325535749805  0.2488637144047487  0.3713471431104267
  0.3331077350326197  0.1870001113700965  0.3679785556319146
  0.1661839729958459  0.1867389595340185  0.3699216469347277
  0.2492812875022352  0.2520936812098142  0.4530094959686579
  0.0871178757994784  0.1881607949570565  0.4631808490202971
  0.4154487252613066  0.1873635896952450  0.4548626706060830
  0.0000200189381871  0.2483552451535758  0.1977093381104496
  0.3334553217837808  0.3116368611189557  0.2022148752745281
  0.1654143441472868  0.3113975999526275  0.2023450974079495
  0.2498077915834997  0.3742709211522808  0.2770747674846632
  0.0824992652028342  0.3115083793364377  0.2837998054336950
  0.4175680618642374  0.3119142131874000  0.2828997973812974
  0.0006630176451878  0.3741397198075447  0.3695911022900873
  0.3328249756797632  0.3114672395539628  0.3673887846550343
  0.1667772284861329  0.3114795891535280  0.3681413712259953
  0.2508754404036324  0.3744497730385561  0.4528620558783203
  0.0860608338487623  0.3130547426851251  0.4554588352692761
  0.4142677619954682  0.3132032515303109  0.4558099202173196
  0.9998151366347230  0.3737155714966320  0.1968567960145080
  0.3334520043704643  0.4368253173575312  0.2016409068005558
  0.1657147332273468  0.4366235946241659  0.2018136638557664
  0.2493945837472111  0.9991969077850769  0.2795512504015250
  0.0827700187186622  0.4365890096244129  0.2830299992499619
  0.4173703612130595  0.4369188936789428  0.2823193107663613
  0.9996681237548160  0.9990428105376239  0.3729471765815902
  0.3331579392164272  0.4364143937569125  0.3663473355918825
  0.1676639991152413  0.4364536176584792  0.3672755650740740
  0.2509862303747354  0.9983534063331376  0.4559632604246886
  0.0864293255479538  0.4364850091379679  0.4558462922608939
  0.4156206032737160  0.4364287912254525  0.4516514278651229
  0.9995124173279208  0.4998563165883141  0.1966106086771191
  0.3338068409930202  0.5620920153303572  0.2016250228542518
  0.1652394589286814  0.5619688264305225  0.2017972619825983
  0.2497181099954631  0.6246135293348090  0.2770208966909280
  0.0823584331380403  0.5618788598310616  0.2832037520879069
  0.4179840618696176  0.5619000502245299  0.2823297026302640
  0.0005774831139931  0.6237416851827859  0.3703469822008003
  0.3328285753867064  0.5615033299472429  0.3662329142969085
  0.1672560326837882  0.5611405219446794  0.3668720554544862
  0.2487344121950272  0.6205796171153963  0.4516722972105214
  0.0851764459689832  0.5600453551703310  0.4536187837956120
  0.4145706610965405  0.5594928827614041  0.4540280980992932
  0.9993329407393574  0.6251419359154298  0.1970428453236863
  0.3341578416580049  0.6875442745062585  0.2023678248920149
  0.1650896619469222  0.6874680520177989  0.2026081230296768
  0.2494680104892879  0.7498290884117722  0.2785044178462570
  0.0825605969916694  0.6871799779314642  0.2842915469082499
  0.4175476083857603  0.6870047415113092  0.2832761195862474
  0.0007395382519277  0.7486238032677335  0.3717050379775841
  0.3327576697958392  0.6866095772061911  0.3673190176092760
  0.1676664024237553  0.6863639430811759  0.3682466511954559
  0.2486080840520799  0.7462076202468282  0.4538616961213719
  0.0870048769509353  0.6838813762533391  0.4570802697752399
  0.4163460647928758  0.6854279728218984  0.4538317697669214
  0.9992832222799564  0.7503954031104172  0.1982632856288689
  0.3343495438184618  0.8124216715949473  0.2031515147197283
  0.1652111990712584  0.8126249386207149  0.2036448304634746
  0.2495288568162195  0.8744669062957087  0.2794137711998914
  0.0825127401042778  0.8120443664012882  0.2855497208554141
  0.4176083920086668  0.8119556812783060  0.2843681342216016
  0.0002519366941343  0.8737484438777372  0.3721774185122015
  0.3326678530250504  0.8119097567123177  0.3686580242161526
  0.1678532888115996  0.8117145944988664  0.3696413593280141
  0.2503072742651895  0.8742730559942089  0.4575437605366801
  0.0844521767732047  0.8102576801000296  0.4571602526215131
  0.4154637654708893  0.8110163818584013  0.4558268658404785
  0.9995846861684186  0.8748084692786904  0.1993122109262799
  0.3342509175507331  0.9371249706627864  0.2036775206255044
  0.1650791404244742  0.9371928284200806  0.2042604621960962
  0.2499218730465103  0.4991919163594716  0.2765949669807100
  0.0824297697192122  0.9368201599818278  0.2863605635091560
  0.4175987938153440  0.9368276603263155  0.2848564242111209
  0.0001936673382730  0.4988143486050802  0.3694539607832183
  0.3327277293516175  0.9367264336182117  0.3692279910863618
  0.1677389202402750  0.9366249003942571  0.3704796868167008
  0.2499173848675440  0.4984507644584397  0.4522102428121357
  0.0835488271615716  0.9357591894977304  0.4564605089048897
  0.4151380408198762  0.9364868563450059  0.4555614236453138
  0.5004504835496206  0.9989975100977446  0.1982976842744719
  0.8352126875170214  0.0614562668734990  0.2042921014301768
  0.6661495027571931  0.0614673800543954  0.2036523690534651
  0.7506434964316639  0.1240470309209485  0.2791088313068499
  0.5832341193664945  0.0619785378196198  0.2848243885496800
  0.9172250795415735  0.0617736074989352  0.2863762920153619
  0.5003364829311678  0.1246967855321088  0.3700971346698552
  0.8329377541125425  0.0619167665682951  0.3710812970569606
  0.6674418695395303  0.0621804808082800  0.3693390487519750
  0.7510980343912266  0.1270122148318151  0.4566048329197727
  0.5825383022279311  0.0619375679582603  0.4550860535708097
  0.9142994136475693  0.0620163792085933  0.4583044365655127
  0.5001209692347217  0.1239145417089276  0.1978749256454790
  0.8353442905245174  0.1862058017222736  0.2033948591974735
  0.6662396861405071  0.1864673370847498  0.2029046909353340
  0.7504137708878531  0.2492491477584196  0.2777527204335257
  0.5826475942612888  0.1869429303064862  0.2838575724726482
  0.9176617992819942  0.1864682710353947  0.2852832216034713
  0.5003545826067040  0.2496730808325651  0.3696868685023844
  0.8330067858779060  0.1868612189768939  0.3694578094989893
  0.6671587850445491  0.1870639351220476  0.3682772780415249
  0.7493415559457048  0.2513151027417777  0.4535502292126878
  0.5838144244828598  0.1879098806271458  0.4554545931194482
  0.9155600251358251  0.1873254517140168  0.4580556821744963
  0.4999761146007415  0.2486237183449020  0.1971862130993287
  0.8346457125259477  0.3113392255874672  0.2024387658018654
  0.6665768593361179  0.3116093103811650  0.2021429162394099
  0.7501088383029071  0.3743205561961034  0.2770543210298086
  0.5824697206542169  0.3119352688729364  0.2829001977258017
  0.9176033430844370  0.3114784880910122  0.2838135684155318
  0.5000921371333078  0.3735762638490669  0.3686163599973256
  0.8328130962471789  0.3118382713747181  0.3679156491136126
  0.6672405218891981  0.3117829792545947  0.3670930148679261
  0.7506623148864193  0.3751718643306106  0.4528000380268153
  0.5853882288045043  0.3133508352314109  0.4556409262283125
  0.9163354054809574  0.3128349604097025  0.4542254439500724
  0.5001138196357076  0.3739593789995297  0.1964499890754112
  0.8341829354898138  0.4366345489293053  0.2019939112400095
  0.6665067619512257  0.4367387384442551  0.2016599155411924
  0.7507638128545011  0.9992629396416959  0.2797455145645102
  0.5829794312205578  0.4368951989731258  0.2824132651939095
  0.9174389431443402  0.4365849161079325  0.2832567782999362
  0.5005085158910987  0.9993466314984829  0.3702453488678614
  0.8326479474798703  0.4366958145775897  0.3675937862533019
  0.6669602603702671  0.4367053571396937  0.3666181151018506
  0.7476912430938896  0.9991516672704179  0.4567775095614479
  0.5840950968405352  0.4366839287197806  0.4518145075030873
  0.9145891932212606  0.4365766928090125  0.4560927741999308
  0.5004523521637836  0.4999555780466665  0.1962163842485722
  0.8347258780763198  0.5619797610617638  0.2019941116175019
  0.6661373790080631  0.5621220737218451  0.2018084298071514
  0.7504623462859286  0.6244500288515482  0.2775266355152581
  0.5829743156732974  0.5619779758963119  0.2829886846896628
  0.9174537472769231  0.5617569054582887  0.2836711558523533
  0.4995659790145695  0.6239951930390788  0.3689478855532542
  0.8330025679251705  0.5613683890197620  0.3681370385490155
  0.6671512393038839  0.5617042644291601  0.3676187391541603
  0.7504406086844781  0.6211228598225702  0.4546772728215203
  0.5845942706585916  0.5587457912522851  0.4547370211879880
  0.9161189850437239  0.5600676689703405  0.4543711772919110
  0.5008424372259768  0.6251137796694053  0.1966318697859180
  0.8349369473154411  0.6873756707207122  0.2028017933493516
  0.6657316283946386  0.6874435687593845  0.2024600825082743
  0.7506772840465530  0.7496816568695195  0.2789631396379164
  0.5831730013791585  0.6870920691960478  0.2837457346088783
  0.9173133588898637  0.6871243593505412  0.2848659406357470
  0.4995539153131290  0.7492403401979999  0.3697626216326597
  0.8332412844162320  0.6862027561001227  0.3695560442211985
  0.6669757915098415  0.6865371214286071  0.3682773181128738
  0.7519654872128712  0.7467567078412500  0.4550732093320704
  0.5825658452647886  0.6849555039078510  0.4541420416101403
  0.9151942637243948  0.6832981633403534  0.4591302378890560
  0.5008580890455434  0.7501296424249233  0.1975254377222839
  0.8349832770580150  0.8126426985038364  0.2037590537781355
  0.6656411704362668  0.8123681580325837  0.2032843532339896
  0.7505207769054323  0.8745208987474911  0.2795634611815032
  0.5833824892750172  0.8120491960296761  0.2848766561264640
  0.9168871839763213  0.8120216777362117  0.2859163842601689
  0.5002720532858405  0.8741891860168636  0.3706583874337994
  0.8329046910478439  0.8113584708924293  0.3705328291742234
  0.6673164526823214  0.8116023205217999  0.3696471813033853
  0.7505943024986834  0.8747104792918918  0.4576614242375001
  0.5837248542065367  0.8110675763236372  0.4557786399587940
  0.9167218911180939  0.8098783528511788  0.4561659244596257
  0.5005789307992927  0.8745360855452802  0.1981677359500651
  0.8349727860176444  0.9370734270021757  0.2043528041962546
  0.6660852385001235  0.9368559837205623  0.2037534913880705
  0.7502212054829087  0.4990812982521504  0.2770092351278350
  0.5832531508472343  0.9369538476840091  0.2850212674141090
  0.9171506318014764  0.9369097118074876  0.2864845551125015
  0.4996525874304041  0.4995389572092677  0.3682431817528951
  0.8323980943251854  0.9367474821449662  0.3709659336776028
  0.6674164173629364  0.9369566339789301  0.3699214493863963
  0.7490884270759395  0.4992931623220258  0.4535403118301602
  0.5845173312748528  0.9364868545957563  0.4566039006454474
  0.9148959621879271  0.9358490797431145  0.4583366068530168
  0.4058201827785695  0.9991968202769712  0.2330296415889066
  0.2497896516942006  0.9992998679132370  0.2010338727963301
  0.0941669815616919  0.9991998267284430  0.2345333495800546
  0.1544312501068461  0.1242338507090963  0.3175332106422672
  0.0000552690150855  0.1241783074592959  0.3056216016010751
  0.3452208283387961  0.1243627912980116  0.3159870588352902
  0.4012169298405368  0.1250462066371867  0.4019097285433872
  0.2499827788482065  0.1247797105740531  0.3869190184049103
  0.0995658760773068  0.1247879947789841  0.4057313229899790
  0.1584400532954078  0.1202298093786069  0.4855286123899063
  0.0019232264928561  0.1217088467879606  0.4762794341697685
  0.3480878910524439  0.1242034783112089  0.4843620721379978
  0.4094515959726550  0.1024452177627353  0.5595768995689809
  0.2537016967503689  0.1538343387873269  0.5521245003173902
  0.1080861273057181  0.0877558075584801  0.5738210185299621
  0.4056503705110757  0.1240516663421118  0.2326201708976967
  0.2497014777329483  0.1239531372767644  0.2012177584977124
  0.0941376757568193  0.1239279523724974  0.2339482618694078
  0.1542342051670289  0.2489274301098874  0.3161407193579748
  0.0001177817580142  0.2492236517220547  0.3042447630470875
  0.3452042043406962  0.2493287925589911  0.3150858726698686
  0.4012836279466114  0.2497690002281061  0.4018207715728437
  0.2496338097989792  0.2491095699397263  0.3857348232277289
  0.0993418507237536  0.2488962134378099  0.4042231794333233
  0.1573509174473955  0.2581092434878585  0.4873235044860422
  0.9979771522618250  0.2518066566415627  0.4767499216130062
  0.3467425111121614  0.2498593969322371  0.4836139855876667
  0.4104828534585252  0.2204333119781268  0.5624846924159925
  0.2633960808039362  0.2831642808008468  0.5587635835478650
  0.0765739366873390  0.1839149638644955  0.5306046201262475
  0.4054131895247011  0.2491940992344439  0.2318645279114335
  0.2494633858575526  0.2486820437650152  0.1998460778749660
  0.0941153593898960  0.2487587156024560  0.2327823937205835
  0.1547094105809208  0.3738546210288902  0.3149349099072012
  0.0002314884716625  0.3740353081823997  0.3027049667621995
  0.3455124511873251  0.3739824173974142  0.3142825828366185
  0.4013350143290708  0.3729390551695246  0.4008872247682902
  0.2503451471883409  0.3739089085826066  0.3851370489502628
  0.0995625451990065  0.3746272236617045  0.4017288365489620
  0.1543592583735247  0.3739637481515601  0.4837917285347473
  0.0001443795500151  0.3746461045628422  0.4731740684846741
  0.3474372692661660  0.3781025032678826  0.4845551124658911
  0.4186007560689120  0.3783391977227950  0.5567241108187204
  0.2090703876472944  0.3792207111199843  0.5664994227674782
  0.0814638205292795  0.3898705088606249  0.5628503526050039
  0.4055213135573155  0.3743258519131558  0.2309092605132221
  0.2495991809806881  0.3740306169888825  0.1977812063913120
  0.0941300999088028  0.3739182893618178  0.2316487500164470
  0.1546778411527612  0.9992495522526710  0.3179535565262697
  0.9998298776550101  0.9992874780659662  0.3058990409847411
  0.3452846088739321  0.9992143825060111  0.3165390507856145
  0.4016359176312960  0.9996140429502631  0.4022490285082014
  0.2503053082337630  0.9990464041230140  0.3883790592570833
  0.0994760059078459  0.9988811887119269  0.4049186783350862
  0.1543319909994239  0.9946896064213675  0.4904347486775080
  0.0001711970605243  0.9977136988112392  0.4754157889521409
  0.3502136514636476  0.0001615982199539  0.4842639059814928
  0.4136539788542635  0.9904695830068420  0.5710483574787588
  0.2706843282261744  0.0013329979110921  0.5563090314631509
  0.0754579847755252  0.9705002239964315  0.5727822386167745
  0.4058368998108790  0.4995738803380405  0.2306030326191149
  0.2496236131009013  0.4995680851503650  0.1977905436992202
  0.0939802328436912  0.4993472472343825  0.2312930398431519
  0.1544718786526573  0.6243827742783239  0.3148731577308084
  0.0000910299706405  0.6242501773607927  0.3034893941412307
  0.3455515559922873  0.6242593641231551  0.3143016624410322
  0.4007966777602476  0.6234121615578232  0.4007295683421219
  0.2501442056928269  0.6234450930896216  0.3843877906998188
  0.0999239188501662  0.6237150197718648  0.4019476575771606
  0.1554282919738981  0.6172976635430985  0.4846260621540281
  0.0019103663974533  0.6216451546061634  0.4752088170474806
  0.3477560152912460  0.6229563558907643  0.4803552886684059
  0.3981856550911829  0.6601660950599424  0.5606850907679828
  0.2539796014750451  0.5924607799173103  0.5610424277289923
  0.0917186271054931  0.6759042277759093  0.5496329958770119
  0.4060030495669977  0.6247393445364793  0.2310389014965679
  0.2495838942797448  0.6250108646944526  0.1992967343905221
  0.0937901860207333  0.6248573290768604  0.2318638065315142
  0.1545273555766329  0.7496840886100955  0.3164979737577127
  0.0000455317955854  0.7494537578721676  0.3046280032045843
  0.3452764247542035  0.7496323216897451  0.3155770110142129
  0.4009317774170640  0.7491729625613033  0.4022512372694251
  0.2503257680378255  0.7490574646915604  0.3868021335682457
  0.1001681817697033  0.7483345410372806  0.4038284527005516
  0.1540571663597774  0.7474716076534094  0.4858997305254604
  0.0016091647409553  0.7495689246078854  0.4756093337251670
  0.3467060132355044  0.7455818409092956  0.4831087225697317
  0.4101476955282948  0.7826099049488704  0.5502283237889429
  0.2509911829136300  0.7327421858920999  0.5579340218361537
  0.0903489098770933  0.7901603544170186  0.5603999440246810
  0.4060295485065595  0.7499198893122951  0.2321346469525665
  0.2496699047064084  0.7501243705630714  0.2004259436178586
  0.0939259021780430  0.7501040741102685  0.2331043995069422
  0.1548656787635210  0.8743493646566378  0.3176048533522646
  0.9998621739908842  0.8743073920143729  0.3054289677901352
  0.3453968622564219  0.8745621825273702  0.3164586003668290
  0.4011656447197822  0.8738124257267827  0.4028106151605826
  0.2501090021258108  0.8740449727623911  0.3890898421173361
  0.0994390564390812  0.8736657768360843  0.4041533829028836
  0.1499922329480228  0.8740020573803804  0.4871660407612310
  0.9999071170694620  0.8734728045356377  0.4757416741529497
  0.3510243657105434  0.8729591120882674  0.4854098916770724
  0.4152105581030341  0.8909465933326004  0.5680036357658764
  0.2505797432889523  0.8753482858067017  0.5506527532544681
  0.0779891824783050  0.9057943548727110  0.5720670539772570
  0.4059149513655669  0.8746167548735286  0.2329650964544783
  0.2498780772591260  0.8748433536881350  0.2015796894034310
  0.0940619521202990  0.8748041837733780  0.2342357055807582
  0.1548274524032109  0.4989848593898571  0.3144068410682763
  0.0001410701880573  0.4989610909534576  0.3026159609468877
  0.3455385158441544  0.4992447606808454  0.3137814020815100
  0.4005988712186408  0.4997121226108661  0.4000554314675213
  0.2505571401295370  0.4988552637896362  0.3845457950330200
  0.0995185744373188  0.4983098973653739  0.4010354384957964
  0.1529429388922665  0.5000802379179206  0.4829923479152569
  0.0002946222690667  0.4986847247907633  0.4735662026436316
  0.3467591940663297  0.4952028151748351  0.4835087181502402
  0.4138224628298630  0.4931972982959394  0.5547836341454371
  0.2122449522634824  0.4933989450247438  0.5618041748844718
  0.0791581979748130  0.4855929701459800  0.5667093881333898
  0.9056426138079416  0.9992610065730645  0.2348550877642310
  0.7504576633406401  0.9992754473090173  0.2012703903225059
  0.5948493870123812  0.9993654661918896  0.2332450672079602
  0.6551479559516835  0.1247385944304185  0.3162643536437457
  0.5002073087699443  0.1246038454661402  0.3035202179942900
  0.8452301061439869  0.1241323840114674  0.3175590940691322
  0.9011994012079541  0.1249142806221215  0.4045555816221622
  0.7501073588002782  0.1248991628228211  0.3884784791187101
  0.5987513163501674  0.1252302748132550  0.4023424775142317
  0.6516863767440668  0.1250390656259768  0.4847743785627259
  0.4993952474961532  0.1254158208130960  0.4737611395308008
  0.8471617604701649  0.1246667039212213  0.4896676544375325
  0.9467294521649379  0.0938926076486410  0.5572690508234146
  0.7376466255182166  0.1541012947481306  0.5543019634353357
  0.5851107898098249  0.1060197049808309  0.5608122952556300
  0.9059046703029949  0.1238293507516985  0.2341317886806280
  0.7506192493824386  0.1238388824377097  0.2010000623334918
  0.5947545489427029  0.1240734534140628  0.2325873159435403
  0.6546764792838502  0.2492875415851117  0.3150517063277576
  0.5000906795041473  0.2496233249467679  0.3026355752806182
  0.8453983427612499  0.2490513785521742  0.3158017175916328
  0.9013717665580998  0.2490684643646333  0.4026661186537623
  0.7497733623868825  0.2494754665062189  0.3858115895914906
  0.5992380012771648  0.2500404259349125  0.4021437456853150
  0.6510867272126077  0.2511396080047064  0.4845951562951996
  0.4993579876839860  0.2498576516842022  0.4739215138588762
  0.8446848653321410  0.2550296015785065  0.4848087971930610
  0.8984295615084648  0.2131497412205263  0.5525636687327875
  0.7466705520645007  0.2632604015496298  0.5502667795725529
  0.5888319697962174  0.2242354844763668  0.5605776032459744
  0.9059667499991590  0.2486131014687132  0.2327999844709723
  0.7506811691656168  0.2486274079702682  0.2000693818616313
  0.5946811491249520  0.2490948730984428  0.2317631423038904
  0.6545817936585578  0.3741232301484771  0.3142825159857736
  0.5000271116996160  0.3745313999529785  0.3018012339660885
  0.8453303207228942  0.3738976459779124  0.3149175048166200
  0.9014730325993696  0.3749149375319476  0.4012926678051372
  0.7497317417013036  0.3743129892397405  0.3852691249114670
  0.5988304782651852  0.3733279137458041  0.4005394718280968
  0.6531698258692344  0.3784073998828319  0.4831877995856502
  0.4997659695169361  0.3730156517813725  0.4744206540811646
  0.8481767436380707  0.3732064810983999  0.4834288247792244
  0.9237853853224252  0.3936863908742581  0.5661785290788259
  0.7871472541446565  0.3769601347000133  0.5612375007799812
  0.5891379237959100  0.3656310940001930  0.5533863261319567
  0.9056776622593574  0.3739234973219041  0.2317805233445611
  0.7504089332391288  0.3739660921266150  0.1979432383893069
  0.5946190548585690  0.3742100931260666  0.2309343550148242
  0.6553246848533689  0.9994224804429450  0.3169207961476346
  0.5004334461876496  0.9994178454970353  0.3036743085622007
  0.8451147397295813  0.9993140901438693  0.3183610303031585
  0.8999252147387011  0.9986588569878663  0.4055731178472897
  0.7496527988294588  0.9994336443137612  0.3890158074259347
  0.5987098790161838  0.9994031374783461  0.4029850618608819
  0.6482720216970606  0.0011849080814628  0.4854783059874421
  0.4993904080060432  0.9983089607409070  0.4754848233892730
  0.8435519898056398  0.9973601899005970  0.4913224257195310
  0.9163549058581850  0.9909218468788197  0.5679415433115693
  0.7180814958284856  0.0071609283336826  0.5595991621158447
  0.5767038490837564  0.9912038327514097  0.5719245733464362
  0.9055276213214825  0.4992954835620296  0.2317307370813566
  0.7503410831174833  0.4994881680484298  0.1981286185025652
  0.5948247323750238  0.4996093607741159  0.2310004088827569
  0.6551499438535515  0.6242832274129313  0.3152182839185826
  0.5001619652315696  0.6244104493622942  0.3021720356509405
  0.8453413990423329  0.6242816725377907  0.3159061434316612
  0.9018259079520803  0.6239932929762873  0.4029872378633002
  0.7502170465304445  0.6237008322692290  0.3869722206466406
  0.5981651926115887  0.6234946220393596  0.4015424130994774
  0.6495790409735491  0.6228955398594422  0.4826091011582392
  0.4981130494590786  0.6232895418088731  0.4727874373142598
  0.8470845122319020  0.6175256722881741  0.4861051734434696
  0.9239478514976298  0.6844096766520806  0.5446399809162301
  0.7398234226365545  0.6003490909931131  0.5475240961498429
  0.5678688587718668  0.6332291637601699  0.5527137153411559
  0.9054467487323166  0.6248661137560063  0.2324713305700286
  0.7503173424663885  0.6249034928988237  0.1992934567573172
  0.5949681465745584  0.6247303348063653  0.2317231155623602
  0.6553629044628551  0.7495914977139435  0.3164408700379582
  0.5001379527086200  0.7494097369499997  0.3029380034988876
  0.8452835367320688  0.7493200817678414  0.3172761068289063
  0.9018449300108671  0.7472457894426938  0.4043150758070624
  0.7502164369347994  0.7487262153638383  0.3881296089001296
  0.5978143508610430  0.7487780471120473  0.4023787745684828
  0.6519053850165903  0.7456218768416178  0.4811511133649233
  0.5000331845437103  0.7486628964619158  0.4748508216138490
  0.8487709903936604  0.7477376940643623  0.4858817599413570
  0.9132283408723865  0.7981610411418458  0.5591432307695428
  0.7639081852185114  0.7425154087913697  0.5613451098438205
  0.6007553874778750  0.7855312015411613  0.5506414613041457
  0.9052547102418913  0.7500094645004864  0.2336784086964983
  0.7503521609832404  0.7500696987729683  0.2008886705147646
  0.5949639728798033  0.7499813944557516  0.2327700733959617
  0.6554025815138544  0.8746942251745367  0.3171442673636520
  0.5003885210138321  0.8744161817752101  0.3038763620972702
  0.8448236186567399  0.8745070595957571  0.3180451622863671
  0.9010890089423143  0.8741080812530484  0.4044056473066817
  0.7499858271743278  0.8740826059018758  0.3897060186727614
  0.5988873922736317  0.8739373819587755  0.4033412785863248
  0.6503004052242645  0.8721551037532009  0.4857795202806656
  0.4997984451758555  0.8741911334190107  0.4758804506412773
  0.8497525103208972  0.8705141519886723  0.4871525506639571
  0.9211033617545894  0.8993158320695542  0.5750409981563323
  0.7515862331070480  0.8865241806704773  0.5545922601192288
  0.5859837591905475  0.8910259262431168  0.5687681855529547
  0.9054821357611900  0.8747500856040062  0.2345953725957060
  0.7502588376534263  0.8747490329513994  0.2010935883304583
  0.5948021074801630  0.8746257284864072  0.2333551350988614
  0.6549476736170163  0.4993714356159984  0.3144272293533206
  0.5002373530927358  0.4992201543193246  0.3014366553371133
  0.8452352214291707  0.4991151333479422  0.3150167036494764
  0.9012939737958945  0.4984667993813190  0.4015379975270008
  0.7495926165557165  0.4990958324925714  0.3858781811347711
  0.5986083628946020  0.4997121554744766  0.4002936923854179
  0.6516884295075016  0.4955737378869998  0.4845529122019627
  0.4994442534547119  0.5010455473033417  0.4740823352429970
  0.8480922861396891  0.5003661009457616  0.4834042102223250
  0.9238756119073415  0.4779404820874973  0.5677475920346993
  0.7948432459863923  0.4966482834134922  0.5636626991363585
  0.5734238482853300  0.4831874544294052  0.5541479701926946
  0.0295842927316770  0.1205664197261598  0.5449681816343315
  0.3646515677652644  0.0402081082035934  0.5403761936226203
  0.1310926157641390  0.0250726823608005  0.5477739089680682
  0.9815995566531299  0.2148307116560417  0.5327763596816197
  0.3526544293130982  0.1593418488813043  0.5425376460410334
  0.1635491364558774  0.1401565647871763  0.5452347884710420
  0.0013886623823112  0.3819482950905737  0.5384006435688349
  0.3549724391037472  0.2752601475673728  0.5415858652548096
  0.2023532917332034  0.3211268486386629  0.5299777801617722
  0.9965272973257555  0.9932119124640408  0.5403388939054778
  0.3657168070225509  0.4368285600024961  0.5300007073168231
  0.1558026519583677  0.4372688382434262  0.5749405319310696
  0.0080861475278553  0.6588968561476918  0.5313302545578438
  0.3319436473348460  0.6119798875750320  0.5394042408667730
  0.1995463058131932  0.5529279604207602  0.5279428727827451
  0.0006656681285904  0.7634536945177004  0.5447388587097635
  0.3438962853077996  0.7240034916313434  0.5436551250375459
  0.1565681001197277  0.7319400572021948  0.5473124227307338
  0.9953238922717134  0.8866505063293246  0.5425157244040406
  0.3477957924959725  0.8446705736512072  0.5461713341642280
  0.1435774393046856  0.8547797469252885  0.5487186074148127
  0.9996180621059381  0.4914749053109730  0.5393752339535212
  0.3388875629854127  0.9400018074089544  0.5693480491179059
  0.2220446435302534  0.9450239199586861  0.5336348399952371
  0.4981075204103149  0.1206365563193756  0.5382338298221327
  0.8770183092172346  0.0506290243842074  0.5400215700564317
  0.6276767934823866  0.0415035221529578  0.5420643980687814
  0.4984602836773036  0.2366228949195275  0.5382274861066776
  0.7976369754385217  0.1995910008401296  0.5316758244029671
  0.6422317844540473  0.1609224903093178  0.5423593073784971
  0.5008103673504181  0.3490519991966323  0.5376700328291477
  0.7988980523567193  0.3207091796918746  0.5271825546046216
  0.6491778635343195  0.2774356705569332  0.5427396670924196
  0.4961329490507040  0.9988648770178870  0.5412056746970322
  0.8394403694651231  0.4344124887059877  0.5754173595136791
  0.6294448281441021  0.4306156181761622  0.5306599318509839
  0.4781511812308921  0.6325064331406764  0.5353086260044364
  0.7995370364530672  0.5523598654390796  0.5278150926672609
  0.6570384063364898  0.6364662984593892  0.5420210394777243
  0.5056440161004048  0.7725257530314522  0.5377271624040745
  0.8546276391987533  0.7381641203091576  0.5470616396343573
  0.6780295739534239  0.7394287854371981  0.5392776395282368
  0.5019817632907291  0.8787569143149057  0.5407130966772300
  0.8555347612134412  0.8575732149503708  0.5498018031177239
  0.6601339525814822  0.8491354517930603  0.5477757462118120
  0.4973386762931966  0.5212965836985788  0.5386634142989664
  0.7774254518540715  0.9571341799993078  0.5385690848245162
  0.6574807074755853  0.9447121512162511  0.5706349398591186
  0.4869603095517903  0.4370820185207265  0.5789823167936277
 
  0.00000000E+00  0.00000000E+00  0.00000000E+00
  0.00000000E+00  0.00000000E+00  0.00000000E+00
  0.00000000E+00  0.00000000E+00  0.00000000E+00
  0.00000000E+00  0.00000000E+00  0.00000000E+00
  0.00000000E+00  0.00000000E+00  0.00000000E+00
  0.00000000E+00  0.00000000E+00  0.00000000E+00