Ta  N Ru Cu                             
   1.00000000000000     
    18.1096308199999996    0.0000000000000000    0.0000000000000000
     0.0000000000000000   23.3551997799999995    0.0000000000000000
     0.0000000000000000    0.0000000000000000   30.4818171199999988
   Ta   N    Ru   Cu
   228   240    12    29
Selective dynamics
Direct
  0.0000000000000000  0.0000718856546769  0.1971343718284118   F   F   F
  0.3342926847814240  0.0624132518977021  0.2026937805440667   F   F   F
  0.1663206548061567  0.0625684459108768  0.2026879703893130   F   F   F
  0.2502067873593177  0.1250918040142253  0.2779408447657588   F   F   F
  0.0826029581595549  0.0626929404336494  0.2836274496812337   F   F   F
  0.4173382514782702  0.0622475047871944  0.2840383744896471   F   F   F
  0.0001593126356278  0.1247938493700653  0.3694522948315149   T   T   T
  0.3314773412770515  0.0622438925694653  0.3681698578230603   T   T   T
  0.1676847592155576  0.0624904849576985  0.3684386808458762   T   T   T
  0.2492792606599303  0.1258031352055923  0.4557474672428861   T   T   T
  0.0875039597624811  0.0615855973221715  0.4553605512205617   T   T   T
  0.4147390738365967  0.0615651202834891  0.4541802703254115   T   T   T
  0.0034477785122753  0.1165662408298410  0.5453041026630084   T   T   T
  0.3376824752029746  0.0605729576955504  0.5433432462370947   T   T   T
  0.0000000000000000  0.1251997475754436  0.1971274192404451   F   F   F
  0.3343369412500081  0.1874555756944787  0.2027209845130571   F   F   F
  0.1662604173406379  0.1876312578509030  0.2027221982441247   F   F   F
  0.2501999816055047  0.2498887646067161  0.2779024730234809   F   F   F
  0.0825727650861410  0.1876830281330939  0.2837096283809757   F   F   F
  0.4172972896996328  0.1872504991250779  0.2840867748275429   F   F   F
  0.0001848422335254  0.2502094838111912  0.3694514022342690   T   T   T
  0.3314424893241534  0.1872295419832075  0.3682434766247449   T   T   T
  0.1677293684300958  0.1875640472593028  0.3683695529786754   T   T   T
  0.2499002913124322  0.2490527793967695  0.4552315042236818   T   T   T
  0.0834656714970453  0.1880542797661003  0.4537898657838710   T   T   T
  0.4148584810672660  0.1873806440753954  0.4537733078559542   T   T   T
  0.9931388052857488  0.2402453026134803  0.5485181028672879   T   T   T
  0.3393047141883830  0.1856017437211333  0.5422850013084614   T   T   T
  0.1767625413463633  0.1890228675554824  0.5413682010111128   T   T   T
  0.0000000000000000  0.2500718858687634  0.1971343718284118   F   F   F
  0.3342926847814240  0.3124132516836227  0.2026937805440667   F   F   F
  0.1663206548061567  0.3125684456967974  0.2026879703893130   F   F   F
  0.2502067873593177  0.3750918042283047  0.2779408447657588   F   F   F
  0.0826029581595549  0.3126929402195699  0.2836274496812337   F   F   F
  0.4173382514782702  0.3122475045731150  0.2840383744896471   F   F   F
  0.0001938182483895  0.3748901615973892  0.3693819339184407   T   T   T
  0.3314219322495058  0.3123721608525991  0.3680957387511108   T   T   T
  0.1671764535759814  0.3126522359350000  0.3683978985112873   T   T   T
  0.2503939081607362  0.3768321634370706  0.4549045890356210   T   T   T
  0.0862026013302220  0.3134713964590068  0.4561454358227596   T   T   T
  0.4156035831694629  0.3117127016749232  0.4538710886055271   T   T   T
  0.0045195812866503  0.3706316991765538  0.5491433959229904   T   T   T
  0.3363703493962263  0.3114614006512467  0.5424743841061415   T   T   T
  0.0000000000000000  0.3751997477895301  0.1971274192404451   F   F   F
  0.3343369412500081  0.4374555759085652  0.2027209845130571   F   F   F
  0.1662604173406379  0.4376312580649895  0.2027221982441247   F   F   F
  0.2501999816055047  0.9998887643926295  0.2779024730234809   F   F   F
  0.0825727650861410  0.4376830283471804  0.2837096283809757   F   F   F
  0.4172972896996328  0.4372504993391644  0.2840867748275429   F   F   F
  0.0000363990732553  0.0005332794752038  0.3693793738271569   T   T   T
  0.3315619019066431  0.4374724021072484  0.3682790918888447   T   T   T
  0.1675453946268521  0.4376837272493065  0.3680705916639539   T   T   T
  0.2485485814026004 -0.0021705591505365  0.4556396340834492   T   T   T
  0.0827741419271624  0.4387905651648371  0.4536992796394053   T   T   T
  0.4164948310363233  0.4378832636788835  0.4533521991592434   T   T   T
 -0.0012499429964786 -0.0049854113643393  0.5442228575166442   T   T   T
  0.3377481111792924  0.4385116429394426  0.5400960411426887   T   T   T
  0.1671342982749398  0.4437974656095618  0.5427869262978755   T   T   T
  0.0000000000000000  0.5000718856546769  0.1971343718284118   F   F   F
  0.3342926847814240  0.5624132518977021  0.2026937805440667   F   F   F
  0.1663206548061567  0.5625684459108768  0.2026879703893130   F   F   F
  0.2502067873593177  0.6250918040142253  0.2779408447657588   F   F   F
  0.0826029581595549  0.5626929404336494  0.2836274496812337   F   F   F
  0.4173382514782702  0.5622475047871944  0.2840383744896471   F   F   F
 -0.0003680542121772  0.6248682463308083  0.3691389553182680   T   T   T
  0.3316051619149371  0.5623402482459303  0.3684307565219738   T   T   T
  0.1673162924955068  0.5626008236807721  0.3681801061951891   T   T   T
  0.2498355054450334  0.6254903396500874  0.4562755799316189   T   T   T
  0.0833074491599151  0.5636697697077501  0.4548961040891452   T   T   T
  0.4166643917145421  0.5620472675156351  0.4541579197672994   T   T   T
  0.9897254592084130  0.6317642896546647  0.5445353506106411   T   T   T
  0.3245049692152470  0.5645076799567641  0.5429411117834509   T   T   T
  0.0000000000000000  0.6251997475754436  0.1971274192404451   F   F   F
  0.3343369412500081  0.6874555756944787  0.2027209845130571   F   F   F
  0.1662604173406379  0.6876312578509030  0.2027221982441247   F   F   F
  0.2501999816055047  0.7498887646067161  0.2779024730234809   F   F   F
  0.0825727650861410  0.6876830281330939  0.2837096283809757   F   F   F
  0.4172972896996328  0.6872504991250779  0.2840867748275429   F   F   F
 -0.0004056662366621  0.7504554852441110  0.3693150381987241   T   T   T
  0.3320434108371193  0.6870441022979402  0.3682884378726848   T   T   T
  0.1683887986734757  0.6874410546957266  0.3676408002513583   T   T   T
  0.2493409081504154  0.7484430136099516  0.4541073015826907   T   T   T
  0.0824603597459331  0.6886557714081514  0.4516091282146275   T   T   T
  0.4171527393402202  0.6875463263225777  0.4536850629588943   T   T   T
  0.0033597810032477  0.7607862214949904  0.5837811376900255   T   T   T
  0.3351709779779350  0.6881085518171263  0.5397535018763261   T   T   T
  0.1676064107289566  0.6888771859357812  0.5422096889803444   T   T   T
  0.0000000000000000  0.7500718858687634  0.1971343718284118   F   F   F
  0.3342926847814240  0.8124132516836227  0.2026937805440667   F   F   F
  0.1663206548061567  0.8125684456967974  0.2026879703893130   F   F   F
  0.2502067873593177  0.8750918042283118  0.2779408447657588   F   F   F
  0.0826029581595549  0.8126929402195699  0.2836274496812337   F   F   F
  0.4173382514782702  0.8122475045731150  0.2840383744896471   F   F   F
 -0.0002221677917328  0.8750095529552878  0.3694106469991509   T   T   T
  0.3321474707930766  0.8122593547632000  0.3680348344056492   T   T   T
  0.1688259375593130  0.8124480930439393  0.3675973768585397   T   T   T
  0.2497916670709114  0.8752037755041826  0.4552886379511190   T   T   T
  0.0839166433925696  0.8120711431569819  0.4532292379149399   T   T   T
  0.4164167926591618  0.8118808531364073  0.4540498922354596   T   T   T
  0.9855222468562643  0.8790222368380102  0.5863381489729639   T   T   T
  0.3340749302012704  0.8112577302883781  0.5416189580243184   T   T   T
  0.0000000000000000  0.8751997477895301  0.1971274192404451   F   F   F
  0.3343369412500081  0.9374555759085652  0.2027209845130571   F   F   F
  0.1662604173406379  0.9376312580649895  0.2027221982441247   F   F   F
  0.2501999816055047  0.4998887643926295  0.2779024730234809   F   F   F
  0.0825727650861410  0.9376830283471804  0.2837096283809757   F   F   F
  0.4172972896996328  0.9372504993391644  0.2840867748275429   F   F   F
 -0.0000013461781279  0.5002856715770879  0.3692984878584659   T   T   T
  0.3320075217162326  0.9372397055493281  0.3683603447322859   T   T   T
  0.1686779932357959  0.9375053366986852  0.3679550612077504   T   T   T
  0.2497135305186490  0.5003195637192961  0.4554376416120222   T   T   T
  0.0828975260827544  0.9352150829844953  0.4521190898086415   T   T   T
  0.4155091229227956  0.9373511410584670  0.4540740116646504   T   T   T
  0.9945160750986580  0.5042193973592755  0.5450705999735129   T   T   T
  0.3387230499701542  0.9372983410606565  0.5424443421532239   T   T   T
  0.1735827028415308  0.9333481221160131  0.5414993511247291   T   T   T
  0.5000000000000000  0.9997488470195677  0.1972621268646009   F   F   F
  0.8336793153754556  0.0625684459108768  0.2026879703893130   F   F   F
  0.6657072859523794  0.0624132518977021  0.2026937805440667   F   F   F
  0.7497932120884911  0.1250918040142253  0.2779408447657588   F   F   F
  0.5826617485217298  0.0622475047871944  0.2840383744896471   F   F   F
  0.9173970418404451  0.0626929404336494  0.2836274496812337   F   F   F
  0.4994610551686602  0.1245549409923242  0.3695948092277807   T   T   T
  0.8328550650508976  0.0624430148355679  0.3686745726910841   T   T   T
  0.6680492776050422  0.0622139699237212  0.3679262047257859   T   T   T
  0.7483149965754197  0.1255318223663879  0.4549028154005499   T   T   T
  0.5830289649574757  0.0616445718598564  0.4536716082421764   T   T   T
  0.9140692796008395  0.0614653827513633  0.4570630914643167   T   T   T
  0.4975374216183128  0.1274021651742284  0.5409718730200568   T   T   T
  0.6574823376234883  0.0607922660596420  0.5429424169661717   T   T   T
  0.5000000000000000  0.1249314217885598  0.1972730821371940   F   F   F
  0.8337395528409743  0.1876312578509030  0.2027221982441247   F   F   F
  0.6656630294837953  0.1874555756944787  0.2027209845130571   F   F   F
  0.7498000178423041  0.2498887646067161  0.2779024730234809   F   F   F
  0.5827027103003743  0.1872504991250779  0.2840867748275429   F   F   F
  0.9174272349138590  0.1876830281330939  0.2837096283809757   F   F   F
  0.4996525487509891  0.2496786284325788  0.3694994486424107   T   T   T
  0.8323543977836889  0.1873032886992320  0.3684137205378109   T   T   T
  0.6682602616649707  0.1871852267218776  0.3680898691359114   T   T   T
  0.7503338815794032  0.2482647965064421  0.4550028906817278   T   T   T
  0.5833199984531818  0.1872333586088649  0.4532359590200292   T   T   T
  0.9168006808073905  0.1873835106328508  0.4536402537138672   T   T   T
  0.8193621583523348  0.1846565304743519  0.5395690709127638   T   T   T
  0.6562273684232972  0.1849755857738585  0.5410674874724232   T   T   T
  0.5000000000000000  0.2497488472336542  0.1972621268646009   F   F   F
  0.8336793153754556  0.3125684456967974  0.2026879703893130   F   F   F
  0.6657072859523794  0.3124132516836227  0.2026937805440667   F   F   F
  0.7497932120884911  0.3750918042283047  0.2779408447657588   F   F   F
  0.5826617485217298  0.3122475045731150  0.2840383744896471   F   F   F
  0.9173970418404451  0.3126929402195699  0.2836274496812337   F   F   F
  0.4998975495111004  0.3747217575229287  0.3695960365622671   T   T   T
  0.8328007551966978  0.3123545839678262  0.3684311961916631   T   T   T
  0.6684962217328870  0.3122212192370159  0.3680276182208020   T   T   T
  0.7505662196755433  0.3757528383435177  0.4552863546948988   T   T   T
  0.5837314736176794  0.3117358773722109  0.4535274488747644   T   T   T
  0.9155812863637750  0.3121642133840292  0.4559575514523773   T   T   T
  0.4981942480677574  0.3797822893580698  0.5398227012942663   T   T   T
  0.6599707382822454  0.3107474130034787  0.5417665116240787   T   T   T
  0.5000000000000000  0.3749314220026463  0.1972730821371940   F   F   F
  0.8337395528409743  0.4376312580649895  0.2027221982441247   F   F   F
  0.6656630294837953  0.4374555759085652  0.2027209845130571   F   F   F
  0.7498000178423041  0.9998887643926295  0.2779024730234809   F   F   F
  0.5827027103003743  0.4372504993391644  0.2840867748275429   F   F   F
  0.9174272349138590  0.4376830283471804  0.2837096283809757   F   F   F
  0.4995663591230183 -0.0002454667116808  0.3695487077141879   T   T   T
  0.8321658307108475  0.4374132926037904  0.3683078857997716   T   T   T
  0.6685231039625826  0.4372808432751497  0.3682226031815357   T   T   T
  0.7492784248511181  0.9981621017318001  0.4549270166798056   T   T   T
  0.5848495697233428  0.4377552856431891  0.4534358974410246   T   T   T
  0.9177776164260018  0.4370014231928124  0.4533988692310255   T   T   T
  0.8251143723127423  0.4365831089523744  0.5406790678869756   T   T   T
  0.6616515438835651  0.4391951353935859  0.5405140497913062   T   T   T
  0.5000000000000000  0.4997488470195677  0.1972621268646009   F   F   F
  0.8336793153754556  0.5625684459108768  0.2026879703893130   F   F   F
  0.6657072859523794  0.5624132518977021  0.2026937805440667   F   F   F
  0.7497932120884911  0.6250918040142253  0.2779408447657588   F   F   F
  0.5826617485217298  0.5622475047871944  0.2840383744896471   F   F   F
  0.9173970418404451  0.5626929404336494  0.2836274496812337   F   F   F
  0.5003242954013739  0.6246312761862535  0.3696271983105400   T   T   T
  0.8321915332159713  0.5625119045181686  0.3682480652126225   T   T   T
  0.6685422755467956  0.5623058325586060  0.3681574808234669   T   T   T
  0.7518489352540970  0.6264693577524579  0.4557133723569127   T   T   T
  0.5845154615775524  0.5620343060702544  0.4542895167493156   T   T   T
  0.9134180106753089  0.5634455626883861  0.4542239685132192   T   T   T
  0.5011790396099367  0.6297149065797999  0.5418005006792452   T   T   T
  0.6650454116911242  0.5637604932283602  0.5430262252529735   T   T   T
  0.5000000000000000  0.6249314217885598  0.1972730821371940   F   F   F
  0.8337395528409743  0.6876312578509030  0.2027221982441247   F   F   F
  0.6656630294837953  0.6874555756944787  0.2027209845130571   F   F   F
  0.7498000178423041  0.7498887646067161  0.2779024730234809   F   F   F
  0.5827027103003743  0.6872504991250779  0.2840867748275429   F   F   F
  0.9174272349138590  0.6876830281330939  0.2837096283809757   F   F   F
  0.5002955174809482  0.7496787581646125  0.3695576835383428   T   T   T
  0.8314063171913674  0.6878289279047437  0.3681530941005932   T   T   T
  0.6682002352598690  0.6872830828233857  0.3684357159640151   T   T   T
  0.7514042482964239  0.7490547529498226  0.4552426842243212   T   T   T
  0.5847957390491202  0.6877339008426097  0.4539673629892289   T   T   T
  0.9175813145078090  0.6896442008289674  0.4520692414750939   T   T   T
  0.8251198939714232  0.6910233571005218  0.5418001772306443   T   T   T
  0.6618376744724163  0.6879691730878783  0.5412448425354153   T   T   T
  0.5000000000000000  0.7497488472336542  0.1972621268646009   F   F   F
  0.8336793153754556  0.8125684456967974  0.2026879703893130   F   F   F
  0.6657072859523794  0.8124132516836227  0.2026937805440667   F   F   F
  0.7497932120884911  0.8750918042283118  0.2779408447657588   F   F   F
  0.5826617485217298  0.8122475045731150  0.2840383744896471   F   F   F
  0.9173970418404451  0.8126929402195699  0.2836274496812337   F   F   F
  0.4999537629690154  0.8746773257923032  0.3696210982058363   T   T   T
  0.8319231184894388  0.8126557227961091  0.3683583756803741   T   T   T
  0.6679305153514568  0.8123626800460402  0.3680849262863536   T   T   T
  0.7506004483849541  0.8761440821393479  0.4550279481566365   T   T   T
  0.5842354082241873  0.8120638666693361  0.4544493935782719   T   T   T
  0.9184908903812731  0.8129428085139753  0.4568318456679996   T   T   T
  0.4985657401938037  0.8774585921786257  0.5419345251175263   T   T   T
  0.6611419298193616  0.8128914858767345  0.5436833790632269   T   T   T
  0.5000000000000000  0.8749314220026463  0.1972730821371940   F   F   F
  0.8337395528409743  0.9376312580649895  0.2027221982441247   F   F   F
  0.6656630294837953  0.9374555759085652  0.2027209845130571   F   F   F
  0.7498000178423041  0.4998887643926295  0.2779024730234809   F   F   F
  0.5827027103003743  0.9372504993391644  0.2840867748275429   F   F   F
  0.9174272349138590  0.9376830283471804  0.2837096283809757   F   F   F
  0.5001881269307362  0.4997802396124669  0.3695614636335112   T   T   T
  0.8316456372935588  0.9375595519941401  0.3683727612954129   T   T   T
  0.6679628107862269  0.9372611091028530  0.3682047587671779   T   T   T
  0.7517242715245613  0.4988050729022601  0.4556345724961346   T   T   T
  0.5833171772630119  0.9374349220330593  0.4535846370412527   T   T   T
  0.9169422492359562  0.9357683597838171  0.4524129323932288   T   T   T
  0.8204220867746566  0.9374429146109000  0.5418147437495269   T   T   T
  0.6566959612353699  0.9379098080198491  0.5417010794703107   T   T   T
  0.4059506995368949  0.9998103569988004  0.2323399901924574   F   F   F
  0.2502818136972422  0.0000100120603932  0.1992701427820052   F   F   F
  0.0942451913851556  0.0001403620404119  0.2320193079771755   F   F   F
  0.1548500728727760  0.1251896284821186  0.3155471504414038   F   F   F
  0.0000000000000000  0.1252068311979144  0.3027729437307727   F   F   F
  0.3452374976173260  0.1246790180981137  0.3159667219502040   F   F   F
  0.4002122990245747  0.1246014415193662  0.4021897231353688   T   T   T
  0.2495926862849008  0.1248547810457204  0.3877052774665595   T   T   T
  0.0982535355119613  0.1245844371085987  0.4028831738122974   T   T   T
  0.1505952908212384  0.1301140371982652  0.4877884114353517   T   T   T
  0.0018520909026805  0.1245118159062410  0.4775787635560408   T   T   T
  0.3491718358771270  0.1244294948434813  0.4884383184710019   T   T   T
  0.4034169026431578  0.1235891195867760  0.5720683476333537   T   T   T
  0.2508069981967374  0.1279393355658496  0.5588194920342607   T   T   T
  0.0724650108379998  0.0547199595841737  0.5579580171193717   T   T   T
  0.4058965650769153  0.1248444725173243  0.2323487498080610   F   F   F
  0.2502659080337395  0.1250292587474817  0.1993221158785232   F   F   F
  0.0942835749489959  0.1251516263229604  0.2320045250220701   F   F   F
  0.1548192101321320  0.2501939211492825  0.3155011134344150   F   F   F
  0.0000000000000000  0.2502658028626925  0.3027806051347781   F   F   F
  0.3452603591557377  0.2497083480957656  0.3159103143480522   F   F   F
  0.4000023300476920  0.2497245082301894  0.4018122398108366   T   T   T
  0.2494370307374282  0.2501322318919413  0.3873294917156921   T   T   T
  0.0980985093165253  0.2507207927428262  0.4029425262234513   T   T   T
  0.1520411066207570  0.2479028822822088  0.4878619707562543   T   T   T
 -0.0002901830964421  0.2491248668031272  0.4790024650348044   T   T   T
  0.3480435968136666  0.2497386558890882  0.4888641103212285   T   T   T
  0.4035368076826019  0.2485379231228839  0.5719195702880155   T   T   T
  0.2517096235074738  0.2505806717130093  0.5639949645814705   T   T   T
  0.0740463336462430  0.1883434965374561  0.5657332462931108   T   T   T
  0.4059506995368949  0.2498103572128869  0.2323399901924574   F   F   F
  0.2502818136972422  0.2500100122744797  0.1992701427820052   F   F   F
  0.0942451913851556  0.2501403622544984  0.2320193079771755   F   F   F
  0.1548500728727760  0.3751896286962122  0.3155471504414038   F   F   F
  0.0000000000000000  0.3752068314120010  0.3027729437307727   F   F   F
  0.3452374976173260  0.3746790183122002  0.3159667219502040   F   F   F
  0.4004951118567724  0.3747094224903914  0.4019912820542448   T   T   T
  0.2494933177605473  0.3750515942635897  0.3872335345342731   T   T   T
  0.0981680328253459  0.3749205763316794  0.4025167941790171   T   T   T
  0.1526559058942535  0.3810069512011320  0.4854603849245878   T   T   T
  0.0009291561786416  0.3740345554343861  0.4783865996598981   T   T   T
  0.3502664638542978  0.3746726580307233  0.4882362353608092   T   T   T
  0.4036230725824531  0.3742280023528948  0.5725263742353631   T   T   T
  0.2530906945373201  0.3770099796688043  0.5579430701797959   T   T   T
  0.1040575681951165  0.3775496301839163  0.5677954675061655   T   T   T
  0.4058965650769153  0.3748444727314109  0.2323487498080610   F   F   F
  0.2502659080337395  0.3750292589615682  0.1993221158785232   F   F   F
  0.0942835749489959  0.3751516265370469  0.2320045250220701   F   F   F
  0.1548192101321320  0.0001939209351960  0.3155011134344150   F   F   F
  0.0000000000000000  0.0002658026486060  0.3027806051347781   F   F   F
  0.3452603591557377  0.9997083478816791  0.3159103143480522   F   F   F
  0.4002757658752775 -0.0002899858341636  0.4021508148936959   T   T   T
  0.2498123988003739 -0.0000009222026252  0.3875408438652075   T   T   T
  0.0986125862112068  0.0005397198702071  0.4023907168492995   T   T   T
  0.1497318227894981  0.9936008389223865  0.4877633070074894   T   T   T
  0.0005338828128911 -0.0023278840949391  0.4761321081812346   T   T   T
  0.3478515038142148 -0.0010676295742383  0.4884482536697788   T   T   T
  0.4049673739358813 -0.0017090706231070  0.5703348085185247   T   T   T
  0.2505816549115548 -0.0045970576655351  0.5583313234949783   T   T   T
  0.0700886796827667  0.9290934533744308  0.5673114358137725   T   T   T
  0.4059506995368949  0.4998103569988004  0.2323399901924574   F   F   F
  0.2502818136972422  0.5000100120603932  0.1992701427820052   F   F   F
  0.0942451913851556  0.5001403620404119  0.2320193079771755   F   F   F
  0.1548500728727760  0.6251896284821186  0.3155471504414038   F   F   F
  0.0000000000000000  0.6252068311979144  0.3027729437307727   F   F   F
  0.3452374976173260  0.6246790180981137  0.3159667219502040   F   F   F
  0.4014002566535557  0.6244247732980708  0.4023456210977905   T   T   T
  0.2498723521978564  0.6246918036315786  0.3880482233242167   T   T   T
  0.0986259137114950  0.6250789300458147  0.4015711046141162   T   T   T
  0.1491716453932797  0.6284599827916770  0.4867903559155374   T   T   T
 -0.0024453925939928  0.6273631940583023  0.4749347773273465   T   T   T
  0.3506429176333202  0.6244988856699544  0.4885705712708228   T   T   T
  0.4047744267448032  0.6254863181626537  0.5748479212072219   T   T   T
  0.2531343472311542  0.6288723383662405  0.5576555405915943   T   T   T
  0.0871985665434911  0.6369457483617025  0.5700489764488824   T   T   T
  0.4058965650769153  0.6248444725173243  0.2323487498080610   F   F   F
  0.2502659080337395  0.6250292587474817  0.1993221158785232   F   F   F
  0.0942835749489959  0.6251516263229604  0.2320045250220701   F   F   F
  0.1548192101321320  0.7501939211492825  0.3155011134344150   F   F   F
  0.0000000000000000  0.7502658028626925  0.3027806051347781   F   F   F
  0.3452603591557377  0.7497083480957656  0.3159103143480522   F   F   F
  0.4010582964610242  0.7498238952710712  0.4018061610346901   T   T   T
  0.2504006223041997  0.7496801258921406  0.3865718696483523   T   T   T
  0.0997305148606124  0.7506318274839699  0.4003792776829122   T   T   T
  0.1507015311962124  0.7460754346577605  0.4850107076513790   T   T   T
  0.0010183916491536  0.7500143481658957  0.4692221570008896   T   T   T
  0.3485254245877862  0.7498005741724064  0.4870439197676511   T   T   T
  0.4022036239817070  0.7489418105519448  0.5694938796724408   T   T   T
  0.2541796232452010  0.7475823795115133  0.5588600970694380   T   T   T
  0.1058461060837262  0.7554074769050302  0.5671634234230750   T   T   T
  0.4059506995368949  0.7498103572128869  0.2323399901924574   F   F   F
  0.2502818136972422  0.7500100122744797  0.1992701427820052   F   F   F
  0.0942451913851556  0.7501403622544984  0.2320193079771755   F   F   F
  0.1548500728727760  0.8751896286962051  0.3155471504414038   F   F   F
  0.0000000000000000  0.8752068314120010  0.3027729437307727   F   F   F
  0.3452374976173260  0.8746790183122002  0.3159667219502040   F   F   F
  0.4010499434294502  0.8744847237322397  0.4022964228448016   T   T   T
  0.2504081777190435  0.8747690943626628  0.3873080745479462   T   T   T
  0.0999913270585847  0.8741972391169933  0.4006830414712265   T   T   T
  0.1499740088718103  0.8762487480534809  0.4873697493943915   T   T   T
  0.0012441106405757  0.8757355149341328  0.4685962855190831   T   T   T
  0.3498805603852213  0.8742804741178279  0.4886668061836938   T   T   T
  0.4037698615521493  0.8716477746900774  0.5745275083040823   T   T   T
  0.2500981919082828  0.8750461170488304  0.5579100194223366   T   T   T
  0.9644051043249953  0.8199734711975022  0.5441515659353382   T   T   T
  0.4058965650769153  0.8748444727314109  0.2323487498080610   F   F   F
  0.2502659080337395  0.8750292589615682  0.1993221158785232   F   F   F
  0.0942835749489959  0.8751516265370469  0.2320045250220701   F   F   F
  0.1548192101321320  0.5001939209351960  0.3155011134344150   F   F   F
  0.0000000000000000  0.5002658026486060  0.3027806051347781   F   F   F
  0.3452603591557377  0.4997083478816791  0.3159103143480522   F   F   F
  0.4007883492598474  0.5000796995214201  0.4019668915484882   T   T   T
  0.2494196204902517  0.5000887755759554  0.3875314915045787   T   T   T
  0.0986101379919317  0.5002803048399697  0.4022231796964322   T   T   T
  0.1502135118476026  0.5003049130708895  0.4878990015210499   T   T   T
 -0.0020007792628322  0.4998127619644421  0.4758396677883522   T   T   T
  0.3480018418874871  0.5012024001253189  0.4879852279311165   T   T   T
  0.4053150994963329  0.5026530691973199  0.5670795504038426   T   T   T
  0.2570518908232344  0.4966397581899397  0.5628012458036530   T   T   T
  0.0914829634156056  0.4959276901322565  0.5723399745213943   T   T   T
  0.9057548086148444  0.0001403620404119  0.2320193079771755   F   F   F
  0.7497181857505666  0.0000100120603932  0.1992701427820052   F   F   F
  0.5940493004631051  0.9998103569988004  0.2323399901924574   F   F   F
  0.6547625023826740  0.1246790180981137  0.3159667219502040   F   F   F
  0.5000000000000000  0.1247350155864240  0.3031143998011601   F   F   F
  0.8451499271272240  0.1251896284821186  0.3155471504414038   F   F   F
  0.9023083468133516  0.1241369678547843  0.4030730755557001   T   T   T
  0.7500737878174570  0.1246250734367554  0.3872343220248782   T   T   T
  0.5987775447530446  0.1245926304775362  0.4017905613352118   T   T   T
  0.6483735805528846  0.1241544831044752  0.4877638559768371   T   T   T
  0.4988375351912120  0.1243109748824572  0.4726245073352657   T   T   T
  0.8474496004912656  0.1287003283685290  0.4862005136906611   T   T   T
  0.9244369506816528  0.0600725363946270  0.5471656419646935   T   T   T
  0.7441396916353140  0.1267226126862586  0.5584837158281438   T   T   T
  0.5917727483759581  0.1239530941260214  0.5716150664874744   T   T   T
  0.9057164250510041  0.1251516263229604  0.2320045250220701   F   F   F
  0.7497340914140693  0.1250292587474817  0.1993221158785232   F   F   F
  0.5941034349230847  0.1248444725173243  0.2323487498080610   F   F   F
  0.6547396408442623  0.2497083480957656  0.3159103143480522   F   F   F
  0.5000000000000000  0.2496370424515106  0.3031199056982175   F   F   F
  0.8451807898678680  0.2501939211492825  0.3155011134344150   F   F   F
  0.9022441660324183  0.2500944106659236  0.4028660778538486   T   T   T
  0.7505369727168254  0.2498913688865723  0.3872486710930692   T   T   T
  0.5993157107850362  0.2497065869383562  0.4015760639844197   T   T   T
  0.6504798027130464  0.2493823571399524  0.4879662589321906   T   T   T
  0.4994056706905968  0.2494260645066143  0.4699822067014723   T   T   T
  0.8490170446949767  0.2463070699196637  0.4874158682076931   T   T   T
  0.9223461782391397  0.1816651954383956  0.5641682227230524   T   T   T
  0.7440075599339503  0.2468079762260675  0.5601998605150826   T   T   T
  0.5912991650334541  0.2474623056560963  0.5700814290876655   T   T   T
  0.9057548086148444  0.2501403622544984  0.2320193079771755   F   F   F
  0.7497181857505666  0.2500100122744797  0.1992701427820052   F   F   F
  0.5940493004631051  0.2498103572128869  0.2323399901924574   F   F   F
  0.6547625023826740  0.3746790183122002  0.3159667219502040   F   F   F
  0.5000000000000000  0.3747350158005176  0.3031143998011601   F   F   F
  0.8451499271272240  0.3751896286962122  0.3155471504414038   F   F   F
  0.9021884061109228  0.3742521132078654  0.4027035919502079   T   T   T
  0.7505288812498793  0.3746147948509629  0.3874889270307546   T   T   T
  0.5992561902377288  0.3746726586470063  0.4018596591942939   T   T   T
  0.6504169341441318  0.3743232431292512  0.4878670464752755   T   T   T
  0.5000017389599116  0.3747900588736062  0.4720584435627256   T   T   T
  0.8496546869631755  0.3778353912397239  0.4874477984021815   T   T   T
  0.9697066151734808  0.3055118941497543  0.5849741881926362   T   T   T
  0.7447257121123014  0.3776198757963476  0.5585769458468682   T   T   T
  0.5942425430108562  0.3744745053941783  0.5688462208490651   T   T   T
  0.9057164250510041  0.3751516265370469  0.2320045250220701   F   F   F
  0.7497340914140693  0.3750292589615682  0.1993221158785232   F   F   F
  0.5941034349230847  0.3748444727314109  0.2323487498080610   F   F   F
  0.6547396408442623  0.9997083478816791  0.3159103143480522   F   F   F
  0.5000000000000000  0.9996370422374241  0.3031199056982175   F   F   F
  0.8451807898678680  0.0001939209351960  0.3155011134344150   F   F   F
  0.9017620886075280  0.0008727890891499  0.4028170882257872   T   T   T
  0.7499616145012573  0.0002086975078080  0.3871527376067108   T   T   T
  0.5988621026284402 -0.0002752186962098  0.4017922791306070   T   T   T
  0.6495222309001808 -0.0005679234144024  0.4878148479671706   T   T   T
  0.4990290427093132 -0.0004393767800393  0.4717926331873932   T   T   T
  0.8481391160423478  0.9951463510360521  0.4868423906729670   T   T   T
  0.9146180374119454  0.9441036258554826  0.5754007661276930   T   T   T