Ru Ta  N  Cu                            
   1.00000000000000     
    18.1096308199999996    0.0000000000000000    0.0000000000000000
     0.0000000000000000   23.3551997799999995    0.0000000000000000
     0.0000000000000000    0.0000000000000000   30.4818170799999990
   Ru   Ta   N    Cu
    64   240   240     4
Selective dynamics
Direct
  0.0672015028801553  0.0107504228190252  0.5336598628996768   T   T   T
  0.2831663585421106  0.5007174026989339  0.5261495397076171   T   T   T
  0.4405441497165432  0.0626153932097142  0.5191968541435352   T   T   T
  0.0703682395919806  0.2610952506979822  0.5342966666407690   T   T   T
  0.2837794181808845  0.2487789613313357  0.5257017585624105   T   T   T
  0.4396623638902323  0.3074595937984059  0.5217430380912599   T   T   T
  0.0666490353076302  0.1223079417673401  0.5331838290838499   T   T   T
  0.2850364228691415  0.1321550302608257  0.5252436426774215   T   T   T
  0.4452215726451824  0.1852949074995706  0.5209833274878091   T   T   T
  0.0687156042510586  0.3737618073302031  0.5334026459473550   T   T   T
  0.2805507539273897  0.3836286939340267  0.5269108491062754   T   T   T
  0.4226107342617634  0.4370638106330194  0.5164450900268632   T   T   T
  0.1712632696334350  0.4375785924428936  0.5484776865355177   T   T   T
  0.1885757614247346  0.3084664149491043  0.5523844061192650   T   T   T
  0.1724635130794457  0.1832379029883299  0.5491433891058588   T   T   T
  0.1857346783545368  0.0614982801589914  0.5502470787125867   T   T   T
  0.0691677482474652  0.5125063382452654  0.5329992095201139   T   T   T
  0.2841139117624391  0.9992043451218500  0.5252389454856164   T   T   T
  0.4407743041147968  0.5666952745772887  0.5216555236901300   T   T   T
  0.0682428933126072  0.7616430055704352  0.5339702943765033   T   T   T
  0.2845899939577204  0.7490607744976346  0.5252666177983922   T   T   T
  0.4408346152966937  0.8115574558663760  0.5191535608609754   T   T   T
  0.0672008885717699  0.6225167794676733  0.5332488192952508   T   T   T
  0.2829075283239758  0.6329633704512343  0.5258226031205531   T   T   T
  0.4447368341698653  0.6885387486002976  0.5210009895092744   T   T   T
  0.0675134479531502  0.8731020675950443  0.5336114857724309   T   T   T
  0.2832259766351010  0.8822228779283326  0.5256496751217576   T   T   T
  0.4448157876754753  0.9372129882480150  0.5210328670615660   T   T   T
  0.1724098541780670  0.9372627578266941  0.5487015870700880   T   T   T
  0.1868312751613077  0.8112592867792412  0.5507840482597322   T   T   T
  0.1716703072462725  0.6872810055340756  0.5490281129692379   T   T   T
  0.1862938626245031  0.5627355793395559  0.5522716597891167   T   T   T
  0.5676167140374984  0.0052487368744789  0.5337736577821878   T   T   T
  0.7932725023166526  0.4980107438065756  0.5232765368714751   T   T   T
  0.9405363260498071  0.0606923723831614  0.5191586800144840   T   T   T
  0.5698233973640051  0.2480443283349109  0.5352290844056918   T   T   T
  0.7835602091403052  0.2459668627370393  0.5254349642401708   T   T   T
  0.9436886533257963  0.3088470158312133  0.5198720374102707   T   T   T
  0.5651225131301451  0.1157825979981831  0.5332264882725967   T   T   T
  0.7869694434009256  0.1225713191529921  0.5244620208806290   T   T   T
  0.9455393310349878  0.1879176299350895  0.5211657388669261   T   T   T
  0.5680563726006086  0.3571608473402562  0.5363002059140047   T   T   T
  0.7938160071068018  0.3752460461285869  0.5229839786412551   T   T   T
  0.9516103087013006  0.4374199331179482  0.5220586064731195   T   T   T
  0.6841019112038903  0.4362646747416514  0.5443773867255715   T   T   T
  0.6891925533315499  0.3203554665301684  0.5516581785745676   T   T   T
  0.6771242637753523  0.1866798757801587  0.5479979665995861   T   T   T
  0.6834378059474054  0.0676952868502847  0.5523421857966303   T   T   T
  0.5707786407942408  0.5184024536397089  0.5369137457807713   T   T   T
  0.7807227451748296 -0.0005007515006381  0.5259237688713498   T   T   T
  0.9421462261332720  0.5624521344338156  0.5194934790073126   T   T   T
  0.5657957044511980  0.7601347485525457  0.5335436424913809   T   T   T
  0.7874368721612292  0.7537393753550897  0.5244942110021144   T   T   T
  0.9409898742238574  0.8109276208195837  0.5191626742714768   T   T   T
  0.5686466568548347  0.6276646715559935  0.5349760141954045   T   T   T
  0.7855980738199656  0.6315621602458108  0.5248247530150590   T   T   T
  0.9452808089577195  0.6874141190536818  0.5213304153047500   T   T   T
  0.5670574574387157  0.8711419763503833  0.5336811781624430   T   T   T
  0.7802563585082500  0.8772754356545716  0.5260380136415523   T   T   T
  0.9458359948631134  0.9372710148479222  0.5209557675528201   T   T   T
  0.6727797646164506  0.9376212919180105  0.5486070447187763   T   T   T
  0.6834049774561024  0.8075150078296848  0.5520695717892272   T   T   T
  0.6773348807193957  0.6884337860226006  0.5477961724867332   T   T   T
  0.6909758699843783  0.5577516462870977  0.5499157467471316   T   T   T
  0.9996246524628063  0.9999635445867767  0.1022212275957983   F   F   F
  0.3339438256838960  0.0624457813299060  0.1075563970202325   F   F   F
  0.1656734882889026  0.0624869619810369  0.1076523577670159   F   F   F
  0.2496380332605455  0.1248777014917124  0.1827535963680589   F   F   F
  0.0820753910794778  0.0624168821917976  0.1887361965005994   F   F   F
  0.4168249566545654  0.0624128089775482  0.1889653308070223   F   F   F
  0.0002205529734512  0.1249263848661400  0.2747700938311853   T   T   T
  0.3319864192235481  0.0624211973401474  0.2731572261277995   T   T   T
  0.1676653551395182  0.0624386879668669  0.2728240637944506   T   T   T
  0.2490546332069468  0.1249242651567823  0.3595691842267060   T   T   T
  0.0838455769077111  0.0625161699811819  0.3592144634637841   T   T   T
  0.4160157443213105  0.0623627070457712  0.3589603053832608   T   T   T
  0.4962709278196763  0.1247050981627665  0.4435827087166949   T   T   T
  0.3321209732823894  0.0621435470389341  0.4451853824702819   T   T   T
  0.1655071467298519  0.0625873033314828  0.4473786041962891   T   T   T
  0.9996175425524214  0.1249358288969233  0.1022184789678420   F   F   F
  0.3339435537114426  0.1874256191358299  0.1075504356733603   F   F   F
  0.1656688965935942  0.1874633245330628  0.1076544484778310   F   F   F
  0.2496428192825420  0.2499248694537357  0.1827745152021549   F   F   F
  0.0820483011947246  0.1874164370395803  0.1887315368489411   F   F   F
  0.4168235962087010  0.1874178821048673  0.1889761876915443   F   F   F
  0.0002171186914431  0.2499162972939394  0.2747845342066895   T   T   T
  0.3320441642766038  0.1874638995675919  0.2731744374938759   T   T   T
  0.1676621677291855  0.1874682091015017  0.2728395602173244   T   T   T
  0.2489654359682719  0.2499840654305416  0.3595843985727877   T   T   T
  0.0836913496009577  0.1875305074611190  0.3594338165222282   T   T   T
  0.4158971338851854  0.1874133236203843  0.3587418400255200   T   T   T
  0.4970042776078101  0.2487449006770885  0.4440870714938278   T   T   T
  0.3321801646747625  0.1868940636861283  0.4440448866261172   T   T   T
  0.1640214815480114  0.1875316164756706  0.4480920373765250   T   T   T
  0.9996247444640574  0.2499647011854407  0.1022230082490267   F   F   F
  0.3339438339619036  0.3124448417397900  0.1075557633545969   F   F   F
  0.1656741876920407  0.3124866150128511  0.1076519504247102   F   F   F
  0.2496342491082189  0.3748782083517597  0.1827543288382500   F   F   F
  0.0820773763724816  0.3124181279228466  0.1887355922833933   F   F   F
  0.4168238893201348  0.3124134579098339  0.1889644027201030   F   F   F
  0.0001673468494523  0.3749389834918340  0.2747779714846761   T   T   T
  0.3320587025098830  0.3124854899576099  0.2732084817271733   T   T   T
  0.1675469607775506  0.3124758641125223  0.2729048832185965   T   T   T
  0.2491445682221827  0.3750023778267759  0.3596878922077983   T   T   T
  0.0836828579781269  0.3125506310730129  0.3594376652085638   T   T   T
  0.4160986500488015  0.3124682939593463  0.3591136764371938   T   T   T
  0.4976640177011236  0.3745747125780834  0.4447025716795738   T   T   T
  0.3319795948193492  0.3115143119432115  0.4451394374302503   T   T   T
  0.1654983483481990  0.3126269318326810  0.4473774876018024   T   T   T
  0.9996196554118555  0.3749345235867736  0.1022175688270863   F   F   F
  0.3339389444248013  0.4374272239936090  0.1075500232538360   F   F   F
  0.1656692123176882  0.4374660331456823  0.1076535614342404   F   F   F
  0.2496367764464793  0.9999279799998888  0.1827742299965678   F   F   F
  0.0820476334098430  0.4374171254006285  0.1887298800136392   F   F   F
  0.4168193524269412  0.4374154383080295  0.1889763507298241   F   F   F
  0.5002461097421467  0.4998659037734443  0.2748622430017678   T   T   T
  0.3320940721720884  0.4374154241417380  0.2733017988485144   T   T   T
  0.1675242540379081  0.4374350393842907  0.2729633996146481   T   T   T
  0.2492072783228726  0.4999928614815027  0.3596815557796763   T   T   T
  0.0835773654289411  0.4375197274208960  0.3596326370359117   T   T   T
  0.4159671456578579  0.4374220523886184  0.3595366817566411   T   T   T
  0.4976828661622639  0.5002447764645249  0.4448478460789228   T   T   T
  0.3342522727451317  0.4371429534603657  0.4455446039151494   T   T   T
  0.1645980971749126  0.4378177067152574  0.4479032823038488   T   T   T
  0.9996246524628063  0.4999635445867767  0.1022212275957983   F   F   F
  0.3339438256838960  0.5624457813299060  0.1075563970202325   F   F   F
  0.1656734882889026  0.5624869619810369  0.1076523577670159   F   F   F
  0.2496380332605455  0.6248777014917124  0.1827535963680589   F   F   F
  0.0820753910794778  0.5624168821917976  0.1887361965005994   F   F   F
  0.4168249566545654  0.5624128089775482  0.1889653308070223   F   F   F
  0.0001787378504215  0.6249039799031005  0.2747659377762080   T   T   T
  0.3320771977552874  0.5623354183930298  0.2731960025513364   T   T   T
  0.1675912598857695  0.5623917415963479  0.2728767517463677   T   T   T
  0.2490524175573767  0.6250317486503518  0.3595404422120271   T   T   T
  0.0836816481298663  0.5624581178194095  0.3593417768013302   T   T   T
  0.4160925548314425  0.5623737919403645  0.3591372785131506   T   T   T
  0.4970486075963467  0.6259492786014749  0.4438937847541078   T   T   T
  0.3319261644642485  0.5630194734089932  0.4450897738662208   T   T   T
  0.1654762333682899  0.5627740500361430  0.4471235037690551   T   T   T
  0.9996175425524214  0.6249358288969233  0.1022184789678420   F   F   F
  0.3339435537114426  0.6874256191358228  0.1075504356733603   F   F   F
  0.1656688965935942  0.6874633245330557  0.1076544484778310   F   F   F
  0.2496428192825420  0.7499248694537357  0.1827745152021549   F   F   F
  0.0820483011947246  0.6874164370395732  0.1887315368489411   F   F   F
  0.4168235962087010  0.6874178821048602  0.1889761876915443   F   F   F
  0.0002385449577785  0.7499245909775017  0.2747647977682192   T   T   T
  0.3320585166910762  0.6873768938231222  0.2731914759019214   T   T   T
  0.1676557246168510  0.6873843688855369  0.2728356446341927   T   T   T
  0.2490709048858032  0.7500856908990892  0.3596221446524855   T   T   T
  0.0836396895828866  0.6874875258519096  0.3594217938934051   T   T   T
  0.4158778582658824  0.6874788062224938  0.3587679225743929   T   T   T
  0.4962120422696791  0.7499449732243573  0.4437664535388676   T   T   T
  0.3321785689758760  0.6875078513852595  0.4441627849462170   T   T   T
  0.1638607300830718  0.6879060782148836  0.4481128392180442   T   T   T
  0.9996247444640574  0.7499647011854407  0.1022230082490267   F   F   F
  0.3339438339619036  0.8124448417397900  0.1075557633545969   F   F   F
  0.1656741876920407  0.8124866150128511  0.1076519504247102   F   F   F
  0.2496342491082189  0.8748782083517597  0.1827543288382500   F   F   F
  0.0820773763724816  0.8124181279228466  0.1887355922833933   F   F   F
  0.4168238893201348  0.8124134579098339  0.1889644027201030   F   F   F
  0.0002553628409861  0.8749370049329659  0.2747584235720671   T   T   T
  0.3320140196339297  0.8124103093712677  0.2731658703992137   T   T   T
  0.1676783463924583  0.8124044090738310  0.2728273806135224   T   T   T
  0.2492257630814016  0.8749711817383500  0.3596711406513748   T   T   T
  0.0838659127054803  0.8125101282891394  0.3592167908668840   T   T   T
  0.4160182097708469  0.8124729985352620  0.3590028745922361   T   T   T
  0.4962766952362367  0.8750782777647991  0.4440318757544567   T   T   T
  0.3322037644122851  0.8125130750226266  0.4453475825883862   T   T   T
  0.1656078096239008  0.8127819729865161  0.4474318027956868   T   T   T
  0.9996196554118555  0.8749345235867736  0.1022175688270863   F   F   F
  0.3339389444248013  0.9374272239936019  0.1075500232538360   F   F   F
  0.1656692123176882  0.9374660331456752  0.1076535614342404   F   F   F
  0.2496367764464793  0.4999279799998888  0.1827742299965678   F   F   F
  0.0820476334098430  0.9374171254006214  0.1887298800136392   F   F   F
  0.4168193524269412  0.9374154383080224  0.1889763507298241   F   F   F
  0.5001773092809295  0.9998886174533014  0.2747351475032888   T   T   T
  0.3320641510183572  0.9374113795254139  0.2732134573044965   T   T   T
  0.1677147999126098  0.9374208790706512  0.2728259280232020   T   T   T
  0.2491884055826145  0.0000034383650634  0.3596637318291619   T   T   T
  0.0837459533144870  0.9374908787528460  0.3593361856989061   T   T   T
  0.4159354974297047  0.9374224925282211  0.3588803454041593   T   T   T
  0.4961388764194125  0.9995994237767167  0.4441031635259335   T   T   T
  0.3325069910680236  0.9372358167547459  0.4444699675316097   T   T   T
  0.1641956104543258  0.9377407137552753  0.4479971479260842   T   T   T
  0.4996261485864011  0.9999638794554073  0.1022212895025945   F   F   F
  0.8339437371848675  0.0624482785398897  0.1075580759875550   F   F   F
  0.6656689243728380  0.0624780056916450  0.1076592327669417   F   F   F
  0.7496377014008289  0.1248750966894079  0.1827574333080477   F   F   F
  0.5820735458319604  0.0624174442172745  0.1887352315057669   F   F   F
  0.9168252921289621  0.0624138005358219  0.1889639379559043   F   F   F
  0.5002348059870420  0.1249170742137825  0.2747463502603920   T   T   T
  0.8320859683448735  0.0624048421815470  0.2731835551371570   T   T   T
  0.6677377155506076  0.0623945337472557  0.2728214086920508   T   T   T
  0.7493142242525418  0.1247171485096235  0.3596617831353276   T   T   T
  0.5837551588549539  0.0623733759797120  0.3590349040905791   T   T   T
  0.9161178173838803  0.0623495743029864  0.3590655866139879   T   T   T
  0.9952467035899800  0.1247731710510053  0.4441358557519873   T   T   T
  0.8326539830289084  0.0622558542360388  0.4452731456436695   T   T   T
  0.6653821698017903  0.0622655498600909  0.4469432353873768   T   T   T
  0.4996213536236240  0.1249348955726433  0.1022183024833154   F   F   F
  0.8339388961320680  0.1874236234033546  0.1075519903559652   F   F   F
  0.6656669566206190  0.1874574838225769  0.1076541056651124   F   F   F
  0.7496375557706187  0.2499211919418656  0.1827775726101990   F   F   F
  0.5820467926301731  0.1874136002736648  0.1887331258771638   F   F   F
  0.9168211714113710  0.1874148173649246  0.1889752459503455   F   F   F
  0.5002518874103274  0.2499888288494811  0.2747995331106490   T   T   T
  0.8321272853351874  0.1874044935717083  0.2732296687730003   T   T   T
  0.6676728310321872  0.1874258508343437  0.2728647042612371   T   T   T
  0.7491144020591260  0.2498239560953424  0.3597926133219955   T   T   T
  0.5836944612025742  0.1874001320757372  0.3593677524719217   T   T   T
  0.9160435784502512  0.1873217378019238  0.3589606845078723   T   T   T
  0.9959020009463695  0.2493715646754752  0.4442192344306961   T   T   T
  0.8320055670524370  0.1873370230739277  0.4446244197242340   T   T   T
  0.6644131757472792  0.1870394982763970  0.4481369762923917   T   T   T
  0.4996265847195431  0.2499624135589542  0.1022211658925301   F   F   F
  0.8339432913754052  0.3124470264806618  0.1075580597257542   F   F   F
  0.6656786166489255  0.3124812578813660  0.1076589101753385   F   F   F
  0.7496359798815462  0.3748756411498491  0.1827578042801292   F   F   F
  0.5820751330297256  0.3124154754956550  0.1887345581865603   F   F   F
  0.9168256971425777  0.3124110138011744  0.1889624020058491   F   F   F
  0.5002404998993000  0.3749576974856819  0.2748579086557649   T   T   T
  0.8320080825303461  0.3124228303485091  0.2732738174501229   T   T   T
  0.6676736137752615  0.3124377451033286  0.2729535612534082   T   T   T
  0.7488287790986260  0.3747543823638312  0.3599885732063697   T   T   T
  0.5838390792749325  0.3123853927114487  0.3595243625907753   T   T   T
  0.9162904953255864  0.3123237453720386  0.3591212932723093   T   T   T
  0.9939425356128487  0.3745713741838826  0.4452362474466768   T   T   T
  0.8321498225361678  0.3120569078153196  0.4449174712200560   T   T   T
  0.6648980726668899  0.3124248988460617  0.4480195371803870   T   T   T
  0.4996231203952064  0.3749337364865255  0.1022171720136171   F   F   F
  0.8339311317052278  0.4374224703005467  0.1075522038351053   F   F   F
  0.6656706818776428  0.4374574332997483  0.1076540871022118   F   F   F
  0.7496383104150084  0.9999213865668750  0.1827756388646549   F   F   F
  0.5820474546648100  0.4374150382907018  0.1887310280212660   F   F   F
  0.9168210958579976  0.4374163027642837  0.1889749839040178   F   F   F
  0.0001294120394465  0.4999109173067114  0.2747797462701510   T   T   T
  0.8321247826406978  0.4373957294462035  0.2734005067653137   T   T   T
  0.6675627780654102  0.4374140324186124  0.2730616907717951   T   T   T
  0.7487617112577614  0.4999608836099936  0.3600420685352693   T   T   T
  0.5834998718863997  0.4374349149781324  0.3599968877827487   T   T   T
  0.9162707613266663  0.4374014143186262  0.3591712189640677   T   T   T
  0.9935199165574691  0.4994021279589493  0.4452947247709508   T   T   T
  0.8315189256033810  0.4372402746323543  0.4437211226412313   T   T   T
  0.6630440910255286  0.4373612000887442  0.4492769322674130   T   T   T
  0.4996261485864011  0.4999638794554073  0.1022212895025945   F   F   F
  0.8339437371848675  0.5624482785398897  0.1075580759875550   F   F   F
  0.6656689243728380  0.5624780056916450  0.1076592327669417   F   F   F
  0.7496377014008289  0.6248750966894079  0.1827574333080477   F   F   F
  0.5820735458319604  0.5624174442172745  0.1887352315057669   F   F   F
  0.9168252921289621  0.5624138005358219  0.1889639379559043   F   F   F
  0.5002728416695382  0.6248400644443334  0.2747985921637218   T   T   T
  0.8319910877083010  0.5623842734845309  0.2732835467785921   T   T   T
  0.6676810823344294  0.5623875140748232  0.2729580691900263   T   T   T
  0.7490639858440988  0.6249474084924712  0.3598368763168330   T   T   T
  0.5838937808884596  0.5624379900868475  0.3595849931493948   T   T   T
  0.9161877685856570  0.5624223583556942  0.3591616206091179   T   T   T
  0.9947448126783042  0.6249108347182293  0.4442848450182691   T   T   T
  0.8317315519811195  0.5625905997070285  0.4450431481126175   T   T   T
  0.6648541466318287  0.5623699938599782  0.4483478344119401   T   T   T
  0.4996213536236240  0.6249348955726433  0.1022183024833154   F   F   F
  0.8339388961320680  0.6874236234033475  0.1075519903559652   F   F   F
  0.6656669566206190  0.6874574838225698  0.1076541056651124   F   F   F
  0.7496375557706187  0.7499211919418656  0.1827775726101990   F   F   F
  0.5820467926301731  0.6874136002736577  0.1887331258771638   F   F   F
  0.9168211714113710  0.6874148173649175  0.1889752459503455   F   F   F
  0.5002594956198316  0.7498954592162960  0.2747536588252625   T   T   T
  0.8321218072701377  0.6873871729654890  0.2732445650754564   T   T   T
  0.6676868682692669  0.6873820778963700  0.2728662604639272   T   T   T
  0.7492876005787612  0.7500987058111498  0.3596860795355054   T   T   T
  0.5837195796993186  0.6874616403788326  0.3593876373725788   T   T   T
  0.9160445795090691  0.6874647231567631  0.3589359200928640   T   T   T
  0.9961247550004827  0.7494202527554933  0.4440417852500614   T   T   T
  0.8319020254816260  0.6873919238074520  0.4443898903192664   T   T   T
  0.6644045286388823  0.6879612827549472  0.4481865569201015   T   T   T
  0.4996265847195431  0.7499624135589542  0.1022211658925301   F   F   F
  0.8339432913754052  0.8124470264806618  0.1075580597257542   F   F   F
  0.6656786166489255  0.8124812578813660  0.1076589101753385   F   F   F
  0.7496359798815462  0.8748756411498491  0.1827578042801292   F   F   F
  0.5820751330297256  0.8124154754956550  0.1887345581865603   F   F   F
  0.9168256971425777  0.8124110138011744  0.1889624020058491   F   F   F
  0.5001913461948883  0.8749042580551576  0.2747397737272301   T   T   T
  0.8320833736848249  0.8123966719779319  0.2731930217745719   T   T   T
  0.6677424155876416  0.8124038748299462  0.2728347869489427   T   T   T
  0.7493407430926945  0.8748904514800311  0.3596963908941825   T   T   T
  0.5837666721158897  0.8124859983366968  0.3590931159215511   T   T   T
  0.9161432565544054  0.8125044427988096  0.3590419406875611   T   T   T
  0.9960427628953066  0.8748035033147306  0.4439828378597208   T   T   T
  0.8327854038816074  0.8124472741894256  0.4452614295418094   T   T   T
  0.6654578697100579  0.8126541236065186  0.4470988669749998   T   T   T
  0.4996231203952064  0.8749337364865255  0.1022171720136171   F   F   F
  0.8339311317052278  0.9374224703005396  0.1075522038351053   F   F   F
  0.6656706818776428  0.9374574332997412  0.1076540871022118   F   F   F
  0.7496383104150084  0.4999213865668750  0.1827756388646549   F   F   F
  0.5820474546648100  0.9374150382906947  0.1887310280212660   F   F   F
  0.9168210958579976  0.9374163027642766  0.1889749839040178   F   F   F
  0.0002505818447176  0.9999054807929172  0.2747656383978532   T   T   T
  0.8321510272323890  0.9373929947388780  0.2731803088223341   T   T   T
  0.6677509304244865  0.9373890903061430  0.2728011388311058   T   T   T
  0.7493550901716429 -0.0000922102954666  0.3596762670588578   T   T   T
  0.5836056062083449  0.9374308512656018  0.3592401604845327   T   T   T
  0.9159955027309370  0.9374187673387780  0.3589163524246388   T   T   T
  0.9962441620971728  0.9994246476402787  0.4438403223161910   T   T   T
  0.8323569532372623  0.9372621851332521  0.4450371260877505   T   T   T
  0.6644689741509096  0.9374911529562409  0.4479186370713487   T   T   T
  0.4054220745019208  0.9999222115495812  0.1371706404740110   F   F   F
  0.2498130538845231  0.9999469596221715  0.1043552466225179   F   F   F
  0.0938777968594522  0.9999465964224399  0.1371098030237761   F   F   F
  0.1543635830516692  0.1248899271375592  0.2204647086472562   F   F   F
  0.9995670073461937  0.1248966516782701  0.2080976692853085   F   F   F
  0.3446973568903360  0.1248674306196307  0.2206598414842134   F   F   F
  0.4004713526323260  0.1248689482626801  0.3066905243369027   T   T   T
  0.2496054797107033  0.1249483709530055  0.2919375653574670   T   T   T
  0.0995507592113499  0.1250142875911661  0.3071065211429844   T   T   T
  0.1517208927076924  0.1251492637115807  0.3936977418967658   T   T   T
  0.4996426332820750  0.1248678066754802  0.3758446013394319   T   T   T
  0.3476001628517042  0.1245716481363023  0.3921903444983376   T   T   T
  0.3999790396054014  0.1261184126616659  0.4782619340931240   T   T   T
  0.2506924040793029  0.1252398993437689  0.4634589927433994   T   T   T
  0.0945009101805266  0.1244732045398087  0.4728296018074403   T   T   T
  0.4054214644049878  0.1249282036816339  0.1371697875501496   F   F   F
  0.2498118312390858  0.1249501818115135  0.1042602234590362   F   F   F
  0.0938664600244081  0.1249385922007349  0.1371069089706722   F   F   F
  0.1543560911150905  0.2498790211591952  0.2204709660202369   F   F   F
  0.9995706735895027  0.2499094862395950  0.2080999580462830   F   F   F
  0.3447055266517580  0.2498932390428195  0.2206623926809286   F   F   F
  0.4005244830084504  0.2500289762019257  0.3067683897729220   T   T   T
  0.2495828445097379  0.2499952439332883  0.2919614332682933   T   T   T
  0.0995186677335168  0.2499998071678359  0.3071731330743977   T   T   T
  0.1516650057611122  0.2501344169732699  0.3938844787897137   T   T   T
  0.4996451721291509  0.2497872351391449  0.3762932643857131   T   T   T
  0.3474648108445456  0.2501370927820026  0.3922784907153214   T   T   T
  0.4000488907881117  0.2472073944533715  0.4780397075669359   T   T   T
  0.2502303654337467  0.2495192293798377  0.4636612930146244   T   T   T
  0.0947856204264732  0.2514084151900565  0.4735470622570427   T   T   T
  0.4054229972694188  0.2499207711709062  0.1371716336629376   F   F   F
  0.2498138581555835  0.2499451823925298  0.1043557657097551   F   F   F
  0.0938776901322669  0.2499459403779412  0.1371098843944125   F   F   F
  0.1543617400249389  0.3748920346981564  0.2204674382050342   F   F   F
  0.9995672189247742  0.3748993922795947  0.2080981530608312   F   F   F
  0.3446956533108718  0.3748674624887514  0.2206599019871973   F   F   F
  0.4005723771829861  0.3750241069897917  0.3070230224271163   T   T   T
  0.2495761514773956  0.3749366456710050  0.2920340401943154   T   T   T
  0.0993366111726454  0.3750095991580770  0.3072767867533053   T   T   T
  0.1519601769143036  0.3751822736666341  0.3937918901206345   T   T   T
  0.4996534054408250  0.3747020416465144  0.3767595812969884   T   T   T
  0.3473230297844888  0.3748579973699442  0.3928479933922292   T   T   T
  0.4020306444621912  0.3692820488156740  0.4782849518657205   T   T   T
  0.2510985965854972  0.3756032910200009  0.4641575165454996   T   T   T
  0.0946009952002988  0.3747129956478232  0.4724640145790673   T   T   T
  0.4054204481464510  0.3749288137657416  0.1371674470345781   F   F   F
  0.2498106243523637  0.3749504007233213  0.1042578114000037   F   F   F
  0.0938682935435935  0.3749385903486697  0.1371059653233644   F   F   F
  0.1543531827738107  0.9998787448957458  0.2204712064644667   F   F   F
  0.9995677263797802  0.9999081653989563  0.2081008624749074   F   F   F
  0.3447067510723798  0.9998918897834912  0.2206650007889195   F   F   F
  0.4005739075251432  0.4997990329186777  0.3070418208994016   T   T   T
  0.2495969694583026  0.4999363591648411  0.2920415680593723   T   T   T
  0.0993356658125080  0.4999396758734146  0.3072508064391784   T   T   T
  0.1519364066397426  0.5000586769685426  0.3937229384109562   T   T   T
  0.4996491253798306  0.5001278715987031  0.3768606201204118   T   T   T
  0.3476822684731670  0.0001891526000512  0.3924672726690489   T   T   T
  0.4017108487003498  0.5051658431713151  0.4785301255575672   T   T   T
  0.2509410791925192  0.4999584821971667  0.4637517051432676   T   T   T
  0.0946725689252200  0.0012581492261800  0.4733936382795433   T   T   T
  0.4054220745019208  0.4999222115495883  0.1371706404740110   F   F   F
  0.2498130538845231  0.4999469596221715  0.1043552466225179   F   F   F
  0.0938777968594522  0.4999465964224399  0.1371098030237761   F   F   F
  0.1543635830516692  0.6248899271375592  0.2204647086472562   F   F   F
  0.9995670073461937  0.6248966516782701  0.2080976692853085   F   F   F
  0.3446973568903360  0.6248674306196307  0.2206598414842134   F   F   F
  0.4005301963147375  0.6248095952488438  0.3067552721201699   T   T   T
  0.2495998834666376  0.6248900360071109  0.2919383533490886   T   T   T
  0.0994675110493720  0.6249203480708854  0.3071365892039351   T   T   T
  0.1517331418948860  0.6251751257676146  0.3936947975246259   T   T   T
  0.4996467642098767  0.6250534811633245  0.3761432809865915   T   T   T
  0.3475624974397890  0.6249132094942452  0.3922176407602063   T   T   T
  0.4003585135301123  0.6272769633236220  0.4779177537184888   T   T   T
  0.2503226596643195  0.6257964947926320  0.4637733252434054   T   T   T
  0.0944760498491070  0.6243698124308426  0.4726284604096552   T   T   T
  0.4054214644049878  0.6249282036816339  0.1371697875501496   F   F   F
  0.2498118312390858  0.6249501818115135  0.1042602234590362   F   F   F
  0.0938664600244081  0.6249385922007349  0.1371069089706722   F   F   F
  0.1543560911150905  0.7498790211591952  0.2204709660202369   F   F   F
  0.9995706735895027  0.7499094862395950  0.2080999580462830   F   F   F
  0.3447055266517580  0.7498932390428195  0.2206623926809286   F   F   F
  0.4004929141514734  0.7499745229163668  0.3067133793480519   T   T   T
  0.2496092675821820  0.7499158119987682  0.2919751409397380   T   T   T
  0.0995463271859806  0.7499186431665360  0.3071133716477296   T   T   T
  0.1516648302443715  0.7500702974449213  0.3937683850283514   T   T   T
  0.4996581085419809  0.7499764937318066  0.3759911529915543   T   T   T
  0.3475538104251661  0.7503872426115454  0.3923598340369200   T   T   T
  0.3996861593764273  0.7485332906467308  0.4785287049421034   T   T   T
  0.2504318342351609  0.7499912442660556  0.4633779156508865   T   T   T
  0.0946092022476219  0.7514856258798602  0.4735143576532300   T   T   T
  0.4054229972694188  0.7499207711709062  0.1371716336629376   F   F   F
  0.2498138581555835  0.7499451823925369  0.1043557657097551   F   F   F
  0.0938776901322669  0.7499459403779412  0.1371098843944125   F   F   F
  0.1543617400249389  0.8748920346981564  0.2204674382050342   F   F   F
  0.9995672189247742  0.8748993922795947  0.2080981530608312   F   F   F
  0.3446956533108718  0.8748674624887514  0.2206599019871973   F   F   F
  0.4004804476797307  0.8748997591947507  0.3067679586339973   T   T   T
  0.2496239967846529  0.8749232420203056  0.2919990698950733   T   T   T
  0.0995877816683680  0.8749499772327374  0.3070648167233870   T   T   T
  0.1517706926640423  0.8751688387793223  0.3937039468353350   T   T   T
  0.4997172383896653  0.8749871971948365  0.3761485522992665   T   T   T
  0.3477467171210595  0.8747305828267069  0.3924407438014908   T   T   T