Ta  N Cu                                
   1.00000000000000     
    11.9754398999999996    0.0000000000000000    0.0000000000000000
    -1.7175315499999999   11.8516346499999994    0.0000000000000000
     0.0000000000000000    0.0000000000000000   22.7106327899999982
   Ta   N    Cu
    72    72     2
Selective dynamics
Direct
  0.9955339587019623  0.9955339540487174  0.2712224588739929   F   F   F
  0.2699333485827822  0.1030132974397020  0.3100259080635226   F   F   F
  0.1030132717436416  0.2699333822854797  0.3100259080635226   F   F   F
  0.3596205863249367  0.3596206399952564  0.3447007771003783   F   F   F
  0.1253409742651783  0.4593656738838163  0.3919418349552828   F   F   F
  0.4593656603424634  0.1253409739335112  0.3919418349552828   F   F   F
  0.2212224816791258  0.2214348254618313  0.4358088660785889   T   T   T
  0.4864333945114911  0.3202422416134648  0.4784069555854177   T   T   T
  0.3200615635354815  0.4867463551723820  0.4783544710296720   T   T   T
  0.0840417858981908  0.0846528766363550  0.5209728999925817   T   T   T
  0.3470714681789873  0.1822756731134674  0.5645721991532605   T   T   T
  0.1815688732430920  0.3478317147110794  0.5643344545141197   T   T   T
  0.4447373552929588  0.4457323910183664  0.6070821990425853   T   T   T
  0.2076355514319445  0.0421500571706241  0.6496276838164797   T   T   T
  0.0425129141681165  0.2086869543073056  0.6503621712430180   T   T   T
  0.3108044588506303  0.3138216142935784  0.6965850969651842   T   T   T
  0.0688612740082686  0.4036973885374066  0.7290358562289241   T   T   T
  0.4006107333561379  0.0685482306945893  0.7311242283446668   T   T   T
  0.9955339590589745  0.4955339536268326  0.2712224588739929   F   F   F
  0.2699333482257629  0.6030132978615868  0.3100259080635226   F   F   F
  0.1030132722216663  0.7699333827073573  0.3100259080635226   F   F   F
  0.3596205866819489  0.8596206395733716  0.3447007771003783   F   F   F
  0.1253409746221976  0.9593656734619316  0.3919418349552828   F   F   F
  0.4593656608204952  0.6253409743553888  0.3919418349552828   F   F   F
  0.2212454238236104  0.7214172969438487  0.4357887813677473   T   T   T
  0.4865516612907280  0.8204512896680350  0.4784964927394532   T   T   T
  0.3201936539984808  0.9868840954596979  0.4784747149858598   T   T   T
  0.0842300703914704  0.5846963348503996  0.5208676477650743   T   T   T
  0.3470784448046972  0.6820906443651736  0.5640882934143734   T   T   T
  0.1811621550152483  0.8473800107513841  0.5639873565087655   T   T   T
  0.4434716246368910  0.9445904058227235  0.6080553955363937   T   T   T
  0.2077037578181059  0.5437613785019403  0.6501537235646893   T   T   T
  0.0425029219964272  0.7078093625238560  0.6505568727848389   T   T   T
  0.3135652039524480  0.8124090353180752  0.6942104380503435   T   T   T
  0.0652973940417233  0.9027184649230982  0.7288904111606543   T   T   T
  0.4043726142219595  0.5671321372566251  0.7284975172204158   T   T   T
  0.4955339587019623  0.9955339540487174  0.2712224588739929   F   F   F
  0.7699333485827822  0.1030132974397020  0.3100259080635226   F   F   F
  0.6030132717436416  0.2699333822854797  0.3100259080635226   F   F   F
  0.8596205863249367  0.3596206399952564  0.3447007771003783   F   F   F
  0.6253409742651783  0.4593656738838163  0.3919418349552828   F   F   F
  0.9593656603424634  0.1253409739335112  0.3919418349552828   F   F   F
  0.7212125664773732  0.2213906812189251  0.4358211323749362   T   T   T
  0.9864540204632077  0.3202976180963344  0.4785119029557547   T   T   T
  0.8201187477343610  0.4868161747870111  0.4784981161477376   T   T   T
  0.5842398915175462  0.0847452519765911  0.5210150437590357   T   T   T
  0.8469943645304289  0.1815536979981906  0.5642683703840609   T   T   T
  0.6815292369049178  0.3474652593321141  0.5642014050840218   T   T   T
  0.9435384946746327  0.4441589421132687  0.6078876859405500   T   T   T
  0.7069744721023874  0.0434479540958949  0.6510992682756136   T   T   T
  0.5430642652227726  0.2077904519749194  0.6504680786848720   T   T   T
  0.8120281794928046  0.3132730178266397  0.6947036531243330   T   T   T
  0.5680712385247164  0.4061353052375772  0.7287629100717536   T   T   T
  0.9020705743574661  0.0660417417215541  0.7289645111111295   T   T   T
  0.4955339590589745  0.4955339536268326  0.2712224588739929   F   F   F
  0.7699333482257629  0.6030132978615868  0.3100259080635226   F   F   F
  0.6030132722216663  0.7699333827073573  0.3100259080635226   F   F   F
  0.8596205866819489  0.8596206395733716  0.3447007771003783   F   F   F
  0.6253409746221976  0.9593656734619316  0.3919418349552828   F   F   F
  0.9593656608204952  0.6253409743553888  0.3919418349552828   F   F   F
  0.7212466089919460  0.7215235948652243  0.4357525893978598   T   T   T
  0.9864817438482441  0.8204014196334816  0.4784310384383217   T   T   T
  0.8200169536525724  0.9868517975739763  0.4785078406434312   T   T   T
  0.5842731324751835  0.5846977648283800  0.5209816891654330   T   T   T
  0.8468900442415825  0.6817763049882072  0.5640962279327205   T   T   T
  0.6811727513370929  0.8475152368764765  0.5642310174112272   T   T   T
  0.9431972066650520  0.9437872475982266  0.6075602711058252   T   T   T
  0.7078444236414079  0.5437392885375614  0.6506262586780157   T   T   T
  0.5430969113567617  0.7083599998877146  0.6506976265042328   T   T   T
  0.8124677308497227  0.8130502429413359  0.6950977217370394   T   T   T
  0.5651613792609979  0.9052775257465410  0.7287315305830047   T   T   T
  0.9046991546191520  0.5666429864534176  0.7285457633961421   T   T   T
  0.4506180773709048  0.1400782132052782  0.2976725581183857   F   F   F
  0.2642075833142314  0.2642075209653356  0.2836189927733201   F   F   F
  0.1400781798198807  0.4506180903161052  0.2976725581183857   F   F   F
  0.3074132852265237  0.9999309000767909  0.3839488749030693   F   F   F
  0.1352939988863540  0.1352940283866033  0.3689431455789318   F   F   F
  0.9999308780646601  0.3074132624267207  0.3839488749030693   F   F   F
  0.1682056283688660  0.3643919368663401  0.4692889592343856   T   T   T
  0.4969551239221103  0.4971120662533667  0.4538278458900862   T   T   T
  0.3641713713702825  0.1684655589099600  0.4693254402880723   T   T   T
  0.0293782308064953  0.2255528229199315  0.5551153301650960   T   T   T
  0.3574985533134084  0.3578742782387917  0.5399713128979997   T   T   T
  0.2251500172381641  0.0299991992908084  0.5548469879511433   T   T   T
  0.3888433726947356  0.0882782014117580  0.6403538819806651   T   T   T
  0.2211905492734742  0.2223271719488361  0.6280622339598776   T   T   T
  0.0872736260879144  0.3900187532695570  0.6398038308832519   T   T   T
  0.2503243309999799  0.4564958509206835  0.7286718543614552   T   T   T
  0.0758428914140441  0.0761012598648316  0.7091392488898333   T   T   T
  0.4581858252005240  0.2540729905524371  0.7275340549545257   T   T   T
  0.4506180777279170  0.6400782127833935  0.2976725581183857   F   F   F
  0.2642075828362067  0.7642075205434509  0.2836189927733201   F   F   F
  0.1400781801769000  0.9506180898942276  0.2976725581183857   F   F   F
  0.3074132857045484  0.4999309004986756  0.3839488749030693   F   F   F
  0.1352939993643858  0.6352940288084810  0.3689431455789318   F   F   F
  0.9999308775866353  0.8074132620048431  0.3839488749030693   F   F   F
  0.1681862446498990  0.8644582540854777  0.4692133876692302   T   T   T
  0.4969629390902461  0.9971917499327324  0.4538510882434132   T   T   T
  0.3642604028830924  0.6684373052469924  0.4692602542082941   T   T   T
  0.0292436784037877  0.7254571806882252  0.5549632493563597   T   T   T
  0.3570230407062147  0.8576838419052408  0.5399707279597915   T   T   T
  0.2250894256370468  0.5299845639099133  0.5547200620050778   T   T   T
  0.3899397558052484  0.5884946456629333  0.6393753283415692   T   T   T
  0.2210643396918545  0.7218222870198568  0.6277563026526295   T   T   T
  0.0865724943975315  0.8899658620894541  0.6394437854507303   T   T   T
  0.2497042654372611  0.9482644109952846  0.7275386025209600   T   T   T
  0.0751132803254425  0.5754962129502290  0.7090498487654960   T   T   T
  0.4518223487164796  0.7507974470879945  0.7297711614874511   T   T   T
  0.9506180773709048  0.1400782132052782  0.2976725581183857   F   F   F
  0.7642075824791874  0.2642075209653356  0.2836189927733201   F   F   F
  0.6400781798198807  0.4506180903161052  0.2976725581183857   F   F   F
  0.8074132852265237  0.9999309000767909  0.3839488749030693   F   F   F
  0.6352939988863540  0.1352940283866033  0.3689431455789318   F   F   F
  0.4999308780646601  0.3074132624267207  0.3839488749030693   F   F   F
  0.6681846127843074  0.3643882445453778  0.4692896434379976   T   T   T
  0.9969457903200025  0.4970499268191824  0.4538144068665942   T   T   T
  0.8641900865931937  0.1683784310439109  0.4693332191674637   T   T   T
  0.5295412083347064  0.2255548767372820  0.5549048009233439   T   T   T
  0.8569918268155957  0.3572069539387910  0.5399889916491304   T   T   T
  0.7249995518116841  0.0298442152413670  0.5552522538816336   T   T   T
  0.8897831881180688  0.0875066064012663  0.6397994363476102   T   T   T
  0.7214286223929174  0.2219056747503338  0.6280840523122109   T   T   T
  0.5875815697048818  0.3904736370974078  0.6392593430818869   T   T   T
  0.7512529148147513  0.4527768118223939  0.7296252956591273   T   T   T
  0.5735144181642868  0.0750904311637804  0.7098036999473029   T   T   T
  0.9499660601748138  0.2512384304565455  0.7285800425495266   T   T   T
  0.9506180777279170  0.6400782127833935  0.2976725581183857   F   F   F
  0.7642075828362067  0.7642075205434509  0.2836189927733201   F   F   F
  0.6400781801769000  0.9506180898942276  0.2976725581183857   F   F   F
  0.8074132857045484  0.4999309004986756  0.3839488749030693   F   F   F
  0.6352939993643858  0.6352940288084810  0.3689431455789318   F   F   F
  0.4999308775866353  0.8074132620048431  0.3839488749030693   F   F   F
  0.6681648132701852  0.8645583145632859  0.4692863786116848   T   T   T
  0.9969042775508610  0.9971379559228823  0.4538280463350134   T   T   T
  0.8642353426052110  0.6684407480815928  0.4692028057400621   T   T   T
  0.5294283761491998  0.7255399169053551  0.5550792035374857   T   T   T
  0.8566618367933142  0.8571699634798405  0.5397993588458920   T   T   T
  0.7250720298461766  0.5298424731776685  0.5550378037795067   T   T   T
  0.8894992217414130  0.5879162188733952  0.6394828217231573   T   T   T
  0.7214644632946936  0.7221512285728987  0.6281847114429662   T   T   T
  0.5872541284947297  0.8903227806959713  0.6396136326083137   T   T   T
  0.7502098620184234  0.9516850201902709  0.7300554134169479   T   T   T
  0.5766771610221164  0.5775033838647796  0.7094633144424926   T   T   T
  0.9513548087960068  0.7509090310599673  0.7298763225219614   T   T   T
  0.1845826922891204  0.1605901352954223  0.7613956331086436   T   T   T
  0.3585253385651063  0.2395833050805539  0.8042387773637351   T   T   T
 
  0.00000000E+00  0.00000000E+00  0.00000000E+00
  0.00000000E+00  0.00000000E+00  0.00000000E+00
  0.00000000E+00  0.00000000E+00  0.00000000E+00
  0.00000000E+00  0.00000000E+00  0.00000000E+00
  0.00000000E+00  0.00000000E+00  0.00000000E+00
  0.00000000E+00  0.00000000E+00  0.00000000E+00
  0.00000000E+00  0.00000000E+00  0.00000000E+00
  0.00000000E+00  0.00000000E+00  0.00000000E+00
  0.00000000E+00  0.00000000E+00  0.00000000E+00
  0.00000000E+00  0.00000000E+00  0.00000000E+00
  0.00000000E+00  0.00000000E+00  0.00000000E+00
  0.00000000E+00  0.00000000E+00  0.00000000E+00
  0.00000000E+00  0.00000000E+00  0.00000000E+00
  0.00000000E+00  0.00000000E+00  0.00000000E+00
  0.00000000E+00  0.00000000E+00  0.00000000E+00
  0.00000000E+00  0.00000000E+00  0.00000000E+00
  0.00000000E+00  0.00000000E+00  0.00000000E+00
  0.00000000E+00  0.00000000E+00  0.00000000E+00
  0.00000000E+00  0.00000000E+00  0.00000000E+00
  0.00000000E+00  0.00000000E+00  0.00000000E+00
  0.00000000E+00  0.00000000E+00  0.00000000E+00
  0.00000000E+00  0.00000000E+00  0.00000000E+00
  0.00000000E+00  0.00000000E+00  0.00000000E+00
  0.00000000E+00  0.00000000E+00  0.00000000E+00
  0.00000000E+00  0.00000000E+00  0.00000000E+00
  0.00000000E+00  0.00000000E+00  0.00000000E+00
  0.00000000E+00  0.00000000E+00  0.00000000E+00
  0.00000000E+00  0.00000000E+00  0.00000000E+00
  0.00000000E+00  0.00000000E+00  0.00000000E+00
  0.00000000E+00  0.00000000E+00  0.00000000E+00
  0.00000000E+00  0.00000000E+00  0.00000000E+00
  0.00000000E+00  0.00000000E+00  0.00000000E+00
  0.00000000E+00  0.00000000E+00  0.00000000E+00
  0.00000000E+00  0.00000000E+00  0.00000000E+00
  0.00000000E+00  0.00000000E+00  0.00000000E+00
  0.00000000E+00  0.00000000E+00  0.00000000E+00
  0.00000000E+00  0.00000000E+00  0.00000000E+00
  0.00000000E+00  0.00000000E+00  0.00000000E+00
  0.00000000E+00  0.00000000E+00  0.00000000E+00
  0.00000000E+00  0.00000000E+00  0.00000000E+00
  0.00000000E+00  0.00000000E+00  0.00000000E+00
  0.00000000E+00  0.00000000E+00  0.00000000E+00
  0.00000000E+00  0.00000000E+00  0.00000000E+00
  0.00000000E+00  0.00000000E+00  0.00000000E+00
  0.00000000E+00  0.00000000E+00  0.00000000E+00
  0.00000000E+00  0.00000000E+00  0.00000000E+00
  0.00000000E+00  0.00000000E+00  0.00000000E+00
  0.00000000E+00  0.00000000E+00  0.00000000E+00
  0.00000000E+00  0.00000000E+00  0.00000000E+00
  0.00000000E+00  0.00000000E+00  0.00000000E+00
  0.00000000E+00  0.00000000E+00  0.00000000E+00
  0.00000000E+00  0.00000000E+00  0.00000000E+00
  0.00000000E+00  0.00000000E+00  0.00000000E+00
  0.00000000E+00  0.00000000E+00  0.00000000E+00
  0.00000000E+00  0.00000000E+00  0.00000000E+00
  0.00000000E+00  0.00000000E+00  0.00000000E+00
  0.00000000E+00  0.00000000E+00  0.00000000E+00
  0.00000000E+00  0.00000000E+00  0.00000000E+00
  0.00000000E+00  0.00000000E+00  0.00000000E+00
  0.00000000E+00  0.00000000E+00  0.00000000E+00
  0.00000000E+00  0.00000000E+00  0.00000000E+00
  0.00000000E+00  0.00000000E+00  0.00000000E+00
  0.00000000E+00  0.00000000E+00  0.00000000E+00
  0.00000000E+00  0.00000000E+00  0.00000000E+00
  0.00000000E+00  0.00000000E+00  0.00000000E+00
  0.00000000E+00  0.00000000E+00  0.00000000E+00
  0.00000000E+00  0.00000000E+00  0.00000000E+00
  0.00000000E+00  0.00000000E+00  0.00000000E+00
  0.00000000E+00  0.00000000E+00  0.00000000E+00
  0.00000000E+00  0.00000000E+00  0.00000000E+00
  0.00000000E+00  0.00000000E+00  0.00000000E+00
  0.00000000E+00  0.00000000E+00  0.00000000E+00
  0.00000000E+00  0.00000000E+00  0.00000000E+00
  0.00000000E+00  0.00000000E+00  0.00000000E+00
  0.00000000E+00  0.00000000E+00  0.00000000E+00
  0.00000000E+00  0.00000000E+00  0.00000000E+00
  0.00000000E+00  0.00000000E+00  0.00000000E+00
  0.00000000E+00  0.00000000E+00  0.00000000E+00
  0.00000000E+00  0.00000000E+00  0.00000000E+00
  0.00000000E+00  0.00000000E+00  0.00000000E+00
  0.00000000E+00  0.00000000E+00  0.00000000E+00
  0.00000000E+00  0.00000000E+00  0.00000000E+00
  0.00000000E+00  0.00000000E+00  0.00000000E+00
  0.00000000E+00  0.00000000E+00  0.00000000E+00
  0.00000000E+00  0.00000000E+00  0.00000000E+00
  0.00000000E+00  0.00000000E+00  0.00000000E+00
  0.00000000E+00  0.00000000E+00  0.00000000E+00
  0.00000000E+00  0.00000000E+00  0.00000000E+00
  0.00000000E+00  0.00000000E+00  0.00000000E+00
  0.00000000E+00  0.00000000E+00  0.00000000E+00
  0.00000000E+00  0.00000000E+00  0.00000000E+00
  0.00000000E+00  0.00000000E+00  0.00000000E+00
  0.00000000E+00  0.00000000E+00  0.00000000E+00
  0.00000000E+00  0.00000000E+00  0.00000000E+00
  0.00000000E+00  0.00000000E+00  0.00000000E+00
  0.00000000E+00  0.00000000E+00  0.00000000E+00
  0.00000000E+00  0.00000000E+00  0.00000000E+00
  0.00000000E+00  0.00000000E+00  0.00000000E+00
  0.00000000E+00  0.00000000E+00  0.00000000E+00
  0.00000000E+00  0.00000000E+00  0.00000000E+00
  0.00000000E+00  0.00000000E+00  0.00000000E+00
  0.00000000E+00  0.00000000E+00  0.00000000E+00
  0.00000000E+00  0.00000000E+00  0.00000000E+00
  0.00000000E+00  0.00000000E+00  0.00000000E+00
  0.00000000E+00  0.00000000E+00  0.00000000E+00
  0.00000000E+00  0.00000000E+00  0.00000000E+00
  0.00000000E+00  0.00000000E+00  0.00000000E+00
  0.00000000E+00  0.00000000E+00  0.00000000E+00
  0.00000000E+00  0.00000000E+00  0.00000000E+00
  0.00000000E+00  0.00000000E+00  0.00000000E+00
  0.00000000E+00  0.00000000E+00  0.00000000E+00
  0.00000000E+00  0.00000000E+00  0.00000000E+00
  0.00000000E+00  0.00000000E+00  0.00000000E+00
  0.00000000E+00  0.00000000E+00  0.00000000E+00
  0.00000000E+00  0.00000000E+00  0.00000000E+00
  0.00000000E+00  0.00000000E+00  0.00000000E+00
  0.00000000E+00  0.00000000E+00  0.00000000E+00
  0.00000000E+00  0.00000000E+00  0.00000000E+00
  0.00000000E+00  0.00000000E+00  0.00000000E+00
  0.00000000E+00  0.00000000E+00  0.00000000E+00
  0.00000000E+00  0.00000000E+00  0.00000000E+00
  0.00000000E+00  0.00000000E+00  0.00000000E+00
  0.00000000E+00  0.00000000E+00  0.00000000E+00
  0.00000000E+00  0.00000000E+00  0.00000000E+00
  0.00000000E+00  0.00000000E+00  0.00000000E+00
  0.00000000E+00  0.00000000E+00  0.00000000E+00
  0.00000000E+00  0.00000000E+00  0.00000000E+00
  0.00000000E+00  0.00000000E+00  0.00000000E+00
  0.00000000E+00  0.00000000E+00  0.00000000E+00
  0.00000000E+00  0.00000000E+00  0.00000000E+00
  0.00000000E+00  0.00000000E+00  0.00000000E+00
  0.00000000E+00  0.00000000E+00  0.00000000E+00
  0.00000000E+00  0.00000000E+00  0.00000000E+00
  0.00000000E+00  0.00000000E+00  0.00000000E+00
  0.00000000E+00  0.00000000E+00  0.00000000E+00
  0.00000000E+00  0.00000000E+00  0.00000000E+00
  0.00000000E+00  0.00000000E+00  0.00000000E+00
  0.00000000E+00  0.00000000E+00  0.00000000E+00
  0.00000000E+00  0.00000000E+00  0.00000000E+00
  0.00000000E+00  0.00000000E+00  0.00000000E+00
  0.00000000E+00  0.00000000E+00  0.00000000E+00
  0.00000000E+00  0.00000000E+00  0.00000000E+00
  0.00000000E+00  0.00000000E+00  0.00000000E+00
  0.00000000E+00  0.00000000E+00  0.00000000E+00
  0.00000000E+00  0.00000000E+00  0.00000000E+00
  0.00000000E+00  0.00000000E+00  0.00000000E+00
