Ta  N Ru Cu                             
   1.00000000000000     
     9.0548154099999998    0.0000000000000000    0.0000000000000000
     0.0000000000000000   11.6775998899999998    0.0000000000000000
     0.0000000000000000    0.0000000000000000   26.4818170799999990
   Ta   N    Ru   Cu
    60    60    32     1
Selective dynamics
Direct
  0.0000000000000000  0.0000000000000000  0.2258397498815228   F   F   F
  0.6670845899906297  0.1250000003211298  0.2339882671631202   F   F   F
  0.3329153514769843  0.1250000003211298  0.2339882671631202   F   F   F
  0.4999999994478088  0.2499999997859135  0.3208898207564346   F   F   F
  0.1650707596845180  0.1250000003211298  0.3267034403329916   F   F   F
  0.8349292403154820  0.1250000003211298  0.3267034403329916   F   F   F
  0.0012976895745131  0.2500173469871025  0.4254648851365959   T   T   T
  0.6652888298820305  0.1249760295430500  0.4239495450339350   T   T   T
  0.3357719837413076  0.1250519138809395  0.4238816226268021   T   T   T
  0.4990596371538792  0.2500823447329764  0.5232408449921614   T   T   T
  0.1683006994703155  0.1250268001014431  0.5232558751651153   T   T   T
  0.8344887962947768  0.1249613480346333  0.5226541157957814   T   T   T
  0.0063235654721553  0.2502585576323011  0.6221721947730635   T   T   T
  0.6673310724245956  0.1244578758382883  0.6209593997985925   T   T   T
  0.3320985877222792  0.1252431309872296  0.6238527956361269   T   T   T
  0.0000000000000000  0.2499999997859135  0.2258397498815228   F   F   F
  0.6670845899906297  0.3750000001070433  0.2339882671631202   F   F   F
  0.3329153514769843  0.3750000001070433  0.2339882671631202   F   F   F
  0.4999999994478088  0.5000000004281731  0.3208898207564346   F   F   F
  0.1650707596845180  0.3750000001070433  0.3267034403329916   F   F   F
  0.8349292403154820  0.3750000001070433  0.3267034403329916   F   F   F
  0.0012588290704822  0.5000222198543518  0.4254785224613292   T   T   T
  0.6653230665504071  0.3750065068852512  0.4239598138084061   T   T   T
  0.3357386649714200  0.3750157843754912  0.4238952029151486   T   T   T
  0.4990884846766731  0.5000550428771212  0.5232861132686626   T   T   T
  0.1681276442062938  0.3750447460453473  0.5231977057925800   T   T   T
  0.8343865329974939  0.3749264112566274  0.5226916378727994   T   T   T
  0.0063300834776222  0.5003106978031229  0.6224129573021711   T   T   T
  0.6678268687444447  0.3750069503411665  0.6207346252049929   T   T   T
  0.3329952027634786  0.3749886793592491  0.6229220100004987   T   T   T
  0.0000000000000000  0.5000000004281731  0.2258397498815228   F   F   F
  0.6670845899906297  0.6249999998929567  0.2339882671631202   F   F   F
  0.3329153514769843  0.6249999998929567  0.2339882671631202   F   F   F
  0.4999999994478088  0.7500000002140865  0.3208898207564346   F   F   F
  0.1650707596845180  0.6249999998929567  0.3267034403329916   F   F   F
  0.8349292403154820  0.6249999998929567  0.3267034403329916   F   F   F
  0.0012900972015589  0.7500108592117302  0.4254813598696408   T   T   T
  0.6653328196014963  0.6250050172641013  0.4239380112964238   T   T   T
  0.3358860595906493  0.6250786188564020  0.4238847881301983   T   T   T
  0.4990369052943239  0.7500989208570071  0.5232890118561963   T   T   T
  0.1681302783043137  0.6251078578181398  0.5232821573221316   T   T   T
  0.8345951035162399  0.6250002837094120  0.5226756081918188   T   T   T
  0.0070769153830901  0.7500550229129435  0.6225840828829007   T   T   T
  0.6674959843060307  0.6246084152034558  0.6210322716999926   T   T   T
  0.3329427542457748  0.6251981451070723  0.6235978888101628   T   T   T
  0.0000000000000000  0.7500000002140865  0.2258397498815228   F   F   F
  0.6670845899906297  0.8750000005352163  0.2339882671631202   F   F   F
  0.3329153514769843  0.8750000005352163  0.2339882671631202   F   F   F
  0.4999999994478088  0.0000000000000000  0.3208898207564346   F   F   F
  0.1650707596845180  0.8750000005352163  0.3267034403329916   F   F   F
  0.8349292403154820  0.8750000005352163  0.3267034403329916   F   F   F
  0.0012644585245121 -0.0000400471392068  0.4254870347001696   T   T   T
  0.6653081558346751  0.8750002199383229  0.4239635867907257   T   T   T
  0.3357013873690822  0.8749969340810012  0.4239050382056584   T   T   T
  0.4989981944363995 -0.0001045923743995  0.5232760241836144   T   T   T
  0.1681541647994874  0.8750063081615378  0.5232550677740868   T   T   T
  0.8345148544295864  0.8748733071322569  0.5226863946707698   T   T   T
  0.0063597917089703  0.0001780780277004  0.6222782727979231   T   T   T
  0.6679420526352579  0.8747494103620652  0.6206759289736022   T   T   T
  0.3330817467373603  0.8750371513617494  0.6231024751974314   T   T   T
  0.8141011533980276  0.0000000000000000  0.2671765160246267   F   F   F
  0.4999999994478088  0.0000000000000000  0.2273691263583544   F   F   F
  0.1858988466019724  0.0000000000000000  0.2671765160246267   F   F   F
  0.3088456122590841  0.2499999997859135  0.3635413069267344   F   F   F
  0.0000000000000000  0.2499999997859135  0.3485649890092901   F   F   F
  0.6911543877409159  0.2499999997859135  0.3635413069267344   F   F   F
  0.8028597791703337  0.2500034839309662  0.4626717057877887   T   T   T
  0.5004230581414215  0.2499941305245014  0.4456917260374922   T   T   T
  0.1994262697983660  0.2499949882614604  0.4630882415799442   T   T   T
  0.3031578942789367  0.2498089724351837  0.5625379947434022   T   T   T
  0.0013824149029447  0.2500431281694327  0.5436109070168529   T   T   T
  0.6969739301142477  0.2496997258647040  0.5606439227687542   T   T   T
  0.8070119099491251  0.2487401382032569  0.6559732833435860   T   T   T
  0.5036195041782608  0.2497519936302381  0.6426245595493574   T   T   T
  0.2004421589396661  0.2515432971031702  0.6606167732962120   T   T   T
  0.8141011533980276  0.2499999997859135  0.2671765160246267   F   F   F
  0.4999999994478088  0.2499999997859135  0.2273691263583544   F   F   F
  0.1858988466019724  0.2499999997859135  0.2671765160246267   F   F   F
  0.3088456122590841  0.5000000004281731  0.3635413069267344   F   F   F
  0.0000000000000000  0.5000000004281731  0.3485649890092901   F   F   F
  0.6911543877409159  0.5000000004281731  0.3635413069267344   F   F   F
  0.8028674088656542  0.4999869624632247  0.4627030828785302   T   T   T
  0.5004195299517332  0.5000236955970824  0.4457104771916945   T   T   T
  0.1994970431362142  0.5001202607197943  0.4630872529731562   T   T   T
  0.3032811325698682  0.5002673683061496  0.5625833482585998   T   T   T
  0.0013310367122036  0.5000560949071340  0.5437631457601103   T   T   T
  0.6969632847594254  0.5000988446065217  0.5606980630655610   T   T   T
  0.8067456436608247  0.5003651848848234  0.6563269030705186   T   T   T
  0.5043386522778627  0.4998375263445406  0.6434063471239277   T   T   T
  0.2031080294847953  0.4995031099643637  0.6616192607878491   T   T   T
  0.8141011533980276  0.5000000004281731  0.2671765160246267   F   F   F
  0.4999999994478088  0.5000000004281731  0.2273691263583544   F   F   F
  0.1858988466019724  0.5000000004281731  0.2671765160246267   F   F   F
  0.3088456122590841  0.7500000002140865  0.3635413069267344   F   F   F
  0.0000000000000000  0.7500000002140865  0.3485649890092901   F   F   F
  0.6911543877409159  0.7500000002140865  0.3635413069267344   F   F   F
  0.8028801131793669  0.7499951830576324  0.4626760332971716   T   T   T
  0.5004401206085366  0.7500386013006558  0.4457003466351868   T   T   T
  0.1994275594798487  0.7499962931544312  0.4631299883533734   T   T   T
  0.3031202589727962  0.7499911484772988  0.5626620806681646   T   T   T
  0.0014944424001014  0.7500180013720968  0.5438527309927284   T   T   T
  0.6970825010191347  0.7496694706481097  0.5606077622859098   T   T   T
  0.8071476741414730  0.7489928350898429  0.6558592358044800   T   T   T
  0.5041675932976157  0.7497681757719517  0.6430012616715314   T   T   T
  0.2022425702640956  0.7511277949573131  0.6615532095906149   T   T   T
  0.8141011533980276  0.7500000002140865  0.2671765160246267   F   F   F
  0.4999999994478088  0.7500000002140865  0.2273691263583544   F   F   F
  0.1858988466019724  0.7500000002140865  0.2671765160246267   F   F   F
  0.3088456122590841  0.0000000000000000  0.3635413069267344   F   F   F
  0.0000000000000000  0.0000000000000000  0.3485649890092901   F   F   F
  0.6911543877409159  0.0000000000000000  0.3635413069267344   F   F   F
  0.8028824397294514 -0.0000586390600310  0.4626759152341283   T   T   T
  0.5003783763980063 -0.0000199552654610  0.4457187545373295   T   T   T
  0.1994322421298035  0.0000471813700842  0.4630672156450368   T   T   T
  0.3031356666849445  0.0002704666234492  0.5626207079752085   T   T   T
  0.0013190620849306 -0.0000152397198535  0.5436736481377248   T   T   T
  0.6969524597383021 -0.0000173422852573  0.5606711224001205   T   T   T
  0.8073113448701775  0.0001509569349208  0.6563816176021668   T   T   T
  0.5040743360588043 -0.0002502230760602  0.6429559657404598   T   T   T
  0.2021938324332857  0.9994121021755893  0.6612530141210250   T   T   T
  0.0689594771778220  0.0017918993195773  0.7300102726044829   T   T   T
  0.5515322412992287 -0.0085857302504717  0.7199905229265555   T   T   T
  0.8206007609568555  0.1268037370369167  0.7158672080143130   T   T   T
  0.0651016172577189  0.5007307526734420  0.7298810141517055   T   T   T
  0.5543398448328853  0.4959598477957810  0.7212210274143676   T   T   T
  0.8211123974098318  0.6270053694173742  0.7162733197988250   T   T   T
  0.0793857551040410  0.2441452039746829  0.7305185374628170   T   T   T
  0.5397773379399717  0.2555127043448409  0.7198114365710316   T   T   T
  0.8209754165122504  0.3717457606775678  0.7131880080019325   T   T   T
  0.0740113472800701  0.7452725404216384  0.7311474630392498   T   T   T
  0.5452611874289918  0.7518973565422210  0.7207638291503071   T   T   T
  0.8218029351557248  0.8723434790055002  0.7133619391666164   T   T   T
  0.3043376390532301  0.8781438784868194  0.7313270221924899   T   T   T
  0.3094323602100517  0.6161612880515990  0.7329199132120974   T   T   T
  0.3044891942165062  0.3842495852253867  0.7308403833233693   T   T   T
  0.3141798297164123  0.1132315542618064  0.7358305274593948   T   T   T
  0.1308181667204754  0.8811968523219944  0.8052240553081101   T   T   T
  0.6471565720781819  0.8667402945898584  0.7943901035268641   T   T   T
  0.8786771365235322  0.0085902352870503  0.7978452860929891   T   T   T
  0.1319841410462426  0.3800079388571511  0.8048394705278960   T   T   T
  0.6459872863596983  0.3666383005950760  0.7942779921773173   T   T   T
  0.8795163731119467  0.5103761241607716  0.7983479959517011   T   T   T
  0.1368605292168252  0.1128114593332475  0.8074477358145661   T   T   T
  0.6312302329722987  0.1279554429378515  0.7906535448159399   T   T   T
  0.8838444804218544  0.2367686124834615  0.7978239027758067   T   T   T
  0.1361326886303058  0.6114291833671369  0.8066116861086158   T   T   T
  0.6353843901163174  0.6289112336966030  0.7932447478172815   T   T   T
  0.8859551256781548  0.7333014352522522  0.7992234908424863   T   T   T
  0.3963519929352332  0.7541617766343284  0.8015961860648122   T   T   T
  0.3975807514632545  0.4910649989846448  0.8044582865153498   T   T   T
  0.3935764118772083  0.2616401454483961  0.8017118508846337   T   T   T
  0.3978737627352980  0.9810384573341264  0.8058142572504942   T   T   T
  0.7703685982318150  0.1269082097917784  0.8723407147378341   T   T   T
 
  0.00000000E+00  0.00000000E+00  0.00000000E+00
  0.00000000E+00  0.00000000E+00  0.00000000E+00
  0.00000000E+00  0.00000000E+00  0.00000000E+00
  0.00000000E+00  0.00000000E+00  0.00000000E+00
  0.00000000E+00  0.00000000E+00  0.00000000E+00
  0.00000000E+00  0.00000000E+00  0.00000000E+00
  0.00000000E+00  0.00000000E+00  0.00000000E+00
  0.00000000E+00  0.00000000E+00  0.00000000E+00
  0.00000000E+00  0.00000000E+00  0.00000000E+00
  0.00000000E+00  0.00000000E+00  0.00000000E+00
  0.00000000E+00  0.00000000E+00  0.00000000E+00
  0.00000000E+00  0.00000000E+00  0.00000000E+00
  0.00000000E+00  0.00000000E+00  0.00000000E+00
  0.00000000E+00  0.00000000E+00  0.00000000E+00
  0.00000000E+00  0.00000000E+00  0.00000000E+00
  0.00000000E+00  0.00000000E+00  0.00000000E+00
  0.00000000E+00  0.00000000E+00  0.00000000E+00
  0.00000000E+00  0.00000000E+00  0.00000000E+00
  0.00000000E+00  0.00000000E+00  0.00000000E+00
  0.00000000E+00  0.00000000E+00  0.00000000E+00
  0.00000000E+00  0.00000000E+00  0.00000000E+00
  0.00000000E+00  0.00000000E+00  0.00000000E+00
  0.00000000E+00  0.00000000E+00  0.00000000E+00
  0.00000000E+00  0.00000000E+00  0.00000000E+00
  0.00000000E+00  0.00000000E+00  0.00000000E+00
  0.00000000E+00  0.00000000E+00  0.00000000E+00
  0.00000000E+00  0.00000000E+00  0.00000000E+00
  0.00000000E+00  0.00000000E+00  0.00000000E+00
  0.00000000E+00  0.00000000E+00  0.00000000E+00
  0.00000000E+00  0.00000000E+00  0.00000000E+00
  0.00000000E+00  0.00000000E+00  0.00000000E+00
  0.00000000E+00  0.00000000E+00  0.00000000E+00
  0.00000000E+00  0.00000000E+00  0.00000000E+00
  0.00000000E+00  0.00000000E+00  0.00000000E+00
  0.00000000E+00  0.00000000E+00  0.00000000E+00
  0.00000000E+00  0.00000000E+00  0.00000000E+00
  0.00000000E+00  0.00000000E+00  0.00000000E+00
  0.00000000E+00  0.00000000E+00  0.00000000E+00
  0.00000000E+00  0.00000000E+00  0.00000000E+00
  0.00000000E+00  0.00000000E+00  0.00000000E+00
  0.00000000E+00  0.00000000E+00  0.00000000E+00
  0.00000000E+00  0.00000000E+00  0.00000000E+00
  0.00000000E+00  0.00000000E+00  0.00000000E+00
  0.00000000E+00  0.00000000E+00  0.00000000E+00
  0.00000000E+00  0.00000000E+00  0.00000000E+00
  0.00000000E+00  0.00000000E+00  0.00000000E+00
  0.00000000E+00  0.00000000E+00  0.00000000E+00
  0.00000000E+00  0.00000000E+00  0.00000000E+00
  0.00000000E+00  0.00000000E+00  0.00000000E+00
  0.00000000E+00  0.00000000E+00  0.00000000E+00
  0.00000000E+00  0.00000000E+00  0.00000000E+00
  0.00000000E+00  0.00000000E+00  0.00000000E+00
  0.00000000E+00  0.00000000E+00  0.00000000E+00
  0.00000000E+00  0.00000000E+00  0.00000000E+00
  0.00000000E+00  0.00000000E+00  0.00000000E+00
  0.00000000E+00  0.00000000E+00  0.00000000E+00
  0.00000000E+00  0.00000000E+00  0.00000000E+00
  0.00000000E+00  0.00000000E+00  0.00000000E+00
  0.00000000E+00  0.00000000E+00  0.00000000E+00
  0.00000000E+00  0.00000000E+00  0.00000000E+00
  0.00000000E+00  0.00000000E+00  0.00000000E+00
  0.00000000E+00  0.00000000E+00  0.00000000E+00
  0.00000000E+00  0.00000000E+00  0.00000000E+00
  0.00000000E+00  0.00000000E+00  0.00000000E+00
  0.00000000E+00  0.00000000E+00  0.00000000E+00
  0.00000000E+00  0.00000000E+00  0.00000000E+00
  0.00000000E+00  0.00000000E+00  0.00000000E+00
  0.00000000E+00  0.00000000E+00  0.00000000E+00
  0.00000000E+00  0.00000000E+00  0.00000000E+00
  0.00000000E+00  0.00000000E+00  0.00000000E+00
  0.00000000E+00  0.00000000E+00  0.00000000E+00
  0.00000000E+00  0.00000000E+00  0.00000000E+00
  0.00000000E+00  0.00000000E+00  0.00000000E+00
  0.00000000E+00  0.00000000E+00  0.00000000E+00
  0.00000000E+00  0.00000000E+00  0.00000000E+00
  0.00000000E+00  0.00000000E+00  0.00000000E+00
  0.00000000E+00  0.00000000E+00  0.00000000E+00
  0.00000000E+00  0.00000000E+00  0.00000000E+00
  0.00000000E+00  0.00000000E+00  0.00000000E+00
  0.00000000E+00  0.00000000E+00  0.00000000E+00
  0.00000000E+00  0.00000000E+00  0.00000000E+00
  0.00000000E+00  0.00000000E+00  0.00000000E+00
  0.00000000E+00  0.00000000E+00  0.00000000E+00
  0.00000000E+00  0.00000000E+00  0.00000000E+00
  0.00000000E+00  0.00000000E+00  0.00000000E+00
  0.00000000E+00  0.00000000E+00  0.00000000E+00
  0.00000000E+00  0.00000000E+00  0.00000000E+00
  0.00000000E+00  0.00000000E+00  0.00000000E+00
  0.00000000E+00  0.00000000E+00  0.00000000E+00
  0.00000000E+00  0.00000000E+00  0.00000000E+00
  0.00000000E+00  0.00000000E+00  0.00000000E+00
  0.00000000E+00  0.00000000E+00  0.00000000E+00
  0.00000000E+00  0.00000000E+00  0.00000000E+00
  0.00000000E+00  0.00000000E+00  0.00000000E+00
  0.00000000E+00  0.00000000E+00  0.00000000E+00
  0.00000000E+00  0.00000000E+00  0.00000000E+00
  0.00000000E+00  0.00000000E+00  0.00000000E+00
  0.00000000E+00  0.00000000E+00  0.00000000E+00
  0.00000000E+00  0.00000000E+00  0.00000000E+00
  0.00000000E+00  0.00000000E+00  0.00000000E+00
  0.00000000E+00  0.00000000E+00  0.00000000E+00
  0.00000000E+00  0.00000000E+00  0.00000000E+00
  0.00000000E+00  0.00000000E+00  0.00000000E+00
  0.00000000E+00  0.00000000E+00  0.00000000E+00
  0.00000000E+00  0.00000000E+00  0.00000000E+00
  0.00000000E+00  0.00000000E+00  0.00000000E+00
  0.00000000E+00  0.00000000E+00  0.00000000E+00
  0.00000000E+00  0.00000000E+00  0.00000000E+00
  0.00000000E+00  0.00000000E+00  0.00000000E+00
  0.00000000E+00  0.00000000E+00  0.00000000E+00
  0.00000000E+00  0.00000000E+00  0.00000000E+00
  0.00000000E+00  0.00000000E+00  0.00000000E+00
  0.00000000E+00  0.00000000E+00  0.00000000E+00
  0.00000000E+00  0.00000000E+00  0.00000000E+00
  0.00000000E+00  0.00000000E+00  0.00000000E+00
  0.00000000E+00  0.00000000E+00  0.00000000E+00
  0.00000000E+00  0.00000000E+00  0.00000000E+00
  0.00000000E+00  0.00000000E+00  0.00000000E+00
  0.00000000E+00  0.00000000E+00  0.00000000E+00
  0.00000000E+00  0.00000000E+00  0.00000000E+00
  0.00000000E+00  0.00000000E+00  0.00000000E+00
  0.00000000E+00  0.00000000E+00  0.00000000E+00
  0.00000000E+00  0.00000000E+00  0.00000000E+00
  0.00000000E+00  0.00000000E+00  0.00000000E+00
  0.00000000E+00  0.00000000E+00  0.00000000E+00
  0.00000000E+00  0.00000000E+00  0.00000000E+00
  0.00000000E+00  0.00000000E+00  0.00000000E+00
  0.00000000E+00  0.00000000E+00  0.00000000E+00
  0.00000000E+00  0.00000000E+00  0.00000000E+00
  0.00000000E+00  0.00000000E+00  0.00000000E+00
  0.00000000E+00  0.00000000E+00  0.00000000E+00
  0.00000000E+00  0.00000000E+00  0.00000000E+00
  0.00000000E+00  0.00000000E+00  0.00000000E+00
  0.00000000E+00  0.00000000E+00  0.00000000E+00
  0.00000000E+00  0.00000000E+00  0.00000000E+00
  0.00000000E+00  0.00000000E+00  0.00000000E+00
  0.00000000E+00  0.00000000E+00  0.00000000E+00
  0.00000000E+00  0.00000000E+00  0.00000000E+00
  0.00000000E+00  0.00000000E+00  0.00000000E+00
  0.00000000E+00  0.00000000E+00  0.00000000E+00
  0.00000000E+00  0.00000000E+00  0.00000000E+00
  0.00000000E+00  0.00000000E+00  0.00000000E+00
  0.00000000E+00  0.00000000E+00  0.00000000E+00
  0.00000000E+00  0.00000000E+00  0.00000000E+00
  0.00000000E+00  0.00000000E+00  0.00000000E+00
  0.00000000E+00  0.00000000E+00  0.00000000E+00
  0.00000000E+00  0.00000000E+00  0.00000000E+00
  0.00000000E+00  0.00000000E+00  0.00000000E+00
  0.00000000E+00  0.00000000E+00  0.00000000E+00
  0.00000000E+00  0.00000000E+00  0.00000000E+00
  0.00000000E+00  0.00000000E+00  0.00000000E+00
  0.00000000E+00  0.00000000E+00  0.00000000E+00
  0.00000000E+00  0.00000000E+00  0.00000000E+00
