Ta  N Ru Cu                             
   1.00000000000000     
    18.1096308199999996    0.0000000000000000    0.0000000000000000
     0.0000000000000000   23.3551997799999995    0.0000000000000000
     0.0000000000000000    0.0000000000000000   30.4818171199999988
   Ta   N    Ru   Cu
   216   240    24    29
Direct
 -0.0004101674010167  0.0019471037399223  0.1964890053414558
  0.3334754921158747  0.0646243103662706  0.2018186060905348
  0.1654341404916280  0.0645709186913034  0.2018612532693164
  0.2493574708401795  0.1269230196674263  0.2772479536096650
  0.0820003277516615  0.0645587139094835  0.2831327053930500
  0.4166818164288682  0.0645826467723194  0.2831175747127469
  0.9994818825371584  0.1266738879457487  0.3686315180868514
  0.3316458453735215  0.0644042201540346  0.3676538897978514
  0.1671288331179766  0.0643242473346294  0.3675743654681615
  0.2492540691612342  0.1260978902363430  0.4540641957531694
  0.0831863826995358  0.0638552249006536  0.4532728511342576
  0.4155580621648324  0.0641791468220913  0.4534639045466907
 -0.0004467257297592  0.1270223853808227  0.1965792079638084
  0.3333587548386111  0.1896447323343390  0.2019270379648945
  0.1652877742448209  0.1896417588412289  0.2019658574394498
  0.2491799607382089  0.2520332197210476  0.2775385011168930
  0.0821406814831450  0.1896243298526641  0.2832852114503890
  0.4165912871583931  0.1896429506590609  0.2831781286694051
  0.9992424622230696  0.2519318954789677  0.3690267416788758
  0.3316112632218989  0.1893960868554676  0.3676476493253054
  0.1669240572641212  0.1894017598792763  0.3677993389679060
  0.2486037681296547  0.2498924022686098  0.4535953041446805
  0.0818515422444266  0.1883584336076838  0.4532677077523535
  0.4156283173950376  0.1890981887690794  0.4538217861761049
  0.3340981275517176  0.1875265305010597  0.5392852351269386
 -0.0003706704188348  0.2522325371087454  0.1967901908108926
  0.3334665516400055  0.3146825473549342  0.2020893729368882
  0.1650899421731274  0.3147423922987105  0.2022115120686166
  0.2490607087428309  0.3771896294281344  0.2779898369387204
  0.0820948564304509  0.3146703648260153  0.2836538697279167
  0.4166737957482395  0.3147192279194132  0.2833638742644514
  0.9989436877489255  0.3768887777038253  0.3694390855695135
  0.3316707109091008  0.3145605932353294  0.3677309405935614
  0.1666007340020229  0.3145625870200514  0.3684886120157202
  0.2478973807173666  0.3775287115446130  0.4543618770275091
  0.0834573135146514  0.3142659320339741  0.4549100246907736
  0.4153460083985323  0.3145337310379817  0.4542529474022626
 -0.0004480670146345  0.3772380512313693  0.1970484523929885
  0.3336433297137586  0.4396225555379179  0.2022563607596657
  0.1650715877368463  0.4395847347002456  0.2023717218523565
  0.2494681381327489  0.0017923859003636  0.2774033157650178
  0.0820453825873569  0.4396487788727508  0.2838992201521247
  0.4167791322303340  0.4397224550912285  0.2835230166488933
 -0.0004325169301316  0.0018936507682808  0.3685903192603552
  0.3315289183188165  0.4396434561822181  0.3680048063582712
  0.1668120131478729  0.4396308768152656  0.3686386085182042
  0.2492151111960617  0.0017790766491354  0.4544918362452488
  0.0820583067708739  0.4398704195890480  0.4544619301098821
  0.4155989205695013  0.4394396335343043  0.4545968384877077
  0.3392202133653862  0.4402919942726948  0.5426469845011884
  0.9997040198878450  0.5020328257615800  0.1971453816521743
  0.3337657541336009  0.5645892514536022  0.2022951308863262
  0.1652904297066354  0.5644830850109047  0.2023079885118151
  0.2496694205713136  0.6270619908834751  0.2779076906596387
  0.0820496640929860  0.5645871742666255  0.2837641711747826
  0.4170396454151160  0.5646608944381734  0.2837380094767879
  0.9987238547051530  0.6270017552732701  0.3691069031227037
  0.3321450403433976  0.5646422680943908  0.3681801996066911
  0.1674504170152251  0.5646983817196938  0.3683004453939909
  0.2508205118123627  0.6277919080562974  0.4543537753042288
  0.0816899848653168  0.5647259725479018  0.4535779901666049
  0.4163754308464025  0.5645632696978197  0.4546696498875389
 -0.0004720199297628  0.6269590472902443  0.1969652681566179
  0.3338196113477750  0.6893391544096579  0.2022287930612043
  0.1654581602372303  0.6892760038039538  0.2021978504264206
  0.2497210698609638  0.7519138312700338  0.2776893611073601
  0.0822477821726983  0.6895423877062697  0.2835724623628262
  0.4170544233790365  0.6896137063437507  0.2836454283165242
  0.9991665561077272  0.7519179073055141  0.3688226413658162
  0.3322752341089943  0.6896490716670236  0.3681335340757899
  0.1673692753032330  0.6896069967457086  0.3679986920250978
  0.2503979673271775  0.7540677166717183  0.4545870686397603
  0.0827429257848223  0.6903336771630713  0.4533674486161525
  0.4168254999579779  0.6901315172422628  0.4551253960109606
  0.3381130934548622  0.6918482710729217  0.5435395308033358
  0.9996320623375959  0.7518031057510456  0.1967954318199393
  0.3336178841709372  0.8143892280480108  0.2020664430393947
  0.1656320896467285  0.8143610158264861  0.2020167223871608
  0.2496165600314415  0.8769517518273893  0.2774573145723070
  0.0821219683010883  0.8144709330164391  0.2832629179679738
  0.4169678539228644  0.8145550221620557  0.2834730170403676
  0.9994940786156864  0.8768692921727113  0.3685363947155766
  0.3320661446209782  0.8145704874994927  0.3680125903126775
  0.1676478942566880  0.8145267391001346  0.3677633703532732
  0.2498865871560658  0.8768988777558179  0.4543262044071768
  0.0826535699480128  0.8151223327273783  0.4528286689692304
  0.4161524865906719  0.8150257042395311  0.4539719256305479
  0.9995215183079654  0.8769150248458463  0.1965710227785015
  0.3335259371969915  0.9393672757268214  0.2019558700959193
  0.1656262100063847  0.9393293866871598  0.2019824038989658
  0.2493604731003817  0.5020042083731195  0.2781290989907233
  0.0821194280440614  0.9395071127099276  0.2830763844794386
  0.4167147632057658  0.9395799475719860  0.2832087147240091
  0.9987644047715070  0.5021006598722628  0.3693552562896358
  0.3317687921347909  0.9395449609740889  0.3676853213227229
  0.1673907677795262  0.9394399296345459  0.3674577644259879
  0.2488234958507115  0.5036791283954387  0.4547050904707505
  0.0827513597657547  0.9392449096809157  0.4532998876226604
  0.4160878864790761  0.9395591363081540  0.4534410442030314
  0.3351673661381963  0.9391718930318970  0.5409196625753517
  0.1628413537058667  0.9379165975909372  0.5406753697665141
  0.4991973105060106  0.0019940287870560  0.1964829975405167
  0.8334859380939733  0.0645285064298922  0.2016909995095042
  0.6653038969632711  0.0645065703762158  0.2017974111215354
  0.7493542850003746  0.1267461570759707  0.2771165285030365
  0.5818160505884600  0.0645367230120883  0.2830342683214375
  0.9168027540853334  0.0645146135763682  0.2829735352980155
  0.4990949258549782  0.1267362522773348  0.3686352692460115
  0.8316815782660012  0.0641991966737497  0.3673302986652482
  0.6671101731639238  0.0642742962062162  0.3673663459574741
  0.7498399503276826  0.1259555724513412  0.4537721114516809
  0.5829648765363473  0.0641448228683444  0.4533192936242886
  0.9156136076313762  0.0637730375971196  0.4529360064249855
  0.4992416888051802  0.1270908602410984  0.1964876998281690
  0.8335135254500785  0.1896286351757324  0.2017929828932297
  0.6654059687549523  0.1895650603971428  0.2018740729161803
  0.7494784917448304  0.2518703269279968  0.2772101434118260
  0.5819336003518915  0.1895586187936074  0.2830824706958867
  0.9168222958165281  0.1895562029362836  0.2831144360138093
  0.4986968720451218  0.2520736105448386  0.3688086040910921
  0.8319832929615124  0.1891679754705298  0.3674125096366819
  0.6671402280654890  0.1892330860343482  0.3674131312609840
  0.7502488078551325  0.2494775214885596  0.4533243851373026
  0.5820185910595141  0.1883412945384766  0.4526611822073529
  0.9156676221604094  0.1886225844823929  0.4532596162102080
  0.8402237315732938  0.1870321587760249  0.5412533144101613
  0.4991305476926348  0.2522315097499642  0.1966953195216184
  0.8337206827698407  0.3145475637992740  0.2019766682745913
  0.6653233409616375  0.3145247858064759  0.2020502728942781
  0.7496059069568733  0.3769351252516970  0.2776069119355066
  0.5820551432247685  0.3145965690303433  0.2833159398105963
  0.9167801985249582  0.3145985019810741  0.2834267767426940
  0.4988699516434900  0.3768623739360513  0.3692265563409203
  0.8322693032668301  0.3142506085366070  0.3677625377807096
  0.6673414910482395  0.3142050318908027  0.3675847308987231
  0.7494620145647862  0.3773165648937146  0.4545804917765783
  0.5847666056532279  0.3142269729762129  0.4538572984712986
  0.9162318259969889  0.3140461494357532  0.4543772639748961
  0.4992723813453346  0.3771636483624296  0.1969633946134388
  0.8337949118465283  0.4395477877690112  0.2020812120119632
  0.6653521629069231  0.4395857251838506  0.2022495613912065
  0.7492711313364062  0.0017807979824292  0.2771806434430796
  0.5821324633236640  0.4395861719318204  0.2836210484551974
  0.9166521379190936  0.4395664680170761  0.2836368738332866
  0.4993764024912209  0.0020266545807424  0.3687588226691353
  0.8320094785725899  0.4393241473319099  0.3682674389134872
  0.6678309567888872  0.4393219648145933  0.3678648668048318
  0.7494982137024037  0.0017079214278569  0.4542329329621290
  0.5832215147303529  0.4392326788067099  0.4527771285188993
  0.9159101958999964  0.4387831669945910  0.4546214341460613
  0.8350125665454959  0.4391175886223544  0.5433258182124217
  0.4992672481704331  0.5021359154545677  0.1971197194150576
  0.8337463732581910  0.5643859290576814  0.2020518087275970
  0.6652626125412149  0.5643831870161373  0.2022690365832058
  0.7496105056656449  0.6268476545349864  0.2776168396421601
  0.5822568023064356  0.5645805135459817  0.2837107686171162
  0.9166567580356888  0.5645600229836917  0.2834862143591318
  0.4992190443992710  0.6270165262392001  0.3694883780925471
  0.8322833814778360  0.5644310954991799  0.3679626301926633
  0.6675698269120229  0.5645680963615706  0.3677994079635313
  0.7499773557381362  0.6268227881014040  0.4544595974287062
  0.5848047663231757  0.5641041658345738  0.4541791605915103
  0.9151978661677593  0.5644844185531618  0.4547636776907180
  0.4994851281257086  0.6269844745253635  0.1970259561519753
  0.8336584178751508  0.6894139110826798  0.2019416482576022
  0.6651001487132913  0.6893631991874187  0.2021381501103739
  0.7493642963804119  0.7519073518000372  0.2773077439570201
  0.5823135229819442  0.6895592920929442  0.2836268688494923
  0.9167104861920761  0.6895279280891299  0.2833018168986942
  0.4994412617130159  0.7518851205134957  0.3692802036507065
  0.8321605316275227  0.6894777769506694  0.3678577296612408
  0.6672650908645519  0.6894966204970434  0.3681075055773991
  0.7497853782857837  0.7539823757238622  0.4544867014964812
  0.5849010092374509  0.6898498041411152  0.4545406135975782
  0.9153914044568466  0.6898284511851158  0.4544927559313157
  0.8430361489907812  0.6904037094738129  0.5437451988498974
  0.4993553750902368  0.7517932936525702  0.1968643027970626
  0.8333533572176688  0.8142821396912890  0.2018394421830168
  0.6652897289563557  0.8142663218176637  0.2019664178668255
  0.7492591232950141  0.8770059801518464  0.2772487056249558
  0.5820788412262126  0.8145007605024071  0.2833326903974561
  0.9167810937632457  0.8144877321296256  0.2831090107402939
  0.4994514553502091  0.8769065514693334  0.3688292063904279
  0.8317997804583329  0.8144209967831014  0.3675784672029527
  0.6673939295935889  0.8144483519440295  0.3678641736091124
  0.7497686151415884  0.8770968289928235  0.4539880884034214
  0.5826410948227548  0.8151039801846822  0.4532608933944392
  0.9158166732462439  0.8148935910669136  0.4530931298079518
  0.4993317492283620  0.8769104781215783  0.1966560562550347
  0.8333258648217128  0.9393586049114084  0.2017917235584505
  0.6653915176131964  0.9393930644216667  0.2019033729874547
  0.7496223200369225  0.5019282812543731  0.2776575865807683
  0.5819753249585622  0.9395069440054628  0.2830483086258445
  0.9166809109558898  0.9395205408127675  0.2829453578362503
  0.4992834397726258  0.5022101919065182  0.3694201403125102
  0.8316290359289359  0.9394044687008881  0.3672750608886580
  0.6671765105994465  0.9394308146817033  0.3673882724286390
  0.7500107772135491  0.5010470847775299  0.4544618140089112
  0.5825987412162867  0.9393628971467641  0.4534324262572391
  0.9159659472341585  0.9393795757294798  0.4529630705800156
  0.8355716430095660  0.9389404980811422  0.5406001650169144
  0.6633751922501404  0.9385850506710807  0.5404123315698277
  0.3330677404062229  0.0621437219471002  0.5408055970267652
  0.1628392545666082  0.0629043058514105  0.5408410221691679
  0.3369507560697400  0.3132097321190176  0.5416941530531046
  0.3376399717149798  0.5660892789613303  0.5431489486478671
  0.3355845602550271  0.8164530866542233  0.5417191068271724
  0.8348669091624989  0.0623917760630203  0.5403428598356570
  0.6647061572679096  0.0629684514073987  0.5405245970196647
  0.8400895731289122  0.3114914353236610  0.5413600411854372
  0.8425617661540404  0.5638369430138032  0.5442178029054832
  0.8360133820064871  0.8153007235427644  0.5405672750236981
  0.1596406495370355  0.1889858893031288  0.5411416593800692
  0.6673638977123625  0.1901706276960463  0.5380773651499199
  0.1653853788879895  0.8121589811882132  0.5402021040309440
  0.6664201272562447  0.8134397148785556  0.5406285204778238
  0.4050088793104453  0.0020730411415856  0.2314490175339814
  0.2495154030458943  0.0019770780646465  0.1991161489975499
  0.0939071062066918  0.0020341626978699  0.2313791195742372
  0.1540790636654679  0.1269046864196381  0.3150595785827414
 -0.0006178693323754  0.1270882540112483  0.3020767954853453
  0.3445806804969120  0.1268946779719576  0.3150178218120316
  0.4003890160559673  0.1269095778491088  0.4016259548064418
  0.2493861185098006  0.1266667216898288  0.3862914552297484
  0.0982873625031245  0.1265188275734296  0.4014917040585007
  0.1510626542640900  0.1264855000251583  0.4874671847642840
  0.9992593418728453  0.1254383560777706  0.4727557651484353
  0.3474032105556433  0.1255686850670021  0.4874719020663363
  0.4022852247113770  0.1231117614609469  0.5703246922018711
  0.2479677426408971  0.1280574053737000  0.5619101360989699
  0.0932966527331092  0.1247557409805753  0.5681895336482811
  0.4050197502765646  0.1271242798438162  0.2314321235736715
  0.2493723168502872  0.1271148928786967  0.1985286115024011
  0.0938844284426371  0.1270927972523103  0.2314933174450391
  0.1540031002079625  0.2520854481664134  0.3153751915160520
  0.9993935474968494  0.2520726609406648  0.3024070267762303
  0.3445659822786238  0.2520434687424997  0.3151046702992355
  0.4000904895397261  0.2518814166626192  0.4018238820210829
  0.2494288554757428  0.2519098147521944  0.3861514194614867
  0.0977925753730998  0.2519729657880310  0.4017776554155477
  0.1503433170959618  0.2480024071314966  0.4854920770835121
 -0.0004392040479955  0.2510583950194321  0.4727544156483011
  0.3472709566500109  0.2512358119145411  0.4871217565589689
  0.4002867591586259  0.2498601035744705  0.5695741607865303
  0.2471399880858580  0.2487744380785500  0.5574844526518216
  0.0807819180708178  0.2427383268849472  0.5703704828897646
  0.4048899870029498  0.2521895197658240  0.2316080605676571
  0.2492828883097140  0.2522557138870085  0.1991173929070138
  0.0938590862063873  0.2522361106430210  0.2317742038927369
  0.1538105403197819  0.3770966635737335  0.3157486677989294
  0.9992784679973516  0.3770817642727928  0.3027316967010866
  0.3446889194212602  0.3771829203913954  0.3153767659440199
  0.3997140025342840  0.3770870399665135  0.4020806712771719
  0.2494593321562050  0.3770876194640085  0.3866084602866954
  0.0973149970261259  0.3768491882318881  0.4022833118736335
  0.1496405172998624  0.3785428141258411  0.4851120327499531
 -0.0001271239135833  0.3760222328959316  0.4752305348761405
  0.3477167919571622  0.3771182038712517  0.4884047824706048
  0.4023999221098251  0.3746636073926026  0.5709014478852140
  0.2513290699007118  0.3770922438408145  0.5616737951632046
  0.0635346135994602  0.3738963616882282  0.5817061048330160
  0.4049469309206843  0.3772129325530300  0.2318313907987822
  0.2493742789055153  0.3772199799467711  0.1995676119688204
  0.0938056504499001  0.3772334146834464  0.2321029694970106
  0.1540394584162536  0.0019769854515711  0.3149683910411445
 -0.0006080557887080  0.0019828642824071  0.3019888802488010
  0.3447794332188140  0.0020230331140297  0.3150595145337583
  0.4006274147359679  0.0019895114482406  0.4016714199593219
  0.2494534086859505  0.0018673045198663  0.3865488936959943
  0.0982544900985686  0.0016746075049768  0.4014588647696279
  0.1507078397292952  0.0011303221899859  0.4870656660077735
  0.9994362587399979  0.0022462747059334  0.4727117011003455
  0.3478212957611471  0.0015406184257654  0.4869330917193785
  0.4055225767978171  0.0026556874328118  0.5669246735583824
  0.2488403318939624  0.0014443756376518  0.5574557077381719
  0.0933029830601447  0.0013927427327807  0.5672610237958073
  0.4050128850882576  0.5021893674277867  0.2320512659102164
  0.2494747948875077  0.5020592674185105  0.2001151018152118
  0.0939385741146501  0.5020907615808472  0.2321768638526741
  0.1542764903720734  0.6270203744785489  0.3154472658059382
  0.9993235139163238  0.6270765847123273  0.3024990924899918
  0.3451210644502922  0.6271491170568422  0.3155432738670896
  0.4004146360541260  0.6272940020879079  0.4026337094312389
  0.2501524721106249  0.6273266440683348  0.3865647057267496
  0.0974866055244353  0.6273087778693376  0.4012361213484273
  0.1511261801477985  0.6283683389503747  0.4825144458986734
  0.0002349841267352  0.6272419725382112  0.4722303239450338
  0.3507089853277236  0.6278700017217249  0.4893700156917760
  0.4024077739708249  0.6284918675098791  0.5751027590866733
  0.2559171446252796  0.6296811973583362  0.5616722678049099
  0.0856012545693082  0.6088378962405590  0.5589975150657939
  0.4052353011308425  0.6270431603763954  0.2320083228828837
  0.2495725131478489  0.6269010570619543  0.1992244859759731
  0.0939148886775840  0.6269779714833215  0.2319052795113962
  0.1543500082522855  0.7521251150951969  0.3152597511761823
  0.9993989408432544  0.7519418634245237  0.3022560408047500
  0.3450692084635323  0.7521544952528372  0.3154787940113931
  0.4008340120546269  0.7520312379475679  0.4024795731089560
  0.2499687030015054  0.7520437822634986  0.3868023369572305
  0.0980827337011902  0.7519593143208009  0.4013552494248531
  0.1513319015136630  0.7539407292358600  0.4854834400701407
 -0.0003161766184413  0.7532631699164226  0.4729544254489835
  0.3498420630067443  0.7534643390084409  0.4889908610539161
  0.4030732634947269  0.7556091509068292  0.5743253821276382
  0.2508221417111715  0.7539806808826623  0.5585127395182707
  0.0830885525270675  0.7586143024160305  0.5690285369473388
  0.4051598640852629  0.7519777678990262  0.2318638094913133
  0.2496250356215007  0.7517711657089068  0.1994457536951721
  0.0939987707441943  0.7518692218216526  0.2317048035963090
  0.1541876339122484  0.8769292153346558  0.3150115452842788
  0.9993929177462582  0.8769892251909633  0.3019896617146187
  0.3449267135159552  0.8770026077794425  0.3152029719575196
  0.4008301065846284  0.8770877777299797  0.4017834616710081
  0.2497300502509306  0.8771692130667901  0.3864748639264359
  0.0983691076868462  0.8771931025944506  0.4012409147330149
  0.1510512542362387  0.8763344247085316  0.4867260075235994
  0.9992911372052854  0.8769684104846032  0.4723767346873771
  0.3483780348623229  0.8776615226228853  0.4871590454220671
  0.4045474096574624  0.8785607554091279  0.5679938132336261
  0.2489777331806546  0.8766173208249761  0.5568920735135364
  0.0929152851732011  0.8737087876842129  0.5664656832384281
  0.4051047329064528  0.8769029670626843  0.2316075731249672
  0.2495845021126323  0.8768366939819614  0.1984990692456343
  0.0939076769288450  0.8768406398029391  0.2314271905246350
  0.1540133446548947  0.5021940149389909  0.3157228349392494
  0.9992207211354842  0.5020917663579126  0.3026986950635160
  0.3449683749695442  0.5022014027962050  0.3155554666242356
  0.4001326917866947  0.5020795355933044  0.4023797858482172
  0.2496668236379170  0.5022701987260981  0.3867980642210820
  0.0974758973495321  0.5022530821740478  0.4018177702002422
  0.1498285047489951  0.5043577035407331  0.4852429814279990
 -0.0006839852317911  0.5016354230734975  0.4729631902478225
  0.3485151094810079  0.5027723285007950  0.4887310220243465
  0.4028578940006657  0.5029383799596752  0.5721841661571131
  0.2508978878010739  0.5058325804303718  0.5605781358019911
  0.0721223426028855  0.4947386625516819  0.5696077148059601
  0.9050423774507620  0.0020265621832391  0.2311745109834958
  0.7494140648981736  0.0019858021834230  0.1985226845458445
  0.5936190891402621  0.0020492977299658  0.2312817533205838
  0.6540232073965171  0.1268187658935238  0.3148043819839915
  0.4992354051978789  0.1271280555882497  0.3020809327964156
  0.8446999940218483  0.1267581701116118  0.3147789819415661
  0.9005268587938767  0.1264900146003313  0.4012555612616882
  0.7494632657484459  0.1264819297825339  0.3860389434501929
  0.5980319835365925  0.1265580525549565  0.4012018914183589
  0.6514438237401532  0.1262521760433171  0.4870145734026444
  0.4992811963617804  0.1259556880336857  0.4731140834213700
  0.8480455577443907  0.1256049485312367  0.4872263357703915
  0.9063376373106172  0.1227963358582991  0.5685252422063046
  0.7497567033691682  0.1271820657848427  0.5615944794674559
  0.5963058693763904  0.1257292245741497  0.5683845430690372
  0.9050827398059094  0.1270765616805401  0.2313004507299224
  0.7494514157564423  0.1270328318936948  0.1986761639284159
  0.5936110840870044  0.1270406036027485  0.2313427631521452
  0.6541760852023326  0.2518633098809701  0.3148826356453294
  0.4992327482599939  0.2521233331421200  0.3022359139271847
  0.8447863767954049  0.2518759961318487  0.3149450002400675
  0.9004447342686317  0.2515897016559862  0.4015863938680120
  0.7498002086538720  0.2517283532194944  0.3858651252219475
  0.5976493512193974  0.2517866694657293  0.4009052614325187
  0.6515466286184148  0.2479907574695178  0.4837155038674168
  0.4993675639828745  0.2517126632638587  0.4720014738256493
  0.8489537853403463  0.2495344752757098  0.4867196241254846
  0.9049493861903893  0.2481439439777582  0.5691178596828564
  0.7534498312038193  0.2480713652317960  0.5576390108382360
  0.5854679060444854  0.2470353939138145  0.5624724111254746
  0.9051453817099279  0.2521308893374495  0.2315123100983536
  0.7494831424063906  0.2521395003908893  0.1984560153796629
  0.5936219974194780  0.2521171665552183  0.2314301449613343
  0.6542645070543615  0.3769097091134671  0.3151957241933735
  0.4993474635791536  0.3770904507285409  0.3025799913249805
  0.8448490982310227  0.3769159861206515  0.3153988148996911
  0.9002725939475441  0.3766972853797019  0.4023176086976880
  0.7498804207344011  0.3764330107692356  0.3867660724775152
  0.5981817336235513  0.3760117719622282  0.4010675201166594
  0.6506966277116250  0.3781804038932750  0.4854651884495358
  0.5000113910659270  0.3759448466412574  0.4713114912109691
  0.8493080098411759  0.3767616522685342  0.4885537763082360
  0.8956745468508106  0.3748227851435443  0.5759237741052851
  0.7545752415359819  0.3737891989251876  0.5540314240257294
  0.5819389013003760  0.3738788292268283  0.5718736642089396
  0.9050664244168412  0.3771123968673445  0.2317983743833740
  0.7495257976356291  0.3770909044288225  0.1992861984355346
  0.5937757073940665  0.3771361504883542  0.2317028566252976
  0.6539149554203904  0.0019342447581739  0.3148460110469413
  0.4993324346673539  0.0020360193191650  0.3021322417939691
  0.8447115165983756  0.0019156115564993  0.3147283540650095
  0.9005766319855111  0.0016697763446358  0.4011880197591368
  0.7493203145029028  0.0017571288505524  0.3863157022074618
  0.5981183343409814  0.0018351582800991  0.4014651598302912
  0.6508118924495381  0.0013935975463307  0.4867648010708467
  0.4993490530933644  0.0026542973391133  0.4731890014566793
  0.8480196196226123  0.0012118226901361  0.4867278951265568
  0.9062390474510406  0.0023717136086215  0.5668804088074653
  0.7490675347621482  0.0017502453358184  0.5571160124999393
  0.5939437327631562  0.0018129981310575  0.5671008552446862
  0.9050252913275325  0.5020098250311675  0.2317786632831101
  0.7495435134919436  0.5019781470136744  0.1989245445414137
  0.5938004380175087  0.5020579373976416  0.2318657035819621
  0.6544732762666741  0.6271002332552329  0.3153578001296869
  0.4995910663424724  0.6270965212505528  0.3028240367477530
  0.8448626729480515  0.6270586202928741  0.3153027589957256
  0.9000360424871729  0.6270766916807216  0.4021654400680030
  0.7500109742891252  0.6270037422173774  0.3867053542644108
  0.5983378321511154  0.6271474244722903  0.4015552532623090
  0.6517720261084311  0.6265273899259814  0.4840142533294389
  0.5012564351357207  0.6273452832044507  0.4713431880921127
  0.8489225277784380  0.6275715615785160  0.4881012740088400
  0.9042441857694027  0.6275573377703114  0.5711485139240268
  0.7496255295825570  0.6255176014110653  0.5560408301817462
  0.5825907009269929  0.6322070027697462  0.5617068844918984
  0.9050666360468712  0.6269838511318943  0.2316911481374609
  0.7494665146090796  0.6268853847679347  0.1994721748965086
  0.5937888726738603  0.6269838843037852  0.2319315542495358
  0.6543346836816640  0.7520605683025485  0.3153063458983511
  0.4995797341979276  0.7519615931900786  0.3026291979286883
  0.8446303054210342  0.7520075254975970  0.3150869122142244
  0.9004461922745369  0.7519342684713739  0.4017508335709494
  0.7497654929559223  0.7519250387498518  0.3866668832733046
  0.5982751895448071  0.7517863835422884  0.4018604847338315
  0.6512389043298693  0.7551452528707474  0.4862441522663378
  0.5003883666802090  0.7530776407442636  0.4745477741798838
  0.8491247434615258  0.7532275838865765  0.4875751231661685
  0.9056878175240587  0.7547444512501792  0.5695933195421377
  0.7526980069848900  0.7551506056155864  0.5583922552794102
  0.5856693218538611  0.7613142937098155  0.5713297810209070
  0.9050950636406710  0.7519284809860803  0.2315024914510480
  0.7493516444261529  0.7517344474322676  0.1986909927394551
  0.5937098907814351  0.7518906795015985  0.2317592743613035
  0.6540220354891069  0.8769124239728425  0.3150152918926246
  0.4994550161057149  0.8770497774990441  0.3022630135292949
  0.8446940064095030  0.8769028908925934  0.3148014876260609
  0.9006698214102929  0.8770871985675465  0.4011708796965324
  0.7494868837015702  0.8771505228976680  0.3861894162554282
  0.5982262760159864  0.8772034761040810  0.4014623488243605
  0.6512208032850121  0.8766669362290065  0.4866075846882617
  0.4994941728501248  0.8772257752444577  0.4729260914911347
  0.8482526659323415  0.8774910758082325  0.4865393921635787
  0.9051307742871951  0.8776347912072159  0.5671843560895049
  0.7493403792485936  0.8774279748124528  0.5566831738530612
  0.5929617059853354  0.8754931495132322  0.5661548973360095
  0.9050268649275404  0.8768478195903529  0.2312611829987858
  0.7493454633274511  0.8768244067520010  0.1985850456869553
  0.5937350762469458  0.8768496955281427  0.2314651325408956
  0.6543696829972121  0.5019618054882952  0.3152724159721455
  0.4995081655645608  0.5020692421239406  0.3027747282589419
  0.8448923621163589  0.5019421590154893  0.3154207984958617
  0.8999998897995307  0.5017416397668554  0.4023255672403707
  0.7499116086802985  0.5022223160124538  0.3866661777384212
  0.5987446430928343  0.5025184959116614  0.4012876216127369
  0.6525766799901135  0.4998337821446714  0.4855899041453528
  0.5000753648295525  0.5022560576957493  0.4718610926392324
  0.8485213325921945  0.5008250555228209  0.4884993783496564
  0.9012535039250531  0.4993637866891339  0.5723997806357314
  0.7595120880333730  0.5041877607617040  0.5621136280845412
  0.5881539904226564  0.5118844141425725  0.5654022173358150
  0.9991242368846961  0.8704388630660838  0.5386878174146155
  0.4987004370995101  0.8721340682523738  0.5392772631141728
  0.9993868112318388  0.0099539396242069  0.5392763429113180
  0.4996067891700569  0.0107069360874426  0.5397220146163526
  0.9989256231791163  0.1196699372978212  0.5396005891233572
  0.9923073585966623  0.3732590972766984  0.5454161130426541
  0.1942962797734329  0.4425076371510821  0.5278542139677512
 -0.0014755619458953  0.6190866482388196  0.5391387557715481
  0.1950365985967411  0.6883220782278860  0.5279612153812011
  0.4976068808273663  0.1203756553374756  0.5397383365808739
  0.4944013939463742  0.3705104975858429  0.5378913139509760
  0.6113849437586052  0.4391949341913167  0.5399026658029796
  0.4939229477034699  0.6294305082605233  0.5376459245348242
  0.6947802890522605  0.6893871219775295  0.5289163228064527
  0.9994831475277083  0.2497055906391963  0.5394462832218015
  0.1908261590987849  0.3132614494573904  0.5258087445442128
  0.1911548520381835  0.5722499620750928  0.5304151368299362
 -0.0006486209429333  0.7592042010597720  0.5403593864958491
  0.9942523583167153  0.4963254229981019  0.5406887495171534
  0.4964899616034635  0.2495138428992189  0.5381433407472599
  0.6918953537290008  0.3138077788275617  0.5257470540457385
  0.6890581942003422  0.5607857604365961  0.5332181985034493
  0.4970844939988849  0.7591879673687065  0.5419163693088042
  0.4937318406309040  0.5081982419717697  0.5380991469366063
  0.4366979689509464  0.3554702356216976  0.6297932387990770
  0.5750932505468389  0.3440501859616668  0.6329935873320429
  0.5062946544137260  0.4257350029804165  0.6702875456397923
  0.6393706248334401  0.4317640234909251  0.6666515975872003
  0.6328111283520610  0.2474181918116856  0.6597913477003144
  0.2984538289735242  0.3728746662573424  0.6255991211157027