Ta N Cu Ru                              
   1.00000000000000     
    18.1096308199999996    0.0000000000000000    0.0000000000000000
     0.0000000000000000   11.6775998899999998    0.0000000000000000
     0.0000000000000000    0.0000000000000000   23.4818170799999990
   Ta   N    Cu   Ru
   119   120     2     1
Direct
  0.0000679490316705  0.0000745813933511  0.2550691911765484
  0.3330542639433424  0.1253860427240972  0.2639381564500379
  0.1662349970552481  0.1252966880695528  0.2639905613250021
  0.2498772840550797  0.2503478242140045  0.3614494344978952
  0.0824105134522055  0.1252764414656521  0.3686645005984827
  0.4171053597071704  0.1254404209703250  0.3686306120386451
  0.9999775678702117  0.2503971300779887  0.4795921422838303
  0.3320397857293387  0.1254874707299562  0.4783995137966282
  0.1675525263196825  0.1253229028001658  0.4784812987151703
  0.2500038539313148  0.2509556578409552  0.5915564757853128
  0.0836811405356543  0.1261815524587813  0.5893620264782731
  0.4164077303052306  0.1255785783682109  0.5903674768812660
  0.3326230843137361  0.1258837316197656  0.7022388270445643
  0.1665145137621550  0.1271645757494804  0.7024446919633207
  0.9999915629530750  0.2502528091341210  0.2550235868303673
  0.3330355308680683  0.3752693890474271  0.2639514267520337
  0.1662675809066971  0.3753523611403979  0.2639932891756727
  0.2497529836930350  0.5004190501801785  0.3614922484427506
  0.0823799433924018  0.3753541809609983  0.3686862544173573
  0.4171272369467269  0.3754101122514199  0.3686239600238748
 -0.0000034584549224  0.5005506561040661  0.4798803194133530
  0.3319088721558712  0.3755244765848079  0.4784403181402818
  0.1675644590042518  0.3755771945668347  0.4785297582366495
  0.2496749974234579  0.5004710612924399  0.5914368912099861
  0.0837822114385732  0.3750102824665292  0.5894959448981407
  0.4162643026385116  0.3758727877602563  0.5901935363428339
  0.9999537035408933  0.4904794160740270  0.7035035149442136
  0.3351278333433182  0.3773539631356501  0.7046843159542737
  0.1650404200513407  0.3767896039085306  0.7041793609704891
  0.0000603217632496  0.5005511737350973  0.2550131244602713
  0.3334167256937711  0.6254826263838681  0.2638988362629114
  0.1659345852624198  0.6253963718942147  0.2639042979039425
  0.2496439501394020  0.7503513237418997  0.3615195181600890
  0.0824201154832173  0.6253553803783389  0.3687804066142615
  0.4170331480587341  0.6254455800785613  0.3687342715500999
  0.9999677802483996  0.7503071480020215  0.4801456035024813
  0.3321333928428072  0.6255577831276791  0.4784511095392497
  0.1673572893399735  0.6255614998640985  0.4786036032644260
  0.2495518533195668  0.7506953221808716  0.5916216110813124
  0.0833553381312296  0.6254010984198988  0.5905403809820799
  0.4162088363411833  0.6257079631669771  0.5901616044430203
  0.9999074873902554  0.7505650633457357  0.7027469375662022
  0.3354988812247303  0.6257452245847406  0.7043948202048924
  0.1637230525946076  0.6257926456527988  0.7045891329109136
  0.9999754766109175  0.7502176673833288  0.2550503079140721
  0.3333832012614387  0.8752420532014218  0.2639604877189365
  0.1659481315917972  0.8752081482986941  0.2639690427425117
  0.2498003937046325  0.0004208339642829  0.3615229866452783
  0.0824083821017559  0.8752469761607307  0.3688083039736043
  0.4170353141945890  0.8754118903004384  0.3687759370696103
  0.9999742236876756  0.0001398485201990  0.4799015877032576
  0.3320968487489649  0.8755459112324566  0.4786919958791320
  0.1674692911452643  0.8754070042241339  0.4787524910072720
  0.2494412299333470  0.0009391067850448  0.5919482330063058
  0.0833123627530653  0.8754839055889214  0.5904989401074227
  0.4161729590096542  0.8755302193994816  0.5902302692881167
  0.9984433444215941  0.0038607122762796  0.7020108795601149
  0.3347112818577970  0.8746252502845577  0.7048865511937160
  0.1641848933628017  0.8747733993412532  0.7052927410055075
  0.4992756648424757  0.0002911424834974  0.2551881393127858
  0.8331015692051130  0.1251388703718288  0.2637883461495135
  0.6664554560909427  0.1252676712472041  0.2637960988041025
  0.7495398448866900  0.2503710511678882  0.3611027066917869
  0.5820139420334697  0.1254409932159319  0.3683134277486626
  0.9172911562993937  0.1252645820529012  0.3682771150410810
  0.4997562075622565  0.2506048906959322  0.4801976958159069
  0.8321122624467460  0.1251997524717194  0.4777036648156441
  0.6676776710118477  0.1254157286716987  0.4777260265937816
  0.7500985947326593  0.2506976290002380  0.5906166537475052
  0.5838999222940537  0.1255144635533337  0.5897640899656291
  0.9157508604083878  0.1259121538887323  0.5886088119483343
  0.8354968185752059  0.1261955603046421  0.7029221133490285
  0.6656983750740768  0.1255461432360925  0.7033164114812971
  0.4993622898137215  0.2503777692763448  0.2551874033806448
  0.8331082369825146  0.3754363352700289  0.2637855439932655
  0.6664821293923827  0.3754371513554748  0.2637877866167095
  0.7496596134091102  0.5003652447890837  0.3611399814580182
  0.5820137820940422  0.3754368904495912  0.3683106049827300
  0.9173042999810984  0.3753805787105801  0.3683255929442906
  0.4997237899599086  0.5006384267742485  0.4800189229027993
  0.8321539926826013  0.3755128505851790  0.4778838325050409
  0.6677118100449179  0.3755178873116163  0.4777839776627731
  0.7503581729798279  0.5001963363707390  0.5909376134550585
  0.5839201127667901  0.3757585048209907  0.5897029292696816
  0.9160080204139699  0.3748436856594985  0.5888836418916348
  0.5001333070529916  0.5004268715756278  0.7020383695195798
  0.8351962318555136  0.3748802689601842  0.7033618948200140
  0.6650083187014947  0.3755272370307119  0.7037071864251886
  0.4992713412457474  0.5005519433938470  0.2550888296555499
  0.8334647894539525  0.6253009599207412  0.2637056146243566
  0.6659876352939362  0.6252612998728815  0.2637920642457406
  0.7497824601543107  0.7503742285927153  0.3612669371285538
  0.5820622183187070  0.6254408217727498  0.3684538608998974
  0.9173190945952716  0.6253523299943540  0.3684487237190944
  0.4997043701638180  0.7505411194306608  0.4799984528763517
  0.8323203695266375  0.6254238199020328  0.4781019622017846
  0.6675352739524648  0.6254920427308971  0.4779794747259880
  0.7502622923368761  0.7503935451261196  0.5909902168776343
  0.5837614431074306  0.6255933355412117  0.5897483924404869
  0.9165334766442783  0.6252352912904940  0.5901027928479086
  0.5000662417680688  0.7508637294218508  0.7021227693992657
  0.8358066614013477  0.6252576536367386  0.7043779162923488
  0.6652321781894966  0.6254892432338484  0.7041788448180979
  0.4993731427027510  0.7503483754728123  0.2550627452914166
  0.8334286511564091  0.8753550839168519  0.2637356139977163
  0.6659890495208254  0.8753915125160548  0.2637841998466956
  0.7496197471295205  0.0003173485431704  0.3611283508112481
  0.5820958842701506  0.8754256774920214  0.3684650285339531
  0.9173391586742634  0.8752075732702812  0.3684560086646405
  0.4997188681624664  0.0003510996881899  0.4801101978087191
  0.8322850967237699  0.8752528136683185  0.4780013227861049
  0.6675033035986651  0.8754320795082782  0.4780288991011341
  0.7503507754139380  0.0006788914077812  0.5908577499777734
  0.5839789839813940  0.8754578926212115  0.5896953768939351
  0.9163715950110105  0.8753377478062793  0.5899451369678023
  0.5011544299603127  0.0015804253554032  0.7017767558209965
  0.8356393235906726  0.8753986626244750  0.7040676148799209
  0.6651346762616122  0.8759217026456805  0.7038387435083248
  0.5013564062591608  0.2500687119357514  0.7016955171465498
  0.4062040609958962  0.0003981619637415  0.3015596805273435
  0.2496593475738289  0.0001210190750185  0.2582908659568314
  0.0931204588809459  0.0002013351743796  0.3015879551782334
  0.1543874164726660  0.2503577913068744  0.4102405396139989
  0.9997986134599512  0.2502956773252533  0.3930405826598979
  0.3451560572971460  0.2504314829443843  0.4103253362262655
  0.4008639338467868  0.2506211116443458  0.5223402964736829
  0.2499553634405939  0.2502946777128967  0.5033460675759567
  0.0990231674567337  0.2504918935945046  0.5220204585787750
  0.1513503911601190  0.2514481263907160  0.6337693898261147
  0.9997592070282063  0.2503042845975278  0.6124086295065932
  0.3486860272274283  0.2516648635723292  0.6341557099511130
  0.4031058566256080  0.2524945465665993  0.7431957805096017
  0.2495389529923845  0.2500972640174815  0.7250877363712525
  0.0963272750812536  0.2559535940410027  0.7412513614640777
  0.4062738552789141  0.2503887266048871  0.3014807610716141
  0.2496015201208476  0.2503025688172723  0.2576307063250916
  0.0931060884968225  0.2503237284253050  0.3014575128593886
  0.1543225773548255  0.5003846007815008  0.4103373681637020
  0.9998143816616269  0.5003741820187758  0.3932331733727331
  0.3451381034405245  0.5003976888732361  0.4103134918927646
  0.4008310652831108  0.5004949272178999  0.5223149856200293
  0.2498247921691990  0.5008384147490115  0.5033295428714100
  0.0988116613412818  0.5005384540163965  0.5225287921737510
  0.1511529665981632  0.5004079033644614  0.6338522428910190
  0.9998626787393556  0.4983396604341772  0.6146473330656809
  0.3480992507065858  0.5010164775169812  0.6334873777598097
  0.4029646418071126  0.5007116513681442  0.7406546553668898
  0.2499696368531983  0.4994979293770873  0.7243866525242931
  0.0967577262233937  0.4995620906340323  0.7412297400978771
  0.4062332333433198  0.5003646404952998  0.3015281467679002
  0.2496849234029558  0.5005826428928702  0.2583364654898637
  0.0930866129674429  0.5004277390957917  0.3015656243180786
  0.1543082801892748  0.7504586862285390  0.4104541613278047
  0.9998113795747727  0.7502747287689229  0.3933989577321705
  0.3450351313551785  0.7505664345025408  0.4103575640960721
  0.4007946987759944  0.7506172336870052  0.5224083490037876
  0.2497495714069540  0.7504290189259142  0.5034329812390318
  0.0987993996333507  0.7505188365135599  0.5226125895182053
  0.1513667703320716  0.7510634943708121  0.6340629010534694
  0.9998341010694438  0.7501613998405550  0.6140408405817881
  0.3479637940221978  0.7507338257981060  0.6335311995621079
  0.4027977675055333  0.7507743514023182  0.7406739788988386
  0.2494993203054443  0.7526425965337621  0.7242498124170160
  0.0968680945658944  0.7506365232318467  0.7414282470694201
  0.4063240167518408  0.7504150620510904  0.3016017420962292
  0.2496784308765753  0.7503192218030396  0.2585021979557455
  0.0930102108466548  0.7502901442618177  0.3016826192484863
  0.1544113650910349  0.0003657768592112  0.4104034159955915
  0.9998243304742410  0.0002370593198444  0.3932784750977513
  0.3450920338536876  0.0004962827868720  0.4104113757666528
  0.4008422938706848  0.0006077518783153  0.5224015695752059
  0.2498449661588852  0.0005817723699866  0.5037236802995860
  0.0988020884816288  0.0002982997534528  0.5224736341647616
  0.1503972307817286  0.0006002696179616  0.6345113869348207
  0.9995913819883777  0.0021481617475200  0.6137079519247781
  0.3484173322487685  0.9996152789043460  0.6341297245078628
  0.4028981310014496  0.9994113720683144  0.7432278819441012
  0.2493367462830368  0.0019847437824390  0.7249087447130178
  0.0952621696682085  0.0021285404564778  0.7436850267701047
  0.9066568515110980  0.0000967150278442  0.3011497100671903
  0.7497321698900580  0.0000495873474387  0.2573298229206558
  0.5927637475945554  0.0003965423268186  0.3011326532434072
  0.6540889889335451  0.2504560880791950  0.4097675235338273
  0.4996252720930227  0.2504580989750126  0.3933924959118795
  0.8452764662929888  0.2503805721485871  0.4096247834065926
  0.9006570346499478  0.2504276730535905  0.5214182911798639
  0.7497858520304432  0.2503909754433478  0.5024201710129973
  0.5989453911765675  0.2505872376307662  0.5218388499540546
  0.6520903582645232  0.2508969221322515  0.6330798682056095
  0.5003307924888766  0.2508153150027809  0.6133998054647648
  0.8483391303483288  0.2506648751346240  0.6326942462823988
  0.9045588576397434  0.2510136968434021  0.7380650795067735
  0.7509440772553215  0.2505304238006647  0.7242731684970499
  0.5973539235036701  0.2497585625591701  0.7401478636373345
  0.9065621534879380  0.2503126276149919  0.3010506998134682
  0.7498323885463630  0.2503066567851904  0.2571159914662110
  0.5928405561022951  0.2504147085423433  0.3010763640070513
  0.6541673950536921  0.5004298321864298  0.4098290880679554
  0.4996095586260442  0.5004418648926969  0.3933038161069486
  0.8453017056317753  0.5004003793910757  0.4098195343226024
  0.9009798681713734  0.5005292646126153  0.5220613243669975
  0.7498740209912098  0.5006548702600805  0.5027657558533374
  0.5988756692932665  0.5005681586718652  0.5218870421587539
  0.6520669351574884  0.5011323519579725  0.6329516195657869
  0.5001050133724187  0.5007440305704020  0.6135229789905556
  0.8488735171236270  0.5000919676064003  0.6333087687187122
  0.9034437222838673  0.4981975550233010  0.7408703517702201
  0.7501753875748325  0.5003533169114441  0.7239258244940404
  0.5968755894032630  0.5001375717808334  0.7400766355697590
  0.9066815388240808  0.5004700417657935  0.3011566448421061
  0.7497740854138758  0.5006060548120871  0.2574115908298273
  0.5927221971355606  0.5003720510420591  0.3011239393844453
  0.6542680823976144  0.7504421188187501  0.4098766719477213
  0.4996257046463888  0.7504560871750593  0.3933236287588359
  0.8453397129909355  0.7503005729798643  0.4099194946277151
  0.9009542250947958  0.7502927334080225  0.5221208128124663
  0.7499558317063613  0.7504100902712815  0.5027892229919552
  0.5988947089346415  0.7504280504468051  0.5219586945217108
  0.6521132223532620  0.7502457846242007  0.6329767524456220
  0.5000872523825068  0.7506765158535652  0.6135453197340806
  0.8483820144548239  0.7502971476106710  0.6333883043405181
  0.9033131908084502  0.7503187482164629  0.7407933799913439
  0.7505271651968795  0.7505063485784300  0.7238566648960069
  0.5968775714496348  0.7507426230690920  0.7400996702208787
  0.9066389989841626  0.7502881708037258  0.3012791964635006
  0.7496779390434203  0.7503165957716947  0.2584380745700519
  0.5927738098604910  0.7503711517415260  0.3012307287259309
  0.6541427464924530  0.0003921538791595  0.4098434017529524
  0.4996065350223163  0.0004301475962307  0.3933808209911751
  0.8452767935491043  0.0002217523346996  0.4097592972286979
  0.9008417110999752  0.0000767203097388  0.5218272460382338
  0.7498633928607487  0.0002385903031389  0.5027088466625981
  0.5989401323192998  0.0005575983650002  0.5218866936927519
  0.6521067642552690  0.0000694984035153  0.6329803429117247
  0.5002771359359721  0.0003063933661365  0.6134665566144244
  0.8488678643285198  0.0006970107722028  0.6331662754925866
  0.9033420873969148  0.0032379175158785  0.7406720016556662
  0.7504555542730741  0.0005779750224152  0.7238265912308071
  0.5973347669082483  0.0016438421463003  0.7400454016854056
  0.0624634501365894  0.1343557006426061  0.7874940690793785
  0.4320519427669874  0.1261128267619307  0.7910342497086857
  0.9983864587643120  0.2528590423396871  0.6980203752713346
 
  0.00000000E+00  0.00000000E+00  0.00000000E+00
  0.00000000E+00  0.00000000E+00  0.00000000E+00
  0.00000000E+00  0.00000000E+00  0.00000000E+00
  0.00000000E+00  0.00000000E+00  0.00000000E+00
  0.00000000E+00  0.00000000E+00  0.00000000E+00
  0.00000000E+00  0.00000000E+00  0.00000000E+00
  0.00000000E+00  0.00000000E+00  0.00000000E+00
  0.00000000E+00  0.00000000E+00  0.00000000E+00
  0.00000000E+00  0.00000000E+00  0.00000000E+00
  0.00000000E+00  0.00000000E+00  0.00000000E+00
  0.00000000E+00  0.00000000E+00  0.00000000E+00
  0.00000000E+00  0.00000000E+00  0.00000000E+00
  0.00000000E+00  0.00000000E+00  0.00000000E+00
  0.00000000E+00  0.00000000E+00  0.00000000E+00
  0.00000000E+00  0.00000000E+00  0.00000000E+00
  0.00000000E+00  0.00000000E+00  0.00000000E+00
  0.00000000E+00  0.00000000E+00  0.00000000E+00
  0.00000000E+00  0.00000000E+00  0.00000000E+00
  0.00000000E+00  0.00000000E+00  0.00000000E+00
  0.00000000E+00  0.00000000E+00  0.00000000E+00
  0.00000000E+00  0.00000000E+00  0.00000000E+00
  0.00000000E+00  0.00000000E+00  0.00000000E+00
  0.00000000E+00  0.00000000E+00  0.00000000E+00
  0.00000000E+00  0.00000000E+00  0.00000000E+00
  0.00000000E+00  0.00000000E+00  0.00000000E+00
  0.00000000E+00  0.00000000E+00  0.00000000E+00
  0.00000000E+00  0.00000000E+00  0.00000000E+00
  0.00000000E+00  0.00000000E+00  0.00000000E+00
  0.00000000E+00  0.00000000E+00  0.00000000E+00
  0.00000000E+00  0.00000000E+00  0.00000000E+00
  0.00000000E+00  0.00000000E+00  0.00000000E+00
  0.00000000E+00  0.00000000E+00  0.00000000E+00
  0.00000000E+00  0.00000000E+00  0.00000000E+00
  0.00000000E+00  0.00000000E+00  0.00000000E+00
  0.00000000E+00  0.00000000E+00  0.00000000E+00
  0.00000000E+00  0.00000000E+00  0.00000000E+00
  0.00000000E+00  0.00000000E+00  0.00000000E+00
  0.00000000E+00  0.00000000E+00  0.00000000E+00
  0.00000000E+00  0.00000000E+00  0.00000000E+00
  0.00000000E+00  0.00000000E+00  0.00000000E+00
  0.00000000E+00  0.00000000E+00  0.00000000E+00
  0.00000000E+00  0.00000000E+00  0.00000000E+00
  0.00000000E+00  0.00000000E+00  0.00000000E+00
  0.00000000E+00  0.00000000E+00  0.00000000E+00
  0.00000000E+00  0.00000000E+00  0.00000000E+00
  0.00000000E+00  0.00000000E+00  0.00000000E+00
  0.00000000E+00  0.00000000E+00  0.00000000E+00
  0.00000000E+00  0.00000000E+00  0.00000000E+00
  0.00000000E+00  0.00000000E+00  0.00000000E+00
  0.00000000E+00  0.00000000E+00  0.00000000E+00
  0.00000000E+00  0.00000000E+00  0.00000000E+00
  0.00000000E+00  0.00000000E+00  0.00000000E+00
  0.00000000E+00  0.00000000E+00  0.00000000E+00
  0.00000000E+00  0.00000000E+00  0.00000000E+00
  0.00000000E+00  0.00000000E+00  0.00000000E+00
  0.00000000E+00  0.00000000E+00  0.00000000E+00
  0.00000000E+00  0.00000000E+00  0.00000000E+00
  0.00000000E+00  0.00000000E+00  0.00000000E+00
  0.00000000E+00  0.00000000E+00  0.00000000E+00
  0.00000000E+00  0.00000000E+00  0.00000000E+00
  0.00000000E+00  0.00000000E+00  0.00000000E+00
  0.00000000E+00  0.00000000E+00  0.00000000E+00
  0.00000000E+00  0.00000000E+00  0.00000000E+00
  0.00000000E+00  0.00000000E+00  0.00000000E+00
  0.00000000E+00  0.00000000E+00  0.00000000E+00
  0.00000000E+00  0.00000000E+00  0.00000000E+00
  0.00000000E+00  0.00000000E+00  0.00000000E+00
  0.00000000E+00  0.00000000E+00  0.00000000E+00
  0.00000000E+00  0.00000000E+00  0.00000000E+00
  0.00000000E+00  0.00000000E+00  0.00000000E+00
  0.00000000E+00  0.00000000E+00  0.00000000E+00
  0.00000000E+00  0.00000000E+00  0.00000000E+00
  0.00000000E+00  0.00000000E+00  0.00000000E+00
  0.00000000E+00  0.00000000E+00  0.00000000E+00
  0.00000000E+00  0.00000000E+00  0.00000000E+00
  0.00000000E+00  0.00000000E+00  0.00000000E+00
  0.00000000E+00  0.00000000E+00  0.00000000E+00
  0.00000000E+00  0.00000000E+00  0.00000000E+00
  0.00000000E+00  0.00000000E+00  0.00000000E+00
  0.00000000E+00  0.00000000E+00  0.00000000E+00
  0.00000000E+00  0.00000000E+00  0.00000000E+00
  0.00000000E+00  0.00000000E+00  0.00000000E+00
  0.00000000E+00  0.00000000E+00  0.00000000E+00
  0.00000000E+00  0.00000000E+00  0.00000000E+00
  0.00000000E+00  0.00000000E+00  0.00000000E+00
  0.00000000E+00  0.00000000E+00  0.00000000E+00
  0.00000000E+00  0.00000000E+00  0.00000000E+00
  0.00000000E+00  0.00000000E+00  0.00000000E+00
  0.00000000E+00  0.00000000E+00  0.00000000E+00
  0.00000000E+00  0.00000000E+00  0.00000000E+00
  0.00000000E+00  0.00000000E+00  0.00000000E+00
  0.00000000E+00  0.00000000E+00  0.00000000E+00
  0.00000000E+00  0.00000000E+00  0.00000000E+00
  0.00000000E+00  0.00000000E+00  0.00000000E+00
  0.00000000E+00  0.00000000E+00  0.00000000E+00
  0.00000000E+00  0.00000000E+00  0.00000000E+00
  0.00000000E+00  0.00000000E+00  0.00000000E+00
  0.00000000E+00  0.00000000E+00  0.00000000E+00
  0.00000000E+00  0.00000000E+00  0.00000000E+00
  0.00000000E+00  0.00000000E+00  0.00000000E+00
  0.00000000E+00  0.00000000E+00  0.00000000E+00
  0.00000000E+00  0.00000000E+00  0.00000000E+00
  0.00000000E+00  0.00000000E+00  0.00000000E+00
  0.00000000E+00  0.00000000E+00  0.00000000E+00
  0.00000000E+00  0.00000000E+00  0.00000000E+00
  0.00000000E+00  0.00000000E+00  0.00000000E+00
  0.00000000E+00  0.00000000E+00  0.00000000E+00
  0.00000000E+00  0.00000000E+00  0.00000000E+00
  0.00000000E+00  0.00000000E+00  0.00000000E+00
  0.00000000E+00  0.00000000E+00  0.00000000E+00
  0.00000000E+00  0.00000000E+00  0.00000000E+00
  0.00000000E+00  0.00000000E+00  0.00000000E+00
  0.00000000E+00  0.00000000E+00  0.00000000E+00
  0.00000000E+00  0.00000000E+00  0.00000000E+00
  0.00000000E+00  0.00000000E+00  0.00000000E+00
  0.00000000E+00  0.00000000E+00  0.00000000E+00
  0.00000000E+00  0.00000000E+00  0.00000000E+00
  0.00000000E+00  0.00000000E+00  0.00000000E+00
  0.00000000E+00  0.00000000E+00  0.00000000E+00
  0.00000000E+00  0.00000000E+00  0.00000000E+00
  0.00000000E+00  0.00000000E+00  0.00000000E+00
  0.00000000E+00  0.00000000E+00  0.00000000E+00
  0.00000000E+00  0.00000000E+00  0.00000000E+00
  0.00000000E+00  0.00000000E+00  0.00000000E+00
  0.00000000E+00  0.00000000E+00  0.00000000E+00
  0.00000000E+00  0.00000000E+00  0.00000000E+00
  0.00000000E+00  0.00000000E+00  0.00000000E+00
  0.00000000E+00  0.00000000E+00  0.00000000E+00
  0.00000000E+00  0.00000000E+00  0.00000000E+00
  0.00000000E+00  0.00000000E+00  0.00000000E+00
  0.00000000E+00  0.00000000E+00  0.00000000E+00
  0.00000000E+00  0.00000000E+00  0.00000000E+00
  0.00000000E+00  0.00000000E+00  0.00000000E+00
  0.00000000E+00  0.00000000E+00  0.00000000E+00
  0.00000000E+00  0.00000000E+00  0.00000000E+00
  0.00000000E+00  0.00000000E+00  0.00000000E+00
  0.00000000E+00  0.00000000E+00  0.00000000E+00
  0.00000000E+00  0.00000000E+00  0.00000000E+00
  0.00000000E+00  0.00000000E+00  0.00000000E+00
  0.00000000E+00  0.00000000E+00  0.00000000E+00
  0.00000000E+00  0.00000000E+00  0.00000000E+00
  0.00000000E+00  0.00000000E+00  0.00000000E+00
  0.00000000E+00  0.00000000E+00  0.00000000E+00
  0.00000000E+00  0.00000000E+00  0.00000000E+00
  0.00000000E+00  0.00000000E+00  0.00000000E+00
  0.00000000E+00  0.00000000E+00  0.00000000E+00
  0.00000000E+00  0.00000000E+00  0.00000000E+00
  0.00000000E+00  0.00000000E+00  0.00000000E+00
  0.00000000E+00  0.00000000E+00  0.00000000E+00
  0.00000000E+00  0.00000000E+00  0.00000000E+00
  0.00000000E+00  0.00000000E+00  0.00000000E+00
  0.00000000E+00  0.00000000E+00  0.00000000E+00
  0.00000000E+00  0.00000000E+00  0.00000000E+00
  0.00000000E+00  0.00000000E+00  0.00000000E+00
  0.00000000E+00  0.00000000E+00  0.00000000E+00
  0.00000000E+00  0.00000000E+00  0.00000000E+00
  0.00000000E+00  0.00000000E+00  0.00000000E+00
  0.00000000E+00  0.00000000E+00  0.00000000E+00
  0.00000000E+00  0.00000000E+00  0.00000000E+00
  0.00000000E+00  0.00000000E+00  0.00000000E+00
  0.00000000E+00  0.00000000E+00  0.00000000E+00
  0.00000000E+00  0.00000000E+00  0.00000000E+00
  0.00000000E+00  0.00000000E+00  0.00000000E+00
  0.00000000E+00  0.00000000E+00  0.00000000E+00
  0.00000000E+00  0.00000000E+00  0.00000000E+00
  0.00000000E+00  0.00000000E+00  0.00000000E+00
  0.00000000E+00  0.00000000E+00  0.00000000E+00
  0.00000000E+00  0.00000000E+00  0.00000000E+00
  0.00000000E+00  0.00000000E+00  0.00000000E+00
  0.00000000E+00  0.00000000E+00  0.00000000E+00
  0.00000000E+00  0.00000000E+00  0.00000000E+00
  0.00000000E+00  0.00000000E+00  0.00000000E+00
  0.00000000E+00  0.00000000E+00  0.00000000E+00
  0.00000000E+00  0.00000000E+00  0.00000000E+00
  0.00000000E+00  0.00000000E+00  0.00000000E+00
  0.00000000E+00  0.00000000E+00  0.00000000E+00
  0.00000000E+00  0.00000000E+00  0.00000000E+00
  0.00000000E+00  0.00000000E+00  0.00000000E+00
  0.00000000E+00  0.00000000E+00  0.00000000E+00
  0.00000000E+00  0.00000000E+00  0.00000000E+00
  0.00000000E+00  0.00000000E+00  0.00000000E+00
  0.00000000E+00  0.00000000E+00  0.00000000E+00
  0.00000000E+00  0.00000000E+00  0.00000000E+00
  0.00000000E+00  0.00000000E+00  0.00000000E+00
  0.00000000E+00  0.00000000E+00  0.00000000E+00
  0.00000000E+00  0.00000000E+00  0.00000000E+00
  0.00000000E+00  0.00000000E+00  0.00000000E+00
  0.00000000E+00  0.00000000E+00  0.00000000E+00
  0.00000000E+00  0.00000000E+00  0.00000000E+00
  0.00000000E+00  0.00000000E+00  0.00000000E+00
  0.00000000E+00  0.00000000E+00  0.00000000E+00
  0.00000000E+00  0.00000000E+00  0.00000000E+00
  0.00000000E+00  0.00000000E+00  0.00000000E+00
  0.00000000E+00  0.00000000E+00  0.00000000E+00
  0.00000000E+00  0.00000000E+00  0.00000000E+00
  0.00000000E+00  0.00000000E+00  0.00000000E+00
  0.00000000E+00  0.00000000E+00  0.00000000E+00
  0.00000000E+00  0.00000000E+00  0.00000000E+00
  0.00000000E+00  0.00000000E+00  0.00000000E+00
  0.00000000E+00  0.00000000E+00  0.00000000E+00
  0.00000000E+00  0.00000000E+00  0.00000000E+00
  0.00000000E+00  0.00000000E+00  0.00000000E+00
  0.00000000E+00  0.00000000E+00  0.00000000E+00
  0.00000000E+00  0.00000000E+00  0.00000000E+00
  0.00000000E+00  0.00000000E+00  0.00000000E+00
  0.00000000E+00  0.00000000E+00  0.00000000E+00
  0.00000000E+00  0.00000000E+00  0.00000000E+00
  0.00000000E+00  0.00000000E+00  0.00000000E+00
  0.00000000E+00  0.00000000E+00  0.00000000E+00
  0.00000000E+00  0.00000000E+00  0.00000000E+00
  0.00000000E+00  0.00000000E+00  0.00000000E+00
  0.00000000E+00  0.00000000E+00  0.00000000E+00
  0.00000000E+00  0.00000000E+00  0.00000000E+00
  0.00000000E+00  0.00000000E+00  0.00000000E+00
  0.00000000E+00  0.00000000E+00  0.00000000E+00
  0.00000000E+00  0.00000000E+00  0.00000000E+00
  0.00000000E+00  0.00000000E+00  0.00000000E+00
  0.00000000E+00  0.00000000E+00  0.00000000E+00
  0.00000000E+00  0.00000000E+00  0.00000000E+00
  0.00000000E+00  0.00000000E+00  0.00000000E+00
  0.00000000E+00  0.00000000E+00  0.00000000E+00
  0.00000000E+00  0.00000000E+00  0.00000000E+00
  0.00000000E+00  0.00000000E+00  0.00000000E+00
  0.00000000E+00  0.00000000E+00  0.00000000E+00
  0.00000000E+00  0.00000000E+00  0.00000000E+00
  0.00000000E+00  0.00000000E+00  0.00000000E+00
  0.00000000E+00  0.00000000E+00  0.00000000E+00
  0.00000000E+00  0.00000000E+00  0.00000000E+00
  0.00000000E+00  0.00000000E+00  0.00000000E+00
  0.00000000E+00  0.00000000E+00  0.00000000E+00
  0.00000000E+00  0.00000000E+00  0.00000000E+00
  0.00000000E+00  0.00000000E+00  0.00000000E+00
  0.00000000E+00  0.00000000E+00  0.00000000E+00
  0.00000000E+00  0.00000000E+00  0.00000000E+00
  0.00000000E+00  0.00000000E+00  0.00000000E+00
  0.00000000E+00  0.00000000E+00  0.00000000E+00
  0.00000000E+00  0.00000000E+00  0.00000000E+00
  0.00000000E+00  0.00000000E+00  0.00000000E+00
  0.00000000E+00  0.00000000E+00  0.00000000E+00
  0.00000000E+00  0.00000000E+00  0.00000000E+00
  0.00000000E+00  0.00000000E+00  0.00000000E+00
  0.00000000E+00  0.00000000E+00  0.00000000E+00
