Mo  S Cu                                
   1.00000000000000     
    15.9214998300000001    0.0000000000000000    0.0000000000000000
    -7.9622501300000001   13.7910221699999997    0.0000000000000000
     0.0000000000000000    0.0000000000000000   13.5821998300000004
   Mo   S    Cu
    25    50     3
Direct
  0.1316417974676085  0.0643837894440580  0.6765962993997334
  0.1318802217676236  0.2645155164499542  0.6773162781952564
  0.1317086012393389  0.4643156199131298  0.6773052848347660
  0.1319689996631155  0.6645587693075328  0.6772565340029999
  0.1318862904848288  0.8645219711472194  0.6768652246590392
  0.3320471466289732  0.0649185423584342  0.6761902931686166
  0.3306314674729904  0.2643437347604518  0.6753752178060424
  0.3307898090460952  0.4632797629936221  0.6766685779273374
  0.3321666513588823  0.6646471195132904  0.6775574374075575
  0.3319913270477457  0.8645080122132711  0.6770502224329320
  0.5320925215394610  0.0645221629275738  0.6770876150001328
  0.5330733539804342  0.2645884149757265  0.6759556432248957
  0.5319343022371470  0.4643882523687068  0.6769894371101586
  0.5311415679866585  0.6644748589986023  0.6788218270664146
  0.5319674543622028  0.8646907522328817  0.6779272445024560
  0.7319795153298045  0.0646226145905473  0.6778843767159088
  0.7316586803071843  0.2648405178847639  0.6780062167743637
  0.7315140853123125  0.4633749585176687  0.6768903029565649
  0.7327688994654906  0.6644985974326119  0.6781105839749628
  0.7320370462352201  0.8648374251660442  0.6781233362337815
  0.9318192792378852  0.0645712420863873  0.6775705073562008
  0.9317716428516292  0.2644138931611977  0.6777467954870389
  0.9316955769175550  0.4642509917569768  0.6774874221667844
  0.9317266605760324  0.6647480842618378  0.6773882058216643
  0.9320537058321108  0.8647164653707833  0.6775535749571446
  0.0647747430835182  0.1312675634838101  0.5620297491125754
  0.0653649262133484  0.1310185016494785  0.7923127708058075
  0.0648242074090533  0.3309422253894070  0.5623853754181880
  0.0652826935397925  0.3311671294245073  0.7926472221196903
  0.0650357825462891  0.5310521698103301  0.5623311341782014
  0.0652270126265364  0.5312128579089830  0.7923654207038595
  0.0649971153238837  0.7309574968428905  0.5621174550032961
  0.0653588682784942  0.7313716659398892  0.7922186894513743
  0.0648449786576606  0.9309005290599544  0.5617952149714753
  0.0657051344284980  0.9315132108104436  0.7922043836769177
  0.2646025336439450  0.1308304323686968  0.5608701207862694
  0.2651352776849478  0.1313997446716471  0.7910502935389587
  0.2643192112540760  0.3309671164671855  0.5606817236510082
  0.2661747328628792  0.3312092046418371  0.7930480135194102
  0.2649759647284782  0.5313132805882574  0.5620536166442349
  0.2648740195001409  0.5307532558324795  0.7923028955401605
  0.2654014911882214  0.7310269373822535  0.5621955521351651
  0.2652610359951879  0.7313383725262597  0.7924112811911641
  0.2652759726226392  0.9310393942383115  0.5616976799767031
  0.2654771953531778  0.9317280791192033  0.7915886541969002
  0.4657179830761748  0.1309754944831525  0.5612405114608805
  0.4653165062636120  0.1313637094268501  0.7913136758865917
  0.4653311532252076  0.3310802121595771  0.5617350330971362
  0.4647348379074501  0.3304279353979283  0.7933329505078675
  0.4651307412720271  0.5316458462936566  0.5626749241295528
  0.4624087224569351  0.5285039542309491  0.7936370597285745
  0.4658478673343183  0.7313476849394576  0.5629479926155270
  0.4648617849671126  0.7318023925997892  0.7935608139633104
  0.4655457160450851  0.9310596175416990  0.5621662375862400
  0.4651004986887983  0.9315159847589172  0.7925002263211596
  0.6658785836547381  0.1316923797988139  0.5626216219059046
  0.6649343960385323  0.1311135146833209  0.7928890593544224
  0.6657940731553680  0.3310478709294102  0.5610860421238044
  0.6635584133070935  0.3323850867693068  0.7948898816130168
  0.6657318944388351  0.5314364468065023  0.5623558648345792
  0.6652484671186230  0.5286830436333574  0.7940807942516415
  0.6648803770006779  0.7306987869210815  0.5639047213898252
  0.6655675314017344  0.7314401918969793  0.7929600850716341
  0.6653462718551282  0.9312900807282318  0.5628814407606484
  0.6652233116774795  0.9315007072977579  0.7931648590842997
  0.8651019273697145  0.1312458477732505  0.5626635755596467
  0.8653456757199010  0.1312791864355347  0.7929484511142775
  0.8648294103409455  0.3308052865875908  0.5627717121495692
  0.8652111854820888  0.3312333650915207  0.7930067174577005
  0.8654670051476572  0.5311857409905159  0.5621593778030345
  0.8651364187753998  0.5309881551993243  0.7923871729869845
  0.8649337163563899  0.7314285430996037  0.5625277689745332
  0.8661636401824069  0.7318593623178629  0.7932815353589575
  0.8650226451508374  0.9311776028279581  0.5626606514386054
  0.8656924114229909  0.9315296010059697  0.7928991238195024
  0.4478126161173748  0.4369566338480553  0.9263281386405851
  0.5954345760575848  0.4241924653118403  0.9245150886856521
  0.5105570181618972  0.4109769612668970  0.0700964134652580
 
  0.00000000E+00  0.00000000E+00  0.00000000E+00
  0.00000000E+00  0.00000000E+00  0.00000000E+00
  0.00000000E+00  0.00000000E+00  0.00000000E+00
  0.00000000E+00  0.00000000E+00  0.00000000E+00
  0.00000000E+00  0.00000000E+00  0.00000000E+00
  0.00000000E+00  0.00000000E+00  0.00000000E+00
  0.00000000E+00  0.00000000E+00  0.00000000E+00
  0.00000000E+00  0.00000000E+00  0.00000000E+00
  0.00000000E+00  0.00000000E+00  0.00000000E+00
  0.00000000E+00  0.00000000E+00  0.00000000E+00
  0.00000000E+00  0.00000000E+00  0.00000000E+00
  0.00000000E+00  0.00000000E+00  0.00000000E+00
  0.00000000E+00  0.00000000E+00  0.00000000E+00
  0.00000000E+00  0.00000000E+00  0.00000000E+00
  0.00000000E+00  0.00000000E+00  0.00000000E+00
  0.00000000E+00  0.00000000E+00  0.00000000E+00
  0.00000000E+00  0.00000000E+00  0.00000000E+00
  0.00000000E+00  0.00000000E+00  0.00000000E+00
  0.00000000E+00  0.00000000E+00  0.00000000E+00
  0.00000000E+00  0.00000000E+00  0.00000000E+00
  0.00000000E+00  0.00000000E+00  0.00000000E+00
  0.00000000E+00  0.00000000E+00  0.00000000E+00
  0.00000000E+00  0.00000000E+00  0.00000000E+00
  0.00000000E+00  0.00000000E+00  0.00000000E+00
  0.00000000E+00  0.00000000E+00  0.00000000E+00
  0.00000000E+00  0.00000000E+00  0.00000000E+00
  0.00000000E+00  0.00000000E+00  0.00000000E+00
  0.00000000E+00  0.00000000E+00  0.00000000E+00
  0.00000000E+00  0.00000000E+00  0.00000000E+00
  0.00000000E+00  0.00000000E+00  0.00000000E+00
  0.00000000E+00  0.00000000E+00  0.00000000E+00
  0.00000000E+00  0.00000000E+00  0.00000000E+00
  0.00000000E+00  0.00000000E+00  0.00000000E+00
  0.00000000E+00  0.00000000E+00  0.00000000E+00
  0.00000000E+00  0.00000000E+00  0.00000000E+00
  0.00000000E+00  0.00000000E+00  0.00000000E+00
  0.00000000E+00  0.00000000E+00  0.00000000E+00
  0.00000000E+00  0.00000000E+00  0.00000000E+00
  0.00000000E+00  0.00000000E+00  0.00000000E+00
  0.00000000E+00  0.00000000E+00  0.00000000E+00
  0.00000000E+00  0.00000000E+00  0.00000000E+00
  0.00000000E+00  0.00000000E+00  0.00000000E+00
  0.00000000E+00  0.00000000E+00  0.00000000E+00
  0.00000000E+00  0.00000000E+00  0.00000000E+00
  0.00000000E+00  0.00000000E+00  0.00000000E+00
  0.00000000E+00  0.00000000E+00  0.00000000E+00
  0.00000000E+00  0.00000000E+00  0.00000000E+00
  0.00000000E+00  0.00000000E+00  0.00000000E+00
  0.00000000E+00  0.00000000E+00  0.00000000E+00
  0.00000000E+00  0.00000000E+00  0.00000000E+00
  0.00000000E+00  0.00000000E+00  0.00000000E+00
  0.00000000E+00  0.00000000E+00  0.00000000E+00
  0.00000000E+00  0.00000000E+00  0.00000000E+00
  0.00000000E+00  0.00000000E+00  0.00000000E+00
  0.00000000E+00  0.00000000E+00  0.00000000E+00
  0.00000000E+00  0.00000000E+00  0.00000000E+00
  0.00000000E+00  0.00000000E+00  0.00000000E+00
  0.00000000E+00  0.00000000E+00  0.00000000E+00
  0.00000000E+00  0.00000000E+00  0.00000000E+00
  0.00000000E+00  0.00000000E+00  0.00000000E+00
  0.00000000E+00  0.00000000E+00  0.00000000E+00
  0.00000000E+00  0.00000000E+00  0.00000000E+00
  0.00000000E+00  0.00000000E+00  0.00000000E+00
  0.00000000E+00  0.00000000E+00  0.00000000E+00
  0.00000000E+00  0.00000000E+00  0.00000000E+00
  0.00000000E+00  0.00000000E+00  0.00000000E+00
  0.00000000E+00  0.00000000E+00  0.00000000E+00
  0.00000000E+00  0.00000000E+00  0.00000000E+00
  0.00000000E+00  0.00000000E+00  0.00000000E+00
  0.00000000E+00  0.00000000E+00  0.00000000E+00
  0.00000000E+00  0.00000000E+00  0.00000000E+00
  0.00000000E+00  0.00000000E+00  0.00000000E+00
  0.00000000E+00  0.00000000E+00  0.00000000E+00
  0.00000000E+00  0.00000000E+00  0.00000000E+00
  0.00000000E+00  0.00000000E+00  0.00000000E+00
  0.00000000E+00  0.00000000E+00  0.00000000E+00
  0.00000000E+00  0.00000000E+00  0.00000000E+00
  0.00000000E+00  0.00000000E+00  0.00000000E+00
