Mo  S Cu                                
   1.00000000000000     
    15.9214998300000001    0.0000000000000000    0.0000000000000000
    -7.9622501300000001   13.7910221699999997    0.0000000000000000
     0.0000000000000000    0.0000000000000000   13.5821998300000004
   Mo   S    Cu
    25    49     4
Direct
  0.1335433809104941  0.0677604924447995  0.6760507749925191
  0.1361783079181380  0.2680521585857326  0.6737092578991072
  0.1336457287674527  0.4641848373128865  0.6762505596902080
  0.1327261366345832  0.6651421801900969  0.6788536300044756
  0.1327569216854263  0.8660276467223272  0.6785805957472308
  0.3327953793806044  0.0666138223332317  0.6784502306913121
  0.3301044555230485  0.2667759053676929  0.6735521426443749
  0.3290905025014897  0.4609520552343163  0.6738391835193364
  0.3324905068886733  0.6640505127747341  0.6792835789635030
  0.3324923614081873  0.8652813550477564  0.6797542529287868
  0.5326182209976212  0.0651926268463221  0.6798530854925849
  0.5325148422258141  0.2645799472571208  0.6780822277963359
  0.5303034715937377  0.4640377266292653  0.6769641692134429
  0.5316870863737647  0.6644682745051360  0.6791000798092709
  0.5324478994408673  0.8650836018117052  0.6802517736557968
  0.7329209802135492  0.0654146131385587  0.6800207036098288
  0.7331104167998382  0.2653185522241218  0.6792981759623354
  0.7318670896700996  0.4645869826606422  0.6792431807603059
  0.7323678562089450  0.6657722238610072  0.6784681554195843
  0.7327248217368710  0.8655776149060269  0.6798884363457930
  0.9336643460739809  0.0665227322137258  0.6787887762225689
  0.9338485346821399  0.2655018222854844  0.6789072082238931
  0.9326515499025627  0.4649701913257301  0.6788857471731771
  0.9322476031321225  0.6654083849387649  0.6788309421475718
  0.9328469180479769  0.8661086215785422  0.6786247268741414
  0.0655999267366675  0.1336172920506027  0.5614140859867752
  0.0714157170650336  0.1376561449190796  0.7908378762732309
  0.0655147396892506  0.3305247353964424  0.5612593141903208
  0.0714773764639429  0.3327100522535420  0.7915062910492514
  0.0657836034978640  0.5320307367999865  0.5637152662789449
  0.0669302718386710  0.5308770194711123  0.7922625964331701
  0.0658998882282679  0.7320872275995427  0.5643457488561676
  0.0659301241274532  0.7322840520263737  0.7931787170444897
  0.0658737979509932  0.9323019375479880  0.5633728067539809
  0.0670350258584008  0.9345356022341389  0.7920716984585321
  0.2672863685161537  0.1334959530105370  0.5611843935126467
  0.2651270878335691  0.1365736136582843  0.7907797577933549
  0.2655339717835482  0.3317202565445070  0.5583869555393500
  0.2675498661112132  0.5323685582566036  0.5614290323255281
  0.2649171391631364  0.5260787866332384  0.7916577042677604
  0.2664393444107384  0.7319842238230354  0.5649211432170694
  0.2656197969529930  0.7309298473768279  0.7939705926454806
  0.2664390786796495  0.9323901206687397  0.5645207604163957
  0.2657635920758628  0.9332156724478237  0.7935262217718770
  0.4662240711923716  0.1314597259139855  0.5642736699167500
  0.4655505653573890  0.1321007890114911  0.7939064859028819
  0.4649500643274625  0.3302905687188926  0.5623340338192927
  0.4599096267790860  0.3295724227483867  0.7919034110678627
  0.4644919286500539  0.5317206675658741  0.5624175895947020
  0.4591105148521199  0.5257904054252526  0.7921945747343753
  0.4660198619300248  0.7319760143790419  0.5652475847996863
  0.4653069928564775  0.7309929319551124  0.7945339647213669
  0.4659876844086855  0.9317314392806310  0.5653774891253530
  0.4655846663091839  0.9318470290055297  0.7947400704419576
  0.6661427796297633  0.1317679954382955  0.5652002741579928
  0.6662258138235476  0.1322319444825383  0.7945543365958997
  0.6661535068809155  0.3315094057539959  0.5643183650067830
  0.6650007147166787  0.3318135697047037  0.7947833121500371
  0.6655033053292013  0.5317565465004750  0.5642898636156288
  0.6646835327325205  0.5313006364000550  0.7936175407457593
  0.6653553576148549  0.7323696183409829  0.5647331901020989
  0.6652538854510610  0.7314261685793743  0.7940118367344056
  0.6657781728182818  0.9320170691498149  0.5655204141612236
  0.6661173424738260  0.9320330835311742  0.7948584763836565
  0.8658289026939113  0.1320386080784748  0.5648879647368255
  0.8671787015694563  0.1326719489914239  0.7941476039393438
  0.8661263896736512  0.3315563143587756  0.5645155670530250
  0.8671487196569283  0.3321087880643864  0.7939333474913727
  0.8653777513810774  0.5316263533658382  0.5645853237373898
  0.8657544032740287  0.5317806554457990  0.7936429409572036
  0.8656809302950295  0.7323462690186594  0.5641250470857678
  0.8660247186712560  0.7326490419398402  0.7933407225032644
  0.8656966115057693  0.9325864576012055  0.5645959572422883
  0.8672085299319767  0.9332149670178729  0.7938755060765708
  0.4230444720904521  0.4105275596871123  0.9123689720893566
  0.5803660506248559  0.4076229309030862  0.9103860939330785
  0.6299338937812270  0.3963394440837166  0.0628342451718387
  0.3508405886774421  0.3934831734958524  0.0591319958312572
 
  0.00000000E+00  0.00000000E+00  0.00000000E+00
  0.00000000E+00  0.00000000E+00  0.00000000E+00
  0.00000000E+00  0.00000000E+00  0.00000000E+00
  0.00000000E+00  0.00000000E+00  0.00000000E+00
  0.00000000E+00  0.00000000E+00  0.00000000E+00
  0.00000000E+00  0.00000000E+00  0.00000000E+00
  0.00000000E+00  0.00000000E+00  0.00000000E+00
  0.00000000E+00  0.00000000E+00  0.00000000E+00
  0.00000000E+00  0.00000000E+00  0.00000000E+00
  0.00000000E+00  0.00000000E+00  0.00000000E+00
  0.00000000E+00  0.00000000E+00  0.00000000E+00
  0.00000000E+00  0.00000000E+00  0.00000000E+00
  0.00000000E+00  0.00000000E+00  0.00000000E+00
  0.00000000E+00  0.00000000E+00  0.00000000E+00
  0.00000000E+00  0.00000000E+00  0.00000000E+00
  0.00000000E+00  0.00000000E+00  0.00000000E+00
  0.00000000E+00  0.00000000E+00  0.00000000E+00
  0.00000000E+00  0.00000000E+00  0.00000000E+00
  0.00000000E+00  0.00000000E+00  0.00000000E+00
  0.00000000E+00  0.00000000E+00  0.00000000E+00
  0.00000000E+00  0.00000000E+00  0.00000000E+00
  0.00000000E+00  0.00000000E+00  0.00000000E+00
  0.00000000E+00  0.00000000E+00  0.00000000E+00
  0.00000000E+00  0.00000000E+00  0.00000000E+00
  0.00000000E+00  0.00000000E+00  0.00000000E+00
  0.00000000E+00  0.00000000E+00  0.00000000E+00
  0.00000000E+00  0.00000000E+00  0.00000000E+00
  0.00000000E+00  0.00000000E+00  0.00000000E+00
  0.00000000E+00  0.00000000E+00  0.00000000E+00
  0.00000000E+00  0.00000000E+00  0.00000000E+00
  0.00000000E+00  0.00000000E+00  0.00000000E+00
  0.00000000E+00  0.00000000E+00  0.00000000E+00
  0.00000000E+00  0.00000000E+00  0.00000000E+00
  0.00000000E+00  0.00000000E+00  0.00000000E+00
  0.00000000E+00  0.00000000E+00  0.00000000E+00
  0.00000000E+00  0.00000000E+00  0.00000000E+00
  0.00000000E+00  0.00000000E+00  0.00000000E+00
  0.00000000E+00  0.00000000E+00  0.00000000E+00
  0.00000000E+00  0.00000000E+00  0.00000000E+00
  0.00000000E+00  0.00000000E+00  0.00000000E+00
  0.00000000E+00  0.00000000E+00  0.00000000E+00
  0.00000000E+00  0.00000000E+00  0.00000000E+00
  0.00000000E+00  0.00000000E+00  0.00000000E+00
  0.00000000E+00  0.00000000E+00  0.00000000E+00
  0.00000000E+00  0.00000000E+00  0.00000000E+00
  0.00000000E+00  0.00000000E+00  0.00000000E+00
  0.00000000E+00  0.00000000E+00  0.00000000E+00
  0.00000000E+00  0.00000000E+00  0.00000000E+00
  0.00000000E+00  0.00000000E+00  0.00000000E+00
  0.00000000E+00  0.00000000E+00  0.00000000E+00
  0.00000000E+00  0.00000000E+00  0.00000000E+00
  0.00000000E+00  0.00000000E+00  0.00000000E+00
  0.00000000E+00  0.00000000E+00  0.00000000E+00
  0.00000000E+00  0.00000000E+00  0.00000000E+00
  0.00000000E+00  0.00000000E+00  0.00000000E+00
  0.00000000E+00  0.00000000E+00  0.00000000E+00
  0.00000000E+00  0.00000000E+00  0.00000000E+00
  0.00000000E+00  0.00000000E+00  0.00000000E+00
  0.00000000E+00  0.00000000E+00  0.00000000E+00
  0.00000000E+00  0.00000000E+00  0.00000000E+00
  0.00000000E+00  0.00000000E+00  0.00000000E+00
  0.00000000E+00  0.00000000E+00  0.00000000E+00
  0.00000000E+00  0.00000000E+00  0.00000000E+00
  0.00000000E+00  0.00000000E+00  0.00000000E+00
  0.00000000E+00  0.00000000E+00  0.00000000E+00
  0.00000000E+00  0.00000000E+00  0.00000000E+00
  0.00000000E+00  0.00000000E+00  0.00000000E+00
  0.00000000E+00  0.00000000E+00  0.00000000E+00
  0.00000000E+00  0.00000000E+00  0.00000000E+00
  0.00000000E+00  0.00000000E+00  0.00000000E+00
  0.00000000E+00  0.00000000E+00  0.00000000E+00
  0.00000000E+00  0.00000000E+00  0.00000000E+00
  0.00000000E+00  0.00000000E+00  0.00000000E+00
  0.00000000E+00  0.00000000E+00  0.00000000E+00
  0.00000000E+00  0.00000000E+00  0.00000000E+00
  0.00000000E+00  0.00000000E+00  0.00000000E+00
  0.00000000E+00  0.00000000E+00  0.00000000E+00
  0.00000000E+00  0.00000000E+00  0.00000000E+00
