Ta N Co                                 
   1.00000000000000     
    18.1096308199999996    0.0000000000000000    0.0000000000000000
     0.0000000000000000   23.3551997799999995    0.0000000000000000
     0.0000000000000000    0.0000000000000000   30.4818171199999988
   Ta   N    Co
   216   240    24
Direct
  0.0000000000000000  0.0000000000000000  0.1978323703954530
  0.3338727101237993  0.0624326986815547  0.2028664187125031
  0.1661272606100042  0.0624326986815547  0.2028664187125031
  0.2499999997239044  0.1249456124694390  0.2783545260937785
  0.0829436317992887  0.0624991436697826  0.2841780885061667
  0.4170563682007113  0.0624991436697826  0.2841780885061667
  0.0000000000000000  0.1248582724709522  0.3697440674817827
  0.3313171547945615  0.0622648084434374  0.3689586123391351
  0.1686828159392419  0.0622648084434374  0.3689586123391351
  0.2499999997239044  0.1267334719033713  0.4598644973135890
  0.0829475487508802  0.0617478395635445  0.4534690644826540
  0.4170524512491198  0.0617478395635445  0.4534690644826540
  0.0000000000000000  0.1290754408846979  0.5416475988634559
  0.3394884493025216  0.0665208387807610  0.5472263101011663
  0.1605115214312818  0.0665208387807610  0.5472263101011663
  0.0000000000000000  0.1254127464689603  0.1978817415288177
  0.3343632522515492  0.1876300038603844  0.2027882572871889
  0.1656367184822543  0.1876300038603844  0.2027882572871889
  0.2499999997239044  0.2499060775195687  0.2783790393470653
  0.0828640977539905  0.1874358856665808  0.2843385691001359
  0.4171359022460095  0.1874358856665808  0.2843385691001359
  0.0000000000000000  0.2493662702990136  0.3694824865246247
  0.3315810283978919  0.1872994218462836  0.3690159381803468
  0.1684189423359115  0.1872994218462836  0.3690159381803468
  0.2499999997239044  0.2487477767942465  0.4600346679270473
  0.0842271772422194  0.1869722335796880  0.4544628361168108
  0.4157728227577806  0.1869722335796880  0.4544628361168108
  0.0000000000000000  0.2524384671561037  0.5400914695280363
  0.0000000000000000  0.2498779627564005  0.1980699525155529
  0.3334967231368111  0.3126654455467417  0.2031549182114176
  0.1665032475969923  0.3126654455467417  0.2031549182114176
  0.2499999997239044  0.3750007848440475  0.2787145759226703
  0.0830853804504557  0.3125364454590169  0.2843931008903695
  0.4169146195495443  0.3125364454590169  0.2843931008903695
  0.0000000000000000  0.3749856026547462  0.3696751871341419
  0.3315936085448072  0.3124043052423815  0.3688508568844568
  0.1684063621889962  0.3124043052423815  0.3688508568844568
  0.2499999997239044  0.3756312884994273  0.4614211057532316
  0.0830219411370337  0.3118874764344355  0.4523867520122096
  0.4169780588629663  0.3118874764344355  0.4523867520122096
  0.0000000000000000  0.3786222406581814  0.5416919269188085
  0.0000000000000000  0.3756149151881232  0.1983922724970171
  0.3343504441457767  0.4374666767910327  0.2033158458262463
  0.1656495265880267  0.4374666767910327  0.2033158458262463
  0.2499999997239044  0.0000000000000000  0.2782872264657215
  0.0831054180682500  0.4375787605948886  0.2850128074263694
  0.4168945819317500  0.4375787605948886  0.2850128074263694
  0.0000000000000000  0.0000000000000000  0.3692063002069119
  0.3313039783772851  0.4377375965913615  0.3701710979905499
  0.1686959923565183  0.4377375965913615  0.3701710979905499
  0.2499999997239044  0.0000000000000000  0.4624380396936374
  0.0856291746128974  0.4372302804319261  0.4550075434157250
  0.4143708253871026  0.4372302804319261  0.4550075434157250
  0.0000000000000000  0.0000000000000000  0.5436724224812792
  0.0000000000000000  0.5000000000000000  0.1986286598834468
  0.3343504441457767  0.5625333236371333  0.2033158458262463
  0.1656495265880267  0.5625333236371333  0.2033158458262463
  0.2499999997239044  0.6249992151559525  0.2787145759226703
  0.0831054180682500  0.5624212398332773  0.2850128074263694
  0.4168945819317500  0.5624212398332773  0.2850128074263694
  0.0000000000000000  0.6250143973452538  0.3696751871341419
  0.3313039783772851  0.5622624038368045  0.3701710979905499
  0.1686959923565183  0.5622624038368045  0.3701710979905499
  0.2499999997239044  0.6243687115005727  0.4614211057532316
  0.0856291746128974  0.5627697199962398  0.4550075434157250
  0.4143708253871026  0.5627697199962398  0.4550075434157250
  0.0000000000000000  0.6213777593418186  0.5416919269188085
  0.0000000000000000  0.6243850848118768  0.1983922724970171
  0.3334967231368111  0.6873345544532583  0.2031549182114176
  0.1665032475969923  0.6873345544532583  0.2031549182114176
  0.2499999997239044  0.7500939229086043  0.2783790393470653
  0.0830853804504557  0.6874635545409831  0.2843931008903695
  0.4169146195495443  0.6874635545409831  0.2843931008903695
  0.0000000000000000  0.7506337301291595  0.3694824865246247
  0.3315936085448072  0.6875956947576185  0.3688508568844568
  0.1684063621889962  0.6875956947576185  0.3688508568844568
  0.2499999997239044  0.7512522236339265  0.4600346679270473
  0.0830219411370337  0.6881125235655645  0.4523867520122096
  0.4169780588629663  0.6881125235655645  0.4523867520122096
  0.0000000000000000  0.7475615332720693  0.5400914695280363
  0.0000000000000000  0.7501220376717725  0.1980699525155529
  0.3343632522515492  0.8123699961396156  0.2027882572871889
  0.1656367184822543  0.8123699961396156  0.2027882572871889
  0.2499999997239044  0.8750543875305610  0.2783545260937785
  0.0828640977539905  0.8125641143334121  0.2843385691001359
  0.4171359022460095  0.8125641143334121  0.2843385691001359
  0.0000000000000000  0.8751417275290478  0.3697440674817827
  0.3315810283978919  0.8127005781537164  0.3690159381803468
  0.1684189423359115  0.8127005781537164  0.3690159381803468
  0.2499999997239044  0.8732665280966359  0.4598644973135890
  0.0842271772422194  0.8130277664203120  0.4544628361168108
  0.4157728227577806  0.8130277664203120  0.4544628361168108
  0.0000000000000000  0.8709245591153021  0.5416475988634559
  0.0000000000000000  0.8745872535310397  0.1978817415288177
  0.3338727101237993  0.9375673017466113  0.2028664187125031
  0.1661272606100042  0.9375673017466113  0.2028664187125031
  0.2499999997239044  0.5000000000000000  0.2792848648483996
  0.0829436317992887  0.9375008567583833  0.2841780885061667
  0.4170563682007113  0.9375008567583833  0.2841780885061667
  0.0000000000000000  0.5000000000000000  0.3703512957449391
  0.3313171547945615  0.9377351919847285  0.3689586123391351
  0.1686828159392419  0.9377351919847285  0.3689586123391351
  0.2499999997239044  0.5000000000000000  0.4694340024552446
  0.0829475487508802  0.9382521608646215  0.4534690644826540
  0.4170524512491198  0.9382521608646215  0.4534690644826540
  0.0000000000000000  0.5000000000000000  0.5411895798276305
  0.3394884493025216  0.9334791616474050  0.5472263101011663
  0.1605115214312818  0.9334791616474050  0.5472263101011663
  0.5000000000000000  0.0000000000000000  0.1978323703954530
  0.8338727101237993  0.0624326986815547  0.2028664187125031
  0.6661272606100042  0.0624326986815547  0.2028664187125031
  0.7499999997239044  0.1249456124694390  0.2783545260937785
  0.5829436317992887  0.0624991436697826  0.2841780885061667
  0.9170563682007113  0.0624991436697826  0.2841780885061667
  0.5000000000000000  0.1248582724709522  0.3697440674817827
  0.8313171547945615  0.0622648084434374  0.3689586123391351
  0.6686828159392419  0.0622648084434374  0.3689586123391351
  0.7499999997239044  0.1267334719033713  0.4598644973135890
  0.5829475487508802  0.0617478395635445  0.4534690644826540
  0.9170524512491198  0.0617478395635445  0.4534690644826540
  0.5000000000000000  0.1290754408846979  0.5416475988634559
  0.8394884493025216  0.0665208387807610  0.5472263101011663
  0.6605115214312818  0.0665208387807610  0.5472263101011663
  0.5000000000000000  0.1254127464689603  0.1978817415288177
  0.8343632522515492  0.1876300038603844  0.2027882572871889
  0.6656367184822543  0.1876300038603844  0.2027882572871889
  0.7499999997239044  0.2499060775195687  0.2783790393470653
  0.5828640977539905  0.1874358856665808  0.2843385691001359
  0.9171359022460095  0.1874358856665808  0.2843385691001359
  0.5000000000000000  0.2493662702990136  0.3694824865246247
  0.8315810283978919  0.1872994218462836  0.3690159381803468
  0.6684189423359115  0.1872994218462836  0.3690159381803468
  0.7499999997239044  0.2487477767942465  0.4600346679270473
  0.5842271772422194  0.1869722335796880  0.4544628361168108
  0.9157728227577806  0.1869722335796880  0.4544628361168108
  0.5000000000000000  0.2524384671561037  0.5400914695280363
  0.5000000000000000  0.2498779627564005  0.1980699525155529
  0.8334967231368111  0.3126654455467417  0.2031549182114176
  0.6665032475969923  0.3126654455467417  0.2031549182114176
  0.7499999997239044  0.3750007848440475  0.2787145759226703
  0.5830853804504557  0.3125364454590169  0.2843931008903695
  0.9169146195495443  0.3125364454590169  0.2843931008903695
  0.5000000000000000  0.3749856026547462  0.3696751871341419
  0.8315936085448072  0.3124043052423815  0.3688508568844568
  0.6684063621889962  0.3124043052423815  0.3688508568844568
  0.7499999997239044  0.3756312884994273  0.4614211057532316
  0.5830219411370337  0.3118874764344355  0.4523867520122096
  0.9169780588629663  0.3118874764344355  0.4523867520122096
  0.5000000000000000  0.3786222406581814  0.5416919269188085
  0.5000000000000000  0.3756149151881232  0.1983922724970171
  0.8343504441457767  0.4374666767910327  0.2033158458262463
  0.6656495265880267  0.4374666767910327  0.2033158458262463
  0.7499999997239044  0.0000000000000000  0.2782872264657215
  0.5831054180682500  0.4375787605948886  0.2850128074263694
  0.9168945819317500  0.4375787605948886  0.2850128074263694
  0.5000000000000000  0.0000000000000000  0.3692063002069119
  0.8313039783772922  0.4377375965913615  0.3701710979905499
  0.6686959923565112  0.4377375965913615  0.3701710979905499
  0.7499999997239044  0.0000000000000000  0.4624380396936374
  0.5856291746128974  0.4372302804319261  0.4550075434157250
  0.9143708253871026  0.4372302804319261  0.4550075434157250
  0.5000000000000000  0.0000000000000000  0.5436724224812792
  0.5000000000000000  0.5000000000000000  0.1986286598834468
  0.8343504441457767  0.5625333236371333  0.2033158458262463
  0.6656495265880267  0.5625333236371333  0.2033158458262463
  0.7499999997239044  0.6249992151559525  0.2787145759226703
  0.5831054180682500  0.5624212398332773  0.2850128074263694
  0.9168945819317500  0.5624212398332773  0.2850128074263694
  0.5000000000000000  0.6250143973452538  0.3696751871341419
  0.8313039783772922  0.5622624038368045  0.3701710979905499
  0.6686959923565112  0.5622624038368045  0.3701710979905499
  0.7499999997239044  0.6243687115005727  0.4614211057532316
  0.5856291746128974  0.5627697199962398  0.4550075434157250
  0.9143708253871026  0.5627697199962398  0.4550075434157250
  0.5000000000000000  0.6213777593418186  0.5416919269188085
  0.5000000000000000  0.6243850848118768  0.1983922724970171
  0.8334967231368111  0.6873345544532583  0.2031549182114176
  0.6665032475969923  0.6873345544532583  0.2031549182114176
  0.7499999997239044  0.7500939229086043  0.2783790393470653
  0.5830853804504557  0.6874635545409831  0.2843931008903695
  0.9169146195495443  0.6874635545409831  0.2843931008903695
  0.5000000000000000  0.7506337301291595  0.3694824865246247
  0.8315936085448072  0.6875956947576185  0.3688508568844568
  0.6684063621889962  0.6875956947576185  0.3688508568844568
  0.7499999997239044  0.7512522236339265  0.4600346679270473
  0.5830219411370337  0.6881125235655645  0.4523867520122096
  0.9169780588629663  0.6881125235655645  0.4523867520122096
  0.5000000000000000  0.7475615332720693  0.5400914695280363
  0.5000000000000000  0.7501220376717725  0.1980699525155529
  0.8343632522515492  0.8123699961396156  0.2027882572871889
  0.6656367184822543  0.8123699961396156  0.2027882572871889
  0.7499999997239044  0.8750543875305610  0.2783545260937785
  0.5828640977539905  0.8125641143334121  0.2843385691001359
  0.9171359022460095  0.8125641143334121  0.2843385691001359
  0.5000000000000000  0.8751417275290478  0.3697440674817827
  0.8315810283978919  0.8127005781537164  0.3690159381803468
  0.6684189423359115  0.8127005781537164  0.3690159381803468
  0.7499999997239044  0.8732665280966359  0.4598644973135890
  0.5842271772422194  0.8130277664203120  0.4544628361168108
  0.9157728227577806  0.8130277664203120  0.4544628361168108
  0.5000000000000000  0.8709245591153021  0.5416475988634559
  0.5000000000000000  0.8745872535310397  0.1978817415288177
  0.8338727101237993  0.9375673017466113  0.2028664187125031
  0.6661272606100042  0.9375673017466113  0.2028664187125031
  0.7499999997239044  0.5000000000000000  0.2792848648483996
  0.5829436317992887  0.9375008567583833  0.2841780885061667
  0.9170563682007113  0.9375008567583833  0.2841780885061667
  0.5000000000000000  0.5000000000000000  0.3703512957449391
  0.8313171547945615  0.9377351919847285  0.3689586123391351
  0.6686828159392419  0.9377351919847285  0.3689586123391351
  0.7499999997239044  0.5000000000000000  0.4694340024552446
  0.5829475487508802  0.9382521608646215  0.4534690644826540
  0.9170524512491198  0.9382521608646215  0.4534690644826540
  0.5000000000000000  0.5000000000000000  0.5411895798276305
  0.8394884493025216  0.9334791616474050  0.5472263101011663
  0.6605115214312818  0.9334791616474050  0.5472263101011663
  0.4054293902504824  0.0000000000000000  0.2323991573118320
  0.2499999997239044  0.0000000000000000  0.1984047102016149
  0.0945706097495176  0.0000000000000000  0.2323991573118320
  0.1552977394984012  0.1248220318966702  0.3162315111600975
  0.0000000000000000  0.1248858725837678  0.3031087785919269
  0.3447022605015988  0.1248220318966702  0.3162315111600975
  0.4007661662571707  0.1247033725158673  0.4019402034904118
  0.2499999997239044  0.1248777717040852  0.3898511112112857
  0.0992338337428293  0.1247033725158673  0.4019402034904118
  0.1483906146154368  0.1214828362184477  0.4885060991588759
  0.0000000000000000  0.1244082923740422  0.4732444588843379
  0.3516093853845632  0.1214828362184477  0.4885060991588759
  0.4048656182948207  0.1287180397611536  0.5711790966232826
  0.2499999997239044  0.0895448266172565  0.5766207569602742
  0.0951343817051793  0.1287180397611536  0.5711790966232826
  0.4053594122218485  0.1250502808872227  0.2325610018001640
  0.2499999997239044  0.1251755386884099  0.2000884972329828
  0.0946405877781515  0.1250502808872227  0.2325610018001640
  0.1553366707162809  0.2497626770393140  0.3161381258062548
  0.0000000000000000  0.2499004378313785  0.3029581854829075
  0.3446633292837191  0.2497626770393140  0.3161381258062548
  0.4009611594139812  0.2487523002185128  0.4014025805839054
  0.2499999997239044  0.2497478052146818  0.3900118729024200
  0.0990388405860188  0.2487523002185128  0.4014025805839054
  0.1476154601755155  0.2517515343787267  0.4866300746788212
  0.0000000000000000  0.2490133591154517  0.4727083807319659
  0.3523845398244845  0.2517515343787267  0.4866300746788212
  0.3984937541159823  0.2522748521588269  0.5648359889437131
  0.2499999997239044  0.1887912612937939  0.5116274666637253
  0.1015062458840177  0.2522748521588269  0.5648359889437131
  0.4053198873656640  0.2500592297324218  0.2326305439354783
  0.2499999997239044  0.2498846721064609  0.1993323180980937
  0.0946801126343360  0.2500592297324218  0.2326305439354783
  0.1556842897205044  0.3752330015610994  0.3165216216492510
  0.0000000000000000  0.3749909665246349  0.3031274715110754
  0.3443157102794956  0.3752330015610994  0.3165216216492510
  0.4010262328554788  0.3750604549961309  0.4012664819929626
  0.2499999997239044  0.3751675053493031  0.3913866251677263
  0.0989737671445212  0.3750604549961309  0.4012664819929626
  0.1471672331098119  0.3699979220026961  0.4849381847049514
  0.0000000000000000  0.3760615924305952  0.4741462281766502
  0.3528327668901881  0.3699979220026961  0.4849381847049514
  0.3944057627880326  0.3863775360741499  0.5631728111977523
  0.2499999997239044  0.4333669884508922  0.5189278676469584
  0.1055942372119674  0.3863775360741499  0.5631728111977523
  0.4052747240938643  0.3751894484591105  0.2329264920377057
  0.2499999997239044  0.3753985194600489  0.1989677234332135
  0.0947252759061357  0.3751894484591105  0.2329264920377057
  0.1552048678262423  0.0000000000000000  0.3160958589986720
  0.0000000000000000  0.0000000000000000  0.3026990572492352
  0.3447951321737577  0.0000000000000000  0.3160958589986720
  0.4012523151468628  0.0000000000000000  0.4015977581340664
  0.2499999997239044  0.0000000000000000  0.3900836967968218
  0.0987476848531372  0.0000000000000000  0.4015977581340664
  0.1446317942625654  0.0000000000000000  0.4873699386975758
  0.0000000000000000  0.0000000000000000  0.4743155166313073
  0.3553682057374346  0.0000000000000000  0.4873699386975758
  0.4033784175495896  0.0000000000000000  0.5732189264326095
  0.2499999997239044  0.0000000000000000  0.5347660055327879
  0.0966215824504104  0.0000000000000000  0.5732189264326095
  0.4052189993782989  0.5000000000000000  0.2333531852145896
  0.2499999997239044  0.5000000000000000  0.2017856736015773
  0.0947810006217011  0.5000000000000000  0.2333531852145896
  0.1556842897205044  0.6247669984389006  0.3165216216492510
  0.0000000000000000  0.6250090334753651  0.3031274715110754
  0.3443157102794956  0.6247669984389006  0.3165216216492510
  0.4010262328554788  0.6249395450038691  0.4012664819929626
  0.2499999997239044  0.6248324946506969  0.3913866251677263
  0.0989737671445212  0.6249395450038691  0.4012664819929626
  0.1471672331098119  0.6300020779973039  0.4849381847049514
  0.0000000000000000  0.6239384075694048  0.4741462281766502
  0.3528327668901881  0.6300020779973039  0.4849381847049514
  0.3944057627880326  0.6136224639258501  0.5631728111977523
  0.2499999997239044  0.5666330115491078  0.5189278676469584
  0.1055942372119674  0.6136224639258501  0.5631728111977523
  0.4052747240938643  0.6248105515408895  0.2329264920377057
  0.2499999997239044  0.6246014805399511  0.1989677234332135
  0.0947252759061357  0.6248105515408895  0.2329264920377057
  0.1553366707162809  0.7502373233888591  0.3161381258062548
  0.0000000000000000  0.7500995625967946  0.3029581854829075
  0.3446633292837191  0.7502373233888591  0.3161381258062548
  0.4009611594139812  0.7512477002096603  0.4014025805839054
  0.2499999997239044  0.7502521952134913  0.3900118729024200
  0.0990388405860188  0.7512477002096603  0.4014025805839054
  0.1476154601755155  0.7482484660494464  0.4866300746788212
  0.0000000000000000  0.7509866413127213  0.4727083807319659
  0.3523845398244845  0.7482484660494464  0.4866300746788212
  0.3984937541159823  0.7477251482693461  0.5648359889437131
  0.2499999997239044  0.8112087391343792  0.5116274666637253
  0.1015062458840177  0.7477251482693461  0.5648359889437131
  0.4053198873656640  0.7499407706957513  0.2326305439354783
  0.2499999997239044  0.7501153283217121  0.1993323180980937
  0.0946801126343360  0.7499407706957513  0.2326305439354783
  0.1552977394984012  0.8751779681033298  0.3162315111600975
  0.0000000000000000  0.8751141274162322  0.3031087785919269
  0.3447022605015988  0.8751779681033298  0.3162315111600975
  0.4007661662571707  0.8752966274841327  0.4019402034904118
  0.2499999997239044  0.8751222282959148  0.3898511112112857
  0.0992338337428293  0.8752966274841327  0.4019402034904118
  0.1483906146154368  0.8785171637815523  0.4885060991588759
  0.0000000000000000  0.8755917076259578  0.4732444588843379
  0.3516093853845632  0.8785171637815523  0.4885060991588759
  0.4048656182948207  0.8712819602388464  0.5711790966232826
  0.2499999997239044  0.9104551733827435  0.5766207569602742
  0.0951343817051793  0.8712819602388464  0.5711790966232826
  0.4053594122218485  0.8749497191127773  0.2325610018001640
  0.2499999997239044  0.8748244613115901  0.2000884972329828
  0.0946405877781515  0.8749497191127773  0.2325610018001640
  0.1555703601766183  0.5000000000000000  0.3171650028683715
  0.0000000000000000  0.5000000000000000  0.3037069605510041
  0.3444296398233817  0.5000000000000000  0.3171650028683715
  0.4010559754992329  0.5000000000000000  0.4019723936394115
  0.2499999997239044  0.5000000000000000  0.3939707803387265
  0.0989440245007671  0.5000000000000000  0.4019723936394115
  0.1409342260457365  0.5000000000000000  0.4860696355282244
  0.0000000000000000  0.5000000000000000  0.4726181072232762
  0.3590657739542635  0.5000000000000000  0.4860696355282244
  0.4030993370835034  0.5000000000000000  0.5735658208237453
  0.2499999997239044  0.5000000000000000  0.5826090939131561
  0.0969006629164966  0.5000000000000000  0.5735658208237453
  0.9054293902504824  0.0000000000000000  0.2323991573118320
  0.7499999997239044  0.0000000000000000  0.1984047102016149
  0.5945706091973193  0.0000000000000000  0.2323991573118320
  0.6552977394984012  0.1248220318966702  0.3162315111600975
  0.5000000000000000  0.1248858725837678  0.3031087785919269
  0.8447022605015988  0.1248220318966702  0.3162315111600975
  0.9007661662571707  0.1247033725158673  0.4019402034904118
  0.7499999997239044  0.1248777717040852  0.3898511112112857
  0.5992338337428293  0.1247033725158673  0.4019402034904118
  0.6483906146154368  0.1214828362184477  0.4885060991588759
  0.5000000000000000  0.1244082923740422  0.4732444588843379
  0.8516093853845632  0.1214828362184477  0.4885060991588759
  0.9048656182948207  0.1287180397611536  0.5711790966232826
  0.7499999997239044  0.0895448266172565  0.5766207569602742
  0.5951343817051793  0.1287180397611536  0.5711790966232826
  0.9053594122218485  0.1250502808872227  0.2325610018001640
  0.7499999997239044  0.1251755386884099  0.2000884972329828
  0.5946405872259533  0.1250502808872227  0.2325610018001640
  0.6553366707162809  0.2497626770393140  0.3161381258062548
  0.5000000000000000  0.2499004378313785  0.3029581854829075
  0.8446633292837191  0.2497626770393140  0.3161381258062548
  0.9009611594139812  0.2487523002185128  0.4014025805839054
  0.7499999997239044  0.2497478052146818  0.3900118729024200
  0.5990388405860188  0.2487523002185128  0.4014025805839054
  0.6476154601755155  0.2517515343787267  0.4866300746788212
  0.5000000000000000  0.2490133591154517  0.4727083807319659
  0.8523845398244845  0.2517515343787267  0.4866300746788212
  0.8984937541159823  0.2522748521588269  0.5648359889437131
  0.7499999997239044  0.1887912612937939  0.5116274666637253
  0.6015062458840177  0.2522748521588269  0.5648359889437131
  0.9053198873656640  0.2500592297324218  0.2326305439354783
  0.7499999997239044  0.2498846721064609  0.1993323180980937
  0.5946801120821377  0.2500592297324218  0.2326305439354783
  0.6556842897205044  0.3752330015610994  0.3165216216492510
  0.5000000000000000  0.3749909665246349  0.3031274715110754
  0.8443157102794956  0.3752330015610994  0.3165216216492510
  0.9010262328554788  0.3750604549961309  0.4012664819929626
  0.7499999997239044  0.3751675053493031  0.3913866251677263
  0.5989737671445212  0.3750604549961309  0.4012664819929626
  0.6471672331098119  0.3699979220026961  0.4849381847049514
  0.5000000000000000  0.3760615924305952  0.4741462281766502
  0.8528327668901881  0.3699979220026961  0.4849381847049514
  0.8944057627880326  0.3863775360741499  0.5631728111977523
  0.7499999997239044  0.4333669884508922  0.5189278676469584
  0.6055942372119674  0.3863775360741499  0.5631728111977523
  0.9052747240938643  0.3751894484591105  0.2329264920377057
  0.7499999997239044  0.3753985194600489  0.1989677234332135
  0.5947252753539374  0.3751894484591105  0.2329264920377057
  0.6552048678262423  0.0000000000000000  0.3160958589986720
  0.5000000000000000  0.0000000000000000  0.3026990572492352
  0.8447951321737577  0.0000000000000000  0.3160958589986720
  0.9012523151468628  0.0000000000000000  0.4015977581340664
  0.7499999997239044  0.0000000000000000  0.3900836967968218
  0.5987476848531372  0.0000000000000000  0.4015977581340664
  0.6446317942625583  0.0000000000000000  0.4873699386975758
  0.5000000000000000  0.0000000000000000  0.4743155166313073
  0.8553682057374417  0.0000000000000000  0.4873699386975758
  0.9033784175495896  0.0000000000000000  0.5732189264326095
  0.7499999997239044  0.0000000000000000  0.5347660055327879
  0.5966215824504104  0.0000000000000000  0.5732189264326095
  0.9052189993782989  0.5000000000000000  0.2333531852145896
  0.7499999997239044  0.5000000000000000  0.2017856736015773
  0.5947810000695029  0.5000000000000000  0.2333531852145896
  0.6556842897205044  0.6247669984389006  0.3165216216492510
  0.5000000000000000  0.6250090334753651  0.3031274715110754
  0.8443157102794956  0.6247669984389006  0.3165216216492510
  0.9010262328554788  0.6249395450038691  0.4012664819929626
  0.7499999997239044  0.6248324946506969  0.3913866251677263
  0.5989737671445212  0.6249395450038691  0.4012664819929626
  0.6471672331098119  0.6300020779973039  0.4849381847049514
  0.5000000000000000  0.6239384075694048  0.4741462281766502
  0.8528327668901881  0.6300020779973039  0.4849381847049514
  0.8944057627880326  0.6136224639258501  0.5631728111977523
  0.7499999997239044  0.5666330115491078  0.5189278676469584
  0.6055942372119674  0.6136224639258501  0.5631728111977523
  0.9052747240938643  0.6248105515408895  0.2329264920377057
  0.7499999997239044  0.6246014805399511  0.1989677234332135
  0.5947252753539374  0.6248105515408895  0.2329264920377057
  0.6553366707162809  0.7502373233888591  0.3161381258062548
  0.5000000000000000  0.7500995625967946  0.3029581854829075
  0.8446633292837191  0.7502373233888591  0.3161381258062548
  0.9009611594139812  0.7512477002096603  0.4014025805839054
  0.7499999997239044  0.7502521952134913  0.3900118729024200
  0.5990388405860188  0.7512477002096603  0.4014025805839054
  0.6476154601755155  0.7482484660494464  0.4866300746788212
  0.5000000000000000  0.7509866413127213  0.4727083807319659
  0.8523845398244845  0.7482484660494464  0.4866300746788212
  0.8984937541159823  0.7477251482693461  0.5648359889437131
  0.7499999997239044  0.8112087391343792  0.5116274666637253
  0.6015062458840177  0.7477251482693461  0.5648359889437131
  0.9053198873656640  0.7499407706957513  0.2326305439354783
  0.7499999997239044  0.7501153283217121  0.1993323180980937
  0.5946801120821377  0.7499407706957513  0.2326305439354783
  0.6552977394984012  0.8751779681033298  0.3162315111600975
  0.5000000000000000  0.8751141274162322  0.3031087785919269
  0.8447022605015988  0.8751779681033298  0.3162315111600975
  0.9007661662571707  0.8752966274841327  0.4019402034904118
  0.7499999997239044  0.8751222282959148  0.3898511112112857
  0.5992338337428293  0.8752966274841327  0.4019402034904118
  0.6483906146154368  0.8785171637815523  0.4885060991588759
  0.5000000000000000  0.8755917076259578  0.4732444588843379
  0.8516093853845632  0.8785171637815523  0.4885060991588759
  0.9048656182948207  0.8712819602388464  0.5711790966232826
  0.7499999997239044  0.9104551733827435  0.5766207569602742
  0.5951343817051793  0.8712819602388464  0.5711790966232826
  0.9053594122218485  0.8749497191127773  0.2325610018001640
  0.7499999997239044  0.8748244613115901  0.2000884972329828
  0.5946405872259533  0.8749497191127773  0.2325610018001640
  0.6555703601766183  0.5000000000000000  0.3171650028683715
  0.5000000000000000  0.5000000000000000  0.3037069605510041
  0.8444296398233817  0.5000000000000000  0.3171650028683715
  0.9010559754992329  0.5000000000000000  0.4019723936394115
  0.7499999997239044  0.5000000000000000  0.3939707803387265
  0.5989440245007671  0.5000000000000000  0.4019723936394115
  0.6409342260457365  0.5000000000000000  0.4860696355282244
  0.5000000000000000  0.5000000000000000  0.4726181072232762
  0.8590657739542635  0.5000000000000000  0.4860696355282244
  0.9030993370835034  0.5000000000000000  0.5735658208237453
  0.7499999997239044  0.5000000000000000  0.5826090939131561
  0.5969006629164966  0.5000000000000000  0.5735658208237453
  0.3625433590027711  0.1915928610430058  0.5327596318938532
  0.1374566117310323  0.1915928610430058  0.5327596318938532
  0.3755365908320911  0.3181933731767685  0.5344548018848059
  0.1244633799017123  0.3181933731767685  0.5344548018848059
  0.3274362756822669  0.4485414235076561  0.5629849040925023
  0.1725636950515366  0.4485414235076561  0.5629849040925023
  0.3274362756822669  0.5514585769205098  0.5629849040925023
  0.1725636950515366  0.5514585769205098  0.5629849040925023
  0.3755365908320911  0.6818066268232386  0.5344548018848059
  0.1244633799017123  0.6818066268232386  0.5344548018848059
  0.3625433590027711  0.8084071389569942  0.5327596318938532
  0.1374566117310323  0.8084071389569942  0.5327596318938532
  0.8625433590027711  0.1915928610430058  0.5327596318938532
  0.6374566117310323  0.1915928610430058  0.5327596318938532
  0.8755365908320911  0.3181933731767685  0.5344548018848059
  0.6244633799017123  0.3181933731767685  0.5344548018848059
  0.8274362756822669  0.4485414235076561  0.5629849040925023
  0.6725636950515366  0.4485414235076561  0.5629849040925023
  0.8274362756822669  0.5514585769205098  0.5629849040925023
  0.6725636950515366  0.5514585769205098  0.5629849040925023
  0.8755365908320911  0.6818066268232386  0.5344548018848059
  0.6244633799017123  0.6818066268232386  0.5344548018848059
  0.8625433590027711  0.8084071389569942  0.5327596318938532
  0.6374566117310323  0.8084071389569942  0.5327596318938532
 
  0.00000000E+00  0.00000000E+00  0.00000000E+00
  0.00000000E+00  0.00000000E+00  0.00000000E+00
  0.00000000E+00  0.00000000E+00  0.00000000E+00
  0.00000000E+00  0.00000000E+00  0.00000000E+00
  0.00000000E+00  0.00000000E+00  0.00000000E+00
  0.00000000E+00  0.00000000E+00  0.00000000E+00
  0.00000000E+00  0.00000000E+00  0.00000000E+00
  0.00000000E+00  0.00000000E+00  0.00000000E+00