Ru                                      
   1.00000000000000     
    10.8623999999999992    0.0000000000000000    0.0000000000000000
    -5.4311999999999969    9.4071143460680844    0.0000000000000000
     0.0000000000000000    0.0000000000000000   22.7112499999999962
   Ru
    96
Direct
  0.0833333333333357  0.1666666666666643  0.3581935490564424
  0.1666666666666643  0.0833333333333357  0.2676294112914158
  0.0833333333333357  0.1666666666666643  0.5478502005749755
  0.1666666666666643  0.0833333333333357  0.4521497994250245
  0.0833333333333357  0.1666666666666643  0.7323705887085842
  0.1666666666666643  0.0833333333333357  0.6418064509435576
  0.0833333333333357  0.4166666666666643  0.3581935490564424
  0.1666666666666643  0.3333333333333357  0.2676294112914158
  0.0833333333333357  0.4166666666666643  0.5478502005749755
  0.1666666666666643  0.3333333333333357  0.4521497994250245
  0.0833333333333357  0.4166666666666643  0.7323705887085842
  0.1666666666666643  0.3333333333333357  0.6418064509435576
  0.0833333333333357  0.6666666666666643  0.3581935490564424
  0.1666666666666643  0.5833333333333357  0.2676294112914158
  0.0833333333333357  0.6666666666666643  0.5478502005749755
  0.1666666666666643  0.5833333333333357  0.4521497994250245
  0.0833333333333357  0.6666666666666643  0.7323705887085842
  0.1666666666666643  0.5833333333333357  0.6418064509435576
  0.0833333333333357  0.9166666666666643  0.3581935490564424
  0.1666666666666643  0.8333333333333357  0.2676294112914158
  0.0833333333333357  0.9166666666666643  0.5478502005749755
  0.1666666666666643  0.8333333333333357  0.4521497994250245
  0.0833333333333357  0.9166666666666643  0.7323705887085842
  0.1666666666666643  0.8333333333333357  0.6418064509435576
  0.3333333333333357  0.1666666666666643  0.3581935490564424
  0.4166666666666643  0.0833333333333357  0.2676294112914158
  0.3333333333333357  0.1666666666666643  0.5478502005749755
  0.4166666666666643  0.0833333333333357  0.4521497994250245
  0.3333333333333357  0.1666666666666643  0.7323705887085842
  0.4166666666666643  0.0833333333333357  0.6418064509435576
  0.3333333333333357  0.4166666666666643  0.3581935490564424
  0.4166666666666643  0.3333333333333357  0.2676294112914158
  0.3333333333333357  0.4166666666666643  0.5478502005749755
  0.4166666666666643  0.3333333333333357  0.4521497994250245
  0.3333333333333357  0.4166666666666643  0.7323705887085842
  0.4166666666666643  0.3333333333333357  0.6418064509435576
  0.3333333333333357  0.6666666666666643  0.3581935490564424
  0.4166666666666643  0.5833333333333357  0.2676294112914158
  0.3333333333333357  0.6666666666666643  0.5478502005749755
  0.4166666666666643  0.5833333333333357  0.4521497994250245
  0.3333333333333357  0.6666666666666643  0.7323705887085842
  0.4166666666666643  0.5833333333333357  0.6418064509435576
  0.3333333333333357  0.9166666666666643  0.3581935490564424
  0.4166666666666643  0.8333333333333357  0.2676294112914158
  0.3333333333333357  0.9166666666666643  0.5478502005749755
  0.4166666666666643  0.8333333333333357  0.4521497994250245
  0.3333333333333357  0.9166666666666643  0.7323705887085842
  0.4166666666666643  0.8333333333333357  0.6418064509435576
  0.5833333333333357  0.1666666666666643  0.3581935490564424
  0.6666666666666643  0.0833333333333357  0.2676294112914158
  0.5833333333333357  0.1666666666666643  0.5478502005749755
  0.6666666666666643  0.0833333333333357  0.4521497994250245
  0.5833333333333357  0.1666666666666643  0.7323705887085842
  0.6666666666666643  0.0833333333333357  0.6418064509435576
  0.5833333333333357  0.4166666666666643  0.3581935490564424
  0.6666666666666643  0.3333333333333357  0.2676294112914158
  0.5833333333333357  0.4166666666666643  0.5478502005749755
  0.6666666666666643  0.3333333333333357  0.4521497994250245
  0.5833333333333357  0.4166666666666643  0.7323705887085842
  0.6666666666666643  0.3333333333333357  0.6418064509435576
  0.5833333333333357  0.6666666666666643  0.3581935490564424
  0.6666666666666643  0.5833333333333357  0.2676294112914158
  0.5833333333333357  0.6666666666666643  0.5478502005749755
  0.6666666666666643  0.5833333333333357  0.4521497994250245
  0.5833333333333357  0.6666666666666643  0.7323705887085842
  0.6666666666666643  0.5833333333333357  0.6418064509435576
  0.5833333333333357  0.9166666666666643  0.3581935490564424
  0.6666666666666643  0.8333333333333357  0.2676294112914158
  0.5833333333333357  0.9166666666666643  0.5478502005749755
  0.6666666666666643  0.8333333333333357  0.4521497994250245
  0.5833333333333357  0.9166666666666643  0.7323705887085842
  0.6666666666666643  0.8333333333333357  0.6418064509435576
  0.8333333333333357  0.1666666666666643  0.3581935490564424
  0.9166666666666643  0.0833333333333357  0.2676294112914158
  0.8333333333333357  0.1666666666666643  0.5478502005749755
  0.9166666666666643  0.0833333333333357  0.4521497994250245
  0.8333333333333357  0.1666666666666643  0.7323705887085842
  0.9166666666666643  0.0833333333333357  0.6418064509435576
  0.8333333333333357  0.4166666666666643  0.3581935490564424
  0.9166666666666643  0.3333333333333357  0.2676294112914158
  0.8333333333333357  0.4166666666666643  0.5478502005749755
  0.9166666666666643  0.3333333333333357  0.4521497994250245
  0.8333333333333357  0.4166666666666643  0.7323705887085842
  0.9166666666666643  0.3333333333333357  0.6418064509435576
  0.8333333333333357  0.6666666666666643  0.3581935490564424
  0.9166666666666643  0.5833333333333357  0.2676294112914158
  0.8333333333333357  0.6666666666666643  0.5478502005749755
  0.9166666666666643  0.5833333333333357  0.4521497994250245
  0.8333333333333357  0.6666666666666643  0.7323705887085842
  0.9166666666666643  0.5833333333333357  0.6418064509435576
  0.8333333333333357  0.9166666666666643  0.3581935490564424
  0.9166666666666643  0.8333333333333357  0.2676294112914158
  0.8333333333333357  0.9166666666666643  0.5478502005749755
  0.9166666666666643  0.8333333333333357  0.4521497994250245
  0.8333333333333357  0.9166666666666643  0.7323705887085842
  0.9166666666666643  0.8333333333333357  0.6418064509435576
 
  0.00000000E+00  0.00000000E+00  0.00000000E+00
  0.00000000E+00  0.00000000E+00  0.00000000E+00
  0.00000000E+00  0.00000000E+00  0.00000000E+00
  0.00000000E+00  0.00000000E+00  0.00000000E+00
  0.00000000E+00  0.00000000E+00  0.00000000E+00
  0.00000000E+00  0.00000000E+00  0.00000000E+00
  0.00000000E+00  0.00000000E+00  0.00000000E+00
  0.00000000E+00  0.00000000E+00  0.00000000E+00
  0.00000000E+00  0.00000000E+00  0.00000000E+00
  0.00000000E+00  0.00000000E+00  0.00000000E+00
  0.00000000E+00  0.00000000E+00  0.00000000E+00
  0.00000000E+00  0.00000000E+00  0.00000000E+00
  0.00000000E+00  0.00000000E+00  0.00000000E+00
  0.00000000E+00  0.00000000E+00  0.00000000E+00
  0.00000000E+00  0.00000000E+00  0.00000000E+00
  0.00000000E+00  0.00000000E+00  0.00000000E+00
  0.00000000E+00  0.00000000E+00  0.00000000E+00
  0.00000000E+00  0.00000000E+00  0.00000000E+00
  0.00000000E+00  0.00000000E+00  0.00000000E+00
  0.00000000E+00  0.00000000E+00  0.00000000E+00
  0.00000000E+00  0.00000000E+00  0.00000000E+00
  0.00000000E+00  0.00000000E+00  0.00000000E+00
  0.00000000E+00  0.00000000E+00  0.00000000E+00
  0.00000000E+00  0.00000000E+00  0.00000000E+00
  0.00000000E+00  0.00000000E+00  0.00000000E+00
  0.00000000E+00  0.00000000E+00  0.00000000E+00
  0.00000000E+00  0.00000000E+00  0.00000000E+00
  0.00000000E+00  0.00000000E+00  0.00000000E+00
  0.00000000E+00  0.00000000E+00  0.00000000E+00
  0.00000000E+00  0.00000000E+00  0.00000000E+00
  0.00000000E+00  0.00000000E+00  0.00000000E+00
  0.00000000E+00  0.00000000E+00  0.00000000E+00
  0.00000000E+00  0.00000000E+00  0.00000000E+00
  0.00000000E+00  0.00000000E+00  0.00000000E+00
  0.00000000E+00  0.00000000E+00  0.00000000E+00
  0.00000000E+00  0.00000000E+00  0.00000000E+00
  0.00000000E+00  0.00000000E+00  0.00000000E+00
  0.00000000E+00  0.00000000E+00  0.00000000E+00
  0.00000000E+00  0.00000000E+00  0.00000000E+00
  0.00000000E+00  0.00000000E+00  0.00000000E+00
  0.00000000E+00  0.00000000E+00  0.00000000E+00
  0.00000000E+00  0.00000000E+00  0.00000000E+00
  0.00000000E+00  0.00000000E+00  0.00000000E+00
  0.00000000E+00  0.00000000E+00  0.00000000E+00
  0.00000000E+00  0.00000000E+00  0.00000000E+00
  0.00000000E+00  0.00000000E+00  0.00000000E+00
  0.00000000E+00  0.00000000E+00  0.00000000E+00
  0.00000000E+00  0.00000000E+00  0.00000000E+00
  0.00000000E+00  0.00000000E+00  0.00000000E+00
  0.00000000E+00  0.00000000E+00  0.00000000E+00
  0.00000000E+00  0.00000000E+00  0.00000000E+00
  0.00000000E+00  0.00000000E+00  0.00000000E+00
  0.00000000E+00  0.00000000E+00  0.00000000E+00
  0.00000000E+00  0.00000000E+00  0.00000000E+00
  0.00000000E+00  0.00000000E+00  0.00000000E+00
  0.00000000E+00  0.00000000E+00  0.00000000E+00
  0.00000000E+00  0.00000000E+00  0.00000000E+00
  0.00000000E+00  0.00000000E+00  0.00000000E+00
  0.00000000E+00  0.00000000E+00  0.00000000E+00
  0.00000000E+00  0.00000000E+00  0.00000000E+00
  0.00000000E+00  0.00000000E+00  0.00000000E+00
  0.00000000E+00  0.00000000E+00  0.00000000E+00
  0.00000000E+00  0.00000000E+00  0.00000000E+00
  0.00000000E+00  0.00000000E+00  0.00000000E+00
  0.00000000E+00  0.00000000E+00  0.00000000E+00
  0.00000000E+00  0.00000000E+00  0.00000000E+00
  0.00000000E+00  0.00000000E+00  0.00000000E+00
  0.00000000E+00  0.00000000E+00  0.00000000E+00
  0.00000000E+00  0.00000000E+00  0.00000000E+00
  0.00000000E+00  0.00000000E+00  0.00000000E+00
  0.00000000E+00  0.00000000E+00  0.00000000E+00
  0.00000000E+00  0.00000000E+00  0.00000000E+00
  0.00000000E+00  0.00000000E+00  0.00000000E+00
  0.00000000E+00  0.00000000E+00  0.00000000E+00
  0.00000000E+00  0.00000000E+00  0.00000000E+00
  0.00000000E+00  0.00000000E+00  0.00000000E+00
  0.00000000E+00  0.00000000E+00  0.00000000E+00
  0.00000000E+00  0.00000000E+00  0.00000000E+00
  0.00000000E+00  0.00000000E+00  0.00000000E+00
  0.00000000E+00  0.00000000E+00  0.00000000E+00
  0.00000000E+00  0.00000000E+00  0.00000000E+00
  0.00000000E+00  0.00000000E+00  0.00000000E+00
  0.00000000E+00  0.00000000E+00  0.00000000E+00
  0.00000000E+00  0.00000000E+00  0.00000000E+00
  0.00000000E+00  0.00000000E+00  0.00000000E+00
  0.00000000E+00  0.00000000E+00  0.00000000E+00
  0.00000000E+00  0.00000000E+00  0.00000000E+00
  0.00000000E+00  0.00000000E+00  0.00000000E+00
  0.00000000E+00  0.00000000E+00  0.00000000E+00
  0.00000000E+00  0.00000000E+00  0.00000000E+00
  0.00000000E+00  0.00000000E+00  0.00000000E+00
  0.00000000E+00  0.00000000E+00  0.00000000E+00
  0.00000000E+00  0.00000000E+00  0.00000000E+00
  0.00000000E+00  0.00000000E+00  0.00000000E+00
  0.00000000E+00  0.00000000E+00  0.00000000E+00
  0.00000000E+00  0.00000000E+00  0.00000000E+00
