Mo  S Cu                                
   1.00000000000000     
    15.9215000000000000    0.0000000000000000    0.0000000000000000
    -7.9622500000000000   13.7910219999999999    0.0000000000000000
     0.0000000000000000    0.0000000000000000   13.5822000000000003
   Mo   S    Cu
    25    49     1
Direct
  0.1314409355367303  0.0677280459660352  0.6777897699543090
  0.1363956094720962  0.2701777356209050  0.6743142958416612
  0.1331868203183788  0.4653350966650933  0.6763879383211773
  0.1323332248472369  0.6660357437318822  0.6789113560304330
  0.1322607543137266  0.8666244525071605  0.6793558039164793
  0.3322198169505768  0.0658597982233076  0.6795624009038406
  0.3322318209571620  0.2661428742262402  0.6732103639372582
  0.3283495651384811  0.4622006089364987  0.6741748321921719
  0.3318937790745764  0.6648259425971972  0.6792537379182519
  0.3320309516678890  0.8656624183577222  0.6802600802941683
  0.5323561355372064  0.0661528956326052  0.6810591811740778
  0.5326112530618516  0.2662728323639101  0.6796000046173276
  0.5307351208049695  0.4670580614444830  0.6777466250603581
  0.5310859762504663  0.6654475508914359  0.6795789978580444
  0.5321039749980301  0.8659158194955552  0.6806599766077568
  0.7326094763627609  0.0664157899005602  0.6807701955541745
  0.7328439131107061  0.2664751845153930  0.6803945420427908
  0.7318586201561530  0.4662362684955070  0.6794056372590447
  0.7320907098496789  0.6665647114448277  0.6794277145396634
  0.7322381806073039  0.8662855904931064  0.6804996628719238
  0.9330842628405307  0.0674331850032104  0.6797322293766541
  0.9337068317611141  0.2666143991158165  0.6794364212033130
  0.9324643079583694  0.4661678137271963  0.6789920322271428
  0.9321014255923146  0.6663894108920090  0.6791213436175951
  0.9319345266442554  0.8663999111489034  0.6794605494704626
  0.0654167480161263  0.1342359474781105  0.5624941634592986
  0.0703946568616516  0.1393702923850384  0.7924046978855586
  0.0653726321734283  0.3314391269008752  0.5611883891064622
  0.0715940227540273  0.3344356614039654  0.7926270742568065
  0.0654127799588551  0.5330339889310238  0.5632231896544369
  0.0665975187740102  0.5319692946234227  0.7927503435357011
  0.0656323495909135  0.7332185387617898  0.5641843244532865
  0.0655435222554743  0.7328139429267964  0.7940043279719475
  0.0650463298236801  0.9331857609105398  0.5641255776264629
  0.0653802492233879  0.9339871737019294  0.7934458906607063
  0.2653030006281156  0.1316220657281235  0.5624358627176420
  0.2642113030746245  0.1346303369289217  0.7929188300839840
  0.2667024979450332  0.3317959766347016  0.5592465996573139
  0.2670129200867848  0.5331261316877018  0.5610548448985000
  0.2641578821237331  0.5270318969105574  0.7925248100621687
  0.2660451555948526  0.7327899653668268  0.5645327006241843
  0.2650551694927401  0.7312350868538076  0.7945783551855783
  0.2658685790743789  0.9325296429467045  0.5647046743405255
  0.2651233089182412  0.9325624523439942  0.7948490772215138
  0.4659187208023496  0.1326182204817528  0.5652995683536091
  0.4651056054537577  0.1333672261874526  0.7953349927164481
  0.4668335902289797  0.3331649721592314  0.5624600504720689
  0.4637693889098031  0.3342642061675747  0.7929258300984898
  0.4643107279797505  0.5330982593198001  0.5623651415917834
  0.4591311409838852  0.5281874282752241  0.7922883367746891
  0.4656089473787333  0.7329915232473283  0.5650677848690364
  0.4646388656441118  0.7316618049299990  0.7950578566354807
  0.4658638291034691  0.9329797814757939  0.5657079866825754
  0.4651832575632824  0.9322660607925144  0.7956866929592650
  0.6656053025388786  0.1326959316915008  0.5658012533591403
  0.6661966172080866  0.1332928562646316  0.7957786536966012
  0.6659936319807827  0.3326250763552068  0.5647960468919848
  0.6659015837370532  0.3333986706501122  0.7949267215821152
  0.6653247797321526  0.5334380295027046  0.5641215553862082
  0.6644660296677785  0.5331358688080456  0.7934291870673817
  0.6650244925109874  0.7331740745498365  0.5649177157118288
  0.6646143289749347  0.7320460980635062  0.7949865545021737
  0.6655856625490202  0.9330301480983536  0.5656966670889787
  0.6656874667040853  0.9327695716697093  0.7957234725362525
  0.8655690793480986  0.1329385862282280  0.5652371578158721
  0.8668510411719481  0.1338590401100532  0.7952289030186392
  0.8657302287158899  0.3324288594586662  0.5646872417466327
  0.8672951944201159  0.3334933655846370  0.7947264719541920
  0.8652654713602033  0.5328316640365571  0.5642356699834394
  0.8656869569200722  0.5329915206392215  0.7940519508283757
  0.8653186577979355  0.7331967133143991  0.5642143942988724
  0.8655140098377743  0.7329600763647477  0.7944174111994542
  0.8654002840377544  0.9335668045937027  0.5649874509625761
  0.8664464879498723  0.9338498562048372  0.7950560458179368
  0.3663225532052579  0.2320667376980694  0.9036594550918409
 
  0.00000000E+00  0.00000000E+00  0.00000000E+00
  0.00000000E+00  0.00000000E+00  0.00000000E+00
  0.00000000E+00  0.00000000E+00  0.00000000E+00
  0.00000000E+00  0.00000000E+00  0.00000000E+00
  0.00000000E+00  0.00000000E+00  0.00000000E+00
  0.00000000E+00  0.00000000E+00  0.00000000E+00
  0.00000000E+00  0.00000000E+00  0.00000000E+00
  0.00000000E+00  0.00000000E+00  0.00000000E+00
  0.00000000E+00  0.00000000E+00  0.00000000E+00
  0.00000000E+00  0.00000000E+00  0.00000000E+00
  0.00000000E+00  0.00000000E+00  0.00000000E+00
  0.00000000E+00  0.00000000E+00  0.00000000E+00
  0.00000000E+00  0.00000000E+00  0.00000000E+00
  0.00000000E+00  0.00000000E+00  0.00000000E+00
  0.00000000E+00  0.00000000E+00  0.00000000E+00
  0.00000000E+00  0.00000000E+00  0.00000000E+00
  0.00000000E+00  0.00000000E+00  0.00000000E+00
  0.00000000E+00  0.00000000E+00  0.00000000E+00
  0.00000000E+00  0.00000000E+00  0.00000000E+00
  0.00000000E+00  0.00000000E+00  0.00000000E+00
  0.00000000E+00  0.00000000E+00  0.00000000E+00
  0.00000000E+00  0.00000000E+00  0.00000000E+00
  0.00000000E+00  0.00000000E+00  0.00000000E+00
  0.00000000E+00  0.00000000E+00  0.00000000E+00
  0.00000000E+00  0.00000000E+00  0.00000000E+00
  0.00000000E+00  0.00000000E+00  0.00000000E+00
  0.00000000E+00  0.00000000E+00  0.00000000E+00
  0.00000000E+00  0.00000000E+00  0.00000000E+00
  0.00000000E+00  0.00000000E+00  0.00000000E+00
  0.00000000E+00  0.00000000E+00  0.00000000E+00
  0.00000000E+00  0.00000000E+00  0.00000000E+00
  0.00000000E+00  0.00000000E+00  0.00000000E+00
  0.00000000E+00  0.00000000E+00  0.00000000E+00
  0.00000000E+00  0.00000000E+00  0.00000000E+00
  0.00000000E+00  0.00000000E+00  0.00000000E+00
  0.00000000E+00  0.00000000E+00  0.00000000E+00
  0.00000000E+00  0.00000000E+00  0.00000000E+00
  0.00000000E+00  0.00000000E+00  0.00000000E+00
  0.00000000E+00  0.00000000E+00  0.00000000E+00
  0.00000000E+00  0.00000000E+00  0.00000000E+00
  0.00000000E+00  0.00000000E+00  0.00000000E+00
  0.00000000E+00  0.00000000E+00  0.00000000E+00
  0.00000000E+00  0.00000000E+00  0.00000000E+00
  0.00000000E+00  0.00000000E+00  0.00000000E+00
  0.00000000E+00  0.00000000E+00  0.00000000E+00
  0.00000000E+00  0.00000000E+00  0.00000000E+00
  0.00000000E+00  0.00000000E+00  0.00000000E+00
  0.00000000E+00  0.00000000E+00  0.00000000E+00
  0.00000000E+00  0.00000000E+00  0.00000000E+00
  0.00000000E+00  0.00000000E+00  0.00000000E+00
  0.00000000E+00  0.00000000E+00  0.00000000E+00
  0.00000000E+00  0.00000000E+00  0.00000000E+00
  0.00000000E+00  0.00000000E+00  0.00000000E+00
  0.00000000E+00  0.00000000E+00  0.00000000E+00
  0.00000000E+00  0.00000000E+00  0.00000000E+00
  0.00000000E+00  0.00000000E+00  0.00000000E+00
  0.00000000E+00  0.00000000E+00  0.00000000E+00
  0.00000000E+00  0.00000000E+00  0.00000000E+00
  0.00000000E+00  0.00000000E+00  0.00000000E+00
  0.00000000E+00  0.00000000E+00  0.00000000E+00
  0.00000000E+00  0.00000000E+00  0.00000000E+00
  0.00000000E+00  0.00000000E+00  0.00000000E+00
  0.00000000E+00  0.00000000E+00  0.00000000E+00
  0.00000000E+00  0.00000000E+00  0.00000000E+00
  0.00000000E+00  0.00000000E+00  0.00000000E+00
  0.00000000E+00  0.00000000E+00  0.00000000E+00
  0.00000000E+00  0.00000000E+00  0.00000000E+00
  0.00000000E+00  0.00000000E+00  0.00000000E+00
  0.00000000E+00  0.00000000E+00  0.00000000E+00
  0.00000000E+00  0.00000000E+00  0.00000000E+00
  0.00000000E+00  0.00000000E+00  0.00000000E+00
  0.00000000E+00  0.00000000E+00  0.00000000E+00
  0.00000000E+00  0.00000000E+00  0.00000000E+00
  0.00000000E+00  0.00000000E+00  0.00000000E+00
  0.00000000E+00  0.00000000E+00  0.00000000E+00
