Ta  N Co Cu                             
   1.00000000000000     
    18.1096308199999996    0.0000000000000000    0.0000000000000000
     0.0000000000000000   23.3551997799999995    0.0000000000000000
     0.0000000000000000    0.0000000000000000   30.4818171199999988
   Ta   N    Co   Cu
   228   240    12     2
Direct
  0.9998544574329955  0.9999812760007387  0.1977602921288906
  0.3339347180286296  0.0624078331354383  0.2027663062068754
  0.1657852463450382  0.0624217866586818  0.2030253888363802
  0.2497557469666631  0.1249899692151786  0.2784254277689868
  0.0823735868241897  0.0625165114999788  0.2843342306453565
  0.4168827945089788  0.0625078006934672  0.2842276196289149
  0.9996694074814201  0.1250258735387675  0.3699745197333968
  0.3313997426352344  0.0625946649087226  0.3688979591295052
  0.1676655206007069  0.0625291415256513  0.3686905078616505
  0.2505436129602359  0.1274952464092891  0.4577143859734605
  0.0847011412740173  0.0625795720063422  0.4551368694056350
  0.4166511886371609  0.0623631546027639  0.4536986573821764
  0.9996241943227346  0.1251202738490989  0.5413566469068982
  0.3324278337197768  0.0611513886187964  0.5432720974239942
  0.9997913179528695  0.1249329749544614  0.1976849645990129
  0.3337754794233803  0.1875877866131290  0.2027638469449116
  0.1659808239973799  0.1875520202190515  0.2029976078566733
  0.2498484171665751  0.2499285665106257  0.2782339979531798
  0.0821897035151409  0.1874691659114447  0.2842276622140147
  0.4169999922071739  0.1874935221326766  0.2841953564499278
  0.9996061370664435  0.2499867904049751  0.3698209679914726
  0.3313301674160272  0.1874363264810839  0.3687198003372743
  0.1677988249889140  0.1874775279394498  0.3682754311478647
  0.2502511196298087  0.2483872267593981  0.4571206799850032
  0.0832121431501776  0.1875937172450151  0.4536117592206068
  0.4173505629095260  0.1880599256377664  0.4531113004956850
  0.9996463633071215  0.2488230639339477  0.5416662681000943
  0.3424853617438899  0.1875742690071505  0.5416679751052413
  0.1712072724251001  0.1863795532756853  0.5430105022109046
  0.9995678239779267  0.2500254582819466  0.1976005986649625
  0.3339953453799822  0.3123988622369467  0.2026963202356171
  0.1658342800987356  0.3123927011767194  0.2028561752117568
  0.2498729720122768  0.3749398546636726  0.2780985602997035
  0.0822793655457161  0.3124749593925102  0.2840466314288932
  0.4168928062653237  0.3125198561852685  0.2841799548458184
  0.9997432848380754  0.3749002599113922  0.3697656070094553
  0.3314548266806483  0.3124848791452592  0.3687206276116797
  0.1676692687041381  0.3123389314920715  0.3682030870787898
  0.2504839719113434  0.3770654771662407  0.4562245552787587
  0.0848244441944672  0.3122076208227966  0.4544720702596194
  0.4157532251813976  0.3123522949551969  0.4541253932589839
  0.9998820415726257  0.3745946874525714  0.5408703533446584
  0.3327584464652560  0.3104046715214750  0.5445136183574064
  0.9995578540277563  0.3749369308909465  0.1975755403689021
  0.3339365772143736  0.4376090075962722  0.2027148074606089
  0.1659448140801985  0.4376048924103202  0.2028705270480060
  0.2497725012516341  0.0000007553326213  0.2784609410873458
  0.0821608482680958  0.4374957100719499  0.2840324595827042
  0.4170260361980382  0.4375165199139488  0.2842456904841200
  0.9997299475374106  0.0000991038840823  0.3700905404812289
  0.3315358452931960  0.4374902081765484  0.3687085035500601
  0.1676580957399096  0.4374902189759524  0.3679325960007560
  0.2500842534313179  0.9984135332247988  0.4575862003628046
  0.0839609004106663  0.4372864295801477  0.4535368585112636
  0.4151323618668457  0.4380723033108254  0.4540126246004235
  0.9999296345238520  0.9989718506114116  0.5418190844896174
  0.3460905089310700  0.4385354844887388  0.5436270375395225
  0.1665593627605872  0.4343003094307889  0.5432387869776605
  0.9995555091039989  0.5000692938281190  0.1975675530401872
  0.3339672058980554  0.5624864802817342  0.2027147348761602
  0.1659177102995244  0.5625381398431273  0.2028801694289086
  0.2498396663043749  0.6251004329068337  0.2782569931661101
  0.0823510911584364  0.5625900848884626  0.2840141008904737
  0.4168356770704449  0.5625317902184150  0.2842115274477379
  0.9997397472593121  0.6250654605581047  0.3698377710504843
  0.3314262413763700  0.5626321361903734  0.3687840681461125
  0.1676731525957109  0.5625677671122986  0.3681497959383577
  0.2506803226094476  0.6269650825614406  0.4570940195083892
  0.0845951178256925  0.5623054945583377  0.4537294275228305
  0.4156531406135855  0.5622824737441618  0.4541508888202941
  0.0049606984034369  0.6255075610427170  0.5421501952045702
  0.3395358752032109  0.5633750119674801  0.5455655950070621
  0.9996303941490723  0.6251160151508728  0.1976381847985635
  0.3339609434520128  0.6875980381092219  0.2027464704869502
  0.1658584330404196  0.6876361661620862  0.2029744985042967
  0.2498103993814595  0.7500462552210010  0.2783948521641406
  0.0822696028358223  0.6875899600408317  0.2842868889858963
  0.4170056598742491  0.6875175793521038  0.2842753552747439
  0.0000231945184623  0.7500682520592434  0.3700691798471283
  0.3314135461179077  0.6875631629490471  0.3688122336141291
  0.1677855142097826  0.6877110111213796  0.3683748015868318
  0.2503942106599624  0.7480642629929690  0.4576629208196863
  0.0836148449852558  0.6875447296656887  0.4541065397471584
  0.4169384900673094  0.6879312125823489  0.4533333102933668
  0.0010367810104910  0.7491154295599287  0.5417109115145635
  0.3449759331441342  0.6892481707472129  0.5424396424853484
  0.1724517175342584  0.6889802514318148  0.5433249693160818
  0.9997890325298187  0.7500222996657300  0.1977621869907935
  0.3338614657603074  0.8124906965708831  0.2028383835856360
  0.1658495117030370  0.8125094116842320  0.2030723665588283
  0.2497406271624314  0.8750462684695890  0.2785317625083579
  0.0824188470822449  0.8125713959625216  0.2843795897174033
  0.4168616276931445  0.8125308063575218  0.2842494484527549
  0.9998821481701228  0.8750116436321775  0.3701021828152093
  0.3313977882818051  0.8126355247157804  0.3689130525695248
  0.1677514306372956  0.8126105936818036  0.3687706981894152
  0.2507649641028209  0.8777009386993768  0.4580394828638461
  0.0849512583944190  0.8126244406858731  0.4553346100649662
  0.4167730505809146  0.8123111574688693  0.4536251851862261
  0.9995260653254903  0.8752851183212726  0.5415830869303235
  0.3333356032821868  0.8119771213159837  0.5430790050378178
  0.9998864098140530  0.8750189705667353  0.1978150527208840
  0.3337993471999070  0.9375705867369390  0.2028269359746560
  0.1658861723693263  0.9375785622389330  0.2031150520369636
  0.2499266394327577  0.5000473312541445  0.2780430821341113
  0.0823332200925080  0.9375430189634031  0.2845047930423377
  0.4169982917029245  0.9375124351534367  0.2842718537265583
  0.9996026402435803  0.4999589744882655  0.3697133976210267
  0.3312924920103910  0.9374811906391329  0.3689003167840994
  0.1678063060426354  0.9376022686796261  0.3686419567982782
  0.2498601196915899  0.4985325152030597  0.4562838629472381
  0.0832541140425818  0.9377703076686146  0.4538891133360892
  0.4178202290225244  0.9380502568804445  0.4530578763227666
  0.0010066002893723  0.4986202581347854  0.5411779000050174
  0.3431716237102975  0.9381403835504756  0.5413252162461504
  0.1716813734893137  0.9367590891142541  0.5430239801542385
  0.4999384527662869  0.0000110957859363  0.1976360780135948
  0.8339242560537770  0.0624424715709893  0.2030254684867643
  0.6658317787858437  0.0624549185830503  0.2028060621441696
  0.7498220780820404  0.1250066928123204  0.2784824525786291
  0.5828051970317247  0.0625090199289957  0.2842654971788647
  0.9171980423549613  0.0625162904439094  0.2843719456877238
  0.4996885351085893  0.1251288617933000  0.3692835412930222
  0.8318390876910442  0.0625514718699804  0.3687742768844799
  0.6681496133830152  0.0625743642658847  0.3689457636129063
  0.7488581108909997  0.1274492194095842  0.4579864860146614
  0.5826139763273446  0.0622330875004238  0.4536339241196643
  0.9147886052027658  0.0626243765093619  0.4551895706923617
  0.4997728750505033  0.1124736331911720  0.5437004259026068
  0.6667292691029445  0.0608006019994463  0.5429926923355595
  0.4999226130488523  0.1249342004970444  0.1976181112034325
  0.8336796810420353  0.1875229032074586  0.2030563460823771
  0.6659224504809558  0.1875589267448561  0.2028584558534803
  0.7496551244339571  0.2499965740541299  0.2784456810118883
  0.5826652863263178  0.1875088914376590  0.2843142583602472
  0.9171962617765459  0.1874994276552755  0.2843766607878422
  0.4994995742993780  0.2499640431571351  0.3692922376499652
  0.8316976585490750  0.1875929150552835  0.3685422000160159
  0.6681156645037873  0.1874659987693974  0.3689351488774122
  0.7493265389142820  0.2482228734601293  0.4574792618522707
  0.5816256766248600  0.1879663273529744  0.4530483050158480
  0.9163163406634283  0.1878330868846305  0.4537192053715700
  0.8273394310582276  0.1866947541735229  0.5429711324022009
  0.6564169606027050  0.1873663896182975  0.5412792727639086
  0.4999802994200806  0.2500249315074896  0.1975797735960825
  0.8337885694444012  0.3124393228797970  0.2029867243734813
  0.6656868845138959  0.3124980646672455  0.2028589655439319
  0.7496305470288931  0.3750006283086407  0.2785070906096294
  0.5827249801320704  0.3125287608946365  0.2843663173022577
  0.9170236277239496  0.3124940413625481  0.2842426678564962
  0.4991204006516199  0.3751642790501677  0.3695368792023785
  0.8316833913485269  0.3125540087949048  0.3686454480650099
  0.6679690699378895  0.3126261422939436  0.3689816859839894
  0.7488154438785202  0.3774104967309739  0.4581849240555229
  0.5821159278393040  0.3122033825445527  0.4536102470592311
  0.9149280692473880  0.3125553871598257  0.4549839384189838
  0.5018785941429726  0.3631242383690392  0.5434570367328959
  0.6674810143799164  0.3107848294475488  0.5429218056916199
  0.4999670012117789  0.3749632421162872  0.1976206577310720
  0.8336291007983974  0.4375819357199049  0.2030395041564503
  0.6658312233119972  0.4375888543714623  0.2029180743529295
  0.7498927653187550  0.9999714345153521  0.2785037583235663
  0.5825526367525455  0.4375165657493696  0.2844585155350075
  0.9171316600679305  0.4375200446315191  0.2843281983832711
  0.4997461337741527  0.9999369256640378  0.3692155518550990
  0.8317339119395868  0.4375692125805415  0.3685521558667091
  0.6679042645500317  0.4374455118351150  0.3691050241377027
  0.7495177663864681  0.9981711609699246  0.4577148664960049
  0.5807952377364884  0.4379569478655654  0.4532767020764368
  0.9167303614939470  0.4376527599598461  0.4534287641242756
  0.8291057866259663  0.4370517286787532  0.5426510700197440
  0.6574601221150758  0.4373245229327054  0.5410675563270573
  0.4999629690628495  0.5000388414248960  0.1976130212959433
  0.8337674113869156  0.5624719783927432  0.2030323314172477
  0.6657670128844870  0.5624317635150007  0.2029519385445653
  0.7498084578864521  0.6249979013767017  0.2785702637816954
  0.5827388648726881  0.5625169732384379  0.2844000717040842
  0.9170518752148027  0.5625559355870209  0.2842692897511654
  0.4994027505215257  0.6250574055105176  0.3694674485401208
  0.8318213421821241  0.5625467653896195  0.3687388615585832
  0.6680951524186440  0.5625478937597208  0.3689841441721384
  0.7492117442754989  0.6272424877386200  0.4583094898115974
  0.5822042565641183  0.5620497611582493  0.4536024344535150
  0.9154645926600793  0.5625635765101720  0.4552020969338955
  0.5036042912871679  0.6137889023751626  0.5431058196853584
  0.6679821575666125  0.5605752933836001  0.5429165207849991
  0.4999810516317851  0.6250635500172805  0.1976697305778856
  0.8338949825212936  0.6876573724839048  0.2030857687085046
  0.6657875066283196  0.6875661769635144  0.2028942001462539
  0.7498434016873574  0.7499471245596681  0.2785035730174243
  0.5826778945299225  0.6874916640582214  0.2844060820798973
  0.9172811281643973  0.6875577990534225  0.2844858608152308
  0.4997429834066764  0.7498617185244498  0.3692818963350106
  0.8319241442622314  0.6875325184974841  0.3686974723813421
  0.6682470234506255  0.6873675612610626  0.3690099942024148
  0.7497353904733615  0.7481629116605717  0.4577369906841895
  0.5815379203176292  0.6877643442446058  0.4531308581553120
  0.9170206414004909  0.6876388298330980  0.4537092411250470
  0.8298097413482068  0.6867537727478776  0.5425690586850251
  0.6579862371344944  0.6873528323299922  0.5410059524294439
  0.4999569326320525  0.7500116263238041  0.1976461104571285
  0.8338971973648484  0.8124827360325995  0.2031243549384243
  0.6659454616922105  0.8124047421609149  0.2029015978794533
  0.7499597934357496  0.8750303073143471  0.2785646829201767
  0.5828464605117318  0.8124794919060037  0.2843149268218639
  0.9172058960051785  0.8125372082027553  0.2844366759985633
  0.4997978540158030  0.8750833486126339  0.3692876763661346
  0.8319660644086468  0.8125051599955384  0.3688057016606336
  0.6682503036780076  0.8124909241307847  0.3689494429612736
  0.7490225000681221  0.8773438626285568  0.4579351864990997
  0.5827183607745638  0.8121013407454925  0.4536134266946092
  0.9150998509111545  0.8125883210931661  0.4551767545212897
  0.5000817141421692  0.8620832706293982  0.5436312938542329
  0.6670426461344050  0.8108282417217652  0.5429260650965020
  0.4999570956034418  0.8750312197031960  0.1976966354228651
  0.8338955857194676  0.9375619967299968  0.2031244011199576
  0.6659622179554106  0.9375549130289187  0.2028701060589455
  0.7496434290293266  0.5000367268044386  0.2784759244952255
  0.5827476919156993  0.9374919583704155  0.2843114528618713
  0.9173381827125340  0.9375270915102689  0.2845165254646176
  0.4990745610495608  0.4998790732009866  0.3695583663451956
  0.8317985957520264  0.9375979989230885  0.3686848678222674
  0.6682983276969594  0.9374289014213346  0.3689314942379198
  0.7496699928585286  0.4982683386853566  0.4576373979539241
  0.5819563673453771  0.9378482675747009  0.4530403688739781
  0.9164117526300757  0.9377972001756092  0.4538918244153578
  0.8275235297895023  0.9363191616384015  0.5431016423573070
  0.6564304110850401  0.9372920842826318  0.5413608702830714
  0.4054205368507837  0.9999692658320143  0.2324397655474399
  0.2498238087001354  0.0000141470702317  0.1994530520090905
  0.0941329094724992  0.9999713035872801  0.2326547772974621
  0.1547360529092145  0.1249724975096811  0.3159877662583668
  0.9997589129933999  0.1249618137215833  0.3033517803839487
  0.3448408716105007  0.1250325516474931  0.3161730757462919
  0.4007113494405345  0.1249562435391951  0.4020269318432383
  0.2494386651797740  0.1249892978199156  0.3890213484891447
  0.0991364874065610  0.1249876277310733  0.4020894532679407
  0.1501891820496013  0.1267731783634432  0.4873402400630624
  0.9997833518591435  0.1249926447602050  0.4730290314506718
  0.3516807729827462  0.1254913649175293  0.4878227006768157
  0.4062110948677997  0.1274496792801116  0.5716635335694420
  0.2565735144103556  0.1307756896507257  0.5558881276211167
  0.0972673743572514  0.1271939938040063  0.5694783222602737
  0.4053294288385132  0.1250229263723455  0.2324157527093149
  0.2498618920833025  0.1249415073030065  0.1995842834620944
  0.0941369082941605  0.1249885845826455  0.2325464458249726
  0.1546162930850343  0.2499068828494018  0.3157393370858372
  0.9997055431986723  0.2500622316984291  0.3032520293580205
  0.3449135362179589  0.2499338777907809  0.3160369316968570
  0.4004938168141052  0.2502846562601988  0.4019381740867303
  0.2494164867990989  0.2499708452871658  0.3885475441712956
  0.0991597889370155  0.2499437217458080  0.4018971277695016
  0.1502879439103282  0.2485902423579560  0.4875617640323924
  0.9998860834949710  0.2501365800467141  0.4730770659372254
  0.3503905040919193  0.2505411393018946  0.4874895319805290
  0.4101631997036748  0.2559584572745734  0.5653267139795091
  0.2575627353228356  0.2486052504577003  0.5557796726042028
  0.0972078174409390  0.2480816154143000  0.5693315588819132
  0.4054783968168110  0.2499771824643418  0.2323590624322236
  0.2498597137420262  0.2500263912035834  0.1990586716701728
  0.0939814517500466  0.2499309564862955  0.2323679781887336
  0.1547795160437602  0.3749521146981252  0.3156395017172002
  0.9997302512928741  0.3749481068075582  0.3031825437103919
  0.3448540753234255  0.3750481337934275  0.3161127181938070
  0.4000765433619264  0.3750085440053965  0.4024724947355480
  0.2494122474646261  0.3748750316520386  0.3881502541752511
  0.0992759931532774  0.3748510429874301  0.4017437948007228
  0.1518012746084594  0.3754471309459291  0.4870284951805175
  0.0002494404038629  0.3747420523487861  0.4726984476229887
  0.3488147262897030  0.3750823786601813  0.4891682167959885
  0.4088684207476874  0.3779796824845505  0.5720286359222655
  0.2587062217200256  0.3840611557868598  0.5640664043606733
  0.0978799077688066  0.3754540325245515  0.5691622398857703
  0.4054028711685618  0.3750661464197975  0.2324101755782948
  0.2498921330563491  0.3749813615775892  0.1995477608928482
  0.0940447639191362  0.3750267316585933  0.2323171843858773
  0.1547116461715419  0.0000348866690629  0.3160796756012303
  0.9998037388044594  0.0000864322887963  0.3034778886063307
  0.3448502468563888  0.9999720303702304  0.3161559783626018
  0.4007593807449723  0.0002229480772016  0.4017759672495558
  0.2494360459208735  0.0002020797848488  0.3889249952185097
  0.0991751065466886  0.0001920786857710  0.4022747977234502
  0.1500271871633103  0.9989947634938048  0.4880506753631764
  0.9998129242271148  0.0002351438001682  0.4733062701371367
  0.3508677751026141  0.0007147511613255  0.4871589507418719
  0.4104199647213918  0.0052701135910169  0.5652653831137258
  0.2579967947457078  0.9979220410010186  0.5552500009074492
  0.0972299354230799  0.9975877336698602  0.5699326618796050
  0.4055069182599738  0.4999717004860571  0.2324062743672215
  0.2499008775129283  0.5000517801456112  0.1990571556608458
  0.0939832624386057  0.5000135379025394  0.2322510223889580
  0.1547860080612082  0.6251535010507112  0.3158124536662683
  0.9998041451810167  0.6249824213666386  0.3032472159869641
  0.3448218133858703  0.6251264418589813  0.3161798618816363
  0.4003246474699012  0.6248820042346779  0.4023116062490004
  0.2494190820075985  0.6251398657196106  0.3886948167825466
  0.0992264470108708  0.6252412318840044  0.4017698652796611
  0.1512921659894246  0.6259407637563754  0.4873403151995177
  0.0007563609262888  0.6249135195673432  0.4735049231425137
  0.3509174113154216  0.6250516976998739  0.4890332884332906
  0.4099221225689362  0.6264240327656836  0.5718525158822771
  0.2604961476748571  0.6342255460352035  0.5616954626035309
  0.1038667103796342  0.6214484687506356  0.5705640826061540
  0.4053738803297122  0.6250829277000847  0.2324480257921948
  0.2499236481715812  0.6250783293566826  0.1994857181710472
  0.0940838461120137  0.6251634993245858  0.2324126113184022
  0.1547460224578003  0.7501181214940331  0.3160287282441629
  0.9998389166635420  0.7501007729310416  0.3034533173206810
  0.3448682502659253  0.7500393816789170  0.3161531652352565
  0.4006946450058493  0.7501266883535465  0.4018128301450616
  0.2494484035855820  0.7502194552038119  0.3889915846488776
  0.0994278391403753  0.7500955927509096  0.4023553252317598
  0.1504303732275929  0.7488308802632631  0.4881044477438152
  0.0001564181461049  0.7500833272513887  0.4733033510860807
  0.3509813767352767  0.7506762251538177  0.4872803837505444
  0.4113992871850130  0.7550559194509603  0.5654946707786550
  0.2586609598371226  0.7489648620810527  0.5551125643536281
  0.0983549015113780  0.7460512025307509  0.5705161767405968
  0.4054427114612196  0.7499689226438591  0.2324504015974611
  0.2498706530520920  0.7500368082717941  0.1994753501945681
  0.0941254765031161  0.7500453591887108  0.2325957429429764
  0.1547909488801267  0.8750561672015991  0.3161839084311069
  0.9998189989623256  0.8750111770181732  0.3034969015999280
  0.3448224918843295  0.8750850901419795  0.3162583154259480
  0.4008267906889245  0.8749383577090981  0.4019729785321360
  0.2495014211958875  0.8749799502228228  0.3892302509802406
  0.0992484890459835  0.8750341062757059  0.4023119973267200
  0.1501589228814026  0.8768002348681847  0.4875066067095233
  0.9998621321179328  0.8749953439656082  0.4732451583858293
  0.3523328506254444  0.8754865789110937  0.4876833155987441
  0.4063834551082266  0.8769390394132301  0.5715309502059611
  0.2568855113859101  0.8802949835072766  0.5546853937701997
  0.0975210720547750  0.8769642858189570  0.5695188214281970
  0.4053297706720258  0.8750623010064942  0.2324780214769433
  0.2498281198442385  0.8750290270036132  0.1995182141038114
  0.0942281435293850  0.8750914661817291  0.2327323455030026
  0.1547196106402069  0.5000344989076950  0.3155531310398629
  0.9997609776026195  0.5000811191616918  0.3031639099800714
  0.3448810209980095  0.5000075427199420  0.3160718673771754
  0.3999370648160863  0.5000911086239341  0.4023368622698626
  0.2493677900189653  0.5000904357708862  0.3881324926847682
  0.0991849396592102  0.4996911243153406  0.4015557259753848
  0.1512012898017048  0.4981921705769778  0.4870502956007599
  0.0003066002406555  0.4998251956134894  0.4727848237826038
  0.3479359532896709  0.5015790019241777  0.4892562419999535
  0.4144396167449074  0.5054540964525884  0.5667668711346892
  0.2618517015784008  0.4992015555832836  0.5687175852430002
  0.0989447894979207  0.4974991546353280  0.5692716697971392
  0.9055648347462864  0.9999617875307436  0.2326883627114853
  0.7499464777892086  0.0000157784598329  0.1995650012809591
  0.5943724507749693  0.9999631624362735  0.2324815639733799
  0.6548108219187654  0.1250573771791679  0.3162669909774181
  0.4998166909789461  0.1250141253322070  0.3028497118333888
  0.8447593112026581  0.1250260265895236  0.3161051915595721
  0.9003701319357091  0.1250290423205271  0.4021781874461539
  0.7500644259416731  0.1249324927959350  0.3892030659313335
  0.5985870150029058  0.1248523850751440  0.4019856666791455
  0.6471504595973769  0.1252040529182992  0.4875750451172891
  0.4995462417468488  0.1246790221137815  0.4747588901264805
  0.8495732523467581  0.1268873041590055  0.4872905025250844
  0.9018931478022125  0.1272246793820742  0.5695192947211183
  0.7430350632989402  0.1294502803122271  0.5544500825453795
  0.5935868797055974  0.1261445198612066  0.5715584686261650
  0.9054437253119403  0.1250290251725659  0.2326425870654987
  0.7498783520732744  0.1249464172172807  0.1995261210526849
  0.5944082560560275  0.1250401013015789  0.2324988424082335
  0.6546904494079939  0.2499947379301730  0.3162333706303144
  0.4997566910983267  0.2500463176546504  0.3028568730917200
  0.8447415285897151  0.2500325095984905  0.3160278202632938
  0.9002248112765443  0.2501948942274836  0.4021544012288274
  0.7500063419715843  0.2501958351740896  0.3889192074396135
  0.5985056039795964  0.2502078108943309  0.4017249368613278
  0.6485945124361834  0.2505284559722298  0.4869650777123056
  0.4992424027638123  0.2503962209849391  0.4737321500329656
  0.8493865789959330  0.2488676656476585  0.4879249668945604
  0.9020620380838693  0.2474574956087707  0.5696945465886571
  0.7411576552335291  0.2469921864952340  0.5555832088314716
  0.5889190033272982  0.2543998119526520  0.5649838757256660
  0.9054259191071097  0.2499531133588064  0.2325771207730725
  0.7497789098065795  0.2500573941600877  0.1994203929757745
  0.5942893289970144  0.2499794372135256  0.2325377895340281
  0.6546991613677591  0.3751015729186307  0.3163869093290188
  0.4996925199120525  0.3750260946096518  0.3030507117934462
  0.8446353315651365  0.3750424625609554  0.3160514658664653
  0.9004608657076218  0.3748652654634057  0.4019689902640451
  0.7499667413622504  0.3749863032807426  0.3893129810297324
  0.5981469861578788  0.3748943678862844  0.4020752610315625
  0.6466469655454716  0.3751618129481642  0.4874637715699777
  0.4986545359923298  0.3746632223750979  0.4747133009537237
  0.8500012538312447  0.3768545775460339  0.4870337360457029
  0.9028542016643399  0.3773929489649959  0.5692867507306687
  0.7442551052122397  0.3791225216327589  0.5532389062433793
  0.5953113505601308  0.3758417259393454  0.5718761492955196
  0.9053055883740342  0.3750441904323978  0.2325852661813599
  0.7497682651732802  0.3750002296965391  0.1997162419821024
  0.5943091428796308  0.3750942671391257  0.2326445074646770
  0.6548413896205076  0.9999675826908856  0.3162026704200329
  0.4998605725355887  0.0000133927677552  0.3028202703177953
  0.8449107634403035  0.0000440971737419  0.3161342875644308
  0.9003208655129100  0.0001922213805940  0.4023223166986725
  0.7501427895758610  0.0001767373210910  0.3890602386461808
  0.5987260903456360  0.0001333881629506  0.4017210933200062
  0.6485806071264832  0.0003631368714494  0.4870285053290218
  0.4997472210116882  0.0003201669888426  0.4737606023605565
  0.8496591648667433  0.9989554343987095  0.4881501972300768
  0.9023111691583736  0.9970199114655074  0.5699965191664376
  0.7412874073507751  0.9972768033439507  0.5551193632935494
  0.5888399068384231  0.0043256944965435  0.5650843922246693
  0.9053882943709510  0.4999969518749268  0.2325767634727924
  0.7498118525435018  0.5000516989459527  0.1993394421629304
  0.5942061981311468  0.4999575079652772  0.2326323513156865
  0.6547866318391868  0.6250284103785617  0.3163585737179488
  0.4997285464793819  0.6249730198973111  0.3030124849787299
  0.8447929166947503  0.6250409260433401  0.3161741643932814
  0.9005788361629783  0.6249233186276015  0.4022430368648315
  0.7501459840264175  0.6248722214839333  0.3893810267627629
  0.5985273230973363  0.6247450533224637  0.4019742295627680
  0.6471439580093801  0.6249461674977468  0.4874936055507320
  0.4994165839889959  0.6245240688284071  0.4742282084374878
  0.8504429920586887  0.6267918088180977  0.4873557658463454
  0.9062374623185292  0.6276845933736581  0.5688690392177591
  0.7451276647532126  0.6292238570768589  0.5532067653199420
  0.5965779414894854  0.6257369055389361  0.5721659577660390
  0.9053378259505962  0.6251239780514268  0.2326850216535590
  0.7498563960944438  0.6250458410405599  0.1999187874242807
  0.5943923837439229  0.6250667704828317  0.2326314916545513
  0.6548479350445149  0.7499155731616511  0.3162661020968756
  0.4998130099563411  0.7500190806796994  0.3028661042057976
  0.8448759390405769  0.7500221621385208  0.3161499725959871
  0.9006083348359866  0.7501614498139944  0.4022530542509983
  0.7502496640670699  0.7500276822925258  0.3890710410543008
  0.5987279871426239  0.7500330413066791  0.4017602701476974
  0.6487562379351388  0.7503047094039985  0.4869494613916387
  0.4995814451071254  0.7502417938058628  0.4736693864477175
  0.8501297389403462  0.7486972963038383  0.4878847111940559
  0.9035387027469710  0.7473667583899299  0.5696349370211777
  0.7427060154891336  0.7473344317950890  0.5542700174866937
  0.5901445135252317  0.7539277917435783  0.5653137493316081
  0.9055653324016504  0.7500196288350480  0.2327172198836749
  0.7498991559015380  0.7499774029194697  0.1994616182200062
  0.5943186360690333  0.7499359844869673  0.2325548590709161
  0.6548681547420756  0.8750154393315270  0.3162899790664540
  0.4998622377154120  0.8750170193937734  0.3028591479945533
  0.8448596588977324  0.8750249637871690  0.3162126324231878
  0.9005176917785818  0.8750137821187494  0.4022566096547493
  0.7501933382397752  0.8748710184414747  0.3891834131069132
  0.5987689713653026  0.8747612470749004  0.4019782230817839
  0.6475182260356647  0.8750356275024203  0.4876411252946937
  0.4998439963167982  0.8745256844266933  0.4747030961987520
  0.8496175799369823  0.8766873112420797  0.4874215160361359
  0.9018067343970415  0.8767992399973892  0.5695541458574880
  0.7429287894459691  0.8796426535057051  0.5549719157144821
  0.5936956279078771  0.8759502670147938  0.5715616982548326
  0.9055407181647439  0.8750579422400691  0.2327477831795548
  0.7499362080724623  0.8750015770411750  0.1996340935499532
  0.5944944478033989  0.8750311453257709  0.2325212953426430
  0.6546998047057002  0.4999382481223620  0.3163191013936597
  0.4996671931616063  0.5000446720810743  0.3030462265805838
  0.8447422691810829  0.5000498128648445  0.3160443205890004
  0.9003347048806205  0.5002666006740597  0.4021276560233105
  0.7500410720938788  0.5001159112219042  0.3890208332164704
  0.5982656952830681  0.5001059842453159  0.4018325657097961
  0.6487471332399224  0.5003939097840941  0.4869577528125362
  0.4987152861765409  0.5003911338538103  0.4738385062014316
  0.8500420308637118  0.4987054723509416  0.4877498898921004
  0.9039028312336086  0.4972575192793443  0.5695697559813127
  0.7422547686452745  0.4968944834000339  0.5550674411784158
  0.5903874259831454  0.5041272762463223  0.5654021932589188
  0.1269748608171497  0.0617568470373087  0.5364753117054448
  0.1304472703887001  0.3103327153404507  0.5345419965572233
  0.1302346778817594  0.5601580891388522  0.5310068457919712
  0.1267443320582942  0.8118320797028460  0.5366778663615506
  0.8733776315204693  0.0615256545841660  0.5370054299182172
  0.5002225873098993  0.2617417450719088  0.5366589995775968
  0.8735910193523182  0.3117870292401292  0.5365321497893873
  0.4997053710525208  0.0113634481581073  0.5366958719829853
  0.8770430484128937  0.5626406226535892  0.5368144036582407
  0.5011746479962298  0.7605824781597335  0.5366720398827809
  0.8730257854234509  0.8115839875802635  0.5363781330255222
  0.5021626206059366  0.5116478298098102  0.5366398458305497
  0.2116625341915039  0.5700666036639106  0.5912487362160022
  0.2566736711249504  0.4379805523140021  0.6144316061473276
 
  0.00000000E+00  0.00000000E+00  0.00000000E+00
  0.00000000E+00  0.00000000E+00  0.00000000E+00
  0.00000000E+00  0.00000000E+00  0.00000000E+00
  0.00000000E+00  0.00000000E+00  0.00000000E+00
  0.00000000E+00  0.00000000E+00  0.00000000E+00