Ta  N Cu                                
   1.00000000000000     
    18.1096308199999996    0.0000000000000000    0.0000000000000000
     0.0000000000000000   23.3551997799999995    0.0000000000000000
     0.0000000000000000    0.0000000000000000   30.4818170799999990
   Ta   N    Cu
   240   240     4
Direct
  0.0000147298450375  0.0000915252833943  0.1973006461431410
  0.3342175045686873  0.0625895992258939  0.2025317017967874
  0.1658675443851394  0.0625982199397857  0.2025184118567342
  0.2500520484091588  0.1251233665103430  0.2778408789740313
  0.0828259011117842  0.0626249686798794  0.2838603109771317
  0.4172603050772282  0.0626289869377604  0.2838754374067641
  0.0000276168893291  0.1251666809171723  0.3695356905850624
  0.3321856604905672  0.0626806354909947  0.3682714101413690
  0.1679019970740306  0.0626773852592779  0.3682630399093986
  0.2500516357604511  0.1252112191315327  0.4556154169226997
  0.0838939108233817  0.0627087916965603  0.4541921863813693
  0.4161451609884434  0.0626781302279593  0.4542255814264394
  0.9999442762193249  0.1252875617026937  0.5405187012456762
  0.3351797370393733  0.0625999493255200  0.5425045785789606
  0.1649044415237539  0.0626428698803955  0.5424449900494037
  0.0000066388266556  0.1250832219326527  0.1973073127600031
  0.3342199467980144  0.1875789394050882  0.2025421102817316
  0.1658714412663764  0.1875993253974849  0.2025293774556584
  0.2500659566566081  0.2501136000548395  0.2778434926461066
  0.0828247569935906  0.1876163252028747  0.2838656401957547
  0.4172546238008325  0.1876344584662118  0.2838979419690715
  0.0000382631733749  0.2501444535198245  0.3695351647584258
  0.3321694600284691  0.1876722187120568  0.3682786733475594
  0.1679001755313102  0.1876718815424226  0.3682485975315251
  0.2499675791458063  0.2502242343363594  0.4555571720445076
  0.0838446302964696  0.1876865300188476  0.4541766465843776
  0.4161583466676814  0.1876202898594995  0.4542135819372643
  0.9999322851667662  0.2502374942700286  0.5405166043403559
  0.3353991770943824  0.1873554861639428  0.5424611915071901
  0.1647746519104793  0.1875046574305143  0.5423463940035784
  0.0000340483165875  0.2500508628409452  0.1973025855199900
  0.3342368568479044  0.3125736610354142  0.2025587006546571
  0.1658904156146621  0.3126087482008639  0.2025601080129850
  0.2501019587208372  0.3751099344227998  0.2778329592658295
  0.0828482312627605  0.3126212196653522  0.2838552980255488
  0.4172571771575517  0.3126365398493763  0.2839200126542813
  0.0000737053761309  0.3751871083417034  0.3695491847147224
  0.3321679437687277  0.3126891307722259  0.3683685141328994
  0.1679234017294131  0.3126856779226165  0.3682623168509208
  0.2504364667499686  0.3751940583407403  0.4557671424211306
  0.0839217106335856  0.3126869485794148  0.4541683726730997
  0.4161817589002225  0.3126191327078661  0.4541999771955498
 -0.0000219998304562  0.3752665002753116  0.5404348019989927
  0.3335457262244669  0.3114314387242029  0.5420134570794963
  0.1640987625409473  0.3126574029948435  0.5422905430969296
  0.0000440791692425  0.3750757948218665  0.1973042659017898
  0.3342661176345097  0.4375544521422559  0.2025471443901115
  0.1658666373457778  0.4375999664933115  0.2025377351576138
  0.2500288089592637  0.0001334971422221  0.2778339838638155
  0.0828706175063449  0.4376282084266228  0.2838254968934830
  0.4172309787351885  0.4376300055635504  0.2839514629318684
  0.0000181619498531  0.0001697890891227  0.3695435774026295
  0.3322728260085265  0.4376953547091520  0.3684280605192726
  0.1679298743036056  0.4376778783671416  0.3682366069269669
  0.2500372313426416  0.0002183215925070  0.4556356481415242
  0.0838635399880342  0.4377230292777670  0.4542010497327706
  0.4161814179604888  0.4377444860730862  0.4544472278329731
  0.9999515858991189  0.0002829229058975  0.5405545374211347
  0.3318100657692582  0.4378057444227170  0.5419187980275251
  0.1636373344450095  0.4377799900253560  0.5422399062545425
  0.0000391425649205  0.5001037035247413  0.1972952565881929
  0.3342344863685447  0.5625704070709947  0.2025307055626566
  0.1658910020858357  0.5626031178019191  0.2025405900829123
  0.2500587180535040  0.6251313351393375  0.2778055327779433
  0.0828538923967340  0.5626320336355042  0.2838356221317499
  0.4172592141194383  0.5626315502341817  0.2838774706460907
  0.0000521735472403  0.6251771525132920  0.3695124460786189
  0.3321578670321729  0.5627065634222289  0.3683242040105615
  0.1679235764708107  0.5626768638287630  0.3682456399770241
  0.2499376592220854  0.6252352991025243  0.4554975355126916
  0.0839131829495502  0.5627655288145775  0.4541498791201588
  0.4161691940367152  0.5628843578386419  0.4541282945476741
  0.9999357145564609  0.6252942038094820  0.5404954211075342
  0.3335506118273356  0.5642033072727315  0.5418974125269332
  0.1641421794891746  0.5629021145248632  0.5422471124345143
  0.0000503736848936  0.6251500892634192  0.1972883681749981
  0.3342035328735301  0.6875938263688914  0.2025214575513122
  0.1658794007515157  0.6875982983731015  0.2025056562740422
  0.2500408040053537  0.7501393438890317  0.2778122521503952
  0.0828315436379551  0.6876472392096703  0.2838456286263605
  0.4172649261356444  0.6876331092669957  0.2838578908321756
  0.0000220436337151  0.7501736664783627  0.3695153484556875
  0.3321638732795775  0.6877218263601482  0.3682259653087600
  0.1678960637865926  0.6877038253100507  0.3682195667610716
  0.2500291615856893  0.7502442425163488  0.4555843008801958
  0.0838389789639484  0.6877764580888148  0.4541454800401736
  0.4161722008205317  0.6878811697724330  0.4541360587053283
 -0.0000690643927519  0.7502495766693306  0.5404990269916159
  0.3354110732283044  0.6882459711921058  0.5423950939906442
  0.1647454087105198  0.6880339121384770  0.5422972912968048
  0.0000240495147061  0.7501275423211794  0.1972941357571593
  0.3342009483433433  0.8126071829707641  0.2025216239239406
  0.1658593179633036  0.8126151349420525  0.2025067063340074
  0.2500273309370099  0.8751440989964978  0.2778222213217684
  0.0828323302963984  0.8126445827929051  0.2838520059852768
  0.4172681625620215  0.8126342735554558  0.2838499828858977
  0.0000162142497708  0.8751675267908324  0.3695347757248513
  0.3321756869956624  0.8127136833719650  0.3682355549250637
  0.1678901549095078  0.8127014513862825  0.3682493101961800
  0.2500192057060023  0.8752332797041213  0.4556110746223590
  0.0838871049011966  0.8127677416805589  0.4541677132065136
  0.4161456517008394  0.8128251256902711  0.4541754715076610
  0.9999324761733502  0.8752674233475514  0.5405531367912716
  0.3351493523266036  0.8129799915098205  0.5424422535136851
  0.1648832690531707  0.8128914745150821  0.5424124441443043
  0.0000183496327244  0.8751295517028124  0.1972922716896738
  0.3342069699756642  0.9376015469689395  0.2025199019711938
  0.1658559575823167  0.9376095855307429  0.2025135884785214
  0.2500992605060750  0.5001296450471613  0.2778119982774493
  0.0828220865007397  0.9376417579379966  0.2838687269404354
  0.4172504861233017  0.9376310674464117  0.2838593586140302
  0.0000754496810513  0.5001381865206366  0.3695397880832896
  0.3321651179609066  0.9376984873567855  0.3682430942855774
  0.1679049109411772  0.9376869260669066  0.3682613528794341
  0.2504242530890401  0.5002364789911578  0.4557376100974329
  0.0838856277101176  0.9377356270390975  0.4541881257256991
  0.4161354615929403  0.9377491759406531  0.4542047641462734
 -0.0000418309582839  0.5002618123511462  0.5404335079988828
  0.3351471246790132  0.9377784158750007  0.5424614988451393
  0.1649042665548166  0.9377643695127356  0.5424496594981356
  0.5000130817080359  0.0000894913136175  0.1972991666500143
  0.8342083583433715  0.0625853097830302  0.2025276588701553
  0.6658447960335789  0.0625985697407103  0.2025379216776763
  0.7500160113873900  0.1251195588145896  0.2778399354103088
  0.5828060948107642  0.0626312913519827  0.2838689830022169
  0.9172417143556382  0.0626216450421923  0.2838801494017348
  0.5000291613435145  0.1251636266595581  0.3695508844539114
  0.8321522048643271  0.0626845165282003  0.3682738633109001
  0.6678734882169872  0.0626922341962529  0.3682755942517973
  0.7499613497237044  0.1252722675886511  0.4556214213203441
  0.5839206200350769  0.0627277262768288  0.4542315962744822
  0.9161232604010872  0.0627118581689544  0.4542033711095321
  0.5000357144072994  0.1254365982761134  0.5405474982278625
  0.8350357284963876  0.0627278816691199  0.5424428444561514
  0.6648195560501658  0.0627677379555942  0.5425152117980212
  0.5000080486937095  0.1250785710892573  0.1973111688399319
  0.8341865301687503  0.1875851894301439  0.2025433175002211
  0.6658351811445961  0.1875904609320508  0.2025294083726864
  0.7500324743801650  0.2501069055766346  0.2778257496989660
  0.5828286828717958  0.1876321527737930  0.2838823045864549
  0.9172666053309926  0.1876170763044968  0.2838689503379022
  0.5000151626186944  0.2501860685889079  0.3695794119641198
  0.8321660940805052  0.1876781991703038  0.3682452261661166
  0.6678775629757122  0.1876913818490191  0.3682733765931105
  0.7500140611193021  0.2502811803935324  0.4555709314023541
  0.5839188795905471  0.1876955920480333  0.4542182782271276
  0.9161944701318466  0.1876947512038152  0.4541937040481336
  0.5000381184480303  0.2507889988301945  0.5404395981271466
  0.8351496474084866  0.1876250350208523  0.5423220132652942
  0.6646571317788917  0.1876930501763448  0.5424781954423724
  0.4999952000406236  0.2500673902506543  0.1973297961558209
  0.8341654461921832  0.3125687601556272  0.2025474490765411
  0.6658315835735807  0.3125886797915281  0.2025224692193525
  0.7500472285254859  0.3750942658766101  0.2777731489729572
  0.5828345261558046  0.3126328002112285  0.2838720345009556
  0.9172798172341349  0.3126219638288313  0.2838408090881600
  0.5000299664740868  0.3751593875916971  0.3696005836737112
  0.8322076533789419  0.3126802163720354  0.3682317571944710
  0.6679471958125031  0.3126907098958791  0.3682903580570958
  0.7501400701559603  0.3751568299406720  0.4555259171340358
  0.5839742984307902  0.3126600810136370  0.4541893519253735
  0.9162834159555919  0.3126837996964806  0.4541389552031945
  0.5002673363078723  0.3759517701695876  0.5396708338591314
  0.8356014007839304  0.3126879986923977  0.5422505012869139
  0.6657140942216258  0.3122312055886836  0.5424793584115661
  0.5000023860948442  0.3750976351704109  0.1973187041087680
  0.8342303458342780  0.4375727930816624  0.2025255770793137
  0.6658134644143313  0.4375881378607533  0.2025120940727502
  0.7500321477368836  0.0001257886283927  0.2778428662134500
  0.5828635789738088  0.4376344410808556  0.2838849967715547
  0.9172885087720152  0.4376295383696441  0.2838118772358906
  0.5000320923611026  0.0001792103474319  0.3695417020874756
  0.8322680785991029  0.4376909900519077  0.3681759712736546
  0.6678244956924537  0.4377024942905590  0.3682609766918360
  0.7499686129823135  0.0002391112923575  0.4556500495223147
  0.5839274367389439  0.4377501302739606  0.4542140829078257
  0.9163710244953035  0.4377267456494180  0.4541977509255986
  0.5000164576973776  0.0003185500994137  0.5405440462891485
  0.8362131458582297  0.4378118017632887  0.5423904875797582
  0.6682616855627270  0.4378267236853378  0.5406530541341831
  0.5000065852929386  0.5000694953532455  0.1973109063900281
  0.8341812965080179  0.5625964602678143  0.2025354458647600
  0.6658548692365543  0.5625909987044635  0.2024973755235019
  0.7500786383847160  0.6251533676451884  0.2777944173712043
  0.5828543261982393  0.5626385734921875  0.2838467362968511
  0.9172927973089626  0.5626349724946701  0.2838258264085927
  0.5000403593133204  0.6251804067045773  0.3695255203178687
  0.8322371822475270  0.5627023840539483  0.3682128596087996
  0.6679656700227982  0.5627022079161103  0.3682625168659734
  0.7500475963345207  0.6251820908472967  0.4555323898260869
  0.5839703930154765  0.5628538577033915  0.4541304490628527
  0.9162773849708998  0.5627710905857140  0.4541330831253814
  0.5000157628662442  0.6247629482657635  0.5403749809712315
  0.8356072308396555  0.5629185600189214  0.5422294308047371
  0.6657419159592843  0.5634339029076658  0.5424207191278256
  0.5000252561340214  0.6251117540890051  0.1973021337425488
  0.8342014741946978  0.6875986498239578  0.2025243482830230
  0.6658659780403391  0.6876064841859089  0.2025039803930842
  0.7500582917922289  0.7501543960783071  0.2778196907134734
  0.5828460279193793  0.6876381948582768  0.2838430418874826
  0.9172932777154562  0.6876559045609945  0.2838506336308259
  0.5000642497975992  0.7501927457806912  0.3695051894887825
  0.8321927615514305  0.6877072564486744  0.3682258839517468
  0.6679094266405198  0.6877094069646514  0.3682304717022533
  0.7499779264792310  0.7501848464592038  0.4556013683217731
  0.5839183059036486  0.6878012366336697  0.4541552963391927
  0.9162102608606895  0.6877683351679710  0.4541752938592892
  0.5000151952984483  0.7501190069186747  0.5404612373328694
  0.8351509196235708  0.6879472420066746  0.5422932443028663
  0.6646349514790593  0.6879507567738363  0.5424127582420445
  0.5000390230846371  0.7501299655140088  0.1972937121620399
  0.8342047515218222  0.8126185373171426  0.2025216049510083
  0.6658622503297271  0.8126177095510390  0.2025205212684571
  0.7500497761157455  0.8751453309151549  0.2778331009038221
  0.5828283788465780  0.8126384437374361  0.2838477016740544
  0.9172610378603671  0.8126454309864420  0.2838673543919645
  0.5000506779762018  0.8751813748880364  0.3695218484299700
  0.8321716348585041  0.8127064610691984  0.3682668230506251
  0.6678969500190506  0.8126978040435907  0.3682518779703245
  0.7499736918817387  0.8752219624178237  0.4556410321758849
  0.5839258214320475  0.8127807122746942  0.4541964833046798
  0.9161264915403717  0.8127590873447388  0.4541921566596533
  0.4999955249649875  0.8752401777877693  0.5405218504273039
  0.8350477172264412  0.8128478106345143  0.5424354015128843
  0.6648325821517956  0.8128640097858436  0.5424778111776345
  0.5000293722965445  0.8751124496767992  0.1972915167355266
  0.8342076293951302  0.9375898467164171  0.2025153919718676
  0.6658683932312051  0.9376192676016526  0.2025280307383236
  0.7500740393314662  0.5001525670553356  0.2777553385296049
  0.5828226755210136  0.9376337086184748  0.2838607446850273
  0.9172533568892328  0.9376337433764301  0.2838769528737445
  0.5000115196329382  0.5002145823964288  0.3695919336635011
  0.8321445669423860  0.9376972717640151  0.3682759145067711
  0.6678912360565084  0.9376927236539006  0.3682636390186232
  0.7501408133193734  0.5003044917682035  0.4555077830158836
  0.5839104175470863  0.9377519933159060  0.4542074133822422
  0.9161207090250888  0.9377369517027555  0.4542091952856828
  0.5003161394690884  0.4996402445995414  0.5395854764343616
  0.8350531991693337  0.9377914271318581  0.5424578685789618
  0.6648593629164073  0.9378114466116633  0.5424917522266188
  0.4056367772912313  0.0001186341990751  0.2321307009174307
  0.2500432235349176  0.0000972295408689  0.1991462335203831
  0.0944063872935059  0.0001121458657968  0.2321203013937836
  0.1549667801410158  0.1251353979593876  0.3156375931663430
  0.0000420401652773  0.1251209234178998  0.3028594585167886
  0.3451278386411064  0.1251514155127391  0.3156712294509724
  0.4009846515546998  0.1251693115238935  0.4019834138436640
  0.2500375357822939  0.1251738824761584  0.3875411549539863
  0.0991082111012257  0.1251890851945186  0.4019488443030403
  0.1514333984252212  0.1252016337787597  0.4876012718017482
  0.0000203765710327  0.1251931988460267  0.4723315884368218
  0.3486679163924520  0.1251504482741705  0.4876484781803974
  0.4031734521735086  0.1252487550100758  0.5702038345043231
  0.2500740547046207  0.1253891964222513  0.5576973157253622
  0.0969332460786402  0.1252320695945127  0.5700307867693084
  0.4056370036677195  0.1251096686112130  0.2321543179379191
  0.2500421874564945  0.1250943407059028  0.1991424787196626
  0.0944099690778178  0.1250962450710110  0.2321168499081899
  0.1549771385717567  0.2501408713902123  0.3156400141463686
  0.0000517923921209  0.2501275401163258  0.3028535040755116
  0.3451193106562390  0.2501844855505501  0.3156973748844364
  0.4009349703268186  0.2501613388461296  0.4019867616124159
  0.2500221603371694  0.2501700820117771  0.3875065703235139
  0.0991314634618005  0.2501950630041112  0.4019269998979723
  0.1513899267174977  0.2501481636407222  0.4875862430397260
  0.0000449282635247  0.2502028116307714  0.4722984816826683
  0.3486229589444287  0.2499894523570613  0.4876162261475180
  0.4029848392859513  0.2505710047593691  0.5702168617810207
  0.2499691156899382  0.2505740094414864  0.5575461900044262
  0.0969241473989840  0.2501126891195735  0.5700596157829232
  0.4056571511905526  0.2501089981638934  0.2321733341041549
  0.2500510769264140  0.2500927409507290  0.1991587820615368
  0.0944115097348669  0.2500934638287740  0.2321276227568859
  0.1550518235274599  0.3751595313254568  0.3156565861603777
  0.0000703060555125  0.3751302936093958  0.3028620004489172
  0.3450901213758317  0.3751503119328476  0.3157478819275444
  0.4008926985711689  0.3752201932497314  0.4020617467525562
  0.2501030857187976  0.3752339213633922  0.3876676051482524
  0.0991832726918781  0.3751754626929976  0.4018931630400187
  0.1514958391708241  0.3751603347440618  0.4875574628061307
  0.0000897624723674  0.3751897466258833  0.4722002104221811
  0.3491719814987610  0.3751059716990264  0.4884231364460035
  0.4018379521507462  0.3743644659375948  0.5717759461664536
  0.2495892761091748  0.3756018724011911  0.5578187580161047
  0.0967193525670303  0.3751593909483319  0.5701731827288294
  0.4056670468643988  0.3751120046768859  0.2321916491974052
  0.2500688544430313  0.3750944138261651  0.1991603862390245
  0.0944250172676365  0.3751009031569774  0.2321214491924469
  0.1549549218693604  0.0001569147616235  0.3156439470628013
  0.0000399422892036  0.0001341483705585  0.3028613359048024
  0.3451209994482908  0.0001635275018318  0.3156448446124662
  0.4009625842802854  0.0002017830063027  0.4019527021778250
  0.2500296942440685  0.0001903751398203  0.3875486432966787
  0.0990936750333638  0.0001949515749869  0.4019502164206450
  0.1514165759237763  0.0002146645631292  0.4876159897093032
  0.0000037710583021  0.0002265173520192  0.4723624940607123
  0.3486458597445087  0.0002267967304325  0.4876411587358290
  0.4031086143518535  0.0002721659477885  0.5701436176503912
  0.2500452761533247  0.0002911559063874  0.5576497239545758
  0.0969128520216175  0.0002751618289640  0.5700745547884301
  0.4056505519826398  0.5000848814449969  0.2321708388765519
  0.2500683688102963  0.5000701219361473  0.1991360787827998
  0.0944275691993967  0.5001149857953179  0.2321122160119647
  0.1549865188646499  0.6251607705407940  0.3156142945463992
  0.0000640730781472  0.6251310507356918  0.3028383453131495
  0.3451197357033668  0.6251271321238784  0.3156498518583442
  0.4009455518110137  0.6252703728784116  0.4019178550641175
  0.2500161864189911  0.6252159113307373  0.3874622370840154
  0.0991314401277163  0.6251943626121472  0.4019008533193687
  0.1513747893319681  0.6253305858659464  0.4875446259016589
  0.0000489713925886  0.6252583247522085  0.4722862858692582
  0.3486218053291296  0.6255478678732248  0.4875276732462473
  0.4029837494671604  0.6250249355674314  0.5701525431638728
  0.2499551166461558  0.6250327361317236  0.5574852355926759
  0.0969416343663057  0.6254121866518748  0.5700250225157358
  0.4056491134433935  0.6250986221337709  0.2321271091277232
  0.2500637635665245  0.6250983163245557  0.1991157780280874
  0.0944235277128578  0.6251259455613656  0.2321097419840612
  0.1549633626280827  0.7501786203306625  0.3156184716289928
  0.0000616207300613  0.7501491807784236  0.3028413052569558
  0.3451290934245816  0.7501647840095794  0.3156264646580063
  0.4009965642590282  0.7502654553433261  0.4019204661713107
  0.2500273375608466  0.7502128784506440  0.3875090921433249
  0.0991023713840622  0.7502182274411860  0.4019266253270459
  0.1514115070348943  0.7502842285878346  0.4875643659020251
  0.0000202518375568  0.7502774281143728  0.4723196107285664
  0.3486690097314586  0.7503707053505773  0.4875812655506859
  0.4031626751878190  0.7503128285926204  0.5701206147141900
  0.2500818795905243  0.7501516862017567  0.5576036968357434
  0.0969398269128656  0.7502839960410367  0.5700054994547349
  0.4056478165745793  0.7501140362153829  0.2321146897583365
  0.2500416401841367  0.7500976758516447  0.1991403836769872
  0.0944243135257422  0.7501355840409354  0.2321117021229817
  0.1549486007153453  0.8751651642752967  0.3156359170498086
  0.0000449521405848  0.8751435797601584  0.3028532180214694
  0.3451281548186120  0.8751646343598912  0.3156301608890002
  0.4009807318277711  0.8752394483844929  0.4019315705461611
  0.2500212088227652  0.8752000508217193  0.3875333491513582
  0.0990865278564703  0.8752171844309735  0.4019419728580988
  0.1513917995338228  0.8752622012801530  0.4876017823220182
  0.0000065392661006  0.8752522963993101  0.4723566270923682
  0.3486314740349584  0.8752822883716023  0.4876162219215464
  0.4031020103426683  0.8752637213793535  0.5701149937627549
  0.2500231486717377  0.8752458507430760  0.5576275591866950
  0.0969001286118964  0.8752689284014654  0.5700718444270935
  0.4056452054913271  0.8751141329732933  0.2321157473956604
  0.2500273078872775  0.8751074146595990  0.1991385747131612
  0.0944150538390325  0.8751227330703902  0.2321175335949595
  0.1550540140003810  0.5001360277417967  0.3156409082109453
  0.0000720754299338  0.5001237192367980  0.3028526991655495
  0.3450773232872325  0.5001563101818598  0.3157226913048025
  0.4008885543667632  0.5002069282060922  0.4020292561529207
  0.2501109664130867  0.5001335685978791  0.3876466200718879
  0.0991847633985003  0.5002048883161907  0.4018871322300321
  0.1515015235404184  0.5002984265070261  0.4875462387136323
  0.0000963213186071  0.5002632864222051  0.4722079177585607
  0.3491740359340134  0.5004052815120225  0.4883538856515939
  0.4019285158141488  0.5013574150604579  0.5716663890734711
  0.2495759430318288  0.4999886023585740  0.5577799710525403
  0.0967077682457143  0.5003733551626015  0.5701482415067567
  0.9056474621170443  0.0001075505968375  0.2321491616325185
  0.7500329707574414  0.0001041138701399  0.1991491521592311
  0.5943949296156913  0.0001193900823273  0.2321217818971621
  0.6549403473562975  0.1251561690276897  0.3156647399844514
  0.5000353957114964  0.1251372510669903  0.3028684069608631
  0.8450998909761884  0.1251420579747301  0.3156425229895271
  0.9009500907292590  0.1252009739042564  0.4019519538629497
  0.7500171357781523  0.1251913943299079  0.3875421349939312
  0.5990843354300586  0.1252036691670063  0.4019814208995516
  0.6513545773038862  0.1252933128516731  0.4876757698341226
  0.5000342594323719  0.1253035403285009  0.4723617189411615
  0.8485768755380997  0.1252287509272540  0.4875935648367351
  0.9030116603013953  0.1253085769508159  0.5700307929926807
  0.7498877894656389  0.1255379968817842  0.5576578452397863
  0.5968731733228874  0.1254595148706057  0.5702056428602775
  0.9056418859366390  0.1250891031156079  0.2321359951517313
  0.7500224293238692  0.1250793713561825  0.1991647453892702
  0.5943888074609749  0.1251139550563392  0.2321320312154909
  0.6549563914317066  0.2501699495055707  0.3156593947249308
  0.5000518591121779  0.2501415815879898  0.3029001750684907
  0.8451170223850906  0.2501342761238354  0.3156279383902024
  0.9009749878241279  0.2501855503335237  0.4019248331866208
  0.7500614809694538  0.2501689011571551  0.3875009853644546
  0.5991259423741909  0.2501992920509764  0.4019757617341955
  0.6513946955401319  0.2502919719460606  0.4877007195379811
  0.5000419888767653  0.2502761911452645  0.4723014370285377
  0.8486145508414449  0.2502132972027919  0.4875792378990854
  0.9030528076144334  0.2501485645925238  0.5700617158642550
  0.7497670603231305  0.2508722230593159  0.5574838535949727
  0.5969436143348754  0.2508954539635829  0.5703187906466326
  0.9056572831582617  0.2500825525871208  0.2321277858897605
  0.7500080512367340  0.2500820774700442  0.1991144272593642
  0.5943973185797097  0.2501026568712066  0.2321361438677468
  0.6550331905265433  0.3751515904252258  0.3156345694356411
  0.5000581820695049  0.3751398789655958  0.3029386262889934
  0.8451075101765281  0.3751552917872921  0.3156163554910368
  0.9009603283811437  0.3751889210965149  0.4018856617466923
  0.7500448131023905  0.3752543673349951  0.3874870830386108
  0.5992246125095333  0.3751817127880993  0.4019155559833988
  0.6513785095593622  0.3749500020645539  0.4878906233245831
  0.5001048092706015  0.3751034907849771  0.4718846345704633
  0.8487891868007690  0.3751837820625549  0.4875508184781321
  0.9033697970774276  0.3751602576468809  0.5701493679315263
  0.7506088690019808  0.3754251140198738  0.5577427392661332
  0.5974769016298194  0.3765439420248167  0.5713068267073045
  0.9056666327418936  0.3750949941260508  0.2321120774012750
  0.7500024262216232  0.3750843882136977  0.1991172123841892
  0.5943909191265707  0.3751084013291292  0.2321314672262799
  0.6549405599195081  0.0001653830284312  0.3156546223165088
  0.5000336219814369  0.0001356631926383  0.3028567134900975
  0.8451015456029249  0.0001567091288043  0.3156578519000889
  0.9009498916972639  0.0002013428565730  0.4019628040616989
  0.7500166747331729  0.0001951744063712  0.3875647563269710
  0.5990898047342965  0.0002165723517241  0.4019645771951543
  0.6513745164009361  0.0002702013761199  0.4876590128801526
  0.5000388299737781  0.0002629600256784  0.4723509550696662
  0.8485869986322415  0.0002428130338197  0.4876247619781550
  0.9030196588066967  0.0003121113791548  0.5700845312748637
  0.7499262549529701  0.0003523225637311  0.5576506127486097
  0.5968775252201927  0.0003402392528226  0.5701415769781334
  0.9056695326818454  0.5001080145313883  0.2321014727570914
  0.7500084850725798  0.5000845032589799  0.1991112976740299
  0.5944033360272294  0.5001030717281046  0.2321129202920458
  0.6549898587271837  0.6251525697422284  0.3156144305013895
  0.5000618552730666  0.6251323722089366  0.3028486205298742
  0.8451496390126823  0.6251779862803215  0.3156068694101583
  0.9009800869525409  0.6252158328846606  0.4019136990104317
  0.7500876872002528  0.6252223459548322  0.3874612098407512
  0.5991469698602779  0.6252311671681089  0.4019179093005145
  0.6514060335198586  0.6252498279512342  0.4876400222617072
  0.5000272463633409  0.6252250102049508  0.4722351626146405
  0.8486293216448753  0.6252808720620026  0.4875583701294437
  0.9030542909074178  0.6254109900562534  0.5700388262377484
  0.7497613212808157  0.6247461029604437  0.5574470420829664
  0.5969337444455370  0.6247290831410899  0.5702692211927834
  0.9056755584373759  0.6251255832503306  0.2321070361133277
  0.7500296934533187  0.6251032581745889  0.1990948473672106
  0.5944252908118419  0.6251215142737462  0.2321036222639971
  0.6549694578551022  0.7501716755073251  0.3156265292896441
  0.5000496073426125  0.7501404412739396  0.3028290081681699
  0.8451360485125735  0.7501754658145652  0.3156304268244564
  0.9009655193980086  0.7502103879281038  0.4019437481071106
  0.7500424466894539  0.7502004311758100  0.3875218506689627
  0.5991145566021407  0.7502375484616449  0.4019359807270237
  0.6513558537978021  0.7502474104794120  0.4876200948047259
  0.5000425907762327  0.7502109129813771  0.4722875646344675
  0.8485940140812429  0.7502651156202547  0.4875766645784506
  0.9030039409709734  0.7502417483681306  0.5700241508465118
  0.7498722039484993  0.7500561168699921  0.5576114484521464
  0.5968360618606275  0.7501560770992003  0.5701276753419073
  0.9056487417301556  0.7501353380971283  0.2321250222795770
  0.7500272753607510  0.7501069570962462  0.1991728545814241
  0.5944280075544941  0.7501189614847699  0.2321084234421291
  0.6549511182999892  0.8751606562112566  0.3156404492700440
  0.5000414448519436  0.8751375806517018  0.3028389506536658
  0.8451193171093537  0.8751676961506352  0.3156548826752222
  0.9009510889833441  0.8752176717894896  0.4019577303310475
  0.7500194516929916  0.8751970199705956  0.3875540601457216
  0.5991002801910003  0.8752194468821081  0.4019512399519331
  0.6513787022032689  0.8752687736908048  0.4876421365491527
  0.5000378461779278  0.8752430848758809  0.4723359742872447
  0.8485891518190786  0.8752546842928967  0.4876146884543212
  0.9030025845483970  0.8752440013754215  0.5700936216362462
  0.7499216496986326  0.8752336794922571  0.5576372502315695
  0.5968855779591429  0.8752614936603560  0.5701203652340034
  0.9056491991778779  0.8751164161328869  0.2321332444839700
  0.7500337232175210  0.8751103577132907  0.1991306102636959
  0.5944235178997493  0.8751208928081784  0.2321121256619631
  0.6550501872323533  0.5001670230367198  0.3156147529287151
  0.5000546310438931  0.5001383955045122  0.3029219346325788
  0.8451169608685144  0.5001506608057419  0.3156067220214290
  0.9009663581872184  0.5002012759468321  0.4018828700787228
  0.7500615139815618  0.5001425464632913  0.3874699385357762
  0.5992310130743862  0.5002393141525320  0.4018905434371247
  0.6513751482523000  0.5005945303845928  0.4878510543463986
  0.5001139094456193  0.5004102258982303  0.4718147376678791
  0.8487876886099747  0.5003068420313721  0.4875427984559262
  0.9033401034428434  0.5004218144336386  0.5701629581064697
  0.7505986253331637  0.5001936078651743  0.5577104664154651
  0.5975113219648958  0.4991342058859540  0.5712431380208290
  0.5617544585279901  0.4379209001784143  0.6132173184533786
  0.4443275660018574  0.3867936819596233  0.6273656323654957
  0.4449377875533917  0.4902154234560850  0.6272959879060648
  0.5029779602925649  0.4384469320705974  0.6849096332004287
 
  0.00000000E+00  0.00000000E+00  0.00000000E+00
  0.00000000E+00  0.00000000E+00  0.00000000E+00
  0.00000000E+00  0.00000000E+00  0.00000000E+00