Ta  N Cu                                
   1.00000000000000     
    18.1096308199999996    0.0000000000000000    0.0000000000000000
     0.0000000000000000   23.3551997799999995    0.0000000000000000
     0.0000000000000000    0.0000000000000000   30.4818170799999990
   Ta   N    Cu
   240   240     2
Selective dynamics
Direct
  0.0000000000000000  0.0000000000000000  0.1962037549895328   F   F   F
  0.3335422814544131  0.0625000001605613  0.2032829710819826   F   F   F
  0.1664576892793903  0.0625000001605613  0.2032829710819826   F   F   F
  0.2499999997239044  0.1249999998929567  0.2787808134173062   F   F   F
  0.0825353920715628  0.0625000001605613  0.2838315333135668   F   F   F
  0.4174646079284372  0.0625000001605613  0.2838315333135668   F   F   F
  0.9999686243649211  0.1250050021550715  0.3695656637488690   T   T   T
  0.3322166910846043  0.0625036799121764  0.3683954530025162   T   T   T
  0.1677551508812049  0.0625001210793608  0.3684117106337049   T   T   T
  0.2499696485887618  0.1249935631013059  0.4557097484649877   T   T   T
  0.0837970543430094  0.0624844340907972  0.4543344319918184   T   T   T
  0.4161010084285845  0.0625049710072676  0.4543364082936487   T   T   T
  0.0000429747103672  0.1250394916287991  0.5406824634232614   T   T   T
  0.3351206433887592  0.0625259460275919  0.5425828244952896   T   T   T
  0.1649121129368437  0.0624716570609022  0.5425515031579592   T   T   T
  0.0000000000000000  0.1249999998929567  0.1962037549895328   F   F   F
  0.3335422814544131  0.1875000000535181  0.2032829710819826   F   F   F
  0.1664576892793903  0.1875000000535181  0.2032829710819826   F   F   F
  0.2499999997239044  0.2500000002140865  0.2787808134173062   F   F   F
  0.0825353920715628  0.1875000000535181  0.2838315333135668   F   F   F
  0.4174646079284372  0.1875000000535181  0.2838315333135668   F   F   F
  0.9999562212711525  0.2499949890735823  0.3695612876180329   T   T   T
  0.3322018365983577  0.1874919077532295  0.3683709940803568   T   T   T
  0.1677461720521417  0.1874910494980518  0.3684004145591689   T   T   T
  0.2498742095855594  0.2500249228933623  0.4556576780355225   T   T   T
  0.0837520241729379  0.1874580779709410  0.4543251109515457   T   T   T
  0.4160919714747266  0.1874727848993779  0.4543087491671057   T   T   T
  0.0000385715361685  0.2500106527978951  0.5406796968551801   T   T   T
  0.3351086043334204  0.1876101868254895  0.5425488785885239   T   T   T
  0.1649168745069894  0.1873990827221503  0.5425124495965200   T   T   T
  0.0000000000000000  0.2500000002140865  0.1962037549895328   F   F   F
  0.3335422814544131  0.3124999999464819  0.2032829710819826   F   F   F
  0.1664576892793903  0.3124999999464819  0.2032829710819826   F   F   F
  0.2499999997239044  0.3750000001070433  0.2787808134173062   F   F   F
  0.0825353920715628  0.3124999999464819  0.2838315333135668   F   F   F
  0.4174646079284372  0.3124999999464819  0.2838315333135668   F   F   F
  0.9999639720430809  0.3750099463924775  0.3695666212730930   T   T   T
  0.3321777676202647  0.3124978336118641  0.3683613958031302   T   T   T
  0.1677464993321901  0.3124931826687495  0.3683948377539127   T   T   T
  0.2497588558068166  0.3749384253149924  0.4555857421410871   T   T   T
  0.0837101128796662  0.3124479249678779  0.4543059245950957   T   T   T
  0.4159554491605102  0.3124346483565281  0.4541615331750449   T   T   T
  0.0005334801275107  0.3750245554140467  0.5406201022242886   T   T   T
  0.3349712692435579  0.3126909201692683  0.5422876317589234   T   T   T
  0.1649762323139238  0.3122642689044692  0.5424765116716931   T   T   T
  0.0000000000000000  0.3750000001070433  0.1962037549895328   F   F   F
  0.3335422814544131  0.4375000002676046  0.2032829710819826   F   F   F
  0.1664576892793903  0.4375000002676046  0.2032829710819826   F   F   F
  0.2499999997239044  0.0000000000000000  0.2787808134173062   F   F   F
  0.0825353920715628  0.4375000002676046  0.2838315333135668   F   F   F
  0.4174646079284372  0.4375000002676046  0.2838315333135668   F   F   F
  0.9999761171599318  0.0000068067629506  0.3695652067193220   T   T   T
  0.3322322328495462  0.4375090415345703  0.3683639618039094   T   T   T
  0.1676954644795485  0.4374999651645224  0.3683367115941431   T   T   T
  0.2499974058945822  0.0000091606928851  0.4557176521455650   T   T   T
  0.0836115563851047  0.4374697619639941  0.4543246719588498   T   T   T
  0.4158842832266360  0.4374828997072380  0.4542276221315542   T   T   T
  0.0000258543161403  0.0000168359336148  0.5407041807415268   T   T   T
  0.3346353646550301  0.4376554958558422  0.5418589062792784   T   T   T
  0.1648618007578331  0.4373301667084710  0.5425237567984331   T   T   T
  0.0000000000000000  0.5000000000000000  0.1962037549895328   F   F   F
  0.3335422814544131  0.5625000001605613  0.2032829710819826   F   F   F
  0.1664576892793903  0.5625000001605613  0.2032829710819826   F   F   F
  0.2499999997239044  0.6249999998929567  0.2787808134173062   F   F   F
  0.0825353920715628  0.5625000001605613  0.2838315333135668   F   F   F
  0.4174646079284372  0.5625000001605613  0.2838315333135668   F   F   F
  0.9999751464311417  0.6249945244206636  0.3695653892850480   T   T   T
  0.3322359241220108  0.5625086927177800  0.3683600650168109   T   T   T
  0.1676953540207826  0.5625041431615735  0.3683356478857676   T   T   T
  0.2497584381025725  0.6250812800751568  0.4555823486420471   T   T   T
  0.0836123895580577  0.5625354206664310  0.4543244465366826   T   T   T
  0.4158854932351218  0.5625604991295593  0.4542238257101101   T   T   T
  0.0005463261407547  0.6250061963496422  0.5406143664204636   T   T   T
  0.3346423511207919  0.5623833048338933  0.5418597620886937   T   T   T
  0.1648639412865382  0.5626846041179356  0.5425222344474818   T   T   T
  0.0000000000000000  0.6249999998929567  0.1962037549895328   F   F   F
  0.3335422814544131  0.6875000000535181  0.2032829710819826   F   F   F
  0.1664576892793903  0.6875000000535181  0.2032829710819826   F   F   F
  0.2499999997239044  0.7500000002140865  0.2787808134173062   F   F   F
  0.0825353920715628  0.6875000000535181  0.2838315333135668   F   F   F
  0.4174646079284372  0.6875000000535181  0.2838315333135668   F   F   F
  0.9999691525793106  0.7500089476887225  0.3695621795088273   T   T   T
  0.3321739471627354  0.6875201355838025  0.3683568808259533   T   T   T
  0.1677469803513818  0.6875124943288081  0.3683922495050355   T   T   T
  0.2498700432441321  0.7499881433608216  0.4556540980688087   T   T   T
  0.0837240054260574  0.6875580898540705  0.4543071657537311   T   T   T
  0.4159480494798005  0.6876185702180561  0.4541493270487565   T   T   T
  0.0000521173752701  0.7500257010131703  0.5406779701290639   T   T   T
  0.3349646779627473  0.6873501210908241  0.5422837707002404   T   T   T
  0.1649712091650611  0.6877467699903781  0.5424750376568787   T   T   T
  0.0000000000000000  0.7500000002140865  0.1962037549895328   F   F   F
  0.3335422814544131  0.8124999999464819  0.2032829710819826   F   F   F
  0.1664576892793903  0.8124999999464819  0.2032829710819826   F   F   F
  0.2499999997239044  0.8750000001070433  0.2787808134173062   F   F   F
  0.0825353920715628  0.8124999999464819  0.2838315333135668   F   F   F
  0.4174646079284372  0.8124999999464819  0.2838315333135668   F   F   F
  0.9999781324297208  0.8749995688504790  0.3695631625383877   T   T   T
  0.3321965161604725  0.8125265557435611  0.3683673773353737   T   T   T
  0.1677450469569467  0.8125170546562916  0.3683994791337611   T   T   T
  0.2499706658389946  0.8750232589515323  0.4557088010902395   T   T   T
  0.0837668255516073  0.8125558766698044  0.4543256901240548   T   T   T
  0.4160863166375249  0.8125724803968746  0.4542959672864502   T   T   T
  0.0000539816340849  0.8749964558115200  0.5406828133097311   T   T   T
  0.3351164248011909  0.8124159580236754  0.5425517248797542   T   T   T
  0.1649249790913595  0.8126163566896384  0.5425095938958182   T   T   T
  0.0000000000000000  0.8750000001070433  0.1962037549895328   F   F   F
  0.3335422814544131  0.9375000002676046  0.2032829710819826   F   F   F
  0.1664576892793903  0.9375000002676046  0.2032829710819826   F   F   F
  0.2499999997239044  0.5000000000000000  0.2787808134173062   F   F   F
  0.0825353920715628  0.9375000002676046  0.2838315333135668   F   F   F
  0.4174646079284372  0.9375000002676046  0.2838315333135668   F   F   F
  0.9999873413505608  0.5000021468759646  0.3695803191948573   T   T   T
  0.3322132197663096  0.9375146914063019  0.3683939529251238   T   T   T
  0.1677533270699370  0.9375117451762599  0.3684110953147971   T   T   T
  0.2496870238271798  0.5000095690860595  0.4555798168104718   T   T   T
  0.0837992946857651  0.9375302034177575  0.4543297128778496   T   T   T
  0.4161012805058008  0.9375388819479067  0.4543378587931476   T   T   T
  0.0009756071022450  0.5000153587078634  0.5405500966674441   T   T   T
  0.3351242862368380  0.9375156913663917  0.5425803721860359   T   T   T
  0.1649163409179680  0.9375437588478522  0.5425517843128250   T   T   T
  0.5000000000000000  0.0000000000000000  0.1962037549895328   F   F   F
  0.8335422809022219  0.0625000001605613  0.2032829710819826   F   F   F
  0.6664576892793903  0.0625000001605613  0.2032829710819826   F   F   F
  0.7499999997239044  0.1249999998929567  0.2787808134173062   F   F   F
  0.5825353920715628  0.0625000001605613  0.2838315333135668   F   F   F
  0.9174646079284372  0.0625000001605613  0.2838315333135668   F   F   F
  0.4999764512250016  0.1249922626696296  0.3695625220450700   T   T   T
  0.8322104110540717  0.0625062629975288  0.3683975048371304   T   T   T
  0.6677455756280125  0.0625113966333848  0.3683945758830943   T   T   T
  0.7499027431403151  0.1250137702253072  0.4556901685386110   T   T   T
  0.5838216089041492  0.0624813672458209  0.4543348582989868   T   T   T
  0.9160879953467791  0.0625086001347604  0.4543299950195847   T   T   T
  0.4998996704137292  0.1250722794780718  0.5406700993282780   T   T   T
  0.8351178799538133  0.0624773701934494  0.5425734902567971   T   T   T
  0.6648127446037425  0.0623981012465138  0.5425886101186821   T   T   T
  0.5000000000000000  0.1249999998929567  0.1962037549895328   F   F   F
  0.8335422809022219  0.1875000000535181  0.2032829710819826   F   F   F
  0.6664576892793903  0.1875000000535181  0.2032829710819826   F   F   F
  0.7499999997239044  0.2500000002140865  0.2787808134173062   F   F   F
  0.5825353920715628  0.1875000000535181  0.2838315333135668   F   F   F
  0.9174646079284372  0.1875000000535181  0.2838315333135668   F   F   F
  0.5000136080943440  0.2500147026466910  0.3695602750851202   T   T   T
  0.8322101944887031  0.1875033892069531  0.3683837992628569   T   T   T
  0.6677084821159998  0.1874974950648169  0.3684094221695642   T   T   T
  0.7498601432879536  0.2500201726693293  0.4556983025104127   T   T   T
  0.5838347972376371  0.1874121453189085  0.4543797691655838   T   T   T
  0.9161193884539809  0.1874887276774529  0.4543313820209397   T   T   T
  0.4999838542212522  0.2501122540652416  0.5406121217954035   T   T   T
  0.8352544589498048  0.1873394517128813  0.5424970253748009   T   T   T
  0.6645613029053860  0.1869914867651047  0.5426040664926359   T   T   T
  0.5000000000000000  0.2500000002140865  0.1962037549895328   F   F   F
  0.8335422809022219  0.3124999999464819  0.2032829710819826   F   F   F
  0.6664576892793903  0.3124999999464819  0.2032829710819826   F   F   F
  0.7499999997239044  0.3750000001070433  0.2787808134173062   F   F   F
  0.5825353920715628  0.3124999999464819  0.2838315333135668   F   F   F
  0.9174646079284372  0.3124999999464819  0.2838315333135668   F   F   F
  0.5000417056281174  0.3749912676242261  0.3695922265358991   T   T   T
  0.8321712881322176  0.3125043790806906  0.3683962547605070   T   T   T
  0.6677222505179335  0.3125044256582656  0.3685050704618752   T   T   T
  0.7496655815848831  0.3749344420516120  0.4557901224066316   T   T   T
  0.5837563258822203  0.3123662265008693  0.4544746007694672   T   T   T
  0.9161050500121679  0.3124642635568034  0.4542626084925108   T   T   T
  0.4993274103971154  0.3754829960882963  0.5402835344247269   T   T   T
  0.8358512457051892  0.3124912254523174  0.5423498329805698   T   T   T
  0.6652733477155475  0.3111514270735845  0.5430620919080611   T   T   T
  0.5000000000000000  0.3750000001070433  0.1962037549895328   F   F   F
  0.8335422809022219  0.4375000002676046  0.2032829710819826   F   F   F
  0.6664576892793903  0.4375000002676046  0.2032829710819826   F   F   F
  0.7499999997239044  0.0000000000000000  0.2787808134173062   F   F   F
  0.5825353920715628  0.4375000002676046  0.2838315333135668   F   F   F
  0.9174646079284372  0.4375000002676046  0.2838315333135668   F   F   F
  0.4999670636864158  0.0000128990411021  0.3695611789998326   T   T   T
  0.8321677373916297  0.4375017496714562  0.3683906709069306   T   T   T
  0.6675606152011445  0.4375175727734906  0.3685784829459654   T   T   T
  0.7499651314186419  0.0000186237108286  0.4556856286228050   T   T   T
  0.5835599880064972  0.4374624931236113  0.4547060666319627   T   T   T
  0.9161063804094715  0.4374755442793485  0.4542707521542536   T   T   T
  0.4999600637597388  0.0000370691716385  0.5406718031088404   T   T   T
  0.8371853534411060  0.4375736456548344  0.5422750362482309   T   T   T
  0.6693453682838609  0.4366388861401816  0.5413011299069758   T   T   T
  0.5000000000000000  0.5000000000000000  0.1962037549895328   F   F   F
  0.8335422809022219  0.5625000001605613  0.2032829710819826   F   F   F
  0.6664576892793903  0.5625000001605613  0.2032829710819826   F   F   F
  0.7499999997239044  0.6249999998929567  0.2787808134173062   F   F   F
  0.5825353920715628  0.5625000001605613  0.2838315333135668   F   F   F
  0.9174646079284372  0.5625000001605613  0.2838315333135668   F   F   F
  0.5000401018204026  0.6250421293754717  0.3695923006680713   T   T   T
  0.8321747307976011  0.5625150997006536  0.3683882334304893   T   T   T
  0.6675643975796561  0.5625027236974751  0.3685756143037292   T   T   T
  0.7496853009335107  0.6251188367607386  0.4557789269242766   T   T   T
  0.5835535758540386  0.5626036388447048  0.4546967955331299   T   T   T
  0.9161139465723895  0.5625437709096280  0.4542713980459371   T   T   T
  0.4993008869695394  0.6246494513936917  0.5402488274721775   T   T   T
  0.8371989344839548  0.5624784116507356  0.5422721681201786   T   T   T
  0.6693440820327882  0.5635057613739208  0.5412919118562287   T   T   T
  0.5000000000000000  0.6249999998929567  0.1962037549895328   F   F   F
  0.8335422809022219  0.6875000000535181  0.2032829710819826   F   F   F
  0.6664576892793903  0.6875000000535181  0.2032829710819826   F   F   F
  0.7499999997239044  0.7500000002140865  0.2787808134173062   F   F   F
  0.5825353920715628  0.6875000000535181  0.2838315333135668   F   F   F
  0.9174646079284372  0.6875000000535181  0.2838315333135668   F   F   F
  0.5000158047722536  0.7500125865331808  0.3695609797348360   T   T   T
  0.8321839890232008  0.6875127933433504  0.3683931368494323   T   T   T
  0.6677278336284203  0.6875182733266476  0.3685028030806584   T   T   T
  0.7498839176024376  0.7500141181488579  0.4556890694359624   T   T   T
  0.5837595105293308  0.6876998597255994  0.4544572177169917   T   T   T
  0.9161279086809389  0.6875602600528803  0.4542583321023185   T   T   T
  0.4999886760179250  0.7499858087818340  0.5405871508706939   T   T   T
  0.8358749089854048  0.6875497566237393  0.5423378509034864   T   T   T
  0.6652947570189309  0.6889910396505496  0.5430297841298586   T   T   T
  0.5000000000000000  0.7500000002140865  0.1962037549895328   F   F   F
  0.8335422809022219  0.8124999999464819  0.2032829710819826   F   F   F
  0.6664576892793903  0.8124999999464819  0.2032829710819826   F   F   F
  0.7499999997239044  0.8750000001070433  0.2787808134173062   F   F   F
  0.5825353920715628  0.8124999999464819  0.2838315333135668   F   F   F
  0.9174646079284372  0.8124999999464819  0.2838315333135668   F   F   F
  0.4999746724108736  0.8750334954126174  0.3695616632432225   T   T   T
  0.8322249182210940  0.8125139769650056  0.3683820480802978   T   T   T
  0.6677200927525421  0.8125287124278482  0.3684050258356099   T   T   T
  0.7499244299469449  0.8750209020021631  0.4556825632724297   T   T   T
  0.5838314190249614  0.8126547763660109  0.4543647895939503   T   T   T
  0.9161403415675491  0.8125377432508367  0.4543298137763818   T   T   T
  0.4998977016302823  0.8750063615400377  0.5406481573548346   T   T   T
  0.8352665588252302  0.8126956326534437  0.5424874638183697   T   T   T
  0.6645804420669150  0.8131535243434309  0.5425679276404649   T   T   T
  0.5000000000000000  0.8750000001070433  0.1962037549895328   F   F   F
  0.8335422809022219  0.9375000002676046  0.2032829710819826   F   F   F
  0.6664576892793903  0.9375000002676046  0.2032829710819826   F   F   F
  0.7499999997239044  0.5000000000000000  0.2787808134173062   F   F   F
  0.5825353920715628  0.9375000002676046  0.2838315333135668   F   F   F
  0.9174646079284372  0.9375000002676046  0.2838315333135668   F   F   F
  0.5000201560830388  0.5000152444703978  0.3696015074525588   T   T   T
  0.8322185782559098  0.9375114173611542  0.3683969387225090   T   T   T
  0.6677535260415016  0.9375165324480980  0.3683911599998289   T   T   T
  0.7495587847391797  0.5000203390432858  0.4558409512063272   T   T   T
  0.5838248472713906  0.9375816538996452  0.4543238597533780   T   T   T
  0.9160995215710018  0.9375183113096414  0.4543285180885832   T   T   T
  0.4985116119263441  0.5000857424049979  0.5403032814468259   T   T   T
  0.8351300946135684  0.9375687180189591  0.5425688336388568   T   T   T
  0.6648161013568912  0.9377274621851218  0.5425768862273417   T   T   T
  0.4070505905542277  0.0000000000000000  0.2321160648471405   F   F   F
  0.2499999997239044  0.0000000000000000  0.1975324349659786   F   F   F
  0.0929494094457723  0.0000000000000000  0.2321160648471405   F   F   F
  0.1544227962345630  0.1249999998929567  0.3158353176496362   F   F   F
  0.0000000000000000  0.1249999998929567  0.3028242704748862   F   F   F
  0.3455772037654370  0.1249999998929567  0.3158353176496362   F   F   F
  0.4009974433250647  0.1250010029131486  0.4020740058625697   T   T   T
  0.2499866347368364  0.1250028673420227  0.3876177089907016   T   T   T
  0.0989495172373924  0.1249943974067718  0.4020845236338622   T   T   T
  0.1513680388212919  0.1249778968896312  0.4876982237660450   T   T   T
  0.9999401438392839  0.1249805236565624  0.4725103356549195   T   T   T
  0.3485746448388560  0.1250432495520311  0.4877352449276535   T   T   T
  0.4030507405300162  0.1251368861686660  0.5702375477645446   T   T   T
  0.2500164192291388  0.1250741735437763  0.5576949199259670   T   T   T
  0.0968937618585218  0.1250095263765705  0.5701909251123740   T   T   T
  0.4070505905542277  0.1249999998929567  0.2321160648471405   F   F   F
  0.2499999997239044  0.1249999998929567  0.1975324349659786   F   F   F
  0.0929494094457723  0.1249999998929567  0.2321160648471405   F   F   F
  0.1544227962345630  0.2500000002140865  0.3158353176496362   F   F   F
  0.0000000000000000  0.2500000002140865  0.3028242704748862   F   F   F
  0.3455772037654370  0.2500000002140865  0.3158353176496362   F   F   F
  0.4009853085037106  0.2499639752925815  0.4020210074704230   T   T   T
  0.2499575829124923  0.2499809378523959  0.3875690806854583   T   T   T
  0.0989292128510040  0.2499987572295782  0.4020849120552219   T   T   T
  0.1513441027750619  0.2499341508959093  0.4877129886407423   T   T   T
  0.9999248430014942  0.2499684589233998  0.4724907371501593   T   T   T
  0.3485041351082607  0.2500087639802043  0.4876418834595365   T   T   T
  0.4031761611865969  0.2502899023949080  0.5701169249796517   T   T   T
  0.2500442449081643  0.2501242708867057  0.5576578357758971   T   T   T
  0.0968256787401566  0.2499545556731626  0.5701707923715175   T   T   T
  0.4070505905542277  0.2500000002140865  0.2321160648471405   F   F   F
  0.2499999997239044  0.2500000002140865  0.1975324349659786   F   F   F
  0.0929494094457723  0.2500000002140865  0.2321160648471405   F   F   F
  0.1544227962345630  0.3750000001070433  0.3158353176496362   F   F   F
  0.0000000000000000  0.3750000001070433  0.3028242704748862   F   F   F
  0.3455772037654370  0.3750000001070433  0.3158353176496362   F   F   F
  0.4009311179133692  0.3749942015270071  0.4019794819070838   T   T   T
  0.2499374699938317  0.3750236573532350  0.3875236864421194   T   T   T
  0.0989554006953250  0.3749697795426919  0.4020710538261606   T   T   T
  0.1512823858422455  0.3749539246538013  0.4877400677433349   T   T   T
  0.9999469592298266  0.3749564771374847  0.4723913563847325   T   T   T
  0.3483635222011385  0.3748529198082227  0.4875546478909958   T   T   T
  0.4033424802736233  0.3754702660084333  0.5699485778735417   T   T   T
  0.2500186317899581  0.3751084117699920  0.5576666251887967   T   T   T
  0.0970979806777174  0.3749172442850338  0.5702963933140414   T   T   T
  0.4070505905542277  0.3750000001070433  0.2321160648471405   F   F   F
  0.2499999997239044  0.3750000001070433  0.1975324349659786   F   F   F
  0.0929494094457723  0.3750000001070433  0.2321160648471405   F   F   F
  0.1544227962345630  0.0000000000000000  0.3158353176496362   F   F   F
  0.0000000000000000  0.0000000000000000  0.3028242704748862   F   F   F
  0.3455772037654370  0.0000000000000000  0.3158353176496362   F   F   F
  0.4009860747118283  0.0000150458405919  0.4020805167568585   T   T   T
  0.2499821344165488  0.0000074950800726  0.3876281589014057   T   T   T
  0.0989546344448636  0.0000072592531153  0.4020844418357793   T   T   T
  0.1513850805586111  0.0000089606987468  0.4877211859791870   T   T   T
  0.9999419199713571  0.0000118927009552  0.4725254392046886   T   T   T
  0.3485831448561781  0.0000182975491357  0.4877540754430153   T   T   T
  0.4030678645655726  0.0000219327864249  0.5702390521027800   T   T   T
  0.2500068250555530  0.0000152527849868  0.5577169266204658   T   T   T
  0.0969115276289621  0.0000094221755969  0.5702119785459628   T   T   T
  0.4070505905542277  0.5000000000000000  0.2321160648471405   F   F   F
  0.2499999997239044  0.5000000000000000  0.1975324349659786   F   F   F
  0.0929494094457723  0.5000000000000000  0.2321160648471405   F   F   F
  0.1544227962345630  0.6249999998929567  0.3158353176496362   F   F   F
  0.0000000000000000  0.6249999998929567  0.3028242704748862   F   F   F
  0.3455772037654370  0.6249999998929567  0.3158353176496362   F   F   F
  0.4009230796013724  0.6250447943702961  0.4019695055620789   T   T   T
  0.2499360951969225  0.6249859318906713  0.3875218466660163   T   T   T
  0.0989634314761053  0.6250314621366136  0.4020713365404837   T   T   T
  0.1512843410940335  0.6250526265116650  0.4877409915034929   T   T   T
  0.9999574628379649  0.6250604259803638  0.4723897398404856   T   T   T
  0.3483628747828036  0.6251869292334551  0.4875502054410459   T   T   T
  0.4033265270370890  0.6245936091145748  0.5699474082530437   T   T   T
  0.2500090682005990  0.6249215042504493  0.5576657212681057   T   T   T
  0.0970987339766548  0.6250953710984768  0.5702975679967720   T   T   T
  0.4070505905542277  0.6249999998929567  0.2321160648471405   F   F   F
  0.2499999997239044  0.6249999998929567  0.1975324349659786   F   F   F
  0.0929494094457723  0.6249999998929567  0.2321160648471405   F   F   F
  0.1544227962345630  0.7500000002140865  0.3158353176496362   F   F   F
  0.0000000000000000  0.7500000002140865  0.3028242704748862   F   F   F
  0.3455772037654370  0.7500000002140865  0.3158353176496362   F   F   F
  0.4009777132644901  0.7500700232640742  0.4020130408389694   T   T   T
  0.2499563974969306  0.7500307688303360  0.3875657165515391   T   T   T
  0.0989396151358229  0.7500065211870631  0.4020858677623259   T   T   T
  0.1513484186841191  0.7500743372244899  0.4877131103035969   T   T   T
  0.9999454584927862  0.7500482765862351  0.4724904363236465   T   T   T
  0.3485006094109633  0.7500307923692306  0.4876361327306348   T   T   T
  0.4031846162715198  0.7497556937452183  0.5701035656151860   T   T   T
  0.2500422678936123  0.7499015114603163  0.5576555652075293   T   T   T
  0.0968318485376816  0.7500581096231274  0.5701729577730820   T   T   T
  0.4070505905542277  0.7500000002140865  0.2321160648471405   F   F   F
  0.2499999997239044  0.7500000002140865  0.1975324349659786   F   F   F
  0.0929494094457723  0.7500000002140865  0.2321160648471405   F   F   F
  0.1544227962345630  0.8750000001070433  0.3158353176496362   F   F   F
  0.0000000000000000  0.8750000001070433  0.3028242704748862   F   F   F
  0.3455772037654370  0.8750000001070433  0.3158353176496362   F   F   F
  0.4009895729277113  0.8750306061889783  0.4020715516880920   T   T   T
  0.2499830397448896  0.8750110184798521  0.3876167294326600   T   T   T
  0.0989553946607456  0.8750166249946596  0.4020845858522947   T   T   T
  0.1513755716490664  0.8750364732001920  0.4877006865458334   T   T   T
  0.9999554323708142  0.8750413264992146  0.4725102240593778   T   T   T
  0.3485759496598794  0.8749952467728725  0.4877315020131694   T   T   T
  0.4030591471916491  0.8749022985941947  0.5702273648114303   T   T   T
  0.2500220200865759  0.8749525811207213  0.5576953785857123   T   T   T
  0.0969005785118010  0.8750040818844512  0.5701938394016995   T   T   T
  0.4070505905542277  0.8750000001070433  0.2321160648471405   F   F   F
  0.2499999997239044  0.8750000001070433  0.1975324349659786   F   F   F
  0.0929494094457723  0.8750000001070433  0.2321160648471405   F   F   F
  0.1544227962345630  0.5000000000000000  0.3158353176496362   F   F   F
  0.0000000000000000  0.5000000000000000  0.3028242704748862   F   F   F
  0.3455772037654370  0.5000000000000000  0.3158353176496362   F   F   F
  0.4008927006709386  0.5000137076838942  0.4019968530468079   T   T   T
  0.2499199038360269  0.5000052130601856  0.3875316284670212   T   T   T
  0.0989766761924372  0.5000019877150282  0.4020591217653115   T   T   T
  0.1511781459360181  0.5000022725712104  0.4877170479959416   T   T   T
  0.9999806149597148  0.5000077956070963  0.4723241333083027   T   T   T
  0.3482923267924194  0.5000187812744266  0.4875510325064211   T   T   T
  0.4027430875760390  0.5000371064543178  0.5699784399679785   T   T   T
  0.2498912616702683  0.5000148343048346  0.5575891490239506   T   T   T
  0.0973555981781490  0.5000063930169977  0.5703927699301582   T   T   T
  0.9070505905542277  0.0000000000000000  0.2321160648471405   F   F   F
  0.7499999997239044  0.0000000000000000  0.1975324349659786   F   F   F
  0.5929494094457723  0.0000000000000000  0.2321160648471405   F   F   F
  0.6544227962345630  0.1249999998929567  0.3158353176496362   F   F   F
  0.5000000000000000  0.1249999998929567  0.3028242704748862   F   F   F
  0.8455772037654370  0.1249999998929567  0.3158353176496362   F   F   F
  0.9009658838719502  0.1250078461246382  0.4020867514532194   T   T   T
  0.7499744786725595  0.1250184017924282  0.3876096076008817   T   T   T
  0.5989489855080984  0.1249899410529774  0.4020993639921520   T   T   T
  0.6513517019863730  0.1249209446219667  0.4877692467196669   T   T   T
  0.4999325318713143  0.1250349134037564  0.4724887686418587   T   T   T
  0.8484996176478160  0.1249956942753437  0.4877324334563263   T   T   T
  0.9029695547417940  0.1250624158522348  0.5701721450031439   T   T   T
  0.7499022802909069  0.1251806385221988  0.5577836962594890   T   T   T
  0.5968311933486762  0.1248875809960402  0.5703003921118535   T   T   T
  0.9070505905542277  0.1249999998929567  0.2321160648471405   F   F   F
  0.7499999997239044  0.1249999998929567  0.1975324349659786   F   F   F
  0.5929494094457723  0.1249999998929567  0.2321160648471405   F   F   F
  0.6544227962345630  0.2500000002140865  0.3158353176496362   F   F   F
  0.5000000000000000  0.2500000002140865  0.3028242704748862   F   F   F
  0.8455772037654370  0.2500000002140865  0.3158353176496362   F   F   F
  0.9009518351789123  0.2500049534334320  0.4020618984772559   T   T   T
  0.7499694931777658  0.2499739914501041  0.3876146813111265   T   T   T
  0.5989571564341462  0.2499913662961160  0.4021711775224600   T   T   T
  0.6513051585417686  0.2498984353146453  0.4879116316077119   T   T   T
  0.4998702678905124  0.2500589855982540  0.4724733684199979   T   T   T
  0.8484948069607047  0.2499692110275379  0.4876961093441209   T   T   T
  0.9028864177291744  0.2499077358789213  0.5701861376714580   T   T   T
  0.7496651100827417  0.2506711123256567  0.5576575106315859   T   T   T
  0.5969409314410514  0.2499169583495487  0.5705778102901166   T   T   T
  0.9070505905542277  0.2500000002140865  0.2321160648471405   F   F   F
  0.7499999997239044  0.2500000002140865  0.1975324349659786   F   F   F
  0.5929494094457723  0.2500000002140865  0.2321160648471405   F   F   F
  0.6544227962345630  0.3750000001070433  0.3158353176496362   F   F   F
  0.5000000000000000  0.3750000001070433  0.3028242704748862   F   F   F
  0.8455772037654370  0.3750000001070433  0.3158353176496362   F   F   F
  0.9009298120687039  0.3749984771457366  0.4020097460917931   T   T   T
  0.7498666620016077  0.3750353803090132  0.3876840440934454   T   T   T
  0.5989550690038344  0.3750033117376587  0.4022673007229937   T   T   T
  0.6509377868044108  0.3745621586057319  0.4884765893537844   T   T   T
  0.4997039645547360  0.3748672170761749  0.4723086148363422   T   T   T
  0.8485426272042916  0.3748530785658170  0.4876192584196036   T   T   T
  0.9035893617090305  0.3747629706083034  0.5702282505679470   T   T   T
  0.7507013987094479  0.3756029472805000  0.5578508996648049   T   T   T
  0.5974310132059567  0.3747214623620125  0.5726470670428370   T   T   T
  0.9070505905542277  0.3750000001070433  0.2321160648471405   F   F   F