Ta  N Co Cu                             
   1.00000000000000     
    18.1096308199999996    0.0000000000000000    0.0000000000000000
     0.0000000000000000   23.3551997799999995    0.0000000000000000
     0.0000000000000000    0.0000000000000000   30.4818171199999988
   Ta   N    Co   Cu
   216   240    24     4
Direct
  0.9989556677230169  0.9998379296031885  0.1976595012038374
  0.3326615113768838  0.0622950773031974  0.2024418171080598
  0.1647323044950042  0.0624111932432214  0.2025870235846412
  0.2486794353969231  0.1247666968838530  0.2777682863097297
  0.0817113534295473  0.0623178825984922  0.2841180146056885
  0.4160007759765705  0.0623549185811498  0.2836227096059076
  0.9990996528113456  0.1245557081788604  0.3699545164555431
  0.3301997231727114  0.0620217848031928  0.3683677963188714
  0.1675671579342932  0.0621073972204655  0.3687681118577117
  0.2497963910537706  0.1268551276618837  0.4594399873750561
  0.0824067656759482  0.0613812921669918  0.4535146603704163
  0.4164087306466158  0.0619323005934760  0.4530386451392019
  0.0015549299600863  0.1282924669112191  0.5417720536585620
  0.3398938470281934  0.0692787005928537  0.5476645679646097
  0.1608909784495793  0.0662166807581315  0.5469559275356772
  0.9986349236028147  0.1252492862352668  0.1976673990997568
  0.3330422320637894  0.1877683162943740  0.2022923750842622
  0.1644173460961227  0.1877187921257288  0.2024835183887745
  0.2488442098018595  0.2498495417733224  0.2779813100202446
  0.0817166500930782  0.1871942927147927  0.2842164815846786
  0.4160439375567293  0.1873624440721855  0.2835218161745843
  0.9992833516967465  0.2492798570740149  0.3693641346804952
  0.3307908734719121  0.1868079523635870  0.3679824094022379
  0.1675023048501103  0.1869447140263105  0.3687436841627090
  0.2491753298043946  0.2485660140316526  0.4592026975681520
  0.0841466169353566  0.1869509153948883  0.4549006922583061
  0.4160629586873696  0.1859560591877454  0.4526175204814251
  0.0026927547483950  0.2539220521499317  0.5404774460447399
  0.9988754451345798  0.2499606446595593  0.1979813254083851
  0.3323570964115135  0.3131937123843471  0.2027799225949778
  0.1653404377871155  0.3128663331970500  0.2029858428442495
  0.2495908441871393  0.3749129992363649  0.2788362827188706
  0.0819423666274588  0.3123172197901951  0.2841982753198451
  0.4157823812971770  0.3127345056776534  0.2840310028891864
  0.9988075490746269  0.3747093743446470  0.3694897360186857
  0.3309338864632636  0.3119447102980857  0.3687786235174855
  0.1679829703491436  0.3120292833268792  0.3681584695081668
  0.2492686428731261  0.3759196540774496  0.4614605483770475
  0.0819514600710107  0.3118433055689422  0.4516154719970942
  0.4163149760726554  0.3103532010785202  0.4525096113034976
  0.0053098882371287  0.3776645917876067  0.5391720393307153
  0.9991035647367212  0.3756959181031618  0.1984767529304321
  0.3331808962270202  0.4379916120938603  0.2035979733873816
  0.1651123409771813  0.4377426224089831  0.2037356057540052
  0.2488349430130796  0.9998568640614209  0.2780982733201895
  0.0820999662533737  0.4374911178609437  0.2851383129268541
  0.4156344770469360  0.4376583533552250  0.2856091975263979
  0.9988818024913613  0.9996812426780792  0.3692915851604255
  0.3305209679957528  0.4370948814784299  0.3711664544423172
  0.1687519521728618  0.4376242052621606  0.3698240416630512
  0.2486995677636727  0.0004905204088743  0.4624827895775923
  0.0819322087710503  0.4367760558025822  0.4534412780247976
  0.4142074515154235  0.4353864106864691  0.4564021716338544
  0.0005507336254169  0.0004359811592707  0.5437177372425452
  0.9995013830637305  0.5007002276070764  0.1990629746026968
  0.3334280625553205  0.5629402320326875  0.2040822967980986
  0.1648839366947783  0.5628514704241283  0.2041706650659521
  0.2491896519456205  0.6246877427755422  0.2799982478105036
  0.0818770439636651  0.5623516232381078  0.2856887424664336
  0.4157594970872154  0.5624049012421253  0.2861983105604722
  0.9992491954650404  0.6245566035645425  0.3707861788496132
  0.3302467844560368  0.5618226165441840  0.3716192749709180
  0.1682949933940847  0.5623837492724562  0.3707292705516352
  0.2479883703109422  0.6247646769609574  0.4643215101652913
  0.0817753010849032  0.5616975949060574  0.4552784728822132
  0.4129706346267454  0.5632108739874653  0.4562328091864956
  0.9830302640185238  0.6052592044354839  0.5450943853321135
  0.9987441159002444  0.6249072478522777  0.1992444278184422
  0.3329425195623799  0.6870889154380251  0.2040223189339656
  0.1651277959706192  0.6872873611852199  0.2039840076984021
  0.2488004717048398  0.7498359040323095  0.2792519261410575
  0.0817986251914746  0.6873311009858227  0.2853749638684135
  0.4155748435114432  0.6873281851053292  0.2856600708321366
  0.9981588058969209  0.7497347158406527  0.3701546552601869
  0.3298138979392036  0.6872753731357761  0.3701170491862982
  0.1671591767904772  0.6874638711823096  0.3702093150871804
  0.2487117027724253  0.7522987607220983  0.4592065327438348
  0.0825147393115557  0.6879827290354683  0.4552298463739746
  0.4150729685518186  0.6886610924688057  0.4532776871869189
  0.9981797858156156  0.7424622609077431  0.5406915828069501
  0.9986976497647646  0.7499039847659503  0.1988480761030829
  0.3332721811854924  0.8120245606790064  0.2034466645413744
  0.1647271273576436  0.8121309004549602  0.2034048115009810
  0.2487453513700117  0.8749074745373662  0.2785037022735040
  0.0813735726766751  0.8124184876989204  0.2847661840492322
  0.4157726648809756  0.8123750166273922  0.2850347254087566
  0.9983496435452892  0.8747703466985115  0.3700281200843989
  0.3301276131126585  0.8127425825540868  0.3694009685386277
  0.1668904002671141  0.8127561321581922  0.3688489926597143
  0.2476259075518428  0.8741678631771137  0.4597729928535514
  0.0816133222251381  0.8134217775375063  0.4533742559612577
  0.4144526564201385  0.8138798317916596  0.4548299299333038
  0.9996778480244615  0.8669720998964578  0.5427085493247006
  0.9986554576248281  0.8744936238900820  0.1982266604820779
  0.3327837011107206  0.9372392162369252  0.2029185851681987
  0.1650640819466673  0.9370983953031242  0.2028629882843092
  0.2496545074956131  0.5000323690083945  0.2801926422827776
  0.0816620747425176  0.9374022111437199  0.2842156453357632
  0.4158934426484890  0.9373956025773396  0.2842965554096892
  0.9990771899425894  0.4995958154724534  0.3714684708105551
  0.3300285581689408  0.9377179253457157  0.3688060975787835
  0.1674289722947790  0.9377446427613378  0.3687796683577318
  0.2461149075827649  0.5003332234580071  0.4671166825959077
  0.0812763156424126  0.9379473419531266  0.4537387789129710
  0.4157639044818495  0.9389707447648519  0.4531206774232075
  0.0700043668747412  0.4985402013611733  0.5476179836327049
  0.3364062190297261  0.9360367163868588  0.5461246124877377
  0.1579740207114071  0.9319617644371121  0.5482137815780419
  0.4990144454191494  0.9996352935458432  0.1978564000162635
  0.8331331937709407  0.0621289709877999  0.2029966193244306
  0.6656031492434806  0.0621435451057764  0.2027184465373253
  0.7492704350284853  0.1247661574496135  0.2782607661718473
  0.5819517181822889  0.0623507769157001  0.2837866784760337
  0.9159634032475381  0.0622468195789025  0.2844053035094234
  0.4994335704133945  0.1246663658108815  0.3688797862917639
  0.8303248838174753  0.0617838019260333  0.3691408227048285
  0.6677979869298483  0.0620956900674017  0.3686202947863109
  0.7505995862940509  0.1260575650156497  0.4595218873648790
  0.5824857748310492  0.0615574499798797  0.4530581773930109
  0.9168294494596196  0.0611601076981643  0.4535835493289255
  0.4989444545190693  0.1291250779996034  0.5409032203967570
  0.8393549577865471  0.0654152180554277  0.5471407856106651
  0.6613620718423547  0.0662110065218400  0.5462085551914200
  0.4992057119420252  0.1251516627093849  0.1974322524308505
  0.8336123320363029  0.1873709891785040  0.2028388577864888
  0.6651313494057476  0.1876909049698838  0.2025100261284791
  0.7490389106223105  0.2498683911528872  0.2779912968932692
  0.5818302116061744  0.1873700215668848  0.2836239765901709
  0.9160441036839728  0.1871781199767284  0.2844420805176213
  0.4995422184226754  0.2490028405726576  0.3684609457096997
  0.8308735554869173  0.1868801741653812  0.3689601799570568
  0.6679723904522561  0.1869016534141821  0.3682578641594532
  0.7495601061975137  0.2477421225767529  0.4595741005569280
  0.5836923324266508  0.1862654275524847  0.4536142149323581
  0.9152403418323871  0.1864372199162148  0.4547276234413715
  0.5071189509268734  0.2529623341718619  0.5388114131767949
  0.4988266806615727  0.2502215051648520  0.1974441642877665
  0.8324898822795035  0.3125179115915344  0.2030300194012327
  0.6653906582857658  0.3128192463575843  0.2028941729383007
  0.7487303000057750  0.3752380732188314  0.2784965821942365
  0.5818164745513315  0.3125895503182932  0.2839015460621255
  0.9159160183099289  0.3124346510467007  0.2842350749981364
  0.4987273761600548  0.3748463681606395  0.3696944583155499
  0.8305765544130210  0.3118378497863361  0.3687005080395949
  0.6675476306182873  0.3122223173252507  0.3681691139581105
  0.7452128211510498  0.3720657788244921  0.4593922496271503
  0.5825241862214199  0.3115453812863223  0.4511856011145952
  0.9154959483746339  0.3112417942598142  0.4524901219650133
  0.5268979885534151  0.3762505141347532  0.5387805105551209
  0.4989636768882235  0.3759285472535439  0.1983299843306057
  0.8328230900025133  0.4379180342232871  0.2032959100516862
  0.6647158251729124  0.4381741834781181  0.2036071420779848
  0.7489450114826823  0.9996815607996723  0.2783784586879463
  0.5814106343206902  0.4377337097026484  0.2852537145837033
  0.9159326585770771  0.4375689405761776  0.2847158651736805
  0.4989439916740182  0.0000341373582060  0.3688502153975932
  0.8296353735627022  0.4372085147607194  0.3691955210415045
  0.6669628645527439  0.4377710756695379  0.3695571514322822
  0.7502056817283744  0.9996862570958811  0.4623811574687764
  0.5832621782060698  0.4368134305163451  0.4551730410630057
  0.9145073855413344  0.4368020518800435  0.4537878228726910
  0.4996640264789960  0.0014696243822101  0.5435333293122397
  0.4986232328554223  0.5004561303440340  0.1992316366899090
  0.8332418026592663  0.5628675202169617  0.2038079063524165
  0.6645333579626964  0.5627583999997015  0.2041514698629427
  0.7483080938214854  0.6250804880301430  0.2801311123187347
  0.5814323114714810  0.5625100185674441  0.2860782578865155
  0.9158932851661703  0.5623410939476301  0.2856328249051501
  0.4984071112076549  0.6249460255827657  0.3712208026050732
  0.8290867057019540  0.5618382157172235  0.3702712080220678
  0.6662340217415093  0.5626025613725787  0.3712730109898175
  0.7447475215033776  0.6215529051739210  0.4637836772166253
  0.5817739210486437  0.5649467376082953  0.4576022325944464
  0.9122530529212014  0.5614829227509404  0.4552467491285412
  0.4593199815711060  0.6167354197081210  0.5473552426986927
  0.4989442188558115  0.6245507267165067  0.1993707110703937
  0.8327426636904036  0.6874928396155227  0.2040237970083041
  0.6649608044143989  0.6873533108641610  0.2044121825669407
  0.7486677287622001  0.7497022347754339  0.2797062896478621
  0.5815634757946810  0.6873899662422218  0.2857474162413851
  0.9156133259668238  0.6872771766846597  0.2854109894929167
  0.4988187411114211  0.7505903857814644  0.3705425134989895
  0.8297370986579864  0.6868724829302053  0.3700469108687230
  0.6664170584743871  0.6876306881386967  0.3705517618660963
  0.7467920166066833  0.7507467437476052  0.4617189742767849
  0.5804756089742398  0.6881903237759701  0.4547522655105567
  0.9148401943791882  0.6865676185893150  0.4533411246561698
  0.4970692017888751  0.7497286547331825  0.5431516464917436
  0.4988175384129505  0.7496096861898138  0.1989875245464390
  0.8329783641904029  0.8121459071527823  0.2036939231045665
  0.6647645267267421  0.8118904427497640  0.2038178014990137
  0.7488881239331207  0.8747216060015717  0.2791015955136373
  0.5815574789997981  0.8123192095405756  0.2852628012323777
  0.9155449586240181  0.8123310302859323  0.2851621827433775
  0.4988577560015415  0.8753389955951576  0.3700610462762128
  0.8299384850025575  0.8118852858119467  0.3701022398168448
  0.6668793340794252  0.8126332934278651  0.3700834103699506
  0.7496960805925923  0.8733311867832896  0.4601060215263146
  0.5824746093204851  0.8136147478423510  0.4554819736521907
  0.9139822014728480  0.8117353726162619  0.4555809832887263
  0.4986481495175639  0.8726690965857742  0.5419492016702989
  0.4992500733417060  0.8742517083947234  0.1985684088264676
  0.8327254901346137  0.9373588762708778  0.2032208896052268
  0.6653316726180876  0.9372060555231201  0.2031528975457348
  0.7483042729324083  0.5001155112313924  0.2794140079515515
  0.5819209345209515  0.9373268817709715  0.2844227372993160
  0.9157209358637814  0.9372353413383578  0.2845054684077724
  0.4983369446834729  0.4995971473218503  0.3717390437545873
  0.8301825467629698  0.9371152037979513  0.3693520608778726
  0.6675914939026200  0.9376221644141083  0.3691485451469561
  0.7491194874106313  0.4986586480175248  0.4628309371167632
  0.5820731830933497  0.9387735047140211  0.4534301606637712
  0.9157340618921097  0.9372967022342067  0.4537827654363156
  0.5048818714914063  0.4994529836632395  0.5438437922492341
  0.8400832308592641  0.9316286444840856  0.5481185760905873
  0.6614187264456675  0.9357263053105953  0.5465904264120169
  0.4042395950149640  0.9997805245063773  0.2322319803015063
  0.2487143219530239  0.9997482417228838  0.1989050535061381
  0.0934443970276391  0.9998105378101272  0.2323335753411158
  0.1542438838553934  0.1245460347169214  0.3159925840803623
  0.9989730464175395  0.1246784878996223  0.3032630480046024
  0.3436015402299262  0.1246025157508370  0.3154919398386014
  0.4001185905279527  0.1240004985573080  0.4009490005187573
  0.2491092702856292  0.1245565517319847  0.3894364991712180
  0.0985045357225829  0.1245818538849264  0.4020252946646679
  0.1485755626658261  0.1210801937466428  0.4882963705899002
  0.9999376045438595  0.1242499822903582  0.4735212709534835
  0.3515892869419659  0.1224582066362316  0.4882166487508712
  0.4042334559290737  0.1312087646202116  0.5713875582611934
  0.2499748980535443  0.0905535376544719  0.5765034690416613
  0.0967530572397592  0.1298633520202657  0.5710726841829938
  0.4042452102117053  0.1249718228039711  0.2318008352478742
  0.2488463204344384  0.1251292949202778  0.1993818356663226
  0.0933393726336860  0.1249173201850269  0.2323154428002994
  0.1543023140384960  0.2494677485038679  0.3158652680693805
  0.9989528904753797  0.2496665670368259  0.3028758717957345
  0.3437336503022763  0.2496574267323339  0.3155506713467346
  0.4005986175032135  0.2481312263427498  0.4003320412919464
  0.2491266038208835  0.2492064475613560  0.3893630133209243
  0.0984547919358008  0.2484311911770050  0.4013528209422859
  0.1476743819126369  0.2527926205254332  0.4868771724860750
  0.9997179508433263  0.2485814168588050  0.4727693083843576
  0.3523856186410939  0.2474625416127907  0.4834789474252332
  0.4063828346813310  0.2579736967235604  0.5609360276640558
  0.2498672465940501  0.1892867899964870  0.5113064280022925
  0.1042090075044726  0.2548568537925746  0.5653121702141704
  0.4040391698464134  0.2502897380182674  0.2318854963622172
  0.2489563761957996  0.2501137467702677  0.1994792328996198
  0.0935896928777211  0.2499580077606609  0.2324835368226843
  0.1549162431467224  0.3749789869366893  0.3161779819164821
  0.9989278434584534  0.3748628203723783  0.3029142852157918
  0.3438806354762889  0.3750690311356877  0.3169520512521586
  0.3999927735433957  0.3743764679020174  0.4023142149379666
  0.2490136291169094  0.3746498565992908  0.3909374022186327
  0.0983817294769906  0.3748052632425996  0.4002278833851776
  0.1455178095332599  0.3709682126681173  0.4834838753920110
  0.9975776314029048  0.3750919488938891  0.4719365357476946
  0.3524138438964215  0.3671709741895555  0.4859548363175747
  0.4257162810457942  0.4066245577158440  0.5500046180941567
  0.2523757880758168  0.4350115315498115  0.5159782271337860
  0.1062680844360600  0.3982913011383644  0.5612382169553598
  0.4041982089155667  0.3756298952541499  0.2328533264375139
  0.2489835500473845  0.3757624309788099  0.1985817095910818
  0.0939295819591663  0.3752578689151491  0.2329544749984649
  0.1540511320607862  0.9998604426294548  0.3159609307681421
  0.9989188209412774  0.9997777284547169  0.3028519131241225
  0.3437520558615574  0.9998499579238498  0.3157739454253772
  0.4000830187641995  0.0001738549103578  0.4011139819928715
  0.2487939252553915  0.9998748324636253  0.3898355238168492
  0.0974795714289627  0.9998871716788216  0.4016339178361363
  0.1433887844088133  0.9995599838265150  0.4872981850165914
  0.9990796093555474  0.9994727795698637  0.4745715310465570
  0.3541491097225844  0.0007362329554041  0.4869359561761044
  0.4025496287081651  0.0015650162094829  0.5727309330030792
  0.2489524996610015  0.0013312154973875  0.5345342117274257
  0.0968178867701255  0.9997807379138095  0.5735074067766206
  0.4040621927210069  0.5003643663457993  0.2341595583335234
  0.2490931623398609  0.5004411820148462  0.2022784628386702
  0.0940289102854308  0.5002726055998679  0.2338708980698314
  0.1544711080092540  0.6247655126834744  0.3175547173960283
  0.9987129904158962  0.6247112861291342  0.3042355343191048
  0.3431925712698174  0.6246891729049082  0.3179445034490556
  0.3992110916678584  0.6246308356052666  0.4026449248859763
  0.2486804886295317  0.6247548720043028  0.3936155857258115
  0.0980464654127360  0.6246897930613358  0.4031954144877048
  0.1443180087860014  0.6311623527455836  0.4885833688366361
  0.9957375450526058  0.6206118189331633  0.4766557309155601
  0.3526580128784644  0.6292958361759631  0.4871074710756105
  0.3637347329732705  0.6345400982647433  0.5731899198775920
  0.2498138790167630  0.5669144535443280  0.5191130462958569
  0.0965188468078040  0.5853428266283203  0.5579721632599188
  0.4042763594516785  0.6248238993951105  0.2341016327618419
  0.2489575752759734  0.6248766822761169  0.1999175995845448
  0.0936035482900124  0.6250369772009492  0.2338630951761900
  0.1538808873599322  0.7499767227883325  0.3166818776995513
  0.9984821030699393  0.7499056224227871  0.3037155060530523
  0.3434499052712354  0.7498692759310117  0.3169602647954122
  0.3996174950926985  0.7512285376444297  0.4020927015264064
  0.2483490204172369  0.7503976532775454  0.3898938617160539
  0.0971359832476395  0.7505167490180042  0.4016001770064648
  0.1461695092646025  0.7532922211184570  0.4833869551669778
  0.9981292361229492  0.7488186438196536  0.4742891151027635
  0.3502683917384530  0.7509907334642065  0.4856019639624307
  0.3926011608177475  0.7523105386354274  0.5652078209474638
  0.2476160078488832  0.8123251154057556  0.5112168574857918
  0.1029207098059857  0.7371465284015954  0.5597873554750876
  0.4042303064739912  0.7496244211503793  0.2335569641022985
  0.2490250122683335  0.7497196691289147  0.2009698094763195
  0.0934830879647706  0.7498752035909533  0.2333223097629613
  0.1539939439463112  0.8752960455512877  0.3162906304306361
  0.9986289786957485  0.8749346636247139  0.3033702679576962
  0.3433494122934491  0.8749905198151140  0.3164504520939673
  0.3995218090837582  0.8757026727852093  0.4019661156140515
  0.2485569850335096  0.8754429510799042  0.3897893700095594
  0.0977056739105180  0.8756597447325163  0.4017392535152879
  0.1459100884542934  0.8778470067474231  0.4886615543918822
  0.9979342327164744  0.8747894330546160  0.4744519785514996
  0.3495495943614912  0.8802748542849699  0.4879322401693216
  0.4023455031851384  0.8735976462439226  0.5706262330499001
  0.2490958342613183  0.9114472081241800  0.5767358395417261
  0.0940905212383996  0.8699758743712920  0.5725708276653521
  0.4042425368344666  0.8746193249770187  0.2329522837343845
  0.2490767467693829  0.8745101398843360  0.1997119266871934
  0.0934258828518821  0.8747224752346554  0.2327705337590018
  0.1548146263189523  0.4999185088710902  0.3174285243130157
  0.9988185319145444  0.4997594375898089  0.3044127687898879
  0.3437844209351724  0.4997929075736423  0.3185132210447108
  0.3996078581509153  0.4986351767207822  0.4039864359428691
  0.2491760094818858  0.5000793513860984  0.3940771515836161
  0.0995574802687571  0.4997763771267998  0.4019543067120708
  0.1361973869654065  0.4986243727656543  0.4900969492010105
  0.9990997540764397  0.4994074065732619  0.4682766976225210
  0.3545146994529773  0.4983873503757863  0.4865811553358910
  0.4166824020621291  0.5290738232308243  0.5704547494979693
  0.2724395485186051  0.4956031736726700  0.5815134412371989
  0.1366944025308712  0.4942536625587906  0.5984140369192659
  0.9048196362874776  0.9997113353599971  0.2326437175105553
  0.7491861901830745  0.9997597173656061  0.1984043076642266
  0.5937949591305696  0.9997448934557269  0.2323105282447386
  0.6543899646075033  0.1246373562536789  0.3157466676972263
  0.4989567984281180  0.1248402114801124  0.3023579358388844
  0.8435426132624002  0.1245206453626153  0.3164374194440001
  0.8999656563251222  0.1241518439303277  0.4021470971553214
  0.7490336225110639  0.1244991609168622  0.3895066758127470
  0.5984098594474716  0.1243159588697864  0.4013903942763903
  0.6486404342676408  0.1206715614601421  0.4877805531752983
  0.4998297075738662  0.1239987517022314  0.4725648250057191
  0.8517790657812654  0.1207495034564019  0.4891027400229930
  0.9066355293268700  0.1266463649258043  0.5715782025141181
  0.7505987475722691  0.0898888303428649  0.5762697967637678
  0.5939956474578310  0.1278834985601094  0.5703794993256963
  0.9044611706534269  0.1247711311541551  0.2327366461942120
  0.7492297079074817  0.1249781037378597  0.2002197477536640
  0.5939211804736928  0.1248794341278554  0.2319934756569069
  0.6542697465537088  0.2496066728552790  0.3154616214362846
  0.4987656233663174  0.2498270443702708  0.3021052849579391
  0.8436105930939348  0.2495316032398023  0.3160476062502795
  0.9004872675973559  0.2485070914059264  0.4014660551629419
  0.7492533053134451  0.2491987083251033  0.3896677634686441
  0.5985638203252961  0.2482960195882669  0.4002447819552444
  0.6467941552464964  0.2498756594630294  0.4856142018197360
  0.5004807223131351  0.2482978059015224  0.4717134938350540
  0.8522452846155701  0.2505657728188240  0.4866588405174852
  0.9012193279679863  0.2491154418019192  0.5657415753273014
  0.7496587850354430  0.1877612631128969  0.5113612253865867
  0.6098738246739899  0.2482232110991234  0.5667573165370214
  0.9042150592697951  0.2499247438491849  0.2326395110331347
  0.7491920323991366  0.2499043013736326  0.1991474921545020
  0.5935817943055639  0.2501206355999628  0.2319634147029603
  0.6541626835585532  0.3752253895276780  0.3161081058223232
  0.4986348279888730  0.3750451502705943  0.3031154675579302
  0.8434089112451133  0.3749711565866676  0.3161201723156850
  0.8993231741844596  0.3748978704592218  0.4011457170758703
  0.7483349977372029  0.3744222283134206  0.3897928449188157
  0.5981008101574119  0.3754011971924101  0.4009155552447439
  0.6414575219488228  0.3718120857702587  0.4872169260245229
  0.5012310511687801  0.3741306943771221  0.4715608708444137
  0.8495311963089094  0.3700985655342279  0.4855398602201078
  0.9045916058305110  0.3752216784657563  0.5642921959179859
  0.7510108825080195  0.4326875143698459  0.5103729027063295
  0.6301640060471456  0.3717116105913689  0.5770415260096087
  0.9040588710205526  0.3753163491248870  0.2326267496311871
  0.7488945452276070  0.3755277940243644  0.1997022802662940
  0.5936621015381007  0.3756553191978327  0.2328041503370955
  0.6540710784596584  0.9998400801617180  0.3160642576562438
  0.4990207408056477  0.9999612311294399  0.3024460048165309
  0.8436039219213072  0.9995588899840655  0.3163196347315207
  0.9002998728006446  0.9994266126607911  0.4019083105333934
  0.7490485739484711  0.9997957297188123  0.3902623781619283
  0.5977168742431118  0.0000168279149690  0.4013351134549623
  0.6445392658044824  0.0002923955125311  0.4872262656383768
  0.4991395607047622  0.0003164174185528  0.4741802661957237
  0.8551755282825297  0.9992041362949138  0.4875147227998724
  0.9038819390392590  0.9980672047599199  0.5733971847945440
  0.7506710432889676  0.0001231822648720  0.5347985729616695
  0.5967043922323327  0.0011328104692296  0.5729233742292195
  0.9042337692767504  0.5003373576099577  0.2332341100288033
  0.7489926930167314  0.5006303566675285  0.2008107048684380
  0.5932568646736200  0.5004509191231037  0.2339440319191297
  0.6536757428603508  0.6249485686474898  0.3180602127862215
  0.4984938148259772  0.6251345594998554  0.3046542300715345
  0.8431505824357046  0.6246399665549234  0.3174567528482442
  0.8997116801171856  0.6237759636001030  0.4020152341802614
  0.7476569252958001  0.6242747652733698  0.3931706501708447
  0.5969981210935131  0.6249794732814706  0.4038544181832222
  0.6417190454784674  0.6295067577861531  0.4911440563649023
  0.4945864777051696  0.6247744656772127  0.4771518613352157
  0.8488512544199409  0.6282254673861303  0.4847069803590074
  0.8812645804464694  0.6158467699431753  0.5661532645789151
  0.7542741665320278  0.5595884505880804  0.5171437992949137
  0.5347064624356719  0.6644057933859955  0.5783815118516031
  0.9039725614397440  0.6249157038229214  0.2338500865310209
  0.7489105869405037  0.6250417999811972  0.2015826462222279
  0.5934189330539752  0.6249289445913675  0.2342183323868667
  0.6538872886505018  0.7500770883537058  0.3175081492614282
  0.4986708335746357  0.7500389150741142  0.3040346598208430
  0.8433964824571163  0.7497194631761985  0.3173838624728518
  0.8993870734978842  0.7499248016211482  0.4025795511818302
  0.7480903708302762  0.7497553248014412  0.3916627713375149
  0.5972421852802725  0.7514521921968225  0.4032088901397373
  0.6446114873688060  0.7484441927618377  0.4891741814028236
  0.4977514707174677  0.7520668380818591  0.4750533837968192
  0.8493753805685742  0.7472688175804336  0.4870227504868865
  0.8952652395837717  0.7434997772267025  0.5652941365114330
  0.7482074600908746  0.8121298230720342  0.5123399442559915
  0.6020762781292532  0.7599123596237405  0.5685636755699051
  0.9040775185763366  0.7497296458639653  0.2335237885055861
  0.7489209481190287  0.7497945018762522  0.2001902427342515
  0.5935209436833233  0.7496348806265232  0.2336854000553430
  0.6540579220200797  0.8749449533320330  0.3168739985909284
  0.4986810170425784  0.8749063295140260  0.3035100211748230
  0.8433662962799673  0.8746604049669884  0.3169794821116909
  0.8993089320496281  0.8743640109703321  0.4025451718768167
  0.7486640738349735  0.8748134436007575  0.3902576844499066
  0.5978878825669867  0.8754432834243175  0.4024502370966943
  0.6479879400076030  0.8801434090993681  0.4885591454882601
  0.4985419804570057  0.8766051271602606  0.4736802469156061
  0.8507960669928281  0.8776950406665094  0.4891152792205347
  0.9041074371955418  0.8688733234414912  0.5717061862285462
  0.7498972406578304  0.9112334206614321  0.5771311836641573
  0.5938432522727126  0.8753231934926617  0.5709876311557736
  0.9041925513186584  0.8747069264059633  0.2330602387018175
  0.7489423494272600  0.8745331464466517  0.2008049008588486
  0.5938105821740933  0.8745305850668785  0.2332589027215661
  0.6539363618999587  0.5002229681407897  0.3175039507691579
  0.4986495156150212  0.4999603351665698  0.3051111892965181
  0.8432106779785116  0.4998179212249312  0.3168796754384289
  0.8981122397648633  0.4991308139307904  0.4018555449568737
  0.7479825015765655  0.4994977850583098  0.3914797173778766
  0.5972789254791309  0.5005889529530165  0.4034580968211543
  0.6417443148884132  0.5013144969520411  0.4878909266934386
  0.4990935841914279  0.4994064193811596  0.4757061376705991
  0.8560031523320077  0.4982755354092276  0.4883229680981813
  0.9641652812288868  0.5230621460078240  0.5564929223187747
  0.8055616045286556  0.4753927466636227  0.5764869585815688
  0.5923215169264680  0.5244028357241177  0.5798447662800683
  0.3637786371584468  0.1959195886320657  0.5316713651027172
  0.1391570207762314  0.1927699037628017  0.5335471404643357
  0.3926078353284055  0.3304048283894403  0.5365169291243532
  0.1273991044911753  0.3198554656169605  0.5325593534798614
  0.3428801104659840  0.4659349184877470  0.5452514601078136
  0.1943815111851777  0.4405703578933995  0.5676511668171926
  0.3236021587967812  0.5636107537557677  0.5656439217449787
  0.1928392010599751  0.5486778829486667  0.5697831548094001
  0.3589451462320099  0.6931561787194909  0.5324397181911920
  0.1078018312599767  0.6634257734667273  0.5428230563596372
  0.3605193710183769  0.8120594891342563  0.5331397884428384
  0.1354742307990122  0.8038310780637232  0.5322494935843025
  0.8647825043174677  0.1895340177089793  0.5335668744803002
  0.6385106756325243  0.1857723857174989  0.5328220166793258
  0.8743711818074900  0.3126178565527837  0.5343713056560944
  0.6411352206635854  0.3094272503011553  0.5298858240053050
  0.8490676026391029  0.4293432167033018  0.5343009625136546
  0.7314409595959930  0.4287428478933037  0.5680473912536215
  0.8520288412490800  0.5375523409633658  0.5483509286565607
  0.6763749321774313  0.5242672844137175  0.5430842255490873
  0.8637813693075245  0.6821768818840752  0.5331065004637239
  0.6136232430897124  0.6912794641018820  0.5353903099742610
  0.8616292738236595  0.8051447813256232  0.5344896203844200
  0.6379296980168547  0.8156140759275985  0.5330528122398874
  0.5906474633170831  0.7135357998867349  0.6186684103527185
  0.5907809368538040  0.5998365987993708  0.5968926330233657
  0.6141862541513063  0.3046647771034756  0.6102368535073381
  0.6083621662589067  0.4470368801169400  0.5883613684439197
 
  0.00000000E+00  0.00000000E+00  0.00000000E+00
  0.00000000E+00  0.00000000E+00  0.00000000E+00
  0.00000000E+00  0.00000000E+00  0.00000000E+00