Ta N Cu Ru                              
   1.00000000000000     
    18.1096308199999996    0.0000000000000000    0.0000000000000000
     0.0000000000000000   11.6775998899999998    0.0000000000000000
     0.0000000000000000    0.0000000000000000   23.4818170799999990
   Ta   N    Cu   Ru
   119   120     2     1
Direct
  0.9993354543951439  0.0001794366810515  0.2550725331290224
  0.3330560365558122  0.1250558783771453  0.2637706341477123
  0.1659089167161962  0.1250774779405301  0.2638950824853633
  0.2493338344690805  0.2500641584486965  0.3611784029455918
  0.0820045335653294  0.1252088818522143  0.3686483788213657
  0.4171472778887504  0.1250387398810513  0.3683323254897839
  0.9997914915360893  0.2501445652835537  0.4802084588404958
  0.3317156092842499  0.1249754460805027  0.4777959418435739
  0.1671576133777947  0.1249032505253420  0.4783477506189156
  0.2498947842124352  0.2471180819350680  0.5907729791386583
  0.0835546861522403  0.1249199314445521  0.5902001022072189
  0.4167326878057653  0.1235093705160149  0.5889967995951357
  0.0010844522859782  0.2501817702248920  0.7023220774493559
  0.3320924091779484  0.1237737690672631  0.7044923771430519
  0.1632156396675236  0.1239144190925761  0.7040434882070806
  0.9994683105579603  0.2500581275572029  0.2551180230450398
  0.3329610599351445  0.3752503284172093  0.2637877778602534
  0.1658652655813884  0.3752772600068019  0.2637719075666797
  0.2493132297674937  0.5001253703318129  0.3611351294941424
  0.0819642464451508  0.3751484353483697  0.3685953140333990
  0.4172865579683706  0.3750553083199437  0.3683825904286181
  0.9997779274845607  0.5000386918186644  0.4802037364060381
  0.3320444995108984  0.3749548382374310  0.4777337431523661
  0.1669233228088728  0.3750216681292822  0.4781735197975777
  0.2498134255315963  0.5025382502463911  0.5907394701173428
  0.0840981993020299  0.3749339197027773  0.5907044345215102
  0.4142138981398791  0.3747874066152098  0.5896320417117471
  0.0009757480815826  0.4995463886417025  0.7023199420943966
  0.1658206772851921  0.3746766437427655  0.7058478261384818
  0.9993579987452023  0.5003700500549579  0.2551208695191984
  0.3330624251144655  0.6250364170688556  0.2637721224437579
  0.1659122426750108  0.6251387702082107  0.2639025878234990
  0.2494046828915983  0.7500093836570293  0.3612215285676653
  0.0819873982841262  0.6250957690758223  0.3686513992324593
  0.4171432500663322  0.6250782261231117  0.3683420658780904
  0.9995757668053592  0.7500296699220289  0.4800652610138009
  0.3316963006929730  0.6249244037308833  0.4777701879199271
  0.1671416676655258  0.6251447886799929  0.4783346605009939
  0.2495627730020565  0.7496055153608305  0.5907583369440161
  0.0835198582720208  0.6249775948837194  0.5901967437624985
  0.4166829905397401  0.6260792506653866  0.5889451223634921
  0.9998637825808950  0.7496954646443487  0.7022818738119084
  0.3319661009768258  0.6253643204251276  0.7043812050252005
  0.1631056290208187  0.6253495649216677  0.7040735388263458
  0.9994372569140544  0.7502513093912615  0.2550795641506979
  0.3332572290504282  0.8752419143095924  0.2636802199731851
  0.1658925550077084  0.8752862145626147  0.2639469420068807
  0.2494083780917152  0.0002142208561445  0.3611793090234617
  0.0820512755939722  0.8751547569905467  0.3686598189341019
  0.4171117485979727  0.8750571158673478  0.3682991877631260
  0.9996026951011284  0.0001790375301169  0.4800652397549460
  0.3318825002789926  0.8749588074098181  0.4777548726987722
  0.1668645043156504  0.8750355437422684  0.4782297955929421
  0.2496105926461420  0.0000735856149415  0.5907686705763709
  0.0834408064103164  0.8749617577170422  0.5901842702923092
  0.4161226246834473  0.8748234484744898  0.5895605213872629
  0.9999047603437766  0.0000699175661316  0.7022802104030696
  0.3349204681386678  0.8745516524478598  0.7037638068451317
  0.1641068377778616  0.8746131346454482  0.7042580751691575
  0.4999116841561377  0.0001866270554477  0.2550461257928481
  0.8332007685473539  0.1252754996450674  0.2640767197680330
  0.6660553545817768  0.1252494086191893  0.2639947962177775
  0.7495190133665601  0.2501756225657931  0.3614723107661490
  0.5822904712093984  0.1250527939459888  0.3687456802247729
  0.9169574790500805  0.1252147074538061  0.3687860688480469
  0.4997071531395100  0.2501049773630199  0.4799000614156055
  0.8318363443616197  0.1251676744531816  0.4783680329558974
  0.6668778556463514  0.1251179360596560  0.4786681945534198
  0.7497374470686952  0.2500680137058670  0.5913919202488908
  0.5833698448627411  0.1247646492645833  0.5905875022786701
  0.9161873578101856  0.1250703165348027  0.5898034206540212
  0.5000860040672139  0.2485022286246432  0.7024934875175257
  0.8359396210383870  0.1253865907942163  0.7042084443819275
  0.6656929524971695  0.1232531446444113  0.7044537871326216
  0.4998212969440353  0.2502070499953198  0.2550790089486994
  0.8331910561533646  0.3751367870784572  0.2640574499644962
  0.6660921976686831  0.3751305202513125  0.2640075807685726
  0.7495065919635411  0.5001507283640368  0.3615099621459828
  0.5822975922513028  0.3750798254120517  0.3688171832575974
  0.9168579945148176  0.3751696522102536  0.3687213916733237
  0.4997132422601588  0.4998069835950780  0.4799080877114485
  0.8316689990440506  0.3751167746808687  0.4783772725433023
  0.6666338064713385  0.3750339108082529  0.4788055806854114
  0.7497185803796075  0.4998854174159744  0.5914126020875741
  0.5830820784928904  0.3748420288972505  0.5908928738733360
  0.9162287710422030  0.3750480784665780  0.5898884400163116
  0.5001340638881624  0.5008974774329576  0.7024238271813376
  0.8368653017592746  0.3749663020216830  0.7042708947035881
  0.6684719900114137  0.3747727617847932  0.7025507058313920
  0.4999373045921556  0.5001066363788463  0.2550875654075019
  0.8332147130128923  0.6253124027849251  0.2640742523082758
  0.6660292302146981  0.6252941899787617  0.2640080997266878
  0.7495037914258258  0.7500302452056231  0.3614814959547342
  0.5822769134561310  0.6251169685498535  0.3687697198253415
  0.9169464244753365  0.6251494229114598  0.3687884078409116
  0.4997286709246240  0.7498879517524690  0.4799208401419540
  0.8318315718894086  0.6250834903376532  0.4783797968158207
  0.6668824525455248  0.6249737814704376  0.4786951271729550
  0.7498281317802540  0.7501182658296455  0.5911558023294459
  0.5833513407702109  0.6249391361091947  0.5905898824346382
  0.9161598221866144  0.6250241489231627  0.5898119354157458
  0.5002365043576414  0.7484579786843826  0.7025465819421206
  0.8359198470608175  0.6245931997891410  0.7042536403446426
  0.6656590310410451  0.6262675101218623  0.7045154211084093
  0.4998146337532407  0.7501031569464012  0.2550596692609590
  0.8332832380617928  0.8751711512865062  0.2640894428585318
  0.6659075654897951  0.8751092940559644  0.2639601630516848
  0.7495152279139576  0.0002861593307269  0.3614969856330776
  0.5822795149212949  0.8751036744591251  0.3686978746072502
  0.9169440739373669  0.8751711106076853  0.3687761126370259
  0.4997290583202272  0.0000394014479783  0.4799153387642612
  0.8318313501605756  0.8751307350267188  0.4783185677794020
  0.6670477662368872  0.8750388042140904  0.4785295873812671
  0.7498329399789740  0.9998392754604172  0.5911424265105691
  0.5834536463090702  0.8748500048835562  0.5901587798288129
  0.9162757312872774  0.8750524906670325  0.5899528493216410
  0.5002420666611151  0.0009357480452591  0.7025778561127152
  0.8352442312092044  0.8750067821800283  0.7041414682624343
  0.6647814290466216  0.8747513322423736  0.7045303787331566
  0.4064985001311827  0.0001401314810747  0.3011192374037025
  0.2495395752803410  0.0001249566801333  0.2577876857844513
  0.0926207880949473  0.0002392118765716  0.3013807196547133
  0.1540896635629927  0.2500767547661472  0.4101028302767628
  0.9995269781224756  0.2501835268216934  0.3935226846279952
  0.3449516089207978  0.2499926870203365  0.4097282624085779
  0.4006999354146483  0.2502332699585930  0.5218633957704326
  0.2497063850589613  0.2500946852470493  0.5029067206745417
  0.0989247420394858  0.2499291596472510  0.5223328003017986
  0.1519497732992926  0.2497084372891368  0.6337706878323707
  0.9999922003874471  0.2501160095704102  0.6136125282804490
  0.3479522115598774  0.2452587850276125  0.6318459995040832
  0.4004388218639338  0.2426218422092702  0.7430964691970281
  0.2499846735154651  0.2506086813633976  0.7257378419221802
  0.0977042849730191  0.2497565587413108  0.7413357138529488
  0.4064178661675823  0.2501828612051444  0.3011497044320613
  0.2494709714896418  0.2501690327723456  0.2580842076356948
  0.0926656080790918  0.2502330127275469  0.3014250569504179
  0.1540734822082895  0.5000974299954051  0.4100943156744903
  0.9995022914013335  0.5001420802590237  0.3935227679113153
  0.3449407923016433  0.5000219191900502  0.4097117209618752
  0.4006821964111582  0.4995054042982795  0.5218413883976097
  0.2496856849328198  0.4998372147622721  0.5028804400571684
  0.0989091894126394  0.5000656827269526  0.5223239164530313
  0.1519007943162300  0.4999895698531662  0.6337730386686469
  0.9999587207679095  0.4998397036740085  0.6135948917335284
  0.3479048181548308  0.5042231600579508  0.6317619828341624
  0.4004108737286052  0.5064797665533366  0.7428268931286098
  0.2498830041687273  0.4988517663357177  0.7257887046948162
  0.0975944402463515  0.4994905021723856  0.7413377400669983
  0.4065054595712162  0.5000254861336981  0.3011380834788743
  0.2494655351422231  0.5001745288796489  0.2576416706513499
  0.0925897430480788  0.5001409209024962  0.3014059621106681
  0.1540656968791056  0.7500111953925741  0.4100969000504052
  0.9995480514230780  0.7501204653943461  0.3934240792200610
  0.3450599311030256  0.7499674671372157  0.4097357822636272
  0.4004629104816353  0.7500509561275465  0.5216640214029480
  0.2496192401680788  0.7502580212691708  0.5026961348470084
  0.0986490993548682  0.7498300935411587  0.5222524120916442
  0.1512845711647894  0.7501311635070329  0.6333683559636643
  0.9996725162707919  0.7497032870716529  0.6134648571293827
  0.3480495939202231  0.7494269564701469  0.6327511109699022
  0.4020908654556579  0.7489910262044449  0.7397581597572789
  0.2497184034297439  0.7483732733503108  0.7236685237779589
  0.0966241461072928  0.7500833011410720  0.7408492288204008
  0.4064111726413483  0.7500753546445575  0.3011493023737336
  0.2495447615300726  0.7502278694666469  0.2582349028695569
  0.0926954295666198  0.7501248436086703  0.3014045188490240
  0.1540824170016446  0.0001852219954349  0.4100949916744954
  0.9995415625264890  0.0002110030346992  0.3934227270840380
  0.3450626382979677  0.0000921092399334  0.4097310368461934
  0.4004754187501014  0.9997131574007249  0.5216824295753570
  0.2496321635473352  0.9996918089910242  0.5027057715720127
  0.0986557384939518  0.0001927858210302  0.5222579863164631
  0.1513201155769177  0.9995251723738248  0.6333694961567671
  0.9997047046269973  0.0002772220270465  0.6134631472345066
  0.3480769912238338  0.0000309776613241  0.6328002690554754
  0.4021316140021374  0.0000474649872846  0.7398194080947947
  0.2497730484699076  0.0009315615546668  0.7237204071546556
  0.0966852716333980  0.9993256097982677  0.7408336266717819
  0.9063401597420202  0.0002708706254882  0.3016234104888470
  0.7496190014060790  0.0001452920846936  0.2585337042218692
  0.5929925216848324  0.0001624906088803  0.3015504117041318
  0.6541167052671090  0.2501217174257575  0.4103888555070209
  0.4996163928692590  0.2499470167600601  0.3932786110311905
  0.8448699536233411  0.2502431955449348  0.4102749525345564
  0.9006162497226405  0.2501861701503927  0.5220969891627018
  0.7493762826102821  0.2501250748206800  0.5033737180585697
  0.5983403691647132  0.2500011095198008  0.5227349640813271
  0.6510638057360277  0.2491333994192244  0.6341859105769156
  0.4984616959634878  0.2501258964752260  0.6142986456629165
  0.8483018307491988  0.2496826224406688  0.6333186240564722
  0.9040942377676742  0.2498789783304113  0.7403983099425797
  0.7510292764760971  0.2502460100604102  0.7243445488163258
  0.5980481362530133  0.2491096592600966  0.7426830687768388
  0.9064312267036804  0.2502195765362583  0.3016127220345990
  0.7496394333194099  0.2502129184119081  0.2580357978612874
  0.5929613818328860  0.2501628196018307  0.3015385910383379
  0.6541135976642612  0.5000364545747675  0.4104079974954473
  0.4996264380159319  0.5001600220496983  0.3932910153845528
  0.8448655517033848  0.5000791766951691  0.4102839861475031
  0.9005981294910957  0.5000228479907839  0.5221041651099095
  0.7493727117734599  0.5000119752380385  0.5033886888989212
  0.5983459944889987  0.4998828590137099  0.5227346365698853
  0.6510303979734413  0.5005523976397743  0.6342112493321784
  0.4984704453424083  0.4994669588423224  0.6142386824565399
  0.8482835783224123  0.5003815450152294  0.6333307742537161
  0.9040543645122445  0.5000666502018868  0.7404181369919239
  0.7510128018590070  0.4994825675299173  0.7243911069278762
  0.5980750474266282  0.5003088696002143  0.7427334377910632
  0.9063491520631657  0.5001896318871282  0.3016303236236979
  0.7496398968523715  0.5002190488338850  0.2584027328766199
  0.5930403387474440  0.5001481483940272  0.3015778959756564
  0.6541287506322225  0.7500132677569483  0.4103518852550566
  0.4996028521341784  0.7500661780401596  0.3932626280868063
  0.8449221417117251  0.7500894099726350  0.4101940005363628
  0.9005152436844538  0.7500949336411237  0.5221643678357530
  0.7495129852700354  0.7500267835955474  0.5031361154398578
  0.5985505221809991  0.7497916415522268  0.5224988527450309
  0.6514785530030599  0.7499779972185273  0.6335696491798575
  0.4995454810726603  0.7504409657682877  0.6137701532509434
  0.8482178573298459  0.7500882315043725  0.6333370958008951
  0.9030920485598850  0.7503636497380013  0.7405075154953621
  0.7498024210749519  0.7491632873471524  0.7238016757363886
  0.5971024469505212  0.7496892370401006  0.7410410525775879
  0.9063990461262464  0.7501422326742573  0.3016118864299414
  0.7496313005696961  0.7502418147780393  0.2582526918789786
  0.5929140075929101  0.7501268784104507  0.3015596228290632
  0.6541298607243261  0.0001547554545329  0.4103337746151444
  0.4996183546490338  0.0000684716730042  0.3932532666731468
  0.8449350511959112  0.0002405476472474  0.4101877155881430
  0.9005240921445364  0.0001126749853859  0.5221578858712823
  0.7495197083849057  0.0001132857343669  0.5031251557396932
  0.5985482342913903  0.0000933739746944  0.5224893257144949
  0.6514874768682689  0.9996863006744596  0.6335456650394613
  0.4995777802455873  0.9991390630746093  0.6137758283875572
  0.8482310858381734 -0.0000249062868428  0.6333220743664338
  0.9031414399324872  0.9995936300175861  0.7404741257497360
  0.7498283192782851  0.0005412610908215  0.7237623990032396
  0.5971435032792977  0.9998340777489686  0.7410043075917494
  0.4214706002346715  0.3747310738057758  0.7851144475271289
  0.5626864754818575  0.3746292207542120  0.7911265487576502
  0.3307481336412531  0.3745667054035557  0.6951044874060351
 
  0.00000000E+00  0.00000000E+00  0.00000000E+00
  0.00000000E+00  0.00000000E+00  0.00000000E+00
  0.00000000E+00  0.00000000E+00  0.00000000E+00
  0.00000000E+00  0.00000000E+00  0.00000000E+00
  0.00000000E+00  0.00000000E+00  0.00000000E+00
  0.00000000E+00  0.00000000E+00  0.00000000E+00
  0.00000000E+00  0.00000000E+00  0.00000000E+00
  0.00000000E+00  0.00000000E+00  0.00000000E+00
  0.00000000E+00  0.00000000E+00  0.00000000E+00
  0.00000000E+00  0.00000000E+00  0.00000000E+00
  0.00000000E+00  0.00000000E+00  0.00000000E+00
  0.00000000E+00  0.00000000E+00  0.00000000E+00
  0.00000000E+00  0.00000000E+00  0.00000000E+00
  0.00000000E+00  0.00000000E+00  0.00000000E+00
  0.00000000E+00  0.00000000E+00  0.00000000E+00
  0.00000000E+00  0.00000000E+00  0.00000000E+00
  0.00000000E+00  0.00000000E+00  0.00000000E+00
  0.00000000E+00  0.00000000E+00  0.00000000E+00
  0.00000000E+00  0.00000000E+00  0.00000000E+00
  0.00000000E+00  0.00000000E+00  0.00000000E+00
  0.00000000E+00  0.00000000E+00  0.00000000E+00
  0.00000000E+00  0.00000000E+00  0.00000000E+00
  0.00000000E+00  0.00000000E+00  0.00000000E+00
  0.00000000E+00  0.00000000E+00  0.00000000E+00
  0.00000000E+00  0.00000000E+00  0.00000000E+00
  0.00000000E+00  0.00000000E+00  0.00000000E+00
  0.00000000E+00  0.00000000E+00  0.00000000E+00
  0.00000000E+00  0.00000000E+00  0.00000000E+00
  0.00000000E+00  0.00000000E+00  0.00000000E+00
  0.00000000E+00  0.00000000E+00  0.00000000E+00
  0.00000000E+00  0.00000000E+00  0.00000000E+00
  0.00000000E+00  0.00000000E+00  0.00000000E+00
  0.00000000E+00  0.00000000E+00  0.00000000E+00
  0.00000000E+00  0.00000000E+00  0.00000000E+00
  0.00000000E+00  0.00000000E+00  0.00000000E+00
  0.00000000E+00  0.00000000E+00  0.00000000E+00
  0.00000000E+00  0.00000000E+00  0.00000000E+00
  0.00000000E+00  0.00000000E+00  0.00000000E+00
  0.00000000E+00  0.00000000E+00  0.00000000E+00
  0.00000000E+00  0.00000000E+00  0.00000000E+00
  0.00000000E+00  0.00000000E+00  0.00000000E+00
  0.00000000E+00  0.00000000E+00  0.00000000E+00
  0.00000000E+00  0.00000000E+00  0.00000000E+00
  0.00000000E+00  0.00000000E+00  0.00000000E+00
  0.00000000E+00  0.00000000E+00  0.00000000E+00
  0.00000000E+00  0.00000000E+00  0.00000000E+00
  0.00000000E+00  0.00000000E+00  0.00000000E+00
  0.00000000E+00  0.00000000E+00  0.00000000E+00
  0.00000000E+00  0.00000000E+00  0.00000000E+00
  0.00000000E+00  0.00000000E+00  0.00000000E+00
  0.00000000E+00  0.00000000E+00  0.00000000E+00
  0.00000000E+00  0.00000000E+00  0.00000000E+00
  0.00000000E+00  0.00000000E+00  0.00000000E+00
  0.00000000E+00  0.00000000E+00  0.00000000E+00
  0.00000000E+00  0.00000000E+00  0.00000000E+00
  0.00000000E+00  0.00000000E+00  0.00000000E+00
  0.00000000E+00  0.00000000E+00  0.00000000E+00
  0.00000000E+00  0.00000000E+00  0.00000000E+00
  0.00000000E+00  0.00000000E+00  0.00000000E+00
  0.00000000E+00  0.00000000E+00  0.00000000E+00
  0.00000000E+00  0.00000000E+00  0.00000000E+00
  0.00000000E+00  0.00000000E+00  0.00000000E+00
  0.00000000E+00  0.00000000E+00  0.00000000E+00
  0.00000000E+00  0.00000000E+00  0.00000000E+00
  0.00000000E+00  0.00000000E+00  0.00000000E+00
  0.00000000E+00  0.00000000E+00  0.00000000E+00
  0.00000000E+00  0.00000000E+00  0.00000000E+00
  0.00000000E+00  0.00000000E+00  0.00000000E+00
  0.00000000E+00  0.00000000E+00  0.00000000E+00
  0.00000000E+00  0.00000000E+00  0.00000000E+00
  0.00000000E+00  0.00000000E+00  0.00000000E+00
  0.00000000E+00  0.00000000E+00  0.00000000E+00
  0.00000000E+00  0.00000000E+00  0.00000000E+00
  0.00000000E+00  0.00000000E+00  0.00000000E+00
  0.00000000E+00  0.00000000E+00  0.00000000E+00
  0.00000000E+00  0.00000000E+00  0.00000000E+00
  0.00000000E+00  0.00000000E+00  0.00000000E+00
  0.00000000E+00  0.00000000E+00  0.00000000E+00
  0.00000000E+00  0.00000000E+00  0.00000000E+00
  0.00000000E+00  0.00000000E+00  0.00000000E+00
  0.00000000E+00  0.00000000E+00  0.00000000E+00
  0.00000000E+00  0.00000000E+00  0.00000000E+00
  0.00000000E+00  0.00000000E+00  0.00000000E+00
  0.00000000E+00  0.00000000E+00  0.00000000E+00
  0.00000000E+00  0.00000000E+00  0.00000000E+00
  0.00000000E+00  0.00000000E+00  0.00000000E+00
  0.00000000E+00  0.00000000E+00  0.00000000E+00
  0.00000000E+00  0.00000000E+00  0.00000000E+00
  0.00000000E+00  0.00000000E+00  0.00000000E+00
  0.00000000E+00  0.00000000E+00  0.00000000E+00
  0.00000000E+00  0.00000000E+00  0.00000000E+00
  0.00000000E+00  0.00000000E+00  0.00000000E+00
  0.00000000E+00  0.00000000E+00  0.00000000E+00
  0.00000000E+00  0.00000000E+00  0.00000000E+00
  0.00000000E+00  0.00000000E+00  0.00000000E+00
  0.00000000E+00  0.00000000E+00  0.00000000E+00
  0.00000000E+00  0.00000000E+00  0.00000000E+00
  0.00000000E+00  0.00000000E+00  0.00000000E+00
  0.00000000E+00  0.00000000E+00  0.00000000E+00
  0.00000000E+00  0.00000000E+00  0.00000000E+00
  0.00000000E+00  0.00000000E+00  0.00000000E+00
  0.00000000E+00  0.00000000E+00  0.00000000E+00
  0.00000000E+00  0.00000000E+00  0.00000000E+00
  0.00000000E+00  0.00000000E+00  0.00000000E+00
  0.00000000E+00  0.00000000E+00  0.00000000E+00
  0.00000000E+00  0.00000000E+00  0.00000000E+00
  0.00000000E+00  0.00000000E+00  0.00000000E+00
  0.00000000E+00  0.00000000E+00  0.00000000E+00
  0.00000000E+00  0.00000000E+00  0.00000000E+00
  0.00000000E+00  0.00000000E+00  0.00000000E+00
  0.00000000E+00  0.00000000E+00  0.00000000E+00
  0.00000000E+00  0.00000000E+00  0.00000000E+00
  0.00000000E+00  0.00000000E+00  0.00000000E+00
  0.00000000E+00  0.00000000E+00  0.00000000E+00
  0.00000000E+00  0.00000000E+00  0.00000000E+00
  0.00000000E+00  0.00000000E+00  0.00000000E+00
  0.00000000E+00  0.00000000E+00  0.00000000E+00
  0.00000000E+00  0.00000000E+00  0.00000000E+00
  0.00000000E+00  0.00000000E+00  0.00000000E+00
  0.00000000E+00  0.00000000E+00  0.00000000E+00
  0.00000000E+00  0.00000000E+00  0.00000000E+00
  0.00000000E+00  0.00000000E+00  0.00000000E+00
  0.00000000E+00  0.00000000E+00  0.00000000E+00
  0.00000000E+00  0.00000000E+00  0.00000000E+00
  0.00000000E+00  0.00000000E+00  0.00000000E+00
  0.00000000E+00  0.00000000E+00  0.00000000E+00
  0.00000000E+00  0.00000000E+00  0.00000000E+00
  0.00000000E+00  0.00000000E+00  0.00000000E+00
  0.00000000E+00  0.00000000E+00  0.00000000E+00
  0.00000000E+00  0.00000000E+00  0.00000000E+00
  0.00000000E+00  0.00000000E+00  0.00000000E+00
  0.00000000E+00  0.00000000E+00  0.00000000E+00
  0.00000000E+00  0.00000000E+00  0.00000000E+00
  0.00000000E+00  0.00000000E+00  0.00000000E+00
  0.00000000E+00  0.00000000E+00  0.00000000E+00
  0.00000000E+00  0.00000000E+00  0.00000000E+00
  0.00000000E+00  0.00000000E+00  0.00000000E+00
  0.00000000E+00  0.00000000E+00  0.00000000E+00
  0.00000000E+00  0.00000000E+00  0.00000000E+00
  0.00000000E+00  0.00000000E+00  0.00000000E+00
  0.00000000E+00  0.00000000E+00  0.00000000E+00
  0.00000000E+00  0.00000000E+00  0.00000000E+00
  0.00000000E+00  0.00000000E+00  0.00000000E+00
  0.00000000E+00  0.00000000E+00  0.00000000E+00
  0.00000000E+00  0.00000000E+00  0.00000000E+00
  0.00000000E+00  0.00000000E+00  0.00000000E+00
  0.00000000E+00  0.00000000E+00  0.00000000E+00
  0.00000000E+00  0.00000000E+00  0.00000000E+00
  0.00000000E+00  0.00000000E+00  0.00000000E+00
  0.00000000E+00  0.00000000E+00  0.00000000E+00
  0.00000000E+00  0.00000000E+00  0.00000000E+00
  0.00000000E+00  0.00000000E+00  0.00000000E+00
  0.00000000E+00  0.00000000E+00  0.00000000E+00
  0.00000000E+00  0.00000000E+00  0.00000000E+00
  0.00000000E+00  0.00000000E+00  0.00000000E+00
  0.00000000E+00  0.00000000E+00  0.00000000E+00
  0.00000000E+00  0.00000000E+00  0.00000000E+00
  0.00000000E+00  0.00000000E+00  0.00000000E+00
  0.00000000E+00  0.00000000E+00  0.00000000E+00
  0.00000000E+00  0.00000000E+00  0.00000000E+00
  0.00000000E+00  0.00000000E+00  0.00000000E+00
  0.00000000E+00  0.00000000E+00  0.00000000E+00
  0.00000000E+00  0.00000000E+00  0.00000000E+00
  0.00000000E+00  0.00000000E+00  0.00000000E+00
  0.00000000E+00  0.00000000E+00  0.00000000E+00
  0.00000000E+00  0.00000000E+00  0.00000000E+00
  0.00000000E+00  0.00000000E+00  0.00000000E+00
  0.00000000E+00  0.00000000E+00  0.00000000E+00
  0.00000000E+00  0.00000000E+00  0.00000000E+00
  0.00000000E+00  0.00000000E+00  0.00000000E+00
  0.00000000E+00  0.00000000E+00  0.00000000E+00
  0.00000000E+00  0.00000000E+00  0.00000000E+00
  0.00000000E+00  0.00000000E+00  0.00000000E+00
  0.00000000E+00  0.00000000E+00  0.00000000E+00
  0.00000000E+00  0.00000000E+00  0.00000000E+00
  0.00000000E+00  0.00000000E+00  0.00000000E+00
  0.00000000E+00  0.00000000E+00  0.00000000E+00
  0.00000000E+00  0.00000000E+00  0.00000000E+00
  0.00000000E+00  0.00000000E+00  0.00000000E+00
  0.00000000E+00  0.00000000E+00  0.00000000E+00
  0.00000000E+00  0.00000000E+00  0.00000000E+00
  0.00000000E+00  0.00000000E+00  0.00000000E+00
  0.00000000E+00  0.00000000E+00  0.00000000E+00
  0.00000000E+00  0.00000000E+00  0.00000000E+00
  0.00000000E+00  0.00000000E+00  0.00000000E+00
  0.00000000E+00  0.00000000E+00  0.00000000E+00
  0.00000000E+00  0.00000000E+00  0.00000000E+00
  0.00000000E+00  0.00000000E+00  0.00000000E+00
  0.00000000E+00  0.00000000E+00  0.00000000E+00
  0.00000000E+00  0.00000000E+00  0.00000000E+00
  0.00000000E+00  0.00000000E+00  0.00000000E+00
  0.00000000E+00  0.00000000E+00  0.00000000E+00
  0.00000000E+00  0.00000000E+00  0.00000000E+00
  0.00000000E+00  0.00000000E+00  0.00000000E+00
  0.00000000E+00  0.00000000E+00  0.00000000E+00
  0.00000000E+00  0.00000000E+00  0.00000000E+00
  0.00000000E+00  0.00000000E+00  0.00000000E+00
  0.00000000E+00  0.00000000E+00  0.00000000E+00
  0.00000000E+00  0.00000000E+00  0.00000000E+00
  0.00000000E+00  0.00000000E+00  0.00000000E+00
  0.00000000E+00  0.00000000E+00  0.00000000E+00
  0.00000000E+00  0.00000000E+00  0.00000000E+00
  0.00000000E+00  0.00000000E+00  0.00000000E+00
  0.00000000E+00  0.00000000E+00  0.00000000E+00
  0.00000000E+00  0.00000000E+00  0.00000000E+00
  0.00000000E+00  0.00000000E+00  0.00000000E+00
  0.00000000E+00  0.00000000E+00  0.00000000E+00
  0.00000000E+00  0.00000000E+00  0.00000000E+00
  0.00000000E+00  0.00000000E+00  0.00000000E+00
  0.00000000E+00  0.00000000E+00  0.00000000E+00
  0.00000000E+00  0.00000000E+00  0.00000000E+00
  0.00000000E+00  0.00000000E+00  0.00000000E+00
  0.00000000E+00  0.00000000E+00  0.00000000E+00
  0.00000000E+00  0.00000000E+00  0.00000000E+00
  0.00000000E+00  0.00000000E+00  0.00000000E+00
  0.00000000E+00  0.00000000E+00  0.00000000E+00
  0.00000000E+00  0.00000000E+00  0.00000000E+00
  0.00000000E+00  0.00000000E+00  0.00000000E+00
  0.00000000E+00  0.00000000E+00  0.00000000E+00
  0.00000000E+00  0.00000000E+00  0.00000000E+00
  0.00000000E+00  0.00000000E+00  0.00000000E+00
  0.00000000E+00  0.00000000E+00  0.00000000E+00
  0.00000000E+00  0.00000000E+00  0.00000000E+00
  0.00000000E+00  0.00000000E+00  0.00000000E+00
  0.00000000E+00  0.00000000E+00  0.00000000E+00
  0.00000000E+00  0.00000000E+00  0.00000000E+00
  0.00000000E+00  0.00000000E+00  0.00000000E+00
  0.00000000E+00  0.00000000E+00  0.00000000E+00
  0.00000000E+00  0.00000000E+00  0.00000000E+00
  0.00000000E+00  0.00000000E+00  0.00000000E+00
  0.00000000E+00  0.00000000E+00  0.00000000E+00
  0.00000000E+00  0.00000000E+00  0.00000000E+00
  0.00000000E+00  0.00000000E+00  0.00000000E+00
  0.00000000E+00  0.00000000E+00  0.00000000E+00
  0.00000000E+00  0.00000000E+00  0.00000000E+00
  0.00000000E+00  0.00000000E+00  0.00000000E+00
  0.00000000E+00  0.00000000E+00  0.00000000E+00
  0.00000000E+00  0.00000000E+00  0.00000000E+00
  0.00000000E+00  0.00000000E+00  0.00000000E+00
  0.00000000E+00  0.00000000E+00  0.00000000E+00
  0.00000000E+00  0.00000000E+00  0.00000000E+00
  0.00000000E+00  0.00000000E+00  0.00000000E+00
