Ta  N Cu                                
   1.00000000000000     
    10.4555999800000006    0.0000000000000000    0.0000000000000000
     0.0000000000000000   11.6775998899999998    0.0000000000000000
     0.0000000000000000    0.0000000000000000   24.0732377500000005
   Ta   N    Cu
    64    64     2
Selective dynamics
Direct
  0.4991785186325330  0.1250000003211298  0.3753726828051569   F   F   F
  0.2600588226580172  0.1250000003211298  0.3190980514078845   F   F   F
  0.2470962603561304  0.0000000000000000  0.4358978840493251   F   F   F
  0.2476681738167049  0.1249506352852845  0.5615440245074885   T   T   T
  0.9979832151395439  0.1249956333662401  0.5004735509315448   T   T   T
  0.9965893068697180  0.0000256803257353  0.6268029021323015   T   T   T
  0.5047786702864332  0.1262029923695711  0.7430264835179849   T   T   T
  0.2501968061105820  0.1244864569077718  0.6865662895973537   T   T   T
  0.4991785186325330  0.3750000001070433  0.3753726828051569   F   F   F
  0.2600588226580172  0.3750000001070433  0.3190980514078845   F   F   F
  0.2470962603561304  0.2499999997859135  0.4358978840493251   F   F   F
  0.2476611520678955  0.3750760341786489  0.5615511401874838   T   T   T
  0.9979813923013270  0.3750223844275897  0.5004777748804744   T   T   T
  0.9963280329776318  0.2500333480528034  0.6270176783076731   T   T   T
  0.5047812472878581  0.3739856478580329  0.7430141463860842   T   T   T
  0.2501965508498938  0.3756534030255956  0.6865850583179950   T   T   T
  0.4991785186325330  0.6249999998929567  0.3753726828051569   F   F   F
  0.2600588226580172  0.6249999998929567  0.3190980514078845   F   F   F
  0.2470962603561304  0.5000000004281731  0.4358978840493251   F   F   F
  0.2476627426508101  0.6249521914101345  0.5615440452741893   T   T   T
  0.9979764000350776  0.6249998553394313  0.5004761244760996   T   T   T
  0.9965663731751986  0.5000425908669835  0.6268169909335271   T   T   T
  0.5047463075139459  0.6262326311541372  0.7430457477654223   T   T   T
  0.2501760087889778  0.6244829589304367  0.6865697938004269   T   T   T
  0.4991785186325330  0.8750000005352163  0.3753726828051569   F   F   F
  0.2600588226580172  0.8750000005352163  0.3190980514078845   F   F   F
  0.2470962603561304  0.7500000002140865  0.4358978840493251   F   F   F
  0.2476651339109782  0.8750781896649880  0.5615488551106348   T   T   T
  0.9979851559997309  0.8750203277961289  0.5004739931036211   T   T   T
  0.9963291936337129  0.7500285572921024  0.6270201478975463   T   T   T
  0.5048357636744424  0.8740167447293924  0.7429814329061376   T   T   T
  0.2502208619271772  0.8756435736206751  0.6865802491532912   T   T   T
  0.9991784928090510  0.1250000003211298  0.3753726828051569   F   F   F
  0.7600587968345351  0.1250000003211298  0.3190980514078845   F   F   F
  0.7470962345326484  0.0000000000000000  0.4358978840493251   F   F   F
  0.7489349775137867  0.1250598805224553  0.5622335364692232   T   T   T
  0.4988809189353343  0.1249482175254283  0.5002682841493425   T   T   T
  0.4983561502412676  0.0000618124528738  0.6247811430690029   T   T   T
  0.0112370381897118  0.1239847350050375  0.7437893835888230   T   T   T
  0.7483550763442083  0.1246993010784197  0.6879935104671627   T   T   T
  0.9991784928090510  0.3750000001070433  0.3753726828051569   F   F   F
  0.7600587968345351  0.3750000001070433  0.3190980514078845   F   F   F
  0.7470962345326484  0.2499999997859135  0.4358978840493251   F   F   F
  0.7489301711548280  0.3749875746021403  0.5622387515872765   T   T   T
  0.4988814463683572  0.3750803469243641  0.5002722035673871   T   T   T
  0.4995690547932253  0.2500509774765529  0.6236711319133201   T   T   T
  0.0112099260077080  0.3760666020086149  0.7437918287980242   T   T   T
  0.7483570424879676  0.3754004799411412  0.6879910111569310   T   T   T
  0.9991784928090510  0.6249999998929567  0.3753726828051569   F   F   F
  0.7600587968345351  0.6249999998929567  0.3190980514078845   F   F   F
  0.7470962345326484  0.5000000004281731  0.4358978840493251   F   F   F
  0.7489282862332542  0.6250547308798807  0.5622370547454573   T   T   T
  0.4988764964317128  0.6249444326816325  0.5002690069253715   T   T   T
  0.4983331547215929  0.5000623986708516  0.6248103743117264   T   T   T
  0.0112541496283112  0.6240035766165892  0.7438037230754604   T   T   T
  0.7483443246460540  0.6246989079542890  0.6880051067542070   T   T   T
  0.9991784928090439  0.8750000005352163  0.3753726828051569   F   F   F
  0.7600587968345351  0.8750000005352163  0.3190980514078845   F   F   F
  0.7470962345326484  0.7500000002140865  0.4358978840493251   F   F   F
  0.7489311164169259  0.8749841860286056  0.5622317053696336   T   T   T
  0.4988804692423963  0.8750773391282759  0.5002688174973297   T   T   T
  0.4995722957355084  0.7500385061058623  0.6236589591441007   T   T   T
  0.0112134981771425  0.8760795898083911  0.7438012901802918   T   T   T
  0.7483940826419576  0.8753900904548553  0.6879781940401390   T   T   T
  0.1472195596423447  0.0000000000000000  0.3601606351366584   F   F   F
  0.4003222342624682  0.0000000000000000  0.3237632067519129   F   F   F
  0.4439214822817661  0.0000000000000000  0.4377276028165085   F   F   F
  0.3999011532516724  0.0000205816738068  0.5511467396229500   T   T   T
  0.1501311547553568  0.0000124068608044  0.5101381739295539   T   T   T
  0.1934653349290861  0.0000429984592003  0.6244083112719669   T   T   T
  0.1514230338971850  0.0000639428953917  0.7385279574606123   T   T   T
  0.3986539270637550  0.0001064215877870  0.6993061675313724   T   T   T
  0.1472195596423447  0.2499999997859135  0.3601606351366584   F   F   F
  0.4003222342624682  0.2499999997859135  0.3237632067519129   F   F   F
  0.4439214822817661  0.2499999997859135  0.4377276028165085   F   F   F
  0.3992981183325991  0.2500227612746885  0.5507135815337155   T   T   T
  0.1500920979665865  0.2500173941064736  0.5100950644542399   T   T   T
  0.1926006473626639  0.2500476235602024  0.6244556611890854   T   T   T
  0.1558937990444832  0.2500599649513542  0.7416191680305233   T   T   T
  0.3998234292618963  0.2500664941691958  0.6954567727649961   T   T   T
  0.1472195596423447  0.5000000004281731  0.3601606351366584   F   F   F
  0.4003222342624682  0.5000000004281731  0.3237632067519129   F   F   F
  0.4439214822817661  0.5000000004281731  0.4377276028165085   F   F   F
  0.3999025059538193  0.5000217089869392  0.5511559273003875   T   T   T
  0.1501306782152444  0.5000114253213728  0.5101403242803296   T   T   T
  0.1934546249650216  0.5000451641567639  0.6244151545954174   T   T   T
  0.1514223340821713  0.5000563972168444  0.7385445327909985   T   T   T
  0.3986266804634795  0.5001123874740565  0.6993448299237526   T   T   T
  0.1472195596423447  0.7500000002140865  0.3601606351366584   F   F   F
  0.4003222342624682  0.7500000002140865  0.3237632067519129   F   F   F
  0.4439214822817661  0.7500000002140865  0.4377276028165085   F   F   F
  0.3992954581819551  0.7500170344438056  0.5507120083876866   T   T   T
  0.1500892461117479  0.7500118296586828  0.5100947339972699   T   T   T
  0.1926025117795390  0.7500430689118522  0.6244537450155294   T   T   T
  0.1558990115921866  0.7500896044101503  0.7416082427477847   T   T   T
  0.3998296114056161  0.7500502210537440  0.6954505206757639   T   T   T
  0.6472195338188556  0.0000000000000000  0.3601606351366584   F   F   F
  0.9003222591295312  0.0000000000000000  0.3237632067519129   F   F   F
  0.9439215071488221  0.0000000000000000  0.4377276028165085   F   F   F
  0.9009096327978398  0.0000146989703217  0.5521256999211366   T   T   T
  0.6511318688088292  0.0000149497290952  0.5105376470007916   T   T   T
  0.6953833954274914  0.0000420394930921  0.6249084360986162   T   T   T
  0.6477842759575022  0.0001109695578700  0.7395992306257623   T   T   T
  0.8968425521554345  0.0000456103731010  0.7024784535858639   T   T   T
  0.6472195338188556  0.2499999997859135  0.3601606351366584   F   F   F
  0.9003222591295312  0.2499999997859135  0.3237632067519129   F   F   F
  0.9439215071488221  0.2499999997859135  0.4377276028165085   F   F   F
  0.9009806512356231  0.2500224164537899  0.5521173667226215   T   T   T
  0.6509981043544100  0.2500159592788036  0.5105038419835721   T   T   T
  0.6964421980981113  0.2500370055195769  0.6250518646887365   T   T   T
  0.6478622906944094  0.2500719096501700  0.7388920367610318   T   T   T
  0.8971770231966558  0.2500404902650294  0.7031560005335085   T   T   T
  0.6472195338188556  0.5000000004281731  0.3601606351366584   F   F   F
  0.9003222591295312  0.5000000004281731  0.3237632067519129   F   F   F
  0.9439215071488221  0.5000000004281731  0.4377276028165085   F   F   F
  0.9009063661085870  0.5000172589827639  0.5521350653917820   T   T   T
  0.6511305128527253  0.5000142549765604  0.5105396276549662   T   T   T
  0.6953567982009580  0.5000412382090892  0.6249194709317265   T   T   T
  0.6477075429777119  0.5001113910626944  0.7396082087763284   T   T   T
  0.8968220417908457  0.5000580045014101  0.7025007648853109   T   T   T
  0.6472195338188556  0.7500000002140865  0.3601606351366584   F   F   F
  0.9003222591295312  0.7500000002140865  0.3237632067519129   F   F   F
  0.9439215071488221  0.7500000002140865  0.4377276028165085   F   F   F
  0.9009804842781894  0.7500164667344469  0.5521156714769210   T   T   T
  0.6509956838264989  0.7500093187938632  0.5105029967328416   T   T   T
  0.6964568407311950  0.7500309582223684  0.6250505611366528   T   T   T
  0.6478742687240391  0.7500648370416970  0.7388870213508681   T   T   T
  0.8971985262524380  0.7500325324153628  0.7031707326439339   T   T   T
  0.3175548601459589  0.2503077164035059  0.7927465306783943   T   T   T
  0.3175309884692513  0.7513688642658137  0.7927373755292725   T   T   T
 
  0.00000000E+00  0.00000000E+00  0.00000000E+00
  0.00000000E+00  0.00000000E+00  0.00000000E+00
  0.00000000E+00  0.00000000E+00  0.00000000E+00
  0.00000000E+00  0.00000000E+00  0.00000000E+00
  0.00000000E+00  0.00000000E+00  0.00000000E+00
  0.00000000E+00  0.00000000E+00  0.00000000E+00
  0.00000000E+00  0.00000000E+00  0.00000000E+00
  0.00000000E+00  0.00000000E+00  0.00000000E+00
  0.00000000E+00  0.00000000E+00  0.00000000E+00
  0.00000000E+00  0.00000000E+00  0.00000000E+00
  0.00000000E+00  0.00000000E+00  0.00000000E+00
  0.00000000E+00  0.00000000E+00  0.00000000E+00
  0.00000000E+00  0.00000000E+00  0.00000000E+00
  0.00000000E+00  0.00000000E+00  0.00000000E+00
  0.00000000E+00  0.00000000E+00  0.00000000E+00
  0.00000000E+00  0.00000000E+00  0.00000000E+00
  0.00000000E+00  0.00000000E+00  0.00000000E+00
  0.00000000E+00  0.00000000E+00  0.00000000E+00
  0.00000000E+00  0.00000000E+00  0.00000000E+00
  0.00000000E+00  0.00000000E+00  0.00000000E+00
  0.00000000E+00  0.00000000E+00  0.00000000E+00
  0.00000000E+00  0.00000000E+00  0.00000000E+00
  0.00000000E+00  0.00000000E+00  0.00000000E+00
  0.00000000E+00  0.00000000E+00  0.00000000E+00
  0.00000000E+00  0.00000000E+00  0.00000000E+00
  0.00000000E+00  0.00000000E+00  0.00000000E+00
  0.00000000E+00  0.00000000E+00  0.00000000E+00
  0.00000000E+00  0.00000000E+00  0.00000000E+00
  0.00000000E+00  0.00000000E+00  0.00000000E+00
  0.00000000E+00  0.00000000E+00  0.00000000E+00
  0.00000000E+00  0.00000000E+00  0.00000000E+00
  0.00000000E+00  0.00000000E+00  0.00000000E+00
  0.00000000E+00  0.00000000E+00  0.00000000E+00
  0.00000000E+00  0.00000000E+00  0.00000000E+00
  0.00000000E+00  0.00000000E+00  0.00000000E+00
  0.00000000E+00  0.00000000E+00  0.00000000E+00
  0.00000000E+00  0.00000000E+00  0.00000000E+00
  0.00000000E+00  0.00000000E+00  0.00000000E+00
  0.00000000E+00  0.00000000E+00  0.00000000E+00
  0.00000000E+00  0.00000000E+00  0.00000000E+00
  0.00000000E+00  0.00000000E+00  0.00000000E+00
  0.00000000E+00  0.00000000E+00  0.00000000E+00
  0.00000000E+00  0.00000000E+00  0.00000000E+00
  0.00000000E+00  0.00000000E+00  0.00000000E+00
  0.00000000E+00  0.00000000E+00  0.00000000E+00
  0.00000000E+00  0.00000000E+00  0.00000000E+00
  0.00000000E+00  0.00000000E+00  0.00000000E+00
  0.00000000E+00  0.00000000E+00  0.00000000E+00
  0.00000000E+00  0.00000000E+00  0.00000000E+00
  0.00000000E+00  0.00000000E+00  0.00000000E+00
  0.00000000E+00  0.00000000E+00  0.00000000E+00
  0.00000000E+00  0.00000000E+00  0.00000000E+00
  0.00000000E+00  0.00000000E+00  0.00000000E+00
  0.00000000E+00  0.00000000E+00  0.00000000E+00
  0.00000000E+00  0.00000000E+00  0.00000000E+00
  0.00000000E+00  0.00000000E+00  0.00000000E+00
  0.00000000E+00  0.00000000E+00  0.00000000E+00
  0.00000000E+00  0.00000000E+00  0.00000000E+00
  0.00000000E+00  0.00000000E+00  0.00000000E+00
  0.00000000E+00  0.00000000E+00  0.00000000E+00
  0.00000000E+00  0.00000000E+00  0.00000000E+00
  0.00000000E+00  0.00000000E+00  0.00000000E+00
  0.00000000E+00  0.00000000E+00  0.00000000E+00
  0.00000000E+00  0.00000000E+00  0.00000000E+00
  0.00000000E+00  0.00000000E+00  0.00000000E+00
  0.00000000E+00  0.00000000E+00  0.00000000E+00
  0.00000000E+00  0.00000000E+00  0.00000000E+00
  0.00000000E+00  0.00000000E+00  0.00000000E+00
  0.00000000E+00  0.00000000E+00  0.00000000E+00
  0.00000000E+00  0.00000000E+00  0.00000000E+00
  0.00000000E+00  0.00000000E+00  0.00000000E+00
  0.00000000E+00  0.00000000E+00  0.00000000E+00
  0.00000000E+00  0.00000000E+00  0.00000000E+00
  0.00000000E+00  0.00000000E+00  0.00000000E+00
  0.00000000E+00  0.00000000E+00  0.00000000E+00
  0.00000000E+00  0.00000000E+00  0.00000000E+00
  0.00000000E+00  0.00000000E+00  0.00000000E+00
  0.00000000E+00  0.00000000E+00  0.00000000E+00
  0.00000000E+00  0.00000000E+00  0.00000000E+00
  0.00000000E+00  0.00000000E+00  0.00000000E+00
  0.00000000E+00  0.00000000E+00  0.00000000E+00
  0.00000000E+00  0.00000000E+00  0.00000000E+00
  0.00000000E+00  0.00000000E+00  0.00000000E+00
  0.00000000E+00  0.00000000E+00  0.00000000E+00
  0.00000000E+00  0.00000000E+00  0.00000000E+00
  0.00000000E+00  0.00000000E+00  0.00000000E+00
  0.00000000E+00  0.00000000E+00  0.00000000E+00
  0.00000000E+00  0.00000000E+00  0.00000000E+00
  0.00000000E+00  0.00000000E+00  0.00000000E+00
  0.00000000E+00  0.00000000E+00  0.00000000E+00
  0.00000000E+00  0.00000000E+00  0.00000000E+00
  0.00000000E+00  0.00000000E+00  0.00000000E+00
  0.00000000E+00  0.00000000E+00  0.00000000E+00
  0.00000000E+00  0.00000000E+00  0.00000000E+00
  0.00000000E+00  0.00000000E+00  0.00000000E+00
  0.00000000E+00  0.00000000E+00  0.00000000E+00
  0.00000000E+00  0.00000000E+00  0.00000000E+00
  0.00000000E+00  0.00000000E+00  0.00000000E+00
  0.00000000E+00  0.00000000E+00  0.00000000E+00
  0.00000000E+00  0.00000000E+00  0.00000000E+00
  0.00000000E+00  0.00000000E+00  0.00000000E+00
  0.00000000E+00  0.00000000E+00  0.00000000E+00
  0.00000000E+00  0.00000000E+00  0.00000000E+00
  0.00000000E+00  0.00000000E+00  0.00000000E+00
  0.00000000E+00  0.00000000E+00  0.00000000E+00
  0.00000000E+00  0.00000000E+00  0.00000000E+00
  0.00000000E+00  0.00000000E+00  0.00000000E+00
  0.00000000E+00  0.00000000E+00  0.00000000E+00
  0.00000000E+00  0.00000000E+00  0.00000000E+00
  0.00000000E+00  0.00000000E+00  0.00000000E+00
  0.00000000E+00  0.00000000E+00  0.00000000E+00
  0.00000000E+00  0.00000000E+00  0.00000000E+00
  0.00000000E+00  0.00000000E+00  0.00000000E+00
  0.00000000E+00  0.00000000E+00  0.00000000E+00
  0.00000000E+00  0.00000000E+00  0.00000000E+00
  0.00000000E+00  0.00000000E+00  0.00000000E+00
  0.00000000E+00  0.00000000E+00  0.00000000E+00
  0.00000000E+00  0.00000000E+00  0.00000000E+00
  0.00000000E+00  0.00000000E+00  0.00000000E+00
  0.00000000E+00  0.00000000E+00  0.00000000E+00
  0.00000000E+00  0.00000000E+00  0.00000000E+00
  0.00000000E+00  0.00000000E+00  0.00000000E+00
  0.00000000E+00  0.00000000E+00  0.00000000E+00
  0.00000000E+00  0.00000000E+00  0.00000000E+00
  0.00000000E+00  0.00000000E+00  0.00000000E+00
  0.00000000E+00  0.00000000E+00  0.00000000E+00
  0.00000000E+00  0.00000000E+00  0.00000000E+00
  0.00000000E+00  0.00000000E+00  0.00000000E+00
  0.00000000E+00  0.00000000E+00  0.00000000E+00
  0.00000000E+00  0.00000000E+00  0.00000000E+00
