Ta  N Co Cu                             
   1.00000000000000     
    18.1096308199999996    0.0000000000000000    0.0000000000000000
     0.0000000000000000   23.3551997799999995    0.0000000000000000
     0.0000000000000000    0.0000000000000000   30.4818171199999988
   Ta   N    Co   Cu
   228   240    12     1
Direct
  0.0000079083665554  0.0000751543641826  0.1978544952125532
  0.3339600086104610  0.0624559962404874  0.2027859413282940
  0.1658618144930486  0.0624632364380062  0.2031224067923176
  0.2498778433126105  0.1250435613324612  0.2785358813270733
  0.0825747853459831  0.0625791325463894  0.2844794298092381
  0.4169601964648848  0.0625092630738564  0.2842105083106219
  0.9998880414964546  0.1251054654488684  0.3701438506022825
  0.3315250911667533  0.0625710561943933  0.3688802273428706
  0.1678415793563275  0.0626154055316306  0.3688182968809599
  0.2506893436730309  0.1274950511657948  0.4580306158584619
  0.0848213741043153  0.0627287155492198  0.4552241298759867
  0.4169181600923011  0.0622006614080703  0.4535319760883567
  0.9997505032547949  0.1252196525777549  0.5414187988039671
  0.3329966381154321  0.0608240424186164  0.5429468750591013
  0.9999970565174578  0.1249998670927823  0.1978630254264075
  0.3338618168839034  0.1875960153193148  0.2027956155109720
  0.1660370927223696  0.1876093669712304  0.2031435217655186
  0.2499244668738569  0.2499781293700423  0.2784253819380851
  0.0824692424542661  0.1875636580676669  0.2845162924695117
  0.4170726865135421  0.1874994727375920  0.2842406517988394
  0.9998130216072596  0.2501488541315311  0.3700650881996737
  0.3314522905316650  0.1874354532471543  0.3688415458271663
  0.1679396479046815  0.1876021824077370  0.3686027820025259
  0.2502142162452614  0.2483948811721319  0.4575215363208969
  0.0832729755907309  0.1878977531375128  0.4538370181298674
  0.4177767775116266  0.1878958611537627  0.4529777350431345
  0.9996689008453572  0.2489972597956580  0.5418303322566160
  0.3430614694379130  0.1874058634651021  0.5413202897126510
  0.1717528537035236  0.1867343636460603  0.5429902442824357
  0.9999465211863807  0.2500545700466077  0.1977913701235181
  0.3340014654199663  0.3124413055722215  0.2027588769389652
  0.1658900252591025  0.3124087731298602  0.2030365984034432
  0.2499109784051825  0.3750090033460864  0.2783978712533468
  0.0824813854124642  0.3125466213694281  0.2843403596894021
  0.4169528744125799  0.3125081646258252  0.2842282485952694
  0.9997823493075586  0.3750393335603590  0.3699814901022620
  0.3315246587865417  0.3125353156391455  0.3688852066672368
  0.1677850126003833  0.3125342043008246  0.3686466338979102
  0.2507909716809209  0.3773977452128392  0.4575525060854986
  0.0848120561457648  0.3126236006046170  0.4550528448904601
  0.4166549847140644  0.3122517639762634  0.4537888538277670
  0.9998995716257042  0.3748943440590438  0.5412142135954099
  0.3326565106542603  0.3106269008217737  0.5432740209158666
  0.9998811365465343  0.3749790123206154  0.1977393338244084
  0.3339578355394295  0.4375860150658539  0.2027616767023943
  0.1660311695884857  0.4375980015078014  0.2030327522304134
  0.2499004284014887  0.0000174500358625  0.2784898923671904
  0.0823352590936324  0.4375497114942135  0.2842917141500294
  0.4170556615831629  0.4374902293832577  0.2842656857569423
  0.9999123547871918  0.0001977011088954  0.3701719266362460
  0.3314542930092159  0.4373985285118849  0.3688031773987461
  0.1678492699751999  0.4375406671473456  0.3682456393197668
  0.2501732916927182  0.9983109197752995  0.4576347174956723
  0.0833845222750469  0.4377340745863165  0.4536145592950405
  0.4168560508900967  0.4378229772238953  0.4534105537679594
  0.0000007539663542  0.9990889051312948  0.5418045146332204
  0.3434657385580735  0.4371229717533964  0.5428401406524088
  0.1709168502053018  0.4348041548625901  0.5433985108245025
  0.9997740149885388  0.5000676396387860  0.1976739562086252
  0.3340267288393619  0.5624658357501815  0.2027456927234610
  0.1659026963818917  0.5624903047485219  0.2029702468955819
  0.2498911036303042  0.6250723591934175  0.2783337044942726
  0.0824362576386548  0.5625817864024043  0.2841709182553132
  0.4168984275629910  0.5625078289970631  0.2842434266416447
  0.9996550095706027  0.6251652778033758  0.3699067279379165
  0.3315119405174798  0.5625214941940939  0.3688355576506268
  0.1677180982065494  0.5625794945123559  0.3683332420247680
  0.2504945242442176  0.6270188344150185  0.4570927789795149
  0.0843308128177185  0.5625966079638332  0.4538590872624724
  0.4162942055273291  0.5620847751258609  0.4539044437358228
  0.0021993584843969  0.6255422000996091  0.5415197726693179
  0.3386794006930813  0.5608734248209046  0.5440524027584743
  0.9997839702501139  0.6250699768885184  0.1977325913192161
  0.3339600293424354  0.6876014232771084  0.2027773025753277
  0.1659616154014500  0.6876775504267414  0.2030539817519426
  0.2498900694881527  0.7500753894850476  0.2783924579572883
  0.0823600672274196  0.6876166620084447  0.2843612319323725
  0.4170360943742466  0.6875004245097642  0.2842842548209745
  0.9998921024149112  0.7501925567708341  0.3700961398326754
  0.3314758255374528  0.6874816384027511  0.3688082587933508
  0.1678273808332449  0.6877483753699067  0.3683877864099969
  0.2502635659345955  0.7480003439736720  0.4575050527948292
  0.0834979097771154  0.6877778516717186  0.4538987321812087
  0.4167911338144421  0.6876819058218331  0.4533509299185994
  0.0005908095957281  0.7493436351338332  0.5416203951617220
  0.3437560241540893  0.6877331214272573  0.5427120640837799
  0.1714991038807696  0.6885070169615659  0.5433261698122465
  0.9998962143493344  0.7501147880651189  0.1977833608046211
  0.3339473982121746  0.8124655508745207  0.2027995398175690
  0.1658971889377412  0.8125508237324581  0.2030865905376942
  0.2498495658318731  0.8750717566900832  0.2785303983560183
  0.0825144929081034  0.8126214058720791  0.2844159080990778
  0.4169121820293640  0.8125128077888704  0.2842271707306807
  0.9998874847897383  0.8750972796572469  0.3701494181751741
  0.3314621625421879  0.8125687929690812  0.3688993626488823
  0.1678064326128919  0.8126551037199548  0.3687557722255121
  0.2507429808976340  0.8774605348145315  0.4580428565247701
  0.0848737011969902  0.8127333503888110  0.4552427558956111
  0.4166511183264134  0.8120165096301832  0.4536746756422616
  0.9995627892258483  0.8753202487896417  0.5415001106924535
  0.3329948305094561  0.8110258403704123  0.5431530512736771
  0.9999811688465670  0.8750533403527641  0.1978575237541236
  0.3338606566796400  0.9375952733475543  0.2027997209386285
  0.1660043254884584  0.9376565209657670  0.2031686370264012
  0.2499705561604699  0.4999759685407881  0.2782748233777852
  0.0824785107655899  0.9375990464146540  0.2845684566740587
  0.4170608523348562  0.9374947069776809  0.2842512160425983
  0.9995820284385957  0.5000512724197463  0.3698407232016905
  0.3314199639207942  0.9374413123316998  0.3688823142978777
  0.1679101166857109  0.9376360548808478  0.3686827693730237
  0.2500824332670035  0.4983681887436759  0.4569258868218640
  0.0833129769935610  0.9378963092322792  0.4539049540299231
  0.4178079119160714  0.9377992094128231  0.4530113516562864
  0.0018822609783768  0.4987876579927786  0.5417315670729508
  0.3432861278120853  0.9374958257971358  0.5412797763235702
  0.1719650211238033  0.9367526082827027  0.5430034627165128
  0.4999714771029176  0.0000249552262162  0.1975531663402421
  0.8341383313473116  0.0624696353752299  0.2030844340697371
  0.6660385499347825  0.0624463717520456  0.2027628936471686
  0.7500591530465996  0.1250740414375144  0.2784756787167169
  0.5829756024436890  0.0625100793489324  0.2841689355462620
  0.9173681533495710  0.0625685138128205  0.2844632242206941
  0.4998760143065510  0.1250712522414403  0.3691932388402677
  0.8319937537543680  0.0626052168128766  0.3687875115519148
  0.6683069900396461  0.0625691811819564  0.3688133375416314
  0.7490807630754759  0.1274203681003812  0.4578921126714093
  0.5828333055827173  0.0621678640133538  0.4534556231781224
  0.9148934334298247  0.0627191728503647  0.4552626257666788
  0.4997525499036897  0.1122456973073014  0.5434882999623980
  0.6666197477970641  0.0607903926456927  0.5428331005244686
  0.4999767246201543  0.1249847984072261  0.1975747206478644
  0.8339827293062072  0.1876054687788482  0.2031238987393493
  0.6661026221865214  0.1875933788782902  0.2027735465962124
  0.7499400172890702  0.2500099719749969  0.2784097211607772
  0.5828587215367378  0.1875147889598665  0.2842241560195973
  0.9174088509060780  0.1875614077319980  0.2845220205170662
  0.4997810046964801  0.2499136192955049  0.3692006135534385
  0.8318552925930689  0.1876383343919201  0.3685911063622385
  0.6683095798684562  0.1874643133605574  0.3688008617852034
  0.7494903574463549  0.2483547311235839  0.4574394496258805
  0.5819815572762366  0.1878806345734034  0.4529155331351689
  0.9163943711987059  0.1879512103296079  0.4538367605072580
  0.8273534655534931  0.1866937362919145  0.5430029814975939
  0.6563868482789630  0.1873559967284493  0.5411869259302406
  0.4999883024705838  0.2500226243449220  0.1975476646670415
  0.8340178875948254  0.3124634884480813  0.2030476376797097
  0.6659683092861570  0.3124898634708870  0.2027731244944562
  0.7498743609938003  0.3750536516705338  0.2784561848314908
  0.5829086423637406  0.3125266820815042  0.2842350222192067
  0.9172651271677310  0.3125514015808406  0.2843806859495146
  0.4996637243626978  0.3751134482107261  0.3693290535805005
  0.8318841513755331  0.3126155934257042  0.3687267802863587
  0.6681783891966830  0.3126101556454515  0.3688834572533182
  0.7490213637099430  0.3773853176259436  0.4579764038159126
  0.5826402997489453  0.3122236170492840  0.4535758402575496
  0.9148459981455090  0.3126925773465388  0.4551476796887641
  0.5004480253777714  0.3628235159736946  0.5435567881219399
  0.6670062790118720  0.3107695309075424  0.5429309649338947
  0.4999656752005066  0.3749738446625130  0.1975787567174692
  0.8338415243785633  0.4376007053453819  0.2030713061958593
  0.6659821425456158  0.4376218760857640  0.2028352131094664
  0.7500393741167457  0.9999975678368713  0.2784342420410155
  0.5827315509725182  0.4375106432379354  0.2843123771162581
  0.9172897371317319  0.4375526793822573  0.2844280582562604
  0.4998675206304739  0.9998625560696297  0.3691436551974832
  0.8318048765632113  0.4376439212776901  0.3685610568111244
  0.6681415733665048  0.4374705863420942  0.3689148816493528
  0.7495978722453600  0.9982882190322897  0.4575842131280865
  0.5816352472093200  0.4379222445944890  0.4530957863941509
  0.9164588590638445  0.4378758773649096  0.4536385611561329
  0.8283371667347552  0.4368757550859712  0.5428964438351329
  0.6571425175529839  0.4373083515609153  0.5411796319936499
  0.4999577470014103  0.5000345493002740  0.1975574823790254
  0.8339638083310632  0.5625037332827247  0.2030413572876526
  0.6658625995349894  0.5624480259157139  0.2028574000458931
  0.7498461362350497  0.6250381568522698  0.2785282177002557
  0.5828302765603581  0.5625090942416762  0.2843035485140959
  0.9171457947573742  0.5625842926065587  0.2843257010567157
  0.4995361203883135  0.6250534286655949  0.3694180086637076
  0.8318472115277373  0.5626051275123629  0.3687429561330120
  0.6681290975886824  0.5625809518411273  0.3689199624398825
  0.7490554151525259  0.6272872238405398  0.4579813974275169
  0.5825330530148278  0.5621236394693341  0.4536472499356918
  0.9150291665142234  0.5627030491632894  0.4552310157305044
  0.5024847115085862  0.6133366881066351  0.5433534461799923
  0.6678172522604697  0.5607277715975698  0.5430985492014599
  0.4999528206709698  0.6250031300163030  0.1976090707289586
  0.8339215113265581  0.6876925574276669  0.2031128676584046
  0.6659594958133113  0.6875818356265100  0.2028574344592826
  0.7498767377532687  0.7500030304866740  0.2784465113433470
  0.5827249886210879  0.6874949613563430  0.2843318206209560
  0.9173206104590292  0.6876016832286069  0.2845016731960470
  0.4997091857479248  0.7498025124344565  0.3692677755763185
  0.8318419715011203  0.6876349217211910  0.3686173496943894
  0.6681828096907054  0.6874319150292578  0.3689324716731051
  0.7496081739101470  0.7483234580209626  0.4576828514386477
  0.5815434804262338  0.6877688420038695  0.4531617975574775
  0.9166158668013864  0.6878827568800361  0.4537064635368466
  0.8288718525376879  0.6863931567502846  0.5428271798701516
  0.6574135182999541  0.6874451244380140  0.5412316272455371
  0.4999544431634959  0.7500373265088598  0.1975750785814157
  0.8340324151667318  0.8125034165377087  0.2031032097852474
  0.6659961314809024  0.8124302992311172  0.2028246304817145
  0.7500309683292627  0.8750619575245508  0.2785027552940988
  0.5828920581181549  0.8125032065519093  0.2842525352360141
  0.9172949057320636  0.8125896937330879  0.2844434465920855
  0.4998005008076305  0.8750149949338493  0.3692540094281611
  0.8319286369262429  0.8125833275320815  0.3687880957285330
  0.6682186835643833  0.8125174058782889  0.3688910788349702
  0.7490173829835598  0.8773514254019972  0.4578345350037054
  0.5826013409061943  0.8120587528471148  0.4535658737528792
  0.9149337345758966  0.8127208800871131  0.4552050465826056
  0.4997253274699034  0.8621777032582969  0.5435668081527467
  0.6667328576626872  0.8107641642327792  0.5428837339132855
  0.4999759800201033  0.8750009462089992  0.1976106738595220
  0.8340125500093691  0.9376412305143873  0.2031449972310142
  0.6661005007825409  0.9375772352792495  0.2027974890833590
  0.7497803092031177  0.5000421403881177  0.2784336451030214
  0.5828537793789650  0.9374960578094829  0.2842352264581507
  0.9174386275455291  0.9375789096655325  0.2845571300935887
  0.4995093570203579  0.4998303501669383  0.3693692727225084
  0.8318903771507351  0.9376395142675804  0.3686294513638018
  0.6683664722768015  0.9374342227285410  0.3688048042955572
  0.7496602142194249  0.4983858752024517  0.4574912440532444
  0.5819691271485823  0.9377844998686911  0.4529028211649404
  0.9163844274784125  0.9379002374731940  0.4538673253689964
  0.8273291396973903  0.9364309683645189  0.5429951962368165
  0.6562574675892137  0.9373402462505851  0.5412126702066686
  0.4055151501972745  0.9999698148128786  0.2324113360808298
  0.2499360760346434  0.0000604664011519  0.1994396192995609
  0.0942614862257116  0.0000287945074504  0.2327809564420349
  0.1549545102601897  0.1250693876459863  0.3161929784517099
  0.9999503625779766  0.1250442285214675  0.3035261812438250
  0.3449485476995235  0.1250456642829008  0.3162170763406564
  0.4009414222575600  0.1248529813157901  0.4019052753968069
  0.2496015145881287  0.1249687571428737  0.3892314019308145
  0.0992953301658019  0.1251267254205217  0.4022666340883703
  0.1500025912441671  0.1269077571885475  0.4874270156783638
  0.9998677385748636  0.1251192412409452  0.4730949471344701
  0.3523213297662622  0.1252235289723771  0.4875730034318835
  0.4059915863265431  0.1263471756071723  0.5714702709255519
  0.2564444465526208  0.1297407771489389  0.5544362777952543
  0.0974259747593891  0.1273731081276281  0.5695246691921270
  0.4054324369132445  0.1250481580111327  0.2324302840880463
  0.2499192356600020  0.1249983913613733  0.1996959479099658
  0.0943375250955327  0.1250814152090030  0.2327811662553998
  0.1548530346544297  0.2500470831852439  0.3160598443362801
  0.9999083257768504  0.2501054851225604  0.3034670748211781
  0.3449649757997548  0.2499679726931490  0.3161382789506746
  0.4008232917970460  0.2501742572119099  0.4017555230724739
  0.2495535549437093  0.2501457824259248  0.3888883123034290
  0.0993109213921102  0.2501995304592199  0.4022357113624295
  0.1501900653627004  0.2490778668373324  0.4880345060789253
  0.9998332328298289  0.2503349702331903  0.4732972032468936
  0.3509027255436905  0.2504080660543266  0.4871536469953099
  0.4106432867592673  0.2547906133452358  0.5650842841140715
  0.2581646044462147  0.2474767846249790  0.5553124207352838
  0.0972323668287700  0.2479322707158573  0.5696474179641555
  0.4055397699529522  0.2499785444004914  0.2324129768852217
  0.2499566825821589  0.2500340537489194  0.1993203416342553
  0.0942234271103857  0.2499880055998744  0.2326803514029834
  0.1549024168860313  0.3750010902989942  0.3159804907633514
  0.9998666330985770  0.3750112101553711  0.3033759137280896
  0.3449233449509208  0.3750087712505490  0.3162168488061994
  0.4006944427617825  0.3748661917831910  0.4021541267441862
  0.2495201315867703  0.3749434963896050  0.3889230827922461
  0.0992558405038224  0.3750506872718304  0.4020759264512535
  0.1505359894981169  0.3766814165195669  0.4873434680893141
  0.9999002678346400  0.3750708446104127  0.4729489431707989
  0.3514331935691146  0.3752273842054308  0.4881586466006240
  0.4066679208515822  0.3766920878167355  0.5718087031811194
  0.2569613683852552  0.3805615174879833  0.5565361997412168
  0.0975181919027435  0.3774561682112960  0.5695503198429250
  0.4054414141062921  0.3750523355983688  0.2324602420642208
  0.2499540348306510  0.3749948093761191  0.1997052537270747
  0.0942690990840518  0.3750561120851970  0.2326049905911631
  0.1548887934845098  0.0001025972410815  0.3161555966468867
  0.9999592349014250  0.0001251466517118  0.3035626491354790
  0.3449557362387026  0.9999710992368591  0.3161538186013431
  0.4008795117599675  0.0000823358891182  0.4016626969905488
  0.2495818076616274  0.0001956064663560  0.3890059986170655
  0.0993828304601436  0.0002752624637239  0.4023299311073387
  0.1500964851918951  0.9990481627383190  0.4881017907170317
  0.9999001966255392  0.0003599191371819  0.4733175553619517
  0.3510503410169221  0.0004375668482481  0.4870206732522036
  0.4107663376477220  0.0043829255619130  0.5650846529639750
  0.2583422844976369  0.9973885748583484  0.5550923197265192
  0.0974801731257813  0.9976651189301151  0.5698822859717581
  0.4055413041173779  0.4999764776898132  0.2324463340500174
  0.2499672194297204  0.5000464472188710  0.1993158889608893
  0.0941228726116989  0.5000082174511036  0.2324740792043869
  0.1548979059519411  0.6251367049487015  0.3158918093562946
  0.9998433216430556  0.6250509803043798  0.3033195533021953
  0.3448533906413331  0.6250560530374329  0.3161951524601747
  0.4004516421766482  0.6247862105005453  0.4022062334672611
  0.2494735716841348  0.6250396456934553  0.3887304757246639
  0.0991829641434450  0.6253603079019996  0.4017524331386397
  0.1509313315337266  0.6264103873261959  0.4871440972064107
  0.0001520881024817  0.6251440406997659  0.4730540349881949
  0.3507677465196934  0.6247267655436133  0.4886854461696686
  0.4091396032912726  0.6261839344936391  0.5717714537214960
  0.2585370647960374  0.6325098921183994  0.5616258112301367
  0.1003641348147468  0.6243252399037971  0.5695896868940338
  0.4054333433818940  0.6250564040345310  0.2324857830149938
  0.2499329801936625  0.6250520325857849  0.1996647020044122
  0.0942058479913541  0.6251458636634908  0.2325545050947326
  0.1548267911630674  0.7501602387947699  0.3160278933532297
  0.9998964724987545  0.7501621904067690  0.3034815543421487
  0.3448983302386424  0.7500069690459483  0.3161475180356987
  0.4006853473236660  0.7499684521066925  0.4018346928985324
  0.2495014174133061  0.7502203715382691  0.3888973159335762
  0.0993788774925051  0.7502385828981133  0.4022889185276597
  0.1503892377527549  0.7489600926880655  0.4880803284447737
  0.0000156580193931  0.7503021847195512  0.4732252090393487
  0.3506545231398093  0.7501132013965162  0.4873568007137550
  0.4110407298878158  0.7541685557162552  0.5652265397598910
  0.2584981430723090  0.7479868154430775  0.5557454269999695
  0.0979437512205479  0.7468347467128496  0.5701814186773007
  0.4055087672628588  0.7499607232817951  0.2324417843520052
  0.2499360644904911  0.7500632375314993  0.1994512737080925
  0.0942058381965509  0.7500765528014028  0.2326445459992925
  0.1549185560438104  0.8751017831636361  0.3161957151786012
  0.9999211720924279  0.8750567545057990  0.3035276235340518
  0.3448976233981682  0.8750525719991842  0.3162414139157264
  0.4008572618918578  0.8747664165017000  0.4019644890654561
  0.2495678963655692  0.8749585504066175  0.3892291421666698
  0.0992857040740702  0.8751062918733581  0.4022948556054118
  0.1500883353161271  0.8768645534426582  0.4874674594097144
  0.9998367670220816  0.8751169705188460  0.4731756930089830
  0.3523002376608773  0.8750926712242091  0.4876602408095181
  0.4058872277708048  0.8760513076905099  0.5715633862624756
  0.2565242280400142  0.8797943304219089  0.5544433541286509
  0.0974146866488041  0.8770558610593469  0.5694333472114721
  0.4054155905661148  0.8750569667008676  0.2324517869942113
  0.2499175728495544  0.8750489527320369  0.1996252433893630
  0.0943106441328183  0.8751359649102213  0.2327743388631731
  0.1548072129763156  0.5000439483465797  0.3157672688748221
  0.9998227520425615  0.5001313248516084  0.3032665175613758
  0.3449422578392927  0.4999430979798944  0.3161204152858375
  0.4004258915966759  0.5000432985136740  0.4020357457502683
  0.2494491491580533  0.5000271005797785  0.3885567386237199
  0.0991555082631166  0.4999146946175301  0.4016793352678079
  0.1506361565832179  0.4986413269913257  0.4872765628767723
  0.0000006658802079  0.5001687965784001  0.4731171005683876
  0.3498810943216313  0.5003635391939198  0.4881800181717750
  0.4134846515733130  0.5045108285668576  0.5659717088789975
  0.2600655696559357  0.4975357596530046  0.5607115315360645
  0.0996570169448461  0.4994704495646332  0.5696202758348292
  0.9057201546674065  0.0000167924229686  0.2327587192295439
  0.7500754026569680  0.0000441067022194  0.1993997485352637
  0.5944391949038419  0.9999625370002931  0.2323836971484994
  0.6549810422144091  0.1250479446349644  0.3161613564254964
  0.4999784580228734  0.1250123526714688  0.3027602822480020
  0.8449273936589705  0.1250712643103498  0.3161713270381270
  0.9004922182283437  0.1251223492537150  0.4022496947514966
  0.7502103793280099  0.1249606577002282  0.3891401768740366
  0.5988270099987574  0.1248358076252671  0.4018319398341106
  0.6474398902979033  0.1251140289693495  0.4874713033291442
  0.4998890868032291  0.1245243041821951  0.4745502939122730
  0.8496934099420912  0.1269403859619302  0.4873201495112340
  0.9019873494491506  0.1273029880535930  0.5694727883876922
  0.7430769149020904  0.1294984484555073  0.5543731526287772
  0.5935868453053175  0.1260683854267768  0.5713521019039547
  0.9056426149351822  0.1250857124436351  0.2327657236256613
  0.7500770028806230  0.1250120068332592  0.1996592733289688
  0.5945434784870542  0.1250597573878807  0.2324006370103717
  0.6549161647636623  0.2500084408611158  0.3161181495874459
  0.4999458487342991  0.2500103829063320  0.3027700374323956
  0.8449361083529467  0.2500923578555074  0.3160849727381745
  0.9003510234139398  0.2502655545791370  0.4022629307669305
  0.7501634671587141  0.2502008442243735  0.3888917246451342
  0.5987884197705711  0.2501561995880479  0.4016331313309323
  0.6487507350231425  0.2504847150003897  0.4869648643727160
  0.4997926886247228  0.2502520144913589  0.4736613284288467
  0.8494141227314529  0.2489987514124721  0.4880517635697643
  0.9020141027785016  0.2476222764216942  0.5697389518646929
  0.7411046137933752  0.2471036901396531  0.5554599545311731
  0.5887271190130932  0.2543599688109524  0.5648894901239814
  0.9056739902783448  0.2499991650745059  0.2327029602376385
  0.7500170692421335  0.2500487853893603  0.1994335569838483
  0.5944276503622703  0.2499882931726916  0.2324052848405742
  0.6548918177775889  0.3750845929629492  0.3162401415771825
  0.4998884937501629  0.3750107555504911  0.3028726236769614
  0.8447870441886494  0.3750851512528826  0.3161115161609729
  0.9004368846183013  0.3750720190445591  0.4021370581800028
  0.7501014793067498  0.3750127790494773  0.3891922682951048
  0.5985975749521586  0.3748734988957025  0.4019566216287345
  0.6472646978190184  0.3751709974582695  0.4875251329546231
  0.4995313533638424  0.3746237003290176  0.4746662978767091
  0.8497823957754278  0.3769605010610491  0.4872288491467600
  0.9024339279918863  0.3774237674098018  0.5693527071116833
  0.7436928948644024  0.3794094150615379  0.5540442593961004
  0.5942148183453710  0.3760270567779358  0.5715277767913420
  0.9055523830544558  0.3750765247749115  0.2326904691380065
  0.7499820475599392  0.3750231977817293  0.1996262842576115
  0.5944484675927058  0.3750749851422839  0.2324883023345024
  0.6549636972889985  0.9999745101052824  0.3160948473953908
  0.4999661628286987  0.0000014488956523  0.3027291243655625
  0.8450184442038946  0.0000990666847258  0.3161333421557018
  0.9004183638256720  0.0002769757295908  0.4023253719518749
  0.7502403358796172  0.0001893024509911  0.3889681510976501
  0.5988912533754771  0.0000743592163914  0.4015743708522095
  0.6486616702668186  0.0003606712244562  0.4869058060607117
  0.4998924050454292  0.0001836433107059  0.4735465576865110
  0.8496541331402838  0.9990554758201071  0.4881311095711851
  0.9024013758612384  0.9971608525400271  0.5698319500993065
  0.7412315557747178  0.9972777634455454  0.5549900542873445
  0.5887536223156076  0.0042599835485220  0.5649189550825255
  0.9055579590819463  0.5000128100820902  0.2326453605149510
  0.7499662075701750  0.5000691520517506  0.1994178076805682
  0.5942964595580591  0.4999764843528851  0.2325030053092831
  0.6548415814703361  0.6250659588047824  0.3162777361171436
  0.4998328545741657  0.6249943151817163  0.3029503348964084
  0.8448020004764700  0.6250969315943848  0.3161426970426788
  0.9004009891908140  0.6250628342617119  0.4021925972377502
  0.7500848546745971  0.6249914919414365  0.3892044503088741
  0.5985860292842773  0.6247813023564461  0.4019757769263990
  0.6473249173396880  0.6249779679954628  0.4876195872347111
  0.4994720428115400  0.6245090899082442  0.4744276083815890
  0.8498716972247280  0.6269936102246234  0.4872207402880591
  0.9040175189115445  0.6271506479454345  0.5690622024749743
  0.7442427949285744  0.6295065151290586  0.5542214243492225
  0.5958686684150578  0.6258217832206299  0.5721400775452565
  0.9054894930536008  0.6251496935264385  0.2327098878961209
  0.7499754631867432  0.6250413617157093  0.1998156821135453
  0.5944181155764312  0.6250576859585166  0.2325333622829788
  0.6548715112239378  0.7499428862748658  0.3161907017723422
  0.4998689183003506  0.7500042780815193  0.3028338152742194
  0.8448939769657713  0.7500853439261874  0.3161180398016796
  0.9004158668218949  0.7502850106804502  0.4022572270654479
  0.7501684563803295  0.7501249473871070  0.3890443568847033
  0.5986927731725373  0.7500289810426466  0.4017275981683923
  0.6486673880744007  0.7503071355654996  0.4869522034641278
  0.4994472174053257  0.7501041933088928  0.4736981043548525
  0.8498462074383184  0.7489537347739486  0.4880504805454038
  0.9032295365886043  0.7470967618306830  0.5696957079018503
  0.7420968505036356  0.7474472565888703  0.5546080539310978
  0.5894868377341993  0.7540463373408386  0.5652120079031775
  0.9056540508818500  0.7500498229167150  0.2327299448954747
  0.7499859805811866  0.7500415112006493  0.1994036610839203
  0.5943446260081018  0.7499501536674131  0.2324778648069241
  0.6549484415381031  0.8750208488021300  0.3162021108471293
  0.4999297299007921  0.8750036870239057  0.3028101385747064
  0.8449076194080263  0.8750795644273879  0.3161832268162996
  0.9004702699837921  0.8750997153507214  0.4022408167950218
  0.7501871078584585  0.8749398876679848  0.3891170121231724
  0.5987914626379407  0.8747488519336883  0.4018773566225704
  0.6474549511081449  0.8750285711365180  0.4875165505897598
  0.4997770228407248  0.8743844107400633  0.4745867272797426
  0.8495226390872190  0.8768985512331966  0.4873332013675906
  0.9017694436245733  0.8768637184735013  0.5694070459624854
  0.7429312835083053  0.8796905753357720  0.5546820399449643
  0.5935512128327076  0.8760082545959733  0.5714205515732971
  0.9056211846487940  0.8751112342113316  0.2327775379131012
  0.7500483794392991  0.8750259308560970  0.1996767512522410
  0.5945244351475978  0.8750333986239411  0.2324543611210999
  0.6548047298330673  0.4999733256942704  0.3161976315586656
  0.4998347481301906  0.5000219057857649  0.3029043057344367
  0.8448472482765723  0.5000837396923359  0.3160643948989161
  0.9002515113500635  0.5003042725852325  0.4022396053235227
  0.7500781318252621  0.5001736085289323  0.3889328709069133
  0.5985952772994736  0.5001459759932132  0.4017323131039277
  0.6489540509696639  0.5004336561305962  0.4870263893045177
  0.4995066127234082  0.5002191804159608  0.4737180791475453
  0.8496847612256602  0.4988742256278798  0.4880366552643665
  0.9038987718360971  0.4973146683440817  0.5694650924343634
  0.7419268201682954  0.4970655715499106  0.5554559444311380
  0.5897331192109689  0.5043153943999599  0.5651467995698241
  0.1269761688131439  0.0619513934909577  0.5366339137589478
  0.1275498771497965  0.3115417499545430  0.5358608886601246
  0.1283110760512471  0.5616065528089607  0.5317039732124869
  0.1270724655025575  0.8120899767240530  0.5365197619745885
  0.8733363827366958  0.0615531974696850  0.5369649555538345
  0.4997993751331080  0.2614673535944476  0.5365380790152230
  0.8730301868769885  0.3118305828242711  0.5365768468412782
  0.4996985458416887  0.0109688996928980  0.5364045788610596
  0.8752402802733741  0.5616250368644344  0.5367620253831333
  0.5005827797008919  0.7607497916556625  0.5366059107064416
  0.8732071845950600  0.8114060607125495  0.5366545912981167
  0.5013422156463179  0.5113641130678630  0.5365520186560815
  0.2151696699624353  0.5648947324605373  0.5901824161489557
 
  0.00000000E+00  0.00000000E+00  0.00000000E+00
  0.00000000E+00  0.00000000E+00  0.00000000E+00
  0.00000000E+00  0.00000000E+00  0.00000000E+00
  0.00000000E+00  0.00000000E+00  0.00000000E+00
  0.00000000E+00  0.00000000E+00  0.00000000E+00
  0.00000000E+00  0.00000000E+00  0.00000000E+00