Mo  S Co                                
   1.00000000000000     
    15.9215000000000000    0.0000000000000000    0.0000000000000000
    -7.9622500000000000   13.7910219999999999    0.0000000000000000
     0.0000000000000000    0.0000000000000000   13.5822000000000003
   Mo   S    Co
    25    50     3
Direct
  0.1327433522440913  0.0659366642351671  0.6818659283378494
  0.1335633633809508  0.2652789541514267  0.6811446155745173
  0.1325662768017892  0.4657693726396417  0.6752976882750588
  0.1327936793771372  0.6658656585097305  0.6733557789414206
  0.1325548016443818  0.8656211771179230  0.6774627089473810
  0.3330797922475313  0.0661366795460196  0.6773307769613339
  0.3357185041213739  0.2680356339363144  0.6851997538201715
  0.3293194813652889  0.4654532397219597  0.6885807762624623
  0.3306365413480421  0.6676955865946539  0.6786630000097063
  0.3318106330164952  0.8669332375903807  0.6746091504043079
  0.5328999813450253  0.0658661399326164  0.6733481734157394
  0.5337144358914685  0.2628561277155583  0.6760123605084445
  0.5388299585652518  0.4601290699144656  0.6866790412290769
  0.5269964149235591  0.6717357525041052  0.6966009577469023
  0.5311178703970185  0.8681149384093416  0.6787148476078286
  0.7329944110850519  0.0660520531020552  0.6755105638251422
  0.7343134040892210  0.2641197672738045  0.6715026118844492
  0.7356275805806192  0.4630790651143144  0.6747673605160216
  0.7382963379233161  0.6597846342409355  0.6872018237727602
  0.7332263194608686  0.8692466564788361  0.6888153274011017
  0.9334698553889922  0.0651617859069376  0.6813065603729314
  0.9338855134818829  0.2648226472353770  0.6745258152772138
  0.9345241576410075  0.4644080421713070  0.6714858404970911
  0.9357868819707775  0.6649592250419758  0.6761466655122206
  0.9305588730654364  0.8628968382967841  0.6855938678514519
  0.0667582790961276  0.1318847663851983  0.5662886523490300
  0.0663352089201936  0.1325269571612964  0.7965537413228461
  0.0692185703771102  0.3307867457387843  0.5617690504056441
  0.0647551333680880  0.3330698416038516  0.7916720282296339
  0.0684521180789588  0.5324347803972955  0.5572880637635862
  0.0653224451006054  0.5322111918631620  0.7882628408774366
  0.0667193347804513  0.7340551809044840  0.5596685935819323
  0.0684746937620844  0.7314652992994155  0.7909503670628624
  0.0623164606869437  0.9320207970530774  0.5672888196092458
  0.0669328927278627  0.9312476472839109  0.7961403156751388
  0.2665311503949042  0.1362058536358077  0.5670785210277245
  0.2675101374990660  0.1318022674644084  0.7959942344222597
  0.2698727398331755  0.3359046420454135  0.5706316654763270
  0.2634585518303254  0.3322507894475137  0.8053136504505147
  0.2696833960949689  0.5326120501898970  0.5652001136794809
  0.2594859413764752  0.5343515124211677  0.7953405403667730
  0.2667585450927632  0.7332235928419237  0.5593970362106759
  0.2630213721812140  0.7344774451862932  0.7906293687023478
  0.2645959767124850  0.9340312398784789  0.5608423521860004
  0.2662029248072173  0.9326054916115112  0.7916099895466928
  0.4647346715153162  0.1319031709590988  0.5595916546537509
  0.4672501848387824  0.1302120467255676  0.7908258770415699
  0.4665808598554761  0.3331995525477112  0.5664540468248020
  0.4736405222369697  0.3271173011083093  0.8013543373878704
  0.4695548952672510  0.5345898761259491  0.5863845236066112
  0.4502315639253425  0.5601067281217453  0.8403047947626874
  0.4671168604827187  0.7316806349899707  0.5677210836610271
  0.4567641188642995  0.7420648243361896  0.7990410691106078
  0.4655631400340781  0.9319310527085207  0.5593986881553761
  0.4642859878005510  0.9356980829543673  0.7906445885454971
  0.6664106867187769  0.1301345700339809  0.5573890278850371
  0.6665199943126225  0.1333450908038145  0.7883447168988695
  0.6661570106757608  0.3310088042123454  0.5584085995788470
  0.6696899375316718  0.3286272839025912  0.7885139159221666
  0.6669879734429145  0.5319372611311053  0.5660032596407163
  0.6744617631257626  0.5237977620464775  0.8015590350898449
  0.6641488698721290  0.7291365529100631  0.5864694686993275
  0.6391754088173371  0.7478154691691259  0.8396509840545789
  0.6662762048445927  0.9289583537192314  0.5653753746150727
  0.6643839012165813  0.9390917006262356  0.7955764520590236
  0.8679097855691609  0.1294135881143177  0.5618873875741954
  0.8657644093398176  0.1340536647321997  0.7918049154607871
  0.8682347923579883  0.3304623445777821  0.5566106236411699
  0.8669695219367597  0.3317623470513169  0.7871109227278978
  0.8676670078643909  0.5326127022508302  0.5584324232386351
  0.8700056315314555  0.5289654382145983  0.7885823004459880
  0.8652347430338168  0.7320871343372275  0.5669303641878400
  0.8714506924903134  0.7247092949807765  0.8017267765214413
  0.8628903866831763  0.9287588273365088  0.5709515886783620
  0.8663896926370711  0.9354487642159626  0.8056651620531881
  0.4166808034231764  0.4185839352620633  0.8377719614803567
  0.5986486213166700  0.5985960901167502  0.8383831998767590
  0.7811569809173662  0.7825354421846811  0.8387902717746201
 
  0.00000000E+00  0.00000000E+00  0.00000000E+00
  0.00000000E+00  0.00000000E+00  0.00000000E+00
  0.00000000E+00  0.00000000E+00  0.00000000E+00
  0.00000000E+00  0.00000000E+00  0.00000000E+00
  0.00000000E+00  0.00000000E+00  0.00000000E+00
  0.00000000E+00  0.00000000E+00  0.00000000E+00
  0.00000000E+00  0.00000000E+00  0.00000000E+00
  0.00000000E+00  0.00000000E+00  0.00000000E+00
  0.00000000E+00  0.00000000E+00  0.00000000E+00
  0.00000000E+00  0.00000000E+00  0.00000000E+00
  0.00000000E+00  0.00000000E+00  0.00000000E+00
  0.00000000E+00  0.00000000E+00  0.00000000E+00
  0.00000000E+00  0.00000000E+00  0.00000000E+00
  0.00000000E+00  0.00000000E+00  0.00000000E+00
  0.00000000E+00  0.00000000E+00  0.00000000E+00
  0.00000000E+00  0.00000000E+00  0.00000000E+00
  0.00000000E+00  0.00000000E+00  0.00000000E+00
  0.00000000E+00  0.00000000E+00  0.00000000E+00
  0.00000000E+00  0.00000000E+00  0.00000000E+00
  0.00000000E+00  0.00000000E+00  0.00000000E+00
  0.00000000E+00  0.00000000E+00  0.00000000E+00
  0.00000000E+00  0.00000000E+00  0.00000000E+00
  0.00000000E+00  0.00000000E+00  0.00000000E+00
  0.00000000E+00  0.00000000E+00  0.00000000E+00
  0.00000000E+00  0.00000000E+00  0.00000000E+00
  0.00000000E+00  0.00000000E+00  0.00000000E+00
  0.00000000E+00  0.00000000E+00  0.00000000E+00
  0.00000000E+00  0.00000000E+00  0.00000000E+00
  0.00000000E+00  0.00000000E+00  0.00000000E+00
  0.00000000E+00  0.00000000E+00  0.00000000E+00
  0.00000000E+00  0.00000000E+00  0.00000000E+00
  0.00000000E+00  0.00000000E+00  0.00000000E+00
  0.00000000E+00  0.00000000E+00  0.00000000E+00
  0.00000000E+00  0.00000000E+00  0.00000000E+00
  0.00000000E+00  0.00000000E+00  0.00000000E+00
  0.00000000E+00  0.00000000E+00  0.00000000E+00
  0.00000000E+00  0.00000000E+00  0.00000000E+00
  0.00000000E+00  0.00000000E+00  0.00000000E+00
  0.00000000E+00  0.00000000E+00  0.00000000E+00
  0.00000000E+00  0.00000000E+00  0.00000000E+00
  0.00000000E+00  0.00000000E+00  0.00000000E+00
  0.00000000E+00  0.00000000E+00  0.00000000E+00
  0.00000000E+00  0.00000000E+00  0.00000000E+00
  0.00000000E+00  0.00000000E+00  0.00000000E+00
  0.00000000E+00  0.00000000E+00  0.00000000E+00
  0.00000000E+00  0.00000000E+00  0.00000000E+00
  0.00000000E+00  0.00000000E+00  0.00000000E+00
  0.00000000E+00  0.00000000E+00  0.00000000E+00
  0.00000000E+00  0.00000000E+00  0.00000000E+00
  0.00000000E+00  0.00000000E+00  0.00000000E+00
  0.00000000E+00  0.00000000E+00  0.00000000E+00
  0.00000000E+00  0.00000000E+00  0.00000000E+00
  0.00000000E+00  0.00000000E+00  0.00000000E+00
  0.00000000E+00  0.00000000E+00  0.00000000E+00
  0.00000000E+00  0.00000000E+00  0.00000000E+00
  0.00000000E+00  0.00000000E+00  0.00000000E+00
  0.00000000E+00  0.00000000E+00  0.00000000E+00
  0.00000000E+00  0.00000000E+00  0.00000000E+00
  0.00000000E+00  0.00000000E+00  0.00000000E+00
  0.00000000E+00  0.00000000E+00  0.00000000E+00
  0.00000000E+00  0.00000000E+00  0.00000000E+00
  0.00000000E+00  0.00000000E+00  0.00000000E+00
  0.00000000E+00  0.00000000E+00  0.00000000E+00
  0.00000000E+00  0.00000000E+00  0.00000000E+00
  0.00000000E+00  0.00000000E+00  0.00000000E+00
  0.00000000E+00  0.00000000E+00  0.00000000E+00
  0.00000000E+00  0.00000000E+00  0.00000000E+00
  0.00000000E+00  0.00000000E+00  0.00000000E+00
  0.00000000E+00  0.00000000E+00  0.00000000E+00
  0.00000000E+00  0.00000000E+00  0.00000000E+00
  0.00000000E+00  0.00000000E+00  0.00000000E+00
  0.00000000E+00  0.00000000E+00  0.00000000E+00
  0.00000000E+00  0.00000000E+00  0.00000000E+00
  0.00000000E+00  0.00000000E+00  0.00000000E+00
  0.00000000E+00  0.00000000E+00  0.00000000E+00
  0.00000000E+00  0.00000000E+00  0.00000000E+00
  0.00000000E+00  0.00000000E+00  0.00000000E+00
  0.00000000E+00  0.00000000E+00  0.00000000E+00
