Ta  N  W Cu                             
   1.00000000000000     
    18.1096308199999996    0.0000000000000000    0.0000000000000000
     0.0000000000000000   23.3551997799999995    0.0000000000000000
     0.0000000000000000    0.0000000000000000   30.4818171199999988
   Ta   N    W    Cu
   216   240    24     1
Direct
  0.0000771214277009  0.0000011798036468  0.1977617691601949
  0.3343077151292135  0.0624223926613823  0.2031999684417585
  0.1657039026085130  0.0624231086517284  0.2031578215178413
  0.2499596863988103  0.1249169500458507  0.2782393450954999
  0.0828719471015091  0.0624837278235617  0.2844365295751814
  0.4171676889064315  0.0624765336056825  0.2844443535442664
  0.0000056999745084  0.1251260484815404  0.3700917130266248
  0.3324220788853296  0.0624784987432463  0.3687343803249163
  0.1673909346476989  0.0624852426118778  0.3687689159961138
  0.2498813969282239  0.1253014734302837  0.4555775123971912
  0.0839969674220669  0.0626424622156421  0.4548719371501306
  0.4160911409352863  0.0626266552634860  0.4546887568193512
  0.3360964689719808  0.0626234980404092  0.5418592422856534
  0.1633579939280025  0.0629202185556110  0.5420451910156672
  0.0000303005756308  0.1248494406901344  0.1976549218487236
  0.3341816204591055  0.1873309419851523  0.2028597640113077
  0.1658647837590408  0.1873213664637277  0.2028463432116112
  0.2499902768796218  0.2501684146457706  0.2780677064243804
  0.0825657580443107  0.1874463968295572  0.2841884386918565
  0.4174226721108880  0.1874409357812823  0.2841235570579812
  0.9999423424677545  0.2500282755769447  0.3697616174176588
  0.3324050929011548  0.1874407991928564  0.3687582393777618
  0.1673871617115168  0.1874712204760627  0.3688197737486547
  0.2500488793011755  0.2502510497166526  0.4549163731484995
  0.0834594615631730  0.1876869288593923  0.4546865168864542
  0.4163141811073388  0.1876922180255818  0.4544933507081126
  0.3339001279190938  0.1874547651249046  0.5414332367554451
  0.1657059120797868  0.1887885253714927  0.5417821733967187
  0.0000941360014792  0.2499782949688125  0.1974266792080002
  0.3342978654074429  0.3123785619261170  0.2026182095731670
  0.1658444692850765  0.3123397561549339  0.2026510719317969
  0.2500666308554642  0.3747705863473385  0.2777454390296086
  0.0828856661892701  0.3124506842078247  0.2839324157482963
  0.4171308394414055  0.3124575360517454  0.2838119380765960
  0.9999267284396041  0.3751446342743208  0.3694434197353402
  0.3324090793046537  0.3124653582989083  0.3680182979284865
  0.1673916551804524  0.3124894210956199  0.3681032585056201
  0.2502515073383194  0.3753591792597177  0.4542520209345184
  0.0838737946835622  0.3128397757607217  0.4541558161916441
  0.4157358552917998  0.3126803589821634  0.4541119066789179
  0.3356694527087214  0.3124510599759560  0.5408635224716676
  0.9999579108611485  0.3748116338952130  0.1972417005049465
  0.3341111741541098  0.4374448992109521  0.2023887781095368
  0.1659739219963470  0.4374307677808034  0.2024185131063376
  0.2499595325613342  0.0000607528159975  0.2783968595593933
  0.0825307935819453  0.4374592372144406  0.2837014145050389
  0.4175674218452627  0.4374628830635885  0.2836027312145433
  0.0000046173707062  0.9999465684168172  0.3702461798772703
  0.3325577338923225  0.4374828556606474  0.3681191692713810
  0.1673544417687580  0.4374951553573752  0.3681967730538958
  0.2498690727364092  0.0000597725032989  0.4558131746005998
  0.0835197064942861  0.4376411920740182  0.4538038890831189
  0.4155170694966088  0.4375645696882984  0.4539896695926018
  0.3338551116668143  0.4375634922077083  0.5405671577055600
  0.0000350753152816  0.5001409130001306  0.1971337693748652
  0.3343252962861882  0.5625214132457472  0.2024660499929993
  0.1657793197545914  0.5625303088566866  0.2024961215222305
  0.2500943522284800  0.6247826390703750  0.2778325509340149
  0.0828676111106006  0.5625044017328804  0.2837625126247616
  0.4172195747771070  0.5625181670254449  0.2836347680910691
  0.9999599449882481  0.6250208147907657  0.3694866701454131
  0.3324754693977141  0.5625099799774347  0.3677627175967260
  0.1674853843116040  0.5624994642631194  0.3678426328086246
  0.2503292054298001  0.6248161185556640  0.4543349804222885
  0.0837323698775947  0.5623522926973052  0.4538893347734785
  0.4155859301799296  0.5624164324420349  0.4539365722688800
  0.3357831189320635  0.5626289926118844  0.5404975841421518
  0.9999640706527941  0.6249398401961912  0.1972850071962000
  0.3340639505638450  0.6876768052967464  0.2026116493168715
  0.1659319374979304  0.6876753283999832  0.2026109981483160
  0.2500041294906055  0.7501642677442604  0.2780552853534957
  0.0825428193620539  0.6875387268743154  0.2839574139492669
  0.4175020941499454  0.6875354149375568  0.2838191251312665
  0.9999627060841902  0.7497724671738624  0.3697809022233400
  0.3325115242505916  0.6875320826027789  0.3684358123828204
  0.1673957614516723  0.6874809521087144  0.3684560102496448
  0.2501849572034800  0.7496755953560381  0.4550015132179155
  0.0837723857271371  0.6872890724176060  0.4541587736175003
  0.4161412980534323  0.6873549890435626  0.4543271394578028
  0.3333904086455632  0.6874047208628227  0.5411158155255578
  0.0000835443727496  0.7501972965942443  0.1974326397827610
  0.3342671858253823  0.8125836827193069  0.2029965225011523
  0.1657050493796959  0.8125918924143463  0.2029594121508609
  0.2499344386796665  0.8748243594100913  0.2784039603572523
  0.0829030777523911  0.8125193278395741  0.2842665771694612
  0.4171285138633465  0.8125521348181337  0.2842213403370835
  0.9999698847290404  0.8749672790972269  0.3701379432340062
  0.3323129474733975  0.8125270861529046  0.3685028701930548
  0.1674026137802542  0.8124928522681003  0.3685978543592725
  0.2498121449246256  0.8746540098053828  0.4556675689691687
  0.0839307228887520  0.8121287417696337  0.4545920040917935
  0.4159674821811308  0.8122963132128902  0.4544300946284849
  0.3359229215609574  0.8125657011685377  0.5413991466571559
  0.1634748546877702  0.8111776407635176  0.5418302474504557
  0.0000066149547919  0.8750159482082793  0.1977440703874578
  0.3342903484980013  0.9375863227010299  0.2031352423430519
  0.1657073324277434  0.9375650994741278  0.2030819103663575
  0.2500900250998370  0.5002215737519720  0.2776821675309904
  0.0826242265998616  0.9374945322097474  0.2844398737027944
  0.4173963109061063  0.9375052200742147  0.2844465892247356
  0.9999269314842891  0.4999133527411317  0.3693440968794945
  0.3323928155291540  0.9375194307331967  0.3690809490431590
  0.1674556829455938  0.9375098559247732  0.3691229895178481
  0.2502377529995030  0.4998929532707024  0.4540606708790094
  0.0836261727189935  0.9374065933605209  0.4549763192527152
  0.4165684483568342  0.9374221714011028  0.4549086602546097
  0.3336281399452119  0.9375282486419607  0.5419712670231576
  0.1657194742930344  0.9372217309639908  0.5421237103127936
  0.5000591812997257  0.9999997401557934  0.1977965675405073
  0.8342725284854566  0.0623842380140189  0.2032292109971294
  0.6657172384149419  0.0623925363600293  0.2032002660226055
  0.7500073182211011  0.1249186356327172  0.2783571600046031
  0.5829040581629172  0.0624741341171031  0.2844888391715514
  0.9171839794310017  0.0624802437912280  0.2844656654687867
  0.5000314729078710  0.1251363418923788  0.3700684160933534
  0.8324837931807565  0.0624595279905265  0.3687794257194099
  0.6674525564713178  0.0624733651562366  0.3688000541418930
  0.7498550111701050  0.1252160874370816  0.4556065681257380
  0.5838944517787041  0.0626081165749071  0.4548520762125108
  0.9160608547354698  0.0625752499427037  0.4547539866502177
  0.8362468728288803  0.0625104340473044  0.5418926967330790
  0.6633734468088051  0.0626447717757301  0.5420947753140624
  0.5001912344337001  0.1248446950023805  0.1976940207597266
  0.8341962444445556  0.1873897854040649  0.2028904905293416
  0.6658568357368608  0.1873780315532514  0.2029032898215846
  0.7500473679726696  0.2501732472808200  0.2781197888207814
  0.5826304013094230  0.1874508469719132  0.2842511173677735
  0.9174139982071239  0.1874313163229218  0.2841548120344513
  0.5000065028017744  0.2500596901165437  0.3697437913302366
  0.8324577402372668  0.1874304826237747  0.3688339792880342
  0.6674562119799390  0.1874741368809012  0.3688857003117576
  0.7500428599854061  0.2502149952649049  0.4549834868016021
  0.5834550024797096  0.1876196422036003  0.4546357473068880
  0.9163211125792827  0.1876609777761757  0.4546075816972035
  0.8340428566500577  0.1873467085181062  0.5415311854501041
  0.6655904188138990  0.1881942372752903  0.5417652207707846
  0.5001422072883557  0.2499695987183372  0.1974368996425753
  0.8342502108166840  0.3123294867403459  0.2026683996499301
  0.6658240234615107  0.3122918255212923  0.2027214608938905
  0.7500861297488512  0.3747750258556124  0.2779263054005554
  0.5829433705955083  0.3124524139672005  0.2840006793093792
  0.9170479691197571  0.3124578775167848  0.2838871256495281
  0.5000166524996388  0.3751485560451187  0.3694580052464360
  0.8324561586830868  0.3124729037622558  0.3681780056447792
  0.6675176628324877  0.3125108321398002  0.3682598534270696
  0.7500248895738011  0.3752509734539231  0.4545762517567482
  0.5835686452987474  0.3127153265909683  0.4542889372255203
  0.9156513752211239  0.3126492575132573  0.4541907612264566
  0.8364830256008844  0.3126791704958833  0.5410200058107435
  0.5002358647698770  0.3748096870590629  0.1972382454173669
  0.8340854386692271  0.4375316871189838  0.2024338574027311
  0.6659698515500025  0.4375154586470842  0.2024773425524984
  0.7499985355752159  0.0000545864905277  0.2784121353596873
  0.5826320949547821  0.4374616724144360  0.2837969832794442
  0.9174706144551976  0.4374619308462400  0.2836672686215920
  0.4999949715760863  0.9999646378652471  0.3702450887564268
  0.8325947440812200  0.4374859069894868  0.3682973499633349
  0.6673871474898903  0.4375016969378080  0.3684045934416247
  0.7498594043281983  0.0000183393733622  0.4558380274125611
  0.5836688209599004  0.4376302393596774  0.4539582095433445
  0.9158591201715112  0.4375589423713961  0.4542293481567228
  0.8354858367613360  0.4375921885696386  0.5408260367853757
  0.5001781158099234  0.5001386113727264  0.1971303315696886
  0.8343019147644597  0.5624885487247155  0.2025167944817170
  0.6657637102049918  0.5624945291213592  0.2025599579193056
  0.7500960411483746  0.6247780900792037  0.2779817126787094
  0.5829516340950534  0.5625286137899295  0.2838328211204626
  0.9170902679544426  0.5625168100235385  0.2837156226065858
  0.4999619270764910  0.6250097234845811  0.3694864693835953
  0.8324890737346138  0.5624982722615428  0.3679714894968455
  0.6675311777261683  0.5624826158328418  0.3680408516506830
  0.7503195821092348  0.6248649971995874  0.4544313321312217
  0.5834200943722152  0.5624580081974813  0.4540651201337695
  0.9155357312237484  0.5624713496507070  0.4540205391947225
  0.8366480283332507  0.5624130713930171  0.5406909503930208
  0.5001946720849801  0.6249349438028418  0.1972654891610048
  0.8340383746587889  0.6877505999240654  0.2026623150399871
  0.6659578851646941  0.6877635580010804  0.2026552222724902
  0.7500147111535469  0.7501671209344778  0.2780767785393721
  0.5826128907122268  0.6875393316070841  0.2839918011658398
  0.9174715707068444  0.6875328337957214  0.2838844399720415
  0.4999645688089416  0.7497927271146381  0.3697613102544679
  0.8325009079491679  0.6875366139756309  0.3685140791428907
  0.6673979758284574  0.6874910417583493  0.3685399984201609
  0.7501576052567174  0.7497255232259334  0.4550488584034440
  0.5836836775336849  0.6873963095633044  0.4541247117473404
  0.9162059643342602  0.6873319819797459  0.4544204630392201
  0.8335041526203284  0.6874231122104746  0.5412218532559407
  0.5000959041251889  0.7501933927137472  0.1974326835942719
  0.8342739206624969  0.8125428345023735  0.2030227118651666
  0.6657137632287089  0.8125540529073803  0.2029674068186722
  0.7499615326338969  0.8748115061582027  0.2785057236306727
  0.5829066257718694  0.8125341329720115  0.2842927846190690
  0.9171363737071943  0.8125388666768032  0.2842521368896413
  0.4999509523053476  0.8749799179645521  0.3701365054031740
  0.8323610421332219  0.8125106868867249  0.3685448522766848
  0.6674089852778451  0.8125110061276501  0.3686425776566580
  0.7498254187444715  0.8746764800348004  0.4557015045497081
  0.5838490982466382  0.8122054599922990  0.4546023630974148
  0.9159797222087604  0.8122621685609417  0.4544795289739980
  0.8360744100206929  0.8125705766847702  0.5414394170735051
  0.6635525591118920  0.8114327850389245  0.5418935478849249
  0.5001215622126836  0.8750289514136753  0.1977571093152264
  0.8342646122548771  0.9376248249014978  0.2031547331926546
  0.6657229934759243  0.9376234317940302  0.2031125455200709
  0.7501016887436265  0.5002371603405535  0.2777571613423291
  0.5826435404592019  0.9374928199349455  0.2844671431261716
  0.9174216688701975  0.9375056659881977  0.2844578448187249
  0.5000258946927261  0.4999042624616692  0.3693606444026258
  0.8324262517787560  0.9375020881447753  0.3690947488496548
  0.6674854429522767  0.9375136623665057  0.3691578892487399
  0.7500520027672124  0.4999826344108200  0.4544316490904095
  0.5836047074768018  0.9374068250780212  0.4549951321227752
  0.9166187301301107  0.9373872610828400  0.4549090372512410
  0.8337242459222765  0.9374647607271172  0.5419901303306034
  0.6657225332699994  0.9372297515242352  0.5421617398420082
  0.4058256706163164  0.9999403201906745  0.2327941629913610
  0.2500036458802910  0.9999470720527341  0.2000447926659987
  0.0942514538164829  0.9999225606255990  0.2327907486844438
  0.1549429619998932  0.1250457313037785  0.3162251412686956
  0.0000120483080650  0.1249009989485899  0.3034362280597733
  0.3450691994736204  0.1250435668564975  0.3161804517652769
  0.4011153313868689  0.1250373416350854  0.4026166838576586
  0.2499094213437445  0.1249581793838814  0.3877610568895804
  0.0988389483770007  0.1250916072618153  0.4027545607965024
  0.1516587697358247  0.1257933344341211  0.4882910055759524
  0.9999763566606035  0.1253157564756080  0.4740468073538153
  0.3481633980486549  0.1253841831179798  0.4880991485263024
  0.4061265071115017  0.1263130703299282  0.5692842205261641
  0.2498846952148668  0.1261712272133835  0.5582916333146031
  0.0945777797474392  0.1269645383706219  0.5699049754881358
  0.4058540466703917  0.1249412364079632  0.2326240063837659
  0.2500144610942527  0.1248447404371973  0.1998486897407403
  0.0942259375084902  0.1249631637653010  0.2326561857052170
  0.1548001637175886  0.2498416893102089  0.3158859085174157
  0.9999583869350133  0.2501098968711659  0.3031298994662279
  0.3451983114073514  0.2498245299270181  0.3158378262404895
  0.4010844172856807  0.2501238707300217  0.4022574692167638
  0.2499319439330705  0.2501008917710195  0.3873376035843421
  0.0987910152540010  0.2501683759136313  0.4023926988587760
  0.1520711660686160  0.2509747855974638  0.4876301679252819
  0.9998829382897227  0.2506960408660888  0.4735754360125597
  0.3479539996093592  0.2500777698548475  0.4877570087076251
  0.4057934781479773  0.2503409722006822  0.5690958887562232
  0.2483920238309878  0.2534914186116950  0.5577140754088461
  0.0959439361662291  0.2537392542548673  0.5688208488863467
  0.4057774453171135  0.2498250408666891  0.2322882772968171
  0.2500567232291360  0.2498446450317502  0.1997013703916579
  0.0943255867207498  0.2498082833371456  0.2323580434764807
  0.1547965031158682  0.3751097442042663  0.3155754844514504
  0.9999602816568185  0.3748488429676229  0.3028577425516374
  0.3452493336995772  0.3750786889967515  0.3155175776825487
  0.4010434670841008  0.3750764299742926  0.4019653399002650
  0.2499501127014696  0.3749386244753055  0.3868211542136706
  0.0988132315908103  0.3751019331204475  0.4020720729103928
  0.1526796987556764  0.3757699826066769  0.4870817104241993
  0.9999944438598902  0.3753596494882672  0.4734120346802442
  0.3476872189166613  0.3752643862593530  0.4874385913365913
  0.4056089558535945  0.3758047445557864  0.5685150507168117
  0.2473209579429323  0.3765444854822704  0.5574620818969080
  0.0985940212367353  0.3768878505965603  0.5683291567684421
  0.4058580964772887  0.3749793619438080  0.2320223941609214
  0.2500204622961348  0.3748557504333192  0.1993288450093758
  0.0943166222342242  0.3749544213161116  0.2320988723069703
  0.1549549902045371  0.9999205020578472  0.3163779791696797
  0.0000353510206494  0.0000777850483615  0.3035713887737330
  0.3450421079349582  0.9999254066810153  0.3163449666028910
  0.4011030798094453  0.0000265136950972  0.4028055180922507
  0.2499321014434059  0.0000689936027101  0.3879762077593938
  0.0988485592806398  0.0000370296421721  0.4028667299628239
  0.1516748739719347  0.9998589757692997  0.4884618692477147
  0.0000196605761573  0.0001789032561845  0.4740879989506581
  0.3482367881478154  0.9998724242092933  0.4882742478474285
  0.4057468644425839  0.9995561769682055  0.5697017325935718
  0.2498529231049815  0.0003362797686890  0.5583663324241570
  0.0940176410643616  0.9995651204339708  0.5699080452160317
  0.4058247120137395  0.4999237823238616  0.2319369383397358
  0.2499984368640611  0.5000606474462828  0.1993096315717722
  0.0943471871767727  0.4999411940241600  0.2320142089398800
  0.1548059951316532  0.6251349005368780  0.3155975670475542
  0.9999652520424007  0.6248620205582043  0.3029024315206073
  0.3453279219180700  0.6251848414204844  0.3155735731154792
  0.4010711989590661  0.6249384384343344  0.4020487296560447
  0.2499998607791412  0.6248836748369513  0.3869010739993115
  0.0988334181664072  0.6248267607828382  0.4020983864401018
  0.1527148031378687  0.6244923009148522  0.4870744021871616
  0.0000590744032039  0.6245978807707928  0.4734220856349225
  0.3477697097896595  0.6250041237381794  0.4875042202527169
  0.4058601372788715  0.6246756770065289  0.5686533218386813
  0.2472578456496564  0.6234906345917395  0.5575077925531886
  0.0982595737709033  0.6240558155676226  0.5682277928478072
  0.4058022599899616  0.6251314077633126  0.2320712677838728
  0.2500247087417122  0.6250582448643769  0.1996177335954030
  0.0943034699649345  0.6251464066105186  0.2321568638408920
  0.1548604355459986  0.7499184604945839  0.3159224374545531
  0.9999989576109058  0.7501027647599159  0.3031600012504043
  0.3451910438687307  0.7499291023935726  0.3159138538378699
  0.4010998614438677  0.7499179814961963  0.4023956468468981
  0.2499458406344104  0.7500040984845029  0.3873396320004190
  0.0988453597740886  0.7498093715318106  0.4024241435085116
  0.1521394383470849  0.7487722694475494  0.4878022516425347
  0.0000108004779591  0.7493856243568544  0.4739551426041686
  0.3479155253911159  0.7495904322282172  0.4878498994776450
  0.4061417040158872  0.7489112729803793  0.5687399411927032
  0.2484280054019266  0.7468416489852316  0.5580836594034011
  0.0969261694430585  0.7453569704920469  0.5692994624198064
  0.4057895544216876  0.7500568824192655  0.2323513369745953
  0.2499938531899843  0.7502034730572262  0.1994357628972026
  0.0942767998863232  0.7500520508786934  0.2324036400258365
  0.1548594001302277  0.8750855148614320  0.3162826126968170
  0.0000188476143990  0.8748915570881124  0.3034787730216522
  0.3450972799668079  0.8750922515204351  0.3162442465540565
  0.4010768570486221  0.8748775147129635  0.4026823617850752
  0.2499187226287702  0.8749196944444932  0.3878671558938436
  0.0987893497256920  0.8748892236913477  0.4027597183160694
  0.1515507788303978  0.8744987527933432  0.4883059105773739
  0.9999785610181462  0.8744316049245313  0.4739560733991439
  0.3480843043791353  0.8750286238491256  0.4881186974648273
  0.4058419716905561  0.8747699001986859  0.5693682864049450
  0.2497093655034348  0.8735092597616756  0.5582140025644904
  0.0942223688030381  0.8741075975212738  0.5698032859727959
  0.4057820156492298  0.8751177923728548  0.2326944058940015
  0.2499927716364994  0.8750978282262807  0.2002931152098668
  0.0942600715939648  0.8751097883240888  0.2327027580235921
  0.1547678115924782  0.4998421039593524  0.3154660722133045
  0.9999621355931936  0.5001214486349497  0.3027700327192449
  0.3453272689103173  0.4998355361332187  0.3154113431045431
  0.4010527071121714  0.4999874048422583  0.4018607225346003
  0.2499752524994747  0.5000685047964240  0.3866600320881801
  0.0988111255124764  0.5000475430107869  0.4019693077382982
  0.1527008275196806  0.4999166338937400  0.4869431483913473
  0.9999822571600916  0.4999906985899258  0.4733406004098697
  0.3475669429628780  0.4998845922595834  0.4872826235491132
  0.4055668807521400  0.4997940036393658  0.5683351761785644
  0.2473288705913532  0.4998912642410076  0.5573231832327892
  0.0988062326975268  0.4995212405667999  0.5682596858370630
  0.9058480035087513  0.9999426501895385  0.2327883409576472
  0.7499895573423743  0.9999581491538692  0.1997716472691025
  0.5942489005370675  0.9999300346480950  0.2328257180571924
  0.6549794739040777  0.1250494357527003  0.3162818108067640
  0.5000268885421519  0.1249094703335274  0.3034314824866726
  0.8451194241116937  0.1250318429028425  0.3162527883535020
  0.9011315455805118  0.1250242855517030  0.4026941372486661
  0.7499505059986902  0.1249302964910157  0.3878042838168767
  0.5988614527324643  0.1250498883697162  0.4027469049838572
  0.6515685860577349  0.1256009515031096  0.4882554981296963
  0.4999380087549667  0.1253455520726661  0.4739932473500730
  0.8480722145675372  0.1253188550251068  0.4881872949229802
  0.9060742902678385  0.1262267359850426  0.5693352929673452
  0.7497919207280574  0.1260555087575099  0.5583639732101275
  0.5943540879248985  0.1267417838347029  0.5698675233702986
  0.9057804039673627  0.1249520555487109  0.2326649568493124
  0.7499985359347576  0.1248539612525761  0.2002723893180161
  0.5943184070573082  0.1249605502028928  0.2327467869344702
  0.6548459059456917  0.2498787150887836  0.3159661642533393
  0.5000059988658734  0.2501092986342499  0.3031220969063142
  0.8451798866073332  0.2498234461971265  0.3159309985153627
  0.9010777549161659  0.2500833177904056  0.4023451354471916
  0.7499815391271696  0.2500906503355722  0.3874136341662862
  0.5988332350920871  0.2501978133429361  0.4024658784206920
  0.6519869833471859  0.2506463158176260  0.4877170023961170
  0.4998667310968870  0.2506468761204772  0.4734717811192368
  0.8478357390130640  0.2499865937540449  0.4878644445978111
  0.9057676801887453  0.2501376101846589  0.5691000808293225
  0.7481966809457461  0.2537280489580453  0.5578119799807553
  0.5961943645776486  0.2527572260951700  0.5690933911339187
  0.9057517100911028  0.2498302902398777  0.2323251831469335
  0.7500297411531207  0.2498502293855722  0.1994196014307761
  0.5943482304841154  0.2498124887560706  0.2324161903574407
  0.6548311059345693  0.3751283630375397  0.3157431021279820
  0.5000198815376962  0.3748586380812355  0.3028711657541265
  0.8452188954382223  0.3751129753512643  0.3156770888011877
  0.9010787997179719  0.3750907250406144  0.4021045808926971
  0.7499513689312209  0.3749852642963702  0.3871064007581708
  0.5988485683656322  0.3750798256220733  0.4022530529388675
  0.6522542428250802  0.3752338940535225  0.4876394934249788
  0.4998480818883664  0.3756278768949883  0.4731736664556365
  0.8477692148822555  0.3752181922486955  0.4875497938594080
  0.9063229155830399  0.3757620901164813  0.5686417983385539
  0.7477069735245720  0.3767628269086458  0.5576573636175297
  0.5985410173096781  0.3745997136198937  0.5698633194313487
  0.9056818045243773  0.3749902963775185  0.2321263980896049
  0.7500161110941193  0.3748667224041782  0.1998488433576426
  0.5944526552603122  0.3749645407838571  0.2322211694734477
  0.6549930647190152  0.9999070965219445  0.3164077865478987
  0.5000243954731545  0.0000801990202035  0.3035799589218655
  0.8450790643963160  0.9999115920460682  0.3163678203039240
  0.9011356269355701  0.0000075559074588  0.4028337002843188
  0.7499693044874576  0.0000536771783075  0.3880017635115109
  0.5988434979023722  0.0000204634217198  0.4028827078600230
  0.6515873842817470  0.9998530199117539  0.4884616441792886
  0.4999668388193683  0.0002503541793999  0.4741035855663540
  0.8482062101489731  0.9997644372231633  0.4883051374077070
  0.9057622227682955  0.9994700547790458  0.5697225126154848
  0.7498075293893578  0.0002658575892269  0.5583879226011419
  0.5940047638880799  0.9995225316298573  0.5699388038394630
  0.9057432840326740  0.4999406352201703  0.2320166143931459
  0.7500090716251506  0.5000759597614106  0.1990356521433156
  0.5943991497578054  0.4999499935932974  0.2321052196758657
  0.6547968727058517  0.6251070419078317  0.3157267727758253
  0.5000133568161900  0.6248733038470817  0.3028858317664742
  0.8452904072329872  0.6251935909551563  0.3157018583413631
  0.9010635284181703  0.6249780193850754  0.4021397915907414
  0.7499970498748922  0.6249062840713009  0.3870104750936747
  0.5987918244026034  0.6248220434872636  0.4022043790454575
  0.6525790395385798  0.6247884557176846  0.4871383127028537
  0.4999551206357538  0.6246515502852432  0.4733066910240851
  0.8477149699418192  0.6250689800215028  0.4876269126916597
  0.9059683538933712  0.6249111447516924  0.5686965484936195
  0.7470991088575616  0.6232437544563467  0.5576209709118913
  0.5984117607768979  0.6249266343697002  0.5684858585547730
  0.9056768840796039  0.6251512074763639  0.2321703101018997
  0.7500091523391390  0.6250701162282226  0.2000921629149062
  0.5944231751607418  0.6251587883275178  0.2322362251636605
  0.6548775553043740  0.7499175602849562  0.3159656036155312
  0.5000063854995176  0.7500998353345523  0.3031429640935102
  0.8451737199440359  0.7499273451033304  0.3159719305174562
  0.9011165666854097  0.7498761016822186  0.4024672910756948
  0.7499484814605495  0.7500294492720982  0.3874020834124678
  0.5988163820772883  0.7498571002631138  0.4024370592826898
  0.6520473361037915  0.7489731312345072  0.4877830883317031
  0.4999338979948718  0.7494450666222363  0.4738984483899387
  0.8478754533273900  0.7495741423644020  0.4879192176933245
  0.9061165276739658  0.7488957990660978  0.5688048638653243
  0.7482645527077167  0.7468888010317016  0.5581543651752057
  0.5967004625671777  0.7456548154960245  0.5692670084921403
  0.9057904141974049  0.7500643017499158  0.2323863864925571
  0.7500003202685974  0.7502213200042860  0.1991126600528474
  0.5942787376136849  0.7500692917791270  0.2324231942142703
  0.6548495357632618  0.8750817532499511  0.3163240613036891
  0.4999999029350093  0.8748946756546161  0.3034797622638337
  0.8451524766965335  0.8750916358586522  0.3162882238137783
  0.9011026864011527  0.8748435327275246  0.4027029848154910
  0.7499447377412949  0.8749157169949413  0.3878988581052454
  0.5987676110758002  0.8749229669311660  0.4027861151109846
  0.6515150865031245  0.8745485157341193  0.4883209712938452
  0.4999178584295123  0.8744162850546360  0.4740068067176395
  0.8480933194887044  0.8750234442739355  0.4881451111384436
  0.9059393420752713  0.8747733610439568  0.5693813964517602
  0.7497382085032243  0.8735267874197277  0.5582493699470135
  0.5942289080677341  0.8741898252084681  0.5698482033487906
  0.9057307437182658  0.8751204975420137  0.2327383938867058
  0.7499964714604701  0.8750872235882383  0.2006675039927970
  0.5943264588362638  0.8751143830301444  0.2327552858518303
  0.6548359472441447  0.4998528926114645  0.3156334313798652
  0.5000331734130796  0.5001096553808111  0.3027806877976573
  0.8452245675984926  0.4998289275606069  0.3155578450282519
  0.9010859638141469  0.4999702494208691  0.4019959044534147
  0.7499597400596727  0.5000461726306753  0.3869910181177403
  0.5988178149820627  0.5000680224227381  0.4021535223948121
  0.6522577909030431  0.5004514271361344  0.4874935354824999
  0.4998198843016155  0.4996806264119300  0.4731128052788662
  0.8477265251330195  0.4999419170255450  0.4874187293121963
  0.9062864773041639  0.4998181097727112  0.5685157447486588
  0.7477202766863584  0.4997403767126229  0.5575221917411852
  0.5987978508597394  0.5017044548252940  0.5699065786291158
  0.0003098412929532  0.1332187837668002  0.5409419423964934
  0.0000972268418238  0.2453401793994487  0.5404044851465812
  0.0010051604168311  0.3827335677453476  0.5400152516302086
  0.1632351783985868  0.3138577203119226  0.5394758214817870
  0.9999742767984614  0.9930652483651130  0.5410831835006888
  0.1654506186058526  0.4379752917846673  0.5392528491771031
  0.0004571895805512  0.6304918821743257  0.5401382165681881
  0.1637292484879680  0.5620337395982276  0.5392526299823714
  0.0004244479552682  0.7409531103621418  0.5407143797078717
  0.1649322568714595  0.6864620439000007  0.5397259319332832
  0.0000263635563797  0.8811903440573445  0.5409078358486283
  0.0009878927685065  0.4931016939513881  0.5399366335308997
  0.5003128060338327  0.1331399563909272  0.5408725573207533
  0.4999557658888349  0.2459049384962100  0.5403367529709513
  0.4995788414537543  0.3813699720478212  0.5397432908701205
  0.6639427493145291  0.3123100543781021  0.5398370227027058
  0.4999878308794763  0.9930436281567836  0.5410923394706018
  0.6685639467075219  0.4379918211590947  0.5385700581461634
  0.5002657097427985  0.6300018879832763  0.5400410288940165
  0.6643743648652247  0.5634491112133944  0.5395738090397657
  0.5003263494820587  0.7410910802811017  0.5406460338363459
  0.6647600301163621  0.6869756094357484  0.5397398134436884
  0.5000415866471712  0.8811955959644280  0.5409552257195216
  0.4996060792812216  0.4945175686995498  0.5396620815816604
  0.5720222403073052  0.4381030979640315  0.6077030095175289
 
  0.00000000E+00  0.00000000E+00  0.00000000E+00
  0.00000000E+00  0.00000000E+00  0.00000000E+00
  0.00000000E+00  0.00000000E+00  0.00000000E+00
  0.00000000E+00  0.00000000E+00  0.00000000E+00
  0.00000000E+00  0.00000000E+00  0.00000000E+00
  0.00000000E+00  0.00000000E+00  0.00000000E+00