Ta  N  W Cu                             
   1.00000000000000     
    18.1096308199999996    0.0000000000000000    0.0000000000000000
     0.0000000000000000   23.3551997799999995    0.0000000000000000
     0.0000000000000000    0.0000000000000000   30.4818171199999988
   Ta   N    W    Cu
   192   240    48     4
Direct
  0.0001302286177420  0.0000653804151938  0.1967716580489238
  0.3338910726456064  0.0625951769804090  0.2026467265401166
  0.1664486905335991  0.0625495362353448  0.2026269343607225
  0.2501273933663128  0.1251189164021369  0.2779695801885325
  0.0823446215199084  0.0625275617048189  0.2835544666823253
  0.4177095558574919  0.0625425157661610  0.2837046638428191
  0.0000056769397148  0.1247980800422468  0.3693310890564803
  0.3325486307745109  0.0625058672318417  0.3677683254158097
  0.1675929861205958  0.0624977355882663  0.3676757081077398
  0.2499166096181042  0.1247400105571117  0.4537453771000202
  0.0836828515143040  0.0624448451287734  0.4537186222046898
  0.4164647430797501  0.0623577497846455  0.4541801254155757
  0.0001608212999074  0.1250384280566834  0.1968127570436877
  0.3339374616773298  0.1876328736017214  0.2027710306754997
  0.1664817933701883  0.1876047177277016  0.2026790659885904
  0.2501532479175737  0.2500970769723097  0.2782604062177043
  0.0823862172390335  0.1875333341312739  0.2836336091993417
  0.4177189687601981  0.1875498709253733  0.2838817936004787
  0.0000065243980742  0.2501669738237382  0.3693934728087385
  0.3324629959779344  0.1874794469563241  0.3680262087630908
  0.1675790259807854  0.1874821185478481  0.3677380453643764
  0.2499091043916195  0.2495459468748180  0.4539898549318906
  0.0835414944712198  0.1872554964808728  0.4541542317237486
  0.4166679379666007  0.1871360642648980  0.4540522516551633
  0.0002368209885262  0.2501022945776015  0.1969127597894484
  0.3339924506892160  0.3126097536844341  0.2029057927291760
  0.1664950300456880  0.3125994148846019  0.2028048807360960
  0.2502177682930764  0.3751158542325967  0.2785332367895421
  0.0823681339836071  0.3125380356799212  0.2837679226336363
  0.4176758484101342  0.3125693137674119  0.2841074676338451
  0.0000474482615758  0.3748323260945838  0.3694528301992790
  0.3325137955077153  0.3125115135579151  0.3683338922994963
  0.1676169389698785  0.3125030850345141  0.3680049787713529
  0.2501303934954748  0.3747167404462317  0.4542614712599473
  0.0835756098318328  0.3122864649094694  0.4539600699952544
  0.4167045793587292  0.3120838110987165  0.4548903300152247
  0.0002869459263266  0.3750452185045603  0.1969963277005462
  0.3340048047692079  0.4375611914282729  0.2030279278294174
  0.1665282904818355  0.4375496236095913  0.2028763403213745
  0.2501019892339542  0.0000274078070746  0.2778529075347436
  0.0824146301137674  0.4375293622458898  0.2838722302324328
  0.4176915746475345  0.4375385700843282  0.2842166170307081
  0.0000352551274645  0.0002046179738286  0.3693334137779871
  0.3325906010089383  0.4375319386777221  0.3686090784931508
  0.1676302415394346  0.4375235406588089  0.3681071104355595
  0.2498988013785350  0.0000444728304103  0.4536159565526674
  0.0834539993437389  0.4374208752139950  0.4544277223974973
  0.4168142930472953  0.4373691348023883  0.4549590444414733
  0.0003198825306541  0.5000099269798781  0.1970195505512535
  0.3339588203479238  0.5624808071566889  0.2029640093204890
  0.1665074170564367  0.5624854263261341  0.2028612099978773
  0.2502163033812792  0.6250122788605381  0.2785084061299443
  0.0823809613825688  0.5625100027228740  0.2838495653758457
  0.4176836752994220  0.5625258564931386  0.2841956022784871
  0.0000779289746689  0.6248762603438252  0.3694433148085565
  0.3326010416098413  0.5625612909255437  0.3685453438405091
  0.1676835676957893  0.5625636186662248  0.3681343951094505
  0.2501165619724830  0.6254230701474839  0.4542345249899213
  0.0836463073283298  0.5626529084037344  0.4540349910823949
  0.4169753666262110  0.5627529033084144  0.4552321656830429
  0.0002905571982623  0.6249371136693469  0.1969788327248736
  0.3339558081320888  0.6874140346059292  0.2028725516148171
  0.1664382327796332  0.6874030540660172  0.2027589858460175
  0.2501909891010428  0.7498911653754448  0.2782318216325805
  0.0824212958299100  0.6874978239074920  0.2837702525467023
  0.4177157326975518  0.6875056995363522  0.2840113669930417
  0.0000394266886090  0.7502475050601589  0.3693762594346097
  0.3325207451259118  0.6875707005468641  0.3683011598861583
  0.1676733280975569  0.6875753040960149  0.3679291270619842
  0.2501510982277466  0.7505187804059403  0.4540648608958051
  0.0834920000691213  0.6878133614562572  0.4542660800674199
  0.4165337481720286  0.6879212887698074  0.4544670318593873
  0.0002574265814630  0.7499383089021805  0.1968921722359696
  0.3338826709439502  0.8124253440881049  0.2027160476236389
  0.1664293462912880  0.8124476991155944  0.2026717181548676
  0.2501217359261076  0.8749523501179581  0.2779352445795880
  0.0823573697422333  0.8124937230194078  0.2836254111493659
  0.4177141160838858  0.8124919803004573  0.2838127019643863
  0.0000579221163051  0.8748657639461115  0.3693393872582860
  0.3325712680529165  0.8125606625623831  0.3679717831940934
  0.1676716792241706  0.8125610153881269  0.3677967207387027
  0.2498475189221097  0.8752427309055264  0.4536904120857628
  0.0836621119452943  0.8127153781500880  0.4537443393311662
  0.4166716894193740  0.8129769070542778  0.4544576188303608
  0.0001675971541957  0.8749301217335272  0.1967981406935593
  0.3338359952724659  0.9374741748318627  0.2026693124810208
  0.1664916763176407  0.9374823346953391  0.2026256734766676
  0.2502471562821853  0.5000175104109346  0.2786127326505792
  0.0823816953917458  0.9375059912446915  0.2835518164048452
  0.4177231696136161  0.9375119337101481  0.2836661615283589
  0.0000690484488217  0.5002167371587447  0.3694717715723570
  0.3324956284521647  0.9375320139116781  0.3677613584130981
  0.1675628057014293  0.9375425018057584  0.3675945630913802
  0.2501419371382951  0.5000518829790792  0.4542582619756530
  0.0836792016817469  0.9375874035445264  0.4541528391263299
  0.4164820406008332  0.9376922447818856  0.4537867214874609
  0.4998725301151339  0.0000133148285144  0.1968208495171311
  0.8336201712585805  0.0625336613698195  0.2025629596749710
  0.6661645652552366  0.0625805775995261  0.2025548224421740
  0.7499545655514765  0.1250540211862514  0.2778718884421778
  0.5822922989753465  0.0625235322975399  0.2836025859918294
  0.9177838249528847  0.0625173893233040  0.2834876838623188
  0.5000655156910696  0.1251905590126441  0.3694915196199773
  0.8324577446804611  0.0625130789684931  0.3675714431519452
  0.6675359360644748  0.0625238258473004  0.3676383217535957
  0.7501288945184115  0.1248618732439226  0.4535720152699270
  0.5839693004843056  0.0624302771202352  0.4541753384747480
  0.9161902512647160  0.0624778528840153  0.4536892608187983
  0.4998491366199573  0.1251541091726054  0.1968865257589201
  0.8335935243624562  0.1875487250316255  0.2025868318260393
  0.6660977136683002  0.1876173523776714  0.2026634007891701
  0.7499519281428846  0.2500087410692515  0.2779213880790792
  0.5822593704318422  0.1875363361983560  0.2837052212639151
  0.9177184182415274  0.1875208218947435  0.2835230811859404
  0.4999916665159034  0.2497984579648644  0.3696726709490505
  0.8324932877102640  0.1875044789234366  0.3675425661528777
  0.6676322702751705  0.1875142506887499  0.3677414381609836
  0.7501191550575541  0.2498362265748355  0.4535763942922699
  0.5838274670455448  0.1873238726390909  0.4539438758871057
  0.9162539628211874  0.1873956883047327  0.4541177905110629
  0.4997842465083622  0.2500619440619261  0.1970403234261298
  0.8336039831388007  0.3125399739685975  0.2026281923078272
  0.6660667813606835  0.3125798466688892  0.2027274062441791
  0.7499323897377224  0.3750443257285170  0.2779417876146155
  0.5822522622160520  0.3125491850157402  0.2838556747078513
  0.9177270981826027  0.3125169035805655  0.2835618439727057
  0.4999521239328644  0.3752269327618762  0.3699027264666483
  0.8324915328051645  0.3125051058379924  0.3676816966550973
  0.6675510992383735  0.3125191927495692  0.3678250031973462
  0.7501557762363191  0.3748557133880581  0.4536058281754762
  0.5838748518602372  0.3123339272422996  0.4544873397234070
  0.9161383904472089  0.3123836412547689  0.4537543580351411
  0.4997344898306508  0.3751233376848262  0.1971327914759300
  0.8335947212503996  0.4375136332368257  0.2026432617212421
  0.6660729088123887  0.4375226597891810  0.2028253110008578
  0.7499922550079816  0.0000269641157402  0.2778417830530486
  0.5822355311839189  0.4375327150046289  0.2838974945277783
  0.9176959971454650  0.4375204748986903  0.2835839281681771
  0.5001121093381542  0.9998292724633444  0.3694081076460307
  0.8325743495160154  0.4375262037206724  0.3676544776508379
  0.6676101406496926  0.4375422491906349  0.3679053690195460
  0.7501441273272818  0.0000440895123646  0.4535458837258304
  0.5840117982819280  0.4374677590013647  0.4542592647599122
  0.9163319214286432  0.4374895567130750  0.4542133872142600
  0.4997062183804530  0.4999518098182989  0.1971607269649027
  0.8336082017244877  0.5624805464861851  0.2026233173766343
  0.6660789612920084  0.5624677083728500  0.2027466447360098
  0.7499648628519964  0.6250299049756123  0.2778778649953040
  0.5822446080807140  0.5625233809452652  0.2838698099478876
  0.9177285075101409  0.5625120408708923  0.2835690658445458
  0.4999662871739403  0.6252815004637711  0.3697966393099676
  0.8325268744753771  0.5625530645726187  0.3676960219758669
  0.6675419947205512  0.5625628801080751  0.3678390440646098
  0.7501789550680869  0.6251979371801113  0.4535323359410555
  0.5838882265057777  0.5626596543051789  0.4546054942277493
  0.9161568219710716  0.5626140173862879  0.4537569556588039
  0.4997133301276548  0.6249851320911688  0.1970947912544432
  0.8336253746400004  0.6874710057364695  0.2025890199373990
  0.6661166418322750  0.6874271718055809  0.2026920917234563
  0.7499812127016980  0.7499893445474299  0.2778200600298462
  0.5822738739327349  0.6875216306111653  0.2837376163643626
  0.9177036705534434  0.6875072003747462  0.2835378818251399
  0.5000167778743503  0.7498648759664164  0.3696239138413731
  0.8325486350317846  0.6875712339254108  0.3675560740421560
  0.6676601212763487  0.6875835662571745  0.3677285332753684
  0.7501896238869534  0.7502860349544491  0.4535419977218140
  0.5840411834117774  0.6877486399071913  0.4539560171688208
  0.9162888495449408  0.6876811294981877  0.4541208478099463
  0.4997603913447719  0.7498620555864761  0.1969494222382124
  0.8336310886479694  0.8124873538597583  0.2025736982655744
  0.6661670501537458  0.8124462813285476  0.2025819284316484
  0.7500016505572233  0.8750463835336291  0.2778208414309518
  0.5822919512334863  0.8125042805143181  0.2836210837955164
  0.9177668325385113  0.8125120477653951  0.2834970815449722
  0.5000859991840088  0.8752421174789475  0.3694439916709840
  0.8325026552933323  0.8125690700889905  0.3675846956578539
  0.6675870385969063  0.8125696812798324  0.3676169871877804
  0.7501908554970811  0.8751193072332697  0.4535242130350596
  0.5839479293163166  0.8127521125676225  0.4542094138214239
  0.9162551622087420  0.8126506205914694  0.4537037861206485
  0.4998420361109197  0.8750014023538384  0.1968480607874454
  0.8336243107658490  0.9375108685997091  0.2025535627436454
  0.6661868913762490  0.9375066592014321  0.2025668837707784
  0.7499395568710980  0.5000030583254542  0.2779246804244906
  0.5822997237757264  0.9375288586185206  0.2835612106618726
  0.9177502033929841  0.9375170778299378  0.2834885094186959
  0.4999432800286172  0.4998464118452333  0.3699467968469108
  0.8325488006437567  0.9375418234861499  0.3675003367372369
  0.6676822393943809  0.9375484664678950  0.3676179158105626
  0.7501927869933311  0.5001189676614146  0.4535660609025243
  0.5839736155454247  0.9376160314067477  0.4537759943860635
  0.9163079851473626  0.9375671882713803  0.4540923007574307
  0.4060042409462383  0.0000336486003221  0.2319883100620572
  0.2501752265579782  0.0000450663477594  0.1991056899993495
  0.0941064190007452  0.0000299970173359  0.2318449854064966
  0.1544215136902665  0.1249845915862267  0.3154294208138424
  0.0000384437072896  0.1249962396385484  0.3028166128889112
  0.3456976091216006  0.1250720978418371  0.3155985509217700
  0.4012728136987604  0.1247738388189319  0.4024311226805679
  0.2499960027020904  0.1249536189881155  0.3864789166935125
  0.0988066131189953  0.1250828745847130  0.4022637790751631
  0.1531162401436958  0.1247074194915285  0.4870435312397632
  0.9999352279004441  0.1243260465048337  0.4748183414880458
  0.3467480063245318  0.1246143052177473  0.4870168185601429
  0.4008833977472221  0.1239047336998524  0.5675894416196030
  0.2501113194880347  0.1247056509794930  0.5573143656259347
  0.0997636536287985  0.1242740413490395  0.5675925436133866
  0.4060129642083723  0.1251052345054049  0.2320995658785705
  0.2501787316144330  0.1251057509984221  0.1992274369849056
  0.0941523824430206  0.1250428909008647  0.2318889031397262
  0.1543880415087244  0.2500734041134152  0.3155877421812932
  0.0000132591327571  0.2500444245510849  0.3028680272268645
  0.3457310195688592  0.2500404117335009  0.3158626111666223
  0.4012863837073439  0.2500588016327185  0.4027458455353923
  0.2500225593314909  0.2499403007652177  0.3867175034297361
  0.0987746814338593  0.2497835127822299  0.4023667231879031
  0.1528734596321755  0.2496509500697286  0.4870588846144983
  0.9998305248223289  0.2502446081064988  0.4748699143259003
  0.3467301037118489  0.2484650175388978  0.4874693593869353
  0.3983621981415908  0.2471929532166897  0.5691720934225231
  0.2489022313135223  0.2489592274359254  0.5578557030105813
  0.0988699299111033  0.2496122055986163  0.5675299492214592
  0.4059792462863712  0.2501050158170628  0.2323152257195247
  0.2502053324182967  0.2501386794177449  0.1994531423942618
  0.0942116725570870  0.2500851869459666  0.2320174657359999
  0.1543728314816235  0.3750166995837816  0.3157516632668305
  0.9999844411625105  0.3749931955004513  0.3029247393862349
  0.3458264717228161  0.3750966169434662  0.3161260269674528
  0.4013757823663511  0.3748271658169244  0.4031272721095576
  0.2500475096731378  0.3749858052204260  0.3869768470492900
  0.0987557146889841  0.3750854299889710  0.4024882369462333
  0.1528326453747084  0.3747674186927625  0.4871401660094392
  0.9998384580688509  0.3742869652514358  0.4749241528052934
  0.3469432113120874  0.3743667149514494  0.4878990500592053
  0.3958622255797621  0.3736685371199826  0.5696419789445102
  0.2481925086959365  0.3734958241261452  0.5586244881042575
  0.0988961704181150  0.3742910404423085  0.5677516905721163
  0.4059782235032756  0.3750786988677746  0.2324947576709988
  0.2502379442986395  0.3750815892529289  0.1997325447417850
  0.0942498366709827  0.3750514284210524  0.2321448000750479
  0.1544410136644530  0.0000557980176694  0.3153696727599780
  0.0000558947207168  0.0000397497129541  0.3027945630519184
  0.3456659563858651  0.9999917722713292  0.3154843363890123
  0.4012863032974820  0.0001396057974006  0.4022938778548664
  0.2500011850652442  0.9999930772104477  0.3863581078221330
  0.0988416571098440  0.9998638171377934  0.4022395648608210
  0.1532723001213867  0.0001539000270725  0.4870219320952174
  0.9999816236101893  0.0005031247623037  0.4747914058942442
  0.3466709559618550  0.9998257207819208  0.4869047502476676
  0.4005916092773916  0.0000784505849651  0.5674982001574023
  0.2500792474334119  0.0000129215459310  0.5572899813321399
  0.0997975064651726  0.0003448828863668  0.5674241658835015
  0.4059667053621325  0.5000315167736673  0.2325434536610729
  0.2502213995308225  0.5000153238683822  0.1997570818138996
  0.0942639717334686  0.5000129025345146  0.2321920293753550
  0.1543859946980106  0.6249830866688484  0.3157316836154678
  0.9999904587362707  0.6249966293135714  0.3029152174395762
  0.3458422365305580  0.6250316155397542  0.3160770616077002
  0.4013900632931140  0.6249804570464832  0.4030772288266533
  0.2501204355886202  0.6251032592622323  0.3869501320176241
  0.0988079067519863  0.6252442282385999  0.4024580498959338
  0.1528615781882863  0.6253537017786925  0.4870934952579518
  0.9998417004347289  0.6247338223912209  0.4748565077604212
  0.3469079245601421  0.6259091045452010  0.4879267426823759
  0.3960784572766300  0.6252135299338946  0.5702513632200308
  0.2482823384584023  0.6262969534763059  0.5584132499512506
  0.0986422794000603  0.6251917303658203  0.5676286035555052
  0.4059437076335328  0.6249607522314662  0.2324333480986951
  0.2501945711827176  0.6249404606123647  0.1996063791789382
  0.0942410353215308  0.6249564015583644  0.2321407612090383
  0.1544158484207330  0.7500533663157327  0.3155748906047506
  0.0000164138383667  0.7500380396538162  0.3028512710762925
  0.3457909162483759  0.7499762645200718  0.3158116283437877
  0.4013150342064620  0.7503084876252615  0.4027254899540509
  0.2500863231904376  0.7501147158845214  0.3867619093897190
  0.0988339011809103  0.7499983612234118  0.4023351409751470
  0.1529440228164844  0.7504883990989768  0.4870872036404776
  0.9999235344978032  0.7508249525303725  0.4748142753477822
  0.3470398141805831  0.7512367242635136  0.4876190747158020
  0.4004281233078544  0.7540021652253941  0.5696043676518983
  0.2492047922042104  0.7508859251340780  0.5577135601814049
  0.0993438734563554  0.7509821409949069  0.5678047680703671
  0.4059710772901042  0.7499359813942661  0.2322367737371209
  0.2501499871252406  0.7498979744657959  0.1995541857202099
  0.0942148324333161  0.7499613963705158  0.2320205555031976
  0.1544496132253528  0.8749728770314320  0.3154211238041782
  0.0000501258952212  0.8749775064298362  0.3028072670530335
  0.3456960730776615  0.8750173669143706  0.3155639875882557
  0.4013114281974524  0.8749980536145188  0.4024148494237849
  0.2500339181328002  0.8751069778980636  0.3864373734248332
  0.0988561972008100  0.8752399954779619  0.4022709387592158
  0.1532321793131644  0.8750496862174231  0.4871038628065065
  0.9999888794852225  0.8747023764721291  0.4748119577088090
  0.3466884925751259  0.8759585188913945  0.4869831880081037
  0.4000158249724848  0.8766717370104118  0.5678794686048150
  0.2501855806913369  0.8752667924487980  0.5574084980450635
  0.0997325088480139  0.8751350568518035  0.5675550039052055
  0.4059885505753584  0.8749543574730581  0.2320433682945051
  0.2501512567285928  0.8749215987669032  0.1991038075861340
  0.0941286243796924  0.8749622549039557  0.2318885049976842
  0.1543852304846922  0.5000631923537355  0.3158030609922164
  0.9999809856920194  0.5000392493943480  0.3029473526374247
  0.3458697597497107  0.5000179763873618  0.3162142598725808
  0.4014587420731743  0.5001837063964061  0.4032671897316646
  0.2500890967573284  0.5000567301378780  0.3870117123797883
  0.0987873052711237  0.4999211887490844  0.4025372736967299
  0.1528645361989263  0.5000098988231159  0.4872069754464690
  0.9998848214146321  0.5006308403203619  0.4749372875856039
  0.3468913521573285  0.5000093452606436  0.4878601228129895
  0.3952392160476919  0.5003857605253756  0.5696478385079473
  0.2480399407839471  0.5004475338149206  0.5591235049866157
  0.0988185308723217  0.5004320437470824  0.5677245842390306
  0.9060263154313049  0.0000293512173712  0.2317838553117255
  0.7498827269987416  0.0000426192723424  0.1991227857422970
  0.5939227584676061  0.0000341361814264  0.2318673189978568
  0.6543189055954315  0.1250662935651121  0.3154282992280102
  0.5000325943596309  0.1250575725952601  0.3029913097805803
  0.8457000204316643  0.1249885009695788  0.3153050953189336
  0.9011625098887919  0.1251218953269202  0.4022082652549415
  0.7500668735784757  0.1249998258842666  0.3862952618974447
  0.5989357552286592  0.1248682449355769  0.4023520508021861
  0.6535263368707334  0.1249209488329441  0.4870233487439464
  0.5002187654034742  0.1251918278680151  0.4750695316542277
  0.8467508057634632  0.1248075980079548  0.4869001002023055
  0.9003508739028376  0.1245169205098335  0.5673381274174432
  0.7501797286902345  0.1248282657208151  0.5572782787724222
  0.5998430945348474  0.1245544314123919  0.5676615159938478
  0.9060078859113503  0.1250256425050793  0.2317880169623265
  0.7498620359878103  0.1250708127781053  0.1991343608935381
  0.5938923617284431  0.1250770882324375  0.2319406760726537
  0.6543474179935060  0.2500239272435607  0.3155295735569439
  0.5000371908966343  0.2500065638277604  0.3031470413609654
  0.8456813328097468  0.2500664112902697  0.3153592267046150
  0.9011704379345673  0.2498016244277537  0.4022265320925698
  0.7500607738688601  0.2499987934161112  0.3863293463645476
  0.5988538774408099  0.2500771183174280  0.4024480115793665
  0.6535068625980287  0.2493708206258773  0.4869640283928121
  0.5001882310002728  0.2493595619985314  0.4750956180870816
  0.8466983484624890  0.2499169594165025  0.4869358616637669
  0.8994730796516279  0.2499264595654509  0.5676174442598239
  0.7501842949189168  0.2494692004437127  0.5573983470173900
  0.6017373593698991  0.2488278009267759  0.5677508008533891
  0.9060078070447304  0.2500503053348666  0.2318142165044605
  0.7498559108201377  0.2500793436175996  0.1991485985841805
  0.5938395733259441  0.2500873514833373  0.2320634185598749
  0.6543706685470170  0.3750738675405216  0.3156100602069714
  0.5000509074426560  0.3750762484054633  0.3033301796106045
  0.8456639079949611  0.3749936830546616  0.3153934384813013
  0.9012266554907313  0.3751214618551231  0.4022462184890188
  0.7500715446041397  0.3750155486219526  0.3863692821802047
  0.5988089603863145  0.3749004790350341  0.4025887073241492
  0.6536827851969917  0.3747722965980387  0.4870337270821068
  0.5003830817293533  0.3753489225206081  0.4759220515656750
  0.8467907825230867  0.3748772426593945  0.4869166728334093
  0.8994890963607034  0.3744112622200646  0.5676872817338534
  0.7508323401224359  0.3747336800518255  0.5577174878014830
  0.6033366493459908  0.3748661730254099  0.5680362749383363
  0.9060136711268925  0.3750128000513655  0.2318344474942577
  0.7498488076485401  0.3750265919440920  0.1991185401463724
  0.5937964922043051  0.3750503119350910  0.2321411826279842
  0.6543390833685478  0.0000035196189856  0.3153664413460078
  0.5000306186822385  0.9999754000364049  0.3028968993139358
  0.8457191223656864  0.0000615033381806  0.3152868219054525
  0.9011886216479965  0.9998739578474201  0.4021977204689762
  0.7500969730510789  0.0000080759206753  0.3862740705913126
  0.5989598981444217  0.0001367527662737  0.4022712085467006
  0.6535588787921540  0.9997806043958448  0.4869762422596153
  0.5002152097690598  0.9995904673555955  0.4748721237188747
  0.8467268451108581  0.0001227678820612  0.4869500207485729
  0.9002162849428501  0.0003758018157995  0.5673673347854304
  0.7500716143968376  0.9999156308118486  0.5572626135869641
  0.5998604824438303  0.9999175114589107  0.5675272622616561
  0.9060204523997015  0.5000155988734036  0.2318372558076049
  0.7498553336986262  0.5000005475283800  0.1991073894888302
  0.5937911693773046  0.5000097106671788  0.2321437861596891
  0.6543966576074070  0.6250477270594175  0.3155319604759512
  0.5000705244050749  0.6250753606558703  0.3032433091413509
  0.8456693457945335  0.6249863013879065  0.3153608333344238
  0.9012100586118024  0.6252420708341972  0.4022133089196274
  0.7500703934265118  0.6250740087468500  0.3863094487294347
  0.5988114038285062  0.6250015464049241  0.4024922717861159
  0.6536351682237083  0.6255768896137539  0.4869091322166597
  0.5002930931756850  0.6259388147237246  0.4755815819853026
  0.8467327574270485  0.6251957083160775  0.4869153268701467
  0.8992098159030704  0.6250718450687742  0.5676740977835664
  0.7503249444037579  0.6256706523255247  0.5575438842965497
  0.6025683496734544  0.6261899703747318  0.5676079507025165
  0.9060148573840081  0.6249712079475955  0.2318199181321745
  0.7498723696194247  0.6249543274350344  0.1990700957163654
  0.5938167770629335  0.6249689600729909  0.2320640210921852
  0.6543874673793226  0.7500098076992217  0.3154196612357723
  0.5000648787933315  0.7499921557008733  0.3030818249350773
  0.8456872996308604  0.7500634099355281  0.3153150782529650
  0.9012014993798871  0.7499697794889713  0.4021980191469510
  0.7500939108071449  0.7500930473206395  0.3862829214271457
  0.5989325928838412  0.7502502608666788  0.4023475570620292
  0.6535637026742904  0.7503403485464801  0.4869422935912766
  0.5002908000470825  0.7496845546002575  0.4752280771231838
  0.8467936963511633  0.7502966173561703  0.4868949417097284
  0.9002813562379899  0.7507721478147928  0.5673831936907163
  0.7502635218766542  0.7503962566385880  0.5572998359217038
  0.6002317707450544  0.7508643497635035  0.5676148304178881
  0.9060273898569022  0.7499967764530524  0.2317889226206375
  0.7498867112343959  0.7499573806488726  0.1990665172060702
  0.5938492403898437  0.7499590753455436  0.2319476882400195
  0.6543569930251607  0.8750560068884852  0.3153603623977759
  0.5000408395989382  0.8750582464562413  0.3029328009575138
  0.8457162762165140  0.8749818526256803  0.3152920107296495
  0.9012130894852106  0.8752213201438366  0.4022054314929093
  0.7501085225928179  0.8750821264440205  0.3862561287775179
  0.5989522311489992  0.8749703181348067  0.4022805026828138
  0.6535374648328443  0.8754900147607643  0.4869187071779493
  0.5001878307925978  0.8757191529030024  0.4748879283069769
  0.8467367008695703  0.8749924983640582  0.4869443778440754
  0.9002105035499497  0.8748445439533512  0.5673281693619856
  0.7500715237442606  0.8752850491885411  0.5572536110374244
  0.6000380994753698  0.8755028968074399  0.5675607449927256
  0.9060315330384086  0.8749862053813899  0.2317798895255478
  0.7498923435934373  0.8749827143545943  0.1991034367093079
  0.5939021937104272  0.8749877358878990  0.2318668105582233
  0.6543804099420854  0.5000161140910322  0.3156191950156142
  0.5000621829846068  0.4999986921366926  0.3033637269247720
  0.8456556838109250  0.5000559795161763  0.3153943938683952
  0.9012554406723439  0.4999027029395151  0.4022448091356736
  0.7500718198674292  0.5000569947088849  0.3863506737638360
  0.5987733659153207  0.5001516716298156  0.4026087972516024
  0.6536931807774025  0.5000880676813040  0.4869925941769395
  0.5003706618899102  0.4994946169434726  0.4759808919324655
  0.8467778014540599  0.5000477957965757  0.4869050854591777
  0.8992355706328894  0.5004050788999237  0.5676995939761653
  0.7507400673006259  0.5001360404086839  0.5578056627025063
  0.6037550531596381  0.4996694151180137  0.5679520648315446
  0.9999541931892395  0.1144287470128802  0.5413618749244051
  0.3361807048625280  0.0620633085717728  0.5391274338263088
  0.1665682621652635  0.0625123506471255  0.5388068880674268
  0.9992141293724828  0.2601689313342632  0.5413799637340304
  0.3328438937183051  0.1854319334246810  0.5391418309150424
  0.1633996734803773  0.1872507491027307  0.5393567885213812
  0.9991192547718626  0.3640961306171135  0.5414343092239307
  0.3302155232428703  0.3103666691846882  0.5384674413197672
  0.1644217640777157  0.3122761141159458  0.5389224508691157
  0.9999979958056358  0.0102831489699753  0.5413511542760858
  0.3268297914186391  0.4371067520558611  0.5381855242471261
  0.1620571264714812  0.4373669306759425  0.5394183399782975
  0.9989332161298847  0.6147084427922564  0.5413404063582945
  0.3285911716467638  0.5629513388962621  0.5386296711520657
  0.1640745142809195  0.5626500206628222  0.5389545961766302
  0.9997748984799131  0.7608404407679075  0.5413691818278679
  0.3285992366567214  0.6896404348832448  0.5382358021470282
  0.1621383316498211  0.6878436783036364  0.5394199088646161
  0.9999999950524625  0.8650256185837719  0.5413724467540248
  0.3352759436355512  0.8149703625509161  0.5395193662615938
  0.1660006680513391  0.8126700960936759  0.5389340868445274
  0.9990040624492735  0.5108574909086983  0.5414117128801905
  0.3335542959437845  0.9382027082894808  0.5388229084201868
  0.1639130173570820  0.9376822215663196  0.5393017950281020
  0.5004816373390355  0.1342057514175394  0.5416405919172220
  0.8335180423782802  0.0625454222612518  0.5387058770449684
  0.6642381739925085  0.0622825990927964  0.5391657994648327
  0.5010367460943286  0.2404683494180233  0.5415822596949766
  0.8360000105648524  0.1874555331446075  0.5392306254736923
  0.6669566261313022  0.1868224821415296  0.5387769374120168
  0.5032999795879647  0.3835088036693648  0.5426769378392891
  0.8336560089566731  0.3125276439891991  0.5386989955100958
  0.6647600939551310  0.3116254091297250  0.5391811305280996
  0.5002796747469560  0.9903842695580138  0.5414055885348859
  0.8358908182586831  0.4374704657535844  0.5391230715402955
  0.6677922002252714  0.4373410119370575  0.5385402235723831
  0.5019976720823962  0.6341939759676620  0.5422119472685409
  0.8337872922451126  0.5624867742394031  0.5386197004767226
  0.6651281099582746  0.5629384377995592  0.5390339322869764
  0.5015104266961075  0.7416737070392969  0.5418067806065849
  0.8359123526882115  0.6876123473702194  0.5391877813418375
  0.6673035382684844  0.6883197630325455  0.5386011477405788
  0.4999952394743588  0.8848344179730958  0.5414139661838817
  0.8335306171854455  0.8125347461721617  0.5386902076821158
  0.6643568471812884  0.8133930154743965  0.5390685895096397
  0.5031541208796781  0.4911656482019708  0.5427046442178067
  0.8359951779743398  0.9376285274465630  0.5391588895983972
  0.6666157553762844  0.9377110118303378  0.5387819390188966
  0.4204856518112194  0.6893573251961129  0.6082193601306614
  0.4470684616768068  0.5619739600588076  0.6028770740080489
  0.4434490353757852  0.3114143553596662  0.6023885924306640
  0.4248183218023414  0.4372059865937246  0.6082170877546744
 
  0.00000000E+00  0.00000000E+00  0.00000000E+00
  0.00000000E+00  0.00000000E+00  0.00000000E+00
  0.00000000E+00  0.00000000E+00  0.00000000E+00