Mo  S Cu                                
   1.00000000000000     
    15.9214998300000001    0.0000000000000000    0.0000000000000000
    -7.9622501300000001   13.7910221699999997    0.0000000000000000
     0.0000000000000000    0.0000000000000000   13.5821998300000004
   Mo   S    Co
    25    50     4
Direct
  0.1320471873349049  0.0644720230604960  0.6803758494672678
  0.1322616314294294  0.2655994324873561  0.6790269066350376
  0.1330165247419330  0.4660519867087487  0.6825617565704860
  0.1327048843533234  0.6657218842005150  0.6794723257917994
  0.1324770232031369  0.8651808923747240  0.6781791891276967
  0.3325759914761193  0.0654883680621126  0.6797973236471364
  0.3326290655921795  0.2653857030857978  0.6773653863852616
  0.3340994731265994  0.4679702667770087  0.6793789213404935
  0.3325929073727565  0.6659719422543802  0.6785938346670264
  0.3323857876128002  0.8651985400992643  0.6782197515284238
  0.5321039565776786  0.0644885055817994  0.6804166967375309
  0.5324219298281960  0.2654016796544099  0.6773638634060646
  0.5333636834041613  0.4670895308275362  0.6792785390492213
  0.5330891543605034  0.6663474934475744  0.6771969619940919
  0.5325246524702720  0.8654263723281872  0.6778612605149092
  0.7328376753184855  0.0654179062336837  0.6809052483489211
  0.7329983071073087  0.2656267356754469  0.6790232306090900
  0.7335342833981144  0.4679807943483709  0.6793535310215049
  0.7329052615369491  0.6663294812132818  0.6771743345515517
  0.7326767628354602  0.8656810842904221  0.6775734135061455
  0.9322479589573049  0.0654047320047084  0.6808601506418910
  0.9319434645584082  0.2642222601283279  0.6836927372324197
  0.9327126057921191  0.4660469328664263  0.6825581034178541
  0.9330417942249412  0.6659413609591596  0.6785848540511950
  0.9325536518088668  0.8653852386041052  0.6777949457027290
  0.0660204842704033  0.1324191898479157  0.5660798016760822
  0.0650274019992452  0.1290423707116091  0.7995654509114090
  0.0647261341164338  0.3323503820801079  0.5679498833268397
  0.0670874527420651  0.3321148891792873  0.8006765868780832
  0.0653288013720115  0.5309597152699297  0.5665671598340651
  0.0669087374824926  0.5341329581659409  0.7965355109914896
  0.0661656751430115  0.7317228108027081  0.5633165503456539
  0.0660238161453606  0.7326882543588056  0.7938510532638716
  0.0662637624278091  0.9325312078232457  0.5630926739044000
  0.0647979387034781  0.9300408169776944  0.7935958740501974
  0.2654169485043241  0.1317053803247745  0.5651053684999710
  0.2644113388175171  0.1295945805094547  0.7981595533300592
  0.2654033213582707  0.3327460385359515  0.5653954152525884
  0.2709628851513344  0.3388374288104075  0.7995014236913249
  0.2641474755498407  0.5317214356341964  0.5647928805134086
  0.2676683112434688  0.5343253057901407  0.7952656546023604
  0.2652631631488518  0.7317618901176246  0.5633301536978124
  0.2663524193492037  0.7326945627512913  0.7938684807544050
  0.2662108474746674  0.9327190567175521  0.5633344547554913
  0.2653084356237230  0.9309801039509793  0.7934745544010511
  0.4659753947323750  0.1317101071373301  0.5651212975573259
  0.4648426037198945  0.1296129087524349  0.7981501314930100
  0.4660639962598410  0.3324753275149703  0.5646236335842474
  0.4675884966317412  0.3355339076018424  0.8006518834725256
  0.4661492698927319  0.5323319409933092  0.5627492332006767
  0.4677825378894340  0.5349400805700881  0.7936177217208851
  0.4654015497230333  0.7322793006443931  0.5624197919742500
  0.4664839742921743  0.7325473280270955  0.7927679744007392
  0.4659597082397084  0.9325597441740854  0.5631559908523798
  0.4649224083351271  0.9300742477501771  0.7936672692707560
  0.6660761068061021  0.1324215387998606  0.5661194030951577
  0.6636984730999984  0.1290766334454077  0.7995996620712873
  0.6670095240532916  0.3327543306617002  0.5653663835575173
  0.6675449608342205  0.3388896307445108  0.7994636324656526
  0.6658136974853619  0.5323183309617008  0.5627302434170574
  0.6668124289838957  0.5349385362029793  0.7935973047184959
  0.6662746879161858  0.7328969731913304  0.5617439531743429
  0.6662064434848887  0.7327282814752465  0.7922252287714997
  0.6666183985732204  0.9337705754462959  0.5634381610531349
  0.6652353508326030  0.9305810138598858  0.7936434639227556
  0.8666211172317020  0.1335957244339383  0.5667407268453815
  0.8650585769778871  0.1304055869161260  0.7974414830706209
  0.8672969725086119  0.3323493591561757  0.5679489549868322
  0.8646896544129419  0.3321192949295408  0.8006688690571124
  0.8672499868469785  0.5317010977323520  0.5647807494430950
  0.8663184136690560  0.5343009429870307  0.7952573048134752
  0.8665168200336169  0.7321995369593850  0.5623872223839754
  0.8657192856423350  0.7325234079024980  0.7927332722049911
  0.8668005161582641  0.9337416805368548  0.5633897587500982
  0.8650467213841893  0.9305611344655205  0.7935927051046150
  0.3300951625666499  0.2645798159932582  0.8735739425269884
  0.5341572078207122  0.2645976909286887  0.8735665969699014
  0.7230262514386041  0.2640738298357093  0.8731607440128286
  0.1406188241889623  0.2640033866748723  0.8731668773783454
 
  0.00000000E+00  0.00000000E+00  0.00000000E+00
  0.00000000E+00  0.00000000E+00  0.00000000E+00
  0.00000000E+00  0.00000000E+00  0.00000000E+00
  0.00000000E+00  0.00000000E+00  0.00000000E+00
  0.00000000E+00  0.00000000E+00  0.00000000E+00
  0.00000000E+00  0.00000000E+00  0.00000000E+00
  0.00000000E+00  0.00000000E+00  0.00000000E+00
  0.00000000E+00  0.00000000E+00  0.00000000E+00
  0.00000000E+00  0.00000000E+00  0.00000000E+00
  0.00000000E+00  0.00000000E+00  0.00000000E+00
  0.00000000E+00  0.00000000E+00  0.00000000E+00
  0.00000000E+00  0.00000000E+00  0.00000000E+00
  0.00000000E+00  0.00000000E+00  0.00000000E+00
  0.00000000E+00  0.00000000E+00  0.00000000E+00
  0.00000000E+00  0.00000000E+00  0.00000000E+00
  0.00000000E+00  0.00000000E+00  0.00000000E+00
  0.00000000E+00  0.00000000E+00  0.00000000E+00
  0.00000000E+00  0.00000000E+00  0.00000000E+00
  0.00000000E+00  0.00000000E+00  0.00000000E+00
  0.00000000E+00  0.00000000E+00  0.00000000E+00
  0.00000000E+00  0.00000000E+00  0.00000000E+00
  0.00000000E+00  0.00000000E+00  0.00000000E+00
  0.00000000E+00  0.00000000E+00  0.00000000E+00
  0.00000000E+00  0.00000000E+00  0.00000000E+00
  0.00000000E+00  0.00000000E+00  0.00000000E+00
  0.00000000E+00  0.00000000E+00  0.00000000E+00
  0.00000000E+00  0.00000000E+00  0.00000000E+00
  0.00000000E+00  0.00000000E+00  0.00000000E+00
  0.00000000E+00  0.00000000E+00  0.00000000E+00
  0.00000000E+00  0.00000000E+00  0.00000000E+00
  0.00000000E+00  0.00000000E+00  0.00000000E+00
  0.00000000E+00  0.00000000E+00  0.00000000E+00
  0.00000000E+00  0.00000000E+00  0.00000000E+00
  0.00000000E+00  0.00000000E+00  0.00000000E+00
  0.00000000E+00  0.00000000E+00  0.00000000E+00
  0.00000000E+00  0.00000000E+00  0.00000000E+00
  0.00000000E+00  0.00000000E+00  0.00000000E+00
  0.00000000E+00  0.00000000E+00  0.00000000E+00
  0.00000000E+00  0.00000000E+00  0.00000000E+00
  0.00000000E+00  0.00000000E+00  0.00000000E+00
  0.00000000E+00  0.00000000E+00  0.00000000E+00
  0.00000000E+00  0.00000000E+00  0.00000000E+00
  0.00000000E+00  0.00000000E+00  0.00000000E+00
  0.00000000E+00  0.00000000E+00  0.00000000E+00
  0.00000000E+00  0.00000000E+00  0.00000000E+00
  0.00000000E+00  0.00000000E+00  0.00000000E+00
  0.00000000E+00  0.00000000E+00  0.00000000E+00
  0.00000000E+00  0.00000000E+00  0.00000000E+00
  0.00000000E+00  0.00000000E+00  0.00000000E+00
  0.00000000E+00  0.00000000E+00  0.00000000E+00
  0.00000000E+00  0.00000000E+00  0.00000000E+00
  0.00000000E+00  0.00000000E+00  0.00000000E+00
  0.00000000E+00  0.00000000E+00  0.00000000E+00
  0.00000000E+00  0.00000000E+00  0.00000000E+00
  0.00000000E+00  0.00000000E+00  0.00000000E+00
  0.00000000E+00  0.00000000E+00  0.00000000E+00
  0.00000000E+00  0.00000000E+00  0.00000000E+00
  0.00000000E+00  0.00000000E+00  0.00000000E+00
  0.00000000E+00  0.00000000E+00  0.00000000E+00
  0.00000000E+00  0.00000000E+00  0.00000000E+00
  0.00000000E+00  0.00000000E+00  0.00000000E+00
  0.00000000E+00  0.00000000E+00  0.00000000E+00
  0.00000000E+00  0.00000000E+00  0.00000000E+00
  0.00000000E+00  0.00000000E+00  0.00000000E+00
  0.00000000E+00  0.00000000E+00  0.00000000E+00
  0.00000000E+00  0.00000000E+00  0.00000000E+00
  0.00000000E+00  0.00000000E+00  0.00000000E+00
  0.00000000E+00  0.00000000E+00  0.00000000E+00
  0.00000000E+00  0.00000000E+00  0.00000000E+00
  0.00000000E+00  0.00000000E+00  0.00000000E+00
  0.00000000E+00  0.00000000E+00  0.00000000E+00
  0.00000000E+00  0.00000000E+00  0.00000000E+00
  0.00000000E+00  0.00000000E+00  0.00000000E+00
  0.00000000E+00  0.00000000E+00  0.00000000E+00
  0.00000000E+00  0.00000000E+00  0.00000000E+00
  0.00000000E+00  0.00000000E+00  0.00000000E+00
  0.00000000E+00  0.00000000E+00  0.00000000E+00
  0.00000000E+00  0.00000000E+00  0.00000000E+00
  0.00000000E+00  0.00000000E+00  0.00000000E+00
