Ta  N  W Cu                             
   1.00000000000000     
    18.1096308199999996    0.0000000000000000    0.0000000000000000
     0.0000000000000000   23.3551997799999995    0.0000000000000000
     0.0000000000000000    0.0000000000000000   30.4818171199999988
   Ta   N    W    Cu
   228   240    12     1
Direct
  0.0000060576075285  0.0000321752942654  0.1975423063090815
  0.3341400170270745  0.0625789078464578  0.2026580533256777
  0.1657590775988780  0.0625952972076220  0.2027716171424032
  0.2498788128936837  0.1251244093909563  0.2778967827215979
  0.0827776396162179  0.0626131284895948  0.2841192595454558
  0.4170745596101426  0.0626088178729987  0.2839643036561696
  0.0000148758471710  0.1251423083743433  0.3699228205810172
  0.3324626875581416  0.0626665895181517  0.3683853441866773
  0.1673231064091709  0.0626636716326132  0.3684181601960432
  0.2502803752560538  0.1254739289619664  0.4550518898481144
  0.0839559274834514  0.0626454295034051  0.4546834559585164
  0.4161390593684402  0.0627025280145332  0.4542627981865408
  0.9999542654807456  0.1252431061264616  0.5411186368571137
  0.3352870839815125  0.0630272596491750  0.5418695986559996
  0.0000122791371240  0.1250862743499184  0.1975330223773639
  0.3341492924479894  0.1875863696904645  0.2026863449292193
  0.1657546725786858  0.1875551602354761  0.2027779126807658
  0.2499940539299885  0.2501191235100393  0.2779579398270755
  0.0827330076549018  0.1876109425116539  0.2841173533150538
  0.4171393372907843  0.1876095453366133  0.2840059101802908
  0.0000348096733234  0.2501284216681157  0.3699066887001266
  0.3324740614562955  0.1876245188353991  0.3684489238098365
  0.1673771721176465  0.1876360809096198  0.3685173515306701
  0.2504876947190553  0.2496948651475961  0.4550760217233929
  0.0836487754131880  0.1876336742732860  0.4547712821089149
  0.4162925717383885  0.1875443447531211  0.4543185830108882
  0.9998854387823783  0.2500320689520166  0.5411259282086007
  0.3357425370601703  0.1870390101871138  0.5417055738088905
  0.1656585077060342  0.1875760471256029  0.5419710316196529
  0.0000422562585882  0.2500524924340937  0.1975693038866950
  0.3341589530873534  0.3126065785178085  0.2027430090077047
  0.1657899886840823  0.3126398831518671  0.2028414128355820
  0.2499668642957147  0.3751160000648568  0.2780045571922827
  0.0827991781245601  0.3126169009306139  0.2841590460981251
  0.4170969915713911  0.3126116027661610  0.2840506907887743
  0.0000329083757364  0.3750967829445102  0.3699594139045885
  0.3325323696825109  0.3126271147938695  0.3684966160239611
  0.1673804253343008  0.3126388503680744  0.3684544666671385
  0.2501422647053744  0.3753957497950751  0.4551264195372724
  0.0839378530362609  0.3125733323542121  0.4546940535936272
  0.4161276735124488  0.3125508153234691  0.4543737363981180
  0.9997609566596282  0.3752062124095232  0.5410435119630321
  0.3351409893268027  0.3123866221219558  0.5418722075568638
  0.0000699973289713  0.3750640496964763  0.1975792057808547
  0.3341587087953570  0.4376036342906886  0.2027841345528145
  0.1658040460335073  0.4375937579325395  0.2028672577017829
  0.2499421637502550  0.0001055276233188  0.2779001698181460
  0.0827857170192203  0.4376288896126539  0.2841774784328095
  0.4171669053817624  0.4376308852590327  0.2841076340724626
  0.0000190052321685  0.0001533334572343  0.3698905170113491
  0.3325338132715174  0.4376306918995567  0.3685944510203853
  0.1674482589155488  0.4376407466919332  0.3685666442102757
  0.2505050714585408  0.9998477488756023  0.4550434503429912
  0.0835583074733677  0.4376284046236592  0.4547418981415419
  0.4163747352975875  0.4375278797663213  0.4545132522779909
  0.9999491275220933  0.0000978197639014  0.5411133063466735
  0.3347947177040709  0.4360998396097315  0.5419233807589947
  0.1648757104035354  0.4375636653547161  0.5418082602953476
  0.0000862969521123  0.5000750896778001  0.1975733808920737
  0.3341961852983815  0.5625894737806192  0.2027752653242914
  0.1657653339130221  0.5625955282056978  0.2028552676020183
  0.2499931253582872  0.6251217979870560  0.2780215151423704
  0.0828245355015866  0.5626249754349573  0.2841764382636498
  0.4171245053708930  0.5626265621815421  0.2841398049826083
  0.0000220913144062  0.6251319273006928  0.3699596494179076
  0.3326687084530775  0.5626699736518574  0.3686619714088124
  0.1674995525446406  0.5626739572362283  0.3684860618985368
  0.2504424231577858  0.6255629478856690  0.4553159575460910
  0.0838100603537129  0.5626788613373037  0.4546148323552970
  0.4162739032303122  0.5626927155144870  0.4546228941421404
  0.9994991607337766  0.6253455875775060  0.5409799759093588
  0.3314405024734199  0.5626989302460714  0.5406284669404826
  0.0000906278440880  0.6250476134114322  0.1975663944013846
  0.3341667167089497  0.6875611647759996  0.2027471388926330
  0.1657802878889143  0.6875596292517017  0.2028393032440121
  0.2500083283602947  0.7501226913161787  0.2779857288581624
  0.0827876886748342  0.6876175095819264  0.2841635646865512
  0.4171583862645107  0.6876235324953583  0.2840903670422819
  0.0000432339974665  0.7501966340508019  0.3699056640625358
  0.3325294569214705  0.6876901676878973  0.3685963268428480
  0.1674348842592934  0.6876666170227992  0.3685757457666128
  0.2504485625454436  0.7499118045735855  0.4551010735693950
  0.0835672770289406  0.6877554444498699  0.4547323418247302
  0.4164184835264280  0.6877727200460697  0.4544974099607373
  0.9998758528895237  0.7501697698452219  0.5410950575731235
  0.3349483174276315  0.6885268621694891  0.5420854581512771
  0.1650307686894266  0.6877796096733562  0.5418190174311945
  0.0000548564955807  0.7500410245546618  0.1975616214769644
  0.3341484635839080  0.8125361497652506  0.2027138078731596
  0.1657731503856823  0.8125723056576035  0.2028329254247367
  0.2499052893012887  0.8751297760708354  0.2779365251217314
  0.0827882259061639  0.8126266276843097  0.2841606427718659
  0.4170894247996486  0.8126101706779494  0.2840217615948077
  0.0000365294490621  0.8751631331592264  0.3699334398478129
  0.3325201706075802  0.8127115962858085  0.3684621798399377
  0.1673701294783854  0.8126954513437070  0.3684458903021479
  0.2502800523308650  0.8755697266244482  0.4550694148505414
  0.0839652942225939  0.8127234793905700  0.4546920844683200
  0.4161461543779126  0.8128487121163204  0.4543300917915687
  0.9999318568159552  0.8752844783293696  0.5411032858419134
  0.3353653433512065  0.8135713589985301  0.5418886885669565
  0.0000308875637955  0.8750687518461717  0.1975544233557187
  0.3341451722619695  0.9375493044590542  0.2026719243052071
  0.1657306273231072  0.9375466350088004  0.2027671421365014
  0.2500654887604981  0.5001381698393175  0.2780290725077634
  0.0827257695774648  0.9376198685010166  0.2841099762470378
  0.4171384398801692  0.9376118935391986  0.2839922842753779
  0.0000262007941672  0.5001748960057029  0.3699421005019587
  0.3324702570594340  0.9376893446432319  0.3684320104447991
  0.1673836690185269  0.9376608049138113  0.3685035297378576
  0.2505369756391147  0.4997596847330144  0.4552485762640686
  0.0836442641217943  0.9377137469117187  0.4547583439265637
  0.4163071404202441  0.9377133084126612  0.4543219715951565
  0.9994683587263964  0.5000069564530847  0.5409717961904263
  0.3357219643140965  0.9376282392434305  0.5416573363259616
  0.1656633191729071  0.9378129742154613  0.5419660415625316
  0.4999795455831588  0.0000425265260020  0.1974980332747975
  0.8342428271243492  0.0625947464582381  0.2027755054183018
  0.6658525389660639  0.0625794647015567  0.2026622522898620
  0.7501284472026200  0.1251169033040256  0.2778941909757719
  0.5829161767734163  0.0626065103289974  0.2839595984397718
  0.9172393422834020  0.0626104219891985  0.2841185936877793
  0.5000339040040558  0.1251416316664944  0.3696142241259750
  0.8326886813059460  0.0626599209145908  0.3684173847062056
  0.6675624564280014  0.0626596964298543  0.3683835766760097
  0.7497374005834416  0.1255066542259087  0.4550396191730002
  0.5839696557158334  0.0627009119250843  0.4542789207537226
  0.9160493454212997  0.0626423704024859  0.4546772608914793
  0.5000328451675884  0.1251020669296210  0.5409846184341163
  0.6647158308388512  0.0630456360890221  0.5418768629499979
  0.4999721993167725  0.1250998460186210  0.1974805914169764
  0.8342560560823671  0.1875501511476685  0.2027688852959812
  0.6658527620640129  0.1875829302855934  0.2026738350342825
  0.7500422529821051  0.2501070574960593  0.2779219145379273
  0.5828609576110892  0.1876130729127681  0.2839860322281211
  0.9172971202619848  0.1876163875742236  0.2841057560501739
  0.5000395725946518  0.2500686990204244  0.3696295941340324
  0.8326451845075979  0.1876399294699524  0.3684992463639247
  0.6675635287496178  0.1876489931736174  0.3684245541768192
  0.7494926442483987  0.2497642755969380  0.4550431890706790
  0.5838194266873629  0.1875919374937922  0.4542980139067865
  0.9163637663235207  0.1876459264318910  0.4547564098208525
  0.8342955808100925  0.1876387160306123  0.5419372493289387
  0.6642652602959132  0.1872658989974880  0.5416568962622677
  0.4999542412340006  0.2500627231755601  0.1975317805212171
  0.8342430829888698  0.3126239536790578  0.2028216223879937
  0.6658424067274140  0.3125971625061723  0.2027110215084846
  0.7501164178202941  0.3751140759125136  0.2779341190946880
  0.5829036920644484  0.3126152930936712  0.2840062716721405
  0.9172843960817900  0.3126137191956957  0.2841360619910773
  0.5000063269839288  0.3751407064146193  0.3697415461723139
  0.8326809637871975  0.3126457239448897  0.3684164336607054
  0.6675512650004833  0.3126624304384507  0.3684374323983590
  0.7497527145366547  0.3754692246850055  0.4550724131408188
  0.5839112758238798  0.3126073081997802  0.4543359160094482
  0.9160213110530862  0.3126027166585104  0.4546612381855368
  0.4998250045947543  0.3748568120618572  0.5410250485604280
  0.6647680873643225  0.3128729161260182  0.5418948595126096
  0.4999243140936542  0.3750910453233089  0.1975520219001439
  0.8342304080467642  0.4375806658869834  0.2028298641305781
  0.6658564929507591  0.4375992020467052  0.2027458197348082
  0.7500561363355942  0.0001026031181866  0.2779065936435643
  0.5828534931294840  0.4376269105238890  0.2840545671557280
  0.9173502418580597  0.4376220442959067  0.2841081833641468
  0.5000444453882835  0.0001462495576021  0.3695903201461661
  0.8326200577171079  0.4376368759244542  0.3684370020485730
  0.6675174551405405  0.4376495131461695  0.3684597341609646
  0.7495023088804587  0.9998123023831553  0.4550331979633739
  0.5838111090588498  0.4375849117047892  0.4543378183743130
  0.9163441774531336  0.4376537725810437  0.4547536854875460
  0.8343030896877792  0.4376083842454364  0.5419205668353726
  0.6643136770088276  0.4371610197909774  0.5414605347402386
  0.4999246885515802  0.5000845843214776  0.1975715297423832
  0.8342710430352938  0.5625868950068309  0.2028009059855691
  0.6658160011412093  0.5625855287826340  0.2027144159732259
  0.7501143688531400  0.6251169796379372  0.2779144618397709
  0.5828814486532821  0.5626127161432350  0.2840695649406229
  0.9173269350102657  0.5626202621319223  0.2840939035340924
  0.5000043036951212  0.6252004217714884  0.3697747998616236
  0.8326064852200616  0.5626571677629499  0.3683520250834817
  0.6674317711120565  0.5626737591618252  0.3684977916159866
  0.7497499725771775  0.6255222020450972  0.4550249705543337
  0.5838966474797829  0.5627072768958499  0.4543978582942785
  0.9160847258834863  0.5626615396866796  0.4545706914453831
  0.5008894167607849  0.6249616992890594  0.5408216028116257
  0.6655049341585340  0.5629423146729664  0.5416081310009986
  0.4999349572644434  0.6250544497630486  0.1975476793668136
  0.8342725697409534  0.6875369687610373  0.2028004863602106
  0.6658505381268185  0.6875332622957515  0.2027103838683146
  0.7500678949671951  0.7501004412964889  0.2779146369069849
  0.5828569099592045  0.6876109992518380  0.2840396335103392
  0.9173531008575466  0.6876120880055367  0.2840996797356397
  0.5000205088785847  0.7501950281579397  0.3696835586285800
  0.8326474742942693  0.6876582256461887  0.3684406762521775
  0.6675674787171388  0.6876761542622987  0.3684255124818776
  0.7495602544702109  0.7498532516102401  0.4550137007786148
  0.5838266958112754  0.6877322387212672  0.4542915170231723
  0.9163813287653824  0.6877160493210681  0.4547361666724825
  0.8342759892614424  0.6877977350557956  0.5419121351679692
  0.6643327768918539  0.6875334937563764  0.5415679440677721
  0.4999478820188159  0.7500211218587509  0.1975377529454789
  0.8342393997445896  0.8125709658609708  0.2028138290343549
  0.6658611305314182  0.8125396219426122  0.2026841480543311
  0.7501267921345587  0.8751295869584439  0.2779047683524851
  0.5829197874318481  0.8126034881760091  0.2839794250124470
  0.9172876530798106  0.8126151999524467  0.2841305910295020
  0.5000395446920010  0.8751968615581802  0.3696555671848998
  0.8327346832632543  0.8126726408187253  0.3684034566212304
  0.6675823253305495  0.8126797858707846  0.3684076604209992
  0.7497706482142945  0.8755183356874952  0.4550302579368548
  0.5839513894356259  0.8128011765206793  0.4542819565696306
  0.9160557241519527  0.8126861342978842  0.4546732098688580
  0.5000462593106576  0.8753013211346143  0.5410641699124028
  0.6647732057734075  0.8132054954161845  0.5418688205336792
  0.4999601941668317  0.8750786444105003  0.1975039793389968
  0.8342658624794339  0.9375311958299051  0.2027622777584668
  0.6658549790664381  0.9375397322824028  0.2026644913167033
  0.7500319558791233  0.5001180238750464  0.2779336357467344
  0.5828717948361444  0.9376025036941158  0.2839764742384645
  0.9172930220203739  0.9376169994360097  0.2841051508162948
  0.4999983204417831  0.5001360333386557  0.3697641491448067
  0.8326490621450731  0.9376541914827214  0.3684876651789608
  0.6675838551084610  0.9376581107498936  0.3684110339308830
  0.7495311871398940  0.4998583926053186  0.4550215569675515
  0.5838167501767089  0.9376671989880023  0.4543065542115343
  0.9163727737453229  0.9376918135606189  0.4547417244056575
  0.8343388291811493  0.9377110452515822  0.5419317443343132
  0.6643814796654013  0.9374756265123168  0.5416437402658900
  0.4055271095984097  0.0000685315928592  0.2322620777418862
  0.2499324158094041  0.0000632509841267  0.1994025336185601
  0.0943266825962183  0.0000861275837565  0.2323919745873866
  0.1550004636167657  0.1251675818458295  0.3158491159352579
  0.0000095793126960  0.1250973854147972  0.3032340841401009
  0.3449732771600580  0.1251475500416817  0.3157530363526178
  0.4009222024957566  0.1251754483829828  0.4021755752471634
  0.2498062259989524  0.1251169638920260  0.3872459070516001
  0.0990290231450999  0.1251540713362260  0.4024763999959333
  0.1524094721413576  0.1250219599668938  0.4877187900895379
  0.9999987982710223  0.1249580926749516  0.4731910059183448
  0.3484292740962545  0.1251254901345717  0.4878582249885142
  0.4026770205609083  0.1251819218900607  0.5703205419977451
  0.2492469936286668  0.1238361903070881  0.5576112704642000
  0.0987609284920126  0.1230624704915755  0.5695884057595748
  0.4055440932031757  0.1251049609276862  0.2322426284629842
  0.2499727094516473  0.1250817832570306  0.1992778609975332
  0.0943135830508410  0.1250920399834143  0.2324044325031949
  0.1550022635735289  0.2501005664632672  0.3158434826507346
  0.0000279446538229  0.2501324099124318  0.3032475421589638
  0.3449718301115681  0.2501154163780939  0.3158481597443625
  0.4009931902358517  0.2500431062388202  0.4021571476890458
  0.2499583150484241  0.2501472797329143  0.3872733459744566
  0.0990989135241449  0.2501301157156917  0.4024913603602798
  0.1526171747808576  0.2501873873466565  0.4877941728583863
  0.9999921870379751  0.2503122261688446  0.4732676009995487
  0.3484177373879334  0.2499490899662788  0.4878951133161564
  0.4072341219387141  0.2497181987881234  0.5696843976978627
  0.2498077919454786  0.2512744653793675  0.5582191917216477
  0.0986850723536179  0.2520663165309713  0.5696733833843268
  0.4055286293221556  0.2500948490617816  0.2323238743075535
  0.2499325746973611  0.2500983733907134  0.1994842078779442
  0.0943655965421470  0.2500966391369985  0.2324199649201120
  0.1550624495380006  0.3751652014120737  0.3159029058955056
  0.0000480479586003  0.3751147712318925  0.3032748071447813
  0.3450253146840723  0.3751625438852670  0.3158896885488147
  0.4009733415034091  0.3751531900254648  0.4023264674701608
  0.2498526609921825  0.3751055480014855  0.3873325038964097
  0.0990517185574831  0.3751255511595204  0.4024916080714149
  0.1522550383082759  0.3749503012577335  0.4877290599946349
  0.9999515846340543  0.3749439965948298  0.4731090132010181
  0.3482985181016787  0.3749690867081199  0.4879018086016274
  0.4022232340087299  0.3749362305678758  0.5703758540102370
  0.2491489719466955  0.3742624716839700  0.5575262699862122
  0.0984923794107146  0.3728602868973780  0.5696174077728458
  0.4055474666635632  0.3751212921262805  0.2323556458056686
  0.2499851420512798  0.3751043072450031  0.1993517451335194
  0.0943463258884378  0.3751101018682448  0.2324650561460189
  0.1549717684696503  0.0000993881989402  0.3158167816740942
  0.0000086292536352  0.0001360280924274  0.3032281745584910
  0.3449377053425167  0.0001217066315817  0.3157705682793903
  0.4009575689634417  0.0001380924237324  0.4020881812439256
  0.2499326100411565  0.0001879683190893  0.3872298978943078
  0.0990730242101563  0.0001569272004218  0.4024709773689210
  0.1526381606483582  0.0002860321352856  0.4877469878750986
  0.0000004946797105  0.0003678545907206  0.4732645765041639
  0.3484589168149483  0.0002302973326351  0.4878219951688862
  0.4073906175648929  0.9999706821755865  0.5696129951403961
  0.2498965396205861  0.0012758564573758  0.5581263435031119
  0.0987693350276615  0.0021916184765729  0.5696390121659647
  0.4055509244802025  0.5001215233965439  0.2324152284959808
  0.2499651309068298  0.5001042869131567  0.1995251586206024
  0.0943657206145900  0.5001078145834512  0.2324768893144338
  0.1551146414239568  0.6251515151225320  0.3159488101807142
  0.0000529855366977  0.6250999623449474  0.3032747460005538
  0.3450123293324481  0.6251658127460189  0.3159467379755867
  0.4009327867802455  0.6252417934681418  0.4024037711278936
  0.2499523630409470  0.6251396396162505  0.3875099832887869
  0.0990690266627894  0.6251860923192041  0.4024419436260800
  0.1521473563709108  0.6251439461520860  0.4876619464720378
  0.9999161200603623  0.6250038794905990  0.4730340789063447
  0.3488032722843357  0.6256105355255741  0.4884379579699782
  0.4015328146998982  0.6257338021765761  0.5722440864057603
  0.2481459994244588  0.6236827040810198  0.5577164867276636
  0.0980793009172984  0.6232892645588493  0.5696125741495308
  0.4055668677333060  0.6250840183792832  0.2323839852426985
  0.2499738611116200  0.6250661936378137  0.1994733156767055
  0.0943622278251510  0.6250884938363583  0.2324850924520874
  0.1550321737960445  0.7501074261815788  0.3158663023674677
  0.0000472597673991  0.7501234137875628  0.3032528797174479
  0.3449654360452712  0.7501186294985942  0.3158902108363790
  0.4009894523343505  0.7501735896441417  0.4022126228033045
  0.2499788757550974  0.7502203276585035  0.3873084967754892
  0.0990861201728137  0.7502042649024219  0.4024769246919675
  0.1525716181821579  0.7503577151900274  0.4877491377227372
  0.9999945709746925  0.7504043587576419  0.4732200312247627
  0.3484093765295242  0.7502662828677487  0.4879028063864297
  0.4070091990418518  0.7499557761528948  0.5696542030338421
  0.2501287280597921  0.7506539946513442  0.5580014919559844
  0.0987040116007023  0.7524781245877463  0.5696670578699781
  0.4055451425715475  0.7500551381645266  0.2323432465414115
  0.2499337219365714  0.7500560760175929  0.1994052447898724
  0.0943407633641371  0.7500811085563441  0.2324393677722014
  0.1550151436592984  0.8751764243927553  0.3158666833572212
  0.0000204743711478  0.8751092750456166  0.3032483230054055
  0.3449949656872349  0.8751592595813449  0.3157949016148507
  0.4009417031904619  0.8752896643969237  0.4022238326135863
  0.2498271069423907  0.8751689368311304  0.3872738522703614
  0.0990634773584560  0.8751763417356599  0.4024871488122841
  0.1524108121774290  0.8751478661127479  0.4877343753093299
  0.0000124266691586  0.8750325469953992  0.4731832665519917
  0.3484140256366999  0.8753573154804002  0.4879034416649333
  0.4025701091757696  0.8754835914931647  0.5703477241508068
  0.2492270489743262  0.8737736063340407  0.5576559387793907
  0.0987317519741069  0.8732277510635029  0.5695808547261265
  0.4055331769387891  0.8750806599131096  0.2322704156303317
  0.2499579595266326  0.8750587489808694  0.1993556693415144
  0.0943252499674827  0.8750871261961919  0.2324290757593275
  0.1550800313452712  0.5001311805660151  0.3159113501772524
  0.0000501603596064  0.5001457004172707  0.3032751369830535
  0.3449935261141448  0.5001260497239812  0.3159724182146491
  0.4009985446859403  0.5000943898022641  0.4023413820573651
  0.2500718369873738  0.5001830903738878  0.3874492380624091
  0.0991139528847995  0.5001490054304298  0.4024425361622548
  0.1523078462816940  0.5002301038533545  0.4876917242270338
  0.9999166010472749  0.5003643683420762  0.4730917822655627
  0.3485843080171236  0.4997598857149370  0.4883367202094391
  0.4057043560902542  0.4986061148997649  0.5714244403973154
  0.2486822228718637  0.5014396220506399  0.5581588752485587
  0.0980649124663273  0.5021291196503981  0.5696536756246573
  0.9056774314209477  0.0000822949383945  0.2323902828601447
  0.7500664434464497  0.0000609868821542  0.1994309876261582
  0.5944478516535554  0.0000666646217482  0.2322515969546330
  0.6550223381089637  0.1251496247828356  0.3157413895437102
  0.4999985994585217  0.1250930497290881  0.3029645671046239
  0.8450170319706203  0.1251678983944444  0.3158448081475314
  0.9009954590274347  0.1251562756458711  0.4024660706835377
  0.7502110235984816  0.1251261523789964  0.3872347158476259
  0.5991452102621366  0.1251845956862567  0.4021723622751310
  0.6516207157278231  0.1251825771546535  0.4878583839805799
  0.5000485862932251  0.1250565080730084  0.4730088989534167
  0.8475978736307397  0.1250294656813793  0.4876978691723934
  0.9011739631922424  0.1230662074069357  0.5695622300537337
  0.7507217091256067  0.1238780008438596  0.5575930619752612
  0.5973451321662679  0.1252880415291528  0.5702853852103402
  0.9057028922311190  0.1250897308022800  0.2323997095688952
  0.7500312042791322  0.1250785915989638  0.1992652216146595
  0.5944250315047981  0.1251040631120759  0.2322276123406226
  0.6550543285391157  0.2501331750886138  0.3158021263732707
  0.5000073080102680  0.2501223673657265  0.3029884798712956
  0.8450445347500448  0.2501034360934185  0.3158140885110114
  0.9009543704439977  0.2501236610170565  0.4024570616127079
  0.7500801279409117  0.2501736645302088  0.3872271276886821
  0.5990901365758177  0.2501010101040038  0.4021320252817304
  0.6516126890804159  0.2501241273668597  0.4878825389300303
  0.5000409042695111  0.2501554200162843  0.4726220374155758
  0.8473858273452066  0.2502411475608426  0.4877339021674061
  0.9011257126386383  0.2521540950449221  0.5696520363081632
  0.7500757418461532  0.2512864443287981  0.5581213212886311
  0.5925940558937057  0.2499390306886298  0.5696534935094562
  0.9056926983867157  0.2500999205004177  0.2323980520646529
  0.7500694658673908  0.2500958651763128  0.1994505000491813
  0.5944199256684826  0.2500961132221349  0.2322813034340214
  0.6550303704853491  0.3751525204258925  0.3157974024633106
  0.5000137268618658  0.3751060034601039  0.3030763428912877
  0.8450361856038882  0.3751548837041696  0.3158351668869201
  0.9009810613566103  0.3751513339627977  0.4024472385076336
  0.7502152528506230  0.3751444289072907  0.3872597234276327
  0.5991199806944891  0.3751718768197918  0.4022467523973532
  0.6516358060314218  0.3751099980558905  0.4878094342968922
  0.5000098731727007  0.3749851907584798  0.4730957303051966
  0.8476133299050801  0.3750193909025441  0.4876832128827928
  0.9011247066623724  0.3730658523111003  0.5695850293369134
  0.7507006956265059  0.3739009012721723  0.5575747265744724
  0.5972708164892708  0.3754164352780904  0.5701977131898630
  0.9057482950492926  0.3750956706718327  0.2324128619602632
  0.7500290747246154  0.3750903885533390  0.1993053465263017
  0.5943890425342246  0.3751225913463969  0.2322795539448990
  0.6550549778031538  0.0001096754805445  0.3157638159760054
  0.5000009175255968  0.0001221533276521  0.3029558575298665
  0.8450447380112820  0.0000961458324795  0.3158132541845760
  0.9009569091111516  0.0001552102608926  0.4024583622765192
  0.7500890276870180  0.0001733702719946  0.3872181154807564
  0.5991126065891024  0.0001177440175155  0.4020903556496691
  0.6515982479692326  0.0001845605528104  0.4878328716578153
  0.5000514686568494  0.0002689231379307  0.4725449799806540
  0.8473786851813543  0.0002601327078438  0.4877295794201544
  0.9011749568507526  0.0021825252859955  0.5696205543811956
  0.7501047566349399  0.0012655139164437  0.5581137037481767
  0.5926136139999016  0.9998903791154135  0.5695894369108458
  0.9057491453996036  0.5000993246564960  0.2323991993006587
  0.7500613483420580  0.5000992689248989  0.1994323578856836
  0.5943841140927972  0.5001103775128826  0.2323361270820428
  0.6550433104548716  0.6251445069461354  0.3157971842587344
  0.5000153160968068  0.6251254944456690  0.3031296270981585
  0.8450421041486109  0.6251471132425621  0.3158237700238544
  0.9009413291529924  0.6251808045505243  0.4023987419923998
  0.7502018597935773  0.6251396156563374  0.3872451500283987
  0.5991814142358791  0.6252399887015017  0.4022432552552928
  0.6516394043664846  0.6253002456497398  0.4878290368704157
  0.5001970167297074  0.6251835591465280  0.4729226486819158
  0.8476515390983295  0.6250451113542894  0.4876506645031995
  0.9010022701076892  0.6231006647968229  0.5695869411063228
  0.7509051305831989  0.6239697295035072  0.5575774294946427
  0.5977566775412981  0.6249620675969751  0.5702276464369262
  0.9057622356513733  0.6250798101859729  0.2324089947364314
  0.7500521048125321  0.6250505255922079  0.1993621139236694
  0.5943769656651767  0.6250777285098152  0.2323092773541546
  0.6550884250249354  0.7501252799281772  0.3157904175979382
  0.5000154344212646  0.7501303913096322  0.3030351444239443
  0.8450739676588910  0.7501088041400124  0.3157923428955414
  0.9009633219192850  0.7501601293155957  0.4024433417240587
  0.7501179733914256  0.7501821529419104  0.3872018917736781
  0.5991352214201555  0.7501686582816092  0.4021080540147395
  0.6516570353895332  0.7502171801158681  0.4877812479387345
  0.5000497802761572  0.7504333476625007  0.4725108164326102
  0.8474095000448614  0.7502702258022111  0.4877139101177974
  0.9011710172023939  0.7522246354439943  0.5696505306998887
  0.7500537297160719  0.7512451191780229  0.5580886510712730
  0.5925725817168939  0.7498202443873581  0.5694355046239536
  0.9057330819510199  0.7500759701735973  0.2323924776885775
  0.7500756992286810  0.7500429513694513  0.1993949888939213
  0.5944201696656819  0.7500430303079355  0.2322785496820146
  0.6550373205838298  0.8751343768208173  0.3157577143447696
  0.5000110022238076  0.8751004217616156  0.3029953372161884
  0.8450267263617661  0.8751649288424233  0.3158353568759793
  0.9010090083961870  0.8751720520401349  0.4024597590045289
  0.7502435503113531  0.8751284769752843  0.3872240568346470
  0.5991572732929171  0.8752359950825479  0.4022002616860121
  0.6516739024343678  0.8752387719449501  0.4878816358684261
  0.5000566557650714  0.8750939901212007  0.4730344152401500
  0.8476296265473309  0.8750534373658709  0.4876914522106475
  0.9011858127721482  0.8731173251589510  0.5695798908375167
  0.7507405639236922  0.8738420617450089  0.5575941927786374
  0.5974174702298214  0.8753385321999687  0.5702946654192971
  0.9057153382377692  0.8750762249638058  0.2324078745562872
  0.7500425396947179  0.8750516363012650  0.1992911790352423
  0.5944232577465911  0.8750743245037427  0.2322348581923563
  0.6550616647691285  0.5001192086926523  0.3158392483729955
  0.5000172624806822  0.5001350409775824  0.3031164143727807
  0.8450603352391113  0.5001076730110725  0.3157951779649721
  0.9008895956389296  0.5001259017446102  0.4023978027172319
  0.7500536814972847  0.5001639553191950  0.3872322107823791
  0.5990833226632404  0.5001152316430293  0.4022111057467228
  0.6516739470228075  0.5001286115624524  0.4878069770973212
  0.5001290809185264  0.5001095004642480  0.4728885493000874
  0.8474333992586622  0.5003252343970033  0.4876869401292296
  0.9009758723326229  0.5022319981412267  0.5696478462383254
  0.7503011542472322  0.5012325573855989  0.5580910310074998
  0.5934310786757138  0.5003338164858775  0.5694200559205598
  0.1646005899264722  0.0626266043631389  0.5404343419004505
  0.1643438749970159  0.3124610190930142  0.5404431974819914
  0.1632865696555328  0.5626891297494154  0.5403690876994958
  0.1644135589078175  0.8128319763181722  0.5403806223198018
  0.8353186224888134  0.0626045546010019  0.5404013136029491
  0.5000342710568262  0.2500552865619525  0.5399080379378489
  0.8353104169347603  0.3125419437671084  0.5403814744545556
  0.5000626783279287  0.9998614247640418  0.5398059306160121
  0.8353030420227441  0.5626539823152328  0.5403287535773629
  0.4999136254892136  0.7498350670734979  0.5397368720388727
  0.8353660617317971  0.8126730081837223  0.5403787745911544
  0.5008482409039985  0.5009953987331741  0.5400342786512624
  0.4331602691389662  0.5620400876963174  0.6083622720059196
 
  0.00000000E+00  0.00000000E+00  0.00000000E+00
  0.00000000E+00  0.00000000E+00  0.00000000E+00
  0.00000000E+00  0.00000000E+00  0.00000000E+00
  0.00000000E+00  0.00000000E+00  0.00000000E+00
  0.00000000E+00  0.00000000E+00  0.00000000E+00
  0.00000000E+00  0.00000000E+00  0.00000000E+00