Mo  S Cu                                
   1.00000000000000     
    15.9214998300000001    0.0000000000000000    0.0000000000000000
    -7.9622501300000001   13.7910221699999997    0.0000000000000000
     0.0000000000000000    0.0000000000000000   13.5821998300000004
   Mo   S    Cu
    25    49     4
Direct
  0.1315267838830941  0.0662535866027270  0.6788140735320143
  0.1378148104105716  0.2671990867561394  0.6774527857988121
  0.1335346768928898  0.4654470700233060  0.6771415443705310
  0.1319940080066952  0.6657044485363829  0.6784958190575864
  0.1315576819291574  0.8656882148134588  0.6788990883435289
  0.3309085510413008  0.0648177599823106  0.6804951451357008
  0.3259519526791524  0.2625223214052875  0.6789840020372306
  0.3313803219663873  0.4663740437351820  0.6714827673229647
  0.3318318737549438  0.6655133702797696  0.6776607340471120
  0.3318260296398206  0.8655770424111433  0.6796223360432559
  0.5328124675688346  0.0656971112126297  0.6818065550711258
  0.5311183555015448  0.2654959765550358  0.6830934006897288
  0.5316871948381331  0.4687514157102505  0.6772650701285692
  0.5318568611842551  0.6665665775225166  0.6775217994277929
  0.5323381213085572  0.8662005098392913  0.6795941790535039
  0.7330403093312159  0.0664442375261372  0.6814709827527030
  0.7326187241037245  0.2658385305219259  0.6826153568573458
  0.7315992687160228  0.4668632224212591  0.6806635042183862
  0.7321346139301138  0.6667404690615195  0.6786478046777984
  0.7326899298605587  0.8667028506884642  0.6797097135872961
  0.9336518558032019  0.0672772720996194  0.6806377503646308
  0.9340709577736819  0.2662495091763669  0.6808123850620974
  0.9320989760791027  0.4658158205248724  0.6799799060236025
  0.9318542370560510  0.6661433001479282  0.6788924225879911
  0.9318276001424046  0.8661046882188853  0.6790327917805644
  0.0660702762658905  0.1345260102979531  0.5640755881975963
  0.0706065800058199  0.1367650689425853  0.7944265607834387
  0.0664992085667274  0.3306740215270199  0.5640595121657248
  0.0724048605381664  0.3337869281683339  0.7929003172171724
  0.0646867824082212  0.5318852528277850  0.5641614400021923
  0.0667544730319545  0.5320606924220265  0.7927356806527818
  0.0650289712225580  0.7324281760790643  0.5639991790889184
  0.0651998497392148  0.7322478508487318  0.7933232506197930
  0.0649269421927025  0.9326770172028942  0.5640838909877585
  0.0644510724497208  0.9321910118274089  0.7933628709377335
  0.2658855943803636  0.1323568014546935  0.5647765150017594
  0.2606743264764674  0.1289543036342516  0.7966991998972303
  0.2670794217994925  0.3318509897902294  0.5620726492317447
  0.2656333280845889  0.5338172073478868  0.5600914623259526
  0.2658933033651715  0.5287076990395049  0.7911391731583146
  0.2653933810033500  0.7330776426722434  0.5639219421385127
  0.2650394421979650  0.7311896134951025  0.7933770376978739
  0.2654849285065909  0.9326247924712461  0.5648203540680293
  0.2637413533235559  0.9306327598227381  0.7944304369754922
  0.4658638250997450  0.1333346982060345  0.5683911606081267
  0.4622749549142552  0.1271932807164644  0.7977782348483634
  0.4633721393562130  0.3307364439590463  0.5676696618688297
  0.4611219397284137  0.3388311900509615  0.7937049938290290
  0.4664746466703740  0.5345446021546322  0.5602885725933250
  0.4605116462593853  0.5308200351177949  0.7905913864653470
  0.4657302561120419  0.7339036771860296  0.5636614594433741
  0.4647464717503059  0.7318570274060440  0.7929208705999160
  0.4660294549445368  0.9336776518522288  0.5656190804918604
  0.4648698177900183  0.9310276897849905  0.7950200540533588
  0.6661251059143657  0.1333087687123817  0.5673212879867259
  0.6661154927946570  0.1322579387534422  0.7968082260730039
  0.6639565587066074  0.3315552235736526  0.5686864222665753
  0.6687007747990670  0.3354799378767474  0.7986787179332990
  0.6657159967607769  0.5330365308653326  0.5640403767202816
  0.6643489396061772  0.5343086379550730  0.7934679268612399
  0.6661737398022335  0.7341871411293779  0.5639137526458536
  0.6646053075418695  0.7324715733680623  0.7933490694566355
  0.6663474870506522  0.9340419861871708  0.5656156935654535
  0.6655227115652895  0.9321799045166236  0.7949542480607906
  0.8662958342304368  0.1332908728245249  0.5666339819754462
  0.8671556399576460  0.1333987857715199  0.7958957414055201
  0.8652281996180614  0.3316137158802699  0.5667371537574617
  0.8679079303810596  0.3334319096922412  0.7957740305494693
  0.8644534361267453  0.5318891544264475  0.5653172644990182
  0.8660536507854049  0.5337115676604165  0.7943291737924874
  0.8653756623223227  0.7330049938244907  0.5639777831415433
  0.8651343789117606  0.7328498475170866  0.7935254907097424
  0.8661417779670654  0.9342706293967453  0.5651611214117392
  0.8662497088681145  0.9332056132135198  0.7945443690025901
  0.3435524899557817  0.2505365629783843  0.9015229803603829
  0.5260757552292152  0.2657149710298353  0.8880676457269555
  0.5206714979996705  0.2677123964646642  0.0579716075727687
  0.3658518779482630  0.2470577411333528  0.0695336058925316
 
  0.00000000E+00  0.00000000E+00  0.00000000E+00
  0.00000000E+00  0.00000000E+00  0.00000000E+00
  0.00000000E+00  0.00000000E+00  0.00000000E+00
  0.00000000E+00  0.00000000E+00  0.00000000E+00
  0.00000000E+00  0.00000000E+00  0.00000000E+00
  0.00000000E+00  0.00000000E+00  0.00000000E+00
  0.00000000E+00  0.00000000E+00  0.00000000E+00
  0.00000000E+00  0.00000000E+00  0.00000000E+00
  0.00000000E+00  0.00000000E+00  0.00000000E+00
  0.00000000E+00  0.00000000E+00  0.00000000E+00
  0.00000000E+00  0.00000000E+00  0.00000000E+00
  0.00000000E+00  0.00000000E+00  0.00000000E+00
  0.00000000E+00  0.00000000E+00  0.00000000E+00
  0.00000000E+00  0.00000000E+00  0.00000000E+00
  0.00000000E+00  0.00000000E+00  0.00000000E+00
  0.00000000E+00  0.00000000E+00  0.00000000E+00
  0.00000000E+00  0.00000000E+00  0.00000000E+00
  0.00000000E+00  0.00000000E+00  0.00000000E+00
  0.00000000E+00  0.00000000E+00  0.00000000E+00
  0.00000000E+00  0.00000000E+00  0.00000000E+00
  0.00000000E+00  0.00000000E+00  0.00000000E+00
  0.00000000E+00  0.00000000E+00  0.00000000E+00
  0.00000000E+00  0.00000000E+00  0.00000000E+00
  0.00000000E+00  0.00000000E+00  0.00000000E+00
  0.00000000E+00  0.00000000E+00  0.00000000E+00
  0.00000000E+00  0.00000000E+00  0.00000000E+00
  0.00000000E+00  0.00000000E+00  0.00000000E+00
  0.00000000E+00  0.00000000E+00  0.00000000E+00
  0.00000000E+00  0.00000000E+00  0.00000000E+00
  0.00000000E+00  0.00000000E+00  0.00000000E+00
  0.00000000E+00  0.00000000E+00  0.00000000E+00
  0.00000000E+00  0.00000000E+00  0.00000000E+00
  0.00000000E+00  0.00000000E+00  0.00000000E+00
  0.00000000E+00  0.00000000E+00  0.00000000E+00
  0.00000000E+00  0.00000000E+00  0.00000000E+00
  0.00000000E+00  0.00000000E+00  0.00000000E+00
  0.00000000E+00  0.00000000E+00  0.00000000E+00
  0.00000000E+00  0.00000000E+00  0.00000000E+00
  0.00000000E+00  0.00000000E+00  0.00000000E+00
  0.00000000E+00  0.00000000E+00  0.00000000E+00
  0.00000000E+00  0.00000000E+00  0.00000000E+00
  0.00000000E+00  0.00000000E+00  0.00000000E+00
  0.00000000E+00  0.00000000E+00  0.00000000E+00
  0.00000000E+00  0.00000000E+00  0.00000000E+00
  0.00000000E+00  0.00000000E+00  0.00000000E+00
  0.00000000E+00  0.00000000E+00  0.00000000E+00
  0.00000000E+00  0.00000000E+00  0.00000000E+00
  0.00000000E+00  0.00000000E+00  0.00000000E+00
  0.00000000E+00  0.00000000E+00  0.00000000E+00
  0.00000000E+00  0.00000000E+00  0.00000000E+00
  0.00000000E+00  0.00000000E+00  0.00000000E+00
  0.00000000E+00  0.00000000E+00  0.00000000E+00
  0.00000000E+00  0.00000000E+00  0.00000000E+00
  0.00000000E+00  0.00000000E+00  0.00000000E+00
  0.00000000E+00  0.00000000E+00  0.00000000E+00
  0.00000000E+00  0.00000000E+00  0.00000000E+00
  0.00000000E+00  0.00000000E+00  0.00000000E+00
  0.00000000E+00  0.00000000E+00  0.00000000E+00
  0.00000000E+00  0.00000000E+00  0.00000000E+00
  0.00000000E+00  0.00000000E+00  0.00000000E+00
  0.00000000E+00  0.00000000E+00  0.00000000E+00
  0.00000000E+00  0.00000000E+00  0.00000000E+00
  0.00000000E+00  0.00000000E+00  0.00000000E+00
  0.00000000E+00  0.00000000E+00  0.00000000E+00
  0.00000000E+00  0.00000000E+00  0.00000000E+00
  0.00000000E+00  0.00000000E+00  0.00000000E+00
  0.00000000E+00  0.00000000E+00  0.00000000E+00
  0.00000000E+00  0.00000000E+00  0.00000000E+00
  0.00000000E+00  0.00000000E+00  0.00000000E+00
  0.00000000E+00  0.00000000E+00  0.00000000E+00
  0.00000000E+00  0.00000000E+00  0.00000000E+00
  0.00000000E+00  0.00000000E+00  0.00000000E+00
  0.00000000E+00  0.00000000E+00  0.00000000E+00
  0.00000000E+00  0.00000000E+00  0.00000000E+00
  0.00000000E+00  0.00000000E+00  0.00000000E+00
  0.00000000E+00  0.00000000E+00  0.00000000E+00
  0.00000000E+00  0.00000000E+00  0.00000000E+00
  0.00000000E+00  0.00000000E+00  0.00000000E+00
