Ta  N Cu                                
   1.00000000000000     
    18.1096308199999996    0.0000000000000000    0.0000000000000000
     0.0000000000000000   23.3551997799999995    0.0000000000000000
     0.0000000000000000    0.0000000000000000   30.4818170799999990
   Ta   N    Cu
   240   240    29
Selective dynamics
Direct
  0.9965843688027221  0.9992262202776985  0.1949659360661684   F   F   F
  0.3277138037207123  0.0581171222162880  0.2013726735479793   F   F   F
  0.1684248580391525  0.0580466882223334  0.2013818921585084   F   F   F
  0.2479453084731631  0.1239727781082607  0.2800290408408941   F   F   F
  0.0807737062416791  0.0616517098360703  0.2828854978484117   F   F   F
  0.4151552880745015  0.0616777853997874  0.2828976690388316   F   F   F
  0.9979462960692231  0.1239122348453776  0.3687094824597636   F   F   F
  0.3305425195851655  0.0615169218646727  0.3679059870534473   F   F   F
  0.1655152459921894  0.0614751324554916  0.3678825632530192   F   F   F
  0.2482944288339249  0.1240992863356997  0.4553015901185558   T   T   T
  0.0819271654916066  0.0614179022640672  0.4539597549731659   T   T   T
  0.4143295756495940  0.0615126132872989  0.4539636207692778   T   T   T
  0.9986162980556185  0.1240068425260395  0.5403027651207336   T   T   T
  0.3335792028844967  0.0616024401030058  0.5422837444024813   T   T   T
  0.1633371430048590  0.0615167923143846  0.5420711866318026   T   T   T
  0.9997976314350936  0.1240147387855046  0.1949543553917295   F   F   F
  0.3276841509903292  0.1899990169983496  0.2013768727727054   F   F   F
  0.1684244162852551  0.1900386655566422  0.2014617430412073   F   F   F
  0.2478532580047386  0.2488486527517111  0.2806840214789474   F   F   F
  0.0806625499171858  0.1862751781607770  0.2829252920639860   F   F   F
  0.4151187329394688  0.1862960728653604  0.2828921247499352   F   F   F
  0.9977969832518099  0.2488550753043484  0.3688865388335998   F   F   F
  0.3304490334165706  0.1863764832244144  0.3679309199502612   F   F   F
  0.1654083967681927  0.1863872731128495  0.3679093661170967   F   F   F
  0.2481374974028555  0.2488342471134517  0.4553015062160983   T   T   T
  0.0817534071633022  0.1863463802336049  0.4539219046217435   T   T   T
  0.4143483108532081  0.1863455901092570  0.4540657822942334   T   T   T
  0.9980202034962800  0.2492130772911648  0.5403642609904171   T   T   T
  0.3326675874876768  0.1855850650302777  0.5424032667070905   T   T   T
  0.1626822726745187  0.1865648515935214  0.5419522471293802   T   T   T
  0.9965139090560413  0.2488130289930695  0.1950784293598318   F   F   F
  0.3277556599025147  0.3080624472397488  0.2013540722946985   F   F   F
  0.1683380533982657  0.3079432874797732  0.2014382864343318   F   F   F
  0.2477795403230658  0.3738838067006256  0.2800288440022385   F   F   F
  0.0806209698315641  0.3114554817993493  0.2829256857413043   F   F   F
  0.4150904606900241  0.3114856249797384  0.2828813314301257   F   F   F
  0.9979827407657780  0.3738643249576157  0.3689363718207872   F   F   F
  0.3304853124554228  0.3113432155792069  0.3678481492941259   F   F   F
  0.1652526233000273  0.3113867604861085  0.3678519876479740   F   F   F
  0.2473014567492203  0.3738839092278115  0.4547775965843145   T   T   T
  0.0812981127895751  0.3113258015731227  0.4540447347382839   T   T   T
  0.4143837077510532  0.3112708041161603  0.4539212520041082   T   T   T
  0.9963145937192022  0.3742728399834035  0.5413777693860514   T   T   T
  0.3290969823081018  0.3104769558923078  0.5406113853349493   T   T   T
  0.1612160605331748  0.3110870322849872  0.5416743683218694   T   T   T
  0.0000313744661966  0.3735903816790227  0.1951293449596392   F   F   F
  0.3275266657258129  0.4398877379245434  0.2012978092446431   F   F   F
  0.1684927777009193  0.4399622823521838  0.2014218175998579   F   F   F
  0.2480111298039134  0.9991004666970156  0.2806424557154372   F   F   F
  0.0805180963926446  0.4361950698757866  0.2829172544854046   F   F   F
  0.4151038789646648  0.4362217876947625  0.2827847820678571   F   F   F
  0.9981121746577912  0.9990319166518375  0.3686604368272128   F   F   F
  0.3304495303897070  0.4363999064879778  0.3676909408184130   F   F   F
  0.1650701789402902  0.4364221285201069  0.3677775826348437   F   F   F
  0.2482630663932237  0.9991148608512080  0.4553458352191577   T   T   T
  0.0815093962431938  0.4364873671367204  0.4543796721512918   T   T   T
  0.4139854759119503  0.4363758018376686  0.4533929124832579   T   T   T
  0.9984064350209050  0.9990431983521100  0.5404039643713806   T   T   T
  0.3290744358151124  0.4355520354435635  0.5396884292915485   T   T   T
  0.1601773134859680  0.4354407543892615  0.5416697641628261   T   T   T
  0.9974408191718211  0.4987871270523527  0.1947327806745065   F   F   F
  0.3276267229836307  0.5580656608710015  0.2013154919175193   F   F   F
  0.1685267927510381  0.5579105776332582  0.2014229986318128   F   F   F
  0.2478398949493297  0.6240311852301375  0.2798809197499423   F   F   F
  0.0804730927143211  0.5615626551493378  0.2828160466082039   F   F   F
  0.4152229868593196  0.5615987498951753  0.2827183818268608   F   F   F
  0.9984369189918141  0.6240488686584058  0.3688505829718736   F   F   F
  0.3305578153138740  0.5615859904239286  0.3676638098899048   F   F   F
  0.1652907245737012  0.5615134155790997  0.3677298164535827   F   F   F
  0.2475227932286655  0.6242038725028409  0.4545699140504937   T   T   T
  0.0823138558322792  0.5615197573381059  0.4545489790024181   T   T   T
  0.4136710358450781  0.5617538354344958  0.4533954201608575   T   T   T
  0.9977465410849178  0.6238734516490211  0.5400639226603674   T   T   T
  0.3305569782010269  0.5616460548317068  0.5392469125230597   T   T   T
  0.1594087089367181  0.5613565930385008  0.5426729495636339   T   T   T
  0.0007325936200360  0.6240689498396605  0.1950232489224035   F   F   F
  0.3276961887840386  0.6900206871191230  0.2012927242459526   F   F   F
  0.1685379470369597  0.6900793892502506  0.2013936368651699   F   F   F
  0.2479347615988559  0.7491189612936822  0.2804714357271507   F   F   F
  0.0805919797320342  0.6864800194828362  0.2827953457425565   F   F   F
  0.4152458476235239  0.6865013423576016  0.2827454799489288   F   F   F
  0.9983244374056213  0.7491707270679555  0.3686451818311340   F   F   F
  0.3305435687506773  0.6866256401596900  0.3677200401335128   F   F   F
  0.1654152439536034  0.6865432174008177  0.3677378540321570   F   F   F
  0.2480752852985165  0.7491791270243792  0.4551868053553030   T   T   T
  0.0822267339050631  0.6866346053884547  0.4541530290725783   T   T   T
  0.4139423994818476  0.6869109043584420  0.4537295653149662   T   T   T
  0.9979964174666349  0.7490522967317129  0.5399738349468092   T   T   T
  0.3305253673793018  0.6883680886353772  0.5407320110054865   T   T   T
  0.1608568836482575  0.6872928631681545  0.5423386033254748   T   T   T
  0.9975257463586473  0.7492793110245870  0.1946136604793267   F   F   F
  0.3276766963933042  0.8081694088595839  0.2012301295523713   F   F   F
  0.1686073576181286  0.8080930233001808  0.2012946926325441   F   F   F
  0.2480206827319549  0.8741613513185698  0.2799885248835707   F   F   F
  0.0807737614609181  0.8117890310763158  0.2828161450275317   F   F   F
  0.4151875913282694  0.8118224711670621  0.2827997418059454   F   F   F
  0.9982393997803172  0.8741347619506428  0.3685943318442071   F   F   F
  0.3305262851294302  0.8116117258064435  0.3678083222721042   F   F   F
  0.1655466105189234  0.8115631284914642  0.3677969384363209   F   F   F
  0.2482291291609443  0.8742226724452101  0.4551098499362535   T   T   T
  0.0819851242482821  0.8116977849443329  0.4538531944673687   T   T   T
  0.4142000794759658  0.8119635470819609  0.4538063097997057   T   T   T
  0.9984278941154107  0.8740492721965232  0.5402421353723869   T   T   T
  0.3317804186920960  0.8135539793141597  0.5418158644922276   T   T   T
  0.1627593618517087  0.8118663677785948  0.5419485360084889   T   T   T
  0.0001278877533721  0.8744625262203627  0.1949785009339067   F   F   F
  0.3278252361413934  0.9401156576190957  0.2012950863098624   F   F   F
  0.1683853762845544  0.9400879121916859  0.2013497418441972   F   F   F
  0.2476933430937791  0.4989655455646869  0.2804902338190942   F   F   F
  0.0808400245455729  0.9364822055056692  0.2828626973704047   F   F   F
  0.4151476126005278  0.9365135903795689  0.2828580716619129   F   F   F
  0.9982032311799500  0.4989172051518196  0.3689818415510260   F   F   F
  0.3305409182272854  0.9365847950798383  0.3678512002933374   F   F   F
  0.1655833865309049  0.9365528964017287  0.3678350595232942   F   F   F
  0.2472150715000974  0.4989611239601807  0.4543595269850174   T   T   T
  0.0819555200229654  0.9365813715553253  0.4539075633953092   T   T   T
  0.4143321017753869  0.9367191760973816  0.4538657068142425   T   T   T
  0.9977982203642817  0.4987380775720978  0.5409375676386839   T   T   T
  0.3335770191275158  0.9372972937681409  0.5422001675594788   T   T   T
  0.1632730981622558  0.9368280457396208  0.5420819396019544   T   T   T
  0.4994412138988054  0.9992322146601680  0.1949157422081100   F   F   F
  0.8278006961601889  0.0649743960357583  0.2014541975592721   F   F   F
  0.6681389101890005  0.0648894042558226  0.2014482595930573   F   F   F
  0.7480193900496062  0.1239631014622802  0.2805847491818909   F   F   F
  0.5805365169779861  0.0613668482179861  0.2828938634914238   F   F   F
  0.9154193238269457  0.0613835468548487  0.2828596463711861   F   F   F
  0.4979876779177772  0.1239513695994603  0.3687199149086950   F   F   F
  0.8305509454885751  0.0614648991882873  0.3678315164274295   F   F   F
  0.6654434935631670  0.0614718355451345  0.3678346986524232   F   F   F
  0.7482679024017366  0.1237745665953830  0.4551818854200308   T   T   T
  0.5819565108084614  0.0613373128916457  0.4539325552514180   T   T   T
  0.9144188617985762  0.0613130969344499  0.4538810349944583   T   T   T
  0.4981018255470829  0.1243665148799523  0.5401870710448938   T   T   T
  0.8332551651562523  0.0607822510180162  0.5420342450035837   T   T   T
  0.6631519011882541  0.0605172856432001  0.5421198137992479   T   T   T
  0.4961662713784705  0.1239991962081177  0.1949250920444143   F   F   F
  0.8277664602331214  0.1831721432613662  0.2015112151575167   F   F   F
  0.6681111349126851  0.1831659776108339  0.2014521635598001   F   F   F
  0.7479541209112313  0.2487900790716324  0.2802150861801564   F   F   F
  0.5805070851245517  0.1865522898986711  0.2829103651323379   F   F   F
  0.9153630002049908  0.1865909108485511  0.2829078718426601   F   F   F
  0.4979521167290173  0.2487738514219657  0.3688004547266956   F   F   F
  0.8306045633678991  0.1863776392838901  0.3678958170560591   F   F   F
  0.6654322288387746  0.1863777677349390  0.3679140574384689   F   F   F
  0.7479846645879715  0.2486124621418993  0.4549372329058116   T   T   T
  0.5820724382925656  0.1861053448850152  0.4540414438641966   T   T   T
  0.9141052622768254  0.1861690407469326  0.4540957838116315   T   T   T
  0.4984043847939941  0.2498868305102077  0.5399832978449072   T   T   T
  0.8349874640348794  0.1848950754746787  0.5421859741001117   T   T   T
  0.6634524758691510  0.1837380336959788  0.5421710193011320   T   T   T
  0.4994286239127206  0.2488087901083276  0.1949681669043102   F   F   F
  0.8275874394660931  0.3144290380375381  0.2014836249388026   F   F   F
  0.6681956755648528  0.3143591178478005  0.2014053487653840   F   F   F
  0.7480577674194677  0.3736799548798402  0.2804868219490046   F   F   F
  0.5804874270761076  0.3110889681287077  0.2828753278510234   F   F   F
  0.9153483118878967  0.3111092205780324  0.2828854978484117   F   F   F
  0.4979387536736084  0.3738167124340492  0.3686356351561670   F   F   F
  0.8307067189567334  0.3113368786606046  0.3679420413345014   F   F   F
  0.6652786641401036  0.3113338386523523  0.3679039202475280   F   F   F
  0.7482672112201939  0.3739060497647743  0.4547986322468349   T   T   T
  0.5817417715782466  0.3111473489447126  0.4539785706275482   T   T   T
  0.9140072932115171  0.3112291007168757  0.4543498757784282   T   T   T
  0.4979000384571426  0.3736708274063165  0.5401618632614250   T   T   T
  0.8346284684568297  0.3098973699729368  0.5416202326385203   T   T   T
  0.6635845151399955  0.3103547803395291  0.5400617788954595   T   T   T
  0.4959804034260245  0.3736028842481574  0.1950265951796055   F   F   F
  0.8276516042197244  0.4322030252399784  0.2010892586853643   F   F   F
  0.6683738128240861  0.4322163413324489  0.2010230224765834   F   F   F
  0.7479906208270251  0.9991571136112967  0.2801646626769951   F   F   F
  0.5806878176879380  0.4363244200859526  0.2828282834115114   F   F   F
  0.9152295353086615  0.4363477553605435  0.2829137770024275   F   F   F
  0.4980027527695370  0.9990526829053721  0.3686694257926462   F   F   F
  0.8309669672216984  0.4363795255875971  0.3678816118661672   F   F   F
  0.6654204671412529  0.4363953678841099  0.3676819190465395   F   F   F
  0.7482803910424695  0.9988969955028126  0.4551059244491950   T   T   T
  0.5813464759813434  0.4365788722323287  0.4533314689846376   T   T   T
  0.9141626402259668  0.4365049159191552  0.4544296628240803   T   T   T
  0.4982449782450081  0.9990594014266193  0.5403259507059101   T   T   T
  0.8331321178198106  0.4366580906262367  0.5407907844084848   T   T   T
  0.6641350662482371  0.4372834528873645  0.5385073129102859   T   T   T
  0.4987146943948559  0.4988090493653630  0.1946098221254715   F   F   F
  0.8321936625762731  0.5619600827066904  0.2024469205298445   F   F   F
  0.6640078486149932  0.5618812565772870  0.2023771412252060   F   F   F
  0.7480617432045449  0.6240436021652371  0.2774444836344401   F   F   F
  0.5805648996659087  0.5612851152412617  0.2828367802802916   F   F   F
  0.9154571490044319  0.5612919231470599  0.2829042959403552   F   F   F
  0.4979408520046249  0.6241844701531392  0.3685347553433971   F   F   F
  0.8308444909535737  0.5615527216012524  0.3675401295991207   F   F   F
  0.6657656425930369  0.5615777695565498  0.3674094943423896   F   F   F
  0.7486924175147578  0.6243523185630258  0.4544724954948442   T   T   T
  0.5816257030368646  0.5619443390557282  0.4531691816653903   T   T   T
  0.9145838296253375  0.5617274902260666  0.4539324036021039   T   T   T
  0.4998593433496858  0.6246180042974433  0.5393038690688153   T   T   T
  0.8347094364805119  0.5638433794423564  0.5414346386992536   T   T   T
  0.6662271552211463  0.5634212353914800  0.5396509105176914   T   T   T
  0.4954612321577940  0.6240423604717265  0.1949686261945089   F   F   F
  0.8321443517974458  0.6860488092986046  0.2023820949981214   F   F   F
  0.6639422481611916  0.6860984770390175  0.2023241588194722   F   F   F
  0.7479968053815895  0.7502137496166625  0.2784079104512500   F   F   F
  0.5806000191007783  0.6867825217121748  0.2828254292509484   F   F   F
  0.9154319690322623  0.6868056429016747  0.2828323842169027   F   F   F
  0.4979731000391538  0.7492574743456117  0.3685679554638952   F   F   F
  0.8306199143158466  0.6866822014399432  0.3673683550626450   F   F   F
  0.6656353804124677  0.6867170973092840  0.3674522739442949   F   F   F
  0.7483087840094543  0.7492610373194732  0.4547403350897989   T   T   T
  0.5817433316035526  0.6869236440827344  0.4534590594997157   T   T   T
  0.9147238658183370  0.6867773997370056  0.4535018030550518   T   T   T
  0.4980380585535087  0.7488582681976916  0.5393867523529823   T   T   T
  0.8349000985739828  0.6873534180715418  0.5414759270016419   T   T   T
  0.6671017172685942  0.6878164406030756  0.5401119761174125   T   T   T
  0.4986898457381130  0.7492295576501391  0.1945427001427333   F   F   F
  0.8276903129050126  0.8158526229485332  0.2009379225629786   F   F   F
  0.6683784512400095  0.8158196966619968  0.2008896642850644   F   F   F
  0.7480171260608870  0.8743125382077110  0.2804138932258198   F   F   F
  0.5807738492595078  0.8116816888131950  0.2827900639052032   F   F   F
  0.9152570344887891  0.8117033542241003  0.2827739231351600   F   F   F
  0.4979623875071368  0.8741331349039712  0.3685995152622326   F   F   F
  0.8305653024902497  0.8117185970823684  0.3676208662557841   F   F   F
  0.6656019175547172  0.8117084066321780  0.3677001266225020   F   F   F
  0.7483292794365060  0.8740249790874752  0.4550105350482099   T   T   T
  0.5818721463333483  0.8118652569622598  0.4536965502921104   T   T   T
  0.9145411118735108  0.8117396094819382  0.4535544454645751   T   T   T
  0.4981734338316438  0.8738558169341211  0.5401049174922751   T   T   T
  0.8339460266875097  0.8118162228537675  0.5416922678189156   T   T   T
  0.6642190746804625  0.8130811881147656  0.5417768328748203   T   T   T
  0.4959837165802554  0.8744745149852875  0.1949661000983838   F   F   F
  0.8277452008267971  0.9336493888043265  0.2013364880411501   F   F   F
  0.6682960089188583  0.9336788897294568  0.2013048298234850   F   F   F
  0.7480925555389106  0.4978941781503323  0.2785275883559635   F   F   F
  0.5805787596944540  0.9368548848268503  0.2827948208394702   F   F   F
  0.9154302572359114  0.9368995429762066  0.2827874393897503   F   F   F
  0.4979437786241974  0.4989450790302783  0.3685433834379523   F   F   F
  0.8305773955031981  0.9366271411102431  0.3677504517063426   F   F   F
  0.6654813739598922  0.9366033348484564  0.3677944451466431   F   F   F
  0.7488563139031100  0.4993498117241987  0.4542573383331778   T   T   T
  0.5819609969656585  0.9365581652944525  0.4538408668628444   T   T   T
  0.9144401348112702  0.9364920585782895  0.4537674764090471   T   T   T
  0.4984399875819546  0.4996321961407637  0.5383384072989752   T   T   T
  0.8334622304672116  0.9364246806098397  0.5419664011778946   T   T   T
  0.6629397681525597  0.9365841011167125  0.5419857547015856   T   T   T
  0.4046929544199287  0.9991460240037355  0.2312041628457919   F   F   F
  0.2481132301735158  0.9990900621617342  0.1761205044276153   F   F   F
  0.0914394123468938  0.9991194346358085  0.2312029818138370   F   F   F
  0.1509109173546364  0.1239576637010487  0.3155105542021701   F   F   F
  0.9979390623491469  0.1239756468484359  0.3016184033868612   F   F   F
  0.3449780430145708  0.1239989393060128  0.3155111775245913   F   F   F
  0.3993453026117493  0.1239935015447742  0.4017195224242158   F   F   F
  0.2480020738490154  0.1239321447585553  0.3871589075227106   F   F   F
  0.0966100312805835  0.1239142900622170  0.4016372766711740   F   F   F
  0.1497528736971078  0.1239098222082904  0.4873191905242185   T   T   T
  0.9981605011720823  0.1238948191449434  0.4723459572517844   T   T   T
  0.3468309060013095  0.1240915007409202  0.4875173298848907   T   T   T
  0.4013594428515816  0.1246767296097346  0.5703379708155039   T   T   T
  0.2485810017770624  0.1247023959560601  0.5574490032813202   T   T   T
  0.0954398364202589  0.1240004590633943  0.5700053477307890   T   T   T
  0.4032747587507117  0.1240198768276173  0.2308342373925143   F   F   F
  0.2480400094649724  0.1240410284343128  0.2098469058853070   F   F   F
  0.0927684841672516  0.1240211185211280  0.2308269215556891   F   F   F
  0.1505221187054531  0.2488717739412110  0.3157925911941746   F   F   F
  0.9980657904985364  0.2488879159568498  0.3017568465770708   F   F   F
  0.3452638025671249  0.2488990483814248  0.3157652962334510   F   F   F
  0.3992627498521273  0.2487659302737057  0.4017309718728868   F   F   F
  0.2479670096333848  0.2489166033586372  0.3871823969360264   F   F   F
  0.0964743576147598  0.2488701468945465  0.4017058093309700   F   F   F
  0.1494481008126278  0.2487581384457063  0.4872786534958192   T   T   T
  0.9977611839808233  0.2488760722147377  0.4723894696099829   T   T   T
  0.3469638315898543  0.2485966078024376  0.4878699126830859   T   T   T
  0.4012199131251546  0.2507674385464884  0.5718156750400671   T   T   T
  0.2474539657104631  0.2493581057852345  0.5577385668431315   T   T   T
  0.0945494933654034  0.2488652670971610  0.5701033398279732   T   T   T
  0.4046731307137748  0.2489096241847690  0.2312223048088740   F   F   F
  0.2481158254776616  0.2490336222677314  0.1762114766945544   F   F   F
  0.0913011985961631  0.2488757131068340  0.2312881473403294   F   F   F
  0.1507480758241115  0.3738657807362173  0.3155107838472730   F   F   F
  0.9978267464206638  0.3738238628759873  0.3017763007978758   F   F   F
  0.3448597634084720  0.3738655238341124  0.3154309001581339   F   F   F
  0.3991250882937649  0.3738261321779177  0.4013975271844288   F   F   F
  0.2477657355137595  0.3739092400090769  0.3868967184288366   F   F   F
  0.0965699421143711  0.3739457629250893  0.4017825436015627   F   F   F
  0.1489884834128373  0.3736606287810765  0.4872995851642042   T   T   T
  0.9975113592148325  0.3739587024273520  0.4730396107215711   T   T   T
  0.3461582885159680  0.3736819083167537  0.4869251482475198   T   T   T
  0.3974574056452915  0.3739215583061120  0.5690623997994920   T   T   T
  0.2461172548262298  0.3740097368004767  0.5573300859725722   T   T   T
  0.0926699322691864  0.3739015168993012  0.5698335023524674   T   T   T
  0.4032229631062165  0.3738617131195454  0.2308870885724801   F   F   F
  0.2479794891809917  0.3738507947800542  0.2099956502986799   F   F   F
  0.0927996830362758  0.3738487395632148  0.2309618872629216   F   F   F
  0.1506420548886709  0.9990579493985408  0.3157414131428169   F   F   F
  0.9981966600907199  0.9990679685806541  0.3015752629140849   F   F   F
  0.3453598288206265  0.9990805996008447  0.3157490898505202   F   F   F
  0.3993956625560884  0.9990670694232904  0.4017205394239554   F   F   F
  0.2480622075983305  0.9990327729921873  0.3872389552440652   F   F   F
  0.0967119107732302  0.9990019875565395  0.4016779894671529   F   F   F
  0.1498069365937468  0.9990500071326790  0.4873030083092710   T   T   T
  0.9981672069399420  0.9989591399688618  0.4723080740882318   T   T   T
  0.3469484643483312  0.9992141959086205  0.4874290750244444   T   T   T
  0.4014232854483774  0.9993116277499936  0.5701182610394757   T   T   T
  0.2484651676326310  0.9992856556425893  0.5575090759760347   T   T   T
  0.0954759941831267  0.9991630122003723  0.5698532512101826   T   T   T
  0.4044810229875253  0.4986019862682554  0.2311482606666146   F   F   F
  0.2481333851950964  0.4989395984520257  0.1760820880826586   F   F   F
  0.0915268796186339  0.4985908966607013  0.2313070766580410   F   F   F
  0.1507383020191213  0.6240348246766345  0.3153969782958868   F   F   F
  0.9978053765758688  0.6240362804552291  0.3017680663806388   F   F   F
  0.3450373484753371  0.6240736168945773  0.3153014459333505   F   F   F
  0.3991143205425089  0.6242430438332107  0.4014171782438893   F   F   F
  0.2479299023059838  0.6240775560601932  0.3867156596689370   F   F   F
  0.0971314113183013  0.6239369449744032  0.4018659047736790   F   F   F
  0.1502161746483634  0.6242774390228558  0.4881342542100719   T   T   T
  0.9982548248227480  0.6240850762072048  0.4720113921231195   T   T   T
  0.3457581328350716  0.6246893175870557  0.4871402359455883   T   T   T
  0.3998653826432284  0.6237301278519403  0.5678071873491235   T   T   T
  0.2478749464505773  0.6240138811165766  0.5617581499864096   T   T   T
  0.0939047222451545  0.6240334416472636  0.5705086025762079   T   T   T
  0.4028113589120608  0.6240418466675166  0.2308192120415384   F   F   F
  0.2480459179233563  0.6240405621569920  0.2096254623938592   F   F   F
  0.0933296772750012  0.6239968459820204  0.2308848577343383   F   F   F
  0.1505834672779898  0.7490065666224837  0.3156709120964223   F   F   F
  0.9979828512042488  0.7491534289928481  0.3015989163596160   F   F   F
  0.3453487297539510  0.7490421475641114  0.3156346609767127   F   F   F
  0.3992715297108447  0.7491762932802430  0.4016077836787559   F   F   F
  0.2480830252507573  0.7490541791460572  0.3871113709865455   F   F   F
  0.0969061168304890  0.7490340551477814  0.4016921290441644   F   F   F
  0.1496570273761745  0.7493873794744709  0.4873548722508364   T   T   T
  0.9982077830890522  0.7491266955169198  0.4718765065779942   T   T   T
  0.3468716044259955  0.7498134204691075  0.4876252200253349   T   T   T
  0.4000598391694693  0.7497462141924143  0.5711126512750149   T   T   T
  0.2474890819304285  0.7490087382244852  0.5577802687042902   T   T   T
  0.0948460628075709  0.7492147889082554  0.5700322550086754   T   T   T
  0.4045098474293454  0.7494522917756896  0.2311441270547760   F   F   F
  0.2481956724946670  0.7490961826403151  0.1760738536654216   F   F   F
  0.0916377046277077  0.7494331097517986  0.2312128565532348   F   F   F
  0.1509614429566852  0.8740957984646300  0.3154508792820323   F   F   F
  0.9979808633117102  0.8741439676094274  0.3015100108986033   F   F   F
  0.3450713635254559  0.8741002514344558  0.3154518306688843   F   F   F
  0.3993053791032466  0.8741384870311748  0.4015797341698359   F   F   F
  0.2480803747273725  0.8740646276758142  0.3870578964841656   F   F   F
  0.0968733166035918  0.8740876204142651  0.4015795045247330   F   F   F
  0.1496747347656625  0.8742310044545254  0.4872511526758574   T   T   T
  0.9981998324413733  0.8740730080577251  0.4721814131049356   T   T   T
  0.3466950451118453  0.8744642000362701  0.4872514455132019   T   T   T
  0.4011219251206852  0.8740724502703063  0.5700417169090641   T   T   T
  0.2482725150353543  0.8740044178207323  0.5573178882977647   T   T   T
  0.0953349212393428  0.8742493703198325  0.5698911021974006   T   T   T
  0.4032198156096953  0.8741894820991334  0.2308471959375709   F   F   F
  0.2481292437523024  0.8742169706244312  0.2099203923180326   F   F   F
  0.0929350253866730  0.8741602380761151  0.2308408314875976   F   F   F
  0.1503820827198936  0.4990069924377210  0.3157169067297616   F   F   F
  0.9979194595199345  0.4988948118516134  0.3018686509354254   F   F   F
  0.3452063745604264  0.4990304133463539  0.3155292210683385   F   F   F
  0.3990566716588617  0.4990179535942261  0.4013159703666886   F   F   F
  0.2477964374096473  0.4989646035903021  0.3866127130502406   F   F   F
  0.0968809920775655  0.4990575165184907  0.4019798415508404   F   F   F
  0.1498367015822618  0.4988452520604040  0.4880501192824784   T   T   T
  0.9979093709190414  0.4990665750074136  0.4727415863900447   T   T   T
  0.3452804782229242  0.4987393917365742  0.4865077534394290   T   T   T
  0.3991698195248178  0.4990534778033555  0.5668605577292000   T   T   T
  0.2471003937042354  0.4987720823465353  0.5609717351810245   T   T   T
  0.0931682235787855  0.4986483850322194  0.5704173194975071   T   T   T
  0.9036325015486995  0.9991997593608275  0.2308230175889534   F   F   F
  0.7480280594698527  0.9992786283072448  0.2102212930148610   F   F   F
  0.5923711038964186  0.9991740263332503  0.2308409955198130   F   F   F
  0.6505757139448960  0.1239852378603814  0.3157062446357273   F   F   F
  0.4979338391614974  0.1239940581660051  0.3016289670615677   F   F   F
  0.8453965269734880  0.1239680254193090  0.3157149383431701   F   F   F
  0.8992948648082901  0.1238934809916685  0.4017504589001391   F   F   F
  0.7480076283520845  0.1239029435525580  0.3871312516911161   F   F   F
  0.5966300532238051  0.1239530822801669  0.4017481296426695   F   F   F
  0.6497757814112808  0.1234423059618937  0.4873533927795395   T   T   T
  0.4981400734260725  0.1239076962696935  0.4723500632471334   T   T   T
  0.8467026875700884  0.1233944655475479  0.4873693158819336   T   T   T
  0.9015277275228333  0.1231765065145475  0.5699931650257715   T   T   T
  0.7482626622905442  0.1239564666500936  0.5577056177059743   T   T   T
  0.5952431312309774  0.1235768625061780  0.5701524808421939   T   T   T
  0.9049768690977658  0.1240192773893725  0.2311871034953441   F   F   F
  0.7479424696521804  0.1240555862202939  0.1767446470090803   F   F   F
  0.5910177908309251  0.1240015511440831  0.2311898592365651   F   F   F
  0.6507719631139324  0.2489234968984704  0.3155446729030729   F   F   F
  0.4976901014484625  0.2488908275140460  0.3017150839749050   F   F   F
  0.8451200994720196  0.2489589065720281  0.3155722303153468   F   F   F
  0.8990251740537687  0.2488546471341735  0.4018205334627609   F   F   F
  0.7479574892847012  0.2489403668034029  0.3869982543704680   F   F   F
  0.5967546830421782  0.2488027529088441  0.4017641063804973   F   F   F
  0.6496894909611398  0.2479523054213662  0.4880051843916068   T   T   T
  0.4981871056958702  0.2489470483218969  0.4722685938475187   T   T   T
  0.8459219552041781  0.2481542975118609  0.4877134672674651   T   T   T
  0.9013238764988013  0.2480848123553219  0.5705740399665659   T   T   T
  0.7485458465716417  0.2487028872712941  0.5608040667495555   T   T   T
  0.5963872473971474  0.2478903469047793  0.5719779421770838   T   T   T
  0.9035729752109845  0.2488572161552298  0.2309269812073822   F   F   F
  0.7479295483506689  0.2487822863744285  0.2102444871701863   F   F   F
  0.5922892689868746  0.2488401749822273  0.2309225851439933   F   F   F
  0.6506100050912025  0.3738521221075999  0.3156380728468022   F   F   F
  0.4979283724570180  0.3738599148048039  0.3015966199085938   F   F   F
  0.8453983492083168  0.3738432589849623  0.3157411178848264   F   F   F
  0.8992694087399400  0.3739386124831512  0.4018278164931530   F   F   F
  0.7480717378864838  0.3739790317477656  0.3869723044739146   F   F   F
  0.5966290592775323  0.3739155341106652  0.4014885322578010   F   F   F
  0.6490755226677606  0.3737850632129083  0.4869839614778187   T   T   T
  0.4979354465299490  0.3741406914636770  0.4724965214711166   T   T   T
  0.8464689471718393  0.3737652107499474  0.4880783796982869   T   T   T
  0.8983158556828534  0.3737129563520681  0.5739768179808488   T   T   T
  0.7467901568046289  0.3748476940087367  0.5572053681546018   T   T   T
  0.5972618180408050  0.3749262522806001  0.5717146674424803   T   T   T
  0.9049404796204428  0.3736353823645189  0.2311226716409394   F   F   F