Ta  N Ru Cu 
 1.0000000000000000
    18.1096308199999996    0.0000000000000000    0.0000000000000000
     0.0000000000000000   23.3551997799999995    0.0000000000000000
     0.0000000000000000    0.0000000000000000   30.4818171199999988
 216 240  24  29
Selective dynamics
Cartesian
  18.092900    0.019479   5.930816  F  F  F
   5.938938    1.413819   6.125542  F  F  F
   3.066644    1.414535   6.126862  F  F  F
   4.504279    2.919521   8.512173  F  F  F
   1.479924    1.478604   8.619877  F  F  F
   7.527479    1.477045   8.615707  F  F  F
  18.089137    2.930522  11.241956  F  F  F
   6.001829    1.471230  11.209862  F  F  F
   3.005903    1.471683  11.212444  F  F  F
   4.518656    2.913772  13.854063  F  F  F
   1.484211    1.460220  13.824495  F  F  F
   7.522684    1.464074  13.819223  F  F  F
  18.073973    2.946629   5.977667  F  F  F
   6.075862    4.400792   6.163126  F  F  F
   2.933644    4.403740   6.167800  F  F  F
   4.504897    5.867613   8.512762  F  F  F
   1.475033    4.392325   8.650290  F  F  F
   7.541159    4.390588   8.639602  F  F  F
  18.087296    5.852984  11.269141  F  F  F
   6.004355    4.390332  11.223154  F  F  F
   3.012911    4.392664  11.233200  F  F  F
   4.526781    5.784618  13.869507  F  F  F
   1.487148    4.370652  13.836550  F  F  F
   7.532116    4.372872  13.836637  F  F  F
   6.078933    4.309333  16.509155  F  F  F
   0.003224    5.838027   5.976261  F  F  F
   5.936031    7.386416   6.143003  F  F  F
   3.071778    7.388759   6.151024  F  F  F
   4.503573    8.767131   8.585248  F  F  F
   1.483821    7.309997   8.659465  F  F  F
   7.535191    7.308059   8.639967  F  F  F
  18.086972    8.769895  11.285541  F  F  F
   6.015381    7.310112  11.235890  F  F  F
   3.001424    7.309487  11.263317  F  F  F
   4.511487    8.743920  13.866124  F  F  F
   1.505302    7.297713  13.908431  F  F  F
   7.544007    7.298747  13.884770  F  F  F
  18.083806    8.781621   5.988075  F  F  F
   5.944190   10.160336   6.154842  F  F  F
   3.059629   10.159947   6.163779  F  F  F
   4.502756    0.021633   8.536681  F  F  F
   1.479289   10.234458   8.661245  F  F  F
   7.538351   10.234059   8.634847  F  F  F
  18.083974    0.012657  11.220917  F  F  F
   6.012626   10.229452  11.237691  F  F  F
   3.001957   10.226466  11.263243  F  F  F
   4.503749    0.004902  13.842964  F  F  F
   1.516810   10.236218  13.917032  F  F  F
   7.536817   10.224735  13.876975  F  F  F
   6.179937   10.244223  16.522140  F  F  F
   0.027260   11.682354   5.994853  F  F  F
   5.944830   13.213330   6.150211  F  F  F
   3.061384   13.212764   6.155311  F  F  F
   4.507380   14.610996   8.564966  F  F  F
   1.479506   13.143183   8.649384  F  F  F
   7.535943   13.144515   8.634016  F  F  F
  18.081294   14.619530  11.256940  F  F  F
   6.008383   13.151337  11.237548  F  F  F
   3.007050   13.150737  11.248349  F  F  F
   4.511297   14.616158  13.852968  F  F  F
   1.494474   13.149905  13.858958  F  F  F
   7.541245   13.155690  13.854691  F  F  F
  18.079814   14.591173   5.970020  F  F  F
   5.935341   15.988074   6.130039  F  F  F
   3.070020   15.986398   6.135370  F  F  F
   4.503840   17.514278   8.489607  F  F  F
   1.481000   16.070037   8.636302  F  F  F
   7.528415   16.071611   8.630179  F  F  F
  18.074875   17.528802  11.238484  F  F  F
   6.010532   16.075181  11.225828  F  F  F
   3.002471   16.074998  11.224342  F  F  F
   4.488803   17.581423  13.864190  F  F  F
   1.508478   16.086006  13.854704  F  F  F
   7.532027   16.087235  13.860189  F  F  F
   6.033474   16.139621  16.510300  F  F  F
  18.109101   17.545383   5.953738  F  F  F
   6.069482   18.982090   6.153063  F  F  F
   2.931817   18.980666   6.154602  F  F  F
   4.502017   20.465755   8.496951  F  F  F
   1.472429   18.991210   8.628678  F  F  F
   7.531632   18.991112   8.628858  F  F  F
  18.079642   20.454343  11.222835  F  F  F
   5.997254   18.991675  11.215966  F  F  F
   3.006615   18.991254  11.211554  F  F  F
   4.497504   20.456836  13.840317  F  F  F
   1.461006   19.009138  13.807495  F  F  F
   7.510919   19.004153  13.844262  F  F  F
  18.072282   20.440053   5.964375  F  F  F
   5.940559   21.973228   6.116217  F  F  F
   3.061977   21.973910   6.116988  F  F  F
   4.506981   11.684714   8.574079  F  F  F
   1.476619   21.907001   8.612354  F  F  F
   7.526142   21.906189   8.611701  F  F  F
  18.090633   11.690174  11.280087  F  F  F
   5.999553   21.910963  11.205397  F  F  F
   3.003663   21.911044  11.202953  F  F  F
   4.495196   11.730696  13.871839  F  F  F
   1.481820   21.912246  13.802286  F  F  F
   7.510213   21.914981  13.810665  F  F  F
   6.016047   21.916420  16.452531  F  F  F
   2.931019   21.891080  16.447430  F  F  F
   9.024612    0.017753   5.930402  F  F  F
  14.998939    1.400558   6.139495  F  F  F
  12.121873    1.401640   6.137409  F  F  F
  13.563831    2.932967   8.543071  F  F  F
  10.527886    1.478718   8.611664  F  F  F
  16.590764    1.478816   8.614093  F  F  F
   9.031882    2.931323  11.233800  F  F  F
  15.059507    1.472209  11.205333  F  F  F
  12.057014    1.473288  11.202733  F  F  F
  13.569340    2.917933  13.840965  F  F  F
  10.537628    1.468393  13.819393  F  F  F
  16.576449    1.463108  13.821037  F  F  F
   9.048069    2.943738   5.971994  F  F  F
  15.012711    4.468685   6.153784  F  F  F
  12.111958    4.465144   6.141891  F  F  F
  13.571790    5.858683   8.571794  F  F  F
  10.528556    4.388264   8.626756  F  F  F
  16.599303    4.389329   8.635670  F  F  F
   9.032922    5.853379  11.253710  F  F  F
  15.067537    4.391137  11.227734  F  F  F
  12.067872    4.389569  11.220844  F  F  F
  13.580681    5.795253  13.862623  F  F  F
  10.540760    4.370486  13.820373  F  F  F
  16.581880    4.382072  13.839418  F  F  F
  15.133131    4.313819  16.485704  F  F  F
   9.014065    5.834381   5.966696  F  F  F
  15.001710    7.230948   6.147443  F  F  F
  12.134810    7.231700   6.141198  F  F  F
  13.573379    8.748384   8.522372  F  F  F
  10.537604    7.310360   8.637191  F  F  F
  16.597170    7.312758   8.649103  F  F  F
   9.030301    8.763378  11.257730  F  F  F
  15.076113    7.308736  11.240822  F  F  F
  12.073746    7.305130  11.225757  F  F  F
  13.581107    8.787687  13.874444  F  F  F
  10.604495    7.303551  13.877320  F  F  F
  16.605009    7.313435  13.908006  F  F  F
   9.046044    8.780597   5.975087  F  F  F
  15.114704   10.251097   6.180514  F  F  F
  12.022364   10.246928   6.172079  F  F  F
  13.557730    0.018523   8.539177  F  F  F
  10.529424   10.226520   8.644077  F  F  F
  16.604736   10.227625   8.661648  F  F  F
   9.028735    0.013102  11.220884  F  F  F
  15.073672   10.230039  11.240290  F  F  F
  12.086311   10.228611  11.209365  F  F  F
  13.551662    0.011617  13.838337  F  F  F
  10.560116   10.231806  13.775022  F  F  F
  16.597461   10.227395  13.892750  F  F  F
  15.067852   10.262373  16.565054  F  F  F
   8.989648   11.684407   5.982106  F  F  F
  15.106435   13.122701   6.176480  F  F  F
  12.024551   13.124684   6.168822  F  F  F
  13.566713   14.630603   8.500341  F  F  F
  10.527539   13.152473   8.633258  F  F  F
  16.601562   13.150828   8.645173  F  F  F
   9.023002   14.619706  11.238716  F  F  F
  15.069952   13.156824  11.215583  F  F  F
  12.073132   13.159977  11.192482  F  F  F
  13.573031   14.616878  13.829680  F  F  F
  10.562923   13.153389  13.807699  F  F  F
  16.575865   13.154382  13.872024  F  F  F
   9.040427   14.593601   5.963154  F  F  F
  14.994585   16.152911   6.126786  F  F  F
  12.125850   16.149827   6.126159  F  F  F
  13.559633   17.531610   8.551924  F  F  F
  10.530502   16.071520   8.621402  F  F  F
  16.589237   16.069395   8.624921  F  F  F
   9.022823   17.530179  11.238666  F  F  F
  15.063994   16.079900  11.212948  F  F  F
  12.055748   16.079846  11.212581  F  F  F
  13.540655   17.583399  13.848934  F  F  F
  10.565071   16.090896  13.851288  F  F  F
  16.568680   16.084350  13.865560  F  F  F
  15.137813   16.144509  16.557812  F  F  F
   9.006350   17.545872   5.953106  F  F  F
  15.004666   18.915954   6.138315  F  F  F
  12.107764   18.918263   6.133269  F  F  F
  13.555571   20.451415   8.531973  F  F  F
  10.522239   18.996379   8.615530  F  F  F
  16.591540   18.995741   8.614768  F  F  F
   9.024105   20.454715  11.226763  F  F  F
  15.052574   18.995314  11.209386  F  F  F
  12.052391   18.996448  11.213068  F  F  F
  13.543218   20.467933  13.833826  F  F  F
  10.514907   19.013744  13.816675  F  F  F
  16.560951   19.004506  13.825979  F  F  F
   9.042449   20.438606   5.962593  F  F  F
  14.996090   21.987783   6.133773  F  F  F
  12.115817   21.986751   6.130549  F  F  F
  13.573439   11.691593   8.479832  F  F  F
  10.523571   21.905825   8.608267  F  F  F
  16.588598   21.906152   8.608652  F  F  F
   9.027251   11.694339  11.248300  F  F  F
  15.054240   21.912962  11.199939  F  F  F
  12.052791   21.913777  11.200417  F  F  F
  13.599394   11.689842  13.827447  F  F  F
  10.535292   21.918886  13.810983  F  F  F
  16.563367   21.914039  13.806085  F  F  F
  15.082062   21.923904  16.454989  F  F  F
  12.006198   21.911122  16.449613  F  F  F
   6.063632    1.431468  16.490694  F  F  F
   2.952444    1.425512  16.470889  F  F  F
   6.128055    7.231767  16.582187  F  F  F
   5.960017   13.234908  16.514489  F  F  F
   6.037855   19.032358  16.525861  F  F  F
  15.111373    1.433555  16.484262  F  F  F
  12.006392    1.461338  16.473684  F  F  F
  15.234786    7.267565  16.580441  F  F  F
  15.214358   13.198128  16.583079  F  F  F
  15.092228   19.050213  16.495965  F  F  F
   3.024215    4.360242  16.487804  F  F  F
  12.068351    4.370900  16.466041  F  F  F
   2.963751   18.954083  16.478419  F  F  F
  11.984395   18.978867  16.503678  F  F  F
   7.317695    0.014274   7.039918  F  F  F
   4.501891    0.015388   5.363016  F  F  F
   1.687920    0.017044   7.042227  F  F  F
   2.761365    2.933057   9.623248  F  F  F
  18.090840    2.931309   9.205462  F  F  F
   6.249990    2.931275   9.617267  F  F  F
   7.250342    2.928732  12.246574  F  F  F
   4.507108    2.926643  11.788001  F  F  F
   1.762463    2.927206  12.251699  F  F  F
   2.728044    2.913824  14.852372  F  F  F
  18.085850    2.919601  14.429437  F  F  F
   6.303106    2.900429  14.851658  F  F  F
   7.335492    2.864903  17.312099  F  F  F
   4.517828    2.889282  16.987575  F  F  F
   1.638986    2.842463  17.286469  F  F  F
   7.328091    2.923683   7.045311  F  F  F
   4.503989    2.957080   6.314567  F  F  F
   1.683182    2.926620   7.052960  F  F  F
   2.768903    5.855724   9.643756  F  F  F
  18.091430    5.854170   9.226123  F  F  F
   6.249129    5.853118   9.628271  F  F  F
   7.252844    5.848763  12.272129  F  F  F
   4.514523    5.848352  11.805328  F  F  F
   1.755624    5.854546  12.282204  F  F  F
   2.744293    5.765568  14.840209  F  F  F
  18.105953    5.813038  14.487796  F  F  F
   6.331311    5.806939  14.907661  F  F  F
   7.290682    5.744509  17.493103  F  F  F
   4.565481    5.749409  17.042559  F  F  F
   1.552651    5.360124  17.480671  F  F  F
   7.330334    5.862346   7.066150  F  F  F
   4.504698    5.840039   6.275986  F  F  F
   1.684506    5.865654   7.081558  F  F  F
   2.743772    8.768828   9.666941  F  F  F
  18.093250    8.768965   9.239055  F  F  F
   6.272220    8.769834   9.647411  F  F  F
   7.249383    8.761792  12.280597  F  F  F
   4.516508    8.765391  11.806732  F  F  F
   1.747807    8.762465  12.304368  F  F  F
   2.734239    8.741338  14.801172  F  F  F
   0.003051    8.780028  14.566695  F  F  F
   6.309304    8.734453  14.903945  F  F  F
   7.260273    8.739783  17.452623  F  F  F
   4.614088    8.711160  17.202225  F  F  F
   1.079218    8.811256  18.167042  F  F  F
   7.326348    8.768861   7.067058  F  F  F
   4.502484    8.778813   5.381684  F  F  F
   1.688746    8.769600   7.088196  F  F  F
   2.741943    0.015134   9.616160  F  F  F
  18.088116    0.014753   9.179502  F  F  F
   6.263547    0.014376   9.614833  F  F  F
   7.246705    0.014707  12.236196  F  F  F
   4.503055    0.013227  11.778575  F  F  F
   1.756359    0.015224  12.232279  F  F  F
   2.714165    0.000792  14.833639  F  F  F
  18.082295   23.353100  14.406030  F  F  F
   6.287295    0.010405  14.841268  F  F  F
   7.325148   23.315319  17.301818  F  F  F
   4.483654   23.353433  16.982514  F  F  F
   1.648229   23.333972  17.280769  F  F  F
   7.296860   11.687395   7.051122  F  F  F
   4.504402   11.684865   6.458754  F  F  F
   1.718312   11.685505   7.071490  F  F  F
   2.747627   14.608711   9.643460  F  F  F
  18.090072   14.611229   9.213985  F  F  F
   6.267865   14.610612   9.638445  F  F  F
   7.249371   14.620297  12.264859  F  F  F
   4.510594   14.624230  11.796209  F  F  F
   1.753468   14.632556  12.255881  F  F  F
   2.726773   14.584118  14.776280  F  F  F
  18.088535   14.646188  14.391690  F  F  F
   6.317396   14.633054  14.868437  F  F  F
   7.191141   14.680096  17.460046  F  F  F
   4.587887   14.684115  16.948849  F  F  F
   1.523521   15.162139  17.075171  F  F  F
   7.323351   14.607629   7.058671  F  F  F
   4.501399   14.589231   5.370147  F  F  F
   1.685915   14.605323   7.068467  F  F  F
   2.765996   17.528069   9.616311  F  F  F
  18.084833   17.529747   9.197563  F  F  F
   6.242248   17.528510   9.616909  F  F  F
   7.245380   17.541465  12.263233  F  F  F
   4.505212   17.532409  11.794990  F  F  F
   1.748641   17.529459  12.245341  F  F  F
   2.695624   17.612478  14.824474  F  F  F
  18.073994   17.567170  14.438443  F  F  F
   6.286632   17.573870  14.877208  F  F  F
   7.212011   17.613862  17.480432  F  F  F
   4.482559   17.616093  17.025480  F  F  F
   1.323737   17.906205  17.366586  F  F  F
   7.323617   17.517359   7.054788  F  F  F
   4.502452   17.538387   6.244126  F  F  F
   1.680779   17.514186   7.058219  F  F  F
   2.759746   20.453484   9.606993  F  F  F
  18.085709   20.450602   9.187974  F  F  F
   6.243378   20.453637   9.609022  F  F  F
   7.242916   20.448158  12.240825  F  F  F
   4.501386   20.453595  11.774745  F  F  F
   1.754030   20.451677  12.227123  F  F  F
   2.706798   20.437990  14.829276  F  F  F
  18.073580   20.479464  14.391905  F  F  F
   6.283960   20.460235  14.844974  F  F  F
   7.309620   20.515864  17.325404  F  F  F
   4.466407   20.440307  16.967323  F  F  F
   1.610250   20.468816  17.256480  F  F  F
   7.324163   20.461236   7.038625  F  F  F
   4.500567   20.430861   6.295242  F  F  F
   1.680320   20.462300   7.039659  F  F  F
   2.746369   11.688126   9.656221  F  F  F
  18.090136   11.690770   9.237885  F  F  F
   6.270658   11.688838   9.640662  F  F  F
   7.245968   11.690609  12.272439  F  F  F
   4.511495   11.686315  11.806104  F  F  F
   1.762559   11.676127  12.289157  F  F  F
   2.737838   11.734365  14.873180  F  F  F
  18.099510   11.692468  14.471821  F  F  F
   6.301552   11.732433  14.891931  F  F  F
   7.278332   11.780267  17.466999  F  F  F
   4.669396   11.618880  17.085614  F  F  F
   1.279104   12.196791  17.767984  F  F  F
  16.384860    0.016654   7.036718  F  F  F
  13.558287    0.016581   5.370559  F  F  F
  10.732443    0.016192   7.035754  F  F  F
  11.800461    2.936827   9.615532  F  F  F
   9.030465    2.931827   9.197495  F  F  F
  15.323634    2.936484   9.621106  F  F  F
  16.305122    2.927226  12.249364  F  F  F
  13.563623    2.927325  11.777818  F  F  F
  10.816509    2.926157  12.239459  F  F  F
  11.784506    2.920049  14.832535  F  F  F
   9.034588    2.923655  14.416046  F  F  F
  15.352839    2.902399  14.844295  F  F  F
  16.368951    2.867353  17.326745  F  F  F
  13.555562    2.904163  16.980702  F  F  F
  10.730384    2.973033  17.258661  F  F  F
  16.366482    2.940604   7.040965  F  F  F
  13.562219    2.940234   6.412097  F  F  F
  10.757530    2.938949   7.035081  F  F  F
  11.801279    5.845983   9.632049  F  F  F
   9.035448    5.853056   9.210963  F  F  F
  15.335200    5.850804   9.645568  F  F  F
  16.311121    5.858112  12.286446  F  F  F
  13.574243    5.851523  11.797230  F  F  F
  10.818924    5.857011  12.254748  F  F  F
  11.790663    5.742021  14.816326  F  F  F
   9.056289    5.830240  14.445438  F  F  F
  15.371019    5.818567  14.892900  F  F  F
  16.411344    5.710177  17.387092  F  F  F
  13.645270    5.774553  17.146024  F  F  F
  10.609430    5.646711  17.349350  F  F  F
  16.391191    5.858904   7.064405  F  F  F
  13.565765    5.845186   5.380251  F  F  F
  10.739953    5.856873   7.051797  F  F  F
  11.824128    8.766034   9.621512  F  F  F
   9.034178    8.768417   9.215273  F  F  F
  15.317973    8.766933   9.641608  F  F  F
  16.309722    8.770676  12.307449  F  F  F
  13.578083    8.762011  11.802849  F  F  F
  10.825680    8.745851  12.238691  F  F  F
  11.800123    8.819750  14.813390  F  F  F
   9.061189    8.751473  14.397239  F  F  F
  15.376266    8.784646  14.928047  F  F  F
  16.267896    8.827229  17.535312  F  F  F
  13.689920    8.688928  16.999907  F  F  F
  10.586006    8.814959  17.349755  F  F  F
  16.393267    8.762563   7.076888  F  F  F
  13.568361    8.764149   6.327745  F  F  F
  10.738118    8.760730   7.062157  F  F  F
  11.789964    0.014963   9.611963  F  F  F
   9.025876    0.014957   9.177802  F  F  F
  15.323434    0.015168   9.611966  F  F  F
  16.300742    0.016356  12.233601  F  F  F
  13.555317    0.014585  11.772928  F  F  F
  10.808500    0.018030  12.234487  F  F  F
  11.766185    0.019837  14.839673  F  F  F
   9.027094   23.350661  14.428206  F  F  F
  15.337576    0.016081  14.831972  F  F  F
  16.381499   23.343771  17.295670  F  F  F
  13.541064    0.018026  16.980827  F  F  F
  10.710448    0.003477  17.288111  F  F  F
  16.421362   11.684648   7.069861  F  F  F
  13.564316   11.683894   6.044782  F  F  F
  10.711875   11.685687   7.053012  F  F  F
  11.819408   14.619917   9.605801  F  F  F
   9.029495   14.612637   9.198790  F  F  F
  15.309939   14.616181   9.616568  F  F  F
  16.293087   14.619100  12.263690  F  F  F
  13.568646   14.619279  11.770559  F  F  F
  10.812624   14.620867  12.225092  F  F  F
  11.793156   14.599692  14.712639  F  F  F
   9.056177   14.629755  14.379421  F  F  F
  15.352916   14.626677  14.870120  F  F  F
  16.285537   14.718259  17.415092  F  F  F
  13.534057   14.614107  16.941296  F  F  F
  10.646638   14.965336  16.983543  F  F  F
  16.389591   14.616075   7.056807  F  F  F
  13.563421   14.616221   6.296963  F  F  F
  10.734164   14.618381   7.048683  F  F  F
  11.791332   17.536802   9.619869  F  F  F
   9.028579   17.531084   9.196633  F  F  F
  15.324014   17.535422   9.621051  F  F  F
  16.293709   17.537170  12.255270  F  F  F
  13.556157   17.535271  11.785026  F  F  F
  10.804036   17.531803  12.249684  F  F  F
  11.753878   17.617764  14.818379  F  F  F
   9.029722   17.561643  14.469996  F  F  F
  15.332976   17.568938  14.860056  F  F  F
  16.255314   17.630597  17.395371  F  F  F
  13.520564   17.604350  17.001544  F  F  F
  10.501333   17.767501  17.433087  F  F  F
  16.385860   17.524397   7.040280  F  F  F
  13.557808   17.538914   5.361320  F  F  F
  10.733276   17.525217   7.037654  F  F  F
  11.793194   20.450572   9.609536  F  F  F
   9.024665   20.450603   9.189166  F  F  F
  15.316163   20.450828   9.608287  F  F  F
  16.294031   20.452664  12.233486  F  F  F
  13.552229   20.456887  11.769530  F  F  F
  10.807892   20.458271  12.235069  F  F  F
  11.757826   20.446117  14.837761  F  F  F
   9.020890   20.486725  14.423105  F  F  F
  15.329902   20.467880  14.831279  F  F  F
  16.338128   20.519329  17.317067  F  F  F
  13.522123   20.451454  16.972373  F  F  F
  10.714373   20.501055  17.291543  F  F  F
  16.362737   20.448170   7.026586  F  F  F
  13.556796   20.448206   6.401819  F  F  F
  10.750552   20.447870   7.026487  F  F  F
  11.837602   11.691407   9.602283  F  F  F
   9.035274   11.689266   9.212378  F  F  F
  15.303556   11.689493   9.624816  F  F  F
  16.305207   11.692718  12.285803  F  F  F
  13.576187   11.703509  11.767021  F  F  F
  10.827937   11.710039  12.209253  F  F  F
  11.824831   11.674137  14.718600  F  F  F
   9.057044   11.706575  14.376667  F  F  F
  15.355877   11.685921  14.908181  F  F  F
  16.322218   11.690482  17.437450  F  F  F
  13.707207   11.756044  17.175934  F  F  F
  10.770197   12.033126  17.054612  F  F  F
  18.027931   20.572128  16.414675  F  F  F
   8.997434   20.628274  16.462901  F  F  F
  18.069799   23.236364  16.429152  F  F  F
   9.020170   23.156569  16.460662  F  F  F
  18.084880    2.963048  16.467297  F  F  F
  18.005038    8.995043  16.699184  F  F  F
   3.545209   10.229711  16.059650  F  F  F
  17.923332   14.937523  16.386266  F  F  F
   3.347148   16.023210  16.135065  F  F  F
   9.026138    3.061566  16.436525  F  F  F
   8.938811    8.798328  16.420550  F  F  F
  11.206162   10.319555  16.336123  F  F  F
   8.929314   14.782851  16.394107  F  F  F
  12.398134   16.072918  16.154309  F  F  F
  18.046069    5.463911  16.513586  F  F  F
   3.497962    7.259711  16.118678  F  F  F
   1.952298   13.441008  16.532545  F  F  F
  17.970393   17.732495  16.490771  F  F  F
  17.972024   11.680951  16.530406  F  F  F
   9.019017    5.684882  16.491926  F  F  F
  12.597930    7.295029  16.043502  F  F  F
  12.521820   13.101223  16.192923  F  F  F
   8.934392   17.650720  16.505228  F  F  F
   8.964599   11.870896  16.404732  F  F  F
   7.966620    9.034683  19.214098  T  T  T
  10.263350   10.059558  18.812513  T  T  T
   9.165999   10.216677  21.066799  T  T  T
  13.672369    8.401594  20.955292  T  T  T
  15.266602    8.461171  19.142072  T  T  T
   3.007979    9.003029  18.380760  T  T  T
  10.646623   13.507815  18.283835  T  T  T
   1.043793   10.579512  18.642468  T  T  T
   9.517028    7.862999  20.620083  T  T  T
  10.567227    7.199241  18.430645  T  T  T
   8.167758    6.562273  18.984820  T  T  T
   8.255650   11.737694  19.216895  T  T  T
   6.644514   10.430594  20.707628  T  T  T
  11.044579    8.575242  22.371248  T  T  T
   1.430051    7.060287  18.005958  T  T  T
   3.156911   11.715237  18.295454  T  T  T
  12.839763    8.978169  18.720764  T  T  T
   4.049173   10.434671  20.264509  T  T  T
   5.483249    8.981543  19.020926  T  T  T
  13.550000    6.606033  18.920915  T  T  T
  11.764599    7.136324  20.523091  T  T  T
   5.630436   11.680837  18.942796  T  T  T
  12.533122   11.457603  18.707454  T  T  T
  11.789093   10.034101  20.688662  T  T  T
   6.926542   13.822660  19.193435  T  T  T
   9.182101   14.346618  19.969566  T  T  T
  10.493822   12.113814  20.230089  T  T  T
   7.848931   16.157303  18.707023  T  T  T
  10.315621   16.145786  18.481390  T  T  T
