Mo  S Ru                                
   1.00000000000000     
    15.9214998300000001    0.0000000000000000    0.0000000000000000
    -7.9622501300000001   13.7910221699999997    0.0000000000000000
     0.0000000000000000    0.0000000000000000   13.5821998300000004
   Mo   S    Ru
    25    50     4
Direct
  0.1313427738233770  0.0647697460367098  0.6795059351401278
  0.1313294693882554  0.2654450815039979  0.6795375254455394
  0.1324531890222360  0.4657145605940940  0.6801379934764356
  0.1326643273129449  0.6657635639313995  0.6798793671519263
  0.1324637720483040  0.8656166642982015  0.6800672295542114
  0.3325586478722471  0.0655794359988562  0.6806538763482095
  0.3282905529864237  0.2635931022157436  0.6716695504589651
  0.3325455769605909  0.4658743695489918  0.6806227058376635
  0.3327098306220577  0.6659686836987788  0.6802034819281957
  0.3327096657632254  0.8656259390865770  0.6802133404096580
  0.5329712173443468  0.0647759897887141  0.6797587678149313
  0.5348023034616247  0.2636038537861012  0.6717830325536056
  0.5348105808455728  0.4701118047474964  0.6717464882506903
  0.5329755529311981  0.6670888936555386  0.6796720352697889
  0.5326006288543041  0.8657396821720411  0.6797472009844086
  0.7328117103031246  0.0656111890259083  0.6794584982780449
  0.7336436907148141  0.2654480045026020  0.6797379375156751
  0.7328332461763907  0.4658583919359813  0.6806997224239097
  0.7336469302325952  0.6670769041345892  0.6796189386961089
  0.7328153906039958  0.8660826796524930  0.6793915254785858
  0.9323378934035205  0.0656055462213558  0.6793121262728405
  0.9326835266065459  0.2658219524521215  0.6796449845638008
  0.9327953990378077  0.4657159925303560  0.6801776259292396
  0.9328021055727476  0.6659548112068379  0.6800971035952017
  0.9326886751058368  0.8657353451749543  0.6795238884230557
  0.0654511864361069  0.1321755618854183  0.5643053742565698
  0.0652303519271769  0.1320364078807970  0.7945348179769880
  0.0655694464443499  0.3327640124073454  0.5644438115502055
  0.0654427258913799  0.3322857056778830  0.7951732418687456
  0.0659511874004579  0.5323823676517705  0.5648757636159729
  0.0660911740855070  0.5326158866914739  0.7951468227880483
  0.0659811148222147  0.7324261960647789  0.5648225200028065
  0.0660804636570660  0.7323661989038541  0.7950863418359901
  0.0656103216344448  0.9317160859322158  0.5643625046154526
  0.0654201073024652  0.9320124103332716  0.7950823712438932
  0.2634914165481916  0.1284415846033653  0.5626194710150685
  0.2652241867462095  0.1324797793091079  0.7975941139583611
  0.2634544327147950  0.3339307332124690  0.5626262752931552
  0.2652247450157432  0.3316520298816670  0.7975814388763709
  0.2657879958157707  0.5326923070412235  0.5651752481732402
  0.2656922469477010  0.5326917460883394  0.7953456602616669
  0.2660826391215636  0.7324852630085132  0.5649145854831872
  0.2657944804849350  0.7323364432292365  0.7951881848280067
  0.2658451368856731  0.9320325013575399  0.5651640254383921
  0.2656646140737564  0.9318815630489752  0.7953297132406334
  0.4645732286619548  0.1284480565050359  0.5627713515245745
  0.4667259895284772  0.1325200223129954  0.7977464261850571
  0.4659946711608143  0.3324523888652777  0.5581318603789001
  0.4659493889966626  0.3324421460520171  0.7733571462081414
  0.4645394653705637  0.5350120198396411  0.5627094118973730
  0.4667331506191061  0.5331517438428151  0.7976679913846638
  0.4656920509704250  0.7328624380553421  0.5645595953755560
  0.4661199815016417  0.7329840437422348  0.7952887564351627
  0.4657060277635239  0.9317475939747482  0.5645951124409336
  0.4661053007536395  0.9319851807345074  0.7953184832619158
  0.6662308641471881  0.1321780677955786  0.5645260035857049
  0.6663949272586862  0.1320524305681090  0.7947523395990075
  0.6699700883034296  0.3338688397942207  0.5627826741867352
  0.6659057907242030  0.3316812916915239  0.7977569577845927
  0.6699713341869398  0.5349522128641837  0.5627128238216130
  0.6659370028485370  0.5331712655745449  0.7976902881145378
  0.6662306257681578  0.7329539760917712  0.5644290965995467
  0.6664103501629270  0.7332170763129611  0.7946582314059114
  0.6658464365638466  0.9323894032467024  0.5642768245707046
  0.6662342630953972  0.9325401627996115  0.7945797141061988
  0.8659978794843255  0.1325523912072910  0.5642086176503867
  0.8659369728024231  0.1322292634748479  0.7945110864326352
  0.8666617461730226  0.3327383367732750  0.5645353427163968
  0.8664743655927296  0.3323175716083568  0.7952536672686676
  0.8663654535608885  0.5325945465844839  0.5651767449502501
  0.8665701512316772  0.5327540011997414  0.7953436135938006
  0.8666691698545677  0.7327880350321223  0.5644179345877305
  0.8664666306826589  0.7330434152072556  0.7951325688726811
  0.8660051520071761  0.9323683792875030  0.5641446499122509
  0.8659445959342023  0.9325448623468873  0.7944429134461473
  0.3553001953684998  0.2771517184952685  0.8900966404486539
  0.5211921500761676  0.2771866240885288  0.8902445246349941
  0.5212048053137437  0.4430340868038485  0.8901526213975188
  0.4658314827463599  0.3324255842005073  0.0314734140805442
 
  0.00000000E+00  0.00000000E+00  0.00000000E+00
  0.00000000E+00  0.00000000E+00  0.00000000E+00
  0.00000000E+00  0.00000000E+00  0.00000000E+00
  0.00000000E+00  0.00000000E+00  0.00000000E+00
  0.00000000E+00  0.00000000E+00  0.00000000E+00
  0.00000000E+00  0.00000000E+00  0.00000000E+00
  0.00000000E+00  0.00000000E+00  0.00000000E+00
  0.00000000E+00  0.00000000E+00  0.00000000E+00
  0.00000000E+00  0.00000000E+00  0.00000000E+00
  0.00000000E+00  0.00000000E+00  0.00000000E+00
  0.00000000E+00  0.00000000E+00  0.00000000E+00
  0.00000000E+00  0.00000000E+00  0.00000000E+00
  0.00000000E+00  0.00000000E+00  0.00000000E+00
  0.00000000E+00  0.00000000E+00  0.00000000E+00
  0.00000000E+00  0.00000000E+00  0.00000000E+00
  0.00000000E+00  0.00000000E+00  0.00000000E+00
  0.00000000E+00  0.00000000E+00  0.00000000E+00
  0.00000000E+00  0.00000000E+00  0.00000000E+00
  0.00000000E+00  0.00000000E+00  0.00000000E+00
  0.00000000E+00  0.00000000E+00  0.00000000E+00
  0.00000000E+00  0.00000000E+00  0.00000000E+00
  0.00000000E+00  0.00000000E+00  0.00000000E+00
  0.00000000E+00  0.00000000E+00  0.00000000E+00
  0.00000000E+00  0.00000000E+00  0.00000000E+00
  0.00000000E+00  0.00000000E+00  0.00000000E+00
  0.00000000E+00  0.00000000E+00  0.00000000E+00
  0.00000000E+00  0.00000000E+00  0.00000000E+00
  0.00000000E+00  0.00000000E+00  0.00000000E+00
  0.00000000E+00  0.00000000E+00  0.00000000E+00
  0.00000000E+00  0.00000000E+00  0.00000000E+00
  0.00000000E+00  0.00000000E+00  0.00000000E+00
  0.00000000E+00  0.00000000E+00  0.00000000E+00
  0.00000000E+00  0.00000000E+00  0.00000000E+00
  0.00000000E+00  0.00000000E+00  0.00000000E+00
  0.00000000E+00  0.00000000E+00  0.00000000E+00
  0.00000000E+00  0.00000000E+00  0.00000000E+00
  0.00000000E+00  0.00000000E+00  0.00000000E+00
  0.00000000E+00  0.00000000E+00  0.00000000E+00
  0.00000000E+00  0.00000000E+00  0.00000000E+00
  0.00000000E+00  0.00000000E+00  0.00000000E+00
  0.00000000E+00  0.00000000E+00  0.00000000E+00
  0.00000000E+00  0.00000000E+00  0.00000000E+00
  0.00000000E+00  0.00000000E+00  0.00000000E+00
  0.00000000E+00  0.00000000E+00  0.00000000E+00
  0.00000000E+00  0.00000000E+00  0.00000000E+00
  0.00000000E+00  0.00000000E+00  0.00000000E+00
  0.00000000E+00  0.00000000E+00  0.00000000E+00
  0.00000000E+00  0.00000000E+00  0.00000000E+00
  0.00000000E+00  0.00000000E+00  0.00000000E+00
  0.00000000E+00  0.00000000E+00  0.00000000E+00
  0.00000000E+00  0.00000000E+00  0.00000000E+00
  0.00000000E+00  0.00000000E+00  0.00000000E+00
  0.00000000E+00  0.00000000E+00  0.00000000E+00
  0.00000000E+00  0.00000000E+00  0.00000000E+00
  0.00000000E+00  0.00000000E+00  0.00000000E+00
  0.00000000E+00  0.00000000E+00  0.00000000E+00
  0.00000000E+00  0.00000000E+00  0.00000000E+00
  0.00000000E+00  0.00000000E+00  0.00000000E+00
  0.00000000E+00  0.00000000E+00  0.00000000E+00
  0.00000000E+00  0.00000000E+00  0.00000000E+00
  0.00000000E+00  0.00000000E+00  0.00000000E+00
  0.00000000E+00  0.00000000E+00  0.00000000E+00
  0.00000000E+00  0.00000000E+00  0.00000000E+00
  0.00000000E+00  0.00000000E+00  0.00000000E+00
  0.00000000E+00  0.00000000E+00  0.00000000E+00
  0.00000000E+00  0.00000000E+00  0.00000000E+00
  0.00000000E+00  0.00000000E+00  0.00000000E+00
  0.00000000E+00  0.00000000E+00  0.00000000E+00
  0.00000000E+00  0.00000000E+00  0.00000000E+00
  0.00000000E+00  0.00000000E+00  0.00000000E+00
  0.00000000E+00  0.00000000E+00  0.00000000E+00
  0.00000000E+00  0.00000000E+00  0.00000000E+00
  0.00000000E+00  0.00000000E+00  0.00000000E+00
  0.00000000E+00  0.00000000E+00  0.00000000E+00
  0.00000000E+00  0.00000000E+00  0.00000000E+00
  0.00000000E+00  0.00000000E+00  0.00000000E+00
  0.00000000E+00  0.00000000E+00  0.00000000E+00
  0.00000000E+00  0.00000000E+00  0.00000000E+00
  0.00000000E+00  0.00000000E+00  0.00000000E+00
