POSCAR
1.0000000000
  6.5984710230752057  0.00000000000000000000  0.0000000000000000
 -3.29923551153760285 5.71444353211862299567  0.0000000000000000
  0.0000000000000000  0.00000000000000000000  9.8481762744172823
  Al  N   Li  Nb
  10  16  3   3 
Direct
  0.16666650  0.33333350  1.00000000
  0.66666650  0.33333350  1.00000000
  0.16666650  0.83333350  1.00000000
  0.66666650  0.33333350  0.50000000
  0.16666650  0.83333350  0.50000000
  0.66666650  0.83333350  0.50000000
  0.33333350  0.16666650  0.75000000
  0.83333350  0.66666650  0.75000000
  0.33333350  0.16666650  0.25000000
  0.83333350  0.66666650  0.25000000
  0.16666650  0.33333350  0.18750000
  0.66666650  0.33333350  0.18750000
  0.16666650  0.83333350  0.18750000
  0.66666650  0.83333350  0.18750000
  0.16666650  0.33333350  0.68750000
  0.66666650  0.33333350  0.68750000
  0.16666650  0.83333350  0.68750000
  0.66666650  0.83333350  0.68750000
  0.33333350  0.16666650  0.93750000
  0.83333350  0.16666650  0.93750000
  0.33333350  0.66666650  0.93750000
  0.83333350  0.66666650  0.93750000
  0.33333350  0.16666650  0.43750000
  0.83333350  0.16666650  0.43750000
  0.33333350  0.66666650  0.43750000
  0.83333350  0.66666650  0.43750000
  0.16666650  0.33333350  0.50000000
  0.83333350  0.16666650  0.75000000
  0.33333350  0.66666650  0.25000000
  0.66666650  0.83333350  1.00000000
  0.33333350  0.66666650  0.75000000
  0.83333350  0.16666650  0.25000000
