Ta  N Ru Cu                             
   1.00000000000000     
     9.0548154099999998    0.0000000000000000    0.0000000000000000
     0.0000000000000000   11.6775998899999998    0.0000000000000000
     0.0000000000000000    0.0000000000000000   26.4818170799999990
   Ta   N    Ru   Cu
    60    60    32     1
Selective dynamics
Direct
  0.0000000000000000  0.0000000000000000  0.2258397498815228   F   F   F
  0.6670845899906297  0.1250000003211298  0.2339882671631202   F   F   F
  0.3329153514769843  0.1250000003211298  0.2339882671631202   F   F   F
  0.4999999994478088  0.2499999997859135  0.3208898207564346   F   F   F
  0.1650707596845180  0.1250000003211298  0.3267034403329916   F   F   F
  0.8349292403154820  0.1250000003211298  0.3267034403329916   F   F   F
  0.0008368637764072  0.2499801952358238  0.4254875997232397   T   T   T
  0.6647303304415479  0.1249596964729167  0.4239080016390011   T   T   T
  0.3349956799824261  0.1249540296838453  0.4238839364596604   T   T   T
  0.4973562357664036  0.2500463608902088  0.5230167010738642   T   T   T
  0.1671057984653620  0.1247965016732550  0.5234180097107666   T   T   T
  0.8336711119227012  0.1248200872272202  0.5226117426733584   T   T   T
  0.0021374131887853  0.2496692094024118  0.6217065732344116   T   T   T
  0.6630333013797715  0.1242675801529933  0.6197562742386915   T   T   T
  0.3274524684821836  0.1241821342159464  0.6241668908055412   T   T   T
  0.0000000000000000  0.2499999997859135  0.2258397498815228   F   F   F
  0.6670845899906297  0.3750000001070433  0.2339882671631202   F   F   F
  0.3329153514769843  0.3750000001070433  0.2339882671631202   F   F   F
  0.4999999994478088  0.5000000004281731  0.3208898207564346   F   F   F
  0.1650707596845180  0.3750000001070433  0.3267034403329916   F   F   F
  0.8349292403154820  0.3750000001070433  0.3267034403329916   F   F   F
  0.0008453259885427  0.4999988230112741  0.4255377934413318   T   T   T
  0.6649333739129105  0.3749806288255075  0.4239676422075374   T   T   T
  0.3350581255598142  0.3749927954584366  0.4239340043263869   T   T   T
  0.4976248685747346  0.4998660150302138  0.5233452808592917   T   T   T
  0.1672084831755089  0.3749575646987873  0.5236302442593407   T   T   T
  0.8334869131932525  0.3751281951738490  0.5227842940582160   T   T   T
  0.9986511874771461  0.4995708654614451  0.6234163688213977   T   T   T
  0.6639831497422658  0.3749725858364333  0.6201281012389958   T   T   T
  0.3281717306877824  0.3745816705080514  0.6242830838749414   T   T   T
  0.0000000000000000  0.5000000004281731  0.2258397498815228   F   F   F
  0.6670845899906297  0.6249999998929567  0.2339882671631202   F   F   F
  0.3329153514769843  0.6249999998929567  0.2339882671631202   F   F   F
  0.4999999994478088  0.7500000002140865  0.3208898207564346   F   F   F
  0.1650707596845180  0.6249999998929567  0.3267034403329916   F   F   F
  0.8349292403154820  0.6249999998929567  0.3267034403329916   F   F   F
  0.0009176059213174  0.7497955582145385  0.4255103091399828   T   T   T
  0.6647435323734451  0.6249393600536167  0.4239917761301395   T   T   T
  0.3350247964583832  0.6248912858829473  0.4239412177945730   T   T   T
  0.4974862452184529  0.7497066653906566  0.5232766354540109   T   T   T
  0.1674551999706958  0.6245984223479475  0.5236943662037794   T   T   T
  0.8337066377816108  0.6248921682898636  0.5229829428957761   T   T   T
  0.0037622602039372  0.7503713797459448  0.6222122095589920   T   T   T
  0.6644641747691556  0.6246418152061380  0.6211325554141232   T   T   T
  0.3277197194899238  0.6248494424851078  0.6250350709292946   T   T   T
  0.0000000000000000  0.7500000002140865  0.2258397498815228   F   F   F
  0.6670845899906297  0.8750000005352163  0.2339882671631202   F   F   F
  0.3329153514769843  0.8750000005352163  0.2339882671631202   F   F   F
  0.4999999994478088  0.0000000000000000  0.3208898207564346   F   F   F
  0.1650707596845180  0.8750000005352163  0.3267034403329916   F   F   F
  0.8349292403154820  0.8750000005352163  0.3267034403329916   F   F   F
  0.0007975195617824  0.9999195402903019  0.4254708101550003   T   T   T
  0.6648536379340944  0.8748746308959972  0.4239702125055973   T   T   T
  0.3351480853703518  0.8748934511086645  0.4238711238128642   T   T   T
  0.4973901274988888  0.9996656929942046  0.5231318355236342   T   T   T
  0.1669839038173403  0.8747197449611520  0.5233491240770533   T   T   T
  0.8340065678287980  0.8746997287805319  0.5226888293380024   T   T   T
  0.9995080788804044  0.9990857609840198  0.6230095655715386   T   T   T
  0.6648551737233545  0.8752630166506554  0.6201285059200600   T   T   T
  0.3293371545673254  0.8741124720424082  0.6234324275675536   T   T   T
  0.8141011533980276  0.0000000000000000  0.2671765160246267   F   F   F
  0.4999999994478088  0.0000000000000000  0.2273691263583544   F   F   F
  0.1858988466019724  0.0000000000000000  0.2671765160246267   F   F   F
  0.3088456122590841  0.2499999997859135  0.3635413069267344   F   F   F
  0.0000000000000000  0.2499999997859135  0.3485649890092901   F   F   F
  0.6911543877409159  0.2499999997859135  0.3635413069267344   F   F   F
  0.8025382895469271  0.2500119736751429  0.4625638382874879   T   T   T
  0.4997225273577096  0.2499888244533429  0.4455294663030108   T   T   T
  0.1987126391641112  0.2500550065739582  0.4632603766590746   T   T   T
  0.3019529199442745  0.2498359352373587  0.5628285044078419   T   T   T
  0.0000529998168114  0.2498867383800367  0.5434467648127838   T   T   T
  0.6949344841424254  0.2498804384636888  0.5597335549330439   T   T   T
  0.8016025129014728  0.2498898170373622  0.6539680073104552   T   T   T
  0.5000270667232872  0.2497901108645952  0.6412385987980260   T   T   T
  0.1972692316341863  0.2501666120074557  0.6591106548371968   T   T   T
  0.8141011533980276  0.2499999997859135  0.2671765160246267   F   F   F
  0.4999999994478088  0.2499999997859135  0.2273691263583544   F   F   F
  0.1858988466019724  0.2499999997859135  0.2671765160246267   F   F   F
  0.3088456122590841  0.5000000004281731  0.3635413069267344   F   F   F
  0.0000000000000000  0.5000000004281731  0.3485649890092901   F   F   F
  0.6911543877409159  0.5000000004281731  0.3635413069267344   F   F   F
  0.8025205434937575  0.5000799876156876  0.4627800391108214   T   T   T
  0.4997811189969812  0.4999315419008673  0.4456959201431580   T   T   T
  0.1986648227626949  0.4998526717340077  0.4633953777714149   T   T   T
  0.3024999563674666  0.4997389400454692  0.5632384519107879   T   T   T
  0.9998830687376279  0.4999320809240184  0.5445175826366622   T   T   T
  0.6950129875953127  0.5008694896764857  0.5608659677479769   T   T   T
  0.8002084725408929  0.5002737246142631  0.6594776779268630   T   T   T
  0.5007141135172558  0.5004007089063157  0.6434340625946874   T   T   T
  0.1958517032163746  0.4984233248643443  0.6590545844006294   T   T   T
  0.8141011533980276  0.5000000004281731  0.2671765160246267   F   F   F
  0.4999999994478088  0.5000000004281731  0.2273691263583544   F   F   F
  0.1858988466019724  0.5000000004281731  0.2671765160246267   F   F   F
  0.3088456122590841  0.7500000002140865  0.3635413069267344   F   F   F
  0.0000000000000000  0.7500000002140865  0.3485649890092901   F   F   F
  0.6911543877409159  0.7500000002140865  0.3635413069267344   F   F   F
  0.8025199059464830  0.7497028516957895  0.4626953656869576   T   T   T
  0.4997121959029344  0.7498438665808838  0.4456898076573337   T   T   T
  0.1987758625806641  0.7497254144588816  0.4632930424692337   T   T   T
  0.3020202101332133  0.7490730711766126  0.5629358592399432   T   T   T
  0.0004682754128843  0.7497147825006952  0.5437557955468221   T   T   T
  0.6950184226715367  0.7493550294252486  0.5603734517008288   T   T   T
  0.8041401474820215  0.7498005524745766  0.6549514084581097   T   T   T
  0.5010699606704730  0.7500337902960456  0.6423047143049875   T   T   T
  0.1981727426746557  0.7493782230770922  0.6601460159533733   T   T   T
  0.8141011533980276  0.7500000002140865  0.2671765160246267   F   F   F
  0.4999999994478088  0.7500000002140865  0.2273691263583544   F   F   F
  0.1858988466019724  0.7500000002140865  0.2671765160246267   F   F   F
  0.3088456122590841  0.0000000000000000  0.3635413069267344   F   F   F
  0.0000000000000000  0.0000000000000000  0.3485649890092901   F   F   F
  0.6911543877409159  0.0000000000000000  0.3635413069267344   F   F   F
  0.8024994944758107  0.9998490008437233  0.4626140929799931   T   T   T
  0.4997424493044639  0.9998863532301011  0.4455959317439103   T   T   T
  0.1985785592371070  0.9998606617083268  0.4632118551862309   T   T   T
  0.3015656156771235  0.9998054547356294  0.5625641489070855   T   T   T
  0.9999717128733762  0.9997214232580741  0.5441509913637855   T   T   T
  0.6954705346178485  0.9996080003645513  0.5601178504741855   T   T   T
  0.8001905848082494  0.9996774507220941  0.6581776455158166   T   T   T
  0.5001930498469013  0.9998155201824639  0.6404548550608812   T   T   T
  0.1975531992029046  0.9988950732364165  0.6595144192742955   T   T   T
  0.0970196457878579  0.0133643540406778  0.7308095641233565   T   T   T
  0.5714174453748597  0.9987672993195014  0.7144412404421027   T   T   T
  0.8531552289107666  0.1349323896952703  0.7113472728328512   T   T   T
  0.1107662638913051  0.4967540776730047  0.7313918586903744   T   T   T
  0.5739466695839489  0.4847878468576550  0.7162236155101528   T   T   T
  0.8650087256308560  0.6347895057063765  0.7114699297800665   T   T   T
  0.1138584647269689  0.2464720817508417  0.7316092994716170   T   T   T
  0.5682877192045620  0.2618189035964030  0.7151535545300707   T   T   T
  0.8600459888301558  0.3642745210348784  0.7106784409255859   T   T   T
  0.1252094801552079  0.7356364891929531  0.7344337553495237   T   T   T
  0.5412616919499318  0.7694193646176213  0.7183821957047560   T   T   T
  0.8570363815943247  0.8670967031834735  0.7116928575897127   T   T   T
  0.3293627365393818  0.9003995279994029  0.7380172994360481   T   T   T
  0.3594999615329523  0.6021725917464205  0.7514142832742586   T   T   T
  0.3558118219649876  0.3727675565591858  0.7504977430978198   T   T   T
  0.3605372724258185  0.1263309969075014  0.7477577610485513   T   T   T
  0.1414291082576331  0.8885490149609540  0.8060485302737965   T   T   T
  0.6583425121052809  0.8770969039256122  0.7935167736169487   T   T   T
  0.8877360802222963  0.0114223941800501  0.7925544926939105   T   T   T
  0.1255541159305580  0.3710603863763102  0.8087260612022910   T   T   T
  0.6132344260776110  0.5303279540135346  0.8531612363682246   T   T   T
  0.8866009840434478  0.5049292942397855  0.7913128124849398   T   T   T
  0.1450448488901418  0.1295813638114868  0.8102561625466022   T   T   T
  0.6291308280947755  0.1295331588195160  0.7903341253984465   T   T   T
  0.8926147311415296  0.2357434572396349  0.7931492221208357   T   T   T
  0.1361116833391202  0.6035570366756144  0.8117275679736935   T   T   T
  0.6569058992255369  0.6462248207718541  0.7867864303588463   T   T   T
  0.9057244487449712  0.7449245863132972  0.7936477491638244   T   T   T
  0.4131638055546334  0.7691247111866136  0.8072417378232102   T   T   T
  0.3743073473444632  0.4793281335177408  0.8307015652542989   T   T   T
  0.3841026422220665  0.2472950028411049  0.8268780500062596   T   T   T
  0.4091481138777187  0.9866664329222919  0.8191075703304781   T   T   T
  0.6518207663265047  0.3559878940084820  0.7999326493719668   T   T   T
 
  0.00000000E+00  0.00000000E+00  0.00000000E+00
  0.00000000E+00  0.00000000E+00  0.00000000E+00
  0.00000000E+00  0.00000000E+00  0.00000000E+00
  0.00000000E+00  0.00000000E+00  0.00000000E+00
  0.00000000E+00  0.00000000E+00  0.00000000E+00
  0.00000000E+00  0.00000000E+00  0.00000000E+00
  0.00000000E+00  0.00000000E+00  0.00000000E+00
  0.00000000E+00  0.00000000E+00  0.00000000E+00
  0.00000000E+00  0.00000000E+00  0.00000000E+00
  0.00000000E+00  0.00000000E+00  0.00000000E+00
  0.00000000E+00  0.00000000E+00  0.00000000E+00
  0.00000000E+00  0.00000000E+00  0.00000000E+00
  0.00000000E+00  0.00000000E+00  0.00000000E+00
  0.00000000E+00  0.00000000E+00  0.00000000E+00
  0.00000000E+00  0.00000000E+00  0.00000000E+00
  0.00000000E+00  0.00000000E+00  0.00000000E+00
  0.00000000E+00  0.00000000E+00  0.00000000E+00
  0.00000000E+00  0.00000000E+00  0.00000000E+00
  0.00000000E+00  0.00000000E+00  0.00000000E+00
  0.00000000E+00  0.00000000E+00  0.00000000E+00
  0.00000000E+00  0.00000000E+00  0.00000000E+00
  0.00000000E+00  0.00000000E+00  0.00000000E+00
  0.00000000E+00  0.00000000E+00  0.00000000E+00
  0.00000000E+00  0.00000000E+00  0.00000000E+00
  0.00000000E+00  0.00000000E+00  0.00000000E+00
  0.00000000E+00  0.00000000E+00  0.00000000E+00
  0.00000000E+00  0.00000000E+00  0.00000000E+00
  0.00000000E+00  0.00000000E+00  0.00000000E+00
  0.00000000E+00  0.00000000E+00  0.00000000E+00
  0.00000000E+00  0.00000000E+00  0.00000000E+00
  0.00000000E+00  0.00000000E+00  0.00000000E+00
  0.00000000E+00  0.00000000E+00  0.00000000E+00
  0.00000000E+00  0.00000000E+00  0.00000000E+00
  0.00000000E+00  0.00000000E+00  0.00000000E+00
  0.00000000E+00  0.00000000E+00  0.00000000E+00
  0.00000000E+00  0.00000000E+00  0.00000000E+00
  0.00000000E+00  0.00000000E+00  0.00000000E+00
  0.00000000E+00  0.00000000E+00  0.00000000E+00
  0.00000000E+00  0.00000000E+00  0.00000000E+00
  0.00000000E+00  0.00000000E+00  0.00000000E+00
  0.00000000E+00  0.00000000E+00  0.00000000E+00
  0.00000000E+00  0.00000000E+00  0.00000000E+00
  0.00000000E+00  0.00000000E+00  0.00000000E+00
  0.00000000E+00  0.00000000E+00  0.00000000E+00
  0.00000000E+00  0.00000000E+00  0.00000000E+00
  0.00000000E+00  0.00000000E+00  0.00000000E+00
  0.00000000E+00  0.00000000E+00  0.00000000E+00
  0.00000000E+00  0.00000000E+00  0.00000000E+00
  0.00000000E+00  0.00000000E+00  0.00000000E+00
  0.00000000E+00  0.00000000E+00  0.00000000E+00
  0.00000000E+00  0.00000000E+00  0.00000000E+00
  0.00000000E+00  0.00000000E+00  0.00000000E+00
  0.00000000E+00  0.00000000E+00  0.00000000E+00
  0.00000000E+00  0.00000000E+00  0.00000000E+00
  0.00000000E+00  0.00000000E+00  0.00000000E+00
  0.00000000E+00  0.00000000E+00  0.00000000E+00
  0.00000000E+00  0.00000000E+00  0.00000000E+00
  0.00000000E+00  0.00000000E+00  0.00000000E+00
  0.00000000E+00  0.00000000E+00  0.00000000E+00
  0.00000000E+00  0.00000000E+00  0.00000000E+00
  0.00000000E+00  0.00000000E+00  0.00000000E+00
  0.00000000E+00  0.00000000E+00  0.00000000E+00
  0.00000000E+00  0.00000000E+00  0.00000000E+00
  0.00000000E+00  0.00000000E+00  0.00000000E+00
  0.00000000E+00  0.00000000E+00  0.00000000E+00
  0.00000000E+00  0.00000000E+00  0.00000000E+00
  0.00000000E+00  0.00000000E+00  0.00000000E+00
  0.00000000E+00  0.00000000E+00  0.00000000E+00
  0.00000000E+00  0.00000000E+00  0.00000000E+00
  0.00000000E+00  0.00000000E+00  0.00000000E+00
  0.00000000E+00  0.00000000E+00  0.00000000E+00
  0.00000000E+00  0.00000000E+00  0.00000000E+00
  0.00000000E+00  0.00000000E+00  0.00000000E+00
  0.00000000E+00  0.00000000E+00  0.00000000E+00
  0.00000000E+00  0.00000000E+00  0.00000000E+00
  0.00000000E+00  0.00000000E+00  0.00000000E+00
  0.00000000E+00  0.00000000E+00  0.00000000E+00
  0.00000000E+00  0.00000000E+00  0.00000000E+00
  0.00000000E+00  0.00000000E+00  0.00000000E+00
  0.00000000E+00  0.00000000E+00  0.00000000E+00
  0.00000000E+00  0.00000000E+00  0.00000000E+00
  0.00000000E+00  0.00000000E+00  0.00000000E+00
  0.00000000E+00  0.00000000E+00  0.00000000E+00
  0.00000000E+00  0.00000000E+00  0.00000000E+00
  0.00000000E+00  0.00000000E+00  0.00000000E+00
  0.00000000E+00  0.00000000E+00  0.00000000E+00
  0.00000000E+00  0.00000000E+00  0.00000000E+00
  0.00000000E+00  0.00000000E+00  0.00000000E+00
  0.00000000E+00  0.00000000E+00  0.00000000E+00
  0.00000000E+00  0.00000000E+00  0.00000000E+00
  0.00000000E+00  0.00000000E+00  0.00000000E+00
  0.00000000E+00  0.00000000E+00  0.00000000E+00
  0.00000000E+00  0.00000000E+00  0.00000000E+00
  0.00000000E+00  0.00000000E+00  0.00000000E+00
  0.00000000E+00  0.00000000E+00  0.00000000E+00
  0.00000000E+00  0.00000000E+00  0.00000000E+00
  0.00000000E+00  0.00000000E+00  0.00000000E+00
  0.00000000E+00  0.00000000E+00  0.00000000E+00
  0.00000000E+00  0.00000000E+00  0.00000000E+00
  0.00000000E+00  0.00000000E+00  0.00000000E+00
  0.00000000E+00  0.00000000E+00  0.00000000E+00
  0.00000000E+00  0.00000000E+00  0.00000000E+00
  0.00000000E+00  0.00000000E+00  0.00000000E+00
  0.00000000E+00  0.00000000E+00  0.00000000E+00
  0.00000000E+00  0.00000000E+00  0.00000000E+00
  0.00000000E+00  0.00000000E+00  0.00000000E+00
  0.00000000E+00  0.00000000E+00  0.00000000E+00
  0.00000000E+00  0.00000000E+00  0.00000000E+00
  0.00000000E+00  0.00000000E+00  0.00000000E+00
  0.00000000E+00  0.00000000E+00  0.00000000E+00
  0.00000000E+00  0.00000000E+00  0.00000000E+00
  0.00000000E+00  0.00000000E+00  0.00000000E+00
  0.00000000E+00  0.00000000E+00  0.00000000E+00
  0.00000000E+00  0.00000000E+00  0.00000000E+00
  0.00000000E+00  0.00000000E+00  0.00000000E+00
  0.00000000E+00  0.00000000E+00  0.00000000E+00
  0.00000000E+00  0.00000000E+00  0.00000000E+00
  0.00000000E+00  0.00000000E+00  0.00000000E+00
  0.00000000E+00  0.00000000E+00  0.00000000E+00
  0.00000000E+00  0.00000000E+00  0.00000000E+00
  0.00000000E+00  0.00000000E+00  0.00000000E+00
  0.00000000E+00  0.00000000E+00  0.00000000E+00
  0.00000000E+00  0.00000000E+00  0.00000000E+00
  0.00000000E+00  0.00000000E+00  0.00000000E+00
  0.00000000E+00  0.00000000E+00  0.00000000E+00
  0.00000000E+00  0.00000000E+00  0.00000000E+00
  0.00000000E+00  0.00000000E+00  0.00000000E+00
  0.00000000E+00  0.00000000E+00  0.00000000E+00
  0.00000000E+00  0.00000000E+00  0.00000000E+00
  0.00000000E+00  0.00000000E+00  0.00000000E+00
  0.00000000E+00  0.00000000E+00  0.00000000E+00
  0.00000000E+00  0.00000000E+00  0.00000000E+00
  0.00000000E+00  0.00000000E+00  0.00000000E+00
  0.00000000E+00  0.00000000E+00  0.00000000E+00
  0.00000000E+00  0.00000000E+00  0.00000000E+00
  0.00000000E+00  0.00000000E+00  0.00000000E+00
  0.00000000E+00  0.00000000E+00  0.00000000E+00
  0.00000000E+00  0.00000000E+00  0.00000000E+00
  0.00000000E+00  0.00000000E+00  0.00000000E+00
  0.00000000E+00  0.00000000E+00  0.00000000E+00
  0.00000000E+00  0.00000000E+00  0.00000000E+00
  0.00000000E+00  0.00000000E+00  0.00000000E+00
  0.00000000E+00  0.00000000E+00  0.00000000E+00
  0.00000000E+00  0.00000000E+00  0.00000000E+00
  0.00000000E+00  0.00000000E+00  0.00000000E+00
  0.00000000E+00  0.00000000E+00  0.00000000E+00
  0.00000000E+00  0.00000000E+00  0.00000000E+00
  0.00000000E+00  0.00000000E+00  0.00000000E+00
  0.00000000E+00  0.00000000E+00  0.00000000E+00
  0.00000000E+00  0.00000000E+00  0.00000000E+00
  0.00000000E+00  0.00000000E+00  0.00000000E+00
  0.00000000E+00  0.00000000E+00  0.00000000E+00
  0.00000000E+00  0.00000000E+00  0.00000000E+00
