Ta  N Cu                                
   1.00000000000000     
    10.4555999800000006    0.0000000000000000    0.0000000000000000
     0.0000000000000000   11.6775998899999998    0.0000000000000000
     0.0000000000000000    0.0000000000000000   24.0732377500000005
   Ta   N    Cu
    64    64     1
Selective dynamics
Direct
  0.4991785186325330  0.1250000003211298  0.3753726828051569   F   F   F
  0.2600588226580172  0.1250000003211298  0.3190980514078845   F   F   F
  0.2470962603561304  0.0000000000000000  0.4358978840493251   F   F   F
  0.2489789956239363  0.1251050648975749  0.5618750070253427   T   T   T
  0.9986275592727267  0.1249173943022086  0.5003089914835641   T   T   T
  0.9979772708015560  0.9992690667445530  0.6253697638286653   T   T   T
  0.5114867523200175  0.1242168990881680  0.7435880136530812   T   T   T
  0.2488132818733177  0.1249527777514174  0.6875807858652365   T   T   T
  0.4991785186325330  0.3750000001070433  0.3753726828051569   F   F   F
  0.2600588226580172  0.3750000001070433  0.3190980514078845   F   F   F
  0.2470962603561304  0.2499999997859135  0.4358978840493251   F   F   F
  0.2489761164879880  0.3748863450286706  0.5618801068542538   T   T   T
  0.9986253453323641  0.3750942435781113  0.5003103728485527   T   T   T
  0.9994679754680433  0.2500065689088515  0.6238731205597006   T   T   T
  0.5114662553856846  0.3757795357574665  0.7435862940796696   T   T   T
  0.2488204150897033  0.3750617801324836  0.6875804327540536   T   T   T
  0.4991785186325330  0.6249999998929567  0.3753726828051569   F   F   F
  0.2600588226580172  0.6249999998929567  0.3190980514078845   F   F   F
  0.2470962603561304  0.5000000004281731  0.4358978840493251   F   F   F
  0.2485980691550793  0.6249457487698322  0.5618250731827956   T   T   T
  0.9986741245693196  0.6250303389547156  0.5004530971656322   T   T   T
  0.9979818168311212  0.5007423864703284  0.6253653253612228   T   T   T
  0.5106013404739471  0.6245490966718066  0.7431154480826407   T   T   T
  0.2492994461324187  0.6246299549232788  0.6869975583636077   T   T   T
  0.4991785186325330  0.8750000005352163  0.3753726828051569   F   F   F
  0.2600588226580172  0.8750000005352163  0.3190980514078845   F   F   F
  0.2470962603561304  0.7500000002140865  0.4358978840493251   F   F   F
  0.2485991312419173  0.8750475501964203  0.5618222367356793   T   T   T
  0.9986836311760214  0.8749641604116505  0.5004504158113789   T   T   T
  0.9975502553679974  0.7500149033705412  0.6260353092399242   T   T   T
  0.5105891297982836  0.8754687015507514  0.7431169748968856   T   T   T
  0.2493013705884408  0.8753859714087682  0.6869973753206722   T   T   T
  0.9991784928090510  0.1250000003211298  0.3753726828051569   F   F   F
  0.7600587968345351  0.1250000003211298  0.3190980514078845   F   F   F
  0.7470962345326484  0.0000000000000000  0.4358978840493251   F   F   F
  0.7478182314176678  0.1249397777491481  0.5616576277752259   T   T   T
  0.4982485563329391  0.1249844769125232  0.5004378588853342   T   T   T
  0.4970083879289575  0.9998546493644938  0.6264254250422070   T   T   T
  0.0049515083729830  0.1269380136235796  0.7434367814501712   T   T   T
  0.7506880186286580  0.1242471734566379  0.6867551683464441   T   T   T
  0.9991784928090510  0.3750000001070433  0.3753726828051569   F   F   F
  0.7600587968345351  0.3750000001070433  0.3190980514078845   F   F   F
  0.7470962345326484  0.2499999997859135  0.4358978840493251   F   F   F
  0.7478180156337331  0.3750581226250915  0.5616560264083148   T   T   T
  0.4982506957678439  0.3750179687894644  0.5004378709298294   T   T   T
  0.4967685492499783  0.2500046713550361  0.6267792647490467   T   T   T
  0.0049636846745500  0.3730993246153318  0.7434253254828249   T   T   T
  0.7506973156374457  0.3757752202769211  0.6867541870817320   T   T   T
  0.9991784928090510  0.6249999998929567  0.3753726828051569   F   F   F
  0.7600587968345351  0.6249999998929567  0.3190980514078845   F   F   F
  0.7470962345326484  0.5000000004281731  0.4358978840493251   F   F   F
  0.7484178207462406  0.6250450934475040  0.5614820726137637   T   T   T
  0.4983130884882740  0.6250498437076146  0.5004989576045062   T   T   T
  0.4970121895380402  0.5001563086993386  0.6264198437178692   T   T   T
  0.0105864027230282  0.6239282957300318  0.7425017569836143   T   T   T
  0.7492487464164199  0.6252516611612506  0.6864188727108527   T   T   T
  0.9991784928090439  0.8750000005352163  0.3753726828051569   F   F   F
  0.7600587968345351  0.8750000005352163  0.3190980514078845   F   F   F
  0.7470962345326484  0.7500000002140865  0.4358978840493251   F   F   F
  0.7484232960570623  0.8749737927614802  0.5614866649714756   T   T   T
  0.4983071310433260  0.8749528380946359  0.5004991198387714   T   T   T
  0.4969669982039520  0.7500078493316735  0.6264454258241585   T   T   T
  0.0105811626254351  0.8761053122768487  0.7425060299551163   T   T   T
  0.7492414151430253  0.8747776081476601  0.6864222679250389   T   T   T
  0.1472195596423447  0.0000000000000000  0.3601606351366584   F   F   F
  0.4003222342624682  0.0000000000000000  0.3237632067519129   F   F   F
  0.4439214822817661  0.0000000000000000  0.4377276028165085   F   F   F
  0.4008316516096855  0.9999959742354108  0.5519237443156584   T   T   T
  0.1508828986160964  0.9999996576843770  0.5103895367020428   T   T   T
  0.1948642185216229  0.0002582324592666  0.6245664713817050   T   T   T
  0.1495735723659877  0.0008341218260810  0.7389425701890531   T   T   T
  0.3973643163511085  0.0004431093205639  0.7020995928926439   T   T   T
  0.1472195596423447  0.2499999997859135  0.3601606351366584   F   F   F
  0.4003222342624682  0.2499999997859135  0.3237632067519129   F   F   F
  0.4439214822817661  0.2499999997859135  0.4377276028165085   F   F   F
  0.4010676678251315  0.2500020869922466  0.5519474269461355   T   T   T
  0.1507657836624503  0.2500009044220661  0.5103500209857827   T   T   T
  0.1962616599782194  0.2500054492667303  0.6247094088966634   T   T   T
  0.1485271866208322  0.2500078054434951  0.7385994314294777   T   T   T
  0.3977397220258396  0.2500049160821618  0.7027207015420203   T   T   T
  0.1472195596423447  0.5000000004281731  0.3601606351366584   F   F   F
  0.4003222342624682  0.5000000004281731  0.3237632067519129   F   F   F
  0.4439214822817661  0.5000000004281731  0.4377276028165085   F   F   F
  0.4008364037001897  0.5000053914160887  0.5519207658950975   T   T   T
  0.1508871445046367  0.5000022813140177  0.5103896442698854   T   T   T
  0.1948684097187723  0.4997546862485365  0.6245647458195691   T   T   T
  0.1495915556401144  0.4991936718804126  0.7389449251310651   T   T   T
  0.3973762195493435  0.4995771427570617  0.7020926646629846   T   T   T
  0.1472195596423447  0.7500000002140865  0.3601606351366584   F   F   F
  0.4003222342624682  0.7500000002140865  0.3237632067519129   F   F   F
  0.4439214822817661  0.7500000002140865  0.4377276028165085   F   F   F
  0.4006998101211749  0.7500035974430546  0.5519735271662825   T   T   T
  0.1508865469134975  0.7500022183595192  0.5103955243463787   T   T   T
  0.1944765463929485  0.7500034995094467  0.6246148643584206   T   T   T
  0.1501937752461870  0.7500144388811449  0.7385525393570660   T   T   T
  0.3971270783709642  0.7500049459205229  0.7023625594168905   T   T   T
  0.6472195338188556  0.0000000000000000  0.3601606351366584   F   F   F
  0.9003222591295312  0.0000000000000000  0.3237632067519129   F   F   F
  0.9439215071488221  0.0000000000000000  0.4377276028165085   F   F   F
  0.9002771638605864  0.9999914095705904  0.5514529642335972   T   T   T
  0.6504407564100703  0.9998953931665113  0.5102027546405949   T   T   T
  0.6938948629230595  0.9998327881553450  0.6243761077190157   T   T   T
  0.6514588573515212  0.9992905210582492  0.7383416632152233   T   T   T
  0.8983032790470489  0.9998487498693294  0.7004582317119912   T   T   T
  0.6472195338188556  0.2499999997859135  0.3601606351366584   F   F   F
  0.9003222591295312  0.2499999997859135  0.3237632067519129   F   F   F
  0.9439215071488221  0.2499999997859135  0.4377276028165085   F   F   F
  0.8993779014324588  0.2500020871595510  0.5508435992577603   T   T   T
  0.6503339805387327  0.2500024662588771  0.5101715983170649   T   T   T
  0.6930735402042245  0.2500076799629340  0.6246722492925301   T   T   T
  0.6565910723472967  0.2500166948673836  0.7419557523542935   T   T   T
  0.8998275174013486  0.2500038006198650  0.6956368031430600   T   T   T
  0.6472195338188556  0.5000000004281731  0.3601606351366584   F   F   F
  0.9003222591295312  0.5000000004281731  0.3237632067519129   F   F   F
  0.9439215071488221  0.5000000004281731  0.4377276028165085   F   F   F
  0.9002801701370444  0.5000115224814223  0.5514518657539895   T   T   T
  0.6504444338817521  0.5001071135902322  0.5102028266122574   T   T   T
  0.6938995953907749  0.5001766333562401  0.6243736843416698   T   T   T
  0.6514587167815407  0.5007276136968528  0.7383353435668880   T   T   T
  0.8983039409777831  0.5001814495864281  0.7004520223793165   T   T   T
  0.6472195338188556  0.7500000002140865  0.3601606351366584   F   F   F
  0.9003222591295312  0.7500000002140865  0.3237632067519129   F   F   F
  0.9439215071488221  0.7500000002140865  0.4377276028165085   F   F   F
  0.9006638377548839  0.7500038542132188  0.5517182592103893   T   T   T
  0.6504991796064914  0.7499998830993704  0.5102045876593309   T   T   T
  0.6938925023040809  0.7500106168800684  0.6242034295780527   T   T   T
  0.6500359420656565  0.7500075849895183  0.7378790583859072   T   T   T
  0.8976872935884543  0.7500146731210009  0.7017879899406481   T   T   T
  0.8175252047097672  0.2501853422236522  0.7931791077210875   T   T   T
 
  0.00000000E+00  0.00000000E+00  0.00000000E+00
  0.00000000E+00  0.00000000E+00  0.00000000E+00
  0.00000000E+00  0.00000000E+00  0.00000000E+00
  0.00000000E+00  0.00000000E+00  0.00000000E+00
  0.00000000E+00  0.00000000E+00  0.00000000E+00
  0.00000000E+00  0.00000000E+00  0.00000000E+00
  0.00000000E+00  0.00000000E+00  0.00000000E+00
  0.00000000E+00  0.00000000E+00  0.00000000E+00
  0.00000000E+00  0.00000000E+00  0.00000000E+00
  0.00000000E+00  0.00000000E+00  0.00000000E+00
  0.00000000E+00  0.00000000E+00  0.00000000E+00
  0.00000000E+00  0.00000000E+00  0.00000000E+00
  0.00000000E+00  0.00000000E+00  0.00000000E+00
  0.00000000E+00  0.00000000E+00  0.00000000E+00
  0.00000000E+00  0.00000000E+00  0.00000000E+00
  0.00000000E+00  0.00000000E+00  0.00000000E+00
  0.00000000E+00  0.00000000E+00  0.00000000E+00
  0.00000000E+00  0.00000000E+00  0.00000000E+00
  0.00000000E+00  0.00000000E+00  0.00000000E+00
  0.00000000E+00  0.00000000E+00  0.00000000E+00
  0.00000000E+00  0.00000000E+00  0.00000000E+00
  0.00000000E+00  0.00000000E+00  0.00000000E+00
  0.00000000E+00  0.00000000E+00  0.00000000E+00
  0.00000000E+00  0.00000000E+00  0.00000000E+00
  0.00000000E+00  0.00000000E+00  0.00000000E+00
  0.00000000E+00  0.00000000E+00  0.00000000E+00
  0.00000000E+00  0.00000000E+00  0.00000000E+00
  0.00000000E+00  0.00000000E+00  0.00000000E+00
  0.00000000E+00  0.00000000E+00  0.00000000E+00
  0.00000000E+00  0.00000000E+00  0.00000000E+00
  0.00000000E+00  0.00000000E+00  0.00000000E+00
  0.00000000E+00  0.00000000E+00  0.00000000E+00
  0.00000000E+00  0.00000000E+00  0.00000000E+00
  0.00000000E+00  0.00000000E+00  0.00000000E+00
  0.00000000E+00  0.00000000E+00  0.00000000E+00
  0.00000000E+00  0.00000000E+00  0.00000000E+00
  0.00000000E+00  0.00000000E+00  0.00000000E+00
  0.00000000E+00  0.00000000E+00  0.00000000E+00
  0.00000000E+00  0.00000000E+00  0.00000000E+00
  0.00000000E+00  0.00000000E+00  0.00000000E+00
  0.00000000E+00  0.00000000E+00  0.00000000E+00
  0.00000000E+00  0.00000000E+00  0.00000000E+00
  0.00000000E+00  0.00000000E+00  0.00000000E+00
  0.00000000E+00  0.00000000E+00  0.00000000E+00
  0.00000000E+00  0.00000000E+00  0.00000000E+00
  0.00000000E+00  0.00000000E+00  0.00000000E+00
  0.00000000E+00  0.00000000E+00  0.00000000E+00
  0.00000000E+00  0.00000000E+00  0.00000000E+00
  0.00000000E+00  0.00000000E+00  0.00000000E+00
  0.00000000E+00  0.00000000E+00  0.00000000E+00
  0.00000000E+00  0.00000000E+00  0.00000000E+00
  0.00000000E+00  0.00000000E+00  0.00000000E+00
  0.00000000E+00  0.00000000E+00  0.00000000E+00
  0.00000000E+00  0.00000000E+00  0.00000000E+00
  0.00000000E+00  0.00000000E+00  0.00000000E+00
  0.00000000E+00  0.00000000E+00  0.00000000E+00
  0.00000000E+00  0.00000000E+00  0.00000000E+00
  0.00000000E+00  0.00000000E+00  0.00000000E+00
  0.00000000E+00  0.00000000E+00  0.00000000E+00
  0.00000000E+00  0.00000000E+00  0.00000000E+00
  0.00000000E+00  0.00000000E+00  0.00000000E+00
  0.00000000E+00  0.00000000E+00  0.00000000E+00
  0.00000000E+00  0.00000000E+00  0.00000000E+00
  0.00000000E+00  0.00000000E+00  0.00000000E+00
  0.00000000E+00  0.00000000E+00  0.00000000E+00
  0.00000000E+00  0.00000000E+00  0.00000000E+00
  0.00000000E+00  0.00000000E+00  0.00000000E+00
  0.00000000E+00  0.00000000E+00  0.00000000E+00
  0.00000000E+00  0.00000000E+00  0.00000000E+00
  0.00000000E+00  0.00000000E+00  0.00000000E+00
  0.00000000E+00  0.00000000E+00  0.00000000E+00
  0.00000000E+00  0.00000000E+00  0.00000000E+00
  0.00000000E+00  0.00000000E+00  0.00000000E+00
  0.00000000E+00  0.00000000E+00  0.00000000E+00
  0.00000000E+00  0.00000000E+00  0.00000000E+00
  0.00000000E+00  0.00000000E+00  0.00000000E+00
  0.00000000E+00  0.00000000E+00  0.00000000E+00
  0.00000000E+00  0.00000000E+00  0.00000000E+00
  0.00000000E+00  0.00000000E+00  0.00000000E+00
  0.00000000E+00  0.00000000E+00  0.00000000E+00
  0.00000000E+00  0.00000000E+00  0.00000000E+00
  0.00000000E+00  0.00000000E+00  0.00000000E+00
  0.00000000E+00  0.00000000E+00  0.00000000E+00
  0.00000000E+00  0.00000000E+00  0.00000000E+00
  0.00000000E+00  0.00000000E+00  0.00000000E+00
  0.00000000E+00  0.00000000E+00  0.00000000E+00
  0.00000000E+00  0.00000000E+00  0.00000000E+00
  0.00000000E+00  0.00000000E+00  0.00000000E+00
  0.00000000E+00  0.00000000E+00  0.00000000E+00
  0.00000000E+00  0.00000000E+00  0.00000000E+00
  0.00000000E+00  0.00000000E+00  0.00000000E+00
  0.00000000E+00  0.00000000E+00  0.00000000E+00
  0.00000000E+00  0.00000000E+00  0.00000000E+00
  0.00000000E+00  0.00000000E+00  0.00000000E+00
  0.00000000E+00  0.00000000E+00  0.00000000E+00
  0.00000000E+00  0.00000000E+00  0.00000000E+00
  0.00000000E+00  0.00000000E+00  0.00000000E+00
  0.00000000E+00  0.00000000E+00  0.00000000E+00
  0.00000000E+00  0.00000000E+00  0.00000000E+00
  0.00000000E+00  0.00000000E+00  0.00000000E+00
  0.00000000E+00  0.00000000E+00  0.00000000E+00
  0.00000000E+00  0.00000000E+00  0.00000000E+00
  0.00000000E+00  0.00000000E+00  0.00000000E+00
  0.00000000E+00  0.00000000E+00  0.00000000E+00
  0.00000000E+00  0.00000000E+00  0.00000000E+00
  0.00000000E+00  0.00000000E+00  0.00000000E+00
  0.00000000E+00  0.00000000E+00  0.00000000E+00
  0.00000000E+00  0.00000000E+00  0.00000000E+00
  0.00000000E+00  0.00000000E+00  0.00000000E+00
  0.00000000E+00  0.00000000E+00  0.00000000E+00
  0.00000000E+00  0.00000000E+00  0.00000000E+00
  0.00000000E+00  0.00000000E+00  0.00000000E+00
  0.00000000E+00  0.00000000E+00  0.00000000E+00
  0.00000000E+00  0.00000000E+00  0.00000000E+00
  0.00000000E+00  0.00000000E+00  0.00000000E+00
  0.00000000E+00  0.00000000E+00  0.00000000E+00
  0.00000000E+00  0.00000000E+00  0.00000000E+00
  0.00000000E+00  0.00000000E+00  0.00000000E+00
  0.00000000E+00  0.00000000E+00  0.00000000E+00
  0.00000000E+00  0.00000000E+00  0.00000000E+00
  0.00000000E+00  0.00000000E+00  0.00000000E+00
  0.00000000E+00  0.00000000E+00  0.00000000E+00
  0.00000000E+00  0.00000000E+00  0.00000000E+00
  0.00000000E+00  0.00000000E+00  0.00000000E+00
  0.00000000E+00  0.00000000E+00  0.00000000E+00
  0.00000000E+00  0.00000000E+00  0.00000000E+00
  0.00000000E+00  0.00000000E+00  0.00000000E+00
  0.00000000E+00  0.00000000E+00  0.00000000E+00
  0.00000000E+00  0.00000000E+00  0.00000000E+00
