Ta  N Co Cu                             
   1.00000000000000     
    18.1096308199999996    0.0000000000000000    0.0000000000000000
     0.0000000000000000   23.3551997799999995    0.0000000000000000
     0.0000000000000000    0.0000000000000000   30.4818171199999988
   Ta   N    Co   Cu
   216   240    24     1
Direct
  0.0013065871237075  0.0021641485191211  0.1960447865930561
  0.3367838446803475  0.0626001675017491  0.2027969989571830
  0.1655876854751739  0.0626388492322860  0.2028339685219365
  0.2512344778548368  0.1262578383483586  0.2805710958536380
  0.0836734863992632  0.0633733262213454  0.2840935012961268
  0.4191462035174993  0.0634261706608896  0.2839650007038230
  0.0016078411969005  0.1251652880306793  0.3699370406402878
  0.3342495367588967  0.0627413328721076  0.3684089579211616
  0.1693399133441389  0.0627524166790963  0.3685383833313622
  0.2526199777445797  0.1249868813596748  0.4562493025347223
  0.0848426667685729  0.0625049058681597  0.4543486118083635
  0.4203387486238839  0.0626145276412586  0.4534276385157270
  0.3403127725861737  0.0642012500053184  0.5417961077537683
  0.1661881305278357  0.0655395291280882  0.5425148457383315
  0.0008636833408531  0.1260347434601883  0.1972437658543598
  0.3307131467751390  0.1912313318272538  0.2023989578929246
  0.1710831097620442  0.1913108446371297  0.2026826423137251
  0.2509448378881558  0.2503883852446975  0.2819123519166595
  0.0837110876841010  0.1880363815357313  0.2846065586117987
  0.4185395038965396  0.1880327991766109  0.2842176013150777
  0.0006894272711193  0.2500657223062319  0.3710265127169521
  0.3340349109458600  0.1874784976664259  0.3690110791861727
  0.1687590935772434  0.1875060000478470  0.3690077486789747
  0.2523139836684720  0.2482437443916226  0.4566381574962506
  0.0845072764200481  0.1861580474154039  0.4541600122731495
  0.4199027563843813  0.1864606348860107  0.4540682955664153
  0.3446096406907486  0.1868874047409932  0.5424807881683620
  0.1769579701335573  0.1949500475681489  0.5414371804740483
  0.0002987649711415  0.2514245237194430  0.1973415649083705
  0.3308989252995929  0.3106027776568965  0.2029855208356821
  0.1703762745974871  0.3105272659386955  0.2032978654777509
  0.2507258050643060  0.3750466133684682  0.2822966535764166
  0.0833959748777602  0.3130459254041824  0.2853114002144324
  0.4181355113586633  0.3130547869229758  0.2846840370788826
  0.0000724872106446  0.3745523887509421  0.3719058898475325
  0.3331881970283206  0.3123677706586463  0.3699137056711095
  0.1685750237932311  0.3123415679767234  0.3701346298198445
  0.2500299086853275  0.3730364536958888  0.4616947629468413
  0.0856892522057109  0.3110291812909196  0.4566772428628667
  0.4200442914271250  0.3107475895398863  0.4536613926026476
  0.3407521364240580  0.3103024129108647  0.5424071497572527
  0.0002411129883910  0.3752062858734391  0.1990028300955018
  0.3308016740796660  0.4399784787736678  0.2035831867230513
  0.1704520757355397  0.4399026205844976  0.2036591956106051
  0.2515087711829338  0.0003340311560223  0.2779416585715921
  0.0834639853247907  0.4371305965576298  0.2854442498365017
  0.4176507175303286  0.4372836783081411  0.2853181140266159
  0.0020701754413039  0.0003151788788571  0.3692770603910560
  0.3323264611478294  0.4372175646296057  0.3706370982450693
  0.1687575295346093  0.4372476727802521  0.3703625259285062
  0.2522698098551857  0.0010743988134436  0.4558010960330350
  0.0831095989358275  0.4364756203327929  0.4543192608901236
  0.4184733445793754  0.4360337082088250  0.4540113847099008
  0.3531870828793870  0.4313632286608069  0.5445057090331744
  0.0006563006528424  0.4991163167226418  0.1977426030369003
  0.3308492396584199  0.5593759909651936  0.2035491211090203
  0.1710870803815325  0.5592042272784994  0.2033601313531790
  0.2511473839805660  0.6240085822910828  0.2819439229075300
  0.0839974301358382  0.5621517276169996  0.2852759578973902
  0.4173262767307264  0.5622556607812186  0.2859979092418286
  0.0010263310206113  0.6251442784707706  0.3700122590652271
  0.3322875654901338  0.5624529398155573  0.3719382064523273
  0.1689376557228712  0.5624638760904546  0.3706341774018114
  0.2532605680535056  0.6232115405904821  0.4656092090295942
  0.0819196870308332  0.5617983311018406  0.4540870565806117
  0.4185109700348804  0.5612382098895452  0.4564902833169810
  0.3399828474187103  0.5702098634469763  0.5487533311780339
  0.0012423285973782  0.6242070627936727  0.1978554267892179
  0.3368130456199765  0.6873758695093883  0.2039851817224516
  0.1656628627072294  0.6873692653062307  0.2035707101777220
  0.2515041026631479  0.7497447476563011  0.2789252318908382
  0.0840608897147632  0.6867754520831184  0.2848239352307260
  0.4179717166161581  0.6867192253763506  0.2858706032650460
  0.0017879133673446  0.7505831513779810  0.3693969160091441
  0.3327004576922405  0.6873701438862767  0.3713926569744430
  0.1693354116110086  0.6874291745213341  0.3701083678636437
  0.2517129993271112  0.7509895167995850  0.4593735593050638
  0.0833395451625734  0.6890017944411468  0.4541035211836970
  0.4181129300287196  0.6891855851613258  0.4573253621109643
  0.3220871132099390  0.7019237867354704  0.5552456086506297
  0.0016199670161399  0.7478259052947678  0.1964736744615863
  0.3330631945138549  0.8107444040176190  0.2040001447615651
  0.1695883627484989  0.8108230122242901  0.2037279993970813
  0.2516430604570132  0.8750747709225877  0.2780093512514981
  0.0845121302689265  0.8123435858717585  0.2839250153664210
  0.4181021695046070  0.8122126750841687  0.2843725075744885
  0.0020411723004372  0.8753993820885384  0.3688491277088914
  0.3337180005658098  0.8126767727638082  0.3692632761762198
  0.1695120402386650  0.8127081929998852  0.3688045074166837
  0.2523311477381469  0.8770980167711286  0.4564279568153040
  0.0838703343102836  0.8148579291711897  0.4536710235521610
  0.4188848601083563  0.8143845097586393  0.4543536362566982
  0.3448325901385019  0.8200489332894634  0.5445643119865622
  0.1689879840329738  0.8120956349537138  0.5429937533370932
  0.0016527793959895  0.8749153621714996  0.1961188182036082
  0.3329281825791242  0.9389770941068605  0.2035519205185992
  0.1696038854214237  0.9389863615199516  0.2034074976625533
  0.2508644019642219  0.4995700647899284  0.2828948352282197
  0.0843896248877627  0.9378604174302652  0.2835696907828478
  0.4185235275038579  0.9378242780489288  0.2836737991956895
  0.0001302191205639  0.4999187528210669  0.3707858890845799
  0.3341958332329256  0.9378492620953125  0.3685000569637680
  0.1694249046725247  0.9379047051119329  0.3682995988743443
  0.2502366481225948  0.4994588418393562  0.4622711463225571
  0.0849097188581922  0.9385523200917731  0.4537327971306766
  0.4203706842250412  0.9385225199159777  0.4536779900040528
  0.3396248136873936  0.9417119799048805  0.5415963558502312
  0.1654159372700050  0.9386028279003824  0.5422960267118313
  0.5011162148831261  0.0021927842925322  0.1959274007658678
  0.8368468879653932  0.0627059511727879  0.2029255006255184
  0.6657449369098458  0.0626773943690822  0.2027293267699974
  0.7515492643413850  0.1263708370755765  0.2807520779930002
  0.5839966577990552  0.0633707247776698  0.2839442486520909
  0.9189230249692670  0.0634452618072245  0.2842017843082090
  0.5021525797955633  0.1252309789566226  0.3694922636896436
  0.8343120110041369  0.0626649225914946  0.3688298978919846
  0.6692800613678571  0.0626050985071984  0.3685633885801565
  0.7523179938634925  0.1232844336252299  0.4567304442349993
  0.5850277626593083  0.0615626225291805  0.4539381470143553
  0.9202829876311114  0.0616209752985029  0.4540469837058438
  0.8395512866936770  0.0582573726228617  0.5417140717456945
  0.6655495381187180  0.0611367190125804  0.5424169559574494
  0.5014672639660418  0.1260271169825771  0.1969129351260221
  0.8308797612701397  0.1914623801223030  0.2029315838745660
  0.6714951044930331  0.1912392866730031  0.2024845309523613
  0.7515878548421782  0.2504734652040170  0.2826031478875635
  0.5846533758412278  0.1880070153983340  0.2844697003953982
  0.9179354864754572  0.1881176390297981  0.2849978961588278
  0.5019006489208664  0.2496304586858855  0.3697314283404722
  0.8340529894795594  0.1877091709795806  0.3702625856948600
  0.6693498323290044  0.1876960336562021  0.3696832004296908
  0.7518328197378494  0.2492946918214471  0.4600729184300931
  0.5839142935417101  0.1853418701308698  0.4544382007238639
  0.9190111103223160  0.1859976759571040  0.4551347624733992
  0.8436509727747534  0.1796697363096627  0.5446378593939301
  0.6694406076305981  0.1877192822389375  0.5435095794552609
  0.5015510819279001  0.2513981310316282  0.1968039508540826
  0.8310736610092633  0.3105835178697021  0.2037008956714033
  0.6709745113513250  0.3106566317014696  0.2031402893877612
  0.7512061673833017  0.3751718916762243  0.2827919735636257
  0.5845530146558602  0.3130966896944685  0.2849211711210842
  0.9175874070939400  0.3131541285625801  0.2859623156854525
  0.5010783064274875  0.3748159974969383  0.3700967677769640
  0.8329769551377311  0.3128331964008240  0.3721406925676760
  0.6690868629253117  0.3127198377258935  0.3708785722249743
  0.7532395241487677  0.3771156568996332  0.4658888524958229
  0.5835286142150906  0.3113455521605530  0.4547189427765730
  0.9184683993826042  0.3112300835974153  0.4580245262018323
  0.8227991961951204  0.2981205304111754  0.5555101707344789
  0.5011464898463416  0.3753963214650682  0.1984871090707756
  0.8310309113998571  0.4398954961189716  0.2038496057882000
  0.6707509866576871  0.4400109153855922  0.2035260142380793
  0.7515457803584837  0.0003513115068046  0.2778785009788365
  0.5840099421893257  0.4373897628727121  0.2852246181821769
  0.9173582759589323  0.4372631950148147  0.2859969270970026
  0.5019762573251967  0.0002552507880083  0.3691565969371737
  0.8323888324744004  0.4376635974132839  0.3720723272762996
  0.6689169895095333  0.4376256014694988  0.3707196931698391
  0.7522346911566302  0.9991729298827394  0.4557064351323774
  0.5819536285275646  0.4386143316019755  0.4542287754143928
  0.9185613276970415  0.4392450720659156  0.4566880853720008
  0.8398769278609564  0.4301528638052972  0.5490215044579827
  0.5006001566142118  0.4994508890836471  0.1976931305797436
  0.8304357528986515  0.5591359465913968  0.2032821594881398
  0.6708841583326901  0.5592904921163679  0.2032712930479121
  0.7507242654113639  0.6241787206463343  0.2812511526958019
  0.5835794370788463  0.5623990924643749  0.2853183131743364
  0.9175835725381276  0.5622783277984382  0.2852702425037066
  0.4998806186183629  0.6254086413261319  0.3716625849163648
  0.8322969020156989  0.5628778265666980  0.3704082702052887
  0.6686642515018946  0.5628397754580732  0.3700615149849540
  0.7497097296234188  0.6273938151230141  0.4608628736975504
  0.5829990678926009  0.5639319002200409  0.4539381326606531
  0.9183033494105359  0.5644792141245105  0.4539119134699519
  0.8528152177266577  0.5690491780368845  0.5443848058653273
  0.5002283077571761  0.6243375871857069  0.1982665780830857
  0.8367151022768056  0.6874855086532321  0.2032277693550100
  0.6649831386500722  0.6874299309734582  0.2034824088142244
  0.7510825628623579  0.7498317661006979  0.2781618648986139
  0.5829478984490777  0.6868552786413744  0.2850349406278951
  0.9185544725579859  0.6868677138215915  0.2845787548962022
  0.5004806893946636  0.7501838582892120  0.3705114276139199
  0.8329122644643618  0.6878399590460305  0.3691070051177263
  0.6687868781797235  0.6878527238651841  0.3691609599730228
  0.7519544939265757  0.7515580221741232  0.4559835260580769
  0.5854040003481060  0.6893929635812412  0.4557376288508763
  0.9196158930316969  0.6895867520060364  0.4530611620957217
  0.8382273878930846  0.6901924014414504  0.5418934674184896
  0.5003339285104289  0.7477318011859495  0.1969312917904276
  0.8328829064470469  0.8108848002547475  0.2035294755364134
  0.6690843278622509  0.8108251838484506  0.2036172233205988
  0.7513221163807202  0.8751043441138577  0.2775501791391406
  0.5835460368611507  0.8123090203507388  0.2838631342797129
  0.9187696261038951  0.8123391107751203  0.2836671567178257
  0.5013706532404498  0.8753657446864906  0.3690935057200235
  0.8337426805408157  0.8129066442175557  0.3680844744439682
  0.6689615264076636  0.8128358085115650  0.3678481593706948
  0.7526105579716784  0.8754360515031863  0.4554221772633227
  0.5843451354052434  0.8140798175328499  0.4530605153707512
  0.9195776207805366  0.8137968415339785  0.4534070619770176
  0.8423232163388334  0.8132060106814407  0.5417421051726592
  0.6710895181654806  0.8061441958183551  0.5412466544571473
  0.5006170280748421  0.8748040568262141  0.1962772729528126
  0.8329563169269036  0.9390235469828738  0.2033770861436253
  0.6695469201519586  0.9389439817675438  0.2033619657321566
  0.7509781111427074  0.5000850806470112  0.2828089781187586
  0.5839698505971427  0.9378087571001501  0.2833966188178536
  0.9188242332881913  0.9378340445420434  0.2834405206635608
  0.5001064004697184  0.5000655719375118  0.3707276004899995
  0.8340981954138513  0.9377931067863088  0.3679020026895756
  0.6692868419647695  0.9377728161668131  0.3678095359108724
  0.7500867191484346  0.5008999345141874  0.4621743267266467
  0.5846801581019534  0.9376749061427603  0.4536774698742860
  0.9201104757567506  0.9375107374575435  0.4531238116177221
  0.8400855295831278  0.9360034547552587  0.5416221645864141
  0.6660379533339764  0.9340400946898555  0.5416723482191017
  0.4083196058796119  0.0009120928786004  0.2320032072337028
  0.2512074041893229  0.0024280472286478  0.1962263109767477
  0.0942934117338794  0.0009200587225280  0.2320104598685262
  0.1546651916411221  0.1253727254597621  0.3164981516991929
  0.0011484030011673  0.1257632865494571  0.3031905193743114
  0.3480579323253679  0.1254416962238949  0.3163473264477332
  0.4033448612707033  0.1248474889249422  0.4020170043395126
  0.2516258499560280  0.1250495628473161  0.3883022880535947
  0.1003789045244901  0.1247002526506975  0.4024282614903711
  0.1528451096520058  0.1257119992058193  0.4877878787216545
  0.0024378481499525  0.1235614422404510  0.4755845614274463
  0.3532820555870515  0.1242983635138444  0.4873918785923266
  0.4113535750959798  0.1237171917488880  0.5668834329702435
  0.2544344401732062  0.1257115928926069  0.5566385329124799
  0.0994627207737651  0.1278465897790753  0.5684264966989829
  0.4069872851986389  0.1265641017342318  0.2321965356648548
  0.2510398105311538  0.1260607761884742  0.2104653088434532
  0.0952963017482134  0.1265909253000999  0.2324776252769212
  0.1539776518782645  0.2503870561255539  0.3173440185879812
  0.0007833271491862  0.2505399342804679  0.3038884763724923
  0.3481927830207923  0.2503085052051546  0.3170788036080410
  0.4030446653669628  0.2491035233348740  0.4023562141810473
  0.2513104148081879  0.2498533304386328  0.3889399338448172
  0.0999807934841144  0.2493658041939426  0.4030492946373698
  0.1525633808488394  0.2452903872102539  0.4863171846584038
  0.0019337892101916  0.2487505509534955  0.4755573958390542
  0.3524547338105535  0.2489572022820141  0.4878259141636079
  0.4107659811997806  0.2486742995079112  0.5671042418844010
  0.2597362382189914  0.2459286564139944  0.5586201462095275
  0.0910796182431710  0.2574756328618406  0.5644825914322027
  0.4067066078892552  0.2508193492401745  0.2326244948461351
  0.2507471351841843  0.2510589831951009  0.1792091128596311
  0.0949887504998372  0.2508146101463069  0.2331748723608129
  0.1543872325337716  0.3749530747425354  0.3179493651760481
  0.0005078129171423  0.3751434162371936  0.3047857312420206
  0.3472293363473682  0.3749841138401280  0.3177316817322833
  0.4022228380142892  0.3739716494543259  0.4023850925274033
  0.2505223788789408  0.3747981411553809  0.3918226278052046
  0.1003798414535311  0.3735528638654912  0.4033383808034614
  0.1480611920614905  0.3745124549878653  0.4902081741466304
  0.0010789793873940  0.3743372128329057  0.4712279889071880
  0.3549964267541057  0.3709263230029833  0.4865813170656423
  0.4169143992904694  0.3705202692394849  0.5655788378132272
  0.2674573003330778  0.3813802010534815  0.5511366376824753
  0.0560029499057606  0.3816050345611970  0.5572901125373164
  0.4058853949399150  0.3753135718068918  0.2329419970322562
  0.2506980157609675  0.3751942029613176  0.2117259674023657
  0.0954826173759500  0.3751707097811661  0.2333743239262205
  0.1562258719208103  0.0002619191205895  0.3157345308787001
  0.0014909263508756  0.0003677196819680  0.3025691963683812
  0.3468539797021890  0.0002498873020613  0.3157296082023322
  0.4034871045930899  0.0003928216820128  0.4018000606261012
  0.2518470119673992  0.0003053960380726  0.3877222043081829
  0.1007192242008230  0.0004101541586436  0.4020677876835137
  0.1527436411725489  0.0009064287276885  0.4875775172504717
  0.0025888665053557  0.9998894972484891  0.4748086283033714
  0.3526175687673785  0.0016488412520772  0.4868970332653717
  0.4103694108440408  0.0022111869707757  0.5655045847225608
  0.2530947504868308  0.0032404725864410  0.5564753855752258
  0.0982728194589413  0.0023354741139912  0.5664208795805479
  0.4061451540568441  0.4997843211725694  0.2338986418977100
  0.2508493335882633  0.4996437798146047  0.1800688823368475
  0.0951784362649306  0.4995233174181664  0.2337117594435654
  0.1550971493012767  0.6246349050687456  0.3178001370081276
  0.0010350395171557  0.6245370153157950  0.3034449400917296
  0.3466838932826448  0.6246407187244856  0.3188763959872531
  0.4007843056532181  0.6254397326357193  0.4048420580189713
  0.2505482039170275  0.6245619491947210  0.3935176657104691
  0.0993383312740974  0.6254553955464388  0.4020180073596933
  0.1453305935247613  0.6242822848804508  0.4835581713173696
  0.0008694214570255  0.6263177806596261  0.4732517226243118
  0.3658567179976302  0.6254406568642921  0.4958753456808154
  0.3253228307558089  0.6317509839818527  0.5887624285508650
  0.2440103958456206  0.6872899602065772  0.5099515914058372
  0.0929578047281510  0.6259098792535696  0.5601827860340265
  0.4062120959516591  0.6237167710933633  0.2341762689788283
  0.2509969020952738  0.6241642749670149  0.2114518142604211
  0.0954979112716003  0.6236113207150993  0.2333181409443768
  0.1564300286643174  0.7498641979865965  0.3165769129268199
  0.0014904275015013  0.7498026567705196  0.3027955461287419
  0.3460577943213323  0.7497014685773422  0.3173741787764257
  0.4018995707759103  0.7506263460237079  0.4036293586581934
  0.2511716297428208  0.7504205577932126  0.3903164053846169
  0.1001553834737337  0.7511525719596861  0.4021829467392948
  0.1491022920925005  0.7555879428574812  0.4871814562120704
  0.0011487786523077  0.7527485627586898  0.4745435508497735
  0.3531025779281407  0.7557873021909245  0.4896106554690220
  0.4116725133668524  0.7541936496922332  0.5666375910681936
  0.2594499172021187  0.7702733134140942  0.5707384300617022
  0.0890871553476416  0.7495584772947979  0.5614283016067674
  0.4078585403396673  0.7489174088181656  0.2333869567611231
  0.2512380725344912  0.7474316240888470  0.1969346348798311
  0.0943814539598122  0.7491132584823674  0.2326520685072424
  0.1567189477218704  0.8751323648482199  0.3157902714016174
  0.0016534793391898  0.8751254575173135  0.3020686558675294
  0.3463532223530876  0.8751230703687369  0.3160725458301954
  0.4030787448181883  0.8758860834531035  0.4021403067600318
  0.2517071443031895  0.8755801911634151  0.3884179831418280
  0.1005845171293061  0.8759829424933443  0.4017337901748448
  0.1524329187070421  0.8761471312389020  0.4873023500281164
  0.0022045250780494  0.8761775657082893  0.4745294331801659
  0.3529491640266542  0.8780457672768023  0.4877033745737691
  0.4109550298685249  0.8816293654809471  0.5674243682517286
  0.2532500735162344  0.8820090941831467  0.5556554551385275
  0.0995043954129287  0.8736367146448174  0.5657902274156399
  0.4076148140336358  0.8748590247640067  0.2323169424717122
  0.2513068684556927  0.8748600281931900  0.1977390490996100
  0.0948690081507380  0.8749637756364450  0.2320054811265777
  0.1541984522317037  0.4997953125591081  0.3181238514135103
  0.0006307027753323  0.4997330143861944  0.3038180852309722
  0.3471741982904177  0.4999355304546924  0.3186425179523340
  0.4012327280250716  0.4995219623168836  0.4033548313292314
  0.2501705110989647  0.4994828068793495  0.3922964225247370
  0.0992766065390285  0.4995710005629945  0.4025022759301251
  0.1460360267201324  0.4970375131617786  0.4868321725811811
  0.9990683831797753  0.5004839917305333  0.4749608112815267
  0.3541921055704904  0.4944701304065475  0.4884299995920642
  0.3936141349116014  0.5031904547557744  0.5739594346903445
  0.2445018125047369  0.5589270416948793  0.5166111311293378
  0.0778612585520833  0.5053275502834040  0.5573588679932016
  0.9083541547406497  0.0009803650558737  0.2320007489942242
  0.7512253703351490  0.0024502281428127  0.1962833161050170
  0.5941563514465642  0.0009030845961249  0.2318354401506184
  0.6552164828653204  0.1255106153374825  0.3167152437938441
  0.5016653778822189  0.1257531076383387  0.3027725771794252
  0.8477842093119961  0.1255365946077447  0.3170400078498261
  0.9031866205806551  0.1244017965774873  0.4027997586196079
  0.7516780843548858  0.1246591258490213  0.3889259039018924
  0.6006863514327279  0.1243892861608487  0.4023248857249513
  0.6525092527399892  0.1238313712447692  0.4877250462679044
  0.5024109191740891  0.1238203379551024  0.4750336165289255
  0.8527735444488016  0.1220955708503482  0.4880635397557285
  0.9102508087048449  0.1184622127655715  0.5683200938510282
  0.7532556271194721  0.1180494843447661  0.5561625394687937
  0.6000913743609502  0.1262002217755764  0.5664263219902423
  0.9067069627835735  0.1266894497747870  0.2327359830680109
  0.7512470715952659  0.1261021266628717  0.2104588240142391
  0.5956823459227039  0.1265642617937246  0.2323801977547575
  0.6546604350238852  0.2505265301337971  0.3177414909452949
  0.5014683018727837  0.2505095077875978  0.3028013387825439
  0.8478557063739700  0.2507133870864777  0.3186404997786241
  0.9022985640091861  0.2496852731649071  0.4044343430640538
  0.7512449255529745  0.2499650323224216  0.3912221439796184
  0.5999461140189624  0.2491372292583733  0.4029909834642780
  0.6492368851110442  0.2446429192392188  0.4880281775355471
  0.5014726354763184  0.2476177017228025  0.4752855060954957
  0.8533121650157582  0.2446000195801759  0.4905910272628944
  0.9119343349293700  0.2450247096276357  0.5678947055081025
  0.7593910501281513  0.2302236188293989  0.5710322258393887
  0.5897695278738766  0.2505822235935398  0.5624431622079413
  0.9062769720391515  0.2509785908997344  0.2338260278740307
  0.7510974562784796  0.2511705564011422  0.1792024502911929
  0.5959212113179717  0.2507862621818830  0.2330101484608633
  0.6549091901966051  0.3752487154425452  0.3181424874518299
  0.5010717636070723  0.3751170560345329  0.3034120225750598
  0.8469609794753481  0.3752304129056299  0.3192678658648376
  0.9010931084121623  0.3748842652616631  0.4052335423038897
  0.7505957803262575  0.3757411161810538  0.3938171135427666
  0.5992283788952477  0.3748077521635267  0.4023950083352119
  0.6454075019348906  0.3763668203712953  0.4839748891828819
  0.5010234162389793  0.3742694353545133  0.4735424305939446
  0.8657818343761292  0.3754214045025179  0.4959657537572539
  0.8263037312949209  0.3683532862295493  0.5889878719688681
  0.7443079141497151  0.3132857227066026  0.5105511402716942
  0.5932310143098931  0.3745564094898697  0.5604757731752414
  0.9054781436694768  0.3752247343778947  0.2339947273818055
  0.7508926172808970  0.3753083493517906  0.2122332637044479
  0.5960790730865142  0.3753331248698046  0.2331330295510909
  0.6561639141560747  0.0002326068181091  0.3155392121863727
  0.5015094511313691  0.0003776243644751  0.3024569910137274
  0.8468804264695038  0.0002690645676537  0.3156709736549672
  0.9034203638711418  0.9999150543027824  0.4017810708225440
  0.7517500961261376  0.9999315079699045  0.3876115538821310
  0.6006607708903360  0.9998426382926340  0.4018802271353223
  0.6526368428052223  0.9991636628248131  0.4873026419208415
  0.5026472294356381  0.0000050835737255  0.4748746189480855
  0.8525897395648983  0.9985283188348717  0.4868829145633100
  0.9104696447205569  0.9975411826308189  0.5655567630356870
  0.7533239611987099  0.9971210853442329  0.5564707868494523
  0.5985389222574398  0.9972378157571242  0.5662564914057882
  0.9061692243184609  0.4995216804400044  0.2339035215029526
  0.7507919642663836  0.4994528666003148  0.1797895840634069
  0.5952004216977684  0.4998007912177371  0.2335975588068635
  0.6546120912409705  0.6249167577455168  0.3173981732561799
  0.5005835232398255  0.6244927564178369  0.3047293015982149
  0.8469580970858246  0.6249192435568602  0.3172717263854281
  0.9019431309969903  0.6263018692665128  0.4020070757686867
  0.7503859161149862  0.6255566482953014  0.3912045097976176
  0.6004147703001621  0.6267462123052212  0.4027306856233608
  0.6479889571817807  0.6259362002066595  0.4895951861071595
  0.5009074192289447  0.6262028235277910  0.4706754781519891
  0.8542828054281770  0.6296096601490788  0.4861213238620223
  0.9162671449271897  0.6303372499461659  0.5649358285630299
  0.7669663395438846  0.6185085392172525  0.5513673817959344
  0.5557033516820766  0.6188641728568527  0.5564979194664161
  0.9065992921497639  0.6236500230443056  0.2330378163073732
  0.7508497073667186  0.6243215726707234  0.2106873980961694
  0.5949036443920477  0.6238181196632837  0.2333685324584138
  0.6557157085236227  0.7499875327203895  0.3159682307922012
  0.5007828934328273  0.7497451333308263  0.3037228164025976
  0.8465470951214584  0.7501009087664769  0.3158566865269208
  0.9026332725587594  0.7512198396860938  0.4016353245619939
  0.7511726869750674  0.7505559546543736  0.3879839579524784
  0.6001420999033442  0.7509184710324419  0.4020123635324424
  0.6521689446069772  0.7550688291546734  0.4854395495061539
  0.5017918293145271  0.7517530748313561  0.4748532897611142
  0.8518958386760005  0.7511863068061189  0.4870017014035142
  0.9093584813421884  0.7516555936028624  0.5659515803158399
  0.7581931493628815  0.7547022820614657  0.5575592305500336
  0.5897562775443461  0.7428576011991268  0.5615520084997883
  0.9083789193286265  0.7491270614010546  0.2322393952736377
  0.7509011490938065  0.7474856559921221  0.1967807183234100
  0.5935826038781613  0.7490687546437229  0.2326212281634596
  0.6561255472480170  0.8752275741456828  0.3152394853498706
  0.5011530526107606  0.8750983591381569  0.3022956259944465
  0.8466574353078116  0.8752150576258089  0.3153136156503180
  0.9031791545698766  0.8755041933784540  0.4013751404731849
  0.7515019338501077  0.8753269513126014  0.3873720055706755
  0.6002260601467597  0.8756690204903279  0.4014133180075845
  0.6528103725787417  0.8744334670340095  0.4863749090027554
  0.5023170247396394  0.8764037988053772  0.4750145416007356
  0.8528146472260332  0.8758418494277436  0.4868494200687437
  0.9101544319314456  0.8757767656108868  0.5665288029999473
  0.7532017674108644  0.8747954166896861  0.5558857708082030
  0.6000124562091358  0.8693420774640614  0.5648401780597823
  0.9080844878083454  0.8749655442892745  0.2317132287439492
  0.7511094491746988  0.8748524201519317  0.1973465945854826
  0.5942176733897924  0.8748978786011108  0.2317806389481518
  0.6542464983559526  0.4999365684403188  0.3180203276780418
  0.5006919751437593  0.4998950775621722  0.3037646878907907
  0.8471961780255555  0.4998476803955114  0.3186170549081595
  0.9012469818641264  0.5007544115124674  0.4033431710284461
  0.7501672128970398  0.5006906755131055  0.3922146519008152
  0.5992261224110536  0.5005712256640535  0.4024016847188534
  0.6459672472066629  0.5035620188962042  0.4867359521281287
  0.4991470452258326  0.5001630820696263  0.4749553211237512
  0.8539159111018293  0.5061170639746351  0.4882541172123140
  0.8927600358969912  0.4974273261930264  0.5741093407918996
  0.7443923428990544  0.4416046177904676  0.5169004930834831
  0.5786017435114275  0.4955936082777654  0.5574138010894103
  0.0025005604890822  0.1135287911689602  0.5421799465470940
  0.9976154016184680  0.2614974211627086  0.5411778996959669
  0.9713182365979307  0.3759995183872320  0.5309996163071062
  0.1144534079421362  0.3252584932537488  0.5409908356282855
  0.0038980782107672  0.0064918353321346  0.5427477775554337
  0.1102479633212496  0.4391622486379916  0.5359161485753177
  0.0049575154419728  0.6214724264364122  0.5374800883143536
  0.1280556682112177  0.5634561201710966  0.5334601807832229
  0.9998874938963596  0.7576201070761002  0.5394603345175355
  0.1284941277187528  0.6888651704799429  0.5336892141328491
  0.0032276554241975  0.8694389600900365  0.5432401148903523
  0.9857356203693328  0.4914915682516252  0.5426789267710177
  0.5044088437042049  0.1300358447015029  0.5436338829012115
  0.5009599722258997  0.2441452471014500  0.5400171791475685
  0.5055145810099759  0.3779834385063623  0.5375653126151150
  0.6283940178664622  0.3111087573669806  0.5342825418223285
  0.5039425164893458  0.9937646443585280  0.5428490770830408
  0.6283044962646542  0.4371065352919459  0.5336171975941753
  0.4706393296827116  0.6250488975263480  0.5306047286542679
  0.6107856001122371  0.5617446384979843  0.5354711143594244
  0.4989318445271209  0.7409662848166718  0.5407640439144288
  0.6135387202336915  0.6758491454224256  0.5395950248560197
  0.5054564495196132  0.8833717311453952  0.5434109997422141
  0.4865207117804502  0.5097497293379547  0.5427262244590025
  0.0517252715638747  0.1914853829871319  0.5936774162588137
 
  0.00000000E+00  0.00000000E+00  0.00000000E+00
  0.00000000E+00  0.00000000E+00  0.00000000E+00
  0.00000000E+00  0.00000000E+00  0.00000000E+00
  0.00000000E+00  0.00000000E+00  0.00000000E+00
  0.00000000E+00  0.00000000E+00  0.00000000E+00
  0.00000000E+00  0.00000000E+00  0.00000000E+00