Co  N  H  C                             
   1.00000000000000     
     9.9566001891999996    0.0000000000000000    0.0000000000000000
    -4.9783000945999998    8.6226686992000001    0.0000000000000000
     0.0000000000000000    0.0000000000000000   23.0708007813000009
   Co   N    H    C 
    81     9    19    10
Selective dynamics
Direct
  0.0833299960000033  0.1666699900000026  0.0874599979999999   F   F   F
  0.0847875289169152  0.1674253342174273  0.2583615171082083   T   T   T
  0.1666699880000024  0.0833299900000029  0.0000000000000000   F   F   F
  0.1666699880000024  0.0833299900000029  0.1749099930000000   F   F   F
  0.1568984640837121  0.0759071998884378  0.3431834320473668   T   T   T
  0.3333300139999977  0.1666699900000026  0.0874599979999999   F   F   F
  0.3357645170564997  0.1689558849247180  0.2604693968394167   T   T   T
  0.4166699760000014  0.0833299900000029  0.0000000000000000   F   F   F
  0.4166699760000014  0.0833299900000029  0.1749099930000000   F   F   F
  0.4134729350682366  0.0752404489943307  0.3496118540658227   T   T   T
  0.5833299660000009  0.1666699900000026  0.0874599979999999   F   F   F
  0.5857336829628191  0.1683626848706501  0.2613742400504856   T   T   T
  0.6666700239999983  0.0833299900000029  0.0000000000000000   F   F   F
  0.6666700239999983  0.0833299900000029  0.1749099930000000   F   F   F
  0.6704701384793138  0.0746999751596378  0.3498834314434056   T   T   T
  0.8333299660000009  0.1666699900000026  0.0874599979999999   F   F   F
  0.8335009064536324  0.1663131296950716  0.2590352346011099   T   T   T
  0.9166700239999983  0.0833299900000029  0.0000000000000000   F   F   F
  0.9166700239999983  0.0833299900000029  0.1749099930000000   F   F   F
  0.9234364971545858  0.0762417610131681  0.3426025938581559   T   T   T
  0.0833300010000002  0.4166699640000004  0.0874599979999999   F   F   F
  0.0827700329478073  0.4163026877574073  0.2598967038117586   T   T   T
  0.1666699920000028  0.3333299990000000  0.0000000000000000   F   F   F
  0.1666699920000028  0.3333299990000000  0.1749099930000000   F   F   F
  0.1619098729649475  0.3303974481361078  0.3440022950219555   T   T   T
  0.3333300010000002  0.4166699640000004  0.0874599979999999   F   F   F
  0.3357894884413801  0.4179458954513284  0.2624739875102458   T   T   T
  0.4166699800000018  0.3333299990000000  0.0000000000000000   F   F   F
  0.4166699800000018  0.3333299990000000  0.1749099930000000   F   F   F
  0.4085593898508852  0.3281909658107388  0.3598978529084376   T   T   T
  0.5833299769999982  0.4166699640000004  0.0874599979999999   F   F   F
  0.5834486243916776  0.4160609532906224  0.2648840166577734   T   T   T
  0.6666700279999986  0.3333299990000000  0.0000000000000000   F   F   F
  0.6666700279999986  0.3333299990000000  0.1749099930000000   F   F   F
  0.6700003916594681  0.3292699446655193  0.3606040411149877   T   T   T
  0.8333299530000033  0.4166699640000004  0.0874599979999999   F   F   F
  0.8314789442591958  0.4140906893329818  0.2613909964054582   T   T   T
  0.9166700279999986  0.3333299990000000  0.0000000000000000   F   F   F
  0.9166700279999986  0.3333299990000000  0.1749099930000000   F   F   F
  0.9249325870795810  0.3293478144607149  0.3498401077379429   T   T   T
  0.0833299990000000  0.6666700070000005  0.0874599979999999   F   F   F
  0.0818492673082320  0.6658593859151345  0.2601067913321730   T   T   T
  0.1666699840000021  0.5833299580000002  0.0000000000000000   F   F   F
  0.1666699840000021  0.5833299580000002  0.1749099930000000   F   F   F
  0.1587747999286271  0.5830430572212009  0.3447681467802418   T   T   T
  0.3333299990000000  0.6666700070000005  0.0874599979999999   F   F   F
  0.3341194368097339  0.6656877586850377  0.2614511253416127   T   T   T
  0.4166699600000001  0.5833299580000002  0.0000000000000000   F   F   F
  0.4166699600000001  0.5833299580000002  0.1749099930000000   F   F   F
  0.4091655819637299  0.5902289141541315  0.3616660681977472   T   T   T
  0.5833299749999981  0.6666700070000005  0.0874599979999999   F   F   F
  0.5816425359220779  0.6635693559764010  0.2625770579654871   T   T   T
  0.6666700079999970  0.5833299580000002  0.0000000000000000   F   F   F
  0.6666700079999970  0.5833299580000002  0.1749099930000000   F   F   F
  0.6713819226622980  0.5908358032615898  0.3601444256047591   T   T   T
  0.8333299749999981  0.6666700070000005  0.0874599979999999   F   F   F
  0.8306982463415290  0.6637789733091501  0.2604921659367920   T   T   T
  0.9166700079999970  0.5833299580000002  0.0000000000000000   F   F   F
  0.9166700079999970  0.5833299580000002  0.1749099930000000   F   F   F
  0.9242812584906168  0.5860381889075612  0.3497041239502902   T   T   T
  0.0833299780000019  0.9166699660000006  0.0874599979999999   F   F   F
  0.0840821749700091  0.9157057280423444  0.2583909833831893   T   T   T
  0.1666699640000004  0.8333299179999969  0.0000000000000000   F   F   F
  0.1666699640000004  0.8333299179999969  0.1749099930000000   F   F   F
  0.1658329827342743  0.8337100489142879  0.3422876749204299   T   T   T
  0.3333299780000019  0.9166699660000006  0.0874599979999999   F   F   F
  0.3338334939109525  0.9177875534692639  0.2600673946040882   T   T   T
  0.4166699399999985  0.8333299179999969  0.0000000000000000   F   F   F
  0.4166699399999985  0.8333299179999969  0.1749099930000000   F   F   F
  0.4167216387754115  0.8407900712298486  0.3447381144908552   T   T   T
  0.5833299549999964  0.9166699660000006  0.0874599979999999   F   F   F
  0.5836450855911449  0.9170332169464585  0.2599403079517046   T   T   T
  0.6666699880000024  0.8333299179999969  0.0000000000000000   F   F   F
  0.6666699880000024  0.8333299179999969  0.1749099930000000   F   F   F
  0.6694042602029234  0.8375038069109988  0.3441355133147489   T   T   T
  0.8333299549999964  0.9166699660000006  0.0874599979999999   F   F   F
  0.8322730755144635  0.9149282890225704  0.2583923973397446   T   T   T
  0.9166699880000024  0.8333299179999969  0.0000000000000000   F   F   F
  0.9166699880000024  0.8333299179999969  0.1749099930000000   F   F   F
  0.9233845176969614  0.8421902614393354  0.3431775174917613   T   T   T
  0.5926142091331664  0.4203149668440729  0.6146714784674675   T   T   T
  0.8607166756740884  0.4249919333749027  0.3993455321328395   T   T   T
  0.5828688590003591  0.4160682458956905  0.4041186722400309   T   T   T
  0.3048590431031528  0.4065735225154019  0.4012145700677452   T   T   T
  0.8651276029855675  0.6935764334168210  0.3974132799933700   T   T   T
  0.3060227226122064  0.1344030417019353  0.3972304088305924   T   T   T
  0.5926491038880713  0.6944170042137844  0.4013127232897656   T   T   T
  0.5741683799409798  0.1384598842781865  0.3993063112347358   T   T   T
  0.3122506607329133  0.6874861462098583  0.3979506243552431   T   T   T
  0.8479974463244119  0.1517400309421445  0.3957828193738290   T   T   T
  0.8667605253553489  0.4294333542393603  0.4438843552381745   T   T   T
  0.5810666483302676  0.4166823535187245  0.4484777795172737   T   T   T
  0.2879597161204346  0.3948984156534839  0.4453291825608044   T   T   T
  0.8739768475219026  0.7006213983321800  0.4418529267167858   T   T   T
  0.6035707275975600  0.7111596680268227  0.4454242896387803   T   T   T
  0.3046531838522663  0.6955257011731693  0.4420054721480047   T   T   T
  0.8488052740281229  0.1511836748303819  0.4403445174548982   T   T   T
  0.5693358293555383  0.1321073181233107  0.4438372394001312   T   T   T
  0.2990756379480169  0.1257116642415433  0.4416858158837635   T   T   T
  0.3670816668777541  0.1838068131537288  0.6877468468572903   T   T   T
  0.3873162212622380  0.4653717271365757  0.6883978328966724   T   T   T
  0.6917870091087094  0.6844887456898947  0.6879676035444374   T   T   T
  0.8595101391075016  0.5383756722150116  0.6880444688266775   T   T   T
  0.6588091063080131  0.2288847202780131  0.6878209638760470   T   T   T
  0.3658766080430967  0.1831424873697235  0.5431924000492864   T   T   T
  0.3863340495595171  0.4653167870774831  0.5424111348028644   T   T   T
  0.6910922974217754  0.6844828104050730  0.5421563602721970   T   T   T
  0.8590294116155859  0.5384349470319625  0.5417263437919838   T   T   T
  0.6581490677792382  0.2284758694848560  0.5423983742928291   T   T   T
  0.6279075410597110  0.3192729667160750  0.6883811799489210   T   T   T
  0.4735633101462137  0.2954553280156513  0.6882990467281184   T   T   T
  0.4841970095792436  0.4439941754497035  0.6887095415727864   T   T   T
  0.6450269386661679  0.5596763724366930  0.6883863864753546   T   T   T
  0.7337612501816937  0.4824862936298368  0.6884657824087455   T   T   T
  0.6270325222841328  0.3186896775148019  0.5416117265793421   T   T   T
  0.4723862989411866  0.2947620274842949  0.5420497786586689   T   T   T
  0.4830955931362954  0.4437878579005605  0.5415879151204378   T   T   T
  0.6441794872550585  0.5596492727231236  0.5415562530035570   T   T   T
  0.7331769910180337  0.4823279707448377  0.5411724909572442   T   T   T
 
  0.00000000E+00  0.00000000E+00  0.00000000E+00
  0.00000000E+00  0.00000000E+00  0.00000000E+00
  0.00000000E+00  0.00000000E+00  0.00000000E+00
  0.00000000E+00  0.00000000E+00  0.00000000E+00
  0.00000000E+00  0.00000000E+00  0.00000000E+00
  0.00000000E+00  0.00000000E+00  0.00000000E+00
  0.00000000E+00  0.00000000E+00  0.00000000E+00
  0.00000000E+00  0.00000000E+00  0.00000000E+00
  0.00000000E+00  0.00000000E+00  0.00000000E+00
  0.00000000E+00  0.00000000E+00  0.00000000E+00
  0.00000000E+00  0.00000000E+00  0.00000000E+00
  0.00000000E+00  0.00000000E+00  0.00000000E+00
  0.00000000E+00  0.00000000E+00  0.00000000E+00
  0.00000000E+00  0.00000000E+00  0.00000000E+00
  0.00000000E+00  0.00000000E+00  0.00000000E+00
  0.00000000E+00  0.00000000E+00  0.00000000E+00
  0.00000000E+00  0.00000000E+00  0.00000000E+00
  0.00000000E+00  0.00000000E+00  0.00000000E+00
  0.00000000E+00  0.00000000E+00  0.00000000E+00
  0.00000000E+00  0.00000000E+00  0.00000000E+00
  0.00000000E+00  0.00000000E+00  0.00000000E+00
  0.00000000E+00  0.00000000E+00  0.00000000E+00
  0.00000000E+00  0.00000000E+00  0.00000000E+00
  0.00000000E+00  0.00000000E+00  0.00000000E+00
  0.00000000E+00  0.00000000E+00  0.00000000E+00
  0.00000000E+00  0.00000000E+00  0.00000000E+00
  0.00000000E+00  0.00000000E+00  0.00000000E+00
  0.00000000E+00  0.00000000E+00  0.00000000E+00
  0.00000000E+00  0.00000000E+00  0.00000000E+00
  0.00000000E+00  0.00000000E+00  0.00000000E+00
  0.00000000E+00  0.00000000E+00  0.00000000E+00
  0.00000000E+00  0.00000000E+00  0.00000000E+00
  0.00000000E+00  0.00000000E+00  0.00000000E+00
  0.00000000E+00  0.00000000E+00  0.00000000E+00
  0.00000000E+00  0.00000000E+00  0.00000000E+00
  0.00000000E+00  0.00000000E+00  0.00000000E+00
  0.00000000E+00  0.00000000E+00  0.00000000E+00
  0.00000000E+00  0.00000000E+00  0.00000000E+00
  0.00000000E+00  0.00000000E+00  0.00000000E+00
  0.00000000E+00  0.00000000E+00  0.00000000E+00
  0.00000000E+00  0.00000000E+00  0.00000000E+00
  0.00000000E+00  0.00000000E+00  0.00000000E+00
  0.00000000E+00  0.00000000E+00  0.00000000E+00
  0.00000000E+00  0.00000000E+00  0.00000000E+00
  0.00000000E+00  0.00000000E+00  0.00000000E+00
  0.00000000E+00  0.00000000E+00  0.00000000E+00
  0.00000000E+00  0.00000000E+00  0.00000000E+00
  0.00000000E+00  0.00000000E+00  0.00000000E+00
  0.00000000E+00  0.00000000E+00  0.00000000E+00
  0.00000000E+00  0.00000000E+00  0.00000000E+00
  0.00000000E+00  0.00000000E+00  0.00000000E+00
  0.00000000E+00  0.00000000E+00  0.00000000E+00
  0.00000000E+00  0.00000000E+00  0.00000000E+00
  0.00000000E+00  0.00000000E+00  0.00000000E+00
  0.00000000E+00  0.00000000E+00  0.00000000E+00
  0.00000000E+00  0.00000000E+00  0.00000000E+00
  0.00000000E+00  0.00000000E+00  0.00000000E+00
  0.00000000E+00  0.00000000E+00  0.00000000E+00
  0.00000000E+00  0.00000000E+00  0.00000000E+00
  0.00000000E+00  0.00000000E+00  0.00000000E+00
  0.00000000E+00  0.00000000E+00  0.00000000E+00
  0.00000000E+00  0.00000000E+00  0.00000000E+00
  0.00000000E+00  0.00000000E+00  0.00000000E+00
  0.00000000E+00  0.00000000E+00  0.00000000E+00
  0.00000000E+00  0.00000000E+00  0.00000000E+00
  0.00000000E+00  0.00000000E+00  0.00000000E+00
  0.00000000E+00  0.00000000E+00  0.00000000E+00
  0.00000000E+00  0.00000000E+00  0.00000000E+00
  0.00000000E+00  0.00000000E+00  0.00000000E+00
  0.00000000E+00  0.00000000E+00  0.00000000E+00
  0.00000000E+00  0.00000000E+00  0.00000000E+00
  0.00000000E+00  0.00000000E+00  0.00000000E+00
  0.00000000E+00  0.00000000E+00  0.00000000E+00
  0.00000000E+00  0.00000000E+00  0.00000000E+00
  0.00000000E+00  0.00000000E+00  0.00000000E+00
  0.00000000E+00  0.00000000E+00  0.00000000E+00
  0.00000000E+00  0.00000000E+00  0.00000000E+00
  0.00000000E+00  0.00000000E+00  0.00000000E+00
  0.00000000E+00  0.00000000E+00  0.00000000E+00
  0.00000000E+00  0.00000000E+00  0.00000000E+00
  0.00000000E+00  0.00000000E+00  0.00000000E+00
  0.00000000E+00  0.00000000E+00  0.00000000E+00
  0.00000000E+00  0.00000000E+00  0.00000000E+00
  0.00000000E+00  0.00000000E+00  0.00000000E+00
  0.00000000E+00  0.00000000E+00  0.00000000E+00
  0.00000000E+00  0.00000000E+00  0.00000000E+00
  0.00000000E+00  0.00000000E+00  0.00000000E+00
  0.00000000E+00  0.00000000E+00  0.00000000E+00
  0.00000000E+00  0.00000000E+00  0.00000000E+00
  0.00000000E+00  0.00000000E+00  0.00000000E+00
  0.00000000E+00  0.00000000E+00  0.00000000E+00
  0.00000000E+00  0.00000000E+00  0.00000000E+00
  0.00000000E+00  0.00000000E+00  0.00000000E+00
  0.00000000E+00  0.00000000E+00  0.00000000E+00
  0.00000000E+00  0.00000000E+00  0.00000000E+00
  0.00000000E+00  0.00000000E+00  0.00000000E+00
  0.00000000E+00  0.00000000E+00  0.00000000E+00
  0.00000000E+00  0.00000000E+00  0.00000000E+00
  0.00000000E+00  0.00000000E+00  0.00000000E+00
  0.00000000E+00  0.00000000E+00  0.00000000E+00
  0.00000000E+00  0.00000000E+00  0.00000000E+00
  0.00000000E+00  0.00000000E+00  0.00000000E+00
  0.00000000E+00  0.00000000E+00  0.00000000E+00
  0.00000000E+00  0.00000000E+00  0.00000000E+00
  0.00000000E+00  0.00000000E+00  0.00000000E+00
  0.00000000E+00  0.00000000E+00  0.00000000E+00
  0.00000000E+00  0.00000000E+00  0.00000000E+00
  0.00000000E+00  0.00000000E+00  0.00000000E+00
  0.00000000E+00  0.00000000E+00  0.00000000E+00
  0.00000000E+00  0.00000000E+00  0.00000000E+00
  0.00000000E+00  0.00000000E+00  0.00000000E+00
  0.00000000E+00  0.00000000E+00  0.00000000E+00
  0.00000000E+00  0.00000000E+00  0.00000000E+00
  0.00000000E+00  0.00000000E+00  0.00000000E+00
  0.00000000E+00  0.00000000E+00  0.00000000E+00
  0.00000000E+00  0.00000000E+00  0.00000000E+00
  0.00000000E+00  0.00000000E+00  0.00000000E+00
  0.00000000E+00  0.00000000E+00  0.00000000E+00
  0.00000000E+00  0.00000000E+00  0.00000000E+00
