Co  N  H  C                             
   1.00000000000000     
     9.9566001891999996    0.0000000000000000    0.0000000000000000
    -4.9783000945999998    8.6226686992000001    0.0000000000000000
     0.0000000000000000    0.0000000000000000   23.0708007813000009
   Co   N    H    C 
    82     9    29    20
Selective dynamics
Direct
  0.0833299960000033  0.1666699900000026  0.0874599979999999   F   F   F
  0.0849953388152328  0.1678532864080779  0.2584807874408094   T   T   T
  0.1666699880000024  0.0833299900000029  0.0000000000000000   F   F   F
  0.1666699880000024  0.0833299900000029  0.1749099930000000   F   F   F
  0.1580656858864268  0.0769704939256937  0.3434557437047893   T   T   T
  0.3333300139999977  0.1666699900000026  0.0874599979999999   F   F   F
  0.3363929513183665  0.1699212833540970  0.2610009243697451   T   T   T
  0.4166699760000014  0.0833299900000029  0.0000000000000000   F   F   F
  0.4166699760000014  0.0833299900000029  0.1749099930000000   F   F   F
  0.4139479804499555  0.0764791324487076  0.3503010993777007   T   T   T
  0.5833299660000009  0.1666699900000026  0.0874599979999999   F   F   F
  0.5859861415318016  0.1688178411869556  0.2617184147935558   T   T   T
  0.6666700239999983  0.0833299900000029  0.0000000000000000   F   F   F
  0.6666700239999983  0.0833299900000029  0.1749099930000000   F   F   F
  0.6704739032934806  0.0757725343723641  0.3502960479784121   T   T   T
  0.8333299660000009  0.1666699900000026  0.0874599979999999   F   F   F
  0.8336326488060936  0.1665521911394617  0.2592598116896151   T   T   T
  0.9166700239999983  0.0833299900000029  0.0000000000000000   F   F   F
  0.9166700239999983  0.0833299900000029  0.1749099930000000   F   F   F
  0.9236727527043921  0.0772434086035504  0.3432057104392090   T   T   T
  0.0833300010000002  0.4166699640000004  0.0874599979999999   F   F   F
  0.0827102834605058  0.4162219528182090  0.2598912718702778   T   T   T
  0.1666699920000028  0.3333299990000000  0.0000000000000000   F   F   F
  0.1666699920000028  0.3333299990000000  0.1749099930000000   F   F   F
  0.1626265098848233  0.3313515439761039  0.3443413548152794   T   T   T
  0.3333300010000002  0.4166699640000004  0.0874599979999999   F   F   F
  0.3365613804221576  0.4184417647805314  0.2629297216836558   T   T   T
  0.4166699800000018  0.3333299990000000  0.0000000000000000   F   F   F
  0.4166699800000018  0.3333299990000000  0.1749099930000000   F   F   F
  0.4084765886612768  0.3291563159078216  0.3621013899243899   T   T   T
  0.5833299769999982  0.4166699640000004  0.0874599979999999   F   F   F
  0.5837283497044173  0.4164245633072286  0.2655637631128712   T   T   T
  0.6666700279999986  0.3333299990000000  0.0000000000000000   F   F   F
  0.6666700279999986  0.3333299990000000  0.1749099930000000   F   F   F
  0.6701125512796225  0.3306241530791078  0.3615977755747015   T   T   T
  0.8333299530000033  0.4166699640000004  0.0874599979999999   F   F   F
  0.8315401000461203  0.4145355871723500  0.2617382483993634   T   T   T
  0.9166700279999986  0.3333299990000000  0.0000000000000000   F   F   F
  0.9166700279999986  0.3333299990000000  0.1749099930000000   F   F   F
  0.9249418294642636  0.3301023530364117  0.3501467697868416   T   T   T
  0.0833299990000000  0.6666700070000005  0.0874599979999999   F   F   F
  0.0816671654257649  0.6664619009056065  0.2601202252913306   T   T   T
  0.1666699840000021  0.5833299580000002  0.0000000000000000   F   F   F
  0.1666699840000021  0.5833299580000002  0.1749099930000000   F   F   F
  0.1581414638593178  0.5828431605553989  0.3442624607342578   T   T   T
  0.3333299990000000  0.6666700070000005  0.0874599979999999   F   F   F
  0.3342340607628650  0.6663275711905958  0.2611371884163714   T   T   T
  0.4166699600000001  0.5833299580000002  0.0000000000000000   F   F   F
  0.4166699600000001  0.5833299580000002  0.1749099930000000   F   F   F
  0.4100588985715929  0.5908997395650086  0.3607853435124609   T   T   T
  0.5833299749999981  0.6666700070000005  0.0874599979999999   F   F   F
  0.5821211357223096  0.6641823389145143  0.2627884480764721   T   T   T
  0.6666700079999970  0.5833299580000002  0.0000000000000000   F   F   F
  0.6666700079999970  0.5833299580000002  0.1749099930000000   F   F   F
  0.6718073091489857  0.5921569833378184  0.3613952349172974   T   T   T
  0.8333299749999981  0.6666700070000005  0.0874599979999999   F   F   F
  0.8305131526858400  0.6639942954774777  0.2609865431803722   T   T   T
  0.9166700079999970  0.5833299580000002  0.0000000000000000   F   F   F
  0.9166700079999970  0.5833299580000002  0.1749099930000000   F   F   F
  0.9246234951377791  0.5866872003049802  0.3503845275350710   T   T   T
  0.0833299780000019  0.9166699660000006  0.0874599979999999   F   F   F
  0.0842466105434504  0.9160766427134578  0.2584646479890870   T   T   T
  0.1666699640000004  0.8333299179999969  0.0000000000000000   F   F   F
  0.1666699640000004  0.8333299179999969  0.1749099930000000   F   F   F
  0.1663586450150208  0.8343240868916678  0.3425022994327876   T   T   T
  0.3333299780000019  0.9166699660000006  0.0874599979999999   F   F   F
  0.3339347789565980  0.9187759281722113  0.2601427611449945   T   T   T
  0.4166699399999985  0.8333299179999969  0.0000000000000000   F   F   F
  0.4166699399999985  0.8333299179999969  0.1749099930000000   F   F   F
  0.4182291892218946  0.8431902988387650  0.3443584552554343   T   T   T
  0.5833299549999964  0.9166699660000006  0.0874599979999999   F   F   F
  0.5842358371323166  0.9176320033724847  0.2599001680367641   T   T   T
  0.6666699880000024  0.8333299179999969  0.0000000000000000   F   F   F
  0.6666699880000024  0.8333299179999969  0.1749099930000000   F   F   F
  0.6696601347662189  0.8383427598091863  0.3442464701699863   T   T   T
  0.8333299549999964  0.9166699660000006  0.0874599979999999   F   F   F
  0.8326686198492786  0.9154602159223718  0.2584722718232420   T   T   T
  0.9166699880000024  0.8333299179999969  0.0000000000000000   F   F   F
  0.9166699880000024  0.8333299179999969  0.1749099930000000   F   F   F
  0.9241466254072279  0.8432525065564871  0.3433985799268044   T   T   T
  0.6405099628255968  0.3198288000196153  0.6269648809889413   T   T   T
  0.3268958240169510  0.6573933219870299  0.6162307997593982   T   T   T
  0.8612984074076465  0.4256143568614786  0.4001313495453648   T   T   T
  0.5840392315867687  0.4178870324956270  0.4058184483582960   T   T   T
  0.3045897916955272  0.4094504063876003  0.4019975344705872   T   T   T
  0.8665464856906614  0.6955094476938876  0.3980674763701526   T   T   T
  0.3052372733116933  0.1340996696954701  0.3983317565390273   T   T   T
  0.5919050518259548  0.6959295574504343  0.4017276573230230   T   T   T
  0.5748372268313241  0.1396440230182986  0.4001300220197734   T   T   T
  0.3129102793586890  0.6883415390833089  0.3962170401453229   T   T   T
  0.8480663311096802  0.1528250769013798  0.3963655931973611   T   T   T
  0.8680678555026777  0.4281073639532998  0.4447317360519151   T   T   T
  0.5865875025620630  0.4175580457180514  0.4503753985857216   T   T   T
  0.2842802569556824  0.4031059610698134  0.4459690639290551   T   T   T
  0.8780958060591386  0.7050506846360703  0.4424152811141204   T   T   T
  0.5977403729307516  0.7136213289372129  0.4458540576537452   T   T   T
  0.3061607227834988  0.6929633591627707  0.4404743181857877   T   T   T
  0.8469769662365472  0.1540004359597802  0.4408518275794339   T   T   T
  0.5708604798330066  0.1328968587147274  0.4447301594491229   T   T   T
  0.2955287262257306  0.1209376201241954  0.4425670281220189   T   T   T
  0.3830751214643899  0.1260210334979280  0.7030277699250890   T   T   T
  0.4272180435307932  0.4073473473673905  0.6731449583405877   T   T   T
  0.7349326216482582  0.6140143189847033  0.6787422110091348   T   T   T
  0.8808068563120757  0.4596592623197712  0.7135701354382966   T   T   T
  0.6638233853569894  0.1570795136511113  0.7260547987864846   T   T   T
  0.4561166086257679  0.0432483864600854  0.5618024695212585   T   T   T
  0.4507610059509728  0.2998997888738246  0.5293860818591247   T   T   T
  0.7442190795556262  0.5444881428178927  0.5365948225199086   T   T   T
  0.9323872738051965  0.4352802888117079  0.5706622732814772   T   T   T
  0.7533723861504021  0.1241680147366268  0.5865004761978692   T   T   T
  0.1135619546822871  0.4486393893714899  0.7019517050014604   T   T   T
  0.0574599376470742  0.6635721154885154  0.6528117791854832   T   T   T
  0.3311893978322392  0.9340463303202288  0.6465677448581696   T   T   T
  0.5540641034012553  0.8872944834105861  0.6928709255542228   T   T   T
  0.4199564893411343  0.5874744363461988  0.7258368185955110   T   T   T
  0.1251098993182814  0.3806672121680332  0.5526122237111867   T   T   T
  0.1613680396820335  0.6561546488646937  0.5159288675883505   T   T   T
  0.4686228659868839  0.8696409692653300  0.5210863416329835   T   T   T
  0.6190421962775573  0.7298463913802512  0.5653553660360555   T   T   T
  0.4071672570752012  0.4305355180031259  0.5860237707457057   T   T   T
  0.6423593989111166  0.2495749482555467  0.7128888738641787   T   T   T
  0.4939687829329193  0.2327846275774989  0.7005959317186196   T   T   T
  0.5170651588996935  0.3812103104077844  0.6851149354396393   T   T   T
  0.6800566017852544  0.4907053376798886  0.6882518692181708   T   T   T
  0.7570976607348748  0.4094096308587748  0.7064036520428614   T   T   T
  0.7137492389706801  0.2022230153610365  0.5717801379305213   T   T   T
  0.5563237785728474  0.1587024118288145  0.5584182795090652   T   T   T
  0.5533445419404687  0.2952087995708346  0.5422256939668780   T   T   T
  0.7086434159535222  0.4239696848515653  0.5457078709572332   T   T   T
  0.8083371350484156  0.3659646279591321  0.5628897004937787   T   T   T
  0.3610130736103895  0.6425869575066454  0.7057957585155271   T   T   T
  0.1982859842546586  0.5695168013934985  0.6936336246301095   T   T   T
  0.1688796843627073  0.6825860135173313  0.6680512193447481   T   T   T
  0.3138003933718282  0.8258273761832969  0.6646796669934776   T   T   T
  0.4317625551568372  0.8016214829164623  0.6890638641620118   T   T   T
  0.3825580130709812  0.5159518840834553  0.5675197299424622   T   T   T
  0.2337601733104987  0.4900010331743735  0.5498564666859501   T   T   T
  0.2530626927793900  0.6350234935912339  0.5307342662222843   T   T   T
  0.4155441658119414  0.7489076988182974  0.5342207346177559   T   T   T
  0.4956310016466111  0.6747837811644291  0.5562712758550238   T   T   T
 
  0.00000000E+00  0.00000000E+00  0.00000000E+00
  0.00000000E+00  0.00000000E+00  0.00000000E+00
  0.00000000E+00  0.00000000E+00  0.00000000E+00
  0.00000000E+00  0.00000000E+00  0.00000000E+00
  0.00000000E+00  0.00000000E+00  0.00000000E+00
  0.00000000E+00  0.00000000E+00  0.00000000E+00
  0.00000000E+00  0.00000000E+00  0.00000000E+00
  0.00000000E+00  0.00000000E+00  0.00000000E+00
  0.00000000E+00  0.00000000E+00  0.00000000E+00
  0.00000000E+00  0.00000000E+00  0.00000000E+00
  0.00000000E+00  0.00000000E+00  0.00000000E+00
  0.00000000E+00  0.00000000E+00  0.00000000E+00
  0.00000000E+00  0.00000000E+00  0.00000000E+00
  0.00000000E+00  0.00000000E+00  0.00000000E+00
  0.00000000E+00  0.00000000E+00  0.00000000E+00
  0.00000000E+00  0.00000000E+00  0.00000000E+00
  0.00000000E+00  0.00000000E+00  0.00000000E+00
  0.00000000E+00  0.00000000E+00  0.00000000E+00
  0.00000000E+00  0.00000000E+00  0.00000000E+00
  0.00000000E+00  0.00000000E+00  0.00000000E+00
  0.00000000E+00  0.00000000E+00  0.00000000E+00
  0.00000000E+00  0.00000000E+00  0.00000000E+00
  0.00000000E+00  0.00000000E+00  0.00000000E+00
  0.00000000E+00  0.00000000E+00  0.00000000E+00
  0.00000000E+00  0.00000000E+00  0.00000000E+00
  0.00000000E+00  0.00000000E+00  0.00000000E+00
  0.00000000E+00  0.00000000E+00  0.00000000E+00
  0.00000000E+00  0.00000000E+00  0.00000000E+00
  0.00000000E+00  0.00000000E+00  0.00000000E+00
  0.00000000E+00  0.00000000E+00  0.00000000E+00
  0.00000000E+00  0.00000000E+00  0.00000000E+00
  0.00000000E+00  0.00000000E+00  0.00000000E+00
  0.00000000E+00  0.00000000E+00  0.00000000E+00
  0.00000000E+00  0.00000000E+00  0.00000000E+00
  0.00000000E+00  0.00000000E+00  0.00000000E+00
  0.00000000E+00  0.00000000E+00  0.00000000E+00
  0.00000000E+00  0.00000000E+00  0.00000000E+00
  0.00000000E+00  0.00000000E+00  0.00000000E+00
  0.00000000E+00  0.00000000E+00  0.00000000E+00
  0.00000000E+00  0.00000000E+00  0.00000000E+00
  0.00000000E+00  0.00000000E+00  0.00000000E+00
  0.00000000E+00  0.00000000E+00  0.00000000E+00
  0.00000000E+00  0.00000000E+00  0.00000000E+00
  0.00000000E+00  0.00000000E+00  0.00000000E+00
  0.00000000E+00  0.00000000E+00  0.00000000E+00
  0.00000000E+00  0.00000000E+00  0.00000000E+00
  0.00000000E+00  0.00000000E+00  0.00000000E+00
  0.00000000E+00  0.00000000E+00  0.00000000E+00
  0.00000000E+00  0.00000000E+00  0.00000000E+00
  0.00000000E+00  0.00000000E+00  0.00000000E+00
  0.00000000E+00  0.00000000E+00  0.00000000E+00
  0.00000000E+00  0.00000000E+00  0.00000000E+00
  0.00000000E+00  0.00000000E+00  0.00000000E+00
  0.00000000E+00  0.00000000E+00  0.00000000E+00
  0.00000000E+00  0.00000000E+00  0.00000000E+00
  0.00000000E+00  0.00000000E+00  0.00000000E+00
  0.00000000E+00  0.00000000E+00  0.00000000E+00
  0.00000000E+00  0.00000000E+00  0.00000000E+00
  0.00000000E+00  0.00000000E+00  0.00000000E+00
  0.00000000E+00  0.00000000E+00  0.00000000E+00
  0.00000000E+00  0.00000000E+00  0.00000000E+00
  0.00000000E+00  0.00000000E+00  0.00000000E+00
  0.00000000E+00  0.00000000E+00  0.00000000E+00
  0.00000000E+00  0.00000000E+00  0.00000000E+00
  0.00000000E+00  0.00000000E+00  0.00000000E+00
  0.00000000E+00  0.00000000E+00  0.00000000E+00
  0.00000000E+00  0.00000000E+00  0.00000000E+00
  0.00000000E+00  0.00000000E+00  0.00000000E+00
  0.00000000E+00  0.00000000E+00  0.00000000E+00
  0.00000000E+00  0.00000000E+00  0.00000000E+00
  0.00000000E+00  0.00000000E+00  0.00000000E+00
  0.00000000E+00  0.00000000E+00  0.00000000E+00
  0.00000000E+00  0.00000000E+00  0.00000000E+00
  0.00000000E+00  0.00000000E+00  0.00000000E+00
  0.00000000E+00  0.00000000E+00  0.00000000E+00
  0.00000000E+00  0.00000000E+00  0.00000000E+00
  0.00000000E+00  0.00000000E+00  0.00000000E+00
  0.00000000E+00  0.00000000E+00  0.00000000E+00
  0.00000000E+00  0.00000000E+00  0.00000000E+00
  0.00000000E+00  0.00000000E+00  0.00000000E+00
  0.00000000E+00  0.00000000E+00  0.00000000E+00
  0.00000000E+00  0.00000000E+00  0.00000000E+00
  0.00000000E+00  0.00000000E+00  0.00000000E+00
  0.00000000E+00  0.00000000E+00  0.00000000E+00
  0.00000000E+00  0.00000000E+00  0.00000000E+00
  0.00000000E+00  0.00000000E+00  0.00000000E+00
  0.00000000E+00  0.00000000E+00  0.00000000E+00
  0.00000000E+00  0.00000000E+00  0.00000000E+00
  0.00000000E+00  0.00000000E+00  0.00000000E+00
  0.00000000E+00  0.00000000E+00  0.00000000E+00
  0.00000000E+00  0.00000000E+00  0.00000000E+00
  0.00000000E+00  0.00000000E+00  0.00000000E+00
  0.00000000E+00  0.00000000E+00  0.00000000E+00
  0.00000000E+00  0.00000000E+00  0.00000000E+00
  0.00000000E+00  0.00000000E+00  0.00000000E+00
  0.00000000E+00  0.00000000E+00  0.00000000E+00
  0.00000000E+00  0.00000000E+00  0.00000000E+00
  0.00000000E+00  0.00000000E+00  0.00000000E+00
  0.00000000E+00  0.00000000E+00  0.00000000E+00
  0.00000000E+00  0.00000000E+00  0.00000000E+00
  0.00000000E+00  0.00000000E+00  0.00000000E+00
  0.00000000E+00  0.00000000E+00  0.00000000E+00
  0.00000000E+00  0.00000000E+00  0.00000000E+00
  0.00000000E+00  0.00000000E+00  0.00000000E+00
  0.00000000E+00  0.00000000E+00  0.00000000E+00
  0.00000000E+00  0.00000000E+00  0.00000000E+00
  0.00000000E+00  0.00000000E+00  0.00000000E+00
  0.00000000E+00  0.00000000E+00  0.00000000E+00
  0.00000000E+00  0.00000000E+00  0.00000000E+00
  0.00000000E+00  0.00000000E+00  0.00000000E+00
  0.00000000E+00  0.00000000E+00  0.00000000E+00
  0.00000000E+00  0.00000000E+00  0.00000000E+00
  0.00000000E+00  0.00000000E+00  0.00000000E+00
  0.00000000E+00  0.00000000E+00  0.00000000E+00
  0.00000000E+00  0.00000000E+00  0.00000000E+00
  0.00000000E+00  0.00000000E+00  0.00000000E+00
  0.00000000E+00  0.00000000E+00  0.00000000E+00
  0.00000000E+00  0.00000000E+00  0.00000000E+00
  0.00000000E+00  0.00000000E+00  0.00000000E+00
  0.00000000E+00  0.00000000E+00  0.00000000E+00
  0.00000000E+00  0.00000000E+00  0.00000000E+00
  0.00000000E+00  0.00000000E+00  0.00000000E+00
  0.00000000E+00  0.00000000E+00  0.00000000E+00
  0.00000000E+00  0.00000000E+00  0.00000000E+00
  0.00000000E+00  0.00000000E+00  0.00000000E+00
  0.00000000E+00  0.00000000E+00  0.00000000E+00
  0.00000000E+00  0.00000000E+00  0.00000000E+00
  0.00000000E+00  0.00000000E+00  0.00000000E+00
  0.00000000E+00  0.00000000E+00  0.00000000E+00
  0.00000000E+00  0.00000000E+00  0.00000000E+00
  0.00000000E+00  0.00000000E+00  0.00000000E+00
  0.00000000E+00  0.00000000E+00  0.00000000E+00
  0.00000000E+00  0.00000000E+00  0.00000000E+00
  0.00000000E+00  0.00000000E+00  0.00000000E+00
  0.00000000E+00  0.00000000E+00  0.00000000E+00
  0.00000000E+00  0.00000000E+00  0.00000000E+00
  0.00000000E+00  0.00000000E+00  0.00000000E+00
  0.00000000E+00  0.00000000E+00  0.00000000E+00
  0.00000000E+00  0.00000000E+00  0.00000000E+00
  0.00000000E+00  0.00000000E+00  0.00000000E+00
