Ru Ta  N  Cu                            
   1.00000000000000     
    18.1096308199999996    0.0000000000000000    0.0000000000000000
     0.0000000000000000   23.3551997799999995    0.0000000000000000
     0.0000000000000000    0.0000000000000000   32.4818170799999990
   Ru   Ta   N    Cu
   128   240   240     3
Selective dynamics
Direct
  0.0310951480257562  0.0079693844787966  0.4471530476150904   T   T   T
  0.2801984095554543  0.4991453230432005  0.4390484929276857   T   T   T
  0.4257496464416136  0.0643850123297028  0.4334710512795407   T   T   T
  0.0439136268671840  0.2549381642146960  0.4480338159575574   T   T   T
  0.2770472534126337  0.2435682710525576  0.4388355098369037   T   T   T
  0.4182634125499611  0.3164696622973435  0.4339858183042838   T   T   T
  0.0331950361752175  0.1246711351394881  0.4489241469478334   T   T   T
  0.2788444653610596  0.1266886125568495  0.4393841942816463   T   T   T
  0.4247061496381438  0.1878261183696494  0.4337513095318961   T   T   T
  0.0470838390913038  0.3696778613368416  0.4484029126118326   T   T   T
  0.2738384234760329  0.3816029620024035  0.4392114785970460   T   T   T
  0.4201989521930782  0.4361239095205511  0.4336035357934892   T   T   T
  0.1541632879409366  0.4444917730099463  0.4477660552587864   T   T   T
  0.1702704412934209  0.3099028476414641  0.4581432234292440   T   T   T
  0.1553764229661789  0.1848966717727200  0.4495703001993225   T   T   T
  0.1551734446170884  0.0668661598865621  0.4492638334509921   T   T   T
  0.0659771291061731  0.4380645032663770  0.5075260377676909   T   T   T
  0.3280699764935761  0.4376274023510441  0.4998305637455266   T   T   T
  0.4499608366073882  0.0084136743707783  0.5011946197167797   T   T   T
  0.0670953747866540  0.1925178394583570  0.5087750481652631   T   T   T
  0.3310539542872116  0.1848420763650427  0.4997392127529570   T   T   T
  0.4420756481243665  0.2566622324571212  0.5007667407672303   T   T   T
  0.0640923211770691  0.0619841440707426  0.5097274798808908   T   T   T
  0.3257632596352167  0.0648382705131276  0.4989137014018382   T   T   T
  0.4519673058713124  0.1191234816386867  0.5010185720119654   T   T   T
  0.0706330332603200  0.3115517817139457  0.5123149319891555   T   T   T
  0.3159648447039034  0.3135704736946843  0.4965517063589362   T   T   T
  0.4440733172928683  0.3656075087106028  0.5023073384053378   T   T   T
  0.2004996524926198  0.3883844110688390  0.5085363874843395   T   T   T
  0.2021604084531563  0.2359568510103426  0.5118161932011117   T   T   T
  0.2082491800354338  0.1270327907669691  0.5065898475432034   T   T   T
  0.2079216501086512  0.4988713137176163  0.5063769235841793   T   T   T
  0.0333854174564698  0.5040028367832187  0.4483111175807146   T   T   T
  0.2783495655801082  0.0049555074113338  0.4393800494989404   T   T   T
  0.4262335266227033  0.5620507011990118  0.4325272370879121   T   T   T
  0.0503432806274043  0.7531459328636049  0.4472633604125669   T   T   T
  0.2763094151909434  0.7361846421601013  0.4400481873115709   T   T   T
  0.4050096318741653  0.8149558302981165  0.4353798021203522   T   T   T
  0.0348027955316943  0.6215216558205748  0.4485822549409910   T   T   T
  0.2802354901424461  0.6203215638681694  0.4400022907340083   T   T   T
  0.4190472056432051  0.6862836492761754  0.4334291304903318   T   T   T
  0.0531229984732385  0.8680912821068534  0.4483063675258692   T   T   T
  0.2713267514864989  0.8890428161381454  0.4394496687920145   T   T   T
  0.4157610805568273  0.9374221279025454  0.4338019188259015   T   T   T
  0.1522120054442520  0.9519185881260368  0.4472534245973733   T   T   T
  0.1774661678991363  0.8105325791485164  0.4580629297103619   T   T   T
  0.1565330128988674  0.6764300797582526  0.4490889752246359   T   T   T
  0.1566761345135343  0.5601368554782945  0.4493588258842845   T   T   T
  0.0656621136247853  0.9416856891518177  0.5067195569971547   T   T   T
  0.3259843538999431  0.9428908887945758  0.4999472728972407   T   T   T
  0.4510958439614551  0.5091932841229420  0.5008448046974034   T   T   T
  0.0693822941167212  0.6866986986710710  0.5085245871862010   T   T   T
  0.3307968611554717  0.6786421177314433  0.5003535290708434   T   T   T
  0.4353713895497330  0.7580608914722405  0.5018987945868056   T   T   T
  0.0657728755863244  0.5615708209353770  0.5100366627635957   T   T   T
  0.3262248602113924  0.5587341165278726  0.4994337392622622   T   T   T
  0.4516189597677724  0.6182233299633609  0.5008695700685296   T   T   T
  0.0800670167222907  0.8039603840974827  0.5122522011707699   T   T   T
  0.3077352218000264  0.8143723827515589  0.4945381758935598   T   T   T
  0.4363277444448689  0.8684229391341338  0.5027976073039455   T   T   T
  0.1982157573201018  0.8937963302794317  0.5072640489163469   T   T   T
  0.2038065105744281  0.7313455060620683  0.5099851518677391   T   T   T
  0.2079723215837107  0.6201442595750691  0.5072654016480226   T   T   T
  0.2044897962142093  0.0065982010333197  0.5067643291458060   T   T   T
  0.5492002401970334  0.0042874525997307  0.4470223223784962   T   T   T
  0.7806762790950740  0.4947304642732317  0.4334236270625003   T   T   T
  0.9055831959636340  0.0664524904932079  0.4347864169234003   T   T   T
  0.5427972566989371  0.2586652908948570  0.4482837580766927   T   T   T
  0.7797147152985511  0.2545457276895497  0.4362898337887049   T   T   T
  0.9222431060229664  0.3155969026273263  0.4320268647830053   T   T   T
  0.5542385540498064  0.1209628824873673  0.4481233466738988   T   T   T
  0.7724644211401577  0.1395162589038932  0.4393942457750299   T   T   T
  0.9146229007123493  0.1873658948486341  0.4323024330118060   T   T   T
  0.5509650884295176  0.3739152645510212  0.4496516331923581   T   T   T
  0.7806573401392466  0.3773800945109647  0.4337000303462305   T   T   T
  0.9227861073693816  0.4358818396253395  0.4318208955383828   T   T   T
  0.6754837208694108  0.4369174928430976  0.4653772126086704   T   T   T
  0.6742676491796031  0.3178011343936248  0.4614841380728735   T   T   T
  0.6585921273390551  0.2022391856142396  0.4513916050357579   T   T   T
  0.6769072396374933  0.0595052336354623  0.4568798275175256   T   T   T
  0.5615698508973469  0.4371333300718966  0.5134062790245890   T   T   T
  0.8143973190785687  0.4361334279192244  0.4975281180248128   T   T   T
  0.9350581769048042  0.0095420644080626  0.5014788016024603   T   T   T
  0.5685981226898372  0.1910572540402605  0.5085671752006383   T   T   T
  0.8250732577068164  0.1974036309272486  0.5001787110328354   T   T   T
  0.9416542320957656  0.2614458939462956  0.5003033264931733   T   T   T
  0.5791991927308111  0.0587314766035848  0.5113523591487406   T   T   T
  0.8076187769506489  0.0629542197633178  0.4935144452412796   T   T   T
  0.9338023995690337  0.1203554788578349  0.5017468505729561   T   T   T
  0.5735108084939360  0.3095012583710412  0.5144589318956675   T   T   T
  0.8102947280369741  0.3191100814005803  0.4976314093942195   T   T   T
  0.9415462610944486  0.3716010216347068  0.4997906919904030   T   T   T
  0.6980048973204489  0.3782804539777966  0.5284368393772462   T   T   T
  0.6974195066623491  0.2453266769695685  0.5180229541538837   T   T   T
  0.7022778963570158  0.1380700128324895  0.5087955685551087   T   T   T
  0.7002909462129532  0.4946672997807055  0.5283434590712459   T   T   T
  0.5540816784923562  0.4980124609446220  0.4485267918630669   T   T   T
  0.7767453702213361  0.9854736168453024  0.4393282644671747   T   T   T
  0.9119940996620842  0.5631388027063902  0.4336910694982992   T   T   T
  0.5315836027839727  0.7542122423153088  0.4471875575073466   T   T   T
  0.7795376124387432  0.7497367058556084  0.4390851147904652   T   T   T
  0.9266820016976013  0.8119096694316302  0.4333639903946719   T   T   T
  0.5545151325934787  0.6156619918398877  0.4491688312951864   T   T   T
  0.7718663021877767  0.6302120635295639  0.4394451468554701   T   T   T
  0.9176933060026822  0.6865069850284061  0.4332920438596243   T   T   T
  0.5332773716046596  0.8720173127194053  0.4488369032961926   T   T   T
  0.7799824303534222  0.8706247994959111  0.4395850553471283   T   T   T
  0.9201189915311757  0.9373945552047960  0.4330613124405582   T   T   T
  0.6559585921314852  0.9279496738245987  0.4490076684580437   T   T   T
  0.6553466736563194  0.8114870759394583  0.4489810902724047   T   T   T
  0.6538196259668266  0.6963459420000744  0.4471095612028292   T   T   T
  0.6764462409517966  0.5536554453561757  0.4607661527189520   T   T   T
  0.5684991602728093  0.9397421695528216  0.5080651935401117   T   T   T
  0.8324394126651713  0.9276134459985232  0.5001816647642834   T   T   T
  0.9357813733604485  0.5045038547072587  0.5017320863227244   T   T   T
  0.5673960210252261  0.6899694381847689  0.5069943612792833   T   T   T
  0.8261311083062562  0.6882491612529221  0.4992143187786463   T   T   T
  0.9515539861038086  0.7557344870048091  0.5015006727560185   T   T   T
  0.5760282197383517  0.5543933703448043  0.5141916573054689   T   T   T
  0.8079729085322466  0.5565507660329787  0.4967095017231787   T   T   T
  0.9366704525828322  0.6149942965043158  0.5020712629610264   T   T   T
  0.5659895263394317  0.8088049359208747  0.5095057922094545   T   T   T
  0.8265875426527350  0.8092688132098358  0.4990420456997810   T   T   T
  0.9530876077641318  0.8656014668042721  0.5016522570833792   T   T   T
  0.7086729853983802  0.8707775198693954  0.5064498141343987   T   T   T
  0.7052054981684470  0.7513267493040579  0.5065300643453882   T   T   T
  0.7006613459106635  0.6382110009320288  0.5074973348385077   T   T   T
  0.7057333779088775  0.9815498027606734  0.5097905061761638   T   T   T
  0.0002112439569970  0.0001379294448540  0.0373463921698374   F   F   F
  0.3342257926207992  0.0625994154237475  0.0423987318545187   F   F   F
  0.1660626269271432  0.0626581163633873  0.0424061668450690   F   F   F
  0.2502202084754828  0.1252178855354416  0.1130358333669221   F   F   F
  0.0828588434925734  0.0627073156657261  0.1186643004524512   F   F   F
  0.4176999472490408  0.0627059576615423  0.1186271515872050   F   F   F
  0.0011974115092889  0.1251363465097768  0.1991542357390467   T   T   T
  0.3330112487787166  0.0627405219180025  0.1977945689047848   T   T   T
  0.1682781792066851  0.0627323107504634  0.1977724968458628   T   T   T
  0.2498396376075421  0.1252985672929486  0.2789200110560009   T   T   T
  0.0845650388570780  0.0626014893836667  0.2789983009877633   T   T   T
  0.4175765489456535  0.0627331734033933  0.2784313543818250   T   T   T
  0.0042932713685020  0.1251085188928749  0.3598166398907129   T   T   T
  0.3339726043014267  0.0629867628469821  0.3588450469223290   T   T   T
  0.1664993252340512  0.0627642003359796  0.3608401106855736   T   T   T
  0.0001993579241457  0.1251124241418680  0.0373673238785415   F   F   F
  0.3342248374093941  0.1876083518869578  0.0424180467130881   F   F   F
  0.1660568042752573  0.1876606967942038  0.0424146876443743   F   F   F
  0.2502332970886698  0.2502158349488468  0.1130222857832806   F   F   F
  0.0828712378028129  0.1877169521294775  0.1186661494224168   F   F   F
  0.4176644359050954  0.1877065482458207  0.1186607550294028   F   F   F
  0.0013244084666395  0.2501211101632834  0.1991032425356978   T   T   T
  0.3330359871919844  0.1877373086912161  0.1977936794177877   T   T   T
  0.1683013704051759  0.1877178178344213  0.1977404021652862   T   T   T
  0.2496462605497635  0.2502087653017743  0.2789452391543349   T   T   T
  0.0844844678815102  0.1876612918130793  0.2790320671339242   T   T   T
  0.4174801703529906  0.1877303764077644  0.2784560567494378   T   T   T
  0.0019795978199522  0.2501158127021728  0.3596029479678975   T   T   T
  0.3340614102434498  0.1880229935417050  0.3584913738804227   T   T   T
  0.1665021684610812  0.1879017038824335  0.3607559902830565   T   T   T
  0.0002122078768210  0.2501392066830732  0.0373456541597363   F   F   F
  0.3342232035055162  0.3125992309382539  0.0423967923009556   F   F   F
  0.1660586660861370  0.3126582257413517  0.0424062846115874   F   F   F
  0.2502173161139041  0.3752178897059935  0.1130360339591618   F   F   F
  0.0828568376004242  0.3127060748111887  0.1186645141734175   F   F   F
  0.4176984722473520  0.3127078846600213  0.1186298408889357   F   F   F
  0.0014889743128137  0.3751075895908227  0.1990567371086110   T   T   T
  0.3329778217075696  0.3127085822503751  0.1978032049340976   T   T   T
  0.1683306203068030  0.3126893551024678  0.1977501321726650   T   T   T
  0.2495401546833772  0.3751506544965977  0.2788612538081678   T   T   T
  0.0846913624498923  0.3126099406874734  0.2790552313550530   T   T   T
  0.4172920891217843  0.3126475038010560  0.2784136891162313   T   T   T
  0.0027585637265984  0.3757242153266313  0.3593018196029167   T   T   T
  0.3337663572151938  0.3127118256186749  0.3587734434543445   T   T   T
  0.1659301856988585  0.3127669565708279  0.3622944261046390   T   T   T
  0.0001993469486266  0.3751125453592721  0.0373668329409540   F   F   F
  0.3342265491584655  0.4376091382735581  0.0424193945147948   F   F   F
  0.1660559599480962  0.4376604044393986  0.0424156771225839   F   F   F
  0.2502327017382058  0.0002164962773534  0.1130220722767348   F   F   F
  0.0828707196508915  0.4377156099338606  0.1186668391713255   F   F   F
  0.4176643738564039  0.4377089816271393  0.1186614737223408   F   F   F
  0.0011222044511549  0.0001527376471570  0.1991679155207580   T   T   T
  0.3329738433272774  0.4377165666375623  0.1977382729596552   T   T   T
  0.1683309088574612  0.4377314163023887  0.1977251439628263   T   T   T
  0.2498953722944298  0.0002412617785045  0.2788330773493146   T   T   T
  0.0844927761575272  0.4376937669704784  0.2789120889050769   T   T   T
  0.4173177872199553  0.4376233313105991  0.2783362627225190   T   T   T
  0.0033882306081007  0.9999539225712135  0.3596660484279853   T   T   T
  0.3333128201807681  0.4377058472088246  0.3581978747582803   T   T   T
  0.1663877922364695  0.4376660377907832  0.3602485902884217   T   T   T
  0.0002112439569970  0.5001379294448540  0.0373463921698374   F   F   F
  0.3342257926207992  0.5625994154237475  0.0423987318545187   F   F   F
  0.1660626269271432  0.5626581163633873  0.0424061668450690   F   F   F
  0.2502202084754828  0.6252178855354416  0.1130358333669221   F   F   F
  0.0828588434925734  0.5627073156657261  0.1186643004524512   F   F   F
  0.4176999472490408  0.5627059576615423  0.1186271515872050   F   F   F
  0.0012931249141503  0.6252653019943921  0.1991202002282237   T   T   T
  0.3330582789980411  0.5627535429300662  0.1977959357663957   T   T   T
  0.1683391609381627  0.5627386718579100  0.1977770853516172   T   T   T
  0.2498612758405181  0.6251115321016866  0.2788449402062085   T   T   T
  0.0845441023701425  0.5627225030135873  0.2789507322552489   T   T   T
  0.4174039755989444  0.5626640726321629  0.2784587442602918   T   T   T
  0.0036595168147411  0.6249621433485636  0.3598149241493151   T   T   T
  0.3340958541206340  0.5625214215778709  0.3587655098262302   T   T   T
  0.1665745242310231  0.5626236422943257  0.3608098381854797   T   T   T
  0.0001993579241457  0.6251124241418680  0.0373673238785415   F   F   F
  0.3342248374093941  0.6876083518869507  0.0424180467130881   F   F   F
  0.1660568042752573  0.6876606967941967  0.0424146876443743   F   F   F
  0.2502332970886698  0.7502158349488468  0.1130222857832806   F   F   F
  0.0828712378028129  0.6877169521294704  0.1186661494224168   F   F   F
  0.4176644359050954  0.6877065482458136  0.1186607550294028   F   F   F
  0.0012541665103607  0.7502399538125213  0.1991766279301024   T   T   T
  0.3329967659237577  0.6877415103412330  0.1977587922478073   T   T   T
  0.1683417895625033  0.6877211062435631  0.1977170315032794   T   T   T
  0.2498724923971413  0.7501686823266203  0.2788816689259125   T   T   T
  0.0847386203157209  0.6877108750599561  0.2790192437273982   T   T   T
  0.4174309025626911  0.6877049887359867  0.2783595154249607   T   T   T
  0.0020430997151273  0.7496452421765183  0.3593467309983887   T   T   T
  0.3344253767068142  0.6877386367538493  0.3583841616910761   T   T   T
  0.1669829044374364  0.6876126907695836  0.3606521599994439   T   T   T
  0.0002122078768210  0.7501392066830732  0.0373456541597363   F   F   F
  0.3342232035055162  0.8125992309382539  0.0423967923009556   F   F   F
  0.1660586660861370  0.8126582257413517  0.0424062846115874   F   F   F
  0.2502173161139041  0.8752178897059935  0.1130360339591618   F   F   F
  0.0828568376004242  0.8127060748111887  0.1186645141734175   F   F   F
  0.4176984722473520  0.8127078846600213  0.1186298408889357   F   F   F
  0.0012157630570456  0.8751241387096577  0.1991875384618610   T   T   T
  0.3329851260877907  0.8127513047317423  0.1977897771515826   T   T   T
  0.1683534933566723  0.8126962408060974  0.1977138595863276   T   T   T
  0.2497664269238135  0.8752419451680545  0.2788510711848529   T   T   T
  0.0850250649493771  0.8125902206502045  0.2790538373800014   T   T   T
  0.4173903115264533  0.8127314872406762  0.2783544113477232   T   T   T
  0.0022421744045799  0.8751657408213618  0.3596105967297163   T   T   T
  0.3335004966786136  0.8127124979640353  0.3583753426858909   T   T   T
  0.1664212640965342  0.8124781955905315  0.3623226852652346   T   T   T
  0.0001993469486266  0.8751125453592721  0.0373668329409540   F   F   F
  0.3342265491584655  0.9376091382735510  0.0424193945147948   F   F   F
  0.1660559599480962  0.9376604044393915  0.0424156771225839   F   F   F
  0.2502327017382058  0.5002164962773534  0.1130220722767348   F   F   F
  0.0828707196508915  0.9377156099338535  0.1186668391713255   F   F   F
  0.4176643738564039  0.9377089816271322  0.1186614737223408   F   F   F
  0.0014223447455301  0.5002878258559091  0.1990468688819171   T   T   T
  0.3330226868533627  0.9377256337574444  0.1977750958903657   T   T   T
  0.1683407400329517  0.9377226728149032  0.1977215524006763   T   T   T
  0.2498182677835686  0.5001618484281537  0.2787618081267673   T   T   T
  0.0845017677988978  0.9375444138540693  0.2789219021356847   T   T   T
  0.4175119374652023  0.9376751326244219  0.2783541002435663   T   T   T
  0.0030331052785335  0.5000944607107255  0.3599080226827097   T   T   T
  0.3340014658215110  0.9379237216562344  0.3581342438876240   T   T   T
  0.1668889050704319  0.9374310776084387  0.3603873038331246   T   T   T
  0.5002112439569970  0.0001379294448540  0.0373463921698374   F   F   F
  0.8342257926207992  0.0625994154237475  0.0423987318545187   F   F   F
  0.6660626269271432  0.0626581163633873  0.0424061668450690   F   F   F
  0.7502202084754828  0.1252178855354416  0.1130358333669221   F   F   F
  0.5828588434925734  0.0627073156657261  0.1186643004524512   F   F   F
  0.9176999472490408  0.0627059576615423  0.1186271515872050   F   F   F
  0.5010659902771454  0.1251582198947630  0.1992205070011869   T   T   T
  0.8329247990728894  0.0626902847846274  0.1977393106095858   T   T   T
  0.6682181704042958  0.0626892568633258  0.1977056899139018   T   T   T
  0.7495445578115602  0.1251739481998065  0.2786796582608034   T   T   T
  0.5848176151405761  0.0625947715656679  0.2790120237140976   T   T   T
  0.9175117583201544  0.0625778807636658  0.2782301163340458   T   T   T
  0.5022855827006817  0.1252872001308967  0.3596557488433219   T   T   T
  0.8333951882417406  0.0627157273497516  0.3582118945675358   T   T   T
  0.6664944149675520  0.0625408495643628  0.3619545493153895   T   T   T
  0.5001993579241457  0.1251124241418680  0.0373673238785415   F   F   F
  0.8342248374093941  0.1876083518869578  0.0424180467130881   F   F   F
  0.6660568042752573  0.1876606967942038  0.0424146876443743   F   F   F
  0.7502332970886698  0.2502158349488468  0.1130222857832806   F   F   F
  0.5828712378028129  0.1877169521294775  0.1186661494224168   F   F   F
  0.9176644359050954  0.1877065482458207  0.1186607550294028   F   F   F
  0.5009214399614235  0.2501745737399670  0.1991950317756776   T   T   T
  0.8329118328733418  0.1876884403227137  0.1976459673457563   T   T   T
  0.6680815880556564  0.1876971041160858  0.1976872693911091   T   T   T
  0.7492428832163671  0.2501844176679734  0.2785672268023805   T   T   T
  0.5842669731676856  0.1876130832585485  0.2790385519648713   T   T   T
  0.9177755465847435  0.1875266627877817  0.2779966710764788   T   T   T
  0.5027899136213213  0.2498792799349520  0.3600243126605093   T   T   T
  0.8335809629182587  0.1879734539278658  0.3572199794870713   T   T   T
  0.6662842657234558  0.1874044351314256  0.3605146491862164   T   T   T
  0.5002122078768210  0.2501392066830732  0.0373456541597363   F   F   F
  0.8342232035055162  0.3125992309382539  0.0423967923009556   F   F   F
  0.6660586660861370  0.3126582257413517  0.0424062846115874   F   F   F
  0.7502173161139041  0.3752178897059935  0.1130360339591618   F   F   F
  0.5828568376004242  0.3127060748111887  0.1186645141734175   F   F   F
  0.9176984722473520  0.3127078846600213  0.1186298408889357   F   F   F
  0.5008502599066399  0.3751639265438936  0.1991866105633766   T   T   T
  0.8328483315839382  0.3127049552956354  0.1976283325875204   T   T   T
  0.6679561960666354  0.3126743985066880  0.1976805038695222   T   T   T
  0.7490287317788706  0.3750922900097137  0.2783798271798382   T   T   T
  0.5840094578667170  0.3125985766394181  0.2789592699483386   T   T   T
  0.9180411886390298  0.3126221333483749  0.2777049939945957   T   T   T
  0.5030689729061469  0.3752048971041883  0.3596014688993692   T   T   T
  0.8330242577488354  0.3128513655095868  0.3568782355409000   T   T   T
  0.6654942350819788  0.3126379055980835  0.3614908958543974   T   T   T
  0.5001993469486266  0.3751125453592721  0.0373668329409540   F   F   F
  0.8342265491584655  0.4376091382735581  0.0424193945147948   F   F   F
  0.6660559599480962  0.4376604044393986  0.0424156771225839   F   F   F
  0.7502327017382058  0.0002164962773534  0.1130220722767348   F   F   F
  0.5828707196508915  0.4377156099338606  0.1186668391713255   F   F   F
  0.9176643738564039  0.4377089816271393  0.1186614737223408   F   F   F
  0.5011097095918332  0.0002418833849009  0.1991917134154666   T   T   T
  0.8329061121787212  0.4377521880464127  0.1976087812156766   T   T   T
  0.6680157943692101  0.4376925270427023  0.1976435387221045   T   T   T
  0.7498592790462950  0.0000061981867678  0.2788360484053421   T   T   T
  0.5839724177729344  0.4376489770984648  0.2788403240478768   T   T   T
  0.9181338586393214  0.4377922752831518  0.2775440560261319   T   T   T
  0.5020390885494156  0.9998964735142005  0.3595178540962974   T   T   T
  0.8332728570605782  0.4377372369138107  0.3560272327019303   T   T   T
  0.6647811675598262  0.4374796676975876  0.3610223872874053   T   T   T
  0.5002112439569970  0.5001379294448540  0.0373463921698374   F   F   F
  0.8342257926207992  0.5625994154237475  0.0423987318545187   F   F   F
  0.6660626269271432  0.5626581163633873  0.0424061668450690   F   F   F
  0.7502202084754828  0.6252178855354416  0.1130358333669221   F   F   F
  0.5828588434925734  0.5627073156657261  0.1186643004524512   F   F   F
  0.9176999472490408  0.5627059576615423  0.1186271515872050   F   F   F
  0.5010016207569700  0.6251776043185456  0.1991740895531193   T   T   T
  0.8329107030546925  0.5627754726730342  0.1976359077294092   T   T   T
  0.6681417571084434  0.5627228817218396  0.1976491591872054   T   T   T
  0.7493768411933792  0.6251678135269669  0.2786121285418475   T   T   T
  0.5841827853086855  0.5625734693107365  0.2788620942589487   T   T   T
  0.9179099717711333  0.5628201303319563  0.2778890651216683   T   T   T
  0.5027661676439886  0.6254127701671178  0.3596958531031674   T   T   T
  0.8332778925261454  0.5625502854438524  0.3572480011401941   T   T   T
  0.6655422556217815  0.5626079116515642  0.3615132139414274   T   T   T
  0.5001993579241457  0.6251124241418680  0.0373673238785415   F   F   F
  0.8342248374093941  0.6876083518869507  0.0424180467130881   F   F   F
  0.6660568042752573  0.6876606967941967  0.0424146876443743   F   F   F
  0.7502332970886698  0.7502158349488468  0.1130222857832806   F   F   F
  0.5828712378028129  0.6877169521294704  0.1186661494224168   F   F   F
  0.9176644359050954  0.6877065482458136  0.1186607550294028   F   F   F
  0.5009957801704210  0.7502012662841703  0.1991603978864447   T   T   T
  0.8330328625330118  0.6877666660665828  0.1976845582064387   T   T   T
  0.6681925457732996  0.6877511543372916  0.1976902721385251   T   T   T
  0.7497642243602226  0.7501512943701604  0.2787283819017641   T   T   T
  0.5842301352831347  0.6876301195295030  0.2788002531042160   T   T   T
  0.9176277852385728  0.6876696939885822  0.2782301161668387   T   T   T
  0.5033723801568649  0.7500732596018465  0.3597221764515501   T   T   T
  0.8335927302461096  0.6874666818065706  0.3579321409716439   T   T   T
  0.6664560527544960  0.6872966519713660  0.3600531904472259   T   T   T
  0.5002122078768210  0.7501392066830732  0.0373456541597363   F   F   F
  0.8342232035055162  0.8125992309382539  0.0423967923009556   F   F   F
  0.6660586660861370  0.8126582257413517  0.0424062846115874   F   F   F
  0.7502173161139041  0.8752178897059935  0.1130360339591618   F   F   F
  0.5828568376004242  0.8127060748111887  0.1186645141734175   F   F   F
  0.9176984722473520  0.8127078846600213  0.1186298408889357   F   F   F
  0.5010828825893531  0.8752350563712979  0.1991816393605901   T   T   T
  0.8330530311135398  0.8127422390169035  0.1977604414291375   T   T   T
  0.6682159844512191  0.8127262830840990  0.1977762385903682   T   T   T
  0.7499130833852238  0.8750881459265603  0.2788596707933195   T   T   T
  0.5843923536774812  0.8126796466061490  0.2789335176754637   T   T   T
  0.9176459790140695  0.8125917882516608  0.2783816919404343   T   T   T
  0.5041443138242084  0.8750360759912166  0.3600130796628177   T   T   T
  0.8340051747451237  0.8123483057097548  0.3586823792703022   T   T   T
  0.6666090330721015  0.8123853244283135  0.3607280576265584   T   T   T
  0.5001993469486266  0.8751125453592721  0.0373668329409540   F   F   F
  0.8342265491584655  0.9376091382735510  0.0424193945147948   F   F   F
  0.6660559599480962  0.9376604044393915  0.0424156771225839   F   F   F
  0.7502327017382058  0.5002164962773534  0.1130220722767348   F   F   F
  0.5828707196508915  0.9377156099338535  0.1186668391713255   F   F   F
  0.9176643738564039  0.9377089816271322  0.1186614737223408   F   F   F
  0.5008925899783622  0.5002130962999042  0.1991723476764703   T   T   T
  0.8329865267794414  0.9377072952388849  0.1977463994796707   T   T   T
  0.6682636710537444  0.9377071644140101  0.1977311983194610   T   T   T
  0.7491686135114455  0.5002151371077529  0.2784590405947224   T   T   T
  0.5845179463131677  0.9376585825847228  0.2790083048555712   T   T   T
  0.9175871880355017  0.9375838354971094  0.2783288709634997   T   T   T
  0.5017914895803010  0.5001517657066481  0.3596864286021050   T   T   T
  0.8345351825205143  0.9376524006898634  0.3583147528636720   T   T   T
  0.6671229665706532  0.9375617362488743  0.3606370695632133   T   T   T
  0.4059663601692378  0.0001462046730154  0.0700885167279779   F   F   F
  0.2501335306342440  0.0001313415364734  0.0393543396202674   F   F   F
  0.0944334762619548  0.0001738881651363  0.0701382961740649   F   F   F
  0.1549947328934422  0.1252546000618224  0.1485264565477067   F   F   F
  0.0003044512358912  0.1252329358346600  0.1366467142038701   F   F   F
  0.3454752489896649  0.1252525403775380  0.1484231789215542   F   F   F
  0.4017492714843862  0.1252437996054034  0.2294726613831752   T   T   T
  0.2505404392065853  0.1252539472062177  0.2155199910181978   T   T   T
  0.1002686561695368  0.1251612203843314  0.2299374719024985   T   T   T
  0.1519078040139677  0.1252272131613613  0.3112109322102170   T   T   T
  0.0012083807856663  0.1250941456965698  0.2956562005374463   T   T   T
  0.3487388624908372  0.1252427295870071  0.3093110498305746   T   T   T
  0.4029161606751672  0.1259464020771011  0.3871577795101181   T   T   T
  0.2522979844619282  0.1254139551652610  0.3764713737148678   T   T   T
  0.1020942215034627  0.1254279441458818  0.3924252855974992   T   T   T
  0.4059504510021199  0.1251528418496832  0.0701137697057277   F   F   F
  0.2501484584581348  0.1251294756807368  0.0393952583647277   F   F   F
  0.0944439778587522  0.1251741239827453  0.0701534912843229   F   F   F
  0.1549877250862224  0.2502614546838657  0.1485179043880294   F   F   F
  0.0002974674814880  0.2502100279361912  0.1366324893501272   F   F   F
  0.3454803331882346  0.2503006024972620  0.1484139149937889   F   F   F
  0.4016802812027929  0.2501833513859609  0.2294667133803043   T   T   T
  0.2505052449063579  0.2501788246620639  0.2155226554303257   T   T   T
  0.1003747428219204  0.2501711048973739  0.2299416708496873   T   T   T
  0.1519568580688587  0.2505201704695146  0.3113403888065929   T   T   T
  0.0010762433630059  0.2500980069826081  0.2955120105732061   T   T   T
  0.3484506453512473  0.2504397959824456  0.3093970283906834   T   T   T
  0.4032837673750950  0.2505182017265283  0.3872410995146630   T   T   T
  0.2521713795897131  0.2500292759631266  0.3765342025229820   T   T   T
  0.0994089546197116  0.2497839812105341  0.3908051586720898   T   T   T
  0.4059628358367533  0.2501443164155361  0.0700852243531500   F   F   F
  0.2501309939231433  0.2501318371526651  0.0393519425499136   F   F   F
  0.0944333317481849  0.2501740935465691  0.0701386596889861   F   F   F
  0.1549942609652177  0.3752545226085218  0.1485264414225469   F   F   F
  0.0003019335461047  0.3752315664304433  0.1366474736751755   F   F   F
  0.3454762333887373  0.3752493953370220  0.1484229723695165   F   F   F
  0.4015940191451866  0.3751477084697056  0.2294345925513692   T   T   T
  0.2505336116641531  0.3752116390691961  0.2154647998747465   T   T   T