Mo  S Cu                                
   1.00000000000000     
    15.9214998300000001    0.0000000000000000    0.0000000000000000
    -7.9622501300000001   13.7910221699999997    0.0000000000000000
     0.0000000000000000    0.0000000000000000   13.5821998300000004
   Mo   S    Cu
    25    50     3
Direct
  0.1325412552430123  0.0658133518083019  0.6788280999890262
  0.1324576315121959  0.2656882352536840  0.6783414416817806
  0.1327419266898389  0.4657289417696973  0.6788856171066939
  0.1327263141300961  0.6658199053474405  0.6788618342774981
  0.1327023585314677  0.8658369379917090  0.6789516299984228
  0.3325231337247772  0.0656060172576076  0.6785541539852673
  0.3319604281561652  0.2655125620185075  0.6781050196006149
  0.3323633646607576  0.4656865367850287  0.6783490102768610
  0.3328781046892715  0.6660142606283088  0.6789044304494709
  0.3327266299234068  0.8658781299735949  0.6789417060581542
  0.5327865553268296  0.0659026769240612  0.6789295495998147
  0.5332541320114572  0.2659563491634671  0.6779424696289738
  0.5324583667933780  0.4655397724890378  0.6785564024547384
  0.5327896041048206  0.6658916765379601  0.6792024610060707
  0.5328102322613759  0.8659064217577637  0.6791726363550623
  0.7327823953578374  0.0657926656487859  0.6790209968026133
  0.7327392086441051  0.2656565169621246  0.6783091721461219
  0.7327584597955621  0.4653796747957983  0.6777570231582288
  0.7328615701230063  0.6661118650572462  0.6786531531655200
  0.7328014846293698  0.8658486431505494  0.6791357441872918
  0.9324115176106957  0.0657004238954073  0.6789798388662547
  0.9323560460130977  0.2654629109434623  0.6787618127934465
  0.9328280231134798  0.4655938160542590  0.6786547387442852
  0.9327406557608384  0.6659968014375934  0.6786471238298546
  0.9326161886914832  0.8659911987622237  0.6790639982604105
  0.0655740488209204  0.1322125869409021  0.5636122641928196
  0.0657431307348730  0.1322583115811184  0.7941460237573992
  0.0656675006887824  0.3322804114667335  0.5636233554733323
  0.0658160601453588  0.3323467718111530  0.7940373087945360
  0.0662125989783604  0.5324516232844303  0.5637444909718070
  0.0660994276712898  0.5324555061016483  0.7938932837596866
  0.0661131801493937  0.7326077380668963  0.5637454718452588
  0.0659965629397306  0.7324594438834211  0.7939120207067134
  0.0658568578713457  0.9324516678992225  0.5639361620565921
  0.0660540535630787  0.9325809353282324  0.7940360993254671
  0.2656886619426615  0.1320794295423724  0.5634581234275871
  0.2658577577656018  0.1321285171266169  0.7938253932995849
  0.2656742690553457  0.3325080582844961  0.5627588560080028
  0.2656618719924637  0.3323955023724281  0.7929473120233865
  0.2660721051040511  0.5327222318891245  0.5635949209114841
  0.2660112300345432  0.5325696666776452  0.7942024715964209
  0.2661699149412584  0.7325895814588677  0.5638332418718619
  0.2660386364058667  0.7325453974616707  0.7939690398082107
  0.2659375160928832  0.9323313871069274  0.5637188588533135
  0.2660491118410704  0.9325059261584485  0.7940073801795364
  0.4659509694446839  0.1323028940577942  0.5635335797859753
  0.4659813328679192  0.1325778528341885  0.7936984774057763
  0.4655876118930635  0.3319948727209123  0.5632304757303146
  0.4654279709888272  0.3318759078230755  0.7940320029076986
  0.4660419354901393  0.5325816074633849  0.5636593254332425
  0.4658978665118028  0.5322585370622264  0.7942855257697801
  0.4662887964667135  0.7326463255984166  0.5640574122692712
  0.4660465885494034  0.7326449083629072  0.7942547057619720
  0.4661652674527517  0.9325162248845587  0.5639600920941348
  0.4660587513584602  0.9326133809311159  0.7940827539145090
  0.6660151765812756  0.1321427908392252  0.5636032476934005
  0.6659921554391417  0.1326024694633006  0.7944047112208921
  0.6664837154313830  0.3323689181704665  0.5623145891926526
  0.6662831704446361  0.3317813800829015  0.7935287931164083
  0.6661294255023265  0.5326652315297977  0.5632720868088938
  0.6658899023474234  0.5330025953282131  0.7937410294416054
  0.6660335150486389  0.7326628959676285  0.5639097037250238
  0.6660462177963709  0.7320591412719750  0.7948425227235774
  0.6661448522121987  0.9324685008229565  0.5640743445398684
  0.6660632444738610  0.9325365926970690  0.7942622688597254
  0.8658419364663104  0.1322357261924125  0.5638789824770924
  0.8659549236868997  0.1323896895890542  0.7942216956750556
  0.8661302724885402  0.3323171266314588  0.5634380956748828
  0.8658117528255360  0.3324540519026584  0.7942429464595264
  0.8662806131185690  0.5325258710027541  0.5633591830530804
  0.8662994448584271  0.5324206669896654  0.7936991890194420
  0.8661791517734656  0.7328087170783846  0.5636914537981994
  0.8661332900749343  0.7324662181068504  0.7943444600302385
  0.8658995149457596  0.9324868770537051  0.5639876599140052
  0.8660881091861086  0.9326423557601942  0.7943627252053673
  0.2674979984819643  0.3422464935738105  0.9520788450585513
  0.6712070622460899  0.5732555215754900  0.9474777411895090
  0.6847625817073677  0.3185286965228826  0.9500336262993159
 
  0.00000000E+00  0.00000000E+00  0.00000000E+00
  0.00000000E+00  0.00000000E+00  0.00000000E+00
  0.00000000E+00  0.00000000E+00  0.00000000E+00
  0.00000000E+00  0.00000000E+00  0.00000000E+00
  0.00000000E+00  0.00000000E+00  0.00000000E+00
  0.00000000E+00  0.00000000E+00  0.00000000E+00
  0.00000000E+00  0.00000000E+00  0.00000000E+00
  0.00000000E+00  0.00000000E+00  0.00000000E+00
  0.00000000E+00  0.00000000E+00  0.00000000E+00
  0.00000000E+00  0.00000000E+00  0.00000000E+00
  0.00000000E+00  0.00000000E+00  0.00000000E+00
  0.00000000E+00  0.00000000E+00  0.00000000E+00
  0.00000000E+00  0.00000000E+00  0.00000000E+00
  0.00000000E+00  0.00000000E+00  0.00000000E+00
  0.00000000E+00  0.00000000E+00  0.00000000E+00
  0.00000000E+00  0.00000000E+00  0.00000000E+00
  0.00000000E+00  0.00000000E+00  0.00000000E+00
  0.00000000E+00  0.00000000E+00  0.00000000E+00
  0.00000000E+00  0.00000000E+00  0.00000000E+00
  0.00000000E+00  0.00000000E+00  0.00000000E+00
  0.00000000E+00  0.00000000E+00  0.00000000E+00
  0.00000000E+00  0.00000000E+00  0.00000000E+00
  0.00000000E+00  0.00000000E+00  0.00000000E+00
  0.00000000E+00  0.00000000E+00  0.00000000E+00
  0.00000000E+00  0.00000000E+00  0.00000000E+00
  0.00000000E+00  0.00000000E+00  0.00000000E+00
  0.00000000E+00  0.00000000E+00  0.00000000E+00
  0.00000000E+00  0.00000000E+00  0.00000000E+00
  0.00000000E+00  0.00000000E+00  0.00000000E+00
  0.00000000E+00  0.00000000E+00  0.00000000E+00
  0.00000000E+00  0.00000000E+00  0.00000000E+00
  0.00000000E+00  0.00000000E+00  0.00000000E+00
  0.00000000E+00  0.00000000E+00  0.00000000E+00
  0.00000000E+00  0.00000000E+00  0.00000000E+00
  0.00000000E+00  0.00000000E+00  0.00000000E+00
  0.00000000E+00  0.00000000E+00  0.00000000E+00
  0.00000000E+00  0.00000000E+00  0.00000000E+00
  0.00000000E+00  0.00000000E+00  0.00000000E+00
  0.00000000E+00  0.00000000E+00  0.00000000E+00
  0.00000000E+00  0.00000000E+00  0.00000000E+00
  0.00000000E+00  0.00000000E+00  0.00000000E+00
  0.00000000E+00  0.00000000E+00  0.00000000E+00
  0.00000000E+00  0.00000000E+00  0.00000000E+00
  0.00000000E+00  0.00000000E+00  0.00000000E+00
  0.00000000E+00  0.00000000E+00  0.00000000E+00
  0.00000000E+00  0.00000000E+00  0.00000000E+00
  0.00000000E+00  0.00000000E+00  0.00000000E+00
  0.00000000E+00  0.00000000E+00  0.00000000E+00
  0.00000000E+00  0.00000000E+00  0.00000000E+00
  0.00000000E+00  0.00000000E+00  0.00000000E+00
  0.00000000E+00  0.00000000E+00  0.00000000E+00
  0.00000000E+00  0.00000000E+00  0.00000000E+00
  0.00000000E+00  0.00000000E+00  0.00000000E+00
  0.00000000E+00  0.00000000E+00  0.00000000E+00
  0.00000000E+00  0.00000000E+00  0.00000000E+00
  0.00000000E+00  0.00000000E+00  0.00000000E+00
  0.00000000E+00  0.00000000E+00  0.00000000E+00
  0.00000000E+00  0.00000000E+00  0.00000000E+00
  0.00000000E+00  0.00000000E+00  0.00000000E+00
  0.00000000E+00  0.00000000E+00  0.00000000E+00
  0.00000000E+00  0.00000000E+00  0.00000000E+00
  0.00000000E+00  0.00000000E+00  0.00000000E+00
  0.00000000E+00  0.00000000E+00  0.00000000E+00
  0.00000000E+00  0.00000000E+00  0.00000000E+00
  0.00000000E+00  0.00000000E+00  0.00000000E+00
  0.00000000E+00  0.00000000E+00  0.00000000E+00
  0.00000000E+00  0.00000000E+00  0.00000000E+00
  0.00000000E+00  0.00000000E+00  0.00000000E+00
  0.00000000E+00  0.00000000E+00  0.00000000E+00
  0.00000000E+00  0.00000000E+00  0.00000000E+00
  0.00000000E+00  0.00000000E+00  0.00000000E+00
  0.00000000E+00  0.00000000E+00  0.00000000E+00
  0.00000000E+00  0.00000000E+00  0.00000000E+00
  0.00000000E+00  0.00000000E+00  0.00000000E+00
  0.00000000E+00  0.00000000E+00  0.00000000E+00
  0.00000000E+00  0.00000000E+00  0.00000000E+00
  0.00000000E+00  0.00000000E+00  0.00000000E+00
  0.00000000E+00  0.00000000E+00  0.00000000E+00
