Ta  N Co Cu                             
   1.00000000000000     
    18.1096308199999996    0.0000000000000000    0.0000000000000000
     0.0000000000000000   23.3551997799999995    0.0000000000000000
     0.0000000000000000    0.0000000000000000   30.4818171199999988
   Ta   N    Co   Cu
   216   240    24     4
Direct
  0.0049743118362142  0.9987939018354780  0.1940844645788614
  0.3381553747197315  0.0632354744458567  0.2005661364003301
  0.1784658460124251  0.0614173283793156  0.2029349524204948
  0.2592491678396062  0.1269022961227806  0.2820793733809447
  0.0891272659951173  0.0633667042413559  0.2821734420837521
  0.4215161262089834  0.0612904935140977  0.2863400368721709
  0.0024789341627405  0.1274195823646726  0.3683839334403156
  0.3362675589921866  0.0624339469442234  0.3714440201956261
  0.1714948485575326  0.0649628063173679  0.3675120431409004
  0.2508287909542053  0.1279807660059876  0.4589478465960035
  0.0814884307467720  0.0620733467964887  0.4526775644340539
  0.4208777696483056  0.0623293460232915  0.4568945543433643
  0.0059092412268589  0.1280712538615161  0.5431552668854678
  0.3384551968811390  0.0647657797908465  0.5487103884390209
  0.1632625836223763  0.0722432015882310  0.5498025235363805
  0.0011605420475428  0.1221062032039289  0.1928715265675978
  0.3336026136360086  0.1819097718343536  0.2027568105047882
  0.1801168422341884  0.1816440497609473  0.1999224930386626
  0.2600849399773856  0.2506873213954200  0.2810161259380152
  0.0901638795399609  0.1896549681629068  0.2803925525428371
  0.4235256537147350  0.1863951210906936  0.2851996879670320
  0.0015634337462149  0.2533290678948171  0.3678796960943183
  0.3404343883297760  0.1886620036305779  0.3736910947549804
  0.1725551903149650  0.1896155717042770  0.3677768782056529
  0.2499005200709516  0.2504323399987242  0.4620073875643063
  0.0870541361270248  0.1886170796863460  0.4539024376137498
  0.4179973274445739  0.1883936358933999  0.4616371403495280
  0.9912770566091885  0.2544235101557268  0.5474434111527163
  0.0022397343682563  0.2526180098095545  0.1916848047893907
  0.3369916736471602  0.3107834149767590  0.2064879834594475
  0.1665371606562335  0.3138358818136124  0.1976363295386950
  0.2578867196269182  0.3749686879902320  0.2802703266774938
  0.0898948268885501  0.3148828021600824  0.2799897717782524
  0.4253021285870392  0.3120156676245322  0.2842160088235273
  0.0006165610492818  0.3758912774853176  0.3668497921052344
  0.3391594521278100  0.3131077138514622  0.3716008081988917
  0.1724318820529755  0.3131843490954130  0.3681441354747250
  0.2509363251908053  0.3769891224254932  0.4615729120606188
  0.0765315726836856  0.3138874539584917  0.4530013308690652
  0.4180797833267123  0.3137945705256296  0.4585977092754340
  0.0047519846207669  0.3807273614716727  0.5485031940000298
  0.0036633201373095  0.3805496775530046  0.1908459920150531
  0.3413561317745906  0.4408941594849843  0.1956304998473327
  0.1846917877799680  0.4436845017297846  0.2007548313675383
  0.2568617389087829  0.9996850277987778  0.2815155846076762
  0.0904595660113905  0.4385535271885607  0.2799699657625942
  0.4199761467140505  0.4375148088879252  0.2839526707738675
  0.0006926539003837  0.0018456299910041  0.3683046764247788
  0.3354363538355447  0.4381943620046191  0.3699383947395504
  0.1710466545968710  0.4361941256632211  0.3682916222123727
  0.2503088949623611  0.0048170244644350  0.4614770914072668
  0.0811369279025711  0.4368680396134375  0.4533245867228807
  0.4186118821725987  0.4381562261929118  0.4556873910081891
  0.0071515920073094  0.9975060962041390  0.5441669307133913
  0.0092594911296881  0.5023594744910651  0.1896492512166038
  0.3368168755651739  0.5631065833341949  0.1976274274585000
  0.1811804077231397  0.5614753875917918  0.2035361216749865
  0.2522136677170397  0.6282305190280361  0.2830152496945573
  0.0867290077578698  0.5627140465262479  0.2809539918841787
  0.4191662904346449  0.5628483367520684  0.2838357533543009
  0.0002195335627572  0.6222947678952192  0.3675564488971678
  0.3350928217689914  0.5613492917668641  0.3694012693984750
  0.1685121974261496  0.5604554350445745  0.3683569756045640
  0.2509963528285569  0.6209675681450179  0.4579047639422035
  0.0804783354597046  0.5600960792367252  0.4530460229145911
  0.4190150623038668  0.5617346609222978  0.4526452594771659
  0.9720600234088440  0.5868753397401305  0.5448733155621966
  0.0035746850196071  0.6299616664122821  0.1939629215751210
  0.3288478427830967  0.6940034953630435  0.2042549281628066
  0.1688596199177703  0.6917198317638001  0.2024902571818135
  0.2527068577455072  0.7517657238493871  0.2863851411728551
  0.0838095739903874  0.6875570653125881  0.2840469123319501
  0.4187618449052627  0.6884062305837811  0.2849951040495887
  0.0035883280214509  0.7477036747045329  0.3721614638401007
  0.3357107434981728  0.6864435669815736  0.3698686442733222
  0.1679924245777860  0.6855974737472984  0.3697580371659578
  0.2583050385098291  0.7450429323483376  0.4582318680793753
  0.0848997627636731  0.6838035696727632  0.4548535074110394
  0.4210960199727196  0.6859090941283529  0.4526413092616092
  0.0111315667535687  0.7455051592816764  0.5471048773237849
  0.9945011794941464  0.7512268678336658  0.1958254401886324
  0.3273411833727629  0.8106931465007776  0.2074561656759216
  0.1683526275443758  0.8092004147612111  0.2040378859928544
  0.2561853741263346  0.8733454811515133  0.2842803352510920
  0.0827289595324279  0.8125733619800437  0.2854494608991272
  0.4217391717242634  0.8138728241723006  0.2864290463427074
  0.0030567701022152  0.8746629524044757  0.3717359210460601
  0.3375372198731669  0.8130129906513589  0.3736916194586464
  0.1709831834794892  0.8132030675259495  0.3702797730103570
  0.2521853645082662  0.8668427551814556  0.4645351349197779
  0.0899693266698021  0.8118309528208936  0.4583780155215537
  0.4211768165608043  0.8113364155172327  0.4620557517276133
  0.0111048660470258  0.8708290526383783  0.5466494628467483
  0.9974248554499863  0.8746531839221883  0.1958099332148796
  0.3404051180485769  0.9334770498844616  0.2042037339563609
  0.1661714721677659  0.9373586614291596  0.2036619785580819
  0.2526552728048371  0.4994804525137779  0.2810162007004019
  0.0846157536177932  0.9371562677439499  0.2829893892660042
  0.4216097878484540  0.9384936646177794  0.2864299922906242
  0.0020681619253254  0.4979627303734461  0.3657708239112576
  0.3358520366934019  0.9386791920379191  0.3720021924590524
  0.1713238148217754  0.9383370580459049  0.3682142411033033
  0.2522189168705037  0.4999985302701367  0.4606353104600983
  0.0806976370904849  0.9383637180348849  0.4516457320299643
  0.4216662658897986  0.9383203762349951  0.4575461852407388
  0.8524918716661333  0.4575240937098714  0.5416858855478500
  0.3371199902738283  0.9369997850226242  0.5456367813455775
  0.1627960040112291  0.9388609127697234  0.5417383785844714
  0.5016833608626077  0.9983093641390898  0.1990303905953776
  0.8469279613591261  0.0606148346429400  0.1992590504370826
  0.6792008112624652  0.0576451512540483  0.2033853535070983
  0.7584407430051286  0.1255232479100391  0.2803205089783212
  0.5890340791812511  0.0627129228337221  0.2826923074132832
  0.9235389980294920  0.0635148362780752  0.2841927115118141
  0.5046753100629698  0.1268427146431804  0.3708444671751884
  0.8349564620934105  0.0633000382943654  0.3694624196292389
  0.6693366626478500  0.0634636426403975  0.3692223612226929
  0.7502272511085921  0.1278135953221186  0.4614622001070071
  0.5849421055087171  0.0629488378869243  0.4562250333068849
  0.9162795321206811  0.0634616677897475  0.4549987611438043
  0.4973501887097280  0.1262035711968894  0.5484242870146891
  0.8561461927006031  0.0667724947747612  0.5490353155135896
  0.6572243966757955  0.0665135145925150  0.5491173188336080
  0.5024897920252812  0.1195954132145801  0.1971979841839466
  0.8348367965238813  0.1934165826857532  0.2044681863697619
  0.6755110029190278  0.1875102864754607  0.2002155617140143
  0.7596500305626913  0.2510974225469597  0.2824160173288522
  0.5898232346520833  0.1868331064921876  0.2819609785875239
  0.9252681120594773  0.1891196971497378  0.2842672587037593
  0.5054964703048692  0.2499779940253638  0.3709134044112484
  0.8378698431067614  0.1887842208308722  0.3707630173052383
  0.6717059336121507  0.1874229531800767  0.3703921385702046
  0.7491376246341511  0.2508487275868932  0.4626254817044237
  0.5850289313416851  0.1892911836614142  0.4592680103465556
  0.9216348802224918  0.1887862558821305  0.4572819831687850
  0.4956889811771007  0.2511732570848392  0.5511884103754601
  0.5004440549202106  0.2517133997125266  0.1930575087364867
  0.8304461442963054  0.3110408971653485  0.2059024300149031
  0.6657264772411303  0.3150572038805738  0.1974009824980228
  0.7557102900270706  0.3750192621304210  0.2789898940222517
  0.5873222453177112  0.3120343807335422  0.2823539966623745
  0.9239017329350040  0.3147206657567740  0.2825726069990242
  0.5036015491852012  0.3744966025800451  0.3680384276529932
  0.8366845660523460  0.3138858284759269  0.3708958531438904
  0.6717386945175085  0.3114410795383277  0.3679314990762076
  0.7480304566143982  0.3771059932654193  0.4560859921785730
  0.5830912622331560  0.3139768869680439  0.4559876127042118
  0.9110044551464235  0.3152899391092153  0.4604372096469396
  0.4902259658407062  0.3718620743674708  0.5467202328837528
  0.5006596122947535  0.3802882253949587  0.1939488349106743
  0.8417200436696970  0.4434801365157710  0.1936534131646488
  0.6784293255684879  0.4412675753582828  0.1976963032569713
  0.7533460948020675  0.9988368037434242  0.2804318453727363
  0.5897686429968467  0.4380269320127478  0.2799156382015774
  0.9221778648148389  0.4385853398260334  0.2790849172054045
  0.5031219028937605  0.0005614541816144  0.3708826350219231
  0.8355542600206373  0.4383330560406944  0.3639824182262900
  0.6704189576654528  0.4354130293578664  0.3667011459994306
  0.7510258833656569  0.0046190389843316  0.4557910625753044
  0.5823745604092009  0.4377626519369642  0.4535712832008647
  0.9161542124444730  0.4376395786791492  0.4520945836930890
  0.5028205078074922  0.0006247393656955  0.5475426667749673
  0.4976598031738723  0.5043958118763595  0.1979025690593787
  0.8413726358963278  0.5623362346680044  0.1965192655866617
  0.6786875097452316  0.5609006878307663  0.1995463095171505
  0.7529950576872634  0.6263585983711853  0.2802934022018754
  0.5884900176141102  0.5617014394744334  0.2802281000760192
  0.9213456872864320  0.5618924508961815  0.2794954954680668
  0.5028056088425036  0.6244498636233364  0.3668833975486701
  0.8349218061375012  0.5610598436500103  0.3638455346978316
  0.6680942108015678  0.5600019231698612  0.3670611944114859
  0.7482106799790370  0.6216579262749068  0.4552713227013974
  0.5834911789790982  0.5601684357780594  0.4522750448090367
  0.9135057124072939  0.5590308117602711  0.4516824596296692
  0.4928783818395526  0.6220858560043045  0.5381320190405156
  0.4955836950606139  0.6248006932622293  0.1975286501800445
  0.8292965773296078  0.6928920704957969  0.2072082019151587
  0.6704250622183094  0.6868974124295943  0.1998356005830679
  0.7565302958580775  0.7496822876117127  0.2867799801435256
  0.5851548285244570  0.6862885013871024  0.2817490766597724
  0.9199066101339944  0.6870661156884798  0.2857283515203585
  0.5052629645429598  0.7500812725200100  0.3707780645265933
  0.8348200268331164  0.6846092382251748  0.3710525589945275
  0.6693305506182247  0.6859847537395557  0.3693713520503736
  0.7537284728226880  0.7524296394657112  0.4631774753953816
  0.5873582847443666  0.6857982666210979  0.4556521290164333
  0.9177766590211123  0.6822683796993180  0.4593671304766457
  0.5046381788917559  0.7443543508988589  0.5469510398577659
  0.4984826097955257  0.7480155146953531  0.1941310072855488
  0.8236074495782518  0.8076401256941682  0.2101059858079239
  0.6668903898521237  0.8123016709864542  0.1995501956328322
  0.7537106820859640  0.8727863072377663  0.2837559206510504
  0.5858515671259138  0.8113543737325811  0.2838717302991213
  0.9191146989880952  0.8133848192491904  0.2885283359170376
  0.5036535071488693  0.8747556462148708  0.3722983155390818
  0.8357787157698048  0.8111040185390367  0.3734051248807127
  0.6697981170939075  0.8111729481928784  0.3704579389253890
  0.7510356167607296  0.8772282678671202  0.4571655987716539
  0.5874197590651905  0.8121476396332141  0.4582429585640277
  0.9272309501299055  0.8040492075894153  0.4524209690223414
  0.4988392146232891  0.8686802220440618  0.5478621057110440
  0.5043929695824120  0.8768835939733716  0.1947588235419910
  0.8454262683002247  0.9380378993045320  0.2002935420375498
  0.6683385776947360  0.9373172161455100  0.2013876445710907
  0.7528441332218103  0.5011029735589152  0.2752394844069749
  0.5873175302651239  0.9365762496802064  0.2844273228669176
  0.9204311620313791  0.9382268797855433  0.2855436260958520
  0.5025462697566634  0.4994179313089764  0.3660410397715874
  0.8355164740201050  0.9386910577621748  0.3698286819910463
  0.6687238798673717  0.9377464936165106  0.3700914048435896
  0.7438355766497988  0.4986286172574849  0.4542132673701896
  0.5881082122517641  0.9389156790225599  0.4554436590026791
  0.9172343679855486  0.9394908909870622  0.4551386391484741
  0.4159075359752091  0.5148113920265310  0.5480038114298874
  0.8488790042090304  0.9307327536634976  0.5553032113158738
  0.6669479710201188  0.9329384797641167  0.5490193749337049
  0.4077641864782119  0.9989222474557616  0.2343590201371009
  0.2570704447909120  0.9967934079104599  0.2084834938086838
  0.0980305585046649  0.0002059650770807  0.2316129016375556
  0.1590470604801951  0.1272423554544043  0.3150519292148487
  0.0074779759272279  0.1263363104436389  0.3011644010108242
  0.3545149741641038  0.1251837971608775  0.3197682604612100
  0.4064087730321427  0.1253722392842954  0.4061173856034035
  0.2544595677420995  0.1267993842461304  0.3898202926613238
  0.1013451988333372  0.1263911097975429  0.4005974359913897
  0.1480309422282946  0.1219529585965114  0.4870914035953638
  0.0023944143882142  0.1251860714967191  0.4745416656249172
  0.3512735834290330  0.1217370531566871  0.4913431356339026
  0.4004051331900182  0.1298157690621100  0.5758146617012471
  0.2528127334080041  0.0854725282974038  0.5829565970201220
  0.1001589178629404  0.1346513861806313  0.5735223539916715
  0.4103508370977690  0.1227874573705580  0.2344393444446936
  0.2568064211785906  0.1211643059135833  0.1758634222259548
  0.0983692240739825  0.1241298701060019  0.2289824525435419
  0.1601417838284344  0.2520280887001188  0.3146967221246963
  0.0076832583248877  0.2527851709150027  0.3004626013253900
  0.3549039039203984  0.2499674028742009  0.3190149748456450
  0.4078188049848222  0.2506628362283579  0.4064852851074137
  0.2549651577782523  0.2516181954239678  0.3912925043848369
  0.1001994954202449  0.2517517578244806  0.4005843237053965
  0.1452047057324741  0.2547253398739190  0.4857924438884966
  0.9983473832293817  0.2524587839434457  0.4785705482315245
  0.3519844251226753  0.2532330817647929  0.4909628308610413
  0.3896330858484664  0.2520154658737973  0.5738630996865987
  0.2450181531625265  0.1892793728829610  0.5126657266315015
  0.0975007447814715  0.2531123479407044  0.5662843875958801
  0.4122949256187345  0.2474051989891935  0.2330892501694177
  0.2533591936825123  0.2499889538284950  0.2019409401085437
  0.0977949850774471  0.2511033891099325  0.2271802459727331
  0.1592756491225222  0.3756309563588781  0.3148106425319043
  0.0061479799955376  0.3770603120835380  0.2992131030216071
  0.3532931976423221  0.3751062765316495  0.3176163876406284
  0.4059989600019882  0.3758610256619122  0.4033707966317338
  0.2538984812963434  0.3754262409831624  0.3912104252430973
  0.0990265605663818  0.3751669076230593  0.4002375227993712
  0.1447832892092496  0.3719738571976796  0.4844620072041022
  0.9972402244652029  0.3779359492204443  0.4790528762366912
  0.3545227409968960  0.3743378597200356  0.4893009092114841
  0.3380967345413905  0.3660132738167373  0.5811650822941005
  0.2453606734857079  0.4385216413816043  0.5120979773809421
  0.1074312316799389  0.3775157048666482  0.5688673152739341
  0.4103619137973832  0.3762416103718937  0.2325018211742042
  0.2573199073714240  0.3758256952285231  0.2069584312951902
  0.0995711103405644  0.3782091625278797  0.2268571517369353
  0.1584130193250028  0.0004696406009381  0.3157397299864027
  0.0044012353965964  0.0008512007005492  0.3017412060340042
  0.3515913148420428  0.9999793896168404  0.3191771637775738
  0.4050686703166986  0.0002841857465577  0.4049075073373621
  0.2526353627273989  0.0006993001751468  0.3907624695022912
  0.0999725772425219  0.0014053942953292  0.3998248189145199
  0.1446047934323533  0.0003153830340026  0.4844587947671357
  0.9995395320020418  0.0003494372949778  0.4746737141153941
  0.3562786985973229  0.0002508418950925  0.4887872427478359
  0.4030880631775614  0.0002082134580848  0.5752345626694599
  0.2495216237912782  0.0020664341185108  0.5337360559126163
  0.1012481702560855  0.0100799466357874  0.5734515087817424
  0.4019392863206080  0.5010165835859706  0.2329040122549749
  0.2602833980209324  0.5024653450184786  0.1745584842291566
  0.1013701003079416  0.5011252265900482  0.2284117154099257
  0.1543704716890760  0.6243386158390878  0.3165898441033870
  0.0024430629192642  0.6235192615577423  0.3006975543381615
  0.3495304034893125  0.6246567873859705  0.3172553637742040
  0.4045949058832348  0.6237276829188979  0.4001908535612113
  0.2515324790227170  0.6228377782314957  0.3891737941552773
  0.0985681635218022  0.6223176915149119  0.4013966368154364
  0.1457124117767841  0.6224620296670001  0.4861768195877853
  0.9960838350595496  0.6170941965915934  0.4767683857244291
  0.3548170949657238  0.6267957386069001  0.4824335418362598
  0.3899722079476052  0.6030695386782100  0.5614669544376064
  0.2470682156131290  0.5624619786746973  0.5125771954382935
  0.0762430587316235  0.5896848260937058  0.5637612838950556
  0.4030037407625472  0.6269278775798364  0.2333486332973818
  0.2542951752710355  0.6285050083705433  0.2117101328074799
  0.0977938909183986  0.6259083630744551  0.2306735211912281
  0.1535885245731987  0.7504295598458758  0.3183066383148456
  0.0017819001207014  0.7495807254728014  0.3051372774282651
  0.3521954757591224  0.7516382144725408  0.3197030151823239
  0.4066028713287451  0.7515006157762103  0.4045707162015260
  0.2537838813398371  0.7489121587891976  0.3896598260262099
  0.1018047005178525  0.7491726602708892  0.4034693263217695
  0.1537376783811303  0.7440768060685223  0.4818121855193273
  0.0053188949940346  0.7440705043027996  0.4779910005742287
  0.3571877936453287  0.7437062629687385  0.4904324721405733
  0.4015228464438433  0.7399156622637547  0.5697693615379905
  0.2479394057421990  0.8042445257677868  0.5128371920091006
  0.1107620617522399  0.7224344797296053  0.5690553255180317
  0.4085741060555840  0.7515751385734823  0.2338793306650638
  0.2489661343583864  0.7524728764313765  0.1806673783726724
  0.0900140982812805  0.7507759875297099  0.2327476956997905
  0.1564237242994844  0.8752510264046944  0.3171555863958737
  0.0020526809830636  0.8759188496473552  0.3049157228745229
  0.3524743794242394  0.8757486063853785  0.3206916060069038
  0.4054204302854253  0.8753110649838222  0.4067888203336891
  0.2535062133343493  0.8755349916378523  0.3930824866952898
  0.1021335736985084  0.8752598826224534  0.4023753465437966
  0.1465995650889096  0.8809731064463785  0.4880036826272910
  0.0018117456936796  0.8731716030008239  0.4750690633023160
  0.3544650249389382  0.8785344275545798  0.4914526904147358
  0.4018038525591603  0.8750132993304233  0.5750110898291142
  0.2474051021804455  0.9017293636261650  0.5674818863278918
  0.0887418272041079  0.9008840993198443  0.5809655436066123
  0.4114921462486754  0.8744062061500184  0.2340697660944873
  0.2492438979411287  0.8756069881127984  0.2102256966271129
  0.0919899143061544  0.8740657488832371  0.2323558429186905
  0.1566688766275889  0.4995714332722346  0.3156081615485293
  0.0045771965327952  0.4996250988050045  0.2984640017980057
  0.3502367459213655  0.4998368553978928  0.3167882898940067
  0.4045972342244133  0.4995007674187423  0.4009370023635151
  0.2523056776134362  0.4992874225226638  0.3896483772669978
  0.0997444802056218  0.4983168413803818  0.3999132891021025
  0.1435332977544133  0.4993045294903081  0.4842888395137708
  0.9975516996794760  0.4993527501106247  0.4687082129002292
  0.3587782611475863  0.5008947578054916  0.4868639571074677
  0.3165381058639593  0.4974616298503259  0.5753196143016727
  0.1559350446020166  0.4899766539910726  0.5737727180759680
  0.9272884218184098  0.5138731223798924  0.5592794372342419
  0.9132893293873759  0.9997966242416836  0.2325434825450067
  0.7604331230939179  0.9973385538299543  0.1908597167855139
  0.5992950039010225  0.9991857148643256  0.2323484812822725
  0.6595214092562363  0.1252532701445924  0.3161005989965632
  0.5066300431762427  0.1244532604056535  0.3028763419334186
  0.8541177572001107  0.1259834132727372  0.3172077701019773
  0.9043727284740809  0.1264027233669165  0.4031770901274748
  0.7536472334691029  0.1263016926371255  0.3908282613517852
  0.6015457268245454  0.1258568503245086  0.4047129843734057
  0.6485146962654134  0.1226064545985313  0.4914345983059494
  0.5012958283415132  0.1250538879866356  0.4795550028418190
  0.8544509588341812  0.1241770541476959  0.4902381133401508
  0.9108629700421538  0.1331890094852159  0.5735083638675839
  0.7564279127287871  0.0674018178813279  0.5862260608726264
  0.5969846086770735  0.1281690738973133  0.5758461587207553
  0.9130341140622639  0.1260143916700127  0.2324739136587922
  0.7590095091433554  0.1240487011365110  0.2081577396242357
  0.6000695304089888  0.1232978358277649  0.2305467447646864
  0.6585714371311913  0.2493096250098816  0.3159464813449182
  0.5072465383438600  0.2485950867653154  0.3025617537280153
  0.8552331871109978  0.2518573773861367  0.3182671489429794
  0.9047024017816724  0.2521196373235595  0.4049274058918399
  0.7538668431967159  0.2502170818932322  0.3915181319660308
  0.6021210476213236  0.2499502930548161  0.4047959567041741
  0.6473756582115496  0.2547526799762531  0.4909015159083697
  0.5006624888397011  0.2506148177604243  0.4813325231806171
  0.8506290153541797  0.2513896904389152  0.4902611027498746
  0.8886363194239104  0.2546125907955898  0.5722177193085576
  0.7509167424439186  0.1882648553796052  0.5156560322004784
  0.6009484570206012  0.2465796220607924  0.5726180976616841
  0.9138136745392559  0.2517826479871792  0.2321848893684820
  0.7490535252603771  0.2525089751082725  0.1834113066278064
  0.5975166063593497  0.2501907791851586  0.2286666941529539
  0.6580258985400447  0.3744452222734189  0.3143295507870656
  0.5062812868459889  0.3759268550679217  0.3007711851989039
  0.8531574574638724  0.3759430449857289  0.3145273536209588
  0.9023973089036680  0.3764164510958493  0.4018770351143579
  0.7533184448006283  0.3757269217178040  0.3877537627596605
  0.6012923911875556  0.3746588242816156  0.4013329687139618
  0.6508181566038790  0.3757636232434781  0.4868580383963693
  0.5008981969460147  0.3767121708447635  0.4787309828349356
  0.8447479384222946  0.3793647000701719  0.4903524898478423
  0.9032290914043519  0.3897554544702753  0.5715822006593185
  0.7470308278379536  0.4352984024928785  0.5574630775386495
  0.5915403322770594  0.3775572545938014  0.5667408718892135
  0.9116538609453031  0.3767986443552519  0.2280885956213011
  0.7554043717309368  0.3777347024009582  0.2074833439155795
  0.5981399987130952  0.3772799253484025  0.2282880954534781
  0.6580019158167399  0.9999881418072991  0.3169848785551336
  0.5054594504070439  0.0001552938541634  0.3036907819429719
  0.8499061640597718  0.0007655547810123  0.3168281406537878
  0.9029314293157096  0.0009742825671764  0.4026254756990168
  0.7520966480399714  0.0011795388600851  0.3886675426680242
  0.6013512861296328  0.0010607794728525  0.4036063773598058
  0.6544264006080044  0.0006466311749703  0.4899726587815534
  0.5043139262295184  0.0000396526363490  0.4784953735507012
  0.8510992960011181  0.0056659032639765  0.4875096195484684
  0.9119236775459996  0.0008396547889873  0.5750131778801001
  0.7563469329726726  0.0212413411029322  0.5542528144163629
  0.6018151644533862  0.9990905507745371  0.5748408328059320
  0.9147714333315025  0.5010188688891342  0.2262210527432328
  0.7582126851727530  0.5018594849182547  0.1743384832795898
  0.6005226606446523  0.5005955534509247  0.2276983772089297
  0.6556359001261483  0.6243061375605234  0.3151846459217462
  0.5030882579640710  0.6243727883073166  0.3001300030470913
  0.8500089344170838  0.6240588026422543  0.3152867646007618
  0.9019025923143010  0.6216768574998102  0.4013793195513969
  0.7513914752703627  0.6222943293028004  0.3871163571034217
  0.6004677591034000  0.6231981544665750  0.4008409728278192
  0.6510042998919306  0.6222208358573498  0.4860594920939872
  0.5028366845615061  0.6230391268605425  0.4720427544540454
  0.8453097722037751  0.6193765097491247  0.4859007870174143
  0.8835485234794851  0.6269163765066241  0.5691489340280261
  0.5997776920566611  0.6889233415374537  0.7414794954938400
  0.5912854258312027  0.6207889274763184  0.5669872128419926
  0.9104227972700805  0.6272610326008476  0.2306670958615712
  0.7556683083374550  0.6248549698703262  0.2088354968603629
  0.5973985481385997  0.6235265038509569  0.2286764147650830
  0.6547122455136468  0.7486244860489117  0.3172801620568981
  0.5033817516827584  0.7497711742211212  0.3029184428516039
  0.8521166526100001  0.7489895918291670  0.3215999152811827
  0.9035833051089703  0.7429421522586254  0.4044746233737015
  0.7527348722881405  0.7481242744756749  0.3922393427274479
  0.6017971267975034  0.7494417624584716  0.4047047081189203
  0.6523927708271344  0.7460848680603841  0.4907212571870120
  0.5045982833165303  0.7481631582711481  0.4781350785289717
  0.8570229330393628  0.7456181787966261  0.4907175372078422
  0.9183378587009531  0.7422033801967515  0.5759581988887114
  0.7490226902338382  0.8169514872232930  0.5094622433572024
  0.6092798977236616  0.7546489543930889  0.5696151696417524
  0.9072102373685871  0.7516043674332844  0.2364427772391274
  0.7461998407816306  0.7503422276402522  0.1822931761878885
  0.5953459874593368  0.7493383319683754  0.2301184081497447
  0.6559593303698040  0.8740255942768881  0.3176908186733909
  0.5044301006384913  0.8754795692044970  0.3048436721687439
  0.8497076763645601  0.8756090159884216  0.3194560566169271
  0.9028296916982622  0.8748290405641299  0.4054449285424440
  0.7527859736335584  0.8755593596180087  0.3890046527544925
  0.6017305306952925  0.8747092267496662  0.4048854921285160
  0.6522117431639824  0.8802344215283370  0.4899928346600717
  0.5036576610041930  0.8757535643207816  0.4796217133134398
  0.8370352683710611  0.9013068239134414  0.4922787469555864
  0.9153442311468682  0.8706338041543487  0.5754569448123912
  0.7549919346831691  0.9197810688146066  0.5831520029716613
  0.5994187149911323  0.8751052261842276  0.5731620406408348
  0.9064513232046747  0.8737874605665719  0.2347961341227655
  0.7519294346861956  0.8762831706942367  0.2115025858189175
  0.5964568842398481  0.8751528507980788  0.2325394730057047
  0.6579159869031941  0.4992876666064305  0.3137399529753570
  0.5044222265467877  0.4997653382648699  0.2990480867423883
  0.8501637661467871  0.5000206030747678  0.3109385543569008
  0.9018090674984133  0.4989842459276577  0.3977909642550516
  0.7516078504060275  0.4989754896716277  0.3855399619603070
  0.6001000013935606  0.4981295871998440  0.4000542815408070
  0.6473379232689889  0.4995161699160697  0.4866874110431998
  0.4991585311356218  0.4998207782843570  0.4746438029915163
  0.8456533977756964  0.4978560083791596  0.4812208328540850
  0.5995805794918800  0.2779523895032627  0.7275345871142561
  0.6306477905522677  0.5002352312472826  0.5689121813034425
  0.4693466849344162  0.4788566385716427  0.5984821967253134
  0.3626413201687819  0.1894867038655596  0.5391336505382767
  0.1355549248433034  0.1943972192306718  0.5331259337712624
  0.3541440760008531  0.3127851576195592  0.5372278681928474
  0.1236084683947935  0.3147847407730219  0.5327593325241732
  0.2827644904711177  0.4279697412017795  0.5654648298051712
  0.1490713534548518  0.4360524804798234  0.5362632975296245
  0.2985797644469090  0.5706306226778693  0.5619542307259529
  0.1531642146760496  0.5483895391137171  0.5385184016693887
  0.3720150039301403  0.6808318110307202  0.5327922641118363
  0.1154211814234934  0.6547488196804938  0.5423913781507761
  0.3737109652948716  0.8061412468380245  0.5412991756708292
  0.1766456453927694  0.7611428512275739  0.5380405218696930
  0.8586252666487242  0.1936840192228974  0.5361975986984762
  0.6372046713953382  0.1887301286212080  0.5386139069065322
  0.8722259777038031  0.3220424539706153  0.5424555232693091
  0.6213632678773706  0.3088295830472369  0.5391668185769860
  0.7186077619422331  0.4902308129482555  0.5899848466708425
  0.6475451070982547  0.4349458069526331  0.5328744072236723
  0.8118862344340498  0.5914355447424757  0.5399304103713769
  0.6378121364210957  0.5649850986120886  0.5323006011545028
  0.8755470613965749  0.6929168839850927  0.5411794414399912
  0.6276756158807966  0.6886509639986306  0.5399177619477091
  0.8908535131607567  0.8430771801916702  0.5142528545495431
  0.6443046800399536  0.8122508426230999  0.5344288350436189
  0.5524937651820264  0.4343005177379241  0.6067731142035119
  0.3984372879954059  0.4181012188518142  0.6105431374387086
  0.5468218741602606  0.5422618270359606  0.5911520027014837
  0.3947494884726342  0.3098783533714116  0.6177718888588509
 
  0.48637354+119  0.57640228+120 -0.20648372+121
  0.28601463+121 -0.24594135+121 -0.49747745+121
  0.35852400+120 -0.11797687+120 -0.31366911+120