Ta  N Cu 
 1.0000000000000000
    18.1096308199999996    0.0000000000000000    0.0000000000000000
     0.0000000000000000   23.3551997799999995    0.0000000000000000
     0.0000000000000000    0.0000000000000000   30.4818170799999990
 240 240  29
Selective dynamics
Cartesian
 18.0467849999999999 23.3370749999999987  5.9429200000000000   F   F   F
  5.9337580000000001  1.3571839999999999  6.1383359999999998   F   F   F
  3.0491630000000001  1.3553470000000001  6.1385690000000004   F   F   F
  4.4885799999999998  2.8951030000000002  8.5359409999999993   F   F   F
  1.4616140000000000  1.4396510000000000  8.6229130000000005   F   F   F
  7.5172619999999997  1.4401770000000000  8.6232360000000003   F   F   F
 18.0706249999999997  2.8939759999999999 11.2393239999999999   F   F   F
  5.9845100000000002  1.4365000000000001 11.2142110000000006   F   F   F
  2.9960619999999998  1.4357160000000000 11.2139740000000003   F   F   F
  4.4902590000000000  2.8953690000000001 13.8778360000000003   F   F   F
  1.4798849999999999  1.4340059999999999 13.8361630000000009   F   F   F
  7.5008889999999999  1.4353270000000000 13.8370429999999995   F   F   F
 18.0768999999999984  2.8949739999999999 16.4712969999999999   F   F   F
  6.0349830000000004  1.4336890000000000 16.5276870000000002   F   F   F
  2.9524360000000001  1.4349090000000000 16.5227029999999999   F   F   F
 18.1047219999999989  2.8962930000000000  5.9427240000000001   F   F   F
  5.9331519999999998  4.4370900000000004  6.1383080000000003   F   F   F
  3.0489609999999998  4.4380629999999996  6.1414080000000002   F   F   F
  4.4865779999999997  5.8117369999999999  8.5561290000000003   F   F   F
  1.4593630000000000  4.3503280000000002  8.6245139999999996   F   F   F
  7.5164910000000003  4.3507059999999997  8.6230560000000001   F   F   F
 18.0676260000000006  5.8124890000000002 11.2453550000000000   F   F   F
  5.9824770000000003  4.3525919999999996 11.2146159999999995   F   F   F
  2.9935860000000001  4.3531079999999998 11.2153209999999994   F   F   F
  4.4837030000000002  5.8083150000000003 13.8761159999999997   F   F   F
  1.4752140000000000  4.3501260000000004 13.8361640000000001   F   F   F
  7.5012420000000004  4.3501320000000003 13.8396000000000008   F   F   F
 18.0629840000000002  5.8174599999999996 16.4721949999999993   F   F   F
  6.0129659999999996  4.3254619999999999 16.5288350000000008   F   F   F
  2.9361530000000000  4.3514309999999998 16.5185519999999997   F   F   F
 18.0451790000000010  5.8108740000000001  5.9469040000000000   F   F   F
  5.9346059999999996  7.1945249999999996  6.1376869999999997   F   F   F
  3.0477140000000000  7.1913950000000000  6.1406799999999997   F   F   F
  4.4855099999999997  8.7317610000000005  8.5361019999999996   F   F   F
  1.4586790000000001  7.2738730000000000  8.6246159999999996   F   F   F
  7.5160470000000004  7.2744419999999996  8.6228140000000000   F   F   F
 18.0712299999999999  8.7314640000000008 11.2466880000000007   F   F   F
  5.9827110000000001  7.2712050000000001 11.2117229999999992   F   F   F
  2.9904839999999999  7.2724339999999996 11.2138039999999997   F   F   F
  4.4734200000000000  8.7306539999999995 13.8628300000000007   F   F   F
  1.4684420000000000  7.2709109999999999 13.8403650000000003   F   F   F
  7.4995630000000002  7.2685389999999996 13.8290389999999999   F   F   F
 18.0394970000000008  8.7433990000000001 16.4932470000000002   F   F   F
  5.9438069999999996  7.2375790000000002 16.4598869999999984   F   F   F
  2.9084449999999999  7.2594200000000004 16.5149159999999995   F   F   F
 18.1091650000000008  8.7248470000000005  5.9482869999999997   F   F   F
  5.9303270000000001 10.2730280000000000  6.1361350000000003   F   F   F
  3.0503659999999999 10.2749349999999993  6.1400119999999996   F   F   F
  4.4903360000000001 23.3339010000000009  8.5545030000000004   F   F   F
  1.4571019999999999 10.1870320000000003  8.6241740000000000   F   F   F
  7.5163430000000000 10.1876449999999998  8.6200259999999993   F   F   F
 18.0741399999999999 23.3325539999999982 11.2373390000000004   F   F   F
  5.9827300000000001 10.1919109999999993 11.2075119999999995   F   F   F
  2.9879579999999999 10.1925000000000008 11.2112300000000005   F   F   F
  4.4939859999999996 23.3327570000000009 13.8796320000000009   F   F   F
  1.4763649999999999 10.1934799999999992 13.8519349999999992   F   F   F
  7.4944600000000001 10.1908449999999995 13.8171400000000002   F   F   F
 18.0762940000000008 23.3332329999999999 16.4702990000000007   F   F   F
  5.9575540000000000 10.1691629999999993 16.4443340000000013   F   F   F
  2.9053330000000002 10.1654750000000007 16.5174249999999994   F   F   F
 18.0623180000000012 11.6488969999999998  5.9357860000000002   F   F   F
  5.9326200000000000 13.0333269999999999  6.1362490000000003   F   F   F
  3.0512940000000000 13.0296610000000008  6.1398229999999998   F   F   F
  4.4875819999999997 14.5738730000000007  8.5313060000000007   F   F   F
  1.4566920000000001 13.1150579999999994  8.6205750000000005   F   F   F
  7.5186289999999998 13.1157859999999999  8.6177930000000007   F   F   F
 18.0814100000000018 14.5751890000000000 11.2423549999999999   F   F   F
  5.9852049999999997 13.1155830000000009 11.2072280000000006   F   F   F
  2.9926539999999999 13.1139840000000003 11.2090150000000008   F   F   F
  4.4855809999999998 14.5763259999999999 13.8579629999999998   F   F   F
  1.4939629999999999 13.1150629999999992 13.8564950000000007   F   F   F
  7.4917619999999996 13.1187520000000006 13.8212069999999994   F   F   F
 18.0760119999999986 14.5745480000000001 16.4612139999999982   F   F   F
  5.9916510000000001 13.1103369999999995 16.4478709999999992   F   F   F
  2.8977849999999998 13.1072129999999998 16.5496370000000006   F   F   F
  0.0127220000000000 14.5749309999999994  5.9444419999999996   F   F   F
  5.9339440000000003 16.1151820000000008  6.1355860000000000   F   F   F
  3.0516169999999998 16.1165139999999987  6.1386839999999996   F   F   F
  4.4894379999999998 17.4954409999999996  8.5492010000000001   F   F   F
  1.4589900000000000 16.0327100000000016  8.6196809999999999   F   F   F
  7.5190270000000003 16.0329669999999993  8.6186740000000004   F   F   F
 18.0789620000000006 17.4973020000000012 11.2362850000000005   F   F   F
  5.9855039999999997 16.0358289999999997 11.2090060000000005   F   F   F
  2.9950510000000001 16.0341689999999986 11.2090809999999994   F   F   F
  4.4921179999999996 17.4949639999999995 13.8755290000000002   F   F   F
  1.4908020000000000 16.0357960000000013 13.8445730000000005   F   F   F
  7.4958429999999998 16.0407539999999997 13.8327519999999993   F   F   F
 18.0767920000000011 17.4959360000000004 16.4570800000000013   F   F   F
  5.9854770000000004 16.0713439999999999 16.4850959999999986   F   F   F
  2.9158940000000002 16.0511179999999989 16.5365310000000001   F   F   F
 18.0643870000000000 17.4992979999999996  5.9318020000000002   F   F   F
  5.9335350000000000 18.8746620000000007  6.1336810000000002   F   F   F
  3.0528189999999999 18.8728419999999986  6.1355550000000001   F   F   F
  4.4908080000000004 20.4159299999999995  8.5345150000000007   F   F   F
  1.4621940000000000 18.9593029999999985  8.6203160000000008   F   F   F
  7.5179539999999996 18.9599280000000014  8.6202970000000008   F   F   F
 18.0769860000000016 20.4156739999999992 11.2350010000000005   F   F   F
  5.9848770000000000 18.9549169999999982 11.2116670000000003   F   F   F
  2.9973779999999999 18.9541159999999991 11.2110219999999998   F   F   F
  4.4925629999999996 20.4158730000000013 13.8731530000000003   F   F   F
  1.4845250000000001 18.9576659999999997 13.8338509999999992   F   F   F
  7.5001139999999999 18.9611240000000016 13.8341700000000003   F   F   F
 18.0787499999999994 20.4150840000000002 16.4663709999999988   F   F   F
  6.0080920000000004 18.9944190000000006 16.5185320000000004   F   F   F
  2.9465699999999999 18.9610829999999986 16.5205419999999989   F   F   F
  0.0015610000000000 20.4231650000000009  5.9429770000000000   F   F   F
  5.9358820000000003 21.9562929999999987  6.1357989999999996   F   F   F
  3.0485750000000000 21.9555369999999996  6.1374670000000000   F   F   F
  4.4843669999999998 11.6529220000000002  8.5500729999999994   F   F   F
  1.4631419999999999 21.8715690000000009  8.6220730000000003   F   F   F
  7.5172480000000004 21.8721269999999990  8.6220719999999993   F   F   F
 18.0766239999999989 11.6521240000000006 11.2469769999999993   F   F   F
  5.9847599999999996 21.8738150000000005 11.2128350000000001   F   F   F
  2.9977330000000002 21.8731679999999997 11.2123390000000001   F   F   F
  4.4775729999999996 11.6526750000000003 13.8527520000000006   F   F   F
  1.4820580000000001 21.8740589999999990 13.8349080000000004   F   F   F
  7.5015530000000004 21.8762009999999982 13.8353370000000009   F   F   F
 18.0845990000000008 11.6523199999999996 16.4765639999999998   F   F   F
  6.0370770000000000 21.8852580000000003 16.5272860000000001   F   F   F
  2.9535999999999998 21.8778340000000000 16.5224550000000008   F   F   F
  9.0434830000000002 23.3371110000000002  5.9413330000000002   F   F   F
 14.9900249999999993  1.5175780000000001  6.1405930000000000   F   F   F
 12.0987500000000008  1.5154609999999999  6.1404389999999998   F   F   F
 13.5453709999999994  2.8952320000000000  8.5529430000000009   F   F   F
 10.5123590000000000  1.4331659999999999  8.6230189999999993   F   F   F
 16.5768039999999992  1.4335300000000000  8.6221090000000000   F   F   F
  9.0168569999999999  2.8948230000000001 11.2392090000000007   F   F   F
 15.0395040000000009  1.4357500000000001 11.2121139999999997   F   F   F
 12.0494859999999999  1.4358679999999999 11.2123279999999994   F   F   F
 13.5458979999999993  2.8939219999999999 13.8763179999999995   F   F   F
 10.5361469999999997  1.4333400000000001 13.8363099999999992   F   F   F
 16.5552689999999991  1.4331950000000000 13.8361479999999997   F   F   F
  9.0117329999999995  2.9047700000000001 16.4659529999999990   F   F   F
 15.0830219999999997  1.4251330000000000 16.5216880000000010   F   F   F
 12.0051469999999991  1.4190229999999999 16.5260010000000008   F   F   F
  8.9842530000000007  2.8957079999999999  5.9417119999999999   F   F   F
 14.9894200000000009  4.2778210000000003  6.1427079999999998   F   F   F
 12.0982679999999991  4.2777830000000003  6.1408769999999997   F   F   F
 13.5441230000000008  5.8104579999999997  8.5419000000000000   F   F   F
 10.5118559999999999  4.3569420000000001  8.6238410000000005   F   F   F
 16.5755039999999987  4.3578260000000002  8.6240690000000004   F   F   F
  9.0164869999999997  5.8102619999999998 11.2418879999999994   F   F   F
 15.0404339999999994  4.3531810000000002 11.2146860000000004   F   F   F
 12.0495350000000006  4.3531570000000004 11.2154570000000007   F   F   F
 13.5418690000000002  5.8098660000000004 13.8695970000000006   F   F   F
 10.5384049999999991  4.3490520000000004 13.8414249999999992   F   F   F
 16.5487290000000016  4.3487460000000002 13.8433670000000006   F   F   F
  9.0062080000000009  5.8397139999999998 16.4630529999999986   F   F   F
 15.1130859999999991  4.3254409999999996 16.5326780000000007   F   F   F
 12.0052930000000000  4.3005719999999998 16.5283470000000001   F   F   F
  9.0432299999999994  5.8106580000000001  5.9432090000000004   F   F   F
 14.9861950000000004  7.3433570000000001  6.1418290000000004   F   F   F
 12.0997020000000006  7.3416020000000000  6.1394180000000000   F   F   F
 13.5460910000000005  8.7272820000000007  8.5499799999999997   F   F   F
 10.5114859999999997  7.2652789999999996  8.6228660000000001   F   F   F
 16.5753890000000013  7.2658589999999998  8.6234760000000001   F   F   F
  9.0168099999999995  8.7304870000000001 11.2369939999999993   F   F   F
 15.0425959999999996  7.2715470000000000 11.2167250000000003   F   F   F
 12.0468370000000000  7.2713900000000002 11.2152689999999993   F   F   F
 13.5497080000000008  8.7338109999999993 13.8627769999999995   F   F   F
 10.5361019999999996  7.2690669999999997 13.8380220000000005   F   F   F
 16.5498440000000002  7.2704789999999999 13.8477549999999994   F   F   F
  9.0052199999999996  8.7280350000000002 16.4373439999999995   F   F   F
 15.1178939999999997  7.2516379999999998 16.5104480000000002   F   F   F
 12.0112340000000000  7.2555889999999996 16.4690170000000009   F   F   F
  8.9809999999999999  8.7251759999999994  5.9447710000000002   F   F   F
 14.9877109999999991 10.0938949999999998  6.1294620000000002   F   F   F
 12.1032510000000002 10.0940840000000005  6.1273119999999999   F   F   F
 13.5446989999999996 23.3354959999999991  8.5397710000000000   F   F   F
 10.5152610000000006 10.1903190000000006  8.6211710000000004   F   F   F
 16.5733600000000010 10.1908309999999993  8.6237449999999995   F   F   F
  9.0171670000000006 23.3328519999999990 11.2375749999999996   F   F   F
 15.0477849999999993 10.1918299999999995 11.2136180000000003   F   F   F
 12.0496339999999993 10.1923320000000004 11.2078959999999999   F   F   F
 13.5463559999999994 23.3315820000000009 13.8730429999999991   F   F   F
 10.5309249999999999 10.1992589999999996 13.8212620000000008   F   F   F
 16.5587899999999983 10.1972020000000008 13.8461619999999996   F   F   F
  9.0192639999999997 23.3331640000000000 16.4709789999999998   F   F   F
 15.1045309999999997 10.2050110000000007 16.4688860000000012   F   F   F
 12.0502830000000003 10.2211839999999992 16.4278820000000003   F   F   F
  9.0304420000000007 11.6493319999999994  5.9319740000000003   F   F   F
 15.0700210000000006 13.1244259999999997  6.1704080000000001   F   F   F
 12.0238160000000001 13.1224089999999993  6.1684120000000000   F   F   F
 13.5462670000000003 14.5746169999999999  8.4563150000000000   F   F   F
 10.5130099999999995 13.1087710000000008  8.6210450000000005   F   F   F
 16.5778560000000006 13.1089420000000008  8.6229030000000009   F   F   F
  9.0164770000000001 14.5777470000000005 11.2335130000000003   F   F   F
 15.0451470000000000 13.1156120000000005 11.2019889999999993   F   F   F
 12.0559809999999992 13.1160999999999994 11.1987469999999991   F   F   F
 13.5593029999999999 14.5831820000000008 13.8518380000000008   F   F   F
 10.5340080000000000 13.1244160000000001 13.8162109999999991   F   F   F
 16.5659959999999984 13.1221709999999998 13.8306269999999998   F   F   F
  9.0579990000000006 14.5893040000000003 16.4388819999999996   F   F   F
 15.1256620000000002 13.1709099999999992 16.5040060000000004   F   F   F
 12.0816450000000000 13.1602630000000005 16.4513250000000006   F   F   F
  8.9715650000000000 14.5741689999999995  5.9427960000000004   F   F   F
 15.0692990000000009 16.0227029999999999  6.1682420000000002   F   F   F
 12.0224620000000009 16.0237720000000010  6.1666140000000000   F   F   F
 13.5450060000000008 17.5214950000000016  8.4853679999999994   F   F   F
 10.5136330000000005 16.0397749999999988  8.6206859999999992   F   F   F
 16.5776910000000015 16.0404949999999999  8.6205119999999997   F   F   F
  9.0169549999999994 17.4990400000000008 11.2345830000000007   F   F   F
 15.0414829999999995 16.0381760000000000 11.1965950000000003   F   F   F
 12.0535800000000002 16.0388160000000006 11.2000379999999993   F   F   F
 13.5510540000000006 17.5014530000000015 13.8622440000000005   F   F   F
 10.5354120000000009 16.0433130000000013 13.8244369999999996   F   F   F
 16.5665429999999994 16.0419130000000010 13.8226849999999999   F   F   F
  9.0213269999999994 17.4846630000000012 16.4458039999999990   F   F   F
 15.1250009999999993 16.0608679999999993 16.5042720000000003   F   F   F
 12.0857600000000005 16.0706769999999999 16.4641440000000010   F   F   F
  9.0298909999999992 17.4980310000000010  5.9297259999999996   F   F   F
 14.9881770000000003 19.0543550000000010  6.1242470000000004   F   F   F
 12.1031650000000006 19.0533770000000011  6.1227280000000004   F   F   F
 13.5452729999999999 20.4197020000000009  8.5470600000000001   F   F   F
 10.5166480000000000 18.9567249999999987  8.6195380000000004   F   F   F
 16.5742830000000012 18.9574609999999986  8.6187649999999998   F   F   F
  9.0166550000000001 20.4153069999999985 11.2355640000000001   F   F   F
 15.0402000000000005 18.9582569999999997 11.2048310000000004   F   F   F
 12.0528180000000003 18.9578829999999989 11.2077249999999999   F   F   F
 13.5500670000000003 20.4147010000000009 13.8693500000000007   F   F   F
 10.5370039999999996 18.9609549999999984 13.8302700000000005   F   F   F
 16.5612339999999989 18.9596370000000007 13.8233049999999995   F   F   F
  9.0183590000000002 20.4078249999999990 16.4649630000000009   F   F   F
 15.1013439999999992 18.9668589999999995 16.5104550000000003   F   F   F
 12.0262290000000007 18.9919970000000013 16.5164630000000017   F   F   F
  8.9809549999999998 20.4232620000000011  5.9428029999999996   F   F   F
 14.9891330000000007 21.8055899999999987  6.1366639999999997   F   F   F
 12.1016349999999999 21.8061669999999985  6.1359149999999998   F   F   F
 13.5468759999999993 11.6284829999999992  8.4894269999999992   F   F   F
 10.5130879999999998 21.8802120000000002  8.6197920000000003   F   F   F
 16.5772070000000014 21.8813749999999985  8.6194229999999994   F   F   F
  9.0167450000000002 11.6528100000000006 11.2337500000000006   F   F   F
 15.0401299999999996 21.8753519999999995 11.2092130000000001   F   F   F
 12.0503879999999999 21.8746949999999991 11.2107430000000008   F   F   F
 13.5646190000000004 11.6664390000000004 13.8476979999999994   F   F   F
 10.5373560000000008 21.8748660000000008 13.8341200000000004   F   F   F
 16.5581220000000009 21.8741109999999992 13.8308350000000004   F   F   F
  9.0408270000000002 11.6598220000000001 16.4233079999999987   F   F   F
 15.0901669999999992 21.8758949999999999 16.5194280000000013   F   F   F
 12.0031429999999997 21.8776539999999997 16.5216940000000001   F   F   F
  7.3278549999999996 23.3349130000000002  7.0476900000000002   F   F   F
  4.4923960000000003 23.3337749999999993  5.3684419999999999   F   F   F
  1.6549630000000000 23.3344239999999985  7.0475050000000001   F   F   F
  2.7314479999999999  2.8949210000000001  9.6177910000000004   F   F   F
 18.0710489999999986  2.8953829999999998  9.1942100000000000   F   F   F
  6.2460250000000004  2.8957579999999998  9.6171629999999997   F   F   F
  7.2303620000000004  2.8956400000000002 12.2448110000000003   F   F   F
  4.4896770000000004  2.8942890000000001 11.8013230000000000   F   F   F
  1.7476920000000000  2.8942000000000001 12.2431470000000004   F   F   F
  2.7065600000000001  2.8917020000000000 14.8538700000000006   F   F   F
 18.0707699999999996  2.8933559999999998 14.3984760000000005   F   F   F
  6.2760049999999996  2.8945419999999999 14.8578679999999999   F   F   F
  7.2615819999999998  2.9077950000000001 17.3828700000000005   F   F   F
  4.4939140000000002  2.9064329999999998 16.9903559999999985   F   F   F
  1.7182670000000000  2.8900229999999998 17.3734789999999997   F   F   F
  7.3020610000000001  2.8961950000000001  7.0362419999999997   F   F   F
  4.4908149999999996  2.8966740000000000  6.3969760000000004   F   F   F
  1.6788339999999999  2.8963909999999999  7.0361710000000004   F   F   F
  2.7241620000000002  5.8122249999999998  9.6267739999999993   F   F   F
 18.0731479999999998  5.8126800000000003  9.1988719999999997   F   F   F
  6.2510700000000003  5.8127480000000000  9.6246759999999991   F   F   F
  7.2287229999999996  5.8096300000000003 12.2444129999999998   F   F   F
  4.4886260000000000  5.8133720000000002 11.8019499999999997   F   F   F
  1.7446189999999999  5.8128219999999997 12.2463470000000001   F   F   F
  2.6979890000000002  5.8071370000000000 14.8537820000000007   F   F   F
 18.0641819999999989  5.8119740000000002 14.4006030000000003   F   F   F
  6.2744000000000000  5.7993680000000003 14.8630580000000005   F   F   F
  7.2373799999999999  5.8465080000000000 17.4227649999999983   F   F   F
  4.4658889999999998  5.8148850000000003 16.9962739999999997   F   F   F
  1.7007790000000000  5.8069879999999996 17.3790119999999995   F   F   F
  7.3273650000000004  5.8130269999999999  7.0482690000000003   F   F   F
  4.4923820000000001  5.8157940000000004  5.3711630000000001   F   F   F
  1.6521319999999999  5.8122179999999997  7.0506580000000003   F   F   F
  2.7282220000000001  8.7314860000000003  9.6181490000000007   F   F   F
 18.0689589999999995  8.7305430000000008  9.1992290000000008   F   F   F
  6.2437849999999999  8.7312429999999992  9.6145910000000008   F   F   F
  7.2263780000000004  8.7305550000000007 12.2339359999999999   F   F   F
  4.4849790000000000  8.7324439999999992 11.7932950000000005   F   F   F
  1.7463540000000000  8.7333669999999994 12.2491810000000001   F   F   F
  2.6929630000000002  8.7248599999999996 14.8564260000000008   F   F   F
 18.0643439999999984  8.7335969999999996 14.4163090000000000   F   F   F
  6.2640739999999999  8.7225649999999995 14.8310089999999999   F   F   F
  7.1844849999999996  8.7134680000000007 17.3208659999999988   F   F   F
  4.4500120000000001  8.7244700000000002 16.9867010000000001   F   F   F
  1.6797169999999999  8.7330989999999993 17.3769160000000014   F   F   F
  7.3013100000000000  8.7312060000000002  7.0379790000000000   F   F   F
  4.4897030000000004  8.7308339999999998  6.4013080000000002   F   F   F
  1.6795350000000000  8.7308760000000003  7.0405670000000002   F   F   F
  2.7270070000000000 23.3330440000000010  9.6244899999999998   F   F   F
 18.0758790000000005 23.3332149999999992  9.1924919999999997   F   F   F
  6.2531949999999998 23.3333799999999982  9.6245609999999999   F   F   F
  7.2314939999999996 23.3331230000000005 12.2452269999999999   F   F   F
  4.4910550000000002 23.3323660000000004 11.8037550000000007   F   F   F
  1.7501519999999999 23.3318329999999996 12.2439250000000008   F   F   F
  2.7087550000000000 23.3321080000000016 14.8535500000000003   F   F   F
 18.0728830000000009 23.3310679999999984 14.3961480000000002   F   F   F
  6.2799430000000003 23.3340959999999988 14.8569669999999991   F   F   F
  7.2651589999999997 23.3357020000000013 17.3783829999999995   F   F   F
  4.4957649999999996 23.3342269999999985 16.9930039999999991   F   F   F
  1.7234570000000000 23.3323460000000011 17.3691609999999983   F   F   F
  7.3239799999999997 11.6444890000000001  7.0458920000000003   F   F   F
  4.4928419999999996 11.6522849999999991  5.3675750000000004   F   F   F
  1.6566550000000000 11.6441560000000006  7.0506739999999999   F   F   F
  2.7290179999999999 14.5741969999999998  9.6137359999999994   F   F   F
 18.0692589999999988 14.5743639999999992  9.1977779999999996   F   F   F
  6.2477340000000003 14.5749289999999991  9.6111380000000004   F   F   F
  7.2269990000000002 14.5788639999999994 12.2365080000000006   F   F   F
  4.4892909999999997 14.5752629999999996 11.7878790000000002   F   F   F
  1.7590180000000000 14.5722140000000007 12.2493370000000006   F   F   F
  2.7233689999999999 14.5783100000000001 14.8832400000000007   F   F   F
 18.0813929999999985 14.5773089999999996 14.3871500000000001   F   F   F
  6.2600569999999998 14.5835120000000007 14.8529049999999998   F   F   F
  7.2494350000000001 14.5663640000000001 17.3054820000000014   F   F   F
  4.4929920000000001 14.5549289999999996 17.1384010000000018   F   F   F
  1.7075380000000000 14.5730400000000007 17.3941470000000002   F   F   F
  7.2938460000000003 14.5741999999999994  7.0358590000000003   F   F   F
  4.4914560000000003 14.5741270000000007  6.3900110000000003   F   F   F
  1.6896169999999999 14.5731210000000004  7.0375649999999998   F   F   F
  2.7263880000000000 17.4930179999999993  9.6220049999999997   F   F   F
 18.0725140000000017 17.4966189999999990  9.1926299999999994   F   F   F
  6.2533810000000001 17.4935739999999988  9.6213060000000006   F   F   F
  7.2297650000000004 17.4967080000000017 12.2422360000000001   F   F   F
  4.4920570000000000 17.4939420000000005 11.7999259999999992   F   F   F
  1.7546029999999999 17.4938409999999998 12.2440560000000005   F   F   F
  2.7106740000000000 17.5001719999999992 14.8576630000000005   F   F   F
 18.0779589999999999 17.4970749999999988 14.3836200000000005   F   F   F
  6.2795019999999999 17.5078619999999994 14.8667689999999997   F   F   F
  7.2422480000000000 17.4998679999999993 17.4097340000000003   F   F   F
  4.4819490000000002 17.4874709999999993 17.0067039999999992   F   F   F
  1.7171320000000001 17.4956120000000013 17.3760760000000012   F   F   F
  7.3246479999999998 17.5032280000000000  7.0457700000000001   F   F   F
  4.4942390000000003 17.4949610000000000  5.3670020000000003   F   F   F
  1.6590419999999999 17.5028720000000000  7.0474790000000000   F   F   F
  2.7330820000000000 20.4144830000000006  9.6154759999999992   F   F   F
 18.0722820000000013 20.4156559999999985  9.1901259999999994   F   F   F
  6.2482699999999998 20.4143720000000002  9.6157020000000006   F   F   F
  7.2301270000000004 20.4152020000000007 12.2411960000000004   F   F   F
  4.4917520000000000 20.4135959999999983 11.7983220000000006   F   F   F
  1.7535630000000000 20.4143690000000007 12.2406930000000003   F   F   F
  2.7101839999999999 20.4167190000000005 14.8521219999999996   F   F   F
 18.0752699999999997 20.4144660000000009 14.3912540000000000   F   F   F
  6.2772889999999997 20.4200559999999989 14.8538990000000002   F   F   F
  7.2616920000000000 20.4094639999999998 17.3770150000000001   F   F   F
  4.4943350000000004 20.4085919999999987 16.9883610000000012   F   F   F
  1.7231520000000000 20.4167929999999984 17.3706360000000011   F   F   F
  7.3011830000000000 20.4165109999999999  7.0367629999999997   F   F   F
  4.4928340000000002 20.4171930000000010  6.3987759999999998   F   F   F
  1.6822779999999999 20.4159970000000008  7.0361950000000002   F   F   F
  2.7222719999999998 11.6539540000000006  9.6239260000000009   F   F   F
 18.0710890000000006 11.6516439999999992  9.2013999999999996   F   F   F
  6.2506120000000003 11.6546669999999999  9.6177849999999996   F   F   F
  7.2258220000000000 11.6544609999999995 12.2328209999999995   F   F   F
  4.4864400000000000 11.6531369999999992 11.7846279999999997   F   F   F
  1.7539380000000000 11.6550930000000008 12.2535609999999995   F   F   F
  2.7168640000000002 11.6500740000000000 14.8822139999999994   F   F   F
 18.0762220000000013 11.6595770000000005 14.4019180000000002   F   F   F
  6.2551470000000000 11.6483360000000005 14.8344919999999991   F   F   F
  7.2392760000000003 11.6465610000000002 17.2950650000000010   F   F   F
  4.4891209999999999 11.6352569999999993 17.1250129999999992   F   F   F
  1.7015629999999999 11.6450390000000006 17.3979509999999991   F   F   F
 16.3633370000000014 23.3364960000000004  7.0356389999999998   F   F   F
 13.5454419999999995 23.3383010000000013  6.4079620000000004   F   F   F
 10.7265359999999994 23.3358330000000009  7.0362470000000004   F   F   F
 11.7805870000000006  2.8957769999999998  9.6235389999999992   F   F   F
  9.0163679999999999  2.8957600000000001  9.1941790000000001   F   F   F
 15.3085950000000004  2.8953630000000001  9.6238499999999991   F   F   F
 16.2841640000000005  2.8938480000000002 12.2465159999999997   F   F   F
 13.5447489999999995  2.8939949999999999 11.8007419999999996   F   F   F
 10.8033169999999998  2.8950399999999998 12.2461059999999993   F   F   F
 11.7626550000000005  2.8871120000000001 14.8572369999999996   F   F   F
  9.0182059999999993  2.8943560000000002 14.3973410000000008   F   F   F
 15.3266910000000003  2.8857439999999999 14.8582970000000003   F   F   F
 16.3177960000000013  2.8821460000000001 17.3772659999999988   F   F   F
 13.5422469999999997  2.9017789999999999 17.0027989999999996   F   F   F
 10.7713730000000005  2.8921169999999998 17.3787230000000008   F   F   F
 16.3876910000000002  2.8964650000000001  7.0473330000000001   F   F   F
 13.5438860000000005  2.8974000000000002  5.3869550000000004   F   F   F
 10.7021040000000003  2.8959250000000001  7.0471649999999997   F   F   F
 11.7841649999999998  5.8138379999999996  9.6189269999999993   F   F   F
  9.0118939999999998  5.8126980000000001  9.1971019999999992   F   F   F
 15.3035019999999999  5.8146829999999996  9.6201080000000001   F   F   F
 16.2791829999999997  5.8128830000000002 12.2497640000000008   F   F   F
 13.5438050000000008  5.8144200000000001 11.7975340000000006   F   F   F
 10.8058280000000000  5.8113919999999997 12.2474439999999998   F   F   F
 11.7632720000000006  5.7989100000000002 14.8794190000000004   F   F   F
  9.0181120000000004  5.8141749999999996 14.3992450000000005   F   F   F
 15.3150890000000004  5.8002599999999997 14.8696549999999998   F   F   F
 16.3165680000000002  5.8001019999999999 17.3964159999999985   F   F   F
 13.5446190000000009  5.8186859999999996 17.0998640000000002   F   F   F
 10.7843719999999994  5.8016459999999999 17.4271180000000001   F   F   F
 16.3621079999999992  5.8120019999999997  7.0396660000000004   F   F   F
 13.5436739999999993  5.8102349999999996  6.4093450000000001   F   F   F
 10.7250029999999992  5.8115579999999998  7.0391240000000002   F   F   F
 11.7814200000000007  8.7313390000000002  9.6216489999999997   F   F   F
  9.0163980000000006  8.7313559999999999  9.1935870000000008   F   F   F
 15.3087070000000001  8.7311090000000000  9.6249450000000003   F   F   F
 16.2839060000000018  8.7331900000000005 12.2501370000000005   F   F   F
 13.5460609999999999  8.7347459999999995 11.7964210000000005   F   F   F
 10.8045570000000009  8.7333390000000009 12.2393719999999995   F   F   F
 11.7587989999999998  8.7357610000000001 14.8478990000000000   F   F   F
  9.0153099999999995  8.7388270000000006 14.3803120000000000   F   F   F
 15.3305030000000002  8.7313880000000008 14.8637890000000006   F   F   F
 16.2645839999999993  8.7383910000000000 17.4653899999999993   F   F   F
 13.5576950000000007  8.7556030000000007 16.9831049999999983   F   F   F
 10.8002939999999992  8.7811669999999999 17.3904139999999998   F   F   F
 16.3870690000000003  8.7260019999999994  7.0453970000000004   F   F   F
 13.5442940000000007  8.7117369999999994  5.3592350000000000   F   F   F