Ru Cu                                   
   1.00000000000000     
    10.8623999999999992    0.0000000000000000    0.0000000000000000
    -5.4311999999999969    9.4071143460680844    0.0000000000000000
     0.0000000000000000    0.0000000000000000   22.7112499999999962
   Ru   Cu
    96     1
Direct
  0.0849950946188756  0.1671858667100992  0.3584005783672879
  0.1680740427420488  0.0835735613175927  0.2677842508277735
  0.0847055003141435  0.1676276037519671  0.5482109073356582
  0.1680532229950913  0.0839528367549462  0.4523137314621621
  0.0849285528254029  0.1679583078080000  0.7325402516613551
  0.1683077803801609  0.0844421142063538  0.6422742943750421
  0.0849718509968156  0.4172017525530478  0.3583926880571084
  0.1693083799407944  0.3341898484092312  0.2678944883250267
  0.0847162277804543  0.4174295845543767  0.5486438511206018
  0.1683236835064577  0.3341896007899976  0.4523567715432861
  0.0836907283225159  0.4151875257846243  0.7330020935851991
  0.1686951114382538  0.3339970409023110  0.6419606096664481
  0.0849967931691182  0.6672014587388873  0.3584043868049278
  0.1680326274216029  0.5836386255228589  0.2679071173351986
  0.0848491540013043  0.6676325266776786  0.5486140513079789
  0.1679582102564225  0.5838656383368317  0.4524154457300611
  0.0834340919513892  0.6693822070096118  0.7328149796322307
  0.1680820503876674  0.5842336045884196  0.6423303051743900
  0.0849634578937213  0.9172381346013836  0.3584300603402042
  0.1692439349957056  0.8340212006241003  0.2679042242251413
  0.0846939212839644  0.9174081278239328  0.5481461391009574
  0.1683090544933492  0.8338747112117062  0.4523942047685949
  0.0849851660141141  0.9176237533565654  0.7325298292646352
  0.1687313828890993  0.8353985737240208  0.6418498533531150
  0.3351199040226831  0.1673044512627158  0.3583278698379857
  0.4185291217971923  0.0841597039094566  0.2678412149742897
  0.3348764704336915  0.1675795235423578  0.5482535798695949
  0.4180941939848211  0.0839370925366083  0.4523616802558053
  0.3360994718625818  0.1682965153809590  0.7329380450192176
  0.4184020915808162  0.0844439145971236  0.6426922635476018
  0.3350581431016408  0.4171715811209324  0.3583826270615589
  0.4183807148862400  0.3338479759611559  0.2678527664612176
  0.3348852750133986  0.4174541295707570  0.5480978391553322
  0.4180244272483691  0.3337282301775488  0.4523364315877316
  0.3350340568366761  0.4176855214852253  0.7328473739474219
  0.4183675891768743  0.3342501567997687  0.6426763973454683
  0.3351199312596194  0.6673063094893124  0.3583020712475786
  0.4184205749332719  0.5841505537205904  0.2678395203263264
  0.3345504275991544  0.6673121093601821  0.5486538927704956
  0.4179563493405070  0.5840158950884202  0.4523183566289930
  0.3382549214787360  0.6692765556703861  0.7327630269517371
  0.4188307902091566  0.5842367644033146  0.6418370918042342
  0.3351398592362500  0.9173933457412815  0.3584045597183660
  0.4183314329353109  0.8338458563874269  0.2678501690033244
  0.3349627799250925  0.9176730784663576  0.5480906980187967
  0.4179018449277763  0.8336099321731467  0.4523252172554137
  0.3349237121263471  0.9178103310976340  0.7328142588603157
  0.4188771302736782  0.8350377605150499  0.6418386432050625
  0.5849723804055884  0.1671906370182086  0.3584372289163227
  0.6680388824716772  0.0836047742024633  0.2678112397603911
  0.5845589610921635  0.1676039491872459  0.5481820959996497
  0.6679504497843922  0.0839041120352491  0.4523251598334070
  0.5850958979099232  0.1678389622195340  0.7329193446499929
  0.6682027695217414  0.0843988366028938  0.6422678301049771
  0.5849291418254055  0.4171345502794352  0.3584309177348715
  0.6692555626104308  0.3340863556008173  0.2679089619011492
  0.5845833030932397  0.4171576399398802  0.5481728826822163
  0.6683330676952650  0.3340382343062913  0.4524009226328545
  0.5851597702850100  0.4178923736770912  0.7328831698736735
  0.6685517330957609  0.3345201767677892  0.6426316584852430
  0.5850060681824871  0.6672300752941425  0.3584249532523103
  0.6679561758828427  0.5835102233717251  0.2678083244615763
  0.5846942961307704  0.6675235768790699  0.5480843705383620
  0.6680209951675096  0.5838166783282119  0.4522773116438685
  0.5846047132961729  0.6677869089298980  0.7324453884045354
  0.6682405911300577  0.5843568232391405  0.6422000769431406
  0.5850105711307378  0.9172749553665298  0.3584418369892290
  0.6692274158051532  0.8341118953010422  0.2679282833836965
  0.5846834025050995  0.9173680590298403  0.5481270600404500
  0.6681518642334368  0.8339676781937158  0.4523326257988955
  0.5847786591174824  0.9174623092038772  0.7324670521156804
  0.6686318809852594  0.8345456704845802  0.6419530425232693
  0.8351178152444660  0.1672261268493003  0.3583892819548424
  0.9185111984254348  0.0842389198595299  0.2678611874034118
  0.8346706686068401  0.1674082121609217  0.5482742979545705
  0.9181466799373155  0.0841077150635030  0.4522813919059558
  0.8361902196513356  0.1686143869175964  0.7325620911006894
  0.9183007085076724  0.0843491010461861  0.6420674730232676
  0.8350037968955064  0.4172255724715086  0.3584045291197029
  0.9185054883679555  0.3339287290152839  0.2678619563796474
  0.8347611539382598  0.4174084019021365  0.5480898306451181
  0.9182193194837751  0.3339007536011920  0.4523216677119066
  0.8346120527747729  0.4176491205913635  0.7328195786471241
  0.9177292235484202  0.3338759626993877  0.6418981237996988
  0.8351084868861420  0.6672464826457087  0.3583651829780479
  0.9186242392714021  0.5841432255164278  0.2678704629239448
  0.8346941817932176  0.6674484954891540  0.5482155230310752
  0.9182204590450098  0.5839415418906313  0.4523065656491951
  0.8362584045673103  0.6683682649628082  0.7324994527998072
  0.9176056268799684  0.5842084352938741  0.6418977406367503
  0.8350817879301573  0.9172901379094540  0.3584343586435779
  0.9183575760715996  0.8338104379075801  0.2678635722610636
  0.8348941127151548  0.9175736986583019  0.5480381357781781
  0.9180630109574395  0.8337251964986692  0.4522838344367131
  0.8347465845116417  0.9176688795581782  0.7323828853655385
  0.9183631094599249  0.8344653023469917  0.6420035202681262
  0.1696421954732443  0.5872452393581895  0.8196828344987708
 
  0.00000000E+00  0.00000000E+00  0.00000000E+00
  0.00000000E+00  0.00000000E+00  0.00000000E+00
  0.00000000E+00  0.00000000E+00  0.00000000E+00
  0.00000000E+00  0.00000000E+00  0.00000000E+00
  0.00000000E+00  0.00000000E+00  0.00000000E+00
  0.00000000E+00  0.00000000E+00  0.00000000E+00
  0.00000000E+00  0.00000000E+00  0.00000000E+00
  0.00000000E+00  0.00000000E+00  0.00000000E+00
  0.00000000E+00  0.00000000E+00  0.00000000E+00
  0.00000000E+00  0.00000000E+00  0.00000000E+00
  0.00000000E+00  0.00000000E+00  0.00000000E+00
  0.00000000E+00  0.00000000E+00  0.00000000E+00
  0.00000000E+00  0.00000000E+00  0.00000000E+00
  0.00000000E+00  0.00000000E+00  0.00000000E+00
  0.00000000E+00  0.00000000E+00  0.00000000E+00
  0.00000000E+00  0.00000000E+00  0.00000000E+00
  0.00000000E+00  0.00000000E+00  0.00000000E+00
  0.00000000E+00  0.00000000E+00  0.00000000E+00
  0.00000000E+00  0.00000000E+00  0.00000000E+00
  0.00000000E+00  0.00000000E+00  0.00000000E+00
  0.00000000E+00  0.00000000E+00  0.00000000E+00
  0.00000000E+00  0.00000000E+00  0.00000000E+00
  0.00000000E+00  0.00000000E+00  0.00000000E+00
  0.00000000E+00  0.00000000E+00  0.00000000E+00
  0.00000000E+00  0.00000000E+00  0.00000000E+00
  0.00000000E+00  0.00000000E+00  0.00000000E+00
  0.00000000E+00  0.00000000E+00  0.00000000E+00
  0.00000000E+00  0.00000000E+00  0.00000000E+00
  0.00000000E+00  0.00000000E+00  0.00000000E+00
  0.00000000E+00  0.00000000E+00  0.00000000E+00
  0.00000000E+00  0.00000000E+00  0.00000000E+00
  0.00000000E+00  0.00000000E+00  0.00000000E+00
  0.00000000E+00  0.00000000E+00  0.00000000E+00
  0.00000000E+00  0.00000000E+00  0.00000000E+00
  0.00000000E+00  0.00000000E+00  0.00000000E+00
  0.00000000E+00  0.00000000E+00  0.00000000E+00
  0.00000000E+00  0.00000000E+00  0.00000000E+00
  0.00000000E+00  0.00000000E+00  0.00000000E+00
  0.00000000E+00  0.00000000E+00  0.00000000E+00
  0.00000000E+00  0.00000000E+00  0.00000000E+00
  0.00000000E+00  0.00000000E+00  0.00000000E+00
  0.00000000E+00  0.00000000E+00  0.00000000E+00
  0.00000000E+00  0.00000000E+00  0.00000000E+00
  0.00000000E+00  0.00000000E+00  0.00000000E+00
  0.00000000E+00  0.00000000E+00  0.00000000E+00
  0.00000000E+00  0.00000000E+00  0.00000000E+00
  0.00000000E+00  0.00000000E+00  0.00000000E+00
  0.00000000E+00  0.00000000E+00  0.00000000E+00
  0.00000000E+00  0.00000000E+00  0.00000000E+00
  0.00000000E+00  0.00000000E+00  0.00000000E+00
  0.00000000E+00  0.00000000E+00  0.00000000E+00
  0.00000000E+00  0.00000000E+00  0.00000000E+00
  0.00000000E+00  0.00000000E+00  0.00000000E+00
  0.00000000E+00  0.00000000E+00  0.00000000E+00
  0.00000000E+00  0.00000000E+00  0.00000000E+00
  0.00000000E+00  0.00000000E+00  0.00000000E+00
  0.00000000E+00  0.00000000E+00  0.00000000E+00
  0.00000000E+00  0.00000000E+00  0.00000000E+00
  0.00000000E+00  0.00000000E+00  0.00000000E+00
  0.00000000E+00  0.00000000E+00  0.00000000E+00
  0.00000000E+00  0.00000000E+00  0.00000000E+00
  0.00000000E+00  0.00000000E+00  0.00000000E+00
  0.00000000E+00  0.00000000E+00  0.00000000E+00
  0.00000000E+00  0.00000000E+00  0.00000000E+00
  0.00000000E+00  0.00000000E+00  0.00000000E+00
  0.00000000E+00  0.00000000E+00  0.00000000E+00
  0.00000000E+00  0.00000000E+00  0.00000000E+00
  0.00000000E+00  0.00000000E+00  0.00000000E+00
  0.00000000E+00  0.00000000E+00  0.00000000E+00
  0.00000000E+00  0.00000000E+00  0.00000000E+00
  0.00000000E+00  0.00000000E+00  0.00000000E+00
  0.00000000E+00  0.00000000E+00  0.00000000E+00
  0.00000000E+00  0.00000000E+00  0.00000000E+00
  0.00000000E+00  0.00000000E+00  0.00000000E+00
  0.00000000E+00  0.00000000E+00  0.00000000E+00
  0.00000000E+00  0.00000000E+00  0.00000000E+00
  0.00000000E+00  0.00000000E+00  0.00000000E+00
  0.00000000E+00  0.00000000E+00  0.00000000E+00
  0.00000000E+00  0.00000000E+00  0.00000000E+00
  0.00000000E+00  0.00000000E+00  0.00000000E+00
  0.00000000E+00  0.00000000E+00  0.00000000E+00
  0.00000000E+00  0.00000000E+00  0.00000000E+00
  0.00000000E+00  0.00000000E+00  0.00000000E+00
  0.00000000E+00  0.00000000E+00  0.00000000E+00
  0.00000000E+00  0.00000000E+00  0.00000000E+00
  0.00000000E+00  0.00000000E+00  0.00000000E+00
  0.00000000E+00  0.00000000E+00  0.00000000E+00
  0.00000000E+00  0.00000000E+00  0.00000000E+00
  0.00000000E+00  0.00000000E+00  0.00000000E+00
  0.00000000E+00  0.00000000E+00  0.00000000E+00
  0.00000000E+00  0.00000000E+00  0.00000000E+00
  0.00000000E+00  0.00000000E+00  0.00000000E+00
  0.00000000E+00  0.00000000E+00  0.00000000E+00
  0.00000000E+00  0.00000000E+00  0.00000000E+00
  0.00000000E+00  0.00000000E+00  0.00000000E+00
  0.00000000E+00  0.00000000E+00  0.00000000E+00
  0.00000000E+00  0.00000000E+00  0.00000000E+00
