Mo S Cu                                 
   1.00000000000000     
    15.9214998300000001    0.0000000000000000    0.0000000000000000
    -7.9622501300000001   13.7910221699999997    0.0000000000000000
     0.0000000000000000    0.0000000000000000   13.5821998300000004
   Mo   S    Cu
    25    50     2
Direct
  0.1321143910873275  0.0652705597676331  0.6783041582536598
  0.1318363217443235  0.2652504277044798  0.6788016621152408
  0.1324717827044850  0.4653221134680194  0.6793975371064747
  0.1325070246094242  0.6654550673795967  0.6788904703632070
  0.1324501957497048  0.8654630521957927  0.6784384970593109
  0.3325851311656152  0.0653223436250272  0.6783216007820627
  0.3322440358497261  0.2652174737770352  0.6779311775423338
  0.3322737295658911  0.4651087863541292  0.6791290392135068
  0.3325575632632223  0.6655733207294219  0.6788961766681041
  0.3324639621986023  0.8654144735671991  0.6785448706321944
  0.5326950115669717  0.0653844132167833  0.6785939385972526
  0.5328274605299939  0.2652712522138074  0.6787623355189538
  0.5322773373259650  0.4651520029464180  0.6792039747042935
  0.5325747997181480  0.6657431991394915  0.6789553576278564
  0.5324906666382248  0.8654841674074376  0.6786347730293159
  0.7324033192851900  0.0653829765979097  0.6786808288074155
  0.7325113708174911  0.2653709832357336  0.6788844079887397
  0.7322515089336221  0.4653153820839222  0.6794953203855698
  0.7324846972168046  0.6655823684685416  0.6789093289322850
  0.7324237028645513  0.8654721960581213  0.6786521361253719
  0.9320729558706731  0.0653293882944439  0.6786018048412714
  0.9321921944868734  0.2653522719533754  0.6788683090260648
  0.9323882331771856  0.4653627588766653  0.6791574349119429
  0.9323864976912901  0.6654586282499508  0.6789103066536768
  0.9323884157866544  0.8654026785475537  0.6785646386160451
  0.0654521380609481  0.1321638374040432  0.5634457932604491
  0.0652127210264268  0.1314284554222382  0.7938311315747768
  0.0656134632760939  0.3321929340944010  0.5638666639712966
  0.0655455355592380  0.3320083692331650  0.7946119919546035
  0.0658106072566937  0.5319249485703494  0.5641006679258851
  0.0658082810864897  0.5322901576596308  0.7941862128431794
  0.0656613450796399  0.7318871765103339  0.5636534816409196
  0.0659031435401900  0.7323437083034960  0.7937614633979138
  0.0656175795536811  0.9320066046232469  0.5632655505235533
  0.0657660010986802  0.9321026610092176  0.7934987262918085
  0.2657712051134880  0.1321561546105059  0.5631690035975296
  0.2653194413633599  0.1312832264817558  0.7934634436198706
  0.2653468161639765  0.3318850400297890  0.5634924043934362
  0.2648525090571638  0.3321276796189352  0.7941954697991633
  0.2658645819441077  0.5319672331616871  0.5641066978537381
  0.2658097632322054  0.5319716298701067  0.7947474933215659
  0.2657944290278778  0.7319392204394291  0.5636626366151773
  0.2658516013456946  0.7323178878706784  0.7939397858844828
  0.2658458895558695  0.9320393450748554  0.5632843387721920
  0.2657924430093885  0.9321153363519628  0.7934848680483739
  0.4661061934859063  0.1321572030238300  0.5634340052171680
  0.4656739808069332  0.1315318394680531  0.7938617794001601
  0.4659150443170432  0.3319168428532393  0.5635404569123068
  0.4667594628168317  0.3320691700841252  0.7941837829475276
  0.4657492572160891  0.5320550893249276  0.5640612744725928
  0.4658905769051032  0.5324967414949313  0.7947482156019490
  0.4657527254535907  0.7320328049182123  0.5637575580966185
  0.4658988834612643  0.7324664989442837  0.7939973715738304
  0.4658811410579560  0.9321054909662507  0.5634537390872794
  0.4658105304490050  0.9320958615117050  0.7936516268627756
  0.6660083072778065  0.1322639839116704  0.5635936294518302
  0.6658362844270727  0.1319219056262710  0.7938947559967957
  0.6660141118762510  0.3322562219851548  0.5638758140117801
  0.6656863630518188  0.3320298538579820  0.7947984024278654
  0.6655349419515417  0.5319642348729232  0.5641686271646265
  0.6656142025813025  0.5319961216702538  0.7947933242598850
  0.6657235742103182  0.7320185203138578  0.5637683973390324
  0.6659992851675298  0.7324457969592189  0.7939977843698784
  0.6657836209315064  0.9321195303571201  0.5634849955494516
  0.6657835157965906  0.9321334798245218  0.7937644149113225
  0.8656639213382249  0.1322329563541231  0.5635769430159954
  0.8655155276302651  0.1319254243572203  0.7938652586227732
  0.8657611753287853  0.3321715203953701  0.5638450563772537
  0.8657102193193111  0.3320353200945902  0.7941927123841239
  0.8655174634123597  0.5319208163649307  0.5641418737056796
  0.8659584641577709  0.5323018261798538  0.7942318268327000
  0.8656023935393549  0.7319376198594512  0.5636693406625923
  0.8659304937895698  0.7323297213236941  0.7939686913576125
  0.8656503661799846  0.9320697353334069  0.5634504663849711
  0.8657129655048195  0.9320683219881403  0.7936656402761955
  0.2579204697739144  0.3593250845833396  0.9497944925793220
  0.5073488054941464  0.3529707857301574  0.9486135634371067
 
  0.00000000E+00  0.00000000E+00  0.00000000E+00
  0.00000000E+00  0.00000000E+00  0.00000000E+00
  0.00000000E+00  0.00000000E+00  0.00000000E+00
  0.00000000E+00  0.00000000E+00  0.00000000E+00
  0.00000000E+00  0.00000000E+00  0.00000000E+00
  0.00000000E+00  0.00000000E+00  0.00000000E+00
  0.00000000E+00  0.00000000E+00  0.00000000E+00
  0.00000000E+00  0.00000000E+00  0.00000000E+00
  0.00000000E+00  0.00000000E+00  0.00000000E+00
  0.00000000E+00  0.00000000E+00  0.00000000E+00
  0.00000000E+00  0.00000000E+00  0.00000000E+00
  0.00000000E+00  0.00000000E+00  0.00000000E+00
  0.00000000E+00  0.00000000E+00  0.00000000E+00
  0.00000000E+00  0.00000000E+00  0.00000000E+00
  0.00000000E+00  0.00000000E+00  0.00000000E+00
  0.00000000E+00  0.00000000E+00  0.00000000E+00
  0.00000000E+00  0.00000000E+00  0.00000000E+00
  0.00000000E+00  0.00000000E+00  0.00000000E+00
  0.00000000E+00  0.00000000E+00  0.00000000E+00
  0.00000000E+00  0.00000000E+00  0.00000000E+00
  0.00000000E+00  0.00000000E+00  0.00000000E+00
  0.00000000E+00  0.00000000E+00  0.00000000E+00
  0.00000000E+00  0.00000000E+00  0.00000000E+00
  0.00000000E+00  0.00000000E+00  0.00000000E+00
  0.00000000E+00  0.00000000E+00  0.00000000E+00
  0.00000000E+00  0.00000000E+00  0.00000000E+00
  0.00000000E+00  0.00000000E+00  0.00000000E+00
  0.00000000E+00  0.00000000E+00  0.00000000E+00
  0.00000000E+00  0.00000000E+00  0.00000000E+00
  0.00000000E+00  0.00000000E+00  0.00000000E+00
  0.00000000E+00  0.00000000E+00  0.00000000E+00
  0.00000000E+00  0.00000000E+00  0.00000000E+00
  0.00000000E+00  0.00000000E+00  0.00000000E+00
  0.00000000E+00  0.00000000E+00  0.00000000E+00
  0.00000000E+00  0.00000000E+00  0.00000000E+00
  0.00000000E+00  0.00000000E+00  0.00000000E+00
  0.00000000E+00  0.00000000E+00  0.00000000E+00
  0.00000000E+00  0.00000000E+00  0.00000000E+00
  0.00000000E+00  0.00000000E+00  0.00000000E+00
  0.00000000E+00  0.00000000E+00  0.00000000E+00
  0.00000000E+00  0.00000000E+00  0.00000000E+00
  0.00000000E+00  0.00000000E+00  0.00000000E+00
  0.00000000E+00  0.00000000E+00  0.00000000E+00
  0.00000000E+00  0.00000000E+00  0.00000000E+00
  0.00000000E+00  0.00000000E+00  0.00000000E+00
  0.00000000E+00  0.00000000E+00  0.00000000E+00
  0.00000000E+00  0.00000000E+00  0.00000000E+00
  0.00000000E+00  0.00000000E+00  0.00000000E+00
  0.00000000E+00  0.00000000E+00  0.00000000E+00
  0.00000000E+00  0.00000000E+00  0.00000000E+00
  0.00000000E+00  0.00000000E+00  0.00000000E+00
  0.00000000E+00  0.00000000E+00  0.00000000E+00
  0.00000000E+00  0.00000000E+00  0.00000000E+00
  0.00000000E+00  0.00000000E+00  0.00000000E+00
  0.00000000E+00  0.00000000E+00  0.00000000E+00
  0.00000000E+00  0.00000000E+00  0.00000000E+00
  0.00000000E+00  0.00000000E+00  0.00000000E+00
  0.00000000E+00  0.00000000E+00  0.00000000E+00
  0.00000000E+00  0.00000000E+00  0.00000000E+00
  0.00000000E+00  0.00000000E+00  0.00000000E+00
  0.00000000E+00  0.00000000E+00  0.00000000E+00
  0.00000000E+00  0.00000000E+00  0.00000000E+00
  0.00000000E+00  0.00000000E+00  0.00000000E+00
  0.00000000E+00  0.00000000E+00  0.00000000E+00
  0.00000000E+00  0.00000000E+00  0.00000000E+00
  0.00000000E+00  0.00000000E+00  0.00000000E+00
  0.00000000E+00  0.00000000E+00  0.00000000E+00
  0.00000000E+00  0.00000000E+00  0.00000000E+00
  0.00000000E+00  0.00000000E+00  0.00000000E+00
  0.00000000E+00  0.00000000E+00  0.00000000E+00
  0.00000000E+00  0.00000000E+00  0.00000000E+00
  0.00000000E+00  0.00000000E+00  0.00000000E+00
  0.00000000E+00  0.00000000E+00  0.00000000E+00
  0.00000000E+00  0.00000000E+00  0.00000000E+00
  0.00000000E+00  0.00000000E+00  0.00000000E+00
  0.00000000E+00  0.00000000E+00  0.00000000E+00
  0.00000000E+00  0.00000000E+00  0.00000000E+00
