Mo  S Cu                                
   1.00000000000000     
    15.9214998300000001    0.0000000000000000    0.0000000000000000
    -7.9622501300000001   13.7910221699999997    0.0000000000000000
     0.0000000000000000    0.0000000000000000   13.5821998300000004
   Mo   S    Ru
    25    50     2
Direct
  0.1313812810793991  0.0658092312896699  0.6786107516197220
  0.1316755687857309  0.2641882589546185  0.6782660552755146
  0.1327039863596795  0.4656845139962229  0.6784687060168366
  0.1330281420950143  0.6661167308816474  0.6777206657561550
  0.1326744073274071  0.8659219723842781  0.6781541768354842
  0.3337278626217852  0.0657517689679992  0.6790530529475589
  0.3325976568695594  0.2658744171546488  0.6815988688500312
  0.3340660422426751  0.4669816949580223  0.6788060047295019
  0.3327536875920600  0.6661003598877073  0.6777704559780844
  0.3324944700087187  0.8653314922701441  0.6774128672926096
  0.5317185515116236  0.0657589736146846  0.6790398043148969
  0.5310651083987423  0.2623643311316215  0.6791967320192498
  0.5324337100898546  0.4669908881667908  0.6789567183127403
  0.5328521600008926  0.6660688833345461  0.6784099589375572
  0.5328919248793724  0.8659171932145497  0.6781824959691960
  0.7341098894566898  0.0658137415665436  0.6785828704668333
  0.7330410109858079  0.2658869827163812  0.6815302021723610
  0.7342906425099542  0.4669999612555529  0.6789235871870574
  0.7329766402996896  0.6662879651486406  0.6776668969695194
  0.7326409070516036  0.8654966302604592  0.6777428388293814
  0.9325051635931914  0.0653407659064982  0.6785058152860799
  0.9322681356923113  0.2642080539348299  0.6782084733374987
  0.9326559993166228  0.4670123957914214  0.6786996327874704
  0.9328874564717964  0.6660862338391382  0.6783500154934146
  0.9324965055735390  0.8655038870254330  0.6777333121708580
  0.0656151045854543  0.1320393926881422  0.5627736638067873
  0.0653581750217285  0.1319661985321048  0.7940599808373037
  0.0660934153693589  0.3323783047777837  0.5630449936826523
  0.0657870735395676  0.3318549714389434  0.7929079625448665
  0.0659214336203107  0.5321795961966060  0.5631797293953582
  0.0669108931856144  0.5335159616452074  0.7931597874599561
  0.0660327312510987  0.7326484719452324  0.5630066935389024
  0.0663609588890779  0.7327222933435138  0.7931639547572615
  0.0662340678098658  0.9327226526698240  0.5629274232681425
  0.0650300516002602  0.9316689734289980  0.7931354357611298
  0.2671568123775003  0.1347436134631650  0.5663415361014614
  0.2613013430179905  0.1235138425186406  0.8018013028265827
  0.2673643898663585  0.3314789755169514  0.5659426804551302
  0.2616843366245263  0.3366097710852216  0.8011752945293864
  0.2660132999227471  0.5321600306946195  0.5632442348748370
  0.2662808201177995  0.5334979883322646  0.7932267493260881
  0.2660090673313817  0.7323046446888384  0.5622887772889911
  0.2661034799661834  0.7325673306949199  0.7929157110833600
  0.2659690482779666  0.9328518814972497  0.5629290419905004
  0.2660002251641984  0.9313595189544230  0.7930237399594162
  0.4657491393042150  0.1318137146415665  0.5627169505016312
  0.4655045833469984  0.1313024295840250  0.7951344082185727
  0.4640986515671344  0.3312363274193970  0.5663136016525883
  0.4720372874694689  0.3355331621063016  0.7999777734665159
  0.4662549394684845  0.5327182922340512  0.5631306389448838
  0.4663657358024196  0.5333266362931184  0.7943297072751392
  0.4662614901629851  0.7326216248867823  0.5630603655239810
  0.4660122409424261  0.7327256879395705  0.7932171592644508
  0.4665443181805315  0.9328434373752685  0.5629357397889407
  0.4650156125865053  0.9313792494483550  0.7930292966993235
  0.6672788360497464  0.1347398284185317  0.5663062447562766
  0.6619408906578812  0.1235481026410739  0.8017458358022438
  0.6668986043821121  0.3312415275842255  0.5662888372258337
  0.6632881107704662  0.3355684731885731  0.7999843536388553
  0.6657992824136159  0.5319001183205572  0.5634815015762555
  0.6669728940647275  0.5341998497142342  0.7930722895286806
  0.6657708026880513  0.7323160358536569  0.5626896925770311
  0.6663000149015019  0.7326837817381602  0.7931539339029712
  0.6661120134502170  0.9326990106641730  0.5629288663211085
  0.6663015117276245  0.9316949734609707  0.7931346437718290
  0.8661285129341252  0.1320307227364239  0.5627307514835138
  0.8663062663692571  0.1320033969833077  0.7940218816041735
  0.8638812844421082  0.3314873044696540  0.5658553721970421
  0.8747483718501030  0.3366768948849455  0.8010663454944833
  0.8661718752407310  0.5327533604752404  0.5630488987049134
  0.8667168722068013  0.5333507889698907  0.7942568321303227
  0.8661881545947026  0.7323409512534553  0.5626619693698842
  0.8660569673232104  0.7326857867637599  0.7931284360180371
  0.8660045920730539  0.9323789499964619  0.5627916795691590
  0.8657516201046533  0.9318657822933503  0.7930799737065541
  0.3313443512261287  0.2650249115017758  0.8824009278126255
  0.7335323501819815  0.2650765208185604  0.8823431197803515
 
  0.00000000E+00  0.00000000E+00  0.00000000E+00
  0.00000000E+00  0.00000000E+00  0.00000000E+00
  0.00000000E+00  0.00000000E+00  0.00000000E+00
  0.00000000E+00  0.00000000E+00  0.00000000E+00
  0.00000000E+00  0.00000000E+00  0.00000000E+00
  0.00000000E+00  0.00000000E+00  0.00000000E+00
  0.00000000E+00  0.00000000E+00  0.00000000E+00
  0.00000000E+00  0.00000000E+00  0.00000000E+00
  0.00000000E+00  0.00000000E+00  0.00000000E+00
  0.00000000E+00  0.00000000E+00  0.00000000E+00
  0.00000000E+00  0.00000000E+00  0.00000000E+00
  0.00000000E+00  0.00000000E+00  0.00000000E+00
  0.00000000E+00  0.00000000E+00  0.00000000E+00
  0.00000000E+00  0.00000000E+00  0.00000000E+00
  0.00000000E+00  0.00000000E+00  0.00000000E+00
  0.00000000E+00  0.00000000E+00  0.00000000E+00
  0.00000000E+00  0.00000000E+00  0.00000000E+00
  0.00000000E+00  0.00000000E+00  0.00000000E+00
  0.00000000E+00  0.00000000E+00  0.00000000E+00
  0.00000000E+00  0.00000000E+00  0.00000000E+00
  0.00000000E+00  0.00000000E+00  0.00000000E+00
  0.00000000E+00  0.00000000E+00  0.00000000E+00
  0.00000000E+00  0.00000000E+00  0.00000000E+00
  0.00000000E+00  0.00000000E+00  0.00000000E+00
  0.00000000E+00  0.00000000E+00  0.00000000E+00
  0.00000000E+00  0.00000000E+00  0.00000000E+00
  0.00000000E+00  0.00000000E+00  0.00000000E+00
  0.00000000E+00  0.00000000E+00  0.00000000E+00
  0.00000000E+00  0.00000000E+00  0.00000000E+00
  0.00000000E+00  0.00000000E+00  0.00000000E+00
  0.00000000E+00  0.00000000E+00  0.00000000E+00
  0.00000000E+00  0.00000000E+00  0.00000000E+00
  0.00000000E+00  0.00000000E+00  0.00000000E+00
  0.00000000E+00  0.00000000E+00  0.00000000E+00
  0.00000000E+00  0.00000000E+00  0.00000000E+00
  0.00000000E+00  0.00000000E+00  0.00000000E+00
  0.00000000E+00  0.00000000E+00  0.00000000E+00
  0.00000000E+00  0.00000000E+00  0.00000000E+00
  0.00000000E+00  0.00000000E+00  0.00000000E+00
  0.00000000E+00  0.00000000E+00  0.00000000E+00
  0.00000000E+00  0.00000000E+00  0.00000000E+00
  0.00000000E+00  0.00000000E+00  0.00000000E+00
  0.00000000E+00  0.00000000E+00  0.00000000E+00
  0.00000000E+00  0.00000000E+00  0.00000000E+00
  0.00000000E+00  0.00000000E+00  0.00000000E+00
  0.00000000E+00  0.00000000E+00  0.00000000E+00
  0.00000000E+00  0.00000000E+00  0.00000000E+00
  0.00000000E+00  0.00000000E+00  0.00000000E+00
  0.00000000E+00  0.00000000E+00  0.00000000E+00
  0.00000000E+00  0.00000000E+00  0.00000000E+00
  0.00000000E+00  0.00000000E+00  0.00000000E+00
  0.00000000E+00  0.00000000E+00  0.00000000E+00
  0.00000000E+00  0.00000000E+00  0.00000000E+00
  0.00000000E+00  0.00000000E+00  0.00000000E+00
  0.00000000E+00  0.00000000E+00  0.00000000E+00
  0.00000000E+00  0.00000000E+00  0.00000000E+00
  0.00000000E+00  0.00000000E+00  0.00000000E+00
  0.00000000E+00  0.00000000E+00  0.00000000E+00
  0.00000000E+00  0.00000000E+00  0.00000000E+00
  0.00000000E+00  0.00000000E+00  0.00000000E+00
  0.00000000E+00  0.00000000E+00  0.00000000E+00
  0.00000000E+00  0.00000000E+00  0.00000000E+00
  0.00000000E+00  0.00000000E+00  0.00000000E+00
  0.00000000E+00  0.00000000E+00  0.00000000E+00
  0.00000000E+00  0.00000000E+00  0.00000000E+00
  0.00000000E+00  0.00000000E+00  0.00000000E+00
  0.00000000E+00  0.00000000E+00  0.00000000E+00
  0.00000000E+00  0.00000000E+00  0.00000000E+00
  0.00000000E+00  0.00000000E+00  0.00000000E+00
  0.00000000E+00  0.00000000E+00  0.00000000E+00
  0.00000000E+00  0.00000000E+00  0.00000000E+00
  0.00000000E+00  0.00000000E+00  0.00000000E+00
  0.00000000E+00  0.00000000E+00  0.00000000E+00
  0.00000000E+00  0.00000000E+00  0.00000000E+00
  0.00000000E+00  0.00000000E+00  0.00000000E+00
  0.00000000E+00  0.00000000E+00  0.00000000E+00
  0.00000000E+00  0.00000000E+00  0.00000000E+00
