Mo  S Ru                                
   1.00000000000000     
    15.9215000000000000    0.0000000000000000    0.0000000000000000
    -7.9622500000000000   13.7910219999999999    0.0000000000000000
     0.0000000000000000    0.0000000000000000   13.5822000000000003
   Mo   S    Ru
    25    50     3
Direct
  0.1315649541417443  0.0652280933702798  0.6789842975304552
  0.1315648496052333  0.2653114016971756  0.6790123000847430
  0.1325168437495705  0.4659928118699455  0.6787780367251344
  0.1327711602255377  0.6658778449193150  0.6785675445465387
  0.1325055346595008  0.8654892367337865  0.6786978220683082
  0.3322425361132559  0.0638887367892806  0.6806115640969139
  0.3285386222988862  0.2636333416127883  0.6781337065306516
  0.3323010379796685  0.4673525793992113  0.6807787385918687
  0.3326125455813838  0.6661705525428516  0.6786856875629041
  0.3326008550941424  0.8654166902364864  0.6786379096383683
  0.5332943523467009  0.0650622270179397  0.6786207487272335
  0.5336871524799562  0.2626079751176178  0.6769898718009628
  0.5338552507155825  0.4701447767840392  0.6769125136100342
  0.5333121440220978  0.6672630420848265  0.6786114991490280
  0.5327341377256687  0.8658657926105349  0.6781374275130361
  0.7328746015454399  0.0656805015359012  0.6785377332607965
  0.7334998134405879  0.2651980100620719  0.6785052465759378
  0.7343052768823668  0.4666874692598597  0.6814093415472229
  0.7335326434115714  0.6673225625321990  0.6784727257620062
  0.7328841424446040  0.8662067791941013  0.6785093466587000
  0.9326192268915818  0.0658044485312175  0.6787356588550679
  0.9327240761641349  0.2658714128820634  0.6782976181043310
  0.9330848226614137  0.4659079095050558  0.6786974597786752
  0.9330931340480717  0.6661734939481008  0.6786671214911166
  0.9327207512238900  0.8658475912569870  0.6782406213974355
  0.0658270393260025  0.1324091933232339  0.5635214551336816
  0.0654097344112259  0.1321804090491625  0.7943289540083782
  0.0660332669475139  0.3326714901167591  0.5634629509055529
  0.0652848129183923  0.3324585716878516  0.7937877877747539
  0.0661468460961672  0.5326102965937523  0.5634250611965967
  0.0661466919474449  0.5326943431175977  0.7938484793241116
  0.0661349329204981  0.7324840457240498  0.5633770271876841
  0.0661508125760193  0.7324679624338870  0.7938182403527989
  0.0660234838413203  0.9323601016106480  0.5634055999101051
  0.0652719099555057  0.9317947012387293  0.7937178889050927
  0.2654109312696988  0.1308566548968315  0.5642762107724195
  0.2647386395987752  0.1303581257992477  0.7969151113336039
  0.2654805721279061  0.3335421753384864  0.5644062010128437
  0.2648063199061923  0.3332064316144425  0.7968204525829421
  0.2658862727713256  0.5327549595422241  0.5638261450618316
  0.2650257237996954  0.5337509163430454  0.7946825947250602
  0.2659702853064161  0.7324553585884317  0.5633310461451515
  0.2659607952139496  0.7324904901451532  0.7938680299129928
  0.2658556884342005  0.9320479222806526  0.5637099350698946
  0.2650061893795055  0.9302651012765324  0.7945863502227297
  0.4649084434116375  0.1303333149326491  0.5637071308487620
  0.4648224134845549  0.1285436818670860  0.7988982061147354
  0.4652812278626470  0.3321084489016854  0.5660393005539888
  0.4699046709886332  0.3346767714650483  0.7881233234588692
  0.4648933928193983  0.5335652804881406  0.5637794685622168
  0.4649509032094983  0.5353739015174597  0.7989529181795803
  0.4658410046744521  0.7327147377956962  0.5631377392241959
  0.4661985419230206  0.7333774901952381  0.7936488138791660
  0.4658630692958994  0.9321430992569333  0.5631341723546583
  0.4661824948513811  0.9318214490829391  0.7936182338405757
  0.6662629258333439  0.1321431160385842  0.5632266408576498
  0.6664569941518579  0.1321435023141078  0.7938181120552841
  0.6674759211499506  0.3335233480970246  0.5643652108066135
  0.6682254918139776  0.3325186247023169  0.7973168368711825
  0.6675588217883686  0.5330064703159820  0.5643014240280735
  0.6684313158475206  0.5348674715685320  0.7974864665133836
  0.6662741396289675  0.7331322968275913  0.5632035379075901
  0.6664906630923326  0.7333343111738770  0.7937827415765568
  0.6662023834650554  0.9326163143835018  0.5631703239019643
  0.6660436560581715  0.9325188580665511  0.7935015884300896
  0.8661074746941537  0.1323942578953421  0.5633387808211339
  0.8660299764036452  0.1325267932976715  0.7935814969356940
  0.8664710444079304  0.3327165506584251  0.5631434588953539
  0.8666644524719231  0.3324396493213726  0.7937114163035233
  0.8660908687033029  0.5325348259205356  0.5640567360739581
  0.8683674843670275  0.5336970553904550  0.7946502617236106
  0.8664838126650665  0.7327532573936324  0.5630933844445352
  0.8666930909698678  0.7332509193913026  0.7936751554538972
  0.8661091402555670  0.9327348865427965  0.5633025185821339
  0.8660317906619710  0.9324869465466605  0.7935554459164109
  0.3479936904152439  0.2734012341401098  0.8850400474067257
  0.5270140508552288  0.4549563325232100  0.8868846343582746
  0.5267398093325326  0.2711304487209674  0.8867077457274775
 
  0.00000000E+00  0.00000000E+00  0.00000000E+00
  0.00000000E+00  0.00000000E+00  0.00000000E+00
  0.00000000E+00  0.00000000E+00  0.00000000E+00
  0.00000000E+00  0.00000000E+00  0.00000000E+00
  0.00000000E+00  0.00000000E+00  0.00000000E+00
  0.00000000E+00  0.00000000E+00  0.00000000E+00
  0.00000000E+00  0.00000000E+00  0.00000000E+00
  0.00000000E+00  0.00000000E+00  0.00000000E+00
  0.00000000E+00  0.00000000E+00  0.00000000E+00
  0.00000000E+00  0.00000000E+00  0.00000000E+00
  0.00000000E+00  0.00000000E+00  0.00000000E+00
  0.00000000E+00  0.00000000E+00  0.00000000E+00
  0.00000000E+00  0.00000000E+00  0.00000000E+00
  0.00000000E+00  0.00000000E+00  0.00000000E+00
  0.00000000E+00  0.00000000E+00  0.00000000E+00
  0.00000000E+00  0.00000000E+00  0.00000000E+00
  0.00000000E+00  0.00000000E+00  0.00000000E+00
  0.00000000E+00  0.00000000E+00  0.00000000E+00
  0.00000000E+00  0.00000000E+00  0.00000000E+00
  0.00000000E+00  0.00000000E+00  0.00000000E+00
  0.00000000E+00  0.00000000E+00  0.00000000E+00
  0.00000000E+00  0.00000000E+00  0.00000000E+00
  0.00000000E+00  0.00000000E+00  0.00000000E+00
  0.00000000E+00  0.00000000E+00  0.00000000E+00
  0.00000000E+00  0.00000000E+00  0.00000000E+00
  0.00000000E+00  0.00000000E+00  0.00000000E+00
  0.00000000E+00  0.00000000E+00  0.00000000E+00
  0.00000000E+00  0.00000000E+00  0.00000000E+00
  0.00000000E+00  0.00000000E+00  0.00000000E+00
  0.00000000E+00  0.00000000E+00  0.00000000E+00
  0.00000000E+00  0.00000000E+00  0.00000000E+00
  0.00000000E+00  0.00000000E+00  0.00000000E+00
  0.00000000E+00  0.00000000E+00  0.00000000E+00
  0.00000000E+00  0.00000000E+00  0.00000000E+00
  0.00000000E+00  0.00000000E+00  0.00000000E+00
  0.00000000E+00  0.00000000E+00  0.00000000E+00
  0.00000000E+00  0.00000000E+00  0.00000000E+00
  0.00000000E+00  0.00000000E+00  0.00000000E+00
  0.00000000E+00  0.00000000E+00  0.00000000E+00
  0.00000000E+00  0.00000000E+00  0.00000000E+00
  0.00000000E+00  0.00000000E+00  0.00000000E+00
  0.00000000E+00  0.00000000E+00  0.00000000E+00
  0.00000000E+00  0.00000000E+00  0.00000000E+00
  0.00000000E+00  0.00000000E+00  0.00000000E+00
  0.00000000E+00  0.00000000E+00  0.00000000E+00
  0.00000000E+00  0.00000000E+00  0.00000000E+00
  0.00000000E+00  0.00000000E+00  0.00000000E+00
  0.00000000E+00  0.00000000E+00  0.00000000E+00
  0.00000000E+00  0.00000000E+00  0.00000000E+00
  0.00000000E+00  0.00000000E+00  0.00000000E+00
  0.00000000E+00  0.00000000E+00  0.00000000E+00
  0.00000000E+00  0.00000000E+00  0.00000000E+00
  0.00000000E+00  0.00000000E+00  0.00000000E+00
  0.00000000E+00  0.00000000E+00  0.00000000E+00
  0.00000000E+00  0.00000000E+00  0.00000000E+00
  0.00000000E+00  0.00000000E+00  0.00000000E+00
  0.00000000E+00  0.00000000E+00  0.00000000E+00
  0.00000000E+00  0.00000000E+00  0.00000000E+00
  0.00000000E+00  0.00000000E+00  0.00000000E+00
  0.00000000E+00  0.00000000E+00  0.00000000E+00
  0.00000000E+00  0.00000000E+00  0.00000000E+00
  0.00000000E+00  0.00000000E+00  0.00000000E+00
  0.00000000E+00  0.00000000E+00  0.00000000E+00
  0.00000000E+00  0.00000000E+00  0.00000000E+00
  0.00000000E+00  0.00000000E+00  0.00000000E+00
  0.00000000E+00  0.00000000E+00  0.00000000E+00
  0.00000000E+00  0.00000000E+00  0.00000000E+00
  0.00000000E+00  0.00000000E+00  0.00000000E+00
  0.00000000E+00  0.00000000E+00  0.00000000E+00
  0.00000000E+00  0.00000000E+00  0.00000000E+00
  0.00000000E+00  0.00000000E+00  0.00000000E+00
  0.00000000E+00  0.00000000E+00  0.00000000E+00
  0.00000000E+00  0.00000000E+00  0.00000000E+00
  0.00000000E+00  0.00000000E+00  0.00000000E+00
  0.00000000E+00  0.00000000E+00  0.00000000E+00
  0.00000000E+00  0.00000000E+00  0.00000000E+00
  0.00000000E+00  0.00000000E+00  0.00000000E+00
  0.00000000E+00  0.00000000E+00  0.00000000E+00
