generated by phonopy                    
   1.00000000000000     
     5.1086319684359323    0.0000000000000001    0.0000000000000000
    -2.5543159841679661    4.4242050632116472    0.0000000000000000
     0.0000000000000000    0.0000000000000000   25.0000000000000000
   B    N    Al
    11    12     1
Direct
  0.9999956662069583  0.5004713284139195  0.9999976533459121
  0.4998399910000018  0.5001599790000029  0.9999866109160543
  0.9999956662069583  0.0000042947930420  0.9999976533459121
  0.4995286415860780  0.0000042947930420  0.9999976533459121
  0.5047971021210376  0.0026385325605170  0.2557344065001222
  0.9973614804394805  0.4952029568789638  0.2557344065001222
  0.4998399910000018  0.5001599790000029  0.2569288958610480
  0.9973614804394805  0.0026385325605170  0.2557344065001222
  0.1616511829384226  0.3310656114692145  0.1324810453791844
  0.6689344185307878  0.3310656114692145  0.1324810453791844
  0.6689344185307878  0.8383487730615808  0.1324810453791844
  0.1665352893931718  0.3335076576965885  0.0000473024038501
  0.6664923723034140  0.3335076576965885  0.0000473024038501
  0.1665066779999975  0.8334932920000000  0.9996389371455168
  0.6664923723034140  0.8334646806068258  0.0000473024038501
  0.1663693232754291  0.3334246741377118  0.2585661817781746
  0.6665753848622824  0.3334246741377118  0.2585661817781746
  0.1665066779999975  0.8334932920000000  0.2507512213515339
  0.6665753848622824  0.8336306467245684  0.2585661817781746
  0.9872985970687369  0.4750771601374740  0.1337939447217411
  0.4998399910000018  0.5001599790000029  0.1355111562450642
  0.9872985970687369  0.0127014189312645  0.1337939447217411
  0.5249228698625285  0.0127014189312645  0.1337939447217411
  0.1665066779999975  0.8334932920000000  0.1581415790938330
 
  0.00000000E+00  0.00000000E+00  0.00000000E+00
  0.00000000E+00  0.00000000E+00  0.00000000E+00
  0.00000000E+00  0.00000000E+00  0.00000000E+00
  0.00000000E+00  0.00000000E+00  0.00000000E+00
  0.00000000E+00  0.00000000E+00  0.00000000E+00
  0.00000000E+00  0.00000000E+00  0.00000000E+00
  0.00000000E+00  0.00000000E+00  0.00000000E+00
  0.00000000E+00  0.00000000E+00  0.00000000E+00
  0.00000000E+00  0.00000000E+00  0.00000000E+00
  0.00000000E+00  0.00000000E+00  0.00000000E+00
  0.00000000E+00  0.00000000E+00  0.00000000E+00
  0.00000000E+00  0.00000000E+00  0.00000000E+00
  0.00000000E+00  0.00000000E+00  0.00000000E+00
  0.00000000E+00  0.00000000E+00  0.00000000E+00
  0.00000000E+00  0.00000000E+00  0.00000000E+00
  0.00000000E+00  0.00000000E+00  0.00000000E+00
  0.00000000E+00  0.00000000E+00  0.00000000E+00
  0.00000000E+00  0.00000000E+00  0.00000000E+00
  0.00000000E+00  0.00000000E+00  0.00000000E+00
  0.00000000E+00  0.00000000E+00  0.00000000E+00
  0.00000000E+00  0.00000000E+00  0.00000000E+00
  0.00000000E+00  0.00000000E+00  0.00000000E+00
  0.00000000E+00  0.00000000E+00  0.00000000E+00
  0.00000000E+00  0.00000000E+00  0.00000000E+00
