generated by phonopy                    
   1.00000000000000     
     5.1086261428504853    0.0000000000000001    0.0000000000000000
    -2.5543130714252427    4.4242000181458296    0.0000000000000000
     0.0000000000000000    0.0000000000000000   25.0000000000000000
   B    N    Al
    11    12     1
Direct
  0.0001557822317946  0.5003115644634755  0.0220470940267172
  0.5000000000000000  0.5000000000000000  0.0220359088278335
  0.0001557822316809  0.9998442177683190  0.0220470940267172
  0.4996884355365246  0.9998442177682053  0.0220470940267172
  0.5049573025493287  0.0024786512751903  0.2777851513220997
  0.9975213487248099  0.4950426974506709  0.2777851513220997
  0.5000000000000000  0.5000000000000000  0.2789786601590992
  0.9975213487258615  0.0024786512741387  0.2777851513220997
  0.1618098986575225  0.3309049488305715  0.1545312090157883
  0.6690950511730522  0.3309049488269478  0.1545312090157883
  0.6690950511694285  0.8381901013424771  0.1545312090157883
  0.1666953352898786  0.3333476671451506  0.0220977732409918
  0.6666523328552828  0.3333476671447172  0.0220977732409918
  0.1666666670000012  0.8333333329999988  0.0216894532626906
  0.6666523328548423  0.8333046647101214  0.0220977732409918
  0.1665293458264503  0.3332646724141044  0.2806156480803031
  0.6667353275876508  0.3332646724123494  0.2806156480803031
  0.1666666670000012  0.8333333329999988  0.2728007237931729
  0.6667353275858957  0.8334706541735497  0.2806156480803031
  0.9874566251935776  0.4749132503716226  0.1558435485620582
  0.5000000000000000  0.5000000000000000  0.1575613509585009
  0.9874566251780522  0.0125433748219479  0.1558435485620582
  0.5250867496283778  0.0125433748064225  0.1558435485620582
  0.1666666670000012  0.8333333329999988  0.1801925132547965
 
  0.00000000E+00  0.00000000E+00  0.00000000E+00
  0.00000000E+00  0.00000000E+00  0.00000000E+00
  0.00000000E+00  0.00000000E+00  0.00000000E+00
  0.00000000E+00  0.00000000E+00  0.00000000E+00
  0.00000000E+00  0.00000000E+00  0.00000000E+00
  0.00000000E+00  0.00000000E+00  0.00000000E+00
  0.00000000E+00  0.00000000E+00  0.00000000E+00
  0.00000000E+00  0.00000000E+00  0.00000000E+00
  0.00000000E+00  0.00000000E+00  0.00000000E+00
  0.00000000E+00  0.00000000E+00  0.00000000E+00
  0.00000000E+00  0.00000000E+00  0.00000000E+00
  0.00000000E+00  0.00000000E+00  0.00000000E+00
  0.00000000E+00  0.00000000E+00  0.00000000E+00
  0.00000000E+00  0.00000000E+00  0.00000000E+00
  0.00000000E+00  0.00000000E+00  0.00000000E+00
  0.00000000E+00  0.00000000E+00  0.00000000E+00
  0.00000000E+00  0.00000000E+00  0.00000000E+00
  0.00000000E+00  0.00000000E+00  0.00000000E+00
  0.00000000E+00  0.00000000E+00  0.00000000E+00
  0.00000000E+00  0.00000000E+00  0.00000000E+00
  0.00000000E+00  0.00000000E+00  0.00000000E+00
  0.00000000E+00  0.00000000E+00  0.00000000E+00
  0.00000000E+00  0.00000000E+00  0.00000000E+00
  0.00000000E+00  0.00000000E+00  0.00000000E+00
