generated by phonopy                    
   1.00000000000000     
     5.1079137497014857    0.0000000000000000    0.0000000000000000
    -2.5539568748507429    4.4235830675813152   0.0000000000000000
     0.0000000000000000    0.0000000000000000   25.0000000000000000
   B    N    Al
    11    12     1
Direct
  0.0001543173491340  0.5003086346981556  0.0219788361807209
  0.5000000000000000  0.5000000000000000  0.0219637820143851
  0.0001543173490219 -0.0001543173490219  0.0219788361807209
  0.4996913653018442 -0.0001543173491336  0.0219788361807209
  0.5049864289858590  0.0024932144934574  0.2780024995385906
  0.9975067855065419  0.4950135710141416  0.2780024995385906
  0.5000000000000000  0.5000000000000000  0.2792270027520037
  0.9975067855075991  0.0024932144924013  0.2780024995385906
  0.1617735132725812  0.3308867561381010  0.1544975479769662
  0.6691132438655238  0.3308867561344759  0.1544975479769662
  0.6691132438618984  0.8382264867274188  0.1544975479769662
  0.1666943686587686  0.3333471838295963  0.0219213710177462
  0.6666528161708392  0.3333471838291620  0.0219213710177462
  0.1666666670000012  0.8333333329999988  0.0215264802852717
  0.6666528161703972  0.8333056313412311  0.0219213710177462
  0.1665267475883053  0.3332633732950321  0.2807489076429117
  0.6667366267067243  0.3332633732932764  0.2807489076429117
  0.1666666670000012  0.8333333329999988  0.2728270941205238
  0.6667366267049677  0.8334732524116955  0.2807489076429117
  0.9875844273149614  0.4751688546143967  0.1557341213592666
  0.5000000000000000  0.5000000000000000  0.1574320091557182
  0.9875844272994352  0.0124155727005643  0.1557341213592666
  0.5248311453856039  0.0124155726850389  0.1557341213592666
  0.1666666670000012  0.8333333329999988  0.1803936635234749
