generated by phonopy                    
   1.00000000000000     
     5.1139913022035994    0.0000000000000000    0.0000000000000000
    -2.5569962408397684    4.4288460419940421    0.0000000000000000
     0.0000000000000000    0.0000000000000000   25.0000000000000000
   B    N    Al
    11    12     1
Direct
  0.0000433250174296  0.5000866500349170 -0.0015417357150505
  0.5000000000000000  0.5000000000000000 -0.0015359432411131
  0.0000433250174869 -0.0000433250174869 -0.0015417357150505
  0.4999133499650839 -0.0000433250174296 -0.0015417357150505
  0.5040614077387263  0.0020307038689678  0.2921348764663333
 -0.0020307038689678  0.4959385922612739  0.2921348764663333
  0.5000000000000000  0.5000000000000000  0.2932978579659012
 -0.0020307038697580  0.0020307038697580  0.2921348764663333
  0.1619737748833728  0.3309868869429098  0.1642023405518019
  0.6690131130595410  0.3309868869404591  0.1642023405518019
  0.6690131130570901  0.8380262251166273  0.1642023405518019
  0.1666703922038545  0.3333351956019220  0.9983915398436499
  0.6666648043980711  0.3333351956019287  0.9983915398436499
  0.1666666670000012  0.8333333329999988  0.9982456190599464
  0.6666648043980775  0.8333296077961456  0.9983915398436499
  0.1665342852656368  0.3332671421327826  0.2944789915718663
  0.6667328578671491  0.3332671421328507  0.2944789915718663
  0.1666666670000012  0.8333333329999988  0.2876021584664803
  0.6667328578672174  0.8334657147343634  0.2944789915718663
 -0.0127635408667881  0.4744729182461497  0.1652294995117906
  0.5000000000000000  0.5000000000000000  0.1667350034110960
 -0.0127635408870611  0.0127635408870623  0.1652294995117906
  0.5255270817538490  0.0127635408667881  0.1652294995117906
  0.1666666670000012  0.8333333329999988  0.1889886506464983
