Ta  N Ru Cu                             
   1.00000000000000     
     9.0548154099999998    0.0000000000000000    0.0000000000000000
     0.0000000000000000   11.6775998899999998    0.0000000000000000
     0.0000000000000000    0.0000000000000000   26.4818170799999990
   Ta   N    Ru   Cu
    60    60    32     1
Selective dynamics
Direct
  0.0000000000000000  0.0000000000000000  0.2258397498815228   F   F   F
  0.6670845899906297  0.1250000003211298  0.2339882671631202   F   F   F
  0.3329153514769843  0.1250000003211298  0.2339882671631202   F   F   F
  0.4999999994478088  0.2499999997859135  0.3208898207564346   F   F   F
  0.1650707596845180  0.1250000003211298  0.3267034403329916   F   F   F
  0.8349292403154820  0.1250000003211298  0.3267034403329916   F   F   F
  0.0009734838122848  0.2501744859753768  0.4255306900250614   T   T   T
  0.6648264065003053  0.1251471165886665  0.4239162009825950   T   T   T
  0.3351006522467083  0.1251564439323876  0.4239043647511935   T   T   T
  0.4972441528166280  0.2502110820879210  0.5233496926455204   T   T   T
  0.1674202186581455  0.1253535167000284  0.5233773886796036   T   T   T
  0.8337715359407532  0.1252115596449162  0.5226257437841467   T   T   T
  0.0076717590216261  0.2500875677885076  0.6229878972529330   T   T   T
  0.6645968115356724  0.1249469883680662  0.6200900496775344   T   T   T
  0.3310245509388289  0.1253804974994767  0.6238916184238276   T   T   T
  0.0000000000000000  0.2499999997859135  0.2258397498815228   F   F   F
  0.6670845899906297  0.3750000001070433  0.2339882671631202   F   F   F
  0.3329153514769843  0.3750000001070433  0.2339882671631202   F   F   F
  0.4999999994478088  0.5000000004281731  0.3208898207564346   F   F   F
  0.1650707596845180  0.3750000001070433  0.3267034403329916   F   F   F
  0.8349292403154820  0.3750000001070433  0.3267034403329916   F   F   F
  0.0010042607017038  0.4999171755201947  0.4255342717160043   T   T   T
  0.6649808737169630  0.3750674176986067  0.4240311261106726   T   T   T
  0.3351284682304164  0.3750319765350191  0.4240596151327718   T   T   T
  0.4971817333455242  0.4999387953297019  0.5234143229007823   T   T   T
  0.1673579042732163  0.3751540942079692  0.5238565553073938   T   T   T
  0.8342237210582674  0.3751000899119744  0.5228654162375346   T   T   T
  0.0098906381218200  0.5004210238830161  0.6240805441032693   T   T   T
  0.6651904867858051  0.3747765010305686  0.6201364212967722   T   T   T
  0.3324441435285688  0.3751575818016234  0.6239593761312632   T   T   T
  0.0000000000000000  0.5000000004281731  0.2258397498815228   F   F   F
  0.6670845899906297  0.6249999998929567  0.2339882671631202   F   F   F
  0.3329153514769843  0.6249999998929567  0.2339882671631202   F   F   F
  0.4999999994478088  0.7500000002140865  0.3208898207564346   F   F   F
  0.1650707596845180  0.6249999998929567  0.3267034403329916   F   F   F
  0.8349292403154820  0.6249999998929567  0.3267034403329916   F   F   F
  0.0007720014711880  0.7498917637120608  0.4254494418280316   T   T   T
  0.6648925478512040  0.6249162420533708  0.4239462270948908   T   T   T
  0.3350766680379603  0.6249185490371296  0.4239603167911677   T   T   T
  0.4975838963863360  0.7500588468655091  0.5230360317395711   T   T   T
  0.1670901713596231  0.6248099521994036  0.5234810312721412   T   T   T
  0.8338356845504866  0.6248151804565317  0.5226967510359064   T   T   T
  0.0037633743419202  0.7501061812596271  0.6220446495076115   T   T   T
  0.6650489768022370  0.6246950261013934  0.6200845523108744   T   T   T
  0.3308953826154817  0.6254816365327529  0.6239724737507765   T   T   T
  0.0000000000000000  0.7500000002140865  0.2258397498815228   F   F   F
  0.6670845899906297  0.8750000005352163  0.2339882671631202   F   F   F
  0.3329153514769843  0.8750000005352163  0.2339882671631202   F   F   F
  0.4999999994478088  0.0000000000000000  0.3208898207564346   F   F   F
  0.1650707596845180  0.8750000005352163  0.3267034403329916   F   F   F
  0.8349292403154820  0.8750000005352163  0.3267034403329916   F   F   F
  0.0007461287513186  0.0001592640758249  0.4254533350799409   T   T   T
  0.6647661726478170  0.8750000615443214  0.4239078822576710   T   T   T
  0.3351000715350610  0.8750100509592333  0.4238728012114296   T   T   T
  0.4975347492951411  0.0001472211868167  0.5230108000581521   T   T   T
  0.1667235338185232  0.8750863586812745  0.5230374069579989   T   T   T
  0.8333836259209561  0.8750390339392596  0.5225032869783334   T   T   T
  0.0057672765626137  0.9998403914031295  0.6221571745377986   T   T   T
  0.6658070308263571  0.8752298707076578  0.6203307071510892   T   T   T
  0.3306743820961168  0.8751063994539438  0.6220740827154184   T   T   T
  0.8141011533980276  0.0000000000000000  0.2671765160246267   F   F   F
  0.4999999994478088  0.0000000000000000  0.2273691263583544   F   F   F
  0.1858988466019724  0.0000000000000000  0.2671765160246267   F   F   F
  0.3088456122590841  0.2499999997859135  0.3635413069267344   F   F   F
  0.0000000000000000  0.2499999997859135  0.3485649890092901   F   F   F
  0.6911543877409159  0.2499999997859135  0.3635413069267344   F   F   F
  0.8025712230763268  0.2502438305876949  0.4627444084461175   T   T   T
  0.4998374199489250  0.2501452816567021  0.4457468922482826   T   T   T
  0.1988898801274999  0.2502801523044095  0.4633529908743108   T   T   T
  0.3015432719518120  0.2501607307298462  0.5632326299993777   T   T   T
  0.0005896980985784  0.2502900153646171  0.5441478048726520   T   T   T
  0.6953912209366611  0.2500752772087089  0.5603923560338117   T   T   T
  0.8075686757636915  0.2499628070893981  0.6560302471900924   T   T   T
  0.5030998108862990  0.2498433541850559  0.6434797408910714   T   T   T
  0.2021831340259860  0.2507793569825263  0.6639038634455743   T   T   T
  0.8141011533980276  0.2499999997859135  0.2671765160246267   F   F   F
  0.4999999994478088  0.2499999997859135  0.2273691263583544   F   F   F
  0.1858988466019724  0.2499999997859135  0.2671765160246267   F   F   F
  0.3088456122590841  0.5000000004281731  0.3635413069267344   F   F   F
  0.0000000000000000  0.5000000004281731  0.3485649890092901   F   F   F
  0.6911543877409159  0.5000000004281731  0.3635413069267344   F   F   F
  0.8028058154026549  0.4998767599905012  0.4628057841613262   T   T   T
  0.4997981715134411  0.4999840621875057  0.4458215069142501   T   T   T
  0.1988619636627849  0.4998542553453298  0.4634543837381759   T   T   T
  0.3015925071802825  0.5002859106454294  0.5635103938577388   T   T   T
  0.0007366844959671  0.4999280280143354  0.5449461714023009   T   T   T
  0.6954263801784356  0.4997977290744251  0.5604008117167976   T   T   T
  0.8083793451617901  0.4994084304277034  0.6557669532609671   T   T   T
  0.5041233015161405  0.4996800734180514  0.6437197755356349   T   T   T
  0.2065036895864546  0.5004918401689570  0.6654249154422912   T   T   T
  0.8141011533980276  0.5000000004281731  0.2671765160246267   F   F   F
  0.4999999994478088  0.5000000004281731  0.2273691263583544   F   F   F
  0.1858988466019724  0.5000000004281731  0.2671765160246267   F   F   F
  0.3088456122590841  0.7500000002140865  0.3635413069267344   F   F   F
  0.0000000000000000  0.7500000002140865  0.3485649890092901   F   F   F
  0.6911543877409159  0.7500000002140865  0.3635413069267344   F   F   F
  0.8023750727874860  0.7498824849524366  0.4626299211206398   T   T   T
  0.4997814831859179  0.7499087822863277  0.4455862038099258   T   T   T
  0.1986005711585518  0.7498466606076448  0.4631143874741158   T   T   T
  0.3013791517375305  0.7497063725746821  0.5622251156478733   T   T   T
  0.0000093269300099  0.7498658631945120  0.5435597338658520   T   T   T
  0.6955594845513906  0.7499797626795394  0.5601854207570436   T   T   T
  0.8036943417689952  0.7508364525484325  0.6555393402064401   T   T   T
  0.5014040558166667  0.7500134559090751  0.6413622750483237   T   T   T
  0.1981370710475037  0.7523766981695074  0.6604717975976122   T   T   T
  0.8141011533980276  0.7500000002140865  0.2671765160246267   F   F   F
  0.4999999994478088  0.7500000002140865  0.2273691263583544   F   F   F
  0.1858988466019724  0.7500000002140865  0.2671765160246267   F   F   F
  0.3088456122590841  0.0000000000000000  0.3635413069267344   F   F   F
  0.0000000000000000  0.0000000000000000  0.3485649890092901   F   F   F
  0.6911543877409159  0.0000000000000000  0.3635413069267344   F   F   F
  0.8023577218734704  0.0001495802800598  0.4626086079890413   T   T   T
  0.4997604982014421  0.0001443342353745  0.4455634766998302   T   T   T
  0.1987196509139700  0.0002339507750285  0.4630806729039008   T   T   T
  0.3015185763473206  0.0005297319713110  0.5623713024990905   T   T   T
  0.0001945559095282  0.0003315315904524  0.5436566971150985   T   T   T
  0.6955495193699768  0.0000186747045577  0.5601501626534889   T   T   T
  0.8054865567075530  0.0000025533346725  0.6551094998118028   T   T   T
  0.5025209389817731 -0.0000170237500340  0.6421455122648264   T   T   T
  0.2017953738696493  0.9985148253944973  0.6618101574498839   T   T   T
  0.0663157556928428  0.0100777917463735  0.7304236565302666   T   T   T
  0.5515621622544834  0.9965721250095944  0.7193683412328740   T   T   T
  0.8186211755615075  0.1240560317221295  0.7118003581243528   T   T   T
  0.0577805548538881  0.5013260314470309  0.7361911735145484   T   T   T
  0.5564302282579169  0.4884415270583374  0.7221602893357781   T   T   T
  0.8192166280964528  0.6250814509576152  0.7109249650749297   T   T   T
  0.0698254722006713  0.2440157745716010  0.7308049543332183   T   T   T
  0.5527914564119929  0.2508081210149213  0.7214457282428794   T   T   T
  0.8232712839424567  0.3731086248342049  0.7106555041019698   T   T   T
  0.0787246825637442  0.7411165024739632  0.7299367366090617   T   T   T
  0.5374557817133100  0.7534120852242046  0.7178244645975066   T   T   T
  0.8272216033718020  0.8756899623856562  0.7145865702925228   T   T   T
  0.2997348902034512  0.8894394339607367  0.7276677982307471   T   T   T
  0.3087686351053797  0.6035403519931968  0.7331678003593052   T   T   T
  0.3055122237252332  0.3756562957030596  0.7305437846273529   T   T   T
  0.3139736168173275  0.1228708262734310  0.7335370104760787   T   T   T
  0.1337503033934173  0.8792855474250372  0.8038885879499997   T   T   T
  0.6376143870960084  0.8639889297212465  0.7913753329683014   T   T   T
  0.8793110200685077  0.9878080818411319  0.7985442019592294   T   T   T
  0.1458093712882078  0.3677576666256598  0.8097983730769376   T   T   T
  0.6636953129700155  0.3644147069097206  0.7958673002800117   T   T   T
  0.8732676476237164  0.5427025296336452  0.8048732615288965   T   T   T
  0.1473477793717986  0.1156600844294957  0.8074639395401485   T   T   T
  0.6424505984585939  0.1179305273577950  0.7924316140381813   T   T   T
  0.9116853275655433  0.3914188935269192  0.8535710491372858   T   T   T
  0.1396740363268368  0.6267219354369324  0.8078216026144609   T   T   T
  0.6318688361746158  0.6321638172424311  0.7899771502501890   T   T   T
  0.8913656656969694  0.7651880510835410  0.7995883517611435   T   T   T
  0.3892815634880925  0.7609007290030494  0.7986310041529194   T   T   T
  0.4090610829740539  0.4797281440932246  0.8038469671411710   T   T   T
  0.4040606003063500  0.2556969265480524  0.8022948656630277   T   T   T
  0.4024414641198931  0.9940164490942384  0.8024796134923707   T   T   T
  0.8868670513904922  0.2165863451633661  0.8020545028602485   T   T   T
 
  0.00000000E+00  0.00000000E+00  0.00000000E+00
  0.00000000E+00  0.00000000E+00  0.00000000E+00
  0.00000000E+00  0.00000000E+00  0.00000000E+00
  0.00000000E+00  0.00000000E+00  0.00000000E+00
  0.00000000E+00  0.00000000E+00  0.00000000E+00
  0.00000000E+00  0.00000000E+00  0.00000000E+00
  0.00000000E+00  0.00000000E+00  0.00000000E+00
  0.00000000E+00  0.00000000E+00  0.00000000E+00
  0.00000000E+00  0.00000000E+00  0.00000000E+00
  0.00000000E+00  0.00000000E+00  0.00000000E+00
  0.00000000E+00  0.00000000E+00  0.00000000E+00
  0.00000000E+00  0.00000000E+00  0.00000000E+00
  0.00000000E+00  0.00000000E+00  0.00000000E+00
  0.00000000E+00  0.00000000E+00  0.00000000E+00
  0.00000000E+00  0.00000000E+00  0.00000000E+00
  0.00000000E+00  0.00000000E+00  0.00000000E+00
  0.00000000E+00  0.00000000E+00  0.00000000E+00
  0.00000000E+00  0.00000000E+00  0.00000000E+00
  0.00000000E+00  0.00000000E+00  0.00000000E+00
  0.00000000E+00  0.00000000E+00  0.00000000E+00
  0.00000000E+00  0.00000000E+00  0.00000000E+00
  0.00000000E+00  0.00000000E+00  0.00000000E+00
  0.00000000E+00  0.00000000E+00  0.00000000E+00
  0.00000000E+00  0.00000000E+00  0.00000000E+00
  0.00000000E+00  0.00000000E+00  0.00000000E+00
  0.00000000E+00  0.00000000E+00  0.00000000E+00
  0.00000000E+00  0.00000000E+00  0.00000000E+00
  0.00000000E+00  0.00000000E+00  0.00000000E+00
  0.00000000E+00  0.00000000E+00  0.00000000E+00
  0.00000000E+00  0.00000000E+00  0.00000000E+00
  0.00000000E+00  0.00000000E+00  0.00000000E+00
  0.00000000E+00  0.00000000E+00  0.00000000E+00
  0.00000000E+00  0.00000000E+00  0.00000000E+00
  0.00000000E+00  0.00000000E+00  0.00000000E+00
  0.00000000E+00  0.00000000E+00  0.00000000E+00
  0.00000000E+00  0.00000000E+00  0.00000000E+00
  0.00000000E+00  0.00000000E+00  0.00000000E+00
  0.00000000E+00  0.00000000E+00  0.00000000E+00
  0.00000000E+00  0.00000000E+00  0.00000000E+00
  0.00000000E+00  0.00000000E+00  0.00000000E+00
  0.00000000E+00  0.00000000E+00  0.00000000E+00
  0.00000000E+00  0.00000000E+00  0.00000000E+00
  0.00000000E+00  0.00000000E+00  0.00000000E+00
  0.00000000E+00  0.00000000E+00  0.00000000E+00
  0.00000000E+00  0.00000000E+00  0.00000000E+00
  0.00000000E+00  0.00000000E+00  0.00000000E+00
  0.00000000E+00  0.00000000E+00  0.00000000E+00
  0.00000000E+00  0.00000000E+00  0.00000000E+00
  0.00000000E+00  0.00000000E+00  0.00000000E+00
  0.00000000E+00  0.00000000E+00  0.00000000E+00
  0.00000000E+00  0.00000000E+00  0.00000000E+00
  0.00000000E+00  0.00000000E+00  0.00000000E+00
  0.00000000E+00  0.00000000E+00  0.00000000E+00
  0.00000000E+00  0.00000000E+00  0.00000000E+00
  0.00000000E+00  0.00000000E+00  0.00000000E+00
  0.00000000E+00  0.00000000E+00  0.00000000E+00
  0.00000000E+00  0.00000000E+00  0.00000000E+00
  0.00000000E+00  0.00000000E+00  0.00000000E+00
  0.00000000E+00  0.00000000E+00  0.00000000E+00
  0.00000000E+00  0.00000000E+00  0.00000000E+00
  0.00000000E+00  0.00000000E+00  0.00000000E+00
  0.00000000E+00  0.00000000E+00  0.00000000E+00
  0.00000000E+00  0.00000000E+00  0.00000000E+00
  0.00000000E+00  0.00000000E+00  0.00000000E+00
  0.00000000E+00  0.00000000E+00  0.00000000E+00
  0.00000000E+00  0.00000000E+00  0.00000000E+00
  0.00000000E+00  0.00000000E+00  0.00000000E+00
  0.00000000E+00  0.00000000E+00  0.00000000E+00
  0.00000000E+00  0.00000000E+00  0.00000000E+00
  0.00000000E+00  0.00000000E+00  0.00000000E+00
  0.00000000E+00  0.00000000E+00  0.00000000E+00
  0.00000000E+00  0.00000000E+00  0.00000000E+00
  0.00000000E+00  0.00000000E+00  0.00000000E+00
  0.00000000E+00  0.00000000E+00  0.00000000E+00
  0.00000000E+00  0.00000000E+00  0.00000000E+00
  0.00000000E+00  0.00000000E+00  0.00000000E+00
  0.00000000E+00  0.00000000E+00  0.00000000E+00
  0.00000000E+00  0.00000000E+00  0.00000000E+00
  0.00000000E+00  0.00000000E+00  0.00000000E+00
  0.00000000E+00  0.00000000E+00  0.00000000E+00
  0.00000000E+00  0.00000000E+00  0.00000000E+00
  0.00000000E+00  0.00000000E+00  0.00000000E+00
  0.00000000E+00  0.00000000E+00  0.00000000E+00
  0.00000000E+00  0.00000000E+00  0.00000000E+00
  0.00000000E+00  0.00000000E+00  0.00000000E+00
  0.00000000E+00  0.00000000E+00  0.00000000E+00
  0.00000000E+00  0.00000000E+00  0.00000000E+00
  0.00000000E+00  0.00000000E+00  0.00000000E+00
  0.00000000E+00  0.00000000E+00  0.00000000E+00
  0.00000000E+00  0.00000000E+00  0.00000000E+00
  0.00000000E+00  0.00000000E+00  0.00000000E+00
  0.00000000E+00  0.00000000E+00  0.00000000E+00
  0.00000000E+00  0.00000000E+00  0.00000000E+00
  0.00000000E+00  0.00000000E+00  0.00000000E+00
  0.00000000E+00  0.00000000E+00  0.00000000E+00
  0.00000000E+00  0.00000000E+00  0.00000000E+00
  0.00000000E+00  0.00000000E+00  0.00000000E+00
  0.00000000E+00  0.00000000E+00  0.00000000E+00
  0.00000000E+00  0.00000000E+00  0.00000000E+00
  0.00000000E+00  0.00000000E+00  0.00000000E+00
  0.00000000E+00  0.00000000E+00  0.00000000E+00
  0.00000000E+00  0.00000000E+00  0.00000000E+00
  0.00000000E+00  0.00000000E+00  0.00000000E+00
  0.00000000E+00  0.00000000E+00  0.00000000E+00
  0.00000000E+00  0.00000000E+00  0.00000000E+00
  0.00000000E+00  0.00000000E+00  0.00000000E+00
  0.00000000E+00  0.00000000E+00  0.00000000E+00
  0.00000000E+00  0.00000000E+00  0.00000000E+00
  0.00000000E+00  0.00000000E+00  0.00000000E+00
  0.00000000E+00  0.00000000E+00  0.00000000E+00
  0.00000000E+00  0.00000000E+00  0.00000000E+00
  0.00000000E+00  0.00000000E+00  0.00000000E+00
  0.00000000E+00  0.00000000E+00  0.00000000E+00
  0.00000000E+00  0.00000000E+00  0.00000000E+00
  0.00000000E+00  0.00000000E+00  0.00000000E+00
  0.00000000E+00  0.00000000E+00  0.00000000E+00
  0.00000000E+00  0.00000000E+00  0.00000000E+00
  0.00000000E+00  0.00000000E+00  0.00000000E+00
  0.00000000E+00  0.00000000E+00  0.00000000E+00
  0.00000000E+00  0.00000000E+00  0.00000000E+00
  0.00000000E+00  0.00000000E+00  0.00000000E+00
  0.00000000E+00  0.00000000E+00  0.00000000E+00
  0.00000000E+00  0.00000000E+00  0.00000000E+00
  0.00000000E+00  0.00000000E+00  0.00000000E+00
  0.00000000E+00  0.00000000E+00  0.00000000E+00
  0.00000000E+00  0.00000000E+00  0.00000000E+00
  0.00000000E+00  0.00000000E+00  0.00000000E+00
  0.00000000E+00  0.00000000E+00  0.00000000E+00
  0.00000000E+00  0.00000000E+00  0.00000000E+00
  0.00000000E+00  0.00000000E+00  0.00000000E+00
  0.00000000E+00  0.00000000E+00  0.00000000E+00
  0.00000000E+00  0.00000000E+00  0.00000000E+00
  0.00000000E+00  0.00000000E+00  0.00000000E+00
  0.00000000E+00  0.00000000E+00  0.00000000E+00
  0.00000000E+00  0.00000000E+00  0.00000000E+00
  0.00000000E+00  0.00000000E+00  0.00000000E+00
  0.00000000E+00  0.00000000E+00  0.00000000E+00
  0.00000000E+00  0.00000000E+00  0.00000000E+00
  0.00000000E+00  0.00000000E+00  0.00000000E+00
  0.00000000E+00  0.00000000E+00  0.00000000E+00
  0.00000000E+00  0.00000000E+00  0.00000000E+00
  0.00000000E+00  0.00000000E+00  0.00000000E+00
  0.00000000E+00  0.00000000E+00  0.00000000E+00
  0.00000000E+00  0.00000000E+00  0.00000000E+00
  0.00000000E+00  0.00000000E+00  0.00000000E+00
  0.00000000E+00  0.00000000E+00  0.00000000E+00
  0.00000000E+00  0.00000000E+00  0.00000000E+00
  0.00000000E+00  0.00000000E+00  0.00000000E+00
  0.00000000E+00  0.00000000E+00  0.00000000E+00
  0.00000000E+00  0.00000000E+00  0.00000000E+00
  0.00000000E+00  0.00000000E+00  0.00000000E+00
  0.00000000E+00  0.00000000E+00  0.00000000E+00
  0.00000000E+00  0.00000000E+00  0.00000000E+00
