Ta  N Ru                                
   1.00000000000000     
    18.1096308199999996    0.0000000000000000    0.0000000000000000
     0.0000000000000000   23.3551997799999995    0.0000000000000000
     0.0000000000000000    0.0000000000000000   30.4818171199999988
   Ta   N    Ru
   216   240    24
Direct
 -0.0001568051291975 -0.0002447134160617  0.1954547443757542
  0.3340174063499202  0.0621677386466014  0.2019807633838887
  0.1666540720237538  0.0622790069492056  0.2016562869517216
  0.2501810844280107  0.1248826592975387  0.2771439830050728
  0.0823902382874492  0.0624201944157660  0.2823265939982350
  0.4174536999539663  0.0624146163468307  0.2831565756441454
  0.0000808856671418  0.1251669092221063  0.3678364632353317
  0.3318876078381717  0.0626289241123945  0.3675744571441362
  0.1674381792569410  0.0626659544115448  0.3667467478243829
  0.2505789003816026  0.1237226282867629  0.4555572263973175
  0.0825029096885325  0.0626042286193663  0.4514017468414246
  0.4164634640506286  0.0621943723713412  0.4531679819088039
  0.0018094469039357  0.1357583215314297  0.5416184665289615
  0.0000318737838255  0.1247867439435604  0.1951818837240472
  0.3341689554666621  0.1872326753886702  0.2017625381720363
  0.1666456993299910  0.1872650271096758  0.2014936897973246
  0.2503672473733561  0.2498176454360330  0.2768937550909440
  0.0827946859541520  0.1874481217868158  0.2821997915817510
  0.4173741902852335  0.1873430573512527  0.2828829941113899
  0.0005714959741275  0.2499022648058726  0.3676490839729843
  0.3323137453251905  0.1873488515960875  0.3674525685199438
  0.1679458353438366  0.1875264061876684  0.3668353943162395
  0.2513968135726565  0.2512948056907183  0.4553879954572277
  0.0867654725471797  0.1881906239712381  0.4543463188418457
  0.4168494011742037  0.1873687144237665  0.4541628751949653
  0.0004820543806729  0.2498815620752714  0.1950362094827955
  0.3340009151791333  0.3125060180548339  0.2015686501257782
  0.1668703575454966  0.3125309774379000  0.2013302504804932
  0.2504288570185141  0.3749418518822884  0.2766598797118300
  0.0828817844953743  0.3124848077768945  0.2820438728745870
  0.4176120189244757  0.3123424243172743  0.2826450493811845
  0.0004284948376800  0.3751155698958876  0.3674843132186149
  0.3324886449547786  0.3120553614087183  0.3672798604916392
  0.1679569567586988  0.3124090171646395  0.3664637211875495
  0.2517807037658162  0.3749052849390043  0.4539364058318692
  0.0842654886815297  0.3133939078598212  0.4508701982738728
  0.4184477221822435  0.3119638208133212  0.4524480578077752
  0.0001283891725174  0.3750593940063314  0.1949846292947000
  0.3339765249316959  0.4376004291313715  0.2016760898074260
  0.1668626714530174  0.4375598669384987  0.2014746193561820
  0.2500294614484253 -0.0001247367465596  0.2772378789653274
  0.0826399291629942  0.4376195625992279  0.2821324457624622
  0.4175968336608588  0.4374415739928164  0.2826276362547609
  0.9995978585172786  0.0001005139800573  0.3678616694866649
  0.3321698044072163  0.4370007206691020  0.3670247376301747
  0.1682928085309341  0.4374458956351688  0.3664688366332226
  0.2497185409087786  0.0012696214309418  0.4539535067152432
  0.0843766649982403  0.4368964121431975  0.4522993530152172
  0.4180556636191519  0.4365484900038216  0.4521293897323023
  0.3352677700146026  0.4332137447155127  0.5394187356741815
 -0.0000027117217587  0.5003969147804360  0.1953795050586588
  0.3342427578889564  0.5628400479285141  0.2021097359152519
  0.1663051911895688  0.5628315439838807  0.2016706505143145
  0.2499451733892895  0.6249512202921326  0.2775163816202904
  0.0823182925887987  0.5626359955517478  0.2824723292302201
  0.4173933238417926  0.5625455655474925  0.2834224671419675
 -0.0001335997710527  0.6249563545911133  0.3685615752771744
  0.3318500153948958  0.5620095083227254  0.3674071214856265
  0.1673990071019195  0.5623392581009359  0.3667317802242721
  0.2508583401345810  0.6247935349621879  0.4553728272740901
  0.0853924255185502  0.5621653054884138  0.4526734053033107
  0.4153380571826771  0.5603593746228366  0.4526046890492530
 -0.0005599047590960  0.6252915315737863  0.1958498617643842
  0.3343015400371532  0.6875206524929350  0.2025762975760299
  0.1661816494680017  0.6875876334787420  0.2021085533893035
  0.2497922207245991  0.7500108625419614  0.2777219252426344
  0.0819668910757175  0.6875615049103341  0.2829200387411820
  0.4173197774102354  0.6874614596295057  0.2841769969410408
  0.9990360637791509  0.7502332007918858  0.3688568690508092
  0.3309474368485294  0.6871287091784639  0.3681404645445762
  0.1668557255585207  0.6873950137262018  0.3674019208348159
  0.2450908523035996  0.7496223223146472  0.4539274598977495
  0.0839717736922746  0.6881106663262887  0.4543492162716282
  0.4142990633188324  0.6861449628473704  0.4551730630468610
  0.3013236385036349  0.6946232289501374  0.5439920138879716
 -0.0005748149432843  0.7501373092321776  0.1960703148155283
  0.3342637950514634  0.8124293128266864  0.2025519968503674
  0.1661902188619595  0.8124459402202088  0.2020312030238055
  0.2498888458822031  0.8749549342086660  0.2776105659129713
  0.0817301157143324  0.8124636998252950  0.2828147456628155
  0.4172029844651128  0.8122531526625513  0.2841411126756855
  0.9991859775495813  0.8751526329406897  0.3684136646474254
  0.3316450974267032  0.8124067030281519  0.3682223221352356
  0.1670277830396358  0.8125634443371831  0.3669505344522733
  0.2493079229571922  0.8760078621774569  0.4540751772157558
  0.0813816387424215  0.8128719011144198  0.4524741271894672
  0.4114094801189199  0.8122062398783214  0.4545567734417381
  0.0036479378537944  0.8791961901354858  0.5419260906458577
 -0.0007387090566024  0.8747727661071438  0.1958920584815391
  0.3339637600073423  0.9370925187931951  0.2022432863928461
  0.1666755167370896  0.9371933757314236  0.2019475772292376
  0.2502624798574763  0.4999135229246183  0.2771607573175962
  0.0820478730754139  0.9373952021107791  0.2825489200970286
  0.4173476338294611  0.9373256333111230  0.2834007784880160
  0.0002511724730767  0.5001620911184673  0.3680508699719350
  0.3317757413482728  0.9375127829929554  0.3672856670485552
  0.1672743309792802  0.9377219432880136  0.3667973132068461
  0.2530922722493948  0.4975351868426820  0.4544915187316978
  0.0842357079457999  0.9385219019219371  0.4527709963387702
  0.4163365771495306  0.9389213094141042  0.4529191797055530
  0.3310877601492536  0.9368551813190991  0.5425193063415193
  0.4997599049587448 -0.0003770341446710  0.1960054937478829
  0.8330222329950316  0.0620948392525690  0.2016342583286281
  0.6658907934486293  0.0620464418187481  0.2018736476582783
  0.7498999085137078  0.1249683178063397  0.2768776258993738
  0.5822691925628809  0.0623816980572486  0.2829537884513701
  0.9174976171207765  0.0624876775026811  0.2822571918823060
  0.4999578432006896  0.1250274714027344  0.3687339017050525
  0.8326774264232715  0.0626425225034068  0.3665979274801160
  0.6677575913695755  0.0625570939144664  0.3668612317059000
  0.7498552660181352  0.1257279565802954  0.4534363895426719
  0.5836171973031601  0.0622720146886541  0.4526537217102961
  0.9147018769752888  0.0628472276497040  0.4533248656888249
  0.5039957096985306  0.1188245531012546  0.5421242561893568
  0.4999224781414649  0.1246641998324471  0.1956217320077912
  0.8335826628107487  0.1874847161586353  0.2013104302052690
  0.6659459225661658  0.1874637204439069  0.2015124436293150
  0.7501939527243994  0.2499324944938936  0.2765088337671338
  0.5824949262793351  0.1873801903623110  0.2826157555530940
  0.9177141630588482  0.1875126798172926  0.2820595733620365
  0.5001348739685263  0.2497105104602907  0.3683266108573613
  0.8327864901115918  0.1876256728034362  0.3662750065410450
  0.6683552007029256  0.1875377287627441  0.3667763857730169
  0.7511758689065399  0.2505710648866206  0.4535922788999216
  0.5853276024588845  0.1878739520427640  0.4530138443917775
  0.9179486396981574  0.1880503638082502  0.4518982648835718
  0.8319167753873489  0.1863690143107411  0.5427897934033317
  0.4996859265574345  0.2498386259514036  0.1953218343027643
  0.8334470184826348  0.3124703023087994  0.2012200249872761
  0.6662497153410849  0.3123863494555375  0.2013752436179395
  0.7503753066763111  0.3749726962606410  0.2764259340753794
  0.5824601584565127  0.3123933968858424  0.2823203158806583
  0.9179776799578350  0.3124982820248534  0.2818530854388122
  0.5006950574032183  0.3744945201976048  0.3678770789530824
  0.8330067294574754  0.3124726161819855  0.3662891459155710
  0.6683786237464151  0.3124309707796264  0.3661350786144019
  0.7520879819345013  0.3742249120794012  0.4524433500931261
  0.5839443785098921  0.3125536280381987  0.4520814177089915
  0.9163817476646370  0.3125646634212049  0.4527052197443602
  0.5072370289959158  0.3764125183711758  0.5417267688637835
  0.5000185731874905  0.3748971585872033  0.1952774725718006
  0.8333398677405798  0.4379450214187593  0.2014760605908316
  0.6662825878166291  0.4379290465177177  0.2016594129930725
  0.7494615262083659 -0.0002529879813740  0.2772503362213519
  0.5824871732605696  0.4375415816616193  0.2824277634358475
  0.9177673746402835  0.4376722072651018  0.2820492951106212
  0.4997966842912495  0.0002879670045284  0.3686970084277806
  0.8330826848338405  0.4375551851156718  0.3663070356958815
  0.6681730555261243  0.4375150735106630  0.3662018003696831
  0.7495080223513038  0.0002195931487507  0.4538712481875871
  0.5860371658898251  0.4369481702041932  0.4516735735348212
  0.9179649336809150  0.4373961271901157  0.4518082220391167
  0.8360385928357867  0.4332514087997289  0.5411111943935835
  0.4998501903835666  0.5003071665104430  0.1958352623029901
  0.8334246462239761  0.5628190344705020  0.2018565282207306
  0.6654105275624120  0.5627859724392077  0.2022243860127980
  0.7490053459649718  0.6252577645695847  0.2781354908842629
  0.5822554000575747  0.5626557204104475  0.2834916150448634
  0.9172728171431435  0.5627165980103127  0.2826719620714047
  0.4993616986827427  0.6248923526075467  0.3702484763683009
  0.8324121365268643  0.5627724854081171  0.3673003742982349
  0.6670432085373950  0.5626692856173702  0.3678203759562124
  0.7473957758627223  0.6254080745426531  0.4559451441957237
  0.5838352329419029  0.5622907446539489  0.4547241760909054
  0.9168642808332310  0.5622472896028772  0.4534463197425975
  0.4492395509938653  0.6095672532689004  0.5435402721492096
  0.5001967863436029  0.6253311924799330  0.1966029862835421
  0.8329651678653118  0.6878217053783733  0.2024011460515851
  0.6650081639176894  0.6877832965113437  0.2028520046119588
  0.7485017669848189  0.7500813621509346  0.2785110999923204
  0.5821150357377550  0.6875323489159507  0.2845337595858277
  0.9166222903838835  0.6876307668107263  0.2832824291736312
  0.4992949806786392  0.7495743417424514  0.3709526142830581
  0.8311195546957838  0.6875775973479182  0.3681253787786895
  0.6662961362775723  0.6874757657513982  0.3699983796815207
  0.7486959460436878  0.7493470730235003  0.4563985275408645
  0.5829597483424023  0.6874326994927246  0.4581146057797535
  0.9168370018230069  0.6867922859338235  0.4528064786894659
  0.8360063842957157  0.6842756205716934  0.5418442770518053
  0.4999550293677619  0.7501020560234736  0.1969661843556874
  0.8328444366649803  0.8122148143028859  0.2023626139043914
  0.6649583341953809  0.8121035804859713  0.2028528035883809
  0.7487145082682530  0.8748514011670745  0.2781582032966088
  0.5819794394395580  0.8122801273870737  0.2846139146583072
  0.9166926728828680  0.8124361982520215  0.2831214030410407
  0.4995766266007499  0.8747542044783470  0.3698872395799281
  0.8312045312135415  0.8125154028997446  0.3678124949174312
  0.6658343386404358  0.8122994211511921  0.3697520130738026
  0.7470063486576910  0.8785202722068222  0.4552946412849305
  0.5821337995061910  0.8133044598688765  0.4574699049514228
  0.9137345186084672  0.8129622078358510  0.4543728638639559
  0.5035055926992825  0.8630010615235877  0.5457699509512269
  0.5001441118114066  0.8746226405516322  0.1966312235950872
  0.8327929172963956  0.9373090921008200  0.2020130120552513
  0.6654874756673126  0.9373060916433005  0.2024246389577359
  0.7499112245748533  0.5003200713748671  0.2769356428759763
  0.5821785843605791  0.9372803244464829  0.2836581842477314
  0.9169838663722645  0.9373946705718088  0.2826080171418112
  0.5002979754160878  0.4997534477459493  0.3685223096577938
  0.8313945011802523  0.9375937630810931  0.3668450887380404
  0.6673382498256255  0.9374266847131312  0.3681408243381274
  0.7527697022628834  0.4992458576885709  0.4528315439203308
  0.5830614334795375  0.9389214093160249  0.4533898145675129
  0.9166795227487541  0.9382854382124701  0.4514864682959230
  0.8318230941806383  0.9376222155091036  0.5397123900484173
  0.1651013473622796  0.0687249509269134  0.5416298116733866
  0.1641474500791467  0.3110007087119356  0.5392456847408410
  0.1688681654451710  0.8180300976238144  0.5438080010742075
  0.6722815816438860  0.0702337974213684  0.5425282727279920
  0.6753792798410010  0.3150579146823568  0.5417335409402370
  0.1652135038931666  0.4411898257270924  0.5404812816008574
  0.6563336211425649  0.9427947089604685  0.5429370014503887
  0.3333559631227099  0.0669141004542885  0.5425811015270983
  0.3350567501807195  0.3103836366552029  0.5414134156305905
 -0.0000586195422996  0.4946046070738107  0.5417818491952141
  0.8438829436152724  0.5598711611333619  0.5419243614733217
  0.4063198829592971 -0.0002437078032204  0.2314095921007341
  0.2503200815125982 -0.0003231420565839  0.1982091928918636
  0.0936547351227836 -0.0002092427708113  0.2305557308588277
  0.1546185625194265  0.1249698752274479  0.3143483233733447
  0.0000453709110752  0.1250926377494306  0.3011756122089919
  0.3453785239397021  0.1249287698957322  0.3149323728156053
  0.4008208208969273  0.1250029870224141  0.4015403699166580
  0.2497392000544356  0.1251638439399937  0.3872456407958266
  0.0986435960701627  0.1258621987409270  0.4005297463026572
  0.1499543282304595  0.1216633820271809  0.4836425029188678
  0.0002597817821916  0.1256236606746550  0.4734703238952401
  0.3500826327247371  0.1231974845362625  0.4874401679203582
  0.4074387849787303  0.1216370797382089  0.5730576690409358
  0.2481460139666293  0.1227052806258710  0.5583751449114767
  0.0979042071056937  0.1252429745707895  0.5704723725714289
  0.4064911421820125  0.1247181107147131  0.2311276410590919
  0.2503545830213501  0.1247476282703709  0.1979030432781455
  0.0937848239329109  0.1248240880009590  0.2303988279175627
  0.1549721331203347  0.2498993665762948  0.3141465199723047
  0.0003595770838629  0.2499664721040505  0.3010114074846679
  0.3454689972827429  0.2497701902941295  0.3147581238306481
  0.4011104855156846  0.2494733474844494  0.4012538337737337
  0.2501841361904003  0.2497967766517112  0.3871534793409668
  0.0993338647631560  0.2495784502205637  0.4002104221758749
  0.1514831700465402  0.2541410919219657  0.4836603228335715
  0.0010883918308084  0.2501744113875297  0.4709403519116054
  0.3507486889981887  0.2516197760785635  0.4877987379091559
  0.4152173990791651  0.2592115728489271  0.5701718053791833
  0.2487119316671669  0.2571138459564922  0.5584806696822333
  0.0943921279758880  0.2469014737643805  0.5662973316061543
  0.4064440961153098  0.2498088421022247  0.2309317192100958
  0.2503930839983081  0.2497712259431484  0.1978646763060470
  0.0941015065432626  0.2499018211065591  0.2303221713055408
  0.1548371698117323  0.3749623458026318  0.3139349875293281
  0.0002800655495253  0.3750961180700407  0.3009098647198103
  0.3456279962190291  0.3746704453221470  0.3144581130851112
  0.4019483523230367  0.3742890644775309  0.4005992520140809
  0.2502227275833082  0.3745049734568708  0.3860596018741883
  0.0993952770064856  0.3754908633789618  0.3997610634047813
  0.1523892100568740  0.3747197354375570  0.4850412686188850
  0.0001695961243798  0.3755691677496245  0.4722055272284101
  0.3513639457954092  0.3731045934645669  0.4860960262036992
  0.4072539422898924  0.3813255054914237  0.5689295067337655
  0.2522451066502635  0.3758953859701242  0.5537697488637594
  0.0994437750546675  0.3774881989053491  0.5656408146879542
  0.4065328224472196  0.3749593633520552  0.2307177836991043
  0.2504393460642532  0.3750697583568398  0.1970700370567081
  0.0939011780057352  0.3750940652120828  0.2301657504722184
  0.1542028921927089  0.0001333399536037  0.3142542588217696
 -0.0003037254324999 -0.0000698314331973  0.3013017883395226
  0.3453350020987328  0.0000987179656031  0.3149315739870230
  0.4006094863439750  0.0002867806497013  0.4011760683746048
  0.2495183964937553  0.0002380937251847  0.3861170110072736
  0.0985508918867334  0.9999070014401487  0.4002454625696645
  0.1512112317586030  0.0033198900976575  0.4849278424366678
  0.9992355184040027  0.9998251951654549  0.4722977043688891
  0.3478389747447131  0.0001675578573545  0.4864098809269614
  0.4044082813412515  0.0012588623711973  0.5657776765273238
  0.2493973249570121  0.0013893874876912  0.5574154264756728
  0.0972046413492263 -0.0002002106250535  0.5668547129671012
  0.4063759148727162  0.5002516265534684  0.2311581130721635
  0.2503294932548135  0.5004172930896966  0.1984272023018299
  0.0938599421377152  0.5002333016596343  0.2304310368647579
  0.1541854925308498  0.6250035776852566  0.3145808766885065
 -0.0004137587267987  0.6251753956877945  0.3018997732404964
  0.3449980610833562  0.6249227004578661  0.3153564946191809
  0.3994029209832048  0.6243528374453320  0.4019357100828812
  0.2492623884177548  0.6243661705788179  0.3871433113670272
  0.0988439094417543  0.6251882547648165  0.4008380985147730
  0.1506489644525647  0.6250331306690142  0.4840120072223936
  0.0006221267439070  0.6243798991347386  0.4705278368945572
  0.3496990152281941  0.6215492782160658  0.4886028449930779
  0.3547779313530146  0.6255783962947870  0.5728848964452625
  0.2238350402316734  0.6187532365317312  0.5584562035120221
  0.0823558634910089  0.6315814688969249  0.5708966789389242
  0.4064799135804308  0.6252598773698158  0.2319278456760671
  0.2502092953199217  0.6252395347575946  0.1984514588743077
  0.0934104437807153  0.6252432556607813  0.2308325189077872
  0.1537973170388072  0.7500192541604479  0.3147652287145408
 -0.0007373571911431  0.7499476995836696  0.3021604757379053
  0.3449382609955456  0.7497898285652103  0.3156273295026535
  0.3989525393852912  0.7493871032732672  0.4022938163728478
  0.2486640351814217  0.7500350882049464  0.3862889733647253
  0.0982502898041647  0.7502106240490253  0.4013040935994555
  0.1476826575613771  0.7540627101387181  0.4876921975486991
  0.9983211865030825  0.7510615263271241  0.4716761389985076
  0.3399720643729897  0.7451344775764780  0.4866164961232106
  0.3765375996097092  0.7487615097520789  0.5726688012167179
  0.2186699432619399  0.7425449011377956  0.5641531477298156
  0.0813637518774997  0.7667423871067087  0.5716626245661556
  0.4063256616845157  0.7498873152738165  0.2322695128476416
  0.2502775236156561  0.7499711238975346  0.1993262470461951
  0.0933653103483340  0.7500070750642185  0.2310573954068028
  0.1539195168694751  0.8749569467877508  0.3144764091037835
 -0.0006514066216054  0.8749374748976948  0.3017715301355099
  0.3451480533056370  0.8748763319212342  0.3153214559034165
  0.4006121705831994  0.8750305215197623  0.4020586017393942
  0.2492516208493232  0.8753555293994391  0.3863370171845195
  0.0983643929711639  0.8755502662160279  0.4007713076385803
  0.1509417545746557  0.8741722442503269  0.4851604170140400
  0.9996798906782524  0.8760350225129999  0.4730242353745386
  0.3468010824454735  0.8817326025270955  0.4853951023153293
  0.4011542270860979  0.8755755869578278  0.5671927280532143
  0.2478668010689458  0.8783919321339853  0.5582114373617211
  0.1020679503619798  0.8799065497138677  0.5699936250145599
  0.4064103536403976  0.8746241265705946  0.2319004978197396
  0.2502541513950016  0.8746082156188600  0.1982369002870766
  0.0933613571372994  0.8747848556545306  0.2307874221016742
  0.1545705605600737  0.4999904137853834  0.3141635664338728
  0.0000379876808862  0.5001923492478983  0.3013482757563614
  0.3455389734792098  0.4996638527307330  0.3146767144124435
  0.4009653688018235  0.4987945499646526  0.4005226243962524
  0.2500519481729118  0.4996759121899135  0.3865155002883202
  0.0994673017147789  0.4996872975356013  0.4002445226329692
  0.1530391462000386  0.4978608213794962  0.4845154884616918
  0.0013755156027610  0.4995270088450782  0.4725365162477541
  0.3521448481291547  0.4963699757448955  0.4877498153601364
  0.4528717204395037  0.5313827037516481  0.5701337251009458
  0.2599584581491203  0.4930669015907115  0.5612132474793516
  0.0977001893278399  0.5010796278697123  0.5697220915427098
  0.9059965933959782 -0.0002289669180831  0.2305383365755104
  0.7493091072946733 -0.0004080659852476  0.1975188325606966
  0.5932504603840077 -0.0003156617530220  0.2313996303715680
  0.6546145722077740  0.1249850314635458  0.3143865790760643
  0.4999793359767254  0.1250044506437384  0.3020381550049276
  0.8456486197457862  0.1250376741947866  0.3140397063529889
  0.9014119265609803  0.1249211586173475  0.4008037815815129
  0.7504990082836702  0.1251286952522133  0.3856311844984039
  0.5996064619685387  0.1253117185350423  0.4007732905641410
  0.6525220715002206  0.1227415770795195  0.4852863666887777
  0.5013505455539802  0.1245732565042577  0.4725019222614591
  0.8476591941729525  0.1278947814454299  0.4852867363748898
  0.9040873205490673  0.1254810811911938  0.5675004496087261
  0.7597930720422096  0.1221125446503490  0.5606582967049595
  0.6000079576797165  0.1287339869007692  0.5711808828973981
  0.9061914146779984  0.1248524191127208  0.2302928712072992
  0.7495980486626106  0.1248296680038869  0.1981987677646962
  0.5935054346812560  0.1248124947768780  0.2308971275254021
  0.6547432734184866  0.2499255182701296  0.3140312536573618
  0.5000399940709116  0.2497908190171615  0.3016716776986326
  0.8459973669375468  0.2500925443867165  0.3138467799213455
  0.9016979874959563  0.2502961107299692  0.4004006470942378
  0.7506758815403062  0.2500562767569874  0.3855148929759423
  0.5998737955182225  0.2499537198334786  0.4003736398058437
  0.6536696387146420  0.2552113512034137  0.4850156173332900
  0.5016546960582494  0.2507009324041931  0.4714131955367241
  0.8493030773960381  0.2475084056584087  0.4854248143381030
  0.9103020243013801  0.2457795821095769  0.5669842441985803
  0.7623689310204058  0.2574572004867514  0.5580416945568043
  0.5977342876603049  0.2570600207233796  0.5685831435944666
  0.9065094448157807  0.2499720955911103  0.2300575217291208
  0.7498175523582700  0.2498415630852478  0.1971073121747884
  0.5934282201121152  0.2498423469036547  0.2305123859250305
  0.6548626231168321  0.3749087671463792  0.3138394319014654
  0.5001527010274716  0.3749086205298434  0.3013224616861231
  0.8460505180614334  0.3749499951195009  0.3137883113412288
  0.9016182223177468  0.3746101048493256  0.4002890267390354
  0.7506644271878404  0.3748917854168436  0.3848616371890928
  0.5999941879904895  0.3746639943107066  0.4000895097493856
  0.6545833877028909  0.3725481743914233  0.4844290363376653
  0.5022798041046642  0.3757441973763015  0.4728849634225121
  0.8492152825168541  0.3769405872627265  0.4844796951482840
  0.9111927608999876  0.3687924694436173  0.5638534216659338
  0.7504523133358734  0.3787682530131013  0.5588962700360633
  0.6053349639604078  0.3771222352796078  0.5695305234137804
  0.9063578771065914  0.3751581912996173  0.2300654658653698
  0.7497622490538974  0.3751969473690920  0.1976336944142432
  0.5936424047463474  0.3749976219938011  0.2304372236602072
  0.6542086907534302 -0.0001539692557945  0.3149520718383044
  0.4997735932328176 -0.0001143455398034  0.3021450638616243
  0.8452796256887740  0.0000191405658106  0.3142921914238808
  0.9007422835813285  0.0006832657648265  0.4004374355417218
  0.7499351680347796  0.0005123217526836  0.3860254065651591
  0.5989955864247961  0.0001596475021509  0.4011089025918789
  0.6513727908995283  0.0018778248698131  0.4861493729560143
  0.5000038468393347  0.0006210010207175  0.4736641443511738
  0.8484644327021231  0.9987358948658231  0.4843980279183749
  0.9095375503616289  0.0020007370571964  0.5609359484108684
  0.7516690003707935  0.0027772648723064  0.5565025894708400
  0.5981735378047464  0.0132486836769900  0.5672913044517506
  0.9062418925035154  0.5003943021492072  0.2305049027238332
  0.7495975720953952  0.5005852698323636  0.1976157554015991
  0.5934074839926382  0.5003503900083786  0.2310910946623445
  0.6539456132269154  0.6253218802800742  0.3161416709469622
  0.4996684088004390  0.6249917254157487  0.3033459021118836
  0.8448570551297032  0.6251852191902656  0.3150528467940089
  0.9005708987127711  0.6247992443172298  0.4010382471029503
  0.7492826403463961  0.6247074063364573  0.3877610666888199
  0.5981009197440358  0.6247851370234264  0.4033412604471930
  0.6490135318505422  0.6232139433524124  0.4880806230443225
  0.4958330556063384  0.6217848302582011  0.4749223973566392
  0.8491917181780078  0.6248309486552148  0.4865456289101667
  0.9070465264848299  0.6239721350082265  0.5679363619710902
  0.7577197986221504  0.6211143872601107  0.5538633789769597
  0.5248076501065508  0.6651674843767658  0.5634547461614354
  0.9057080099815114  0.6253258040270510  0.2312082063764204
  0.7492411344243145  0.6253464034962171  0.1998280052108029
  0.5933767906604821  0.6253250047881438  0.2323040345044459
  0.6536135852573370  0.7498963646099442  0.3169255141715379
  0.4995186448951223  0.7498071627448046  0.3039562476795094
  0.8443371415913080  0.7500652787165990  0.3153818006531378
  0.8999762862981687  0.7502324256689049  0.4015384470468797
  0.7490398306187096  0.7502759147960172  0.3882831696599149
  0.5977463880949999  0.7501583747585894  0.4048847115092717
  0.6516990014519223  0.7525500426024614  0.4902615837945010
  0.4931594587867799  0.7487212390010253  0.4735108252910114
  0.8492486960747087  0.7465182638891551  0.4868004948550063
  0.9103370977520109  0.7452047842597596  0.5712895605818989
  0.7718748685444974  0.7602924424035158  0.5580831682863698
  0.5513175175290697  0.7872695341467151  0.5460874552479663
  0.9056658471785189  0.7500317513992047  0.2314001325996510
  0.7490240447947966  0.7499582212382033  0.1989602789963438
  0.5931061656099275  0.7499453156190207  0.2328062692203467
  0.6536688347909045  0.8746342536229902  0.3161845360115173
  0.4995831546714889  0.8747844300338660  0.3031715565518137
  0.8446923767297453  0.8748556991474457  0.3148919210784106
  0.9000869780248287  0.8748276035849163  0.4009011825697918
  0.7492386923955102  0.8748534441041882  0.3873797474395141
  0.5977287588134893  0.8747040510768812  0.4031686425087994
  0.6479038451711099  0.8788579574592895  0.4885541656186517
  0.4983129120908333  0.8758061859238176  0.4763292573633577
  0.8472977284513673  0.8799941639262914  0.4846110768460389
  0.9027987943925424  0.8774152889953930  0.5685581054923514
  0.7409372617492421  0.8866752285341032  0.5579783356042755
  0.5768671975557771  0.9033801218168905  0.5749482564138745
  0.9055021712735222  0.8747594299939706  0.2310988271366257
  0.7490057152052946  0.8746094131687668  0.1996779491399720
  0.5933588328379933  0.8746197909081113  0.2323272482072317
  0.6546913397153186  0.5002632116979192  0.3145173371028419
  0.4999657429359333  0.4999712299092904  0.3019400765639180
  0.8455758503048839  0.5002653451843367  0.3142355546704360
  0.9011710961205934  0.5001563660789966  0.4006639704303684
  0.7505857793214820  0.5001610342211705  0.3854838151742738
  0.5994007832246100  0.5000206078546172  0.4003058719925378
  0.6550168701565944  0.4981714240442822  0.4813817689705211
  0.5025387161451674  0.4979606799278690  0.4706107301490831
  0.8504702532497050  0.4976332694674338  0.4869720054745008
  0.9020312847361708  0.4950574148204139  0.5719067958356551
  0.7521594732058303  0.4930985377422100  0.5567706236006142
  0.6165249073653379  0.5057167997354204  0.5612997559660541
  0.3858730999150761  0.1915576655331691  0.5402246303921514
  0.0030943856759596  0.3862369376451478  0.5384843297951163
  0.9971126475278139  0.6208552181350804  0.5370838348294162
  0.1416195264214145  0.5716106209273589  0.5394853293295557
  0.6956377109608644  0.5611895182539576  0.5326034902786895
  0.7096736826717100  0.8140004017481886  0.5327957319750715
  0.1758907242222971  0.1914839738071053  0.5530732819000128
  0.1182424427321070  0.6991993872234387  0.5450237218615963
  0.1613216868069233  0.9414071057942323  0.5361326552867250
  0.6368820638405532  0.1932532475603337  0.5343930584157358
  0.6717372584943460  0.4373020300009590  0.5355516333816835
  0.6016510584494861  0.7145544243921623  0.5437051038080639
  0.0023003951397937  0.2417868617559591  0.5375133756104473
  0.0046811824580789  0.9894526906743600  0.5390544895896363
  0.2919466602773843  0.5639467002425462  0.5387810271512474
  0.9942316540901259  0.7593968858973038  0.5390621625183478
  0.3472051299337514  0.8135398161567519  0.5321223315393906
  0.8366994518845375  0.0639369693767122  0.5364939130118033
  0.5073543558857444  0.2603115006770951  0.5384539734229667
  0.8481667766153920  0.3074634796258978  0.5377713290682009
  0.5002712629523931  0.0125963554379142  0.5402754813517118
  0.4627508244962614  0.7375150005908776  0.5404206215283484
  0.8584110185717970  0.8085506336971157  0.5403149504763313
  0.5248952911771839  0.5000195245406193  0.5368042392724394
 
  0.00000000E+00  0.00000000E+00  0.00000000E+00
  0.00000000E+00  0.00000000E+00  0.00000000E+00
  0.00000000E+00  0.00000000E+00  0.00000000E+00
  0.00000000E+00  0.00000000E+00  0.00000000E+00
  0.00000000E+00  0.00000000E+00  0.00000000E+00
  0.00000000E+00  0.00000000E+00  0.00000000E+00
  0.00000000E+00  0.00000000E+00  0.00000000E+00
  0.00000000E+00  0.00000000E+00  0.00000000E+00