Ta  N Ru Cu                             
   1.00000000000000     
    18.1096308199999996    0.0000000000000000    0.0000000000000000
     0.0000000000000000   23.3551997799999995    0.0000000000000000
     0.0000000000000000    0.0000000000000000   30.4818171199999988
   Ta   N    Ru   Cu
   228   240    12    29
Selective dynamics
Direct
  0.0000000000000000  0.0000718897725491  0.1971343760886626   F   F   F
  0.3342926788609191  0.0624132533110782  0.2026937887487748   F   F   F
  0.1663206737861032  0.0625684649998774  0.2026879820083352   F   F   F
  0.2502068123330190  0.1250918008632027  0.2779408447549940   F   F   F
  0.0826029539126765  0.0626929340700357  0.2836274479951371   F   F   F
  0.4173382701790516  0.0622475086359557  0.2840383815018441   F   F   F
  0.0001593074993451  0.1247938372377320  0.3694522854613851   F   F   F
  0.3314773260518606  0.0622439120064797  0.3681698487927960   F   F   F
  0.1676847546028526  0.0624904952108238  0.3684386647878455   F   F   F
  0.2492792395864001  0.1258031199765668  0.4557474689028638   F   F   F
  0.0875039373110766  0.0615856003608997  0.4553605497125304   F   F   F
  0.4147391006836685  0.0615651338264840  0.4541802723078590   F   F   F
  0.0034477787327987  0.1165662475870306  0.5453041048886149   F   F   F
  0.3376824773946439  0.0605729778946866  0.5433432309759851   F   F   F
  0.0000000000000000  0.1251997425645683  0.1971274211227225   F   F   F
  0.3343369646891574  0.1874555577019379  0.2027209852901350   F   F   F
  0.1662604295983101  0.1876312787421597  0.2027221991285302   F   F   F
  0.2501999651476083  0.2498887637432148  0.2779024612165273   F   F   F
  0.0825727489899180  0.1876830445164330  0.2837096281351847   F   F   F
  0.4172972975050442  0.1872505070046557  0.2840867710054695   F   F   F
  0.0001848187869342  0.2502094632050316  0.3694513996874207   F   F   F
  0.3314424827131859  0.1872295266660302  0.3682434664511902   F   F   F
  0.1677293717465176  0.1875640560245273  0.3683695416121537   F   F   F
  0.2499002903472771  0.2490527614746014  0.4552314891652358   F   F   F
  0.0834656440555790  0.1880542680590196  0.4537898756345555   F   F   F
  0.4148584846745109  0.1873806279211365  0.4537733083807680   F   F   F
  0.9931387988394107  0.2402453009545624  0.5485180865096666   F   F   F
  0.3393047081453417  0.1856017521079849  0.5422849935397807   F   F   F
  0.1767625211036759  0.1890228746311351  0.5413681846799321   F   F   F
  0.0000000000000000  0.2500718921274867  0.1971343760886626   F   F   F
  0.3342926788609191  0.3124132556660157  0.2026937887487748   F   F   F
  0.1663206737861032  0.3125684245377940  0.2026879820083352   F   F   F
  0.2502068123330190  0.3750918032181332  0.2779408447549940   F   F   F
  0.0826029539126765  0.3126929364249662  0.2836274479951371   F   F   F
  0.4173382701790516  0.3122475109908933  0.2840383815018441   F   F   F
  0.0001938195226003  0.3748901778822642  0.3693819484473053   F   F   F
  0.3314219411569397  0.3123721513291216  0.3680957390377486   F   F   F
  0.1671764615243561  0.3126522174412329  0.3683978863790287   F   F   F
  0.2503938951086795  0.3768321437154469  0.4549045729593928   F   F   F
  0.0862025855477953  0.3134713926219277  0.4561454438645356   F   F   F
  0.4156035578421609  0.3117126836240658  0.4538711043877584   F   F   F
  0.0045195841270029  0.3706316829459411  0.5491434101222623   F   F   F
  0.3363703578801065  0.3114613905477768  0.5424743851360034   F   F   F
  0.0000000000000000  0.3751997449194988  0.1971274211227225   F   F   F
  0.3343369646891574  0.4374555600568684  0.2027209852901350   F   F   F
  0.1662604295983101  0.4376312382800762  0.2027221991285302   F   F   F
  0.2501999651476083  0.9998887708080204  0.2779024612165273   F   F   F
  0.0825727489899180  0.4376830468713706  0.2837096281351847   F   F   F
  0.4172972975050442  0.4372505093595933  0.2840867710054695   F   F   F
  0.0000363894773230  0.0005332859541909  0.3693793895447399   F   F   F
  0.3315619219232673  0.4374723871447870  0.3682790942484360   F   F   F
  0.1675453812481393  0.4376837319436504  0.3680705764958674   F   F   F
  0.2485485786396637  0.9978294341098533  0.4556396341242817   F   F   F
  0.0827741335480212  0.4387905518485766  0.4536992642386153   F   F   F
  0.4164948515499347  0.4378832592456661  0.4533522048766869   F   F   F
  0.9987500573465553  0.9950146005559048  0.5442228701357692   F   F   F
  0.3377481330676844  0.4385116417959409  0.5400960492344851   F   F   F
  0.1671342740271271  0.4437974454355142  0.5427869321197463   F   F   F
  0.0000000000000000  0.5000718944824172  0.1971343760886626   F   F   F
  0.3342926788609191  0.5624132580209533  0.2026937887487748   F   F   F
  0.1663206737861032  0.5625684268927316  0.2026879820083352   F   F   F
  0.2502068123330190  0.6250918055730708  0.2779408447549940   F   F   F
  0.0826029539126765  0.5626929387799038  0.2836274479951371   F   F   F
  0.4173382701790516  0.5622475133458238  0.2840383815018441   F   F   F
  0.9996319637840116  0.6248682579241915  0.3691389511230057   F   F   F
  0.3316051585860009  0.5623402550059424  0.3684307584350464   F   F   F
  0.1673162766329668  0.5626008393750510  0.3681801172094978   F   F   F
  0.2498355181820315  0.6254903463728780  0.4562755870244501   F   F   F
  0.0833074409409775  0.5636697662193981  0.4548961088970671   F   F   F
  0.4166643746081604  0.5620472581545215  0.4541579311200863   F   F   F
  0.9897254769106354  0.6317642811445907  0.5445353515066316   F   F   F
  0.3245049586273154  0.5645076952538091  0.5429411224024818   F   F   F
  0.0000000000000000  0.6251997472744364  0.1971274211227225   F   F   F
  0.3343369646891574  0.6874555624118059  0.2027209852901350   F   F   F
  0.1662604295983101  0.6876312406350138  0.2027221991285302   F   F   F
  0.2501999651476083  0.7498887684530899  0.2779024612165273   F   F   F
  0.0825727489899180  0.6876830492263082  0.2837096281351847   F   F   F
  0.4172972975050442  0.6872505117145238  0.2840867710054695   F   F   F
  0.9995943594834671  0.7504554944980200  0.3693150233033080   F   F   F
  0.3320434336717213  0.6870440908726820  0.3682884440847261   F   F   F
  0.1683887998772562  0.6874410474428387  0.3676408120907979   F   F   F
  0.2493409194743563  0.7484430090368477  0.4541073107783262   F   F   F
  0.0824603778422031  0.6886557662321167  0.4516091329400354   F   F   F
  0.4171527335420322  0.6875463344891131  0.4536850590487376   F   F   F
  0.0033597592686903  0.7607862132361518  0.5837811417195482   F   F   F
  0.3351709960479496  0.6881085647472034  0.5397535171617065   F   F   F
  0.1676063985052565  0.6888771730301144  0.5422097027527855   F   F   F
  0.0000000000000000  0.7500718968373548  0.1971343760886626   F   F   F
  0.3342926788609191  0.8124132603758838  0.2026937887487748   F   F   F
  0.1663206737861032  0.8125684292476620  0.2026879820083352   F   F   F
  0.2502068123330190  0.8750918079280083  0.2779408447549940   F   F   F
  0.0826029539126765  0.8126929411348414  0.2836274479951371   F   F   F
  0.4173382701790516  0.8122475157007614  0.2840383815018441   F   F   F
  0.9997778530087089  0.8750095564371989  0.3694106540850441   F   F   F
  0.3321474667146163  0.8122593760146373  0.3680348502792938   F   F   F
  0.1688259153589939  0.8124481134282107  0.3675973763600879   F   F   F
  0.2497916741076907  0.8752037744290249  0.4552886379891774   F   F   F
  0.0839166195658549  0.8120711524052737  0.4532292463278154   F   F   F
  0.4164167715485192  0.8118808735790637  0.4540498995028415   F   F   F
  0.9855222437935893  0.8790222388754927  0.5863381415103746   F   F   F
  0.3340749494086026  0.8112577147049365  0.5416189571312557   F   F   F
  0.0000000000000000  0.8751997496293740  0.1971274211227225   F   F   F
  0.3343369646891574  0.9374555647667435  0.2027209852901350   F   F   F
  0.1662604295983101  0.9376312429899514  0.2027221991285302   F   F   F
  0.2501999651476083  0.4998887660981524  0.2779024612165273   F   F   F
  0.0825727489899180  0.9376830087642247  0.2837096281351847   F   F   F
  0.4172972975050442  0.9372505140694614  0.2840867710054695   F   F   F
  0.9999986747383076  0.5002856798512880  0.3692984888559678   F   F   F
  0.3320075411675347  0.9372397241810262  0.3683603558080790   F   F   F
  0.1686779830225191  0.9375053181411914  0.3679550650095891   F   F   F
  0.2497135388870362  0.5003195481122091  0.4554376448538946   F   F   F
  0.0828975485431798  0.9352150786868592  0.4521190762921279   F   F   F
  0.4155091329465321  0.9373511340608189  0.4540740122385429   F   F   F
  0.9945160770538592  0.5042194077091295  0.5450705886263805   F   F   F
  0.3387230287005920  0.9372983406781188  0.5424443344340872   F   F   F
  0.1735827213290477  0.9333481282685057  0.5414993448395862   F   F   F
  0.4999999773601118  0.9997488447945102  0.1972621243782342   F   F   F
  0.8336793361533594  0.0625684649998774  0.2026879820083352   F   F   F
  0.6657072758593117  0.0624132533110782  0.2026937887487748   F   F   F
  0.7497931976064436  0.1250918008632027  0.2779408447549940   F   F   F
  0.5826617397604110  0.0622475086359557  0.2840383815018441   F   F   F
  0.9173970560267861  0.0626929340700357  0.2836274479951371   F   F   F
  0.4994610376049593  0.1245549610965497  0.3695947966503610   F   F   F
  0.8328550785995503  0.0624430111383134  0.3686745759204300   F   F   F
  0.6680492893670120  0.0622139829111745  0.3679261953396278   F   F   F
  0.7483149786263823  0.1255318313530580  0.4549028014114640   F   F   F
  0.5830289476878505  0.0616445593941322  0.4536716084070491   F   F   F
  0.9140692686964442  0.0614653701754833  0.4570631056919083   F   F   F
  0.4975374202575793  0.1274021643158036  0.5409718828468613   F   F   F
  0.6574823152579299  0.0607922866588311  0.5429424018537645   F   F   F
  0.4999999773601118  0.1249314083152768  0.1972730817302377   F   F   F
  0.8337395803411525  0.1876312787421597  0.2027221991285302   F   F   F
  0.6656630452503052  0.1874555577019379  0.2027209852901350   F   F   F
  0.7498000447918542  0.2498887637432148  0.2779024612165273   F   F   F
  0.5827027124344184  0.1872505070046557  0.2840867710054695   F   F   F
  0.9174272609495446  0.1876830445164330  0.2837096281351847   F   F   F
  0.4996525379196015  0.2496786178208410  0.3694994611266154   F   F   F
  0.8323544057757886  0.1873033003873559  0.3684137318910601   F   F   F
  0.6682602820723886  0.1871852110528138  0.3680898666844286   F   F   F
  0.7503339043771859  0.2482647998997365  0.4550028938694695   F   F   F
  0.5833200082871741  0.1872333373805972  0.4532359716486596   F   F   F
  0.9168006882649422  0.1873834966613188  0.4536402454474171   F   F   F
  0.8193621475492918  0.1846565236274742  0.5395690793384063   F   F   F
  0.6562273476539033  0.1849755960426194  0.5410674808221572   F   F   F
  0.4999999773601118  0.2497488377297046  0.1972621243782342   F   F   F
  0.8336793361533594  0.3125684245377940  0.2026879820083352   F   F   F
  0.6657072758593117  0.3124132556660157  0.2026937887487748   F   F   F
  0.7497931976064436  0.3750918032181332  0.2779408447549940   F   F   F
  0.5826617397604110  0.3122475109908933  0.2840383815018441   F   F   F
  0.9173970560267861  0.3126929364249662  0.2836274479951371   F   F   F
  0.4998975456750898  0.3747217785520505  0.3695960432952035   F   F   F
  0.8328007428701412  0.3123545963519021  0.3684311849188049   F   F   F
  0.6684962338729790  0.3122212213420852  0.3680276328618035   F   F   F
  0.7505662117081187  0.3757528551528395  0.4552863415381552   F   F   F
  0.5837314468236059  0.3117358904476077  0.4535274568959196   F   F   F
  0.9155812818496756  0.3121642318916642  0.4559575613646984   F   F   F
  0.4981942530841721  0.3797822790450169  0.5398227059502787   F   F   F
  0.6599707149634781  0.3107474167793214  0.5417665205124749   F   F   F
  0.4999999773601118  0.3749314106702144  0.1972730817302377   F   F   F
  0.8337395803411525  0.4376312382800762  0.2027221991285302   F   F   F
  0.6656630452503052  0.4374555600568684  0.2027209852901350   F   F   F
  0.7498000447918542  0.9998887708080204  0.2779024612165273   F   F   F
  0.5827027124344184  0.4372505093595933  0.2840867710054695   F   F   F
  0.9174272609495446  0.4376830468713706  0.2837096281351847   F   F   F
  0.4995663406903148  0.9997545300381105  0.3695487035977578   F   F   F
  0.8321658320807259  0.4374132996604985  0.3683078983055097   F   F   F
  0.6685231256414994  0.4372808238080523  0.3682226015533558   F   F   F
  0.7492784438771878  0.9981620889393241  0.4549270125665004   F   F   F
  0.5848495811578331  0.4377552791800596  0.4534358941131273   F   F   F
  0.9177776270096274  0.4370014427682207  0.4533988556388238   F   F   F
  0.8251143907084924  0.4365831205062776  0.5406790525354381   F   F   F
  0.6616515333248500  0.4391951298478673  0.5405140361264671   F   F   F
  0.4999999773601118  0.4997488400846350  0.1972621243782342   F   F   F
  0.8336793361533594  0.5625684268927316  0.2026879820083352   F   F   F
  0.6657072758593117  0.5624132580209533  0.2026937887487748   F   F   F
  0.7497931976064436  0.6250918055730708  0.2779408447549940   F   F   F
  0.5826617397604110  0.5622475133458238  0.2840383815018441   F   F   F
  0.9173970560267861  0.5626929387799038  0.2836274479951371   F   F   F
  0.5003242799402372  0.6246312657317787  0.3696272094161799   F   F   F
  0.8321915090260248  0.5625119084294994  0.3682480593532276   F   F   F
  0.6685422867168072  0.5623058301237975  0.3681574807637347   F   F   F
  0.7518489545884606  0.6264693574802749  0.4557133830084439   F   F   F
  0.5845154495534857  0.5620343274152049  0.4542895177634989   F   F   F
  0.9134180130128158  0.5634455763152530  0.4542239704901192   F   F   F
  0.5011790185129783  0.6297148874142522  0.5418005079875599   F   F   F
  0.6650454180821370  0.5637604954796913  0.5430262223159730   F   F   F
  0.4999999773601118  0.6249314130251449  0.1972730817302377   F   F   F
  0.8337395803411525  0.6876312406350138  0.2027221991285302   F   F   F
  0.6656630452503052  0.6874555624118059  0.2027209852901350   F   F   F
  0.7498000447918542  0.7498887684530899  0.2779024612165273   F   F   F
  0.5827027124344184  0.6872505117145238  0.2840867710054695   F   F   F
  0.9174272609495446  0.6876830492263082  0.2837096281351847   F   F   F
  0.5002955107176490  0.7496787509817651  0.3695576925631769   F   F   F
  0.8314062914729234  0.6878289268052669  0.3681530847003529   F   F   F
  0.6682002587615443  0.6872830954649203  0.3684357122079618   F   F   F
  0.7514042740712270  0.7490547357672810  0.4552426761623423   F   F   F
  0.5847957424015533  0.6877339158432179  0.4539673584919157   F   F   F
  0.9175813226213521  0.6896441970833820  0.4520692433050044   F   F   F
  0.8251199126322106  0.6910233760372506  0.5418001799231291   F   F   F
  0.6618376773734838  0.6879691525379030  0.5412448324537422   F   F   F
  0.4999999773601118  0.7497488424395726  0.1972621243782342   F   F   F
  0.8336793361533594  0.8125684292476620  0.2026879820083352   F   F   F
  0.6657072758593117  0.8124132603758838  0.2026937887487748   F   F   F
  0.7497931976064436  0.8750918079280083  0.2779408447549940   F   F   F
  0.5826617397604110  0.8122475157007614  0.2840383815018441   F   F   F
  0.9173970560267861  0.8126929411348414  0.2836274479951371   F   F   F
  0.4999537588585667  0.8746773391976532  0.3696211074177569   F   F   F
  0.8319231435331957  0.8126557331465492  0.3683583874214946   F   F   F
  0.6679305127877839  0.8123626934781001  0.3680849129115202   F   F   F
  0.7506004476351862  0.8761440789525139  0.4550279579920300   F   F   F
  0.5842354328016057  0.8120638735122796  0.4544493835608989   F   F   F
  0.9184908938966458  0.8129428212495498  0.4568318530742488   F   F   F
  0.4985657128928693  0.8774586042098065  0.5419345223077698   F   F   F
  0.6611419149846611  0.8128914836454442  0.5436833681784137   F   F   F
  0.4999999773601118  0.8749314153800825  0.1972730817302377   F   F   F
  0.8337395803411525  0.9376312429899514  0.2027221991285302   F   F   F
  0.6656630452503052  0.9374555647667435  0.2027209852901350   F   F   F
  0.7498000447918542  0.4998887660981524  0.2779024612165273   F   F   F
  0.5827027124344184  0.9372505140694614  0.2840867710054695   F   F   F
  0.9174272609495446  0.9376830087642247  0.2837096281351847   F   F   F
  0.5001881093012841  0.4997802249585348  0.3695614653041375   F   F   F
  0.8316456116469837  0.9375595673024932  0.3683727566435877   F   F   F
  0.6679628160415447  0.9372610898728126  0.3682047548482927   F   F   F
  0.7517242695508486  0.4988050673827260  0.4556345819320384   F   F   F
  0.5833171921060725  0.9374349269642579  0.4535846385263014   F   F   F
  0.9169422703891428  0.9357683601882698  0.4524129236032906   F   F   F
  0.8204220808074965  0.9374429337465529  0.5418147459838849   F   F   F
  0.6566959381008530  0.9379098105064472  0.5417010716584230   F   F   F
  0.4059506829858179  0.9998103728487990  0.2323399872166121   F   F   F
  0.2502818000571452  0.0000100191821204  0.1992701411496398   F   F   F
  0.0942452122279107  0.0001403541836851  0.2320193042349672   F   F   F
  0.1548500920793501  0.1251896377484130  0.3155471657786819   F   F   F
  0.0000000000000000  0.1252068501894854  0.3027729273378696   F   F   F
  0.3452375182102116  0.1246790019965331  0.3159667273799300   F   F   F
  0.4002122998551556  0.1246014603776615  0.4021897366465126   F   F   F
  0.2495926639767916  0.1248547658537760  0.3877052655186333   F   F   F
  0.0982535214376057  0.1245844192046590  0.4028831664350605   F   F   F
  0.1505952841947575  0.1301140229424291  0.4877884064937916   F   F   F
  0.0018521084351946  0.1245118015428091  0.4775787789386214   F   F   F
  0.3491718336420533  0.1244295072349857  0.4884383021322947   F   F   F
  0.4034168930672877  0.1235891376305744  0.5720683557463744   F   F   F
  0.2508069902222303  0.1279393466185965  0.5588195064927248   F   F   F
  0.0724650332766998  0.0547199772229874  0.5579580092960015   F   F   F
  0.4058965681333504  0.1248444897695506  0.2323487465369354   F   F   F
  0.2502658969168294  0.1250292452004871  0.1993221065555701   F   F   F
  0.0942835895977723  0.1251516162367849  0.2320045413355558   F   F   F
  0.1548192245257454  0.2501939206276376  0.3155011055325190   F   F   F
  0.0000000000000000  0.2502658104001867  0.3027806040455658   F   F   F
  0.3452603789744160  0.2497083328310552  0.3159103002977375   F   F   F
  0.4000023563152908  0.2497245176637080  0.4018122329053568   F   F   F
  0.2494370561663359  0.2501322213052788  0.3873295005189661   F   F   F
  0.0980985210387644  0.2507207840291912  0.4029425132906894   F   F   F
  0.1520410894825730  0.2479028676499695  0.4878619585392983   F   F   F
  0.9997098229084713  0.2491248653322344  0.4790024801513511   F   F   F
  0.3480435941874163  0.2497386472795142  0.4888640969577480   F   F   F
  0.4035368292505055  0.2485379296549937  0.5719195785267530   F   F   F
  0.2517096038736355  0.2505806867476110  0.5639949525423802   F   F   F
  0.0740463465726222  0.1883434970128945  0.5657332347383388   F   F   F
  0.4059506829858179  0.2498103657839934  0.2323399872166121   F   F   F
  0.2502818000571452  0.2500100215370509  0.1992701411496398   F   F   F
  0.0942452122279107  0.2501403565386227  0.2320193042349672   F   F   F
  0.1548500920793501  0.3751896401033505  0.3155471657786819   F   F   F
  0.0000000000000000  0.3752068525444230  0.3027729273378696   F   F   F
  0.3452375182102116  0.3746790043514636  0.3159667273799300   F   F   F
  0.4004951327881372  0.3747094044339647  0.4019912904719902   F   F   F
  0.2494933245690518  0.3750515980386098  0.3872335416727921   F   F   F
  0.0981680420584112  0.3749205779647582  0.4025167840781307   F   F   F
  0.1526559004696466  0.3810069313823732  0.4854603956760428   F   F   F
  0.0009291741044990  0.3740345654195920  0.4783866047943803   F   F   F
  0.3502664445812229  0.3746726674328613  0.4882362472490271   F   F   F
  0.4036230816990241  0.3742280127051032  0.5725263664989768   F   F   F
  0.2530906922154443  0.3770099627895362  0.5579430823643747   F   F   F
  0.1040575602413085  0.3775496284793505  0.5677954805602496   F   F   F
  0.4058965681333504  0.3748444921244882  0.2323487465369354   F   F   F
  0.2502658969168294  0.3750292475554247  0.1993221065555701   F   F   F
  0.0942835895977723  0.3751516185917225  0.2320045413355558   F   F   F
  0.1548192245257454  0.0001939182727071  0.3155011055325190   F   F   F
  0.0000000000000000  0.0002658080452491  0.3027806040455658   F   F   F
  0.3452603789744160  0.9997083398958608  0.3159103002977375   F   F   F
  0.4002757467587088  0.9997100003398032  0.4021508282049524   F   F   F
  0.2498123813216395  0.9999990580256153  0.3875408396256432   F   F   F
  0.0986126121371669  0.0005397085068282  0.4023907089171601   F   F   F
  0.1497318209825309  0.9936008348715575  0.4877633095647909   F   F   F
  0.0005338595853246  0.9976721243872007  0.4761321132156979   F   F   F
  0.3478514864611668  0.9989323576661775  0.4884482424845658   F   F   F
  0.4049673940288514  0.9982909159255300  0.5703347976782283   F   F   F
  0.2505816405151862  0.9954029509055218  0.5583313138124382   F   F   F
  0.0700886734034469  0.9290934440467424  0.5673114214917874   F   F   F
  0.4059506829858179  0.4998103681389310  0.2323399872166121   F   F   F
  0.2502818000571452  0.5000100238919885  0.1992701411496398   F   F   F
  0.0942452122279107  0.5001403588935602  0.2320193042349672   F   F   F
  0.1548500920793501  0.6251896424582810  0.3155471657786819   F   F   F
  0.0000000000000000  0.6252068120823395  0.3027729273378696   F   F   F
  0.3452375182102116  0.6246790067064012  0.3159667273799300   F   F   F
  0.4014002313052103  0.6244247592559020  0.4023456328642894   F   F   F
  0.2498723494132520  0.6246918089946618  0.3880482240751633   F   F   F
  0.0986259199733368  0.6250789176507752  0.4015711055483138   F   F   F
  0.1491716218210541  0.6284599634454509  0.4867903688807402   F   F   F
  0.9975546160802438  0.6273632055396590  0.4749347764606000   F   F   F
  0.3506429293405091  0.6244988755133676  0.4885705777110161   F   F   F
  0.4047744027948141  0.6254863215732271  0.5748479144474317   F   F   F
  0.2531343706320826  0.6288723341419455  0.5576555338902978   F   F   F
  0.0871985749293174  0.6369457397122744  0.5700489879456399   F   F   F
  0.4058965681333504  0.6248444516624048  0.2323487465369354   F   F   F
  0.2502658969168294  0.6250292499103622  0.1993221065555701   F   F   F
  0.0942835895977723  0.6251516209466601  0.2320045413355558   F   F   F
  0.1548192245257454  0.7501939253375127  0.3155011055325190   F   F   F
  0.0000000000000000  0.7502658151100619  0.3027806040455658   F   F   F
  0.3452603789744160  0.7497083375409233  0.3159103002977375   F   F   F
  0.4010583137884183  0.7498239006714229  0.4018061637133812   F   F   F
  0.2504006318556193  0.7496801211263318  0.3865718685212016   F   F   F
  0.0997305255944454  0.7506318149764937  0.4003792802756649   F   F   F
  0.1507015260071469  0.7460754420487348  0.4850107177599909   F   F   F
  0.0010184083918290  0.7500143507657029  0.4692221577110516   F   F   F
  0.3485254372512969  0.7498005653968320  0.4870439298797322   F   F   F
  0.4022036159873537  0.7489418272918726  0.5694938701213488   F   F   F
  0.2541796155731930  0.7475823869831189  0.5588600880628860   F   F   F
  0.1058461113344791  0.7554074966683899  0.5671634316268097   F   F   F
  0.4059506829858179  0.7498103704938615  0.2323399872166121   F   F   F
  0.2502818000571452  0.7500100262469260  0.1992701411496398   F   F   F
  0.0942452122279107  0.7501403612484978  0.2320193042349672   F   F   F
  0.1548500920793501  0.8751896448132186  0.3155471657786819   F   F   F
  0.0000000000000000  0.8752068144372771  0.3027729273378696   F   F   F
  0.3452375182102116  0.8746790090613388  0.3159667273799300   F   F   F
  0.4010499204643665  0.8744847054354778  0.4022964231995871   F   F   F
  0.2504081968911152  0.8747690960663661  0.3873080779115980   F   F   F
  0.0999913260517786  0.8741972319793163  0.4006830351326514   F   F   F
  0.1499740125569247  0.8762487665605434  0.4873697634729481   F   F   F
  0.0012440894142998  0.8757355189705862  0.4685962763889222   F   F   F
  0.3498805725516192  0.8742804682615315  0.4886667990087332   F   F   F
  0.4037698544315234  0.8716477783004422  0.5745274939173299   F   F   F
  0.2500981960934325  0.8750461221702324  0.5579100134696944   F   F   F
  0.9644050822235357  0.8199734611732765  0.5441515817348375   F   F   F
  0.4058965681333504  0.8748444540173423  0.2323487465369354   F   F   F
  0.2502658969168294  0.8750292522652927  0.1993221065555701   F   F   F
  0.0942835895977723  0.8751516233015906  0.2320045413355558   F   F   F
  0.1548192245257454  0.5001939229825751  0.3155011055325190   F   F   F
  0.0000000000000000  0.5002658127551243  0.3027806040455658   F   F   F
  0.3452603789744160  0.4997083351859928  0.3159103002977375   F   F   F
  0.4007883469377092  0.5000796871796211  0.4019668824782983   F   F   F
  0.2494196068873791  0.5000887643873568  0.3875314897893460   F   F   F
  0.0986101272714990  0.5002802849070704  0.4022231664120710   F   F   F
  0.1502134983887018  0.5003049046921930  0.4878989970136018   F   F   F
  0.9979992413782384  0.4998127658919103  0.4758396765815931   F   F   F
  0.3480018484440848  0.5012023921980742  0.4879852123461603   F   F   F
  0.4053151095655494  0.5026530755713381  0.5670795455517137   F   F   F
  0.2570518994158064  0.4966397679857479  0.5628012573024748   F   F   F
  0.0914829803250541  0.4959276781660620  0.5723399602890851   F   F   F
  0.9057547977115519  0.0001403541836851  0.2320193042349672   F   F   F
  0.7497182098823174  0.0000100191821204  0.1992701411496398   F   F   F
  0.5940493269536447  0.9998103728487990  0.2323399872166121   F   F   F
  0.6547624917292509  0.1246790019965331  0.3159667273799300   F   F   F
  0.4999999773601118  0.1247350066555484  0.3031144096044613   F   F   F
  0.8451499178601125  0.1251896377484130  0.3155471657786819   F   F   F
  0.9023083442404456  0.1241369813707465  0.4030730829343696   F   F   F
  0.7500737665506989  0.1246250525543573  0.3872343290274287   F   F   F
  0.5987775293588200  0.1245926400720379  0.4017905478464456   F   F   F
  0.6483735707650382  0.1241544935309449  0.4877638672743245   F   F   F
  0.4988375571976462  0.1243109897302688  0.4726245139285865   F   F   F
  0.8474495782128812  0.1287003334723806  0.4862005090331678   F   F   F
  0.9244369565784467  0.0600725325929972  0.5471656408914214   F   F   F
  0.7441396864433685  0.1267226154294931  0.5584836997407976   F   F   F
  0.5917727482420290  0.1239530822801669  0.5716150691215773   F   F   F
  0.9057164203416903  0.1251516162367849  0.2320045413355558   F   F   F
  0.7497341130226332  0.1250292452004871  0.1993221065555701   F   F   F
  0.5941034418061122  0.1248444897695506  0.2323487465369354   F   F   F
  0.6547396309650466  0.2497083328310552  0.3159103002977375   F   F   F
  0.4999999773601118  0.2496370424967509  0.3031199210869104   F   F   F
  0.8451807854137172  0.2501939206276376  0.3155011055325190   F   F   F
  0.9022441794868143  0.2500944138787418  0.4028660742781867   F   F   F
  0.7505369455124011  0.2498913755812850  0.3872486654430816   F   F   F
  0.5993156960446555  0.2497065773333347  0.4015760593212292   F   F   F
  0.6504797981298651  0.2493823668760768  0.4879662502220299   F   F   F
  0.4994056527100454  0.2494260830510413  0.4699822173855992   F   F   F
  0.8490170314802725  0.2463070774040688  0.4874158565255513   F   F   F
  0.9223461906000381  0.1816651983269821  0.5641682361750213   F   F   F
  0.7440075468087315  0.2468079936929541  0.5601998703940794   F   F   F
  0.5912991880637364  0.2474623233558972  0.5700814335178990   F   F   F
  0.9057547977115519  0.2501403565386227  0.2320193042349672   F   F   F
  0.7497182098823174  0.2500100215370509  0.1992701411496398   F   F   F
  0.5940493269536447  0.2498103657839934  0.2323399872166121   F   F   F
  0.6547624917292509  0.3746790043514636  0.3159667273799300   F   F   F
  0.4999999773601118  0.3747350090104860  0.3031144096044613   F   F   F
  0.8451499178601125  0.3751896401033505  0.3155471657786819   F   F   F
  0.9021884080572349  0.3742521186860088  0.4027035839653408   F   F   F
  0.7505288835037689  0.3746147788250695  0.3874889398326005   F   F   F
  0.5992561697069405  0.3746726674328613  0.4018596710221303   F   F   F
  0.6504169586379263  0.3743232377522432  0.4878670435379888   F   F   F
  0.5000017443757017  0.3747900716951165  0.4720584387522919   F   F   F
  0.8496547032315505  0.3778353892548054  0.4874478100011643   F   F   F
  0.9697066259686480  0.3055118803184129  0.5849741808305922   F   F   F
  0.7447257282078610  0.3776198912052280  0.5585769356521908   F   F   F
  0.5942425390646378  0.3744745102754194  0.5688462053209804   F   F   F
  0.9057164203416903  0.3751516185917225  0.2320045413355558   F   F   F
  0.7497341130226332  0.3750292475554247  0.1993221065555701   F   F   F
  0.5941034418061122  0.3748444921244882  0.2323487465369354   F   F   F
  0.6547396309650466  0.9997083398958608  0.3159103002977375   F   F   F
  0.4999999773601118  0.9996370495615636  0.3031199210869104   F   F   F
  0.8451807854137172  0.0001939182727071  0.3155011055325190   F   F   F
  0.9017621155459850  0.0008727820867307  0.4028170942585874   F   F   F
  0.7499616162799256  0.0002086901437792  0.3871527394033549   F   F   F
  0.5988621252302266  0.9997247722108753  0.4017922865879342   F   F   F
  0.6495222413374435  0.9994320750785732  0.4878148484869627   F   F   F
  0.4990290575122813  0.9995606117654035  0.4717926409500066   F   F   F
  0.8481391008279004  0.9951463579388005  0.4868423998995510   F   F   F
  0.9146180374758188  0.9441036346382319  0.5754007686271407   F   F   F