Ta N Cu Ru                              
   1.00000000000000     
    18.1096308199999996    0.0000000000000000    0.0000000000000000
     0.0000000000000000   11.6775998899999998    0.0000000000000000
     0.0000000000000000    0.0000000000000000   23.4818170799999990
   Ta   N    Cu   Ru
   119   120     2     1
Direct
  0.9999955214847539  0.9999056555660164  0.2551267000578250
  0.3335657092358663  0.1248959647280612  0.2638516741560828
  0.1666726247735669  0.1249976947090003  0.2638440837712712
  0.2495976929160076  0.2499742284294575  0.3612747840167448
  0.0824106830858953  0.1250068438819514  0.3684767977046721
  0.4174128884821763  0.1249441245920800  0.3684620262375143
  0.0000257073311191  0.2500517942544711  0.4803124865602862
  0.3318332126460020  0.1248096414473566  0.4778068584204485
  0.1676793931476666  0.1249644659047277  0.4781028337445858
  0.2504304004918375  0.2500738313664678  0.5909471539907206
  0.0839691374856609  0.1249881022687941  0.5901804544816812
  0.4156328412503251  0.1252841835218428  0.5885795273809477
  0.9992826125304221  0.2500218921191547  0.7023865460973467
  0.3395710348591651  0.1257418503419234  0.7031237035585615
  0.1621072242858533  0.1250397518125937  0.7028471092509272
  0.9999878133245577  0.2499995499347662  0.2551634313001955
  0.3335661547829366  0.3750869724560910  0.2638712038043886
  0.1667290392077898  0.3749837084412576  0.2638784321210755
  0.2497930153673059  0.5000247011689678  0.3613633771856202
  0.0823825027429862  0.3749855481428551  0.3684902002545775
  0.4174346644331329  0.3750423088648250  0.3684879716370197
  0.0000167124181425  0.5000905951787560  0.4801695991692594
  0.3318467221652924  0.3751846549093546  0.4778711973716075
  0.1677156341951366  0.3750744515784272  0.4781602188143392
  0.2504454125889843  0.4993685684080088  0.5913533895365556
  0.0840037035690440  0.3752046460111388  0.5903057913241233
  0.4156458153824563  0.3747082254958484  0.5887444432838497
  0.9996896994918275  0.4997716821514146  0.7023309592672896
  0.3366116263240966  0.3761707629655943  0.7050393219073433
  0.1643987290238513  0.3765350318774193  0.7048141291057309
  0.0000061170576486  0.5000723598582184  0.2551174829667160
  0.3336816407753472  0.6250208465029965  0.2638895519633180
  0.1664221045319819  0.6249929891097284  0.2638801653123273
  0.2499678419904774  0.7499872359971711  0.3614321266595282
  0.0824752336907703  0.6249726946005459  0.3685573894088313
  0.4174329545896578  0.6250525003815708  0.3685768531842439
  0.0000194693851541  0.7500045387271621  0.4801104084387759
  0.3322500807936193  0.6250954393873162  0.4782808365346762
  0.1676329160294009  0.6250431449748636  0.4783056079894699
  0.2503610204694769  0.7501735338946783  0.5913782733440528
  0.0838703243350810  0.6250188451428625  0.5901564700153354
  0.4163380947918419  0.6249195535534005  0.5901811638340473
  0.9996017101087039  0.7500081729290784  0.7022494683736069
  0.3359119708997713  0.6248778518066431  0.7045980735989625
  0.1657500775848485  0.6249801417618989  0.7043422136996372
  0.9999823262424622  0.7500072705140862  0.2550407243691428
  0.3336827791041628  0.8749583308981442  0.2638738404468663
  0.1664118285181715  0.8749811483402724  0.2638794421384325
  0.2497809366382763  0.9999842471907966  0.3613178094904554
  0.0824461270066003  0.8749834026607493  0.3685742169288212
  0.4174706803417192  0.8749244198057518  0.3685871679013140
  0.0000386980162602  0.9998442847380089  0.4801879833708508
  0.3322414855488190  0.8747985748662930  0.4782148749432575
  0.1676222523526497  0.8749128811093771  0.4782827346143788
  0.2504824081172900  0.0003428531530913  0.5909771560544634
  0.0840643587638154  0.8748482217214957  0.5901982956328544
  0.4162448804539209  0.8748240194048675  0.5901890343971822
  0.9992351122755412  0.0002842967772343  0.7022802287663014
  0.3370247593571705  0.8738906860302721  0.7051564564404375
  0.1644961485984277  0.8736512727496082  0.7048841807964543
  0.4999692973131117  0.9998767359157618  0.2549588758011844
  0.8333293253196736  0.1249573337808695  0.2638666516504405
  0.6664485955251682  0.1248935189617689  0.2638678856685373
  0.7503369236986412  0.2499699888539044  0.3613274963811907
  0.5824960179728084  0.1249417602838868  0.3684730448111920
  0.9176140377262526  0.1249971436188886  0.3685005969529043
  0.4998131184230866  0.2500163324003435  0.4795483369141072
  0.8321326846781230  0.1249289955629684  0.4780927869278489
  0.6680495318989184  0.1247747972242191  0.4778121151377802
  0.7496172545493056  0.2499329752936693  0.5910644438069528
  0.5839786305569884  0.1253230567674265  0.5884903298227738
  0.9162862626245976  0.1249996993988125  0.5901117255460571
  0.8343124000687479  0.1249699523251535  0.7041399795396470
  0.6640444389451844  0.1254687403069719  0.7040074549441329
  0.4999812229364725  0.2499967175750277  0.2549397183047674
  0.8333025948294196  0.3749777989693933  0.2638664583423971
  0.6664648731361102  0.3750851909816874  0.2638756935210740
  0.7501683084876987  0.4999820075346528  0.3613523316988739
  0.5824909939480518  0.3750257104190494  0.3684825381752419
  0.9176150237072732  0.3749752401126806  0.3684879441971681
  0.4998676599765678  0.5001328775178502  0.4798607342947726
  0.8321763564276498  0.3750216080630964  0.4780884303912426
  0.6680432249535746  0.3751523502704533  0.4778337901212755
  0.7494852427180549  0.4994798409472636  0.5912367516441517
  0.5839901981473216  0.3744654367716116  0.5885001096714827
  0.9162314365010370  0.3750123589496094  0.5900704334363442
  0.5004695254544743  0.4918211760420987  0.7020227156457136
  0.8343990384731602  0.3749207041012679  0.7041097115323901
  0.6640009287968173  0.3742107532811516  0.7041177585477504
  0.4999640315531225  0.5000626169997078  0.2549578491683368
  0.8335564895684940  0.6249684839827611  0.2638867093333722
  0.6663430565817264  0.6250102555048157  0.2638920232350575
  0.7499921362579860  0.7499986177327810  0.3614336949568073
  0.5824984127694666  0.6250412520566672  0.3685622285627377
  0.9175199493624171  0.6249957143430211  0.3685701360318235
  0.4998820517137132  0.7500008868506947  0.4801574340402581
  0.8323005003668058  0.6250105175963615  0.4782573014925067
  0.6676321631782826  0.6250707444008035  0.4781940013903355
  0.7495740472100546  0.7499633566697549  0.5912306259037581
  0.5833760504641725  0.6248792106399588  0.5900247539734907
  0.9161997211575885  0.6249851182037369  0.5900125063140399
  0.5004352159013320  0.7499380820039675  0.7023026199147780
  0.8343984951225417  0.6248627709443899  0.7041296207010530
  0.6639294727877296  0.6245895359836532  0.7044833657531280
  0.4999705645181389  0.7500098379224205  0.2549945573548622
  0.8335670248119579  0.8750389359317670  0.2638729771701770
  0.6663343060102862  0.8749695260740619  0.2638741216335220
  0.7501719241520924  0.9999652029371271  0.3613616044459780
  0.5824832527512703  0.8749341668409261  0.3685761146137685
  0.9175357657247240  0.8749894889202997  0.3685841005585808
  0.4998199861206781  0.9996726097349240  0.4798787925986938
  0.8323007241643398  0.8749437254557489  0.4782523205032697
  0.6676446689199292  0.8748515738672534  0.4781818160886558
  0.7494918687398300  0.0004187694086437  0.5912278598080833
  0.5833692427522715  0.8749166295590262  0.5899889420080442
  0.9162021572176718  0.8749677159900455  0.5899763738911119
  0.5010173720673446  0.0071866284863788  0.7019010918895685
  0.8343701859257732  0.8751860887857461  0.7040831863525763
  0.6640154337068609  0.8752703457356110  0.7044528259929564
  0.4068245012845121  0.9998576384353619  0.3013429393551539
  0.2500827197704523  0.9998570172571434  0.2578547110994518
  0.0932513365015197  0.0000553203490147  0.3012955974996810
  0.1542615845184613  0.2500696750431454  0.4100871014303333
  0.0000116711384287  0.2499924621652280  0.3934621311639873
  0.3452516515549778  0.2500475444195872  0.4097207741831464
  0.3999081762186831  0.2500273393486461  0.5211462811286971
  0.2497484931976966  0.2500198826719572  0.5027244496676981
  0.0990705166240238  0.2501225310981636  0.5222680797508339
  0.1525817598044852  0.2510182802446226  0.6337805346290977
  0.9999944514818526  0.2500875867156896  0.6137820513766403
  0.3485497235418158  0.2510437283305824  0.6341247555420018
  0.4073222201155872  0.2502247884086771  0.7423894253240882
  0.2516721283042798  0.2479141194424965  0.7297805088940216
  0.0963674509408322  0.2505170999562520  0.7407296676318357
  0.4067870299532294  0.2499940250303400  0.3012659592062595
  0.2501933635371826  0.2499734530483714  0.2576853143269928
  0.0932420621776116  0.2499977823587436  0.3012692567392142
  0.1543706710964177  0.5000727952762292  0.4101472906780371
  0.0000136456041949  0.5000467619541491  0.3933923283451704
  0.3453819224494215  0.5001377860084941  0.4099763201601069
  0.4006619491216388  0.5002325499156277  0.5220669902064642
  0.2498378794961457  0.5002883476586223  0.5031626547536562
  0.0989932245697142  0.4999426864956062  0.5223358476978361
  0.1522959498990701  0.5002302209348750  0.6335854173409647
  0.0000167840207980  0.5000155932118510  0.6138067771295160
  0.3488794402803835  0.4992867059946213  0.6340111393101555
  0.4044592741786335  0.4974496397483846  0.7412532455934104
  0.2509095284429785  0.4988585111577228  0.7249292844919026
  0.0971502233269803  0.5000838481725253  0.7404532869828032
  0.4068282417123241  0.5001061037905264  0.3013552697575144
  0.2500994044276612  0.5001461431953321  0.2578196387540889
  0.0932544832360811  0.4999126694233088  0.3013032593872894
  0.1544648452182819  0.7499701725917952  0.4101557334918134
  0.0000021314386800  0.7499666192005549  0.3933794986045305
  0.3454856662390518  0.7499553064169264  0.4101125008471226
  0.4008229351131953  0.7499702788155023  0.5223061838931675
  0.2499419263710430  0.7499226756551552  0.5031587026625707
  0.0990281463904128  0.7500125520019555  0.5223849618058862
  0.1522875518701714  0.7499602290398717  0.6335689857905209
  0.0000254382594584  0.7500192113972235  0.6136981103867531
  0.3484057585086581  0.7499892561407091  0.6339118233615703
  0.4034706987000888  0.7499574527810451  0.7409829659291177
  0.2508785366544323  0.7505322856284110  0.7248188785481449
  0.0971157937377126  0.7499648472884483  0.7403191129136074
  0.4068558347337919  0.7500063846783236  0.3014507213512548
  0.2500295174481048  0.7499867594765266  0.2582219753012303
  0.0932190150261623  0.7500000673642564  0.3013550642811951
  0.1543503128730910  0.9998691509348963  0.4100963753577448
  0.0000134398258014  0.9999774070179783  0.3934167484579829
  0.3453802916771227  0.9997899219543204  0.4099179572389081
  0.4005338861054248  0.9995904045007439  0.5219770914575473
  0.2498386031967078  0.9997269127795292  0.5028858366918613
  0.0990862032897891  0.9999471178291535  0.5222738874613194
  0.1525755210646090  0.9988961256052397  0.6336649969921444
  0.0000196994620302  0.9998878861123304  0.6137200046011742
  0.3486105713226686  0.9996019524090398  0.6340826470085134
  0.4054801926909117  0.0018542438556959  0.7412982281883445
  0.2509526687233418  0.0034154104067485  0.7291546618696344
  0.0963470284397285  0.9996664202385674  0.7404814753511971
  0.9067465181178489  0.0000627916902538  0.3013313073421385
  0.7499129987371606  0.9998607335794131  0.2577748999551870
  0.5931351748679924  0.9998728714841154  0.3013332074879857
  0.6546662889483221  0.2499919304232409  0.4096946559249868
  0.4999454925430589  0.2499751117568994  0.3930954747131734
  0.8457130787731019  0.2499998937968265  0.4100931479087951
  0.9010047983076465  0.2499497671422608  0.5222124635401781
  0.7501370917032021  0.2500002917405453  0.5027598581064400
  0.5997785169497017  0.2499453805023830  0.5209940637138356
  0.6510638806994087  0.2499645008635233  0.6335597306983574
  0.4997980208226660  0.2499343996162064  0.6067207485087699
  0.8476750043356348  0.2500283343036119  0.6335089928586828
  0.9025676441441600  0.2499128166619322  0.7405397989906867
  0.7483774325437688  0.2499748970018486  0.7250031110674975
  0.5939246375491127  0.2498233944444919  0.7418689681139188
  0.9067395058762222  0.2499789666164565  0.3012993398175441
  0.7498243712504639  0.2499755157571259  0.2577406191066405
  0.5931869555533166  0.2499883051673126  0.3012587287126081
  0.6545563967010670  0.5001196576358361  0.4099184308093542
  0.4999528828072972  0.5000542891788792  0.3932432465433209
  0.8456144613997396  0.5000324553172300  0.4101021163073775
  0.9010124347714417  0.4999233091886914  0.5222101170615379
  0.7500661916035619  0.5002158905992548  0.5030427515028001
  0.5991213687640494  0.5002456524588510  0.5219231993335972
  0.6508301605307899  0.4993117397666704  0.6335945699171704
  0.4998972788443747  0.4986294641286245  0.6132987577538320
  0.8477768746531683  0.5001823010431820  0.6332329138129955
  0.9027675548858207  0.4997332827178099  0.7401521042883789
  0.7490595085540751  0.4993262921615833  0.7240994996117947
  0.5957965604015886  0.4973064660729872  0.7411622293136368
  0.9067451283604211  0.4999193392993228  0.3013091917243931
  0.7499155622195677  0.5001153380694120  0.2577178877811492
  0.5931309503420952  0.5000989764054411  0.3013354432180793
  0.6544577516789085  0.7499766707217479  0.4100536384924165
  0.4999642939941258  0.7499656521908430  0.3934017444165619
  0.8455110187698334  0.7499770956645195  0.4101053950483244
  0.9009692986102326  0.7499707906042935  0.5222495346874676
  0.7499488088372953  0.7499682954448332  0.5030332763423275
  0.5989592159022267  0.7499327123701377  0.5221710794557295
  0.6513308199412441  0.7498759303358827  0.6335129214496085
  0.4998925063887227  0.7499021081054056  0.6136769460240856
  0.8478135362452490  0.7499262640284574  0.6331855515365578
  0.9027918887444425  0.7499311066414233  0.7401351965999501
  0.7490226195127258  0.7498378387241962  0.7239760435001811
  0.5966080033901238  0.7498362330738350  0.7408886349166793
  0.9067481880312970  0.7499961784782139  0.3013620044055755
  0.7499768199454070  0.7500019738603888  0.2581965088932867
  0.5931250983486408  0.7500058049509682  0.3014174494112322
  0.6545446974384386  0.9998254779469726  0.4099080851392227
  0.4999493663788374  0.9999439448639710  0.3932645869156533
  0.8456234491702646  0.9999131519867307  0.4101088379221947
  0.9010127866970504  0.0001013290759808  0.5222116054817274
  0.7500538364750045  0.9996788688675567  0.5030284759423223
  0.5991338936087062  0.9996035556052142  0.5218892695967954
  0.6507842707012673  0.0004447668465643  0.6336120526048868
  0.4998546276548953  0.0010995334194708  0.6131713727765939
  0.8478013015890009  0.9997819284603376  0.6332636121686072
  0.9024473426744198  0.0002639133396611  0.7403337320108883
  0.7491109628651942  0.0004943317288077  0.7240893296737378
  0.5961912857155562  0.0024802125202382  0.7413623186444699
  0.2509127705503743  0.1254360942603946  0.7923319013714172
  0.5010677181257827  0.2473425110428068  0.7904302510848816
  0.5005154503002955  0.2505566727888113  0.6905331103634847
 
  0.00000000E+00  0.00000000E+00  0.00000000E+00
  0.00000000E+00  0.00000000E+00  0.00000000E+00
  0.00000000E+00  0.00000000E+00  0.00000000E+00
  0.00000000E+00  0.00000000E+00  0.00000000E+00
  0.00000000E+00  0.00000000E+00  0.00000000E+00
  0.00000000E+00  0.00000000E+00  0.00000000E+00
  0.00000000E+00  0.00000000E+00  0.00000000E+00
  0.00000000E+00  0.00000000E+00  0.00000000E+00
  0.00000000E+00  0.00000000E+00  0.00000000E+00
  0.00000000E+00  0.00000000E+00  0.00000000E+00
  0.00000000E+00  0.00000000E+00  0.00000000E+00
  0.00000000E+00  0.00000000E+00  0.00000000E+00
  0.00000000E+00  0.00000000E+00  0.00000000E+00
  0.00000000E+00  0.00000000E+00  0.00000000E+00
  0.00000000E+00  0.00000000E+00  0.00000000E+00
  0.00000000E+00  0.00000000E+00  0.00000000E+00
  0.00000000E+00  0.00000000E+00  0.00000000E+00
  0.00000000E+00  0.00000000E+00  0.00000000E+00
  0.00000000E+00  0.00000000E+00  0.00000000E+00
  0.00000000E+00  0.00000000E+00  0.00000000E+00
  0.00000000E+00  0.00000000E+00  0.00000000E+00
  0.00000000E+00  0.00000000E+00  0.00000000E+00
  0.00000000E+00  0.00000000E+00  0.00000000E+00
  0.00000000E+00  0.00000000E+00  0.00000000E+00
  0.00000000E+00  0.00000000E+00  0.00000000E+00
  0.00000000E+00  0.00000000E+00  0.00000000E+00
  0.00000000E+00  0.00000000E+00  0.00000000E+00
  0.00000000E+00  0.00000000E+00  0.00000000E+00
  0.00000000E+00  0.00000000E+00  0.00000000E+00
  0.00000000E+00  0.00000000E+00  0.00000000E+00
  0.00000000E+00  0.00000000E+00  0.00000000E+00
  0.00000000E+00  0.00000000E+00  0.00000000E+00
  0.00000000E+00  0.00000000E+00  0.00000000E+00
  0.00000000E+00  0.00000000E+00  0.00000000E+00
  0.00000000E+00  0.00000000E+00  0.00000000E+00
  0.00000000E+00  0.00000000E+00  0.00000000E+00
  0.00000000E+00  0.00000000E+00  0.00000000E+00
  0.00000000E+00  0.00000000E+00  0.00000000E+00
  0.00000000E+00  0.00000000E+00  0.00000000E+00
  0.00000000E+00  0.00000000E+00  0.00000000E+00
  0.00000000E+00  0.00000000E+00  0.00000000E+00
  0.00000000E+00  0.00000000E+00  0.00000000E+00
  0.00000000E+00  0.00000000E+00  0.00000000E+00
  0.00000000E+00  0.00000000E+00  0.00000000E+00
  0.00000000E+00  0.00000000E+00  0.00000000E+00
  0.00000000E+00  0.00000000E+00  0.00000000E+00
  0.00000000E+00  0.00000000E+00  0.00000000E+00
  0.00000000E+00  0.00000000E+00  0.00000000E+00
  0.00000000E+00  0.00000000E+00  0.00000000E+00
  0.00000000E+00  0.00000000E+00  0.00000000E+00
  0.00000000E+00  0.00000000E+00  0.00000000E+00
  0.00000000E+00  0.00000000E+00  0.00000000E+00
  0.00000000E+00  0.00000000E+00  0.00000000E+00
  0.00000000E+00  0.00000000E+00  0.00000000E+00
  0.00000000E+00  0.00000000E+00  0.00000000E+00
  0.00000000E+00  0.00000000E+00  0.00000000E+00
  0.00000000E+00  0.00000000E+00  0.00000000E+00
  0.00000000E+00  0.00000000E+00  0.00000000E+00
  0.00000000E+00  0.00000000E+00  0.00000000E+00
  0.00000000E+00  0.00000000E+00  0.00000000E+00
  0.00000000E+00  0.00000000E+00  0.00000000E+00
  0.00000000E+00  0.00000000E+00  0.00000000E+00
  0.00000000E+00  0.00000000E+00  0.00000000E+00
  0.00000000E+00  0.00000000E+00  0.00000000E+00
  0.00000000E+00  0.00000000E+00  0.00000000E+00
  0.00000000E+00  0.00000000E+00  0.00000000E+00
  0.00000000E+00  0.00000000E+00  0.00000000E+00
  0.00000000E+00  0.00000000E+00  0.00000000E+00
  0.00000000E+00  0.00000000E+00  0.00000000E+00
  0.00000000E+00  0.00000000E+00  0.00000000E+00
  0.00000000E+00  0.00000000E+00  0.00000000E+00
  0.00000000E+00  0.00000000E+00  0.00000000E+00
  0.00000000E+00  0.00000000E+00  0.00000000E+00
  0.00000000E+00  0.00000000E+00  0.00000000E+00
  0.00000000E+00  0.00000000E+00  0.00000000E+00
  0.00000000E+00  0.00000000E+00  0.00000000E+00
  0.00000000E+00  0.00000000E+00  0.00000000E+00
  0.00000000E+00  0.00000000E+00  0.00000000E+00
  0.00000000E+00  0.00000000E+00  0.00000000E+00
  0.00000000E+00  0.00000000E+00  0.00000000E+00
  0.00000000E+00  0.00000000E+00  0.00000000E+00
  0.00000000E+00  0.00000000E+00  0.00000000E+00
  0.00000000E+00  0.00000000E+00  0.00000000E+00
  0.00000000E+00  0.00000000E+00  0.00000000E+00
  0.00000000E+00  0.00000000E+00  0.00000000E+00
  0.00000000E+00  0.00000000E+00  0.00000000E+00
  0.00000000E+00  0.00000000E+00  0.00000000E+00
  0.00000000E+00  0.00000000E+00  0.00000000E+00
  0.00000000E+00  0.00000000E+00  0.00000000E+00
  0.00000000E+00  0.00000000E+00  0.00000000E+00
  0.00000000E+00  0.00000000E+00  0.00000000E+00
  0.00000000E+00  0.00000000E+00  0.00000000E+00
  0.00000000E+00  0.00000000E+00  0.00000000E+00
  0.00000000E+00  0.00000000E+00  0.00000000E+00
  0.00000000E+00  0.00000000E+00  0.00000000E+00
  0.00000000E+00  0.00000000E+00  0.00000000E+00
  0.00000000E+00  0.00000000E+00  0.00000000E+00
  0.00000000E+00  0.00000000E+00  0.00000000E+00
  0.00000000E+00  0.00000000E+00  0.00000000E+00
  0.00000000E+00  0.00000000E+00  0.00000000E+00
  0.00000000E+00  0.00000000E+00  0.00000000E+00
  0.00000000E+00  0.00000000E+00  0.00000000E+00
  0.00000000E+00  0.00000000E+00  0.00000000E+00
  0.00000000E+00  0.00000000E+00  0.00000000E+00
  0.00000000E+00  0.00000000E+00  0.00000000E+00
  0.00000000E+00  0.00000000E+00  0.00000000E+00
  0.00000000E+00  0.00000000E+00  0.00000000E+00
  0.00000000E+00  0.00000000E+00  0.00000000E+00
  0.00000000E+00  0.00000000E+00  0.00000000E+00
  0.00000000E+00  0.00000000E+00  0.00000000E+00
  0.00000000E+00  0.00000000E+00  0.00000000E+00
  0.00000000E+00  0.00000000E+00  0.00000000E+00
  0.00000000E+00  0.00000000E+00  0.00000000E+00
  0.00000000E+00  0.00000000E+00  0.00000000E+00
  0.00000000E+00  0.00000000E+00  0.00000000E+00
  0.00000000E+00  0.00000000E+00  0.00000000E+00
  0.00000000E+00  0.00000000E+00  0.00000000E+00
  0.00000000E+00  0.00000000E+00  0.00000000E+00
  0.00000000E+00  0.00000000E+00  0.00000000E+00
  0.00000000E+00  0.00000000E+00  0.00000000E+00
  0.00000000E+00  0.00000000E+00  0.00000000E+00
  0.00000000E+00  0.00000000E+00  0.00000000E+00
  0.00000000E+00  0.00000000E+00  0.00000000E+00
  0.00000000E+00  0.00000000E+00  0.00000000E+00
  0.00000000E+00  0.00000000E+00  0.00000000E+00
  0.00000000E+00  0.00000000E+00  0.00000000E+00
  0.00000000E+00  0.00000000E+00  0.00000000E+00
  0.00000000E+00  0.00000000E+00  0.00000000E+00
  0.00000000E+00  0.00000000E+00  0.00000000E+00
  0.00000000E+00  0.00000000E+00  0.00000000E+00
  0.00000000E+00  0.00000000E+00  0.00000000E+00
  0.00000000E+00  0.00000000E+00  0.00000000E+00
  0.00000000E+00  0.00000000E+00  0.00000000E+00
  0.00000000E+00  0.00000000E+00  0.00000000E+00
  0.00000000E+00  0.00000000E+00  0.00000000E+00
  0.00000000E+00  0.00000000E+00  0.00000000E+00
  0.00000000E+00  0.00000000E+00  0.00000000E+00
  0.00000000E+00  0.00000000E+00  0.00000000E+00
  0.00000000E+00  0.00000000E+00  0.00000000E+00
  0.00000000E+00  0.00000000E+00  0.00000000E+00
  0.00000000E+00  0.00000000E+00  0.00000000E+00
  0.00000000E+00  0.00000000E+00  0.00000000E+00
  0.00000000E+00  0.00000000E+00  0.00000000E+00
  0.00000000E+00  0.00000000E+00  0.00000000E+00
  0.00000000E+00  0.00000000E+00  0.00000000E+00
  0.00000000E+00  0.00000000E+00  0.00000000E+00
  0.00000000E+00  0.00000000E+00  0.00000000E+00
  0.00000000E+00  0.00000000E+00  0.00000000E+00
  0.00000000E+00  0.00000000E+00  0.00000000E+00
  0.00000000E+00  0.00000000E+00  0.00000000E+00
  0.00000000E+00  0.00000000E+00  0.00000000E+00
  0.00000000E+00  0.00000000E+00  0.00000000E+00
  0.00000000E+00  0.00000000E+00  0.00000000E+00
  0.00000000E+00  0.00000000E+00  0.00000000E+00
  0.00000000E+00  0.00000000E+00  0.00000000E+00
  0.00000000E+00  0.00000000E+00  0.00000000E+00
  0.00000000E+00  0.00000000E+00  0.00000000E+00
  0.00000000E+00  0.00000000E+00  0.00000000E+00
  0.00000000E+00  0.00000000E+00  0.00000000E+00
  0.00000000E+00  0.00000000E+00  0.00000000E+00
  0.00000000E+00  0.00000000E+00  0.00000000E+00
  0.00000000E+00  0.00000000E+00  0.00000000E+00
  0.00000000E+00  0.00000000E+00  0.00000000E+00
  0.00000000E+00  0.00000000E+00  0.00000000E+00
  0.00000000E+00  0.00000000E+00  0.00000000E+00
  0.00000000E+00  0.00000000E+00  0.00000000E+00
  0.00000000E+00  0.00000000E+00  0.00000000E+00
  0.00000000E+00  0.00000000E+00  0.00000000E+00
  0.00000000E+00  0.00000000E+00  0.00000000E+00
  0.00000000E+00  0.00000000E+00  0.00000000E+00
  0.00000000E+00  0.00000000E+00  0.00000000E+00
  0.00000000E+00  0.00000000E+00  0.00000000E+00
  0.00000000E+00  0.00000000E+00  0.00000000E+00
  0.00000000E+00  0.00000000E+00  0.00000000E+00
  0.00000000E+00  0.00000000E+00  0.00000000E+00
  0.00000000E+00  0.00000000E+00  0.00000000E+00
  0.00000000E+00  0.00000000E+00  0.00000000E+00
  0.00000000E+00  0.00000000E+00  0.00000000E+00
  0.00000000E+00  0.00000000E+00  0.00000000E+00
  0.00000000E+00  0.00000000E+00  0.00000000E+00
  0.00000000E+00  0.00000000E+00  0.00000000E+00
  0.00000000E+00  0.00000000E+00  0.00000000E+00
  0.00000000E+00  0.00000000E+00  0.00000000E+00
  0.00000000E+00  0.00000000E+00  0.00000000E+00
  0.00000000E+00  0.00000000E+00  0.00000000E+00
  0.00000000E+00  0.00000000E+00  0.00000000E+00
  0.00000000E+00  0.00000000E+00  0.00000000E+00
  0.00000000E+00  0.00000000E+00  0.00000000E+00
  0.00000000E+00  0.00000000E+00  0.00000000E+00
  0.00000000E+00  0.00000000E+00  0.00000000E+00
  0.00000000E+00  0.00000000E+00  0.00000000E+00
  0.00000000E+00  0.00000000E+00  0.00000000E+00
  0.00000000E+00  0.00000000E+00  0.00000000E+00
  0.00000000E+00  0.00000000E+00  0.00000000E+00
  0.00000000E+00  0.00000000E+00  0.00000000E+00
  0.00000000E+00  0.00000000E+00  0.00000000E+00
  0.00000000E+00  0.00000000E+00  0.00000000E+00
  0.00000000E+00  0.00000000E+00  0.00000000E+00
  0.00000000E+00  0.00000000E+00  0.00000000E+00
  0.00000000E+00  0.00000000E+00  0.00000000E+00
  0.00000000E+00  0.00000000E+00  0.00000000E+00
  0.00000000E+00  0.00000000E+00  0.00000000E+00
  0.00000000E+00  0.00000000E+00  0.00000000E+00
  0.00000000E+00  0.00000000E+00  0.00000000E+00
  0.00000000E+00  0.00000000E+00  0.00000000E+00
  0.00000000E+00  0.00000000E+00  0.00000000E+00
  0.00000000E+00  0.00000000E+00  0.00000000E+00
  0.00000000E+00  0.00000000E+00  0.00000000E+00
  0.00000000E+00  0.00000000E+00  0.00000000E+00
  0.00000000E+00  0.00000000E+00  0.00000000E+00
  0.00000000E+00  0.00000000E+00  0.00000000E+00
  0.00000000E+00  0.00000000E+00  0.00000000E+00
  0.00000000E+00  0.00000000E+00  0.00000000E+00
  0.00000000E+00  0.00000000E+00  0.00000000E+00
  0.00000000E+00  0.00000000E+00  0.00000000E+00
  0.00000000E+00  0.00000000E+00  0.00000000E+00
  0.00000000E+00  0.00000000E+00  0.00000000E+00
  0.00000000E+00  0.00000000E+00  0.00000000E+00
  0.00000000E+00  0.00000000E+00  0.00000000E+00
  0.00000000E+00  0.00000000E+00  0.00000000E+00
  0.00000000E+00  0.00000000E+00  0.00000000E+00
  0.00000000E+00  0.00000000E+00  0.00000000E+00
  0.00000000E+00  0.00000000E+00  0.00000000E+00
  0.00000000E+00  0.00000000E+00  0.00000000E+00
  0.00000000E+00  0.00000000E+00  0.00000000E+00
  0.00000000E+00  0.00000000E+00  0.00000000E+00
  0.00000000E+00  0.00000000E+00  0.00000000E+00
  0.00000000E+00  0.00000000E+00  0.00000000E+00
  0.00000000E+00  0.00000000E+00  0.00000000E+00
  0.00000000E+00  0.00000000E+00  0.00000000E+00
  0.00000000E+00  0.00000000E+00  0.00000000E+00
  0.00000000E+00  0.00000000E+00  0.00000000E+00
  0.00000000E+00  0.00000000E+00  0.00000000E+00
  0.00000000E+00  0.00000000E+00  0.00000000E+00
  0.00000000E+00  0.00000000E+00  0.00000000E+00
  0.00000000E+00  0.00000000E+00  0.00000000E+00
  0.00000000E+00  0.00000000E+00  0.00000000E+00
  0.00000000E+00  0.00000000E+00  0.00000000E+00
  0.00000000E+00  0.00000000E+00  0.00000000E+00
  0.00000000E+00  0.00000000E+00  0.00000000E+00
  0.00000000E+00  0.00000000E+00  0.00000000E+00
  0.00000000E+00  0.00000000E+00  0.00000000E+00
