Ru Ta  N  Cu                            
   1.00000000000000     
    18.1096308199999996    0.0000000000000000    0.0000000000000000
     0.0000000000000000   23.3551997799999995    0.0000000000000000
     0.0000000000000000    0.0000000000000000   32.4818170799999990
   Ru   Ta   N    Cu
   128   240   240     2
Selective dynamics
Direct
  0.0317028136553520  0.9998981562275449  0.4472098396906823   T   T   T
  0.2767854513842355  0.5060422139038294  0.4394663355228552   T   T   T
  0.4119082572506541  0.0620115274604844  0.4359372813287055   T   T   T
  0.0481380777158528  0.2551741405502250  0.4469043806064313   T   T   T
  0.2706342638808442  0.2367778090251340  0.4393156572687922   T   T   T
  0.4028954689232064  0.3108118977477637  0.4348362973497406   T   T   T
  0.0340300075017630  0.1187056544290810  0.4484659074668926   T   T   T
  0.2745649875712344  0.1201553909743496  0.4397078462807254   T   T   T
  0.4083263987177883  0.1853173742494249  0.4335549438373795   T   T   T
  0.0488854011156721  0.3697632302122343  0.4479898143526521   T   T   T
  0.2721283203465864  0.3897239339392726  0.4400972052860099   T   T   T
  0.4161313139709905  0.4370405829567082  0.4340543971298851   T   T   T
  0.1516970421092589  0.4505808936200522  0.4480292985497070   T   T   T
  0.1744696078617774  0.3133210217343253  0.4582464544215172   T   T   T
  0.1517187544312685  0.1763049770364485  0.4481002312332364   T   T   T
  0.1543920106618988  0.0564416079280293  0.4490304348259715   T   T   T
  0.0642033834695692  0.4395580410935895  0.5072476040223359   T   T   T
  0.3285414139859241  0.4453581657723286  0.5005996181574961   T   T   T
  0.4431267697793622  0.0047438179853593  0.5034227382663558   T   T   T
  0.0649683670082442  0.1885420147679062  0.5074022492259656   T   T   T
  0.3243684345163137  0.1786048302024089  0.4999305404378102   T   T   T
  0.4332615401621458  0.2536812967244026  0.5012710353861435   T   T   T
  0.0683625279544785  0.0551567944943524  0.5100874734650062   T   T   T
  0.3188395698573161  0.0583108158788980  0.4985193788496390   T   T   T
  0.4430057577358875  0.1148146651900952  0.5034519221822552   T   T   T
  0.0761105781406351  0.3077114719678808  0.5117558637025571   T   T   T
  0.3060837666556340  0.3127592710826772  0.4941392305545717   T   T   T
  0.4335971572047379  0.3619991105853081  0.5036679988457513   T   T   T
  0.1993851526250615  0.3951596612221627  0.5085843817985687   T   T   T
  0.1986307413523500  0.2317935880161011  0.5093038017447242   T   T   T
  0.2004000791155985  0.1200546543528398  0.5066880413060376   T   T   T
  0.2037078875450011  0.5066634176230599  0.5064448338827457   T   T   T
  0.0301626207865823  0.5058197741031872  0.4480600189824510   T   T   T
  0.2764517295839414  0.9962014864067619  0.4390432360745784   T   T   T
  0.4229916865581285  0.5645110402189063  0.4321402746163778   T   T   T
  0.0344410866392251  0.7510399324026622  0.4471247534236369   T   T   T
  0.2761700409434568  0.7482676118741290  0.4392704941343927   T   T   T
  0.4090712117059046  0.8146705105914541  0.4360472492080016   T   T   T
  0.0306238385724736  0.6260106140242138  0.4477814681683984   T   T   T
  0.2769664062468997  0.6281430103865352  0.4391849787026175   T   T   T
  0.4174830565534014  0.6880587061357653  0.4334238449429433   T   T   T
  0.0367620355203502  0.8731432447067329  0.4477525357487039   T   T   T
  0.2726078230518969  0.8758727066415744  0.4393012523514843   T   T   T
  0.4107100696769829  0.9374764240074737  0.4330602372913548   T   T   T
  0.1518585141940533  0.9387138595896688  0.4471992857569046   T   T   T
  0.1553555914998630  0.8088479660659583  0.4497332741735407   T   T   T
  0.1521684059218869  0.6875883890747978  0.4477834271603413   T   T   T
  0.1532435081445504  0.5670551054308189  0.4486974291739367   T   T   T
  0.0662218565299078  0.9392847777985400  0.5082967588425472   T   T   T
  0.3235119686323191  0.9357160315495029  0.4989037769413883   T   T   T
  0.4474506895025496  0.5124995588092163  0.5011128411919845   T   T   T
  0.0663274666025876  0.6896162898047360  0.5084109028940482   T   T   T
  0.3272952492489533  0.6880381907166402  0.4988358004193224   T   T   T
  0.4418299610919164  0.7598213230339512  0.5043418737621911   T   T   T
  0.0637337248291444  0.5652422993440084  0.5090812683496129   T   T   T
  0.3218889698268729  0.5678105158290864  0.4986938228982731   T   T   T
  0.4490941435941320  0.6211136385631255  0.5010473956103599   T   T   T
  0.0695174427993073  0.8081005326013927  0.5097124130825591   T   T   T
  0.3166077698290709  0.8134287117496800  0.4980772746470250   T   T   T
  0.4409484171615000  0.8691500963962937  0.5035706909683416   T   T   T
  0.1987784836221441  0.8785115859819321  0.5056225800569554   T   T   T
  0.2001986648535559  0.7443220916120518  0.5069504670404332   T   T   T
  0.2028279542329106  0.6303857199231502  0.5057791777494884   T   T   T
  0.1996418759404220  0.9926974213216703  0.5069703065941280   T   T   T
  0.5350902286570396  0.0008378507220962  0.4471602567337740   T   T   T
  0.7719007794732824  0.4852222243726981  0.4399592394566833   T   T   T
  0.9089453788263750  0.0621654589444652  0.4363994556854071   T   T   T
  0.5296709818254347  0.2488198432171508  0.4461370558144082   T   T   T
  0.7771722629781501  0.2469378115694865  0.4391089420293384   T   T   T
  0.9226468684539030  0.3130874705260070  0.4330530308162390   T   T   T
  0.5365109964216169  0.1222351955396983  0.4476647051089309   T   T   T
  0.7743443516273975  0.1270109367769671  0.4394694258457827   T   T   T
  0.9159994695053054  0.1861795878685133  0.4335295374181321   T   T   T
  0.5309313242633446  0.3688386065687488  0.4497339938260450   T   T   T
  0.7765122163446646  0.3689778626726250  0.4395486881190342   T   T   T
  0.9146715493899378  0.4370337134051901  0.4340426520642837   T   T   T
  0.6514596819265189  0.4243349181305727  0.4486408294937631   T   T   T
  0.6532485511169975  0.3071441523059523  0.4495757727885347   T   T   T
  0.6518217834577802  0.1889148616980623  0.4474814189639844   T   T   T
  0.6560482485400433  0.0613408891845106  0.4501611331529418   T   T   T
  0.5637341678999033  0.4429283295501924  0.5075435209598330   T   T   T
  0.8269132666157204  0.4288184499109810  0.4999924084174991   T   T   T
  0.9400916754295549  0.0063277903628857  0.5039009274549847   T   T   T
  0.5655549049089620  0.1880073233317804  0.5078308775788934   T   T   T
  0.8264689445449205  0.1863058841926100  0.4988894423290112   T   T   T
  0.9480457983204975  0.2556312281127888  0.5010169150084217   T   T   T
  0.5700183359237952  0.0582567018257446  0.5097682435209772   T   T   T
  0.8164791789364253  0.0633233920107793  0.4981546860368967   T   T   T
  0.9424953935670928  0.1156653989186066  0.5043080594072608   T   T   T
  0.5641505959308297  0.3018702015792738  0.5102539204754567   T   T   T
  0.8215791789982300  0.3074389597723624  0.4991556764651707   T   T   T
  0.9479099008776098  0.3656876574763113  0.5013191947652269   T   T   T
  0.7035165572291812  0.3667540891498728  0.5075628784401340   T   T   T
  0.7008317660237293  0.2447913418425892  0.5069133299720990   T   T   T
  0.6998262130641397  0.1299069576391955  0.5058243130873099   T   T   T
  0.6994837656346504  0.4799298358483234  0.5094324246679698   T   T   T
  0.5478896144336698  0.5063702594811816  0.4464104318666092   T   T   T
  0.7753577704916618  0.9986687906252396  0.4394871685019640   T   T   T
  0.9033293967759013  0.5641958375757800  0.4356744979160463   T   T   T
  0.5326935895361944  0.7567043709436135  0.4480887714498195   T   T   T
  0.7754317291661257  0.7540274076537669  0.4398256382982847   T   T   T
  0.9118578031688234  0.8134626543639625  0.4361582512204660   T   T   T
  0.5497785145821323  0.6199634772099766  0.4477210305843425   T   T   T
  0.7688437878451332  0.6374211963157778  0.4391407687591535   T   T   T
  0.9082512862788136  0.6882865796768572  0.4336031575746924   T   T   T
  0.5345986811125530  0.8758204101147540  0.4476159746913137   T   T   T
  0.7748842231178411  0.8783292462768134  0.4395984944687519   T   T   T
  0.9105890662787736  0.9368724723768046  0.4329683098895674   T   T   T
  0.6529784806133906  0.9396134865822185  0.4477817381216325   T   T   T
  0.6551786332661895  0.8161344861521368  0.4495639835527919   T   T   T
  0.6513607703952964  0.7001732510381750  0.4475447332522492   T   T   T
  0.6742802381910509  0.5605075270392464  0.4581196679164953   T   T   T
  0.5672723773243358  0.9391883526765278  0.5085680974937720   T   T   T
  0.8255816824159784  0.9373704752673426  0.4992190762126151   T   T   T
  0.9342935813060721  0.5082816379858065  0.5025238152952973   T   T   T
  0.5647027302784358  0.6895410870439681  0.5072438968624002   T   T   T
  0.8231493420333988  0.6904479763052260  0.4998026068749841   T   T   T
  0.9412956820184935  0.7581340075951379  0.5030020084542616   T   T   T
  0.5765472666112949  0.5616109527994472  0.5120345980724076   T   T   T
  0.8059798695102657  0.5632823622660417  0.4948208310796923   T   T   T
  0.9343852114056880  0.6185340987098543  0.5026453093292409   T   T   T
  0.5684600731878021  0.8157078291545156  0.5100357888097762   T   T   T
  0.8189729106002021  0.8171779177182547  0.4987127197766280   T   T   T
  0.9446254570791665  0.8683214960983452  0.5038806567630557   T   T   T
  0.7004859688113582  0.8826444384235335  0.5063767944703543   T   T   T
  0.7005745779997127  0.7537144472924939  0.5072949523937890   T   T   T
  0.6960952620420109  0.6424593038357981  0.5082270879393104   T   T   T
  0.6999352099160312  0.9955281846216664  0.5074369703066867   T   T   T
  0.0002112439569970  0.0001379294448540  0.0373463921698374   F   F   F
  0.3342257926207992  0.0625994154237475  0.0423987318545187   F   F   F
  0.1660626269271432  0.0626581163633873  0.0424061668450690   F   F   F
  0.2502202084754828  0.1252178855354416  0.1130358333669221   F   F   F
  0.0828588434925734  0.0627073156657261  0.1186643004524512   F   F   F
  0.4176999472490408  0.0627059576615423  0.1186271515872050   F   F   F
  0.0010182257698131  0.1252628088929446  0.1991388885218045   T   T   T
  0.3329001301274316  0.0627648196961705  0.1976824359645633   T   T   T
  0.1681894632285750  0.0627845422195231  0.1977104170159979   T   T   T
  0.2496580893988782  0.1251133226220962  0.2786960890528080   T   T   T
  0.0843783471273117  0.0627735104331819  0.2788329545056719   T   T   T
  0.4175125917991996  0.0626048262933696  0.2780244811803052   T   T   T
  0.0035138647262592  0.1250410157567203  0.3598561590184927   T   T   T
  0.3338263154720412  0.0622302638506811  0.3581635675335331   T   T   T
  0.1666376658193959  0.0626151930655398  0.3607290537847536   T   T   T
  0.0001993579241457  0.1251124241418680  0.0373673238785415   F   F   F
  0.3342248374093941  0.1876083518869578  0.0424180467130881   F   F   F
  0.1660568042752573  0.1876606967942038  0.0424146876443743   F   F   F
  0.2502332970886698  0.2502158349488468  0.1130222857832806   F   F   F
  0.0828712378028129  0.1877169521294775  0.1186661494224168   F   F   F
  0.4176644359050954  0.1877065482458207  0.1186607550294028   F   F   F
  0.0009835026521588  0.2502867483984108  0.1991807976372971   T   T   T
  0.3327921806333103  0.1877786092021785  0.1976537214697972   T   T   T
  0.1681907629631421  0.1877826402544210  0.1976615111886836   T   T   T
  0.2495093943934549  0.2501230658434926  0.2787834800161185   T   T   T
  0.0843770469930778  0.1877801010952906  0.2789274843018332   T   T   T
  0.4173024387593169  0.1876287912420690  0.2780593189917778   T   T   T
  0.0013186889006622  0.2498666206908518  0.3593477342306725   T   T   T
  0.3337493103683737  0.1871788889146005  0.3576631353185481   T   T   T
  0.1663504577975463  0.1877122265430358  0.3604148301050891   T   T   T
  0.0002122078768210  0.2501392066830732  0.0373456541597363   F   F   F
  0.3342232035055162  0.3125992309382539  0.0423967923009556   F   F   F
  0.1660586660861370  0.3126582257413517  0.0424062846115874   F   F   F
  0.2502173161139041  0.3752178897059935  0.1130360339591618   F   F   F
  0.0828568376004242  0.3127060748111887  0.1186645141734175   F   F   F
  0.4176984722473520  0.3127078846600213  0.1186298408889357   F   F   F
  0.0009901605105916  0.3751862345413723  0.1992206326465876   T   T   T
  0.3328841238292926  0.3127875909421587  0.1977896132039866   T   T   T
  0.1682037773921591  0.3127814518091967  0.1977221774015072   T   T   T
  0.2494970276291263  0.3752826675994219  0.2789548969635064   T   T   T
  0.0846479695650985  0.3127024720518629  0.2790139463625889   T   T   T
  0.4170488615473774  0.3127428516872982  0.2783802854055603   T   T   T
  0.0018275311575871  0.3753848420100581  0.3595536463421791   T   T   T
  0.3329302529705598  0.3124124108855910  0.3583070229794380   T   T   T
  0.1659636646264805  0.3126563487806526  0.3622132315040625   T   T   T
  0.0001993469486266  0.3751125453592721  0.0373668329409540   F   F   F
  0.3342265491584655  0.4376091382735581  0.0424193945147948   F   F   F
  0.1660559599480962  0.4376604044393986  0.0424156771225839   F   F   F
  0.2502327017382058  0.0002164962773534  0.1130220722767348   F   F   F
  0.0828707196508915  0.4377156099338606  0.1186668391713255   F   F   F
  0.4176643738564039  0.4377089816271393  0.1186614737223408   F   F   F
  0.0010255607039344  0.0002516023756063  0.1990949356510597   T   T   T
  0.3328818399320785  0.4377497095497982  0.1977717746643091   T   T   T
  0.1681921695708444  0.4377657916288292  0.1977420398573176   T   T   T
  0.2497040016383935  0.0001637212446901  0.2786385260726925   T   T   T
  0.0841559409255069  0.4376653126114768  0.2789923450502955   T   T   T
  0.4171673073403053  0.4377095544660339  0.2784827314376042   T   T   T
  0.0038565797874637  0.0002228166227015  0.3595522921755576   T   T   T
  0.3335037262250894  0.4376173616577249  0.3585467552083545   T   T   T
  0.1663305449237535  0.4376026488322067  0.3606206913431078   T   T   T
  0.0002112439569970  0.5001379294448540  0.0373463921698374   F   F   F
  0.3342257926207992  0.5625994154237475  0.0423987318545187   F   F   F
  0.1660626269271432  0.5626581163633873  0.0424061668450690   F   F   F
  0.2502202084754828  0.6252178855354416  0.1130358333669221   F   F   F
  0.0828588434925734  0.5627073156657261  0.1186643004524512   F   F   F
  0.4176999472490408  0.5627059576615423  0.1186271515872050   F   F   F
  0.0009281188583282  0.6251971462231658  0.1991596265740155   T   T   T
  0.3329080744679357  0.5627321857099213  0.1977637072570538   T   T   T
  0.1681999338473475  0.5627263272512899  0.1977874382681152   T   T   T
  0.2494483791526197  0.6252614628220392  0.2788175232726343   T   T   T
  0.0840023967675940  0.5626805143212663  0.2789351982578343   T   T   T
  0.4171864379396735  0.5627846700344918  0.2784174501784947   T   T   T
  0.0034735029381975  0.6252161077239415  0.3599351508960636   T   T   T
  0.3333758397078322  0.5630658214177073  0.3587237232987228   T   T   T
  0.1662003706899167  0.5628301374293809  0.3607176642320741   T   T   T
  0.0001993579241457  0.6251124241418680  0.0373673238785415   F   F   F
  0.3342248374093941  0.6876083518869507  0.0424180467130881   F   F   F
  0.1660568042752573  0.6876606967941967  0.0424146876443743   F   F   F
  0.2502332970886698  0.7502158349488468  0.1130222857832806   F   F   F
  0.0828712378028129  0.6877169521294704  0.1186661494224168   F   F   F
  0.4176644359050954  0.6877065482458136  0.1186607550294028   F   F   F
  0.0010136236867721  0.7502066585165830  0.1991186892173231   T   T   T
  0.3329676131178090  0.6877365201124656  0.1976902930326881   T   T   T
  0.1682144275646278  0.6877088084096035  0.1977100814317919   T   T   T
  0.2495905603497340  0.7502863616800386  0.2787080049001417   T   T   T
  0.0840768003998325  0.6877050184189437  0.2787694917032196   T   T   T
  0.4173354362585535  0.6877937056280480  0.2782593630298343   T   T   T
  0.0034068695539845  0.7503969551290028  0.3595883908654267   T   T   T
  0.3335640527438143  0.6883414537863769  0.3580444846778483   T   T   T
  0.1664647397691622  0.6878789550024490  0.3602650128401811   T   T   T
  0.0002122078768210  0.7501392066830732  0.0373456541597363   F   F   F
  0.3342232035055162  0.8125992309382539  0.0423967923009556   F   F   F
  0.1660586660861370  0.8126582257413517  0.0424062846115874   F   F   F
  0.2502173161139041  0.8752178897059935  0.1130360339591618   F   F   F
  0.0828568376004242  0.8127060748111887  0.1186645141734175   F   F   F
  0.4176984722473520  0.8127078846600213  0.1186298408889357   F   F   F
  0.0010194334441126  0.8752319762929237  0.1991014002525927   T   T   T
  0.3329268057358008  0.8127401086067205  0.1976603896321754   T   T   T
  0.1682796675243386  0.8127260550832486  0.1976654156140265   T   T   T
  0.2496785728583332  0.8752494765639036  0.2786470040514850   T   T   T
  0.0842628909634603  0.8127444384625404  0.2787202204266040   T   T   T
  0.4175382168211242  0.8127307127407000  0.2780915239128220   T   T   T
  0.0038355813663127  0.8754253901047422  0.3595901713482182   T   T   T
  0.3338457026970242  0.8128846779294432  0.3581981398008237   T   T   T
  0.1664908184683353  0.8128916546552415  0.3606185871299093   T   T   T
  0.0001993469486266  0.8751125453592721  0.0373668329409540   F   F   F
  0.3342265491584655  0.9376091382735510  0.0424193945147948   F   F   F
  0.1660559599480962  0.9376604044393915  0.0424156771225839   F   F   F
  0.2502327017382058  0.5002164962773534  0.1130220722767348   F   F   F
  0.0828707196508915  0.9377156099338535  0.1186668391713255   F   F   F
  0.4176643738564039  0.9377089816271322  0.1186614737223408   F   F   F
  0.0008992158843504  0.5001952223592295  0.1991907983160366   T   T   T
  0.3328918783582186  0.9377459626711763  0.1976037971932081   T   T   T
  0.1682560403581542  0.9377582108168216  0.1976381536523721   T   T   T
  0.2495651203879416  0.5002336421059006  0.2789278286675183   T   T   T
  0.0843006670354262  0.9377539397424586  0.2786712435580148   T   T   T
  0.4175779374716225  0.9376210616314098  0.2780296644592730   T   T   T
  0.0029194842159965  0.5002574692887456  0.3599402100438351   T   T   T
  0.3339898128186600  0.9376080726077830  0.3576399075145339   T   T   T
  0.1668267570788175  0.9376489930776122  0.3600412902574770   T   T   T
  0.5002112439569970  0.0001379294448540  0.0373463921698374   F   F   F
  0.8342257926207992  0.0625994154237475  0.0423987318545187   F   F   F
  0.6660626269271432  0.0626581163633873  0.0424061668450690   F   F   F
  0.7502202084754828  0.1252178855354416  0.1130358333669221   F   F   F
  0.5828588434925734  0.0627073156657261  0.1186643004524512   F   F   F
  0.9176999472490408  0.0627059576615423  0.1186271515872050   F   F   F
  0.5010665135465620  0.1252489178732119  0.1991054736700267   T   T   T
  0.8329078434517249  0.0627810717956051  0.1976730700956524   T   T   T
  0.6683014322803394  0.0627662660912723  0.1976830126050418   T   T   T
  0.7497450135057984  0.1252112184429569  0.2787426558378364   T   T   T
  0.5843990361806862  0.0626760179567232  0.2787315485187200   T   T   T
  0.9174662113635641  0.0627030900885273  0.2781165213789893   T   T   T
  0.5035469462286273  0.1249542691035801  0.3596085028402944   T   T   T
  0.8339840527208637  0.0624675194954327  0.3583507574711836   T   T   T
  0.6666826692969490  0.0626826871933773  0.3607221155595951   T   T   T
  0.5001993579241457  0.1251124241418680  0.0373673238785415   F   F   F
  0.8342248374093941  0.1876083518869578  0.0424180467130881   F   F   F
  0.6660568042752573  0.1876606967942038  0.0424146876443743   F   F   F
  0.7502332970886698  0.2502158349488468  0.1130222857832806   F   F   F
  0.5828712378028129  0.1877169521294775  0.1186661494224168   F   F   F
  0.9176644359050954  0.1877065482458207  0.1186607550294028   F   F   F
  0.5009116355231847  0.2502867330489685  0.1991398094461481   T   T   T
  0.8329408143510283  0.1877857141920848  0.1976980844698218   T   T   T
  0.6682575050698171  0.1878143615935318  0.1976907595017395   T   T   T
  0.7496072715873192  0.2501885844902925  0.2788393547240989   T   T   T
  0.5841429967292164  0.1877350298020063  0.2786998936447200   T   T   T
  0.9173283779869195  0.1876295801087368  0.2783296406025488   T   T   T
  0.5032275745403553  0.2498805700211539  0.3594285448862783   T   T   T
  0.8337845456758146  0.1873134828646145  0.3582694504010872   T   T   T
  0.6664423877121560  0.1875534479680904  0.3601054852452955   T   T   T
  0.5002122078768210  0.2501392066830732  0.0373456541597363   F   F   F
  0.8342232035055162  0.3125992309382539  0.0423967923009556   F   F   F
  0.6660586660861370  0.3126582257413517  0.0424062846115874   F   F   F
  0.7502173161139041  0.3752178897059935  0.1130360339591618   F   F   F
  0.5828568376004242  0.3127060748111887  0.1186645141734175   F   F   F
  0.9176984722473520  0.3127078846600213  0.1186298408889357   F   F   F
  0.5008725416159213  0.3752848044714648  0.1992036382230511   T   T   T
  0.8329290473071863  0.3127686471627597  0.1977949592164779   T   T   T
  0.6681618348963874  0.3127822683249784  0.1977905459915666   T   T   T
  0.7494596690547372  0.3751564071739232  0.2789471434243121   T   T   T
  0.5840002783463881  0.3128164980851319  0.2789927046817768   T   T   T
  0.9172539600239894  0.3126591056587421  0.2784111486919539   T   T   T
  0.5032334657750358  0.3750387642281252  0.3604894101619245   T   T   T
  0.8334117098652372  0.3124042216909356  0.3588132534359667   T   T   T
  0.6661125972881395  0.3126269343161302  0.3608973921909964   T   T   T
  0.5001993469486266  0.3751125453592721  0.0373668329409540   F   F   F
  0.8342265491584655  0.4376091382735581  0.0424193945147948   F   F   F
  0.6660559599480962  0.4376604044393986  0.0424156771225839   F   F   F
  0.7502327017382058  0.0002164962773534  0.1130220722767348   F   F   F
  0.5828707196508915  0.4377156099338606  0.1186668391713255   F   F   F
  0.9176643738564039  0.4377089816271393  0.1186614737223408   F   F   F
  0.5011205451026116  0.0002007654493153  0.1990808283112494   T   T   T
  0.8328704301325445  0.4377445699317944  0.1977594395064709   T   T   T
  0.6681657957365600  0.4377302901774568  0.1977307510192862   T   T   T
  0.7497814380742822  0.0001820567947673  0.2786880885758870   T   T   T
  0.5841201405713715  0.4377489078106265  0.2790713372761741   T   T   T
  0.9171678317432219  0.4376615929687806  0.2783877103036061   T   T   T
  0.5037518984377196  0.0000372609798574  0.3594642561745513   T   T   T
  0.8334603480379110  0.4377972751565626  0.3583108851715895   T   T   T
  0.6660105008883346  0.4378701923290144  0.3608333117710518   T   T   T
  0.5002112439569970  0.5001379294448540  0.0373463921698374   F   F   F
  0.8342257926207992  0.5625994154237475  0.0423987318545187   F   F   F
  0.6660626269271432  0.5626581163633873  0.0424061668450690   F   F   F
  0.7502202084754828  0.6252178855354416  0.1130358333669221   F   F   F
  0.5828588434925734  0.5627073156657261  0.1186643004524512   F   F   F
  0.9176999472490408  0.5627059576615423  0.1186271515872050   F   F   F
  0.5010069970836599  0.6251742567396484  0.1991736677874367   T   T   T
  0.8328766000384145  0.5627207261694104  0.1977853893660244   T   T   T
  0.6681943502207840  0.5627049338458032  0.1977169774502722   T   T   T
  0.7495388858124924  0.6252625141562418  0.2788220332796061   T   T   T
  0.5846194495069142  0.5627049983484710  0.2789597957626083   T   T   T
  0.9170920294897301  0.5627059178743075  0.2783699198664323   T   T   T
  0.5017337486311116  0.6257648388372531  0.3592381707813962   T   T   T
  0.8329658346816303  0.5627495671735903  0.3583817921147940   T   T   T
  0.6658063936194017  0.5627987338522566  0.3620496385847701   T   T   T
  0.5001993579241457  0.6251124241418680  0.0373673238785415   F   F   F
  0.8342248374093941  0.6876083518869507  0.0424180467130881   F   F   F
  0.6660568042752573  0.6876606967941967  0.0424146876443743   F   F   F
  0.7502332970886698  0.7502158349488468  0.1130222857832806   F   F   F
  0.5828712378028129  0.6877169521294704  0.1186661494224168   F   F   F
  0.9176644359050954  0.6877065482458136  0.1186607550294028   F   F   F
  0.5010858137809755  0.7502133346366451  0.1991270165474278   T   T   T
  0.8328301484958294  0.6877185558004452  0.1976840126293640   T   T   T
  0.6682209433287107  0.6877248071683763  0.1976665021477149   T   T   T
  0.7497223071446408  0.7502453013146395  0.2787679246345620   T   T   T
  0.5844097145796915  0.6877080632057717  0.2788912765465050   T   T   T
  0.9172887341233816  0.6877061016238277  0.2781753622425720   T   T   T
  0.5032164414780744  0.7503636756643417  0.3598257055053959   T   T   T
  0.8338455788385715  0.6879701024763488  0.3578358872015804   T   T   T
  0.6664889572296095  0.6876818129347344  0.3603316638426797   T   T   T
  0.5002122078768210  0.7501392066830732  0.0373456541597363   F   F   F
  0.8342232035055162  0.8125992309382539  0.0423967923009556   F   F   F
  0.6660586660861370  0.8126582257413517  0.0424062846115874   F   F   F
  0.7502173161139041  0.8752178897059935  0.1130360339591618   F   F   F
  0.5828568376004242  0.8127060748111887  0.1186645141734175   F   F   F
  0.9176984722473520  0.8127078846600213  0.1186298408889357   F   F   F
  0.5011274654267779  0.8751904798703399  0.1991035509957490   T   T   T
  0.8328855988899661  0.8127397309596476  0.1977011361587203   T   T   T
  0.6682358735181758  0.8127184597086857  0.1977172572644696   T   T   T
  0.7497405226942132  0.8752399474950991  0.2787389697613705   T   T   T
  0.5845229606466088  0.8126951486586349  0.2788931199077405   T   T   T
  0.9174144272889310  0.8127482272096310  0.2781324853366880   T   T   T
  0.5038764568904749  0.8752440853399391  0.3596244345432095   T   T   T
  0.8339462509259392  0.8128926417523366  0.3584438254186222   T   T   T
  0.6666163302778346  0.8128593679010145  0.3609256089001602   T   T   T
  0.5001993469486266  0.8751125453592721  0.0373668329409540   F   F   F
  0.8342265491584655  0.9376091382735510  0.0424193945147948   F   F   F
  0.6660559599480962  0.9376604044393915  0.0424156771225839   F   F   F
  0.7502327017382058  0.5002164962773534  0.1130220722767348   F   F   F
  0.5828707196508915  0.9377156099338535  0.1186668391713255   F   F   F
  0.9176643738564039  0.9377089816271322  0.1186614737223408   F   F   F
  0.5009394278721162  0.5002387146410328  0.1992165591269875   T   T   T
  0.8329069932343307  0.9377547952401166  0.1976346776008056   T   T   T
  0.6682681549598395  0.9377329695561190  0.1976586402572835   T   T   T
  0.7494742594537041  0.5001171746112842  0.2789152335670492   T   T   T
  0.5844709406569184  0.9376654719677699  0.2787390874390554   T   T   T
  0.9175023864240063  0.9377372954959049  0.2780961208065172   T   T   T
  0.5008537780507433  0.5001178585789959  0.3593774528412907   T   T   T
  0.8341629208958372  0.9377743337785774  0.3577625457856797   T   T   T
  0.6669874909914292  0.9377284257079259  0.3602344540042887   T   T   T
  0.4059663601692378  0.0001462046730154  0.0700885167279779   F   F   F
  0.2501335306342440  0.0001313415364734  0.0393543396202674   F   F   F
  0.0944334762619548  0.0001738881651363  0.0701382961740649   F   F   F
  0.1549947328934422  0.1252546000618224  0.1485264565477067   F   F   F
  0.0003044512358912  0.1252329358346600  0.1366467142038701   F   F   F
  0.3454752489896649  0.1252525403775380  0.1484231789215542   F   F   F
  0.4016632945676890  0.1252264118272614  0.2292405141765170   T   T   T
  0.2503997102388155  0.1252885724376564  0.2153741696176213   T   T   T
  0.1000714262803967  0.1252912088723457  0.2298144859684088   T   T   T
  0.1517145294774887  0.1251876404337477  0.3109669963697142   T   T   T
  0.0009225034343967  0.1251041966103029  0.2956082778421519   T   T   T
  0.3487069411664315  0.1247320751897324  0.3089037112607094   T   T   T
  0.4035240831071565  0.1241786597367011  0.3863263234236022   T   T   T
  0.2523059405076410  0.1244103225412240  0.3762038807052653   T   T   T
  0.1015988122857320  0.1257664412339630  0.3920327513342019   T   T   T
  0.4059504510021199  0.1251528418496832  0.0701137697057277   F   F   F
  0.2501484584581348  0.1251294756807368  0.0393952583647277   F   F   F
  0.0944439778587522  0.1251741239827453  0.0701534912843229   F   F   F
  0.1549877250862224  0.2502614546838657  0.1485179043880294   F   F   F
  0.0002974674814880  0.2502100279361912  0.1366324893501272   F   F   F
  0.3454803331882346  0.2503006024972620  0.1484139149937889   F   F   F
  0.4015395457176457  0.2503185702825415  0.2293459443278847   T   T   T
  0.2503754964679646  0.2502647587091994  0.2154296186819100   T   T   T
  0.1000872466615576  0.2502801891210222  0.2298508178554304   T   T   T
  0.1519672108313551  0.2504844306682396  0.3110890642084356   T   T   T
  0.0008327041887661  0.2502417707148651  0.2954041108083181   T   T   T
  0.3482791952298539  0.2501286549919735  0.3091077165459155   T   T   T
  0.4032789212627666  0.2494593658142661  0.3863476464858727   T   T   T
  0.2520254623644435  0.2493089471775355  0.3767208819378908   T   T   T
  0.0989222479675948  0.2495473539561351  0.3896915562851453   T   T   T
  0.4059628358367533  0.2501443164155361  0.0700852243531500   F   F   F
  0.2501309939231433  0.2501318371526651  0.0393519425499136   F   F   F
  0.0944333317481849  0.2501740935465691  0.0701386596889861   F   F   F
  0.1549942609652177  0.3752545226085218  0.1485264414225469   F   F   F
  0.0003019335461047  0.3752315664304433  0.1366474736751755   F   F   F
  0.3454762333887373  0.3752493953370220  0.1484229723695165   F   F   F
  0.4015976164390468  0.3752554276280522  0.2295240330933321   T   T   T
  0.2503873883668124  0.3752981118007463  0.2155449334860004   T   T   T