Ta  N Cu                                
   1.00000000000000     
    18.1096308199999996    0.0000000000000000    0.0000000000000000
     0.0000000000000000   23.3551997799999995    0.0000000000000000
     0.0000000000000000    0.0000000000000000   30.4818170799999990
   Ta   N    Cu
   240   240     4
Selective dynamics
Direct
  0.0000000000000000  0.0000000000000000  0.1962037549895328   F   F   F
  0.3335422814544131  0.0625000001605613  0.2032829710819826   F   F   F
  0.1664576892793903  0.0625000001605613  0.2032829710819826   F   F   F
  0.2499999997239044  0.1249999998929567  0.2787808134173062   F   F   F
  0.0825353920715628  0.0625000001605613  0.2838315333135668   F   F   F
  0.4174646079284372  0.0625000001605613  0.2838315333135668   F   F   F
  0.9999691108439686  0.1249670968071857  0.3695673238907019   T   T   T
  0.3322202645103089  0.0624690352559051  0.3683886680131401   T   T   T
  0.1677492179173735  0.0624712079964920  0.3683940949968535   T   T   T
  0.2499137280775461  0.1249320256281130  0.4556262452368056   T   T   T
  0.0838176941554055  0.0624198196735574  0.4543306451878388   T   T   T
  0.4160985139342267  0.0623901471434821  0.4543454772858817   T   T   T
  0.9999764938212450  0.1250344490074895  0.5406242745382061   T   T   T
  0.3350824083313000  0.0621324653411288  0.5425502185120851   T   T   T
  0.1648114128047976  0.0624049093460867  0.5425669906803913   T   T   T
  0.0000000000000000  0.1249999998929567  0.1962037549895328   F   F   F
  0.3335422814544131  0.1875000000535181  0.2032829710819826   F   F   F
  0.1664576892793903  0.1875000000535181  0.2032829710819826   F   F   F
  0.2499999997239044  0.2500000002140865  0.2787808134173062   F   F   F
  0.0825353920715628  0.1875000000535181  0.2838315333135668   F   F   F
  0.4174646079284372  0.1875000000535181  0.2838315333135668   F   F   F
  0.9999455371561080  0.2499529413165772  0.3695783374614919   T   T   T
  0.3322247188519429  0.1874714966845912  0.3683858853682957   T   T   T
  0.1677645587780300  0.1874648489161216  0.3683742204080392   T   T   T
  0.2497976156349385  0.2499756887974648  0.4556016741875669   T   T   T
  0.0837505801680565  0.1873563251100372  0.4542934620167506   T   T   T
  0.4160770306306593  0.1872814391004699  0.4543143533910174   T   T   T
  0.9999390294743044  0.2500936435818019  0.5404229543447709   T   T   T
  0.3348624000413078  0.1866263878659052  0.5424999264337513   T   T   T
  0.1648292735178246  0.1872778831934048  0.5424382581593674   T   T   T
  0.0000000000000000  0.2500000002140865  0.1962037549895328   F   F   F
  0.3335422814544131  0.3124999999464819  0.2032829710819826   F   F   F
  0.1664576892793903  0.3124999999464819  0.2032829710819826   F   F   F
  0.2499999997239044  0.3750000001070433  0.2787808134173062   F   F   F
  0.0825353920715628  0.3124999999464819  0.2838315333135668   F   F   F
  0.4174646079284372  0.3124999999464819  0.2838315333135668   F   F   F
  0.9999143004343913  0.3749686694042929  0.3696490025832744   T   T   T
  0.3323277249705166  0.3124782115039762  0.3684105190301596   T   T   T
  0.1676949594587243  0.3124585821912806  0.3683404956606660   T   T   T
  0.2498546645544250  0.3749380869197210  0.4553708089463542   T   T   T
  0.0838449494772187  0.3122975146920543  0.4543525153459447   T   T   T
  0.4160472027836113  0.3122368405312820  0.4545035892990160   T   T   T
  0.9998565198260547  0.3749328053617667  0.5401999694883791   T   T   T
  0.3345655175914408  0.3105897105744935  0.5428045790395425   T   T   T
  0.1632590500983465  0.3119575212100525  0.5426795645950396   T   T   T
  0.0000000000000000  0.3750000001070433  0.1962037549895328   F   F   F
  0.3335422814544131  0.4375000002676046  0.2032829710819826   F   F   F
  0.1664576892793903  0.4375000002676046  0.2032829710819826   F   F   F
  0.2499999997239044  0.0000000000000000  0.2787808134173062   F   F   F
  0.0825353920715628  0.4375000002676046  0.2838315333135668   F   F   F
  0.4174646079284372  0.4375000002676046  0.2838315333135668   F   F   F
  0.9999839544596080 -0.0000037723742953  0.3695589970699458   T   T   T
  0.3325807020175349  0.4375039661881643  0.3684760177796264   T   T   T
  0.1677580932351879  0.4375066557336671  0.3683155963700662   T   T   T
  0.2499698035215889  0.9999869296915482  0.4556748121303578   T   T   T
  0.0836316349034669  0.4375043338273623  0.4542531502915974   T   T   T
  0.4161635878161778  0.4375048896310414  0.4546182713913556   T   T   T
 -0.0000050246735832  0.9999967406613288  0.5407440633142779   T   T   T
  0.3341807135929280  0.4375210457247562  0.5396575677498447   T   T   T
  0.1607037660385389  0.4375223835379105  0.5412259862695165   T   T   T
  0.0000000000000000  0.5000000000000000  0.1962037549895328   F   F   F
  0.3335422814544131  0.5625000001605613  0.2032829710819826   F   F   F
  0.1664576892793903  0.5625000001605613  0.2032829710819826   F   F   F
  0.2499999997239044  0.6249999998929567  0.2787808134173062   F   F   F
  0.0825353920715628  0.5625000001605613  0.2838315333135668   F   F   F
  0.4174646079284372  0.5625000001605613  0.2838315333135668   F   F   F
  0.9999367444344220  0.6250462522022566  0.3695774920882354   T   T   T
  0.3323352127682426  0.5625304714561367  0.3684062270707558   T   T   T
  0.1676922719894445  0.5625529683638075  0.3683376145272109   T   T   T
  0.2498057125114075  0.6250517902328920  0.4555881871182718   T   T   T
  0.0838325696205714  0.5627154990873199  0.4543452259460988   T   T   T
  0.4160670141235399  0.5627702670634800  0.4544934364862384   T   T   T
  0.9999546585799706  0.6248901079367801  0.5404291701758072   T   T   T
  0.3345983277382456  0.5644679784954760  0.5427797003407521   T   T   T
  0.1632862790376172  0.5630872350472078  0.5426582742836905   T   T   T
  0.0000000000000000  0.6249999998929567  0.1962037549895328   F   F   F
  0.3335422814544131  0.6875000000535181  0.2032829710819826   F   F   F
  0.1664576892793903  0.6875000000535181  0.2032829710819826   F   F   F
  0.2499999997239044  0.7500000002140865  0.2787808134173062   F   F   F
  0.0825353920715628  0.6875000000535181  0.2838315333135668   F   F   F
  0.4174646079284372  0.6875000000535181  0.2838315333135668   F   F   F
  0.9999527184059649  0.7500289148333773  0.3695661883825372   T   T   T
  0.3322364455333524  0.6875353403530353  0.3683825360909690   T   T   T
  0.1677671283002642  0.6875432874410010  0.3683708281539348   T   T   T
  0.2499085200158100  0.7500875784597676  0.4556217565323469   T   T   T
  0.0837336011648060  0.6876587496062143  0.4542867404230814   T   T   T
  0.4161000559333835  0.6877260945968304  0.4543058309607905   T   T   T
  0.9999686583570958  0.7499513344042383  0.5406274535891944   T   T   T
  0.3348779653187398  0.6884256516633978  0.5424699183515064   T   T   T
  0.1648520098094099  0.6877744214454599  0.5424099622928585   T   T   T
  0.0000000000000000  0.7500000002140865  0.1962037549895328   F   F   F
  0.3335422814544131  0.8124999999464819  0.2032829710819826   F   F   F
  0.1664576892793903  0.8124999999464819  0.2032829710819826   F   F   F
  0.2499999997239044  0.8750000001070433  0.2787808134173062   F   F   F
  0.0825353920715628  0.8124999999464819  0.2838315333135668   F   F   F
  0.4174646079284372  0.8124999999464819  0.2838315333135668   F   F   F
  0.9999777968765950  0.8749993947131285  0.3695591712767490   T   T   T
  0.3322243854504603  0.8125337898441563  0.3683876351426508   T   T   T
  0.1677511072809665  0.8125337867217773  0.3683932710022823   T   T   T
  0.2499640306926329  0.8750274744868861  0.4556735650418987   T   T   T
  0.0838087889762351  0.8125867111984189  0.4543292814358279   T   T   T
  0.4161095363583113  0.8126113137257608  0.4543436630180556   T   T   T
  0.9999775924457274  0.8749887082370315  0.5407445265865497   T   T   T
  0.3350726684480939  0.8129231624177344  0.5425413284380549   T   T   T
  0.1648074464777099  0.8126387867852135  0.5425618514350562   T   T   T
  0.0000000000000000  0.8750000001070433  0.1962037549895328   F   F   F
  0.3335422814544131  0.9375000002676046  0.2032829710819826   F   F   F
  0.1664576892793903  0.9375000002676046  0.2032829710819826   F   F   F
  0.2499999997239044  0.5000000000000000  0.2787808134173062   F   F   F
  0.0825353920715628  0.9375000002676046  0.2838315333135668   F   F   F
  0.4174646079284372  0.9375000002676046  0.2838315333135668   F   F   F
  0.9999082153971058  0.5000294485584824  0.3696509339667548   T   T   T
  0.3322027134540103  0.9375007525794861  0.3683736545307041   T   T   T
  0.1677658770239163  0.9375016470066736  0.3683857131699854   T   T   T
  0.2498630704121565  0.5000918250094101  0.4553621522840421   T   T   T
  0.0837947121165200  0.9374996782403543  0.4543592469965672   T   T   T
  0.4161614827667158  0.9374996183901648  0.4543387406971187   T   T   T
  0.9998739569489353  0.5000484702081585  0.5402015950971659   T   T   T
  0.3350417032928366  0.9375274634795756  0.5425478602659576   T   T   T
  0.1648939545824114  0.9375216024504592  0.5425590485471216   T   T   T
  0.5000000000000000  0.0000000000000000  0.1962037549895328   F   F   F
  0.8335422809022219  0.0625000001605613  0.2032829710819826   F   F   F
  0.6664576892793903  0.0625000001605613  0.2032829710819826   F   F   F
  0.7499999997239044  0.1249999998929567  0.2787808134173062   F   F   F
  0.5825353920715628  0.0625000001605613  0.2838315333135668   F   F   F
  0.9174646079284372  0.0625000001605613  0.2838315333135668   F   F   F
  0.4999646741371286  0.1249388579131346  0.3695711573740595   T   T   T
  0.8322146380852891  0.0624621554275409  0.3683894203799196   T   T   T
  0.6677442403147611  0.0624623869092984  0.3683967043751801   T   T   T
  0.7499786895843029  0.1249086246305999  0.4556290300110888   T   T   T
  0.5838356500580140  0.0623838158423902  0.4543484436476148   T   T   T
  0.9161170097432960  0.0624016894229551  0.4543327981514281   T   T   T
  0.4999776203894554  0.1249346700093213  0.5406741247391728   T   T   T
  0.8351463825277011  0.0623432719843688  0.5425697793077470   T   T   T
  0.6648752145844579  0.0620662566278855  0.5425594960146179   T   T   T
  0.5000000000000000  0.1249999998929567  0.1962037549895328   F   F   F
  0.8335422809022219  0.1875000000535181  0.2032829710819826   F   F   F
  0.6664576892793903  0.1875000000535181  0.2032829710819826   F   F   F
  0.7499999997239044  0.2500000002140865  0.2787808134173062   F   F   F
  0.5825353920715628  0.1875000000535181  0.2838315333135668   F   F   F
  0.9174646079284372  0.1875000000535181  0.2838315333135668   F   F   F
  0.4999434434134313  0.2499922906084260  0.3695966884769358   T   T   T
  0.8321540660168741  0.1874531470888129  0.3683659600584752   T   T   T
  0.6676986824122866  0.1874656833076168  0.3683910714297576   T   T   T
  0.7499992134371297  0.2499670618997561  0.4556115904090681   T   T   T
  0.5837741434981649  0.1872702481007790  0.4543159305702486   T   T   T
  0.9161076318891453  0.1873308094079266  0.4542878338039183   T   T   T
  0.4999121614794558  0.2499113676844611  0.5404366281010360   T   T   T
  0.8349978026558785  0.1871919501985988  0.5424247765489408   T   T   T
  0.6649857255351385  0.1865870338504831  0.5424919365337255   T   T   T
  0.5000000000000000  0.2500000002140865  0.1962037549895328   F   F   F
  0.8335422809022219  0.3124999999464819  0.2032829710819826   F   F   F
  0.6664576892793903  0.3124999999464819  0.2032829710819826   F   F   F
  0.7499999997239044  0.3750000001070433  0.2787808134173062   F   F   F
  0.5825353920715628  0.3124999999464819  0.2838315333135668   F   F   F
  0.9174646079284372  0.3124999999464819  0.2838315333135668   F   F   F
  0.4999403029759246  0.3749207318854857  0.3696565096954729   T   T   T
  0.8321887123647088  0.3124432666553528  0.3683294100206622   T   T   T
  0.6675650290317966  0.3124708121411748  0.3684199212131758   T   T   T
  0.7498992041539800  0.3749084255030277  0.4553837102643134   T   T   T
  0.5837877999413874  0.3122263367582356  0.4545186189370689   T   T   T
  0.9159574402913868  0.3122643368131117  0.4543475419417551   T   T   T
  0.4998220712423536  0.3754653989354480  0.5407635791940743   T   T   T
  0.8364488523528589  0.3118631108607653  0.5426663468877382   T   T   T
  0.6650829178315703  0.3105537440512242  0.5428456569142596   T   T   T
  0.5000000000000000  0.3750000001070433  0.1962037549895328   F   F   F
  0.8335422809022219  0.4375000002676046  0.2032829710819826   F   F   F
  0.6664576892793903  0.4375000002676046  0.2032829710819826   F   F   F
  0.7499999997239044  0.0000000000000000  0.2787808134173062   F   F   F
  0.5825353920715628  0.4375000002676046  0.2838315333135668   F   F   F
  0.9174646079284372  0.4375000002676046  0.2838315333135668   F   F   F
  0.4999891459348594  0.9999800173192469  0.3695536289708065   T   T   T
  0.8321040683376730  0.4374928446096347  0.3683098068096633   T   T   T
  0.6673032137152810  0.4374929751652056  0.3684941114936934   T   T   T
  0.7499922898301677  0.9999676151731948  0.4556761991908869   T   T   T
  0.5836652169741170  0.4374836678242889  0.4546494457813780   T   T   T
  0.9161280771918103  0.4374813332784782  0.4542539140619816   T   T   T
  0.4999914513835013  0.9999737377507509  0.5407027596410150   T   T   T
  0.8390637123347370  0.4374479722200531  0.5411538786692190   T   T   T
  0.6655332193855363  0.4374566064769080  0.5398258922786416   T   T   T
  0.5000000000000000  0.5000000000000000  0.1962037549895328   F   F   F
  0.8335422809022219  0.5625000001605613  0.2032829710819826   F   F   F
  0.6664576892793903  0.5625000001605613  0.2032829710819826   F   F   F
  0.7499999997239044  0.6249999998929567  0.2787808134173062   F   F   F
  0.5825353920715628  0.5625000001605613  0.2838315333135668   F   F   F
  0.9174646079284372  0.5625000001605613  0.2838315333135668   F   F   F
  0.4999753387135022  0.6250024277118992  0.3695975045013739   T   T   T
  0.8321893112824538  0.5625409971032949  0.3683363012230980   T   T   T
  0.6675714148967903  0.5625154891656811  0.3684255927568967   T   T   T
  0.7500124500740177  0.6250026635967536  0.4556262860323722   T   T   T
  0.5838099745180791  0.5627468852334984  0.4545340410206300   T   T   T
  0.9159443371173510  0.5627004347786596  0.4543671427822719   T   T   T
  0.4999594737801306  0.6250649731836831  0.5404345696726188   T   T   T
  0.8364979459152901  0.5630348681075361  0.5427039572988843   T   T   T
  0.6651464168033537  0.5643395910872882  0.5428747447578561   T   T   T
  0.5000000000000000  0.6249999998929567  0.1962037549895328   F   F   F
  0.8335422809022219  0.6875000000535181  0.2032829710819826   F   F   F
  0.6664576892793903  0.6875000000535181  0.2032829710819826   F   F   F
  0.7499999997239044  0.7500000002140865  0.2787808134173062   F   F   F
  0.5825353920715628  0.6875000000535181  0.2838315333135668   F   F   F
  0.9174646079284372  0.6875000000535181  0.2838315333135668   F   F   F
  0.4999910907205840  0.7500560402410018  0.3695677627305208   T   T   T
  0.8321525515136187  0.6875312818480125  0.3683722702023942   T   T   T
  0.6677103382108203  0.6875193230177147  0.3683960780686764   T   T   T
  0.7499808775824034  0.7500533699336219  0.4556379657805303   T   T   T
  0.5838021974851809  0.6876985604189674  0.4543306064014276   T   T   T
  0.9160873122834257  0.6876389577233259  0.4543060746685178   T   T   T
  0.4999782374258075  0.7500412019296188  0.5406784305135568   T   T   T
  0.8350179034140136  0.6877114636151467  0.5424652018894740   T   T   T
  0.6649989375530083  0.6883075548768961  0.5425282082464500   T   T   T
  0.5000000000000000  0.7500000002140865  0.1962037549895328   F   F   F
  0.8335422809022219  0.8124999999464819  0.2032829710819826   F   F   F
  0.6664576892793903  0.8124999999464819  0.2032829710819826   F   F   F
  0.7499999997239044  0.8750000001070433  0.2787808134173062   F   F   F
  0.5825353920715628  0.8124999999464819  0.2838315333135668   F   F   F
  0.9174646079284372  0.8124999999464819  0.2838315333135668   F   F   F
  0.4999958972500441  0.8750127485741890  0.3695539674820613   T   T   T
  0.8322118686400225  0.8125243041078347  0.3683920114603036   T   T   T
  0.6677458311297011  0.8125228559856377  0.3683997921446974   T   T   T
  0.7499938853187795  0.8750074101676902  0.4556744502698836   T   T   T
  0.5838454989011842  0.8125891979754921  0.4543551273480556   T   T   T
  0.9161071512073992  0.8125717123826639  0.4543416894144324   T   T   T
  0.4999847554493334  0.8750037262893688  0.5407045578239161   T   T   T
  0.8351291565742959  0.8125864352178224  0.5425765038812063   T   T   T
  0.6648774636394232  0.8128217530898619  0.5425667201716509   T   T   T
  0.5000000000000000  0.8750000001070433  0.1962037549895328   F   F   F
  0.8335422809022219  0.9375000002676046  0.2032829710819826   F   F   F
  0.6664576892793903  0.9375000002676046  0.2032829710819826   F   F   F
  0.7499999997239044  0.5000000000000000  0.2787808134173062   F   F   F
  0.5825353920715628  0.9375000002676046  0.2838315333135668   F   F   F
  0.9174646079284372  0.9375000002676046  0.2838315333135668   F   F   F
  0.4999522963738440  0.5000740461569033  0.3696562899806076   T   T   T
  0.8322100814149216  0.9374940024194861  0.3683864373303538   T   T   T
  0.6677768799009925  0.9374932693029273  0.3683776093155695   T   T   T
  0.7499019612098479  0.5000437224402446  0.4553884657331336   T   T   T
  0.5838197873343376  0.9374871164819426  0.4543485131687463   T   T   T
  0.9161667056063165  0.9374911781751444  0.4543585023722224   T   T   T
  0.4998763211988886  0.4995185399611550  0.5407645459640386   T   T   T
  0.8350672428136421  0.9374587685362035  0.5425612631004344   T   T   T
  0.6649315978610083  0.9374459379132828  0.5425557061450562   T   T   T
  0.4070505905542277  0.0000000000000000  0.2321160648471405   F   F   F
  0.2499999997239044  0.0000000000000000  0.1975324349659786   F   F   F
  0.0929494094457723  0.0000000000000000  0.2321160648471405   F   F   F
  0.1544227962345630  0.1249999998929567  0.3158353176496362   F   F   F
  0.0000000000000000  0.1249999998929567  0.3028242704748862   F   F   F
  0.3455772037654370  0.1249999998929567  0.3158353176496362   F   F   F
  0.4009742946175422  0.1249294746447234  0.4020925182266949   T   T   T
  0.2499822703298139  0.1249797546220065  0.3875610068502931   T   T   T
  0.0989862226124597  0.1249528962486049  0.4020682032138249   T   T   T
  0.1513911573368361  0.1249126050792521  0.4876855732665350   T   T   T
  0.9999522870418444  0.1248859213150003  0.4724418290956185   T   T   T
  0.3484848385690332  0.1248273794645867  0.4877225610197715   T   T   T
  0.4030067834417193  0.1248674729662794  0.5702394036092789   T   T   T
  0.2499494691253470  0.1250266239517997  0.5577798906618588   T   T   T
  0.0969058949974004  0.1250794118364511  0.5701565857155281   T   T   T
  0.4070505905542277  0.1249999998929567  0.2321160648471405   F   F   F
  0.2499999997239044  0.1249999998929567  0.1975324349659786   F   F   F
  0.0929494094457723  0.1249999998929567  0.2321160648471405   F   F   F
  0.1544227962345630  0.2500000002140865  0.3158353176496362   F   F   F
  0.0000000000000000  0.2500000002140865  0.3028242704748862   F   F   F
  0.3455772037654370  0.2500000002140865  0.3158353176496362   F   F   F
  0.4009600964825201  0.2499470633791535  0.4021443661839241   T   T   T
  0.2499981787977325  0.2499511183220508  0.3875281111748102   T   T   T
  0.0990040625423406  0.2499171233156741  0.4020673054843404   T   T   T
  0.1514423732221980  0.2497334417223533  0.4877944444462016   T   T   T
  0.9999113607426345  0.2498567547127996  0.4722795446795215   T   T   T
  0.3482702046419261  0.2496616697775700  0.4877498438207610   T   T   T
  0.4028262259887379  0.2498101925542680  0.5702121763620859   T   T   T
  0.2498536556817843  0.2505148357117857  0.5581164694367522   T   T   T
  0.0966188220116499  0.2498849115431255  0.5702621717533018   T   T   T
  0.4070505905542277  0.2500000002140865  0.2321160648471405   F   F   F
  0.2499999997239044  0.2500000002140865  0.1975324349659786   F   F   F
  0.0929494094457723  0.2500000002140865  0.2321160648471405   F   F   F
  0.1544227962345630  0.3750000001070433  0.3158353176496362   F   F   F
  0.0000000000000000  0.3750000001070433  0.3028242704748862   F   F   F
  0.3455772037654370  0.3750000001070433  0.3158353176496362   F   F   F
  0.4009342960551885  0.3749168851775264  0.4022419494954993   T   T   T
  0.2500936626812463  0.3749926986867985  0.3874324967729531   T   T   T
  0.0991110118779446  0.3749502134472715  0.4019997119123421   T   T   T
  0.1515682445642790  0.3744785562963656  0.4878919573094578   T   T   T
  0.9998855690089765  0.3748692709002371  0.4720267837568435   T   T   T
  0.3482311637086516  0.3740992089759810  0.4881528041783301   T   T   T
  0.4008617106973638  0.3738113729624601  0.5715664691233469   T   T   T
  0.2484959621588687  0.3762833806721210  0.5613441827302739   T   T   T
  0.0956807182665173  0.3746980903373641  0.5706009012320898   T   T   T
  0.4070505905542277  0.3750000001070433  0.2321160648471405   F   F   F
  0.2499999997239044  0.3750000001070433  0.1975324349659786   F   F   F
  0.0929494094457723  0.3750000001070433  0.2321160648471405   F   F   F
  0.1544227962345630  0.0000000000000000  0.3158353176496362   F   F   F
  0.0000000000000000  0.0000000000000000  0.3028242704748862   F   F   F
  0.3455772037654370  0.0000000000000000  0.3158353176496362   F   F   F
  0.4009917104455495  0.9999621545495766  0.4020808219860685   T   T   T
  0.2499856486811199  0.9999888624832199  0.3875884777768581   T   T   T
  0.0989796314813432  0.9999696782728392  0.4020848927334897   T   T   T
  0.1514038390176312  0.9999944307837223  0.4877367737198170   T   T   T
  0.9999787744139802  0.9999716123224326  0.4725389338743342   T   T   T
  0.3485466635373968  0.9999350462604546  0.4877266499327966   T   T   T
  0.4030557370972761  0.9999605219302559  0.5702490344479213   T   T   T
  0.2499709229498298  0.0000268739242089  0.5577927017677220   T   T   T
  0.0969564280221637  0.0000333055271031  0.5702412737940455   T   T   T
  0.4070505905542277  0.5000000000000000  0.2321160648471405   F   F   F
  0.2499999997239044  0.5000000000000000  0.1975324349659786   F   F   F
  0.0929494094457723  0.5000000000000000  0.2321160648471405   F   F   F
  0.1544227962345630  0.6249999998929567  0.3158353176496362   F   F   F
  0.0000000000000000  0.6249999998929567  0.3028242704748862   F   F   F
  0.3455772037654370  0.6249999998929567  0.3158353176496362   F   F   F
  0.4009865618332716  0.6250608127496324  0.4021345039327855   T   T   T
  0.2500030799926199  0.6250622822676980  0.3875187751567109   T   T   T
  0.0989869634685812  0.6250955907683950  0.4020603572983971   T   T   T
  0.1514427141741896  0.6252986941206342  0.4877734860738725   T   T   T
  0.9999033031083283  0.6251342620286984  0.4722866763939271   T   T   T
  0.3482874407611160  0.6253647188327962  0.4877256609626771   T   T   T
  0.4028565543026127  0.6252443263197217  0.5701791754789710   T   T   T
  0.2498784978619843  0.6245416501244536  0.5580743580960706   T   T   T
  0.0966589566479613  0.6251612926549195  0.5702415995104843   T   T   T
  0.4070505905542277  0.6249999998929567  0.2321160648471405   F   F   F
  0.2499999997239044  0.6249999998929567  0.1975324349659786   F   F   F
  0.0929494094457723  0.6249999998929567  0.2321160648471405   F   F   F
  0.1544227962345630  0.7500000002140865  0.3158353176496362   F   F   F
  0.0000000000000000  0.7500000002140865  0.3028242704748862   F   F   F
  0.3455772037654370  0.7500000002140865  0.3158353176496362   F   F   F
  0.4009957944338123  0.7500746934384548  0.4020869015469817   T   T   T
  0.2499853360538576  0.7500278375247523  0.3875564295458496   T   T   T
  0.0989750903290953  0.7500555027368772  0.4020644908200318   T   T   T
  0.1513828656494889  0.7501144807804593  0.4876738684081681   T   T   T
  0.9999344539662185  0.7501049394493605  0.4724475025679690   T   T   T
  0.3484898648755324  0.7501982456215495  0.4877063388594999   T   T   T
  0.4029982743178669  0.7501750556197118  0.5702241357813784   T   T   T
  0.2499501331733136  0.7500232592892535  0.5577608149842347   T   T   T
  0.0969083114308502  0.7499513582858910  0.5701454280628443   T   T   T
  0.4070505905542277  0.7500000002140865  0.2321160648471405   F   F   F
  0.2499999997239044  0.7500000002140865  0.1975324349659786   F   F   F
  0.0929494094457723  0.7500000002140865  0.2321160648471405   F   F   F
  0.1544227962345630  0.8750000001070433  0.3158353176496362   F   F   F
  0.0000000000000000  0.8750000001070433  0.3028242704748862   F   F   F
  0.3455772037654370  0.8750000001070433  0.3158353176496362   F   F   F
  0.4009983516998443  0.8750389997300134  0.4020803141352548   T   T   T
  0.2499859276760444  0.8750153230566760  0.3875876835885897   T   T   T
  0.0989749090580812  0.8750346774173785  0.4020843677683931   T   T   T
  0.1513982394274673  0.8750240270447772  0.4877353318966294   T   T   T
  0.9999722198696871  0.8750192480852111  0.4725400350825908   T   T   T
  0.3485473018658622  0.8750844857626821  0.4877237573463952   T   T   T
  0.4030534000207389  0.8750818001085816  0.5702463955513318   T   T   T
  0.2499652429589013  0.8750181717432227  0.5577911893448138   T   T   T
  0.0969462211794921  0.8750081857968354  0.5702391776952087   T   T   T
  0.4070505905542277  0.8750000001070433  0.2321160648471405   F   F   F
  0.2499999997239044  0.8750000001070433  0.1975324349659786   F   F   F
  0.0929494094457723  0.8750000001070433  0.2321160648471405   F   F   F
  0.1544227962345630  0.5000000000000000  0.3158353176496362   F   F   F
  0.0000000000000000  0.5000000000000000  0.3028242704748862   F   F   F
  0.3455772037654370  0.5000000000000000  0.3158353176496362   F   F   F
  0.4009438744164838  0.5000908313862210  0.4022376577734905   T   T   T
  0.2500962621371507  0.5000232923356486  0.3874269011519504   T   T   T
  0.0991027225008984  0.5000623785216836  0.4019969180473461   T   T   T
  0.1515727404799353  0.5005539291246934  0.4878822288700211   T   T   T
  0.9998800231484418  0.5001202842905373  0.4720358402837374   T   T   T
  0.3482403875969666  0.5009293091146493  0.4881423180202315   T   T   T
  0.4008943606969094  0.5012508305896622  0.5715486670996287   T   T   T
  0.2485148789880918  0.4988079256411899  0.5613289980642759   T   T   T
  0.0956969089284959  0.5003643596777275  0.5705927592447851   T   T   T
  0.9070505905542277  0.0000000000000000  0.2321160648471405   F   F   F
  0.7499999997239044  0.0000000000000000  0.1975324349659786   F   F   F
  0.5929494094457723  0.0000000000000000  0.2321160648471405   F   F   F
  0.6544227962345630  0.1249999998929567  0.3158353176496362   F   F   F
  0.5000000000000000  0.1249999998929567  0.3028242704748862   F   F   F
  0.8455772037654370  0.1249999998929567  0.3158353176496362   F   F   F
  0.9009467758944794  0.1249390104830837  0.4020668178279887   T   T   T
  0.7499618130238938  0.1249708132738591  0.3875629762358183   T   T   T
  0.5989526004931697  0.1249195122295980  0.4020925866784900   T   T   T
  0.6514084825154538  0.1248045529380086  0.4877238421334594   T   T   T
  0.4999471164405860  0.1249311575278791  0.4724824049624296   T   T   T
  0.8485030791745387  0.1248641157384887  0.4876818614392368   T   T   T
  0.9030189338698146  0.1250445223406349  0.5701372192264494   T   T   T
  0.7499489519467772  0.1249586559769538  0.5577778421301068   T   T   T
  0.5969147819328586  0.1247930589546804  0.5702450096156848   T   T   T
  0.9070505905542277  0.1249999998929567  0.2321160648471405   F   F   F
  0.7499999997239044  0.1249999998929567  0.1975324349659786   F   F   F
  0.5929494094457723  0.1249999998929567  0.2321160648471405   F   F   F
  0.6544227962345630  0.2500000002140865  0.3158353176496362   F   F   F
  0.5000000000000000  0.2500000002140865  0.3028242704748862   F   F   F
  0.8455772037654370  0.2500000002140865  0.3158353176496362   F   F   F
  0.9008792896492874  0.2498970112533330  0.4020625841133279   T   T   T
  0.7499000774861930  0.2499382431986592  0.3875308244351147   T   T   T
  0.5989212957443373  0.2499389455288691  0.4021483814107499   T   T   T
  0.6515348443859205  0.2496419174750155  0.4877712851072145   T   T   T
  0.4999122594022747  0.2497498043455960  0.4724231831688854   T   T   T
  0.8483581446986060  0.2496830044478772  0.4877841106981472   T   T   T
  0.9031755838321175  0.2498331053455878  0.5702320803275523   T   T   T
  0.7499121533832280  0.2504415788252446  0.5581144715739151   T   T   T
  0.5969301721475744  0.2497270088540994  0.5702336860157939   T   T   T
  0.9070505905542277  0.2500000002140865  0.2321160648471405   F   F   F
  0.7499999997239044  0.2500000002140865  0.1975324349659786   F   F   F
  0.5929494094457723  0.2500000002140865  0.2321160648471405   F   F   F
  0.6544227962345630  0.3750000001070433  0.3158353176496362   F   F   F
  0.5000000000000000  0.3750000001070433  0.3028242704748862   F   F   F
  0.8455772037654370  0.3750000001070433  0.3158353176496362   F   F   F
  0.9007144550145412  0.3749290834523880  0.4020007150355135   T   T   T
  0.7497807907438159  0.3749736916749228  0.3874426827390648   T   T   T
  0.5989329338879954  0.3749048948538198  0.4022593208040778   T   T   T
  0.6515442922771643  0.3740940927773690  0.4882174843885134   T   T   T
  0.4999010474858772  0.3748038085869453  0.4729266375778039   T   T   T
  0.8481860763859227  0.3744001605483812  0.4878753923643676   T   T   T
  0.9040272172266209  0.3746215607881536  0.5705753803224851   T   T   T
  0.7512185726081579  0.3761494895839022  0.5613950280334780   T   T   T
  0.5987542042997829  0.3738201718313444  0.5716279875976829   T   T   T
  0.9070505905542277  0.3750000001070433  0.2321160648471405   F   F   F