Ta  N Ru Cu 
 1.0000000000000000
    18.1096308199999996    0.0000000000000000    0.0000000000000000
     0.0000000000000000   23.3551997799999995    0.0000000000000000
     0.0000000000000000    0.0000000000000000   30.4818171199999988
 228 240  12  29
Selective dynamics
Cartesian
   0.000000    0.001679   6.009014  F  F  F
   6.053917    1.457674   6.178475  F  F  F
   3.012006    1.461299   6.178298  F  F  F
   4.531153    2.921544   8.472142  F  F  F
   1.495909    1.464206   8.645480  F  F  F
   7.557842    1.453803   8.658006  F  F  F
   0.007792    2.915814  11.261972  F  F  F
   6.006780    1.454892  11.224975  F  F  F
   3.039928    1.460175  11.230402  F  F  F
   4.523387    2.944600  13.895472  F  F  F
   1.593803    1.441760  13.880576  F  F  F
   7.514482    1.441716  13.846977  F  F  F
   0.075590    2.725667  16.616823  F  F  F
   6.121261    1.425411  16.563892  F  F  F
   0.000000    2.924065   6.008802  F  F  F
   6.054719    4.378062   6.179304  F  F  F
   3.010915    4.382166   6.179341  F  F  F
   4.531029    5.836202   8.470972  F  F  F
   1.495362    4.383375   8.647985  F  F  F
   7.557100    4.373273   8.659481  F  F  F
   0.006765    5.843860  11.261557  F  F  F
   6.005023    4.373388  11.226582  F  F  F
   3.040303    4.380991  11.228659  F  F  F
   4.532910    5.822095  13.878474  F  F  F
   1.520257    4.394995  13.833170  F  F  F
   7.520573    4.379507  13.837896  F  F  F
  18.024899    5.612902  16.711964  F  F  F
   6.175583    4.348721  16.545885  F  F  F
   3.222552    4.423933  16.508468  F  F  F
   0.000000    5.840479   6.009014  F  F  F
   6.053917    7.296474   6.178475  F  F  F
   3.012006    7.300098   6.178298  F  F  F
   4.531153    8.760344   8.472142  F  F  F
   1.495909    7.303006   8.645480  F  F  F
   7.557842    7.292603   8.658006  F  F  F
   0.004785    8.756316  11.259379  F  F  F
   6.000769    7.295267  11.217044  F  F  F
   3.029047    7.302449  11.228744  F  F  F
   4.535413    8.804269  13.862132  F  F  F
   1.564900    7.323932  13.903100  F  F  F
   7.528245    7.283757  13.824388  F  F  F
   0.088805    8.659719  16.736626  F  F  F
   6.104428    7.284272  16.526895  F  F  F
   0.000000    8.762865   6.008802  F  F  F
   6.054719   10.216862   6.179304  F  F  F
   3.010915   10.220965   6.179341  F  F  F
   4.531029   23.352602   8.470972  F  F  F
   1.495362   10.222175   8.647985  F  F  F
   7.557100   10.212073   8.659481  F  F  F
   0.004659    0.013090  11.260206  F  F  F
   6.003283   10.218929  11.222754  F  F  F
   3.033275   10.223629  11.219681  F  F  F
   4.507062   -0.046340  13.889960  F  F  F
   1.499610   10.249914  13.831221  F  F  F
   7.540549   10.231626  13.806798  F  F  F
  -0.014043   -0.111787  16.592535  F  F  F
   6.122743   10.255756  16.448214  F  F  F
   3.029647   10.367950  16.543571  F  F  F
   0.000000   11.679279   6.009014  F  F  F
   6.053917   13.135274   6.178475  F  F  F
   3.012006   13.138898   6.178298  F  F  F
   4.531153   14.599144   8.472142  F  F  F
   1.495909   13.141806   8.645480  F  F  F
   7.557842   13.131403   8.658006  F  F  F
  -0.005664   14.595069  11.252736  F  F  F
   6.004554   13.136178  11.228997  F  F  F
   3.029461   13.141303  11.222541  F  F  F
   4.528113   14.612567  13.910326  F  F  F
   1.508880   13.166707  13.867330  F  F  F
   7.548785   13.131393  13.841139  F  F  F
  17.929505   14.752142  16.602448  F  F  F
   5.900193   13.189795  16.552257  F  F  F
   0.000000   14.601665   6.008802  F  F  F
   6.054719   16.055662   6.179304  F  F  F
   3.010915   16.059765   6.179341  F  F  F
   4.531029   17.513802   8.470972  F  F  F
   1.495362   16.060975   8.647985  F  F  F
   7.557100   16.050873   8.659481  F  F  F
  -0.005262   17.527923  11.258196  F  F  F
   6.015071   16.047606  11.227611  F  F  F
   3.050282   16.056534  11.207319  F  F  F
   4.521271   17.482421  13.843636  F  F  F
   1.497063   16.086358  13.768299  F  F  F
   7.559574   16.062094  13.832886  F  F  F
   0.062791   17.771096  17.791469  F  F  F
   6.079649   16.075033  16.458586  F  F  F
   3.044525   16.091244  16.530206  F  F  F
   0.000000   17.518079   6.009014  F  F  F
   6.053917   18.974074   6.178475  F  F  F
   3.012006   18.977698   6.178298  F  F  F
   4.531153   20.437944   8.472142  F  F  F
   1.495909   18.980606   8.645480  F  F  F
   7.557842   18.970203   8.658006  F  F  F
  -0.001472   20.436594  11.261114  F  F  F
   6.017596   18.971588  11.219886  F  F  F
   3.058788   18.976117  11.205742  F  F  F
   4.528107   20.443412  13.879538  F  F  F
   1.524475   18.967950  13.816964  F  F  F
   7.544727   18.964442  13.842780  F  F  F
  17.845847   20.532715  17.868603  F  F  F
   6.054708   18.953278  16.512188  F  F  F
   0.000000   20.440465   6.008802  F  F  F
   6.054719   21.894462   6.179304  F  F  F
   3.010915   21.898565   6.179341  F  F  F
   4.531029   11.675002   8.470972  F  F  F
   1.495362   21.899774   8.647985  F  F  F
   7.557100   21.889673   8.659481  F  F  F
  -0.000022   11.685521  11.257128  F  F  F
   6.015116   21.890177  11.229490  F  F  F
   3.057485   21.896583  11.216402  F  F  F
   4.520814   11.687431  13.880261  F  F  F
   1.506294   21.844881  13.784443  F  F  F
   7.529978   21.894908  13.843210  F  F  F
  18.006621   11.771441  16.617065  F  F  F
   6.144724   21.899915  16.537946  F  F  F
   3.150003   21.802991  16.507561  F  F  F
   9.054815   23.349334   6.012908  F  F  F
  15.097625    1.461299   6.178298  F  F  F
  12.055713    1.457674   6.178475  F  F  F
  13.578478    2.921544   8.472142  F  F  F
  10.551789    1.453803   8.658006  F  F  F
  16.613722    1.464206   8.645480  F  F  F
   9.047507    2.910683  11.266823  F  F  F
  15.086464    1.458569  11.239239  F  F  F
  12.099628    1.453776  11.216543  F  F  F
  13.552121    2.933059  13.868242  F  F  F
  10.562336    1.442385  13.830549  F  F  F
  16.560633    1.436153  13.932572  F  F  F
   9.024521    2.945554  16.494764  F  F  F
  11.911922    1.426248  16.552539  F  F  F
   9.054815    2.917798   6.013242  F  F  F
  15.098716    4.382166   6.179341  F  F  F
  12.054912    4.378062   6.179304  F  F  F
  13.578602    5.836202   8.470972  F  F  F
  10.552531    4.373273   8.659481  F  F  F
  16.614269    4.383375   8.647985  F  F  F
   9.050822    5.832092  11.262735  F  F  F
  15.076996    4.374292  11.230227  F  F  F
  12.103897    4.371348  11.220737  F  F  F
  13.589278    5.800716  13.869326  F  F  F
  10.566007    4.374695  13.819698  F  F  F
  16.608280    4.377934  13.828399  F  F  F
  14.838429    4.304065  16.439075  F  F  F
  11.869918    4.336742  16.511829  F  F  F
   9.054815    5.832934   6.012908  F  F  F
  15.097625    7.300098   6.178298  F  F  F
  12.055713    7.296474   6.178475  F  F  F
  13.578478    8.760344   8.472142  F  F  F
  10.551789    7.292603   8.658006  F  F  F
  16.613722    7.303006   8.645480  F  F  F
   9.054429    8.752022  11.263987  F  F  F
  15.084268    7.294875  11.230585  F  F  F
  12.109483    7.291792  11.216319  F  F  F
  13.594765    8.778112  13.875233  F  F  F
  10.576442    7.281900  13.816010  F  F  F
  16.583650    7.291333  13.896492  F  F  F
   9.019600    8.848718  16.408716  F  F  F
  11.959920    7.264924  16.504064  F  F  F
   9.054815    8.756598   6.013242  F  F  F
  15.098716   10.220965   6.179341  F  F  F
  12.054912   10.216862   6.179304  F  F  F
  13.578602   23.352602   8.470972  F  F  F
  10.552531   10.212073   8.659481  F  F  F
  16.614269   10.222175   8.647985  F  F  F
   9.048547   -0.004181  11.265290  F  F  F
  15.072073   10.216823  11.226498  F  F  F
  12.110267   10.213856  11.221290  F  F  F
  13.573033   23.313764  13.867234  F  F  F
  10.595498   10.227237  13.812444  F  F  F
  16.620927   10.206166  13.820730  F  F  F
  14.943111   10.194766  16.481001  F  F  F
  11.983559   10.259521  16.472079  F  F  F
   9.054815   11.671734   6.012908  F  F  F
  15.097625   13.138898   6.178298  F  F  F
  12.055713   13.135274   6.178475  F  F  F
  13.578478   14.599144   8.472142  F  F  F
  10.551789   13.131403   8.658006  F  F  F
  16.613722   13.141806   8.645480  F  F  F
   9.062104   14.590188  11.267168  F  F  F
  15.072092   13.138953  11.225154  F  F  F
  12.108253   13.134527  11.222493  F  F  F
  13.616436   14.631416  13.893835  F  F  F
  10.587817   13.129672  13.849262  F  F  F
  16.542781   13.159645  13.848187  F  F  F
   9.082117   14.684681  16.521064  F  F  F
  12.041619   13.163220  16.562781  F  F  F
   9.054815   14.595398   6.013242  F  F  F
  15.098716   16.059765   6.179341  F  F  F
  12.054912   16.055662   6.179304  F  F  F
  13.578602   17.513802   8.470972  F  F  F
  10.552531   16.050873   8.659481  F  F  F
  16.614269   16.060975   8.647985  F  F  F
   9.061586   17.510494  11.265579  F  F  F
  15.058477   16.065155  11.223631  F  F  F
  12.101653   16.052808  11.231506  F  F  F
  13.610555   17.495057  13.879014  F  F  F
  10.592975   16.064253  13.841176  F  F  F
  16.620094   16.106987  13.782488  F  F  F
  14.946497   16.137159  16.517771  F  F  F
  11.987070   16.067159  16.502937  F  F  F
   9.054815   17.510534   6.012908  F  F  F
  15.097625   18.977698   6.178298  F  F  F
  12.055713   18.974074   6.178475  F  F  F
  13.578478   20.437944   8.472142  F  F  F
  10.551789   18.970203   8.658006  F  F  F
  16.613722   18.980606   8.645480  F  F  F
   9.055427   20.428710  11.267274  F  F  F
  15.067964   18.980559  11.229860  F  F  F
  12.097312   18.973366  11.220714  F  F  F
  13.597256   20.463845  13.871662  F  F  F
  10.584842   18.967490  13.854537  F  F  F
  16.636852   18.987819  13.929623  F  F  F
   9.034523   20.474248  16.519327  F  F  F
  11.981897   18.987530  16.572879  F  F  F
   9.054815   20.434198   6.013242  F  F  F
  15.098716   21.898565   6.179341  F  F  F
  12.054912   21.894462   6.179304  F  F  F
  13.578602   11.675002   8.470972  F  F  F
  10.552531   21.889673   8.659481  F  F  F
  16.614269   21.899774   8.647985  F  F  F
   9.060045   11.675774  11.263406  F  F  F
  15.063091   21.897145  11.229543  F  F  F
  12.098435   21.890645  11.224064  F  F  F
  13.613105   11.651070  13.888507  F  F  F
  10.567006   21.895682  13.827700  F  F  F
  16.610677   21.856670  13.791727  F  F  F
  14.861185   21.898408  16.518939  F  F  F
  11.892439   21.909316  16.513316  F  F  F
   7.351617   23.350771   7.082145  F  F  F
   4.532511    0.000234   6.074116  F  F  F
   1.706746    0.003278   7.072370  F  F  F
   2.804278    2.923829   9.618451  F  F  F
   0.000000    2.924231   9.229069  F  F  F
   6.252124    2.911903   9.631240  F  F  F
   7.250517    2.913940  12.262501  F  F  F
   4.523461    2.917364  11.819913  F  F  F
   1.784869    2.910821  12.281080  F  F  F
   2.737506    3.044480  14.871482  F  F  F
   0.044927    2.908654  14.553855  F  F  F
   6.331706    2.915901  14.896663  F  F  F
   7.320920    2.895977  17.445070  F  F  F
   4.559066    2.999162  17.038821  F  F  F
   1.318136    1.274983  17.021601  F  F  F
   7.350637    2.915768   7.082412  F  F  F
   4.532223    2.920083   6.075700  F  F  F
   1.707441    2.922941   7.071920  F  F  F
   2.803719    5.843329   9.617047  F  F  F
   0.000000    5.845008   9.229303  F  F  F
   6.252538    5.831988   9.629520  F  F  F
   7.246249    5.831798  12.247411  F  F  F
   4.518948    5.842029  11.807864  F  F  F
   1.780863    5.857263  12.282551  F  F  F
   2.761999    5.799191  14.874207  F  F  F
   0.004280    5.819943  14.595473  F  F  F
   6.311759    5.837963  14.905325  F  F  F
   7.356187    5.826918  17.432562  F  F  F
   4.575051    5.870176  17.212458  F  F  F
   1.366990    4.389588  17.252908  F  F  F
   7.351617    5.834371   7.082145  F  F  F
   4.532511    5.839034   6.074116  F  F  F
   1.706746    5.842078   7.072370  F  F  F
   2.804278    8.762629   9.618451  F  F  F
   0.000000    8.763031   9.229069  F  F  F
   6.252124    8.750703   9.631240  F  F  F
   7.250869    8.753885  12.244664  F  F  F
   4.517995    8.760615  11.800953  F  F  F
   1.779014    8.758362  12.269679  F  F  F
   2.768305    8.899406  14.798442  F  F  F
   0.019253    8.736969  14.581519  F  F  F
   6.344272    8.755471  14.870152  F  F  F
   7.313617    8.754599  17.417858  F  F  F
   4.593283    8.813317  17.019274  F  F  F
   1.891272    8.818597  17.304885  F  F  F
   7.350637    8.754568   7.082412  F  F  F
   4.532223    8.758883   6.075700  F  F  F
   1.707441    8.761741   7.071920  F  F  F
   2.803719    0.004529   9.617047  F  F  F
   0.000000    0.006208   9.229303  F  F  F
   6.252538   23.348388   9.629520  F  F  F
   7.251015   -0.005413  12.260016  F  F  F
   4.527198    0.001453  11.813893  F  F  F
   1.790614    0.013064  12.266729  F  F  F
   2.719289   23.210495  14.871066  F  F  F
   0.017737   -0.052536  14.515720  F  F  F
   6.304936   -0.019541  14.891175  F  F  F
   7.340433   -0.025736  17.388067  F  F  F
   4.545080   -0.102980  17.020598  F  F  F
   1.270947   21.694121  17.285259  F  F  F
   7.351617   11.673171   7.082145  F  F  F
   4.532511   11.677834   6.074116  F  F  F
   1.706746   11.680878   7.072370  F  F  F
   2.804278   14.601429   9.618451  F  F  F
   0.000000   14.601830   9.229069  F  F  F
   6.252124   14.589503   9.631240  F  F  F
   7.270647   14.587825  12.264560  F  F  F
   4.525267   14.591452  11.829608  F  F  F
   1.786875   14.600810  12.242294  F  F  F
   2.705374   14.679184  14.840205  F  F  F
  -0.041854   14.653479  14.480650  F  F  F
   6.355371   14.589856  14.895330  F  F  F
   7.339676   14.610928  17.532229  F  F  F
   4.596892   14.698066  17.001925  F  F  F
   1.587205   14.877185  17.377270  F  F  F
   7.350637   14.593367   7.082412  F  F  F
   4.532223   14.597683   6.075700  F  F  F
   1.707441   14.600541   7.071920  F  F  F
   2.803719   17.520929   9.617047  F  F  F
   0.000000   17.522608   9.229303  F  F  F
   6.252538   17.509588   9.629520  F  F  F
   7.265137   17.513538  12.250219  F  F  F
   4.536396   17.510342  11.784404  F  F  F
   1.808200   17.532422  12.205686  F  F  F
   2.735219   17.425676  14.785588  F  F  F
   0.022690   17.518434  14.305392  F  F  F
   6.317132   17.516365  14.849809  F  F  F
   7.291964   17.502148  17.364686  F  F  F
   4.609484   17.466512  17.038086  F  F  F
   1.918357   17.645474  17.286089  F  F  F
   7.351617   17.511971   7.082145  F  F  F
   4.532511   17.516634   6.074116  F  F  F
   1.706746   17.519678   7.072370  F  F  F
   2.804278   20.440229   9.618451  F  F  F
   0.000000   20.440630   9.229069  F  F  F
   6.252124   20.428303   9.631240  F  F  F
   7.265596   20.425536  12.264217  F  F  F
   4.537254   20.431477  11.806807  F  F  F
   1.813271   20.419431  12.214697  F  F  F
   2.721114   20.468833  14.857248  F  F  F
   0.027413   20.454820  14.284715  F  F  F
   6.341346   20.424058  14.897315  F  F  F
   7.317911   20.367150  17.515556  F  F  F
   4.535406   20.442092  17.006588  F  F  F
  17.453781   19.150968  16.584827  F  F  F
   7.350637   20.432167   7.082412  F  F  F
   4.532223   20.436483   6.075700  F  F  F
   1.707441   20.439341   7.071920  F  F  F
   2.803719   11.682129   9.617047  F  F  F
   0.000000   11.683808   9.229303  F  F  F
   6.252538   11.670788   9.629520  F  F  F
   7.258271   11.684406  12.247366  F  F  F
   4.516176   11.682928  11.811120  F  F  F
   1.784993   11.686065  12.261227  F  F  F
   2.720336   11.687872  14.873024  F  F  F
  -0.037882   11.675348  14.506401  F  F  F
   6.303508   11.714623  14.865799  F  F  F
   7.347603   11.741868  17.266974  F  F  F
   4.655436   11.612376  17.143646  F  F  F
   1.656385   11.582712  17.445382  F  F  F
  16.402885    0.003278   7.072370  F  F  F
  13.577120    0.000234   6.074116  F  F  F
  10.758014   23.350771   7.082145  F  F  F
  11.857507    2.911903   9.631240  F  F  F
   9.054815    2.913211   9.239478  F  F  F
  15.305353    2.923829   9.618451  F  F  F
  16.345733    2.900191  12.285630  F  F  F
  13.586936    2.910353  11.805485  F  F  F
  10.846482    2.911683  12.248928  F  F  F
  11.740930    2.905694  14.875847  F  F  F
   9.038605    2.904063  14.406204  F  F  F
  15.354710    3.002312  14.812354  F  F  F
  16.749482    1.409747  16.672731  F  F  F
  13.471617    2.957906  17.018608  F  F  F
  10.722298    2.895339  17.440839  F  F  F
  16.402190    2.922941   7.071920  F  F  F
  13.577408    2.920083   6.075700  F  F  F
  10.758994    2.915768   7.082412  F  F  F
  11.857093    5.831988   9.629520  F  F  F
   9.054815    5.830323   9.239646  F  F  F
  15.305912    5.843329   9.617047  F  F  F
  16.343112    5.840470  12.280103  F  F  F
  13.595234    5.835850  11.804362  F  F  F
  10.856721    5.830513  12.240107  F  F  F
  11.780141    5.826469  14.876137  F  F  F
   9.049422    5.831227  14.325025  F  F  F
  15.377501    5.756223  14.854897  F  F  F
  16.729946    4.252463  17.157438  F  F  F
  13.470030    5.737385  17.023783  F  F  F
  10.733811    5.830986  17.446671  F  F  F
  16.402885    5.842078   7.072370  F  F  F
  13.577120    5.839034   6.074116  F  F  F
  10.758014    5.834371   7.082145  F  F  F
  11.857507    8.750703   9.631240  F  F  F
   9.054815    8.752011   9.239478  F  F  F
  15.305353    8.762629   9.618451  F  F  F
  16.340140    8.741843  12.275471  F  F  F
  13.594449    8.750067  11.808554  F  F  F
  10.857498    8.752700  12.242218  F  F  F
  11.781511    8.748722  14.863742  F  F  F
   9.056367    8.757235  14.352648  F  F  F
  15.386695    8.822769  14.861371  F  F  F
  17.579761    7.134281  17.821622  F  F  F
  13.487567    8.822095  17.066338  F  F  F
  10.753669    8.765346  17.310852  F  F  F
  16.402190    8.761741   7.071920  F  F  F
  13.577408    8.758883   6.075700  F  F  F
  10.758994    8.754568   7.082412  F  F  F
  11.857093   23.348388   9.629520  F  F  F
   9.054815   23.346723   9.239646  F  F  F
  15.305912    0.004529   9.617047  F  F  F
  16.334981    0.020118  12.279170  F  F  F
  13.584278    0.005671  11.801279  F  F  F
  10.847343   -0.005575  12.247903  F  F  F
  11.766792   -0.009887  14.870844  F  F  F
   9.041223   -0.005909  14.378856  F  F  F
  15.364149   23.243416  14.839821  F  F  F
  16.565467   22.057763  17.543829  F  F  F
  13.470616   -0.052008  17.016997  F  F  F
  10.690035   23.331016  17.374747  F  F  F
  16.402885   11.680878   7.072370  F  F  F
  13.577120   11.677834   6.074116  F  F  F
  10.758014   11.673171   7.082145  F  F  F
  11.857507   14.589503   9.631240  F  F  F
   9.054815   14.590811   9.239478  F  F  F
  15.305353   14.601429   9.618451  F  F  F
  16.318427   14.597452  12.254375  F  F  F
  13.586145   14.592098  11.818579  F  F  F
  10.854714   14.588194  12.264369  F  F  F
  11.800814   14.594888  14.883439  F  F  F
   9.071183   14.585634  14.438062  F  F  F
  15.414888   14.727634  14.867832  F  F  F
  16.880922   13.231202  17.212276  F  F  F
  13.578259   14.680079  17.025411  F  F  F
  10.797094   14.584805  17.414955  F  F  F
  16.402190   14.600541   7.071920  F  F  F
  13.577408   14.597683   6.075700  F  F  F
  10.758994   14.593367   7.082412  F  F  F
  11.857093   17.509588   9.629520  F  F  F
   9.054815   17.507923   9.239646  F  F  F
  15.305912   17.520929   9.617047  F  F  F
  16.307064   17.554108  12.245012  F  F  F
  13.580150   17.522452  11.808282  F  F  F
  10.857502   17.516671  12.259013  F  F  F
  11.807198   17.523068  14.894197  F  F  F
   9.068511   17.510558  14.374598  F  F  F
  15.407411   17.451917  14.874362  F  F  F
  16.797914   16.243070  17.368190  F  F  F
  13.547260   17.482043  17.054699  F  F  F
  10.849374   17.510088  17.454988  F  F  F
  16.402885   17.519678   7.072370  F  F  F
  13.577120   17.516634   6.074116  F  F  F
  10.758014   17.511971   7.082145  F  F  F
  11.857507   20.428303   9.631240  F  F  F
   9.054815   20.429611   9.239478  F  F  F
  15.305353   20.440229   9.618451  F  F  F
  16.307428   20.415124  12.248071  F  F  F
  13.578426   20.430983  11.804730  F  F  F
  10.847456   20.426159  12.258392  F  F  F
  11.776159   20.438308  14.878548  F  F  F
   9.055167   20.428976  14.426999  F  F  F
  15.391820   20.537813  14.870872  F  F  F
  -0.015999   19.131182  19.148717  F  F  F
  13.494774   20.497831  17.041887  F  F  F
  10.740111   20.412250  17.430127  F  F  F
  16.402190   20.439341   7.071920  F  F  F
  13.577408   20.436483   6.075700  F  F  F
  10.758994   20.432167   7.082412  F  F  F
  11.857093   11.670788   9.629520  F  F  F
   9.054815   11.669123   9.239646  F  F  F
  15.305912   11.682129   9.617047  F  F  F
  16.328378   11.679946  12.263396  F  F  F
  13.591130   11.677256  11.814217  F  F  F
  10.863370   11.680578  12.249417  F  F  F
  11.807894   11.694034  14.885529  F  F  F
   9.071167   11.663139  14.358056  F  F  F
  15.405447   11.563470  14.862814  F  F  F
  16.913043   10.150166  17.174415  F  F  F
  13.591165   11.609912  17.041816  F  F  F
  10.846722   11.687727  17.446544  F  F  F
   3.440445    1.436918  16.056656  F  F  F
   3.307088    7.431510  16.130283  F  F  F
   2.202592   13.212039  16.339927  F  F  F
   3.386699   18.867697  16.093256  F  F  F
  14.615751    1.445924  16.038871  F  F  F
   9.054994    5.768998  16.319784  F  F  F
  14.640205    7.292027  16.119675  F  F  F
   9.018182   23.305849  16.391703  F  F  F
  14.729719   13.147662  16.076351  F  F  F
   9.054709   17.427876  16.373319  F  F  F
  14.622618   19.003582  16.062502  F  F  F
   9.090465   11.558817  16.357616  F  F  F
   7.934850   10.984856  18.899495  T  T  T
   9.953431    8.730494  19.015582  T  T  T
   8.643819    6.246794  18.838974  T  T  T
   9.020870    9.875440  20.815121  T  T  T
  10.644256   11.150297  21.846732  T  T  T
   5.415889    8.293164  20.965449  T  T  T
  10.395061   11.295089  19.263613  T  T  T
   7.561509    8.507756  22.124536  T  T  T
   9.386151    7.288478  20.929132  T  T  T
   9.967921    8.862054  22.797652  T  T  T
  11.230868    6.653595  19.212449  T  T  T
   4.196827   10.447362  20.846671  T  T  T
   7.043454    6.501818  20.717239  T  T  T
  13.244550    8.426289  19.005370  T  T  T
   4.542836    9.090457  18.908932  T  T  T
   5.361846   11.547003  19.002780  T  T  T
   8.505580   12.281639  20.927688  T  T  T
   7.373176    8.504411  19.378479  T  T  T
   5.168560    6.587305  19.046336  T  T  T
  15.838713    7.479037  18.509351  T  T  T
  13.806534    6.169895  18.858604  T  T  T
   7.758736   16.133568  18.814772  T  T  T
  11.525451    8.578291  20.860581  T  T  T
   6.602659   10.595251  20.973904  T  T  T
   8.240281   17.525213  20.738227  T  T  T
   7.271523   13.412899  19.097033  T  T  T
   8.325916   10.803136  22.900650  T  T  T
   7.757719   18.863293  18.770696  T  T  T
   9.808903   17.516274  18.988853  T  T  T
