generated by phonopy                    
   1.00000000000000     
     7.8541736699696738    0.0004657479030250    0.0000971354775790
    -3.9266837417506699    6.8017256972502107    0.0084883438955061
     0.0000652218888142    0.0104622636666702    8.6066876679440618
   B    N    Al
    32    36     4
Direct
  0.1127250800606004  0.2269793332032015 -0.0148758754736658
  0.4437048076124962  0.2312818198639463 -0.0156449585588411
  0.7847451659150964  0.2257513387756220 -0.0211702938900866
  0.1125237630373851  0.5532454798353883 -0.0202517501880876
  0.4451961238902167  0.5561682203821937 -0.0166749597901907
  0.7737491885957161  0.5537195568318624 -0.0201707013850944
  0.4430001264414326  0.8796382657486067 -0.0224279379362095
  0.7738668368419477  0.8870815718700489 -0.0212580090798726
  0.1013644124327863  0.2246061663050701  0.4790912936396280
  0.4561609831516885  0.2253009815196651  0.4850398310913053
  0.7780464743031090  0.2219955568292233  0.4859146092752703
  0.1060546266722577  0.5519323877291619  0.4801474515988912
  0.7795697101652144  0.5522511139586584  0.4795409423331442
  0.1071283835685800  0.8810668952338716  0.4809180112622544
  0.4480487304772224  0.8929194094364952  0.4855447681242529
  0.7790432017732656  0.8942269171120917  0.4790863648401262
  0.2209729907217946  0.1158358939707188  0.2379098288486537
  0.5575430190817134  0.4454397031859196  0.2289828679661749
  0.8939785217994096  0.1142000966027782  0.2291786765091570
  0.2155228651050376  0.4423394452407178  0.2299135877150433
  0.8945810323845546  0.4478542464861155  0.2287005164507025
  0.2205002358635184  0.7721256917556533  0.2350451794250754
  0.5560556250468744  0.7787771089620803  0.2272632795566842
  0.8882832886643151  0.7777490061381724  0.2357125809888222
  0.2215707459677862  0.7675113053852791  0.7274854113091532
  0.5616247956478229  0.1144446696721822  0.7333673256050716
  0.8864010170739141  0.1138929183299330  0.7302918801686220
  0.2176088770501511  0.4455330943569528  0.7352433244517657
  0.5612685062209414  0.4467991831077443  0.7362815649541816
  0.8891798517315103  0.4446745996308308  0.7312300514794873
  0.5557623637516672  0.7775094854306405  0.7358232059460504
  0.8794592979494549  0.7686776261773800  0.7266753612419031
  0.2330018345259488  0.1366738134990258  0.9280794424417680
  0.5556890251962622  0.1112990221370583  0.9216073817265545
  0.8901494407877253  0.1109854134432952  0.9167064424403764
  0.2190519694687441  0.4431705830293842  0.9232001765220597
  0.5576482910886899  0.4450113662785932  0.9219357414399633
  0.8899058814874600  0.4460677129805936  0.9161674601447120
  0.2327367400081027  0.7632054637603766  0.9085317775930861
  0.5572956849853993  0.7790708441687818  0.9201902477417043
  0.8636251318469468  0.7649007136422166  0.9094374851084085
  0.2235541842172050  0.1140536470610025  0.4261579897184903
  0.5563924163702720  0.1101556272305993  0.4372295074620693
  0.8876005172791723  0.1109456567526263  0.4173225670603125
  0.1969364295386204  0.4335483714198557  0.4097144727329919
  0.5699127590185793  0.4327886601115590  0.4103885616129654
  0.8894092651234687  0.4450120947248940  0.4190690708462575
  0.2240781791432208  0.7753898912717100  0.4204308982729365
  0.5680982955327146  0.8038481225912291  0.4102847461124092
  0.8850051855111770  0.7756063630856813  0.4194341296767189
  0.1099424184337954  0.2217470299079432  0.1715255824330457
  0.4330608933115715  0.2356692234717460  0.1650479681397689
  0.8046902465481808  0.2362495169053476  0.1603725679772736
  0.1100517853032019  0.5574687594891097  0.1675601301674701
  0.4459904662057728  0.5567249686733949  0.1718714830761606
  0.7801907402462139  0.5570123662866565  0.1666351025098327
  0.1120708032383033  0.8897120129334322  0.1911580647324108
  0.4301607682878372  0.8633108646891707  0.1592239981191158
  0.7795789065991345  0.8902063346803980  0.1661013924433460
  0.0960521844327460  0.2363364209487660  0.6605933165448652
  0.4726687163746813  0.2376680365024116  0.6658622812845943
  0.7786550430643845  0.2222874243719575  0.6720024011950443
  0.1109788323959888  0.5532099533012996  0.6673867306373236
  0.4433875601184403  0.5540795813446037  0.6882098617773016
  0.7758134558810019  0.5537960920087085  0.6673410814273324
  0.0972325061096432  0.8608868389828412  0.6632676193040608
  0.4450560135497941  0.8868451353926783  0.6703646729965839
  0.7762642920072332  0.8890422089774164  0.6661500322309761
  0.1092906280337384  0.8852682352563799 -0.0168301980778228
  0.5569778774706314  0.1103614447761078  0.2282375836989874
  0.4446139696441167  0.5556103186616951  0.4788014754532489
  0.2219400126143982  0.1132447761812473  0.7213153247958709
 
  0.00000000E+00  0.00000000E+00  0.00000000E+00
  0.00000000E+00  0.00000000E+00  0.00000000E+00
  0.00000000E+00  0.00000000E+00  0.00000000E+00
  0.00000000E+00  0.00000000E+00  0.00000000E+00
  0.00000000E+00  0.00000000E+00  0.00000000E+00
  0.00000000E+00  0.00000000E+00  0.00000000E+00
  0.00000000E+00  0.00000000E+00  0.00000000E+00
  0.00000000E+00  0.00000000E+00  0.00000000E+00
  0.00000000E+00  0.00000000E+00  0.00000000E+00
  0.00000000E+00  0.00000000E+00  0.00000000E+00
  0.00000000E+00  0.00000000E+00  0.00000000E+00
  0.00000000E+00  0.00000000E+00  0.00000000E+00
  0.00000000E+00  0.00000000E+00  0.00000000E+00
  0.00000000E+00  0.00000000E+00  0.00000000E+00
  0.00000000E+00  0.00000000E+00  0.00000000E+00
  0.00000000E+00  0.00000000E+00  0.00000000E+00
  0.00000000E+00  0.00000000E+00  0.00000000E+00
  0.00000000E+00  0.00000000E+00  0.00000000E+00
  0.00000000E+00  0.00000000E+00  0.00000000E+00
  0.00000000E+00  0.00000000E+00  0.00000000E+00
  0.00000000E+00  0.00000000E+00  0.00000000E+00
  0.00000000E+00  0.00000000E+00  0.00000000E+00
  0.00000000E+00  0.00000000E+00  0.00000000E+00
  0.00000000E+00  0.00000000E+00  0.00000000E+00
  0.00000000E+00  0.00000000E+00  0.00000000E+00
  0.00000000E+00  0.00000000E+00  0.00000000E+00
  0.00000000E+00  0.00000000E+00  0.00000000E+00
  0.00000000E+00  0.00000000E+00  0.00000000E+00
  0.00000000E+00  0.00000000E+00  0.00000000E+00
  0.00000000E+00  0.00000000E+00  0.00000000E+00
  0.00000000E+00  0.00000000E+00  0.00000000E+00
  0.00000000E+00  0.00000000E+00  0.00000000E+00
  0.00000000E+00  0.00000000E+00  0.00000000E+00
  0.00000000E+00  0.00000000E+00  0.00000000E+00
  0.00000000E+00  0.00000000E+00  0.00000000E+00
  0.00000000E+00  0.00000000E+00  0.00000000E+00
  0.00000000E+00  0.00000000E+00  0.00000000E+00
  0.00000000E+00  0.00000000E+00  0.00000000E+00
  0.00000000E+00  0.00000000E+00  0.00000000E+00
  0.00000000E+00  0.00000000E+00  0.00000000E+00
  0.00000000E+00  0.00000000E+00  0.00000000E+00
  0.00000000E+00  0.00000000E+00  0.00000000E+00
  0.00000000E+00  0.00000000E+00  0.00000000E+00
  0.00000000E+00  0.00000000E+00  0.00000000E+00
  0.00000000E+00  0.00000000E+00  0.00000000E+00
  0.00000000E+00  0.00000000E+00  0.00000000E+00
  0.00000000E+00  0.00000000E+00  0.00000000E+00
  0.00000000E+00  0.00000000E+00  0.00000000E+00
  0.00000000E+00  0.00000000E+00  0.00000000E+00
  0.00000000E+00  0.00000000E+00  0.00000000E+00
  0.00000000E+00  0.00000000E+00  0.00000000E+00
  0.00000000E+00  0.00000000E+00  0.00000000E+00
  0.00000000E+00  0.00000000E+00  0.00000000E+00
  0.00000000E+00  0.00000000E+00  0.00000000E+00
  0.00000000E+00  0.00000000E+00  0.00000000E+00
  0.00000000E+00  0.00000000E+00  0.00000000E+00
  0.00000000E+00  0.00000000E+00  0.00000000E+00
  0.00000000E+00  0.00000000E+00  0.00000000E+00
  0.00000000E+00  0.00000000E+00  0.00000000E+00
  0.00000000E+00  0.00000000E+00  0.00000000E+00
  0.00000000E+00  0.00000000E+00  0.00000000E+00
  0.00000000E+00  0.00000000E+00  0.00000000E+00
  0.00000000E+00  0.00000000E+00  0.00000000E+00
  0.00000000E+00  0.00000000E+00  0.00000000E+00
  0.00000000E+00  0.00000000E+00  0.00000000E+00
  0.00000000E+00  0.00000000E+00  0.00000000E+00
  0.00000000E+00  0.00000000E+00  0.00000000E+00
  0.00000000E+00  0.00000000E+00  0.00000000E+00
  0.00000000E+00  0.00000000E+00  0.00000000E+00
  0.00000000E+00  0.00000000E+00  0.00000000E+00
  0.00000000E+00  0.00000000E+00  0.00000000E+00
  0.00000000E+00  0.00000000E+00  0.00000000E+00
