Mo  S Cu                                
   1.00000000000000     
    15.9214998300000001    0.0000000000000000    0.0000000000000000
    -7.9622501300000001   13.7910221699999997    0.0000000000000000
     0.0000000000000000    0.0000000000000000   13.5821998300000004
   Mo   S    Cu
    25    49     4
Direct
  0.1328297300471806  0.0663656004364188  0.6743381351667872
  0.1354697961700647  0.2689066574891839  0.6727377184708264
  0.1311647045298614  0.4624228513507585  0.6745590041848623
  0.1315577879093634  0.6637205824334901  0.6771192795746764
  0.1322375005035815  0.8649734001991966  0.6759993578230951
  0.3315747947361665  0.0644026983037333  0.6754513520487972
  0.3328587771579272  0.2668303189915137  0.6709189645478832
  0.3271554962888922  0.4593841118058804  0.6716107405522024
  0.3313687021005731  0.6622944913510540  0.6776405839323661
  0.3315687305609684  0.8637161724614826  0.6772763562585415
  0.5318886030764376  0.0636149057908734  0.6778580006772817
  0.5292876421526397  0.2618707641191452  0.6767065894885747
  0.5300101493889809  0.4611252666177151  0.6752853285953077
  0.5309936320291092  0.6621555630076927  0.6769230213400353
  0.5318209056441106  0.8633353222548487  0.6779142871554372
  0.7323290115739857  0.0635865157486730  0.6787904668400416
  0.7317321501718900  0.2623205256187546  0.6791655232048828
  0.7310334370085023  0.4627207033986275  0.6802799887744453
  0.7335853031237113  0.6651172252141190  0.6757808843639694
  0.7323074079969081  0.8640532168364703  0.6775417298583696
  0.9333534147130896  0.0653457241732766  0.6773345464651088
  0.9333027176958848  0.2639120961818204  0.6797670337897392
  0.9317959043332809  0.4640947389792728  0.6796644173781105
  0.9318889406551741  0.6659969026447221  0.6768884301031313
  0.9327018354528063  0.8653739915999878  0.6763258710264105
  0.0656220875086075  0.1329903160715881  0.5604647914402873
  0.0713241239196219  0.1370800864906331  0.7890817705681302
  0.0632136100237778  0.3285804276667471  0.5605677757074150
  0.0716976778857622  0.3324363911526304  0.7925353606178501
  0.0630969203219579  0.5300619038429042  0.5625254746621126
  0.0667898085124774  0.5305859714031503  0.7916273946071477
  0.0649169287945119  0.7307659149798758  0.5621137853051675
  0.0659123257417817  0.7321889997789015  0.7910415355093858
  0.0656169538706115  0.9317276027443293  0.5609340236976064
  0.0667210278867036  0.9333536775265825  0.7899299584183068
  0.2659869526193198  0.1320241475978402  0.5591076850085587
  0.2655427239460408  0.1356966852498867  0.7874509756637719
  0.2647815143388361  0.3299108085359680  0.5571922024260044
  0.2654832044716372  0.5307601908489386  0.5595565014974015
  0.2621451783727597  0.5228813147444588  0.7906040310723760
  0.2653724634940853  0.7299365552365189  0.5630041076652197
  0.2648258574832426  0.7298013465592598  0.7919355086851700
  0.2655450941441955  0.9305282574810619  0.5614515526847469
  0.2649307947023083  0.9316060744985315  0.7909292765402902
  0.4651891157995482  0.1297313488389861  0.5618324866199611
  0.4628453006715510  0.1286899889640679  0.7917847964367384
  0.4653131378118739  0.3286230718783419  0.5595061202387825
  0.4596889201622795  0.3299371456713402  0.7932076757531252
  0.4639502698205397  0.5292675134301255  0.5605459066329295
  0.4590358879216465  0.5234869442934491  0.7892500027742430
  0.4647667323630990  0.7294962679917416  0.5634093903659784
  0.4649504020895439  0.7291943208640924  0.7924051751271575
  0.4654054533098130  0.9301205754840107  0.5631450688688939
  0.4646866310181599  0.9298825738434633  0.7922541132941738
  0.6661018553024637  0.1305049764180925  0.5639054967271352
  0.6645366817161845  0.1286803543788838  0.7937842501702482
  0.6652706066924127  0.3295863792917593  0.5650371659172270
  0.6599313110190704  0.3252727652587686  0.7947353465278855
  0.6662390585662045  0.5295036214558654  0.5635577699245022
  0.6635292268611700  0.5311428593516636  0.7931773128296634
  0.6647779097810718  0.7303820502541544  0.5624751293305760
  0.6651486034120209  0.7297462538873796  0.7914053754543682
  0.6653750086154586  0.9306204656261399  0.5634687352335535
  0.6651994360495084  0.9296184223564016  0.7928331613708129
  0.8657915454842477  0.1315321695502646  0.5643756260436613
  0.8664216325189952  0.1299666324408453  0.7934140590784617
  0.8654695685780667  0.3300602469775007  0.5660776800004089
  0.8659127060842763  0.3309482895938291  0.7969944606796220
  0.8640000094765737  0.5299800078550330  0.5653477088849458
  0.8668365836016465  0.5332095247259584  0.7953580674347722
  0.8660470933595464  0.7320161013799646  0.5612528535233451
  0.8661771271522597  0.7331964073232269  0.7918976193516527
  0.8655347608277019  0.9319553842976992  0.5624422764260038
  0.8666422107701315  0.9316919313417190  0.7918007362602929
  0.4091258212929856  0.4674308437953559  0.9401811241973085
  0.5972515233131993  0.3996355406391842  0.8967819014248779
  0.7893257319420458  0.4015200415847230  0.8937318471133684
  0.2616521071770501  0.4613567320185716  0.9369806099704394
 
  0.00000000E+00  0.00000000E+00  0.00000000E+00
  0.00000000E+00  0.00000000E+00  0.00000000E+00
  0.00000000E+00  0.00000000E+00  0.00000000E+00
  0.00000000E+00  0.00000000E+00  0.00000000E+00
  0.00000000E+00  0.00000000E+00  0.00000000E+00
  0.00000000E+00  0.00000000E+00  0.00000000E+00
  0.00000000E+00  0.00000000E+00  0.00000000E+00
  0.00000000E+00  0.00000000E+00  0.00000000E+00
  0.00000000E+00  0.00000000E+00  0.00000000E+00
  0.00000000E+00  0.00000000E+00  0.00000000E+00
  0.00000000E+00  0.00000000E+00  0.00000000E+00
  0.00000000E+00  0.00000000E+00  0.00000000E+00
  0.00000000E+00  0.00000000E+00  0.00000000E+00
  0.00000000E+00  0.00000000E+00  0.00000000E+00
  0.00000000E+00  0.00000000E+00  0.00000000E+00
  0.00000000E+00  0.00000000E+00  0.00000000E+00
  0.00000000E+00  0.00000000E+00  0.00000000E+00
  0.00000000E+00  0.00000000E+00  0.00000000E+00
  0.00000000E+00  0.00000000E+00  0.00000000E+00
  0.00000000E+00  0.00000000E+00  0.00000000E+00
  0.00000000E+00  0.00000000E+00  0.00000000E+00
  0.00000000E+00  0.00000000E+00  0.00000000E+00
  0.00000000E+00  0.00000000E+00  0.00000000E+00
  0.00000000E+00  0.00000000E+00  0.00000000E+00
  0.00000000E+00  0.00000000E+00  0.00000000E+00
  0.00000000E+00  0.00000000E+00  0.00000000E+00
  0.00000000E+00  0.00000000E+00  0.00000000E+00
  0.00000000E+00  0.00000000E+00  0.00000000E+00
  0.00000000E+00  0.00000000E+00  0.00000000E+00
  0.00000000E+00  0.00000000E+00  0.00000000E+00
  0.00000000E+00  0.00000000E+00  0.00000000E+00
  0.00000000E+00  0.00000000E+00  0.00000000E+00
  0.00000000E+00  0.00000000E+00  0.00000000E+00
  0.00000000E+00  0.00000000E+00  0.00000000E+00
  0.00000000E+00  0.00000000E+00  0.00000000E+00
  0.00000000E+00  0.00000000E+00  0.00000000E+00
  0.00000000E+00  0.00000000E+00  0.00000000E+00
  0.00000000E+00  0.00000000E+00  0.00000000E+00
  0.00000000E+00  0.00000000E+00  0.00000000E+00
  0.00000000E+00  0.00000000E+00  0.00000000E+00
  0.00000000E+00  0.00000000E+00  0.00000000E+00
  0.00000000E+00  0.00000000E+00  0.00000000E+00
  0.00000000E+00  0.00000000E+00  0.00000000E+00
  0.00000000E+00  0.00000000E+00  0.00000000E+00
  0.00000000E+00  0.00000000E+00  0.00000000E+00
  0.00000000E+00  0.00000000E+00  0.00000000E+00
  0.00000000E+00  0.00000000E+00  0.00000000E+00
  0.00000000E+00  0.00000000E+00  0.00000000E+00
  0.00000000E+00  0.00000000E+00  0.00000000E+00
  0.00000000E+00  0.00000000E+00  0.00000000E+00
  0.00000000E+00  0.00000000E+00  0.00000000E+00
  0.00000000E+00  0.00000000E+00  0.00000000E+00
  0.00000000E+00  0.00000000E+00  0.00000000E+00
  0.00000000E+00  0.00000000E+00  0.00000000E+00
  0.00000000E+00  0.00000000E+00  0.00000000E+00
  0.00000000E+00  0.00000000E+00  0.00000000E+00
  0.00000000E+00  0.00000000E+00  0.00000000E+00
  0.00000000E+00  0.00000000E+00  0.00000000E+00
  0.00000000E+00  0.00000000E+00  0.00000000E+00
  0.00000000E+00  0.00000000E+00  0.00000000E+00
  0.00000000E+00  0.00000000E+00  0.00000000E+00
  0.00000000E+00  0.00000000E+00  0.00000000E+00
  0.00000000E+00  0.00000000E+00  0.00000000E+00
  0.00000000E+00  0.00000000E+00  0.00000000E+00
  0.00000000E+00  0.00000000E+00  0.00000000E+00
  0.00000000E+00  0.00000000E+00  0.00000000E+00
  0.00000000E+00  0.00000000E+00  0.00000000E+00
  0.00000000E+00  0.00000000E+00  0.00000000E+00
  0.00000000E+00  0.00000000E+00  0.00000000E+00
  0.00000000E+00  0.00000000E+00  0.00000000E+00
  0.00000000E+00  0.00000000E+00  0.00000000E+00
  0.00000000E+00  0.00000000E+00  0.00000000E+00
  0.00000000E+00  0.00000000E+00  0.00000000E+00
  0.00000000E+00  0.00000000E+00  0.00000000E+00
  0.00000000E+00  0.00000000E+00  0.00000000E+00
  0.00000000E+00  0.00000000E+00  0.00000000E+00
  0.00000000E+00  0.00000000E+00  0.00000000E+00
  0.00000000E+00  0.00000000E+00  0.00000000E+00
