Mo  S Ru                                
   1.00000000000000     
    15.9214998300000001    0.0000000000000000    0.0000000000000000
    -7.9622501300000001   13.7910221699999997    0.0000000000000000
     0.0000000000000000    0.0000000000000000   13.5821998300000004
   Mo   S    Ru
    25    50     3
Direct
  0.1326390177661523  0.0658001603479121  0.6782663240413029
  0.1315846596895014  0.2655016564599606  0.6775254324245097
  0.1326041814091283  0.4657520757128992  0.6785442544758311
  0.1326668153243560  0.6658547040734391  0.6789318761939427
  0.1326906982791840  0.8658295962516078  0.6788054492730708
  0.3327240114779926  0.0657973806240264  0.6782674991904756
  0.3325200630420184  0.2654678423679542  0.6775796911916601
  0.3330179146217347  0.4665448457671033  0.6778258343152572
  0.3325737643750912  0.6659000933215680  0.6785598467105984
  0.3326693277876487  0.8658047610840924  0.6787645480125590
  0.5326820284444125  0.0655963451267070  0.6784968999053618
  0.5334862170079404  0.2654716730747211  0.6775289985468973
  0.5330789252247214  0.4665168189218605  0.6779080765769336
  0.5327751016709996  0.6659798121890574  0.6779888607334286
  0.5326564820291466  0.8657796444242649  0.6786286932974548
  0.7326494028164277  0.0657290517032649  0.6787177894728487
  0.7328242197458223  0.2658074013596092  0.6786835286529893
  0.7327088216725670  0.4657449323419982  0.6786031838289475
  0.7328797734527512  0.6658966921433702  0.6786145996519011
  0.7326863858020189  0.8657838386887136  0.6786403489221939
  0.9324880930336477  0.0656075406972363  0.6784880105448039
  0.9325628020633374  0.2658128488848064  0.6786674764624294
  0.9326810479490391  0.4658001467203334  0.6789038667945135
  0.9327398805813232  0.6658540834935636  0.6789601104737599
  0.9326912968537329  0.8658076067453635  0.6787795532411565
  0.0655074343969844  0.1319210972882843  0.5629577619572785
  0.0659207817302772  0.1325944691880281  0.7932742341902994
  0.0654387269704060  0.3326215865056241  0.5630013243426717
  0.0659548116730804  0.3323762348069863  0.7935754117760752
  0.0659279295880069  0.5326026242455484  0.5637465335365377
  0.0661014793087418  0.5323960264943892  0.7938866315797313
  0.0659977718805820  0.7324633357516603  0.5638336299636890
  0.0660810667144318  0.7325901103192010  0.7940510928008280
  0.0659154346327782  0.9322900599297412  0.5635430899242664
  0.0661662482505534  0.9327516551892927  0.7937231863510306
  0.2658426690748783  0.1321117574130994  0.5628881971334181
  0.2661468297935485  0.1327216295216829  0.7931947261599674
  0.2656802978393173  0.3324861088260747  0.5634681223602982
  0.2658636205714444  0.3330888859067755  0.7942934086815399
  0.2657904563129918  0.5328366761955721  0.5631052128286242
  0.2661223477241919  0.5325147205644356  0.7935002008681522
  0.2658472273768311  0.7325444436748612  0.5636763727140561
  0.2660711234038544  0.7325373436457596  0.7939162404130187
  0.2659290219919939  0.9322929330154466  0.5635390664750588
  0.2661444708084701  0.9327448654815313  0.7937192802054156
  0.4659845074163087  0.1319085507409312  0.5629592738043669
  0.4662315914368023  0.1325700309636701  0.7932871777247570
  0.4664019245297268  0.3324908747128958  0.5634965325285322
  0.4667668058048022  0.3329794315662511  0.7942980568013738
  0.4662820980679072  0.5329308523297911  0.5624987356510047
  0.4661696570760014  0.5328096876514579  0.7929995513587116
  0.4658756283392549  0.7326350073899306  0.5633000354271545
  0.4660618819936317  0.7323822550061081  0.7935185726238387
  0.4659146345829299  0.9322831499415969  0.5635430281177065
  0.4660543083288857  0.9324337962770315  0.7937842624957412
  0.6661134108890323  0.1324206467210871  0.5635598601044762
  0.6659506586887503  0.1323476596787785  0.7937279381920632
  0.6667690372121626  0.3326331645898648  0.5630324275309988
  0.6659870992471610  0.3323462950028002  0.7936054496729525
  0.6665979584172845  0.5328181457220325  0.5631838283630302
  0.6659567800494770  0.5325109791438010  0.7935699050378417
  0.6663420324384148  0.7326316776709305  0.5633230377509548
  0.6658737544580831  0.7323938068724871  0.7935469664775852
  0.6660139252722672  0.9324565995172875  0.5636102943369252
  0.6659631482893218  0.9323688606496958  0.7937754982883121
  0.8658782388516713  0.1324216601051020  0.5635498981096347
  0.8659829639244521  0.1323599421215178  0.7937178190286929
  0.8660725252968078  0.3325779305666430  0.5636625664502546
  0.8659950555197895  0.3323967136440800  0.7938956329304290
  0.8662156363126030  0.5326018211129622  0.5637797195225929
  0.8658799810909130  0.5323969122477337  0.7939196344716635
  0.8662390230304027  0.7325313327748759  0.5637127849972217
  0.8660402446226385  0.7325519155928149  0.7939509893299643
  0.8659339396885031  0.9322825013170188  0.5635476377176687
  0.8659532084052444  0.9324550676960897  0.7937901977466808
  0.2943893520225700  0.3407479653554404  0.9622039849896851
  0.4454568107936367  0.3396459508311693  0.9622992882474435
  0.3796667512847378  0.3594259680767209  0.1053023009766392
 
  0.00000000E+00  0.00000000E+00  0.00000000E+00
  0.00000000E+00  0.00000000E+00  0.00000000E+00
  0.00000000E+00  0.00000000E+00  0.00000000E+00
  0.00000000E+00  0.00000000E+00  0.00000000E+00
  0.00000000E+00  0.00000000E+00  0.00000000E+00
  0.00000000E+00  0.00000000E+00  0.00000000E+00
  0.00000000E+00  0.00000000E+00  0.00000000E+00
  0.00000000E+00  0.00000000E+00  0.00000000E+00
  0.00000000E+00  0.00000000E+00  0.00000000E+00
  0.00000000E+00  0.00000000E+00  0.00000000E+00
  0.00000000E+00  0.00000000E+00  0.00000000E+00
  0.00000000E+00  0.00000000E+00  0.00000000E+00
  0.00000000E+00  0.00000000E+00  0.00000000E+00
  0.00000000E+00  0.00000000E+00  0.00000000E+00
  0.00000000E+00  0.00000000E+00  0.00000000E+00
  0.00000000E+00  0.00000000E+00  0.00000000E+00
  0.00000000E+00  0.00000000E+00  0.00000000E+00
  0.00000000E+00  0.00000000E+00  0.00000000E+00
  0.00000000E+00  0.00000000E+00  0.00000000E+00
  0.00000000E+00  0.00000000E+00  0.00000000E+00
  0.00000000E+00  0.00000000E+00  0.00000000E+00
  0.00000000E+00  0.00000000E+00  0.00000000E+00
  0.00000000E+00  0.00000000E+00  0.00000000E+00
  0.00000000E+00  0.00000000E+00  0.00000000E+00
  0.00000000E+00  0.00000000E+00  0.00000000E+00
  0.00000000E+00  0.00000000E+00  0.00000000E+00
  0.00000000E+00  0.00000000E+00  0.00000000E+00
  0.00000000E+00  0.00000000E+00  0.00000000E+00
  0.00000000E+00  0.00000000E+00  0.00000000E+00
  0.00000000E+00  0.00000000E+00  0.00000000E+00
  0.00000000E+00  0.00000000E+00  0.00000000E+00
  0.00000000E+00  0.00000000E+00  0.00000000E+00
  0.00000000E+00  0.00000000E+00  0.00000000E+00
  0.00000000E+00  0.00000000E+00  0.00000000E+00
  0.00000000E+00  0.00000000E+00  0.00000000E+00
  0.00000000E+00  0.00000000E+00  0.00000000E+00
  0.00000000E+00  0.00000000E+00  0.00000000E+00
  0.00000000E+00  0.00000000E+00  0.00000000E+00
  0.00000000E+00  0.00000000E+00  0.00000000E+00
  0.00000000E+00  0.00000000E+00  0.00000000E+00
  0.00000000E+00  0.00000000E+00  0.00000000E+00
  0.00000000E+00  0.00000000E+00  0.00000000E+00
  0.00000000E+00  0.00000000E+00  0.00000000E+00
  0.00000000E+00  0.00000000E+00  0.00000000E+00
  0.00000000E+00  0.00000000E+00  0.00000000E+00
  0.00000000E+00  0.00000000E+00  0.00000000E+00
  0.00000000E+00  0.00000000E+00  0.00000000E+00
  0.00000000E+00  0.00000000E+00  0.00000000E+00
  0.00000000E+00  0.00000000E+00  0.00000000E+00
  0.00000000E+00  0.00000000E+00  0.00000000E+00
  0.00000000E+00  0.00000000E+00  0.00000000E+00
  0.00000000E+00  0.00000000E+00  0.00000000E+00
  0.00000000E+00  0.00000000E+00  0.00000000E+00
  0.00000000E+00  0.00000000E+00  0.00000000E+00
  0.00000000E+00  0.00000000E+00  0.00000000E+00
  0.00000000E+00  0.00000000E+00  0.00000000E+00
  0.00000000E+00  0.00000000E+00  0.00000000E+00
  0.00000000E+00  0.00000000E+00  0.00000000E+00
  0.00000000E+00  0.00000000E+00  0.00000000E+00
  0.00000000E+00  0.00000000E+00  0.00000000E+00
  0.00000000E+00  0.00000000E+00  0.00000000E+00
  0.00000000E+00  0.00000000E+00  0.00000000E+00
  0.00000000E+00  0.00000000E+00  0.00000000E+00
  0.00000000E+00  0.00000000E+00  0.00000000E+00
  0.00000000E+00  0.00000000E+00  0.00000000E+00
  0.00000000E+00  0.00000000E+00  0.00000000E+00
  0.00000000E+00  0.00000000E+00  0.00000000E+00
  0.00000000E+00  0.00000000E+00  0.00000000E+00
  0.00000000E+00  0.00000000E+00  0.00000000E+00
  0.00000000E+00  0.00000000E+00  0.00000000E+00
  0.00000000E+00  0.00000000E+00  0.00000000E+00
  0.00000000E+00  0.00000000E+00  0.00000000E+00
  0.00000000E+00  0.00000000E+00  0.00000000E+00
  0.00000000E+00  0.00000000E+00  0.00000000E+00
  0.00000000E+00  0.00000000E+00  0.00000000E+00
  0.00000000E+00  0.00000000E+00  0.00000000E+00
  0.00000000E+00  0.00000000E+00  0.00000000E+00
  0.00000000E+00  0.00000000E+00  0.00000000E+00
