Ta  N  W Cu                             
   1.00000000000000     
    18.1096308199999996    0.0000000000000000    0.0000000000000000
     0.0000000000000000   23.3551997799999995    0.0000000000000000
     0.0000000000000000    0.0000000000000000   30.4818171199999988
   Ta   N    W    Cu
   192   240    48     1
Direct
  0.0000069176881965  0.0000518415965303  0.1967788085852362
  0.3338158273303264  0.0625059477222223  0.2026210390358472
  0.1662852233943255  0.0625055651488680  0.2026257961895013
  0.2500684824750152  0.1250120965817771  0.2778685637582683
  0.0823059997277866  0.0625027044731752  0.2835721962418845
  0.4176892035249011  0.0625026950958159  0.2836519397332893
  0.9999948805283267  0.1248084713078867  0.3693841795104404
  0.3325906282669422  0.0625044860948734  0.3677590223065721
  0.1675600429482529  0.0625035261569025  0.3677004965455097
  0.2499872294879708  0.1249381465034389  0.4536399139187992
  0.0837962037732680  0.0625040408284079  0.4538200678336892
  0.4162458653120993  0.0625069195106320  0.4542962700801496
  0.0000067329103572  0.1249520370323438  0.1967790769097277
  0.3338112729461784  0.1875543902992902  0.2026833809280078
  0.1663614028683043  0.1875491614845828  0.2026337216021048
  0.2500801777417081  0.2500561675950337  0.2779605693539366
  0.0823230651126607  0.1875137868034145  0.2835892061333993
  0.4176940772334916  0.1875094400747557  0.2837079355103995
  0.9999948719481040  0.2501956563490779  0.3694100132983635
  0.3325156408368031  0.1874819391249432  0.3678335956591994
  0.1675018550382319  0.1874884691115213  0.3676494270231316
  0.2499520685263477  0.2499299929088039  0.4536709972630533
  0.0836338046084961  0.1874606977844024  0.4542092891880003
  0.4162769896391652  0.1874003445061518  0.4539895679382155
  0.0000153591517815  0.2501387482520201  0.1968264260759724
  0.3338468213520613  0.3125645428306285  0.2027273917094305
  0.1663429663695766  0.3125500029086155  0.2026910361347873
  0.2501137600663128  0.3750569800683934  0.2780898905560747
  0.0823154874667864  0.3125227128160972  0.2836399253191573
  0.4176831763156628  0.3125229367602813  0.2838219117504011
  0.9999788403855803  0.3748068763236319  0.3694272035248787
  0.3325523520648517  0.3124877615313792  0.3679048890356924
  0.1675811599188535  0.3124889653739302  0.3677915288079134
  0.2499714967971514  0.3748415396438673  0.4538074417802562
  0.0837545027141928  0.3124503487301666  0.4538581057329267
  0.4162825213177967  0.3123171408424170  0.4543726586671113
  0.0000499235063174  0.3750128879481807  0.1968922357975558
  0.3339047201923719  0.4375343447548730  0.2028332687000471
  0.1663632324787372  0.4375392682269990  0.2027223182530378
  0.2500697163673564  0.9999971098702147  0.2778690930084835
  0.0823262710895278  0.4375175211645725  0.2837148926843156
  0.4176816340873586  0.4375246127546575  0.2839507784272897
  0.9999898787433352  0.0001975789251318  0.3693890889646951
  0.3324963907661029  0.4374885458668345  0.3681410975964923
  0.1675341747631620  0.4374992152454524  0.3678148965161938
  0.2499823827733820  0.0000699829049040  0.4536440174871785
  0.0835604065384743  0.4374132318133945  0.4542365003697952
  0.4164174018361422  0.4373457695585827  0.4543310659844124
  0.0000816802974413  0.5000609943575540  0.1969466277076464
  0.3339251882756216  0.5624996122606092  0.2028429249595192
  0.1663342724042707  0.5625058324779957  0.2027650373669658
  0.2501356890898379  0.6249791351945007  0.2782237183778093
  0.0823205152657920  0.5625023334856962  0.2837337369219313
  0.4176357158029091  0.5625061376869880  0.2840301488688795
  0.9999646683306622  0.6248244332556538  0.3694475105779986
  0.3324852853745170  0.5625074485467820  0.3682219198914112
  0.1675823691004155  0.5625074133226420  0.3678852871124931
  0.2500426671358440  0.6251122989684248  0.4539855140582745
  0.0837623538675061  0.5625083329907454  0.4539205382321256
  0.4162868932991444  0.5625125040449603  0.4547752140789285
  0.0000809606248851  0.6249424331197488  0.1969456599684136
  0.3339025634972472  0.6874690282257561  0.2028302283935020
  0.1663680613175345  0.6874656531674432  0.2027191373753396
  0.2501122180359872  0.7499529797486417  0.2780851820619787
  0.0823234228051746  0.6874934657553453  0.2837106066761947
  0.4176810977211858  0.6874861306131095  0.2839486718935973
  0.9999703013543026  0.7502007906250867  0.3694252864334118
  0.3324840290666202  0.6875267622688597  0.3681349464377419
  0.1675244866041083  0.6875158033370070  0.3678111144837857
  0.2499769117351178  0.7501724844512481  0.4538052405981574
  0.0835506860305131  0.6875988021782291  0.4542326726426467
  0.4164138022029391  0.6876820908813670  0.4543270608111456
  0.0000511603739000  0.7499903570032842  0.1968902344061974
  0.3338477183571271  0.8124463457683433  0.2027258835461012
  0.1663465339298824  0.8124604347029702  0.2026853586295800
  0.2500799706339834  0.8749516963684414  0.2779548366382301
  0.0823142799071803  0.8124820798782579  0.2836344007800591
  0.4176835065994879  0.8124867705309597  0.2838196941900364
  0.9999909875270205  0.8748108118717894  0.3694083123232232
  0.3325448440608767  0.8125305490676027  0.3678974300724676
  0.1675735690369322  0.8125225424890559  0.3677862099234446
  0.2499422467216235  0.8750916320452902  0.4536669759760699
  0.0837422526125948  0.8125634776128834  0.4538532589719964
  0.4162615666591662  0.8126987805308730  0.4543725941672818
  0.0000159387082377  0.8748644914970498  0.1968220248752672
  0.3338119253521228  0.9374511343458281  0.2026808347001037
  0.1663608140143467  0.9374546177641463  0.2026296455821353
  0.2501358023439479  0.5000321693156877  0.2782272630908338
  0.0823236961911817  0.9374892983271863  0.2835874099001927
  0.4176966334336427  0.9374987000743502  0.2837071779429436
  0.9999586785661450  0.5001874773702752  0.3694450628881185
  0.3325147509073787  0.9375300961707609  0.3678296655727848
  0.1675015700755011  0.9375210033250312  0.3676469146836965
  0.2500902537407939  0.4999168032914696  0.4539830486001364
  0.0836300768167391  0.9375455201751564  0.4542078805280099
  0.4162735753309263  0.9376172539074688  0.4539870021555572
  0.5000018533982882  0.9999339799316047  0.1968743710999732
  0.8337096139865565  0.0625037572482299  0.2026407541040527
  0.6661945679335517  0.0625027675250394  0.2026253980644768
  0.7499307762120750  0.1250150100297276  0.2778865638444046
  0.5823187815393496  0.0625013306950706  0.2836565732706617
  0.9177007952267715  0.0625027297743586  0.2835817792911257
  0.5000356741011771  0.1252024413576081  0.3694867170150502
  0.8324170790018783  0.0625049524945993  0.3677004261819334
  0.6674330655288045  0.0625043795882618  0.3677581342342719
  0.7500288475365124  0.1249625451066549  0.4536521938928573
  0.5838479051379082  0.0625057777798403  0.4543173833213388
  0.9161575594619435  0.0625044965254702  0.4538225559862781
  0.5000014819608865  0.1250727142862829  0.1968747753555320
  0.8336426968284059  0.1875381038044424  0.2026320504935413
  0.6661917641835373  0.1875426915626548  0.2026729863022325
  0.7499093564345856  0.2500390652856765  0.2779359877917287
  0.5822974370249625  0.1875124893621276  0.2837019625779575
  0.9176760399638155  0.1875112052146193  0.2835900127317217
  0.5000123921397801  0.2497936982836961  0.3695394111162429
  0.8324714912691320  0.1875037110113524  0.3676463600320616
  0.6674865210290051  0.1874944325466998  0.3678352269950054
  0.7499944680663191  0.2500198317007403  0.4536742082382332
  0.5838391919911885  0.1874546033844240  0.4540020445710624
  0.9163162047541746  0.1874710032829441  0.4541897470935226
  0.4999772818964558  0.2500597512026417  0.1969359717706212
  0.8336479298306614  0.3125383171009304  0.2026634513158783
  0.6661433645242880  0.3125577854121033  0.2026994382279241
  0.7498610116915003  0.3750231289656014  0.2779930592052651
  0.5822857090900300  0.3125160999483754  0.2837880574391463
  0.9176782079552197  0.3125182896746921  0.2836039539903581
  0.4999429873467278  0.3752038625936720  0.3696601065351501
  0.8323790682247818  0.3125053481624960  0.3677506162006878
  0.6674029676433761  0.3125053027254694  0.3678510223576907
  0.7499339052947605  0.3749405866777451  0.4537443407098323
  0.5838016912800583  0.3124391998618137  0.4543650097126246
  0.9161496816952734  0.3124669910949294  0.4538458437392876
  0.4999328155107108  0.3751207872448674  0.1970330228768447
  0.8336238250412009  0.4375327735987753  0.2026682982955990
  0.6660675655254806  0.4375401731669939  0.2027923791391828
  0.7499289525137556  0.9999913412032129  0.2778881217045637
  0.5822393185724337  0.4375176121013880  0.2838913699129932
  0.9176515275816470  0.4375161761996438  0.2836431973042792
  0.5000366693134310  0.9998115787749668  0.3694859286158376
  0.8324234066629330  0.4375091973236707  0.3677238643516034
  0.6674382866647477  0.4375050517331260  0.3679997461635764
  0.7500276219257742  0.0000474634462151  0.4536518724030074
  0.5835978547221430  0.4374640556546439  0.4542095601025409
  0.9162654627946054  0.4374812552214209  0.4542286131967330
  0.4998899368076763  0.4999907540228890  0.1971316608556748
  0.8336506174461675  0.5625055707815250  0.2026896191042624
  0.6660307608439950  0.5625053313752559  0.2027884641982567
  0.7498366979440121  0.6249906896737869  0.2780540979570532
  0.5822570783723364  0.5625063415582119  0.2839325114630498
  0.9176401424725995  0.5625018666171115  0.2836520664911149
  0.4998945778416370  0.6252194405474043  0.3697637108284937
  0.8323696449777813  0.5625057819139698  0.3677799977140381
  0.6674163790030008  0.5625063085180457  0.3679909767547542
  0.7498829504076880  0.6250015171361696  0.4537664159335222
  0.5836974630886260  0.5625085024322871  0.4545228608648344
  0.9160709359269390  0.5625066011079554  0.4538328961785538
  0.4998906243081365  0.6250149020690756  0.1971297924689139
  0.8336214097842785  0.6874712671106167  0.2026665323138701
  0.6660694609554341  0.6874620184527700  0.2027909175804439
  0.7498640198698965  0.7499822108855909  0.2779947325752232
  0.5822386698847168  0.6874923015374037  0.2838892855148956
  0.9176502740928427  0.6874930747483461  0.2836407144917601
  0.4999422737584851  0.7498123663036012  0.3696562190758357
  0.8324216716652302  0.6875084209224553  0.3677216774610983
  0.6674404953117872  0.6875111586350044  0.3679966913710757
  0.7499231314709078  0.7500753030322684  0.4537442554092124
  0.5835951316056054  0.6875596656189202  0.4542075738064852
  0.9162591457975893  0.6875323266250888  0.4542278330093907
  0.4999332502593816  0.7498848558522084  0.1970342935372500
  0.8336478998647223  0.8124672137099012  0.2026589417707854
  0.6661432386776696  0.8124487852431272  0.2026971436008154
  0.7499091285164283  0.8749668159935382  0.2779345016041646
  0.5822860489959467  0.8124894940059306  0.2837857170964639
  0.9176781530002316  0.8124855103726745  0.2836024955016612
  0.5000136345652422  0.8752203794738165  0.3695338704820230
  0.8323754335172282  0.8125067714191161  0.3677468735525409
  0.6674035916621932  0.8125060145401690  0.3678483137076185
  0.7500037974861797  0.8749936986931459  0.4536728444784757
  0.5838030246150154  0.8125730937441844  0.4543628061571496
  0.9161423370308341  0.8125477973192119  0.4538426561565956
  0.4999778778067636  0.8749470903545884  0.1969352813071623
  0.8336426502753014  0.9374616567218226  0.2026277380317936
  0.6661929130468494  0.9374578066858348  0.2026713103625681
  0.7498350200726946  0.5000181342428647  0.2780558108650553
  0.5823006459832385  0.9374964658792422  0.2837009090011193
  0.9176754155258493  0.9374902157412848  0.2835892134649782
  0.4998955802748881  0.4997885413824932  0.3697681219183337
  0.8324686356586710  0.9375066617501844  0.3676451447490834
  0.6674868614623719  0.9375144995308204  0.3678335080989470
  0.7498774096690823  0.5000173552063245  0.4537661166726892
  0.5838371332445931  0.9375588344004058  0.4540036509292378
  0.9163087296667030  0.9375400848822935  0.4541885086318800
  0.4060162042436133  0.9999789602095390  0.2319652095231106
  0.2500663290015765  0.9999924664793411  0.1991347140774025
  0.0939925261878543  0.9999973924697372  0.2318740147837417
  0.1544123594652334  0.1249748605599876  0.3154018728856656
  0.0000012322497227  0.1249631257292521  0.3028391164469113
  0.3456456293934096  0.1250204047030223  0.3154934237722458
  0.4012656826638974  0.1248603293334085  0.4024165296283897
  0.2499870601650898  0.1250073765970612  0.3863429081548304
  0.0987449595208503  0.1251138495266062  0.4023237265027291
  0.1534057606670487  0.1249034566593679  0.4869820236051225
  0.9999798716126875  0.1244690884152106  0.4749177244321601
  0.3465428650480931  0.1251240140136787  0.4870644461252027
  0.4003566790744486  0.1249913719706228  0.5674888778454417
  0.2499819300509287  0.1250653765857237  0.5572463909320007
  0.0999344728699825  0.1246834612076100  0.5673300162519581
  0.4060149285634154  0.1250280414325147  0.2319645701935755
  0.2500661413134821  0.1250156880982516  0.1991205619010543
  0.0939915056602132  0.1250051720062189  0.2318748769873196
  0.1543914137278932  0.2500396455955922  0.3154497219513175
  0.9999939616746047  0.2500460142884791  0.3028578250759182
  0.3456472222809168  0.2499854629958662  0.3155778215207548
  0.4012409831596955  0.2500359940499735  0.4024767419785462
  0.2499778896406255  0.2499485872016223  0.3863908653943042
  0.0987530090250104  0.2498480324239623  0.4023467475076927
  0.1534158904671017  0.2500108691380376  0.4870203810416172
  0.9999807208301519  0.2504340442922626  0.4749360178226993
  0.3465399681434107  0.2495215669702233  0.4870814709322744
  0.4001870299832575  0.2495677934581053  0.5676065255212279
  0.2499804211587815  0.2497662083437291  0.5572973909062071
  0.0999157070613634  0.2502421917932693  0.5673044354812902
  0.4060133562540784  0.2500485134337325  0.2320542865912927
  0.2500887589073173  0.2500688296052971  0.1991332146428704
  0.0940165455246742  0.2500478231267920  0.2319102683800054
  0.1543881167464463  0.3749956091673283  0.3155296880123259
  0.9999824324736011  0.3749712408924850  0.3028868657156778
  0.3456760766007037  0.3750568314314506  0.3157228977829263
  0.4012329219963533  0.3748399088672869  0.4026490934253744
  0.2499797520015363  0.3749729612755459  0.3865258333245407
  0.0987214258816849  0.3750945185778747  0.4023857713936820
  0.1532573596166955  0.3748885445131123  0.4870553781465290
  0.9999386937093604  0.3744095221239050  0.4749411415890918
  0.3465742078692955  0.3747085054760930  0.4872382679346856
  0.4004795579087812  0.3741339970961945  0.5677297543812330
  0.2499259867508457  0.3753007494349490  0.5573229840061842
  0.0998768888284829  0.3744978627111095  0.5674754604308490
  0.4059959353571259  0.3750631832867768  0.2321936208173057
  0.2501096728690300  0.3750689271056942  0.1993018718897233
  0.0940658468245132  0.3750415427965450  0.2319825890975835
  0.1544140752951577  0.0000296392645325  0.3154027034709586
  0.0000010351853987  0.0000374432657892  0.3028370453903833
  0.3456481559166207  0.9999893119910226  0.3154928686989038
  0.4012681478945552  0.0001516493773508  0.4024153239894446
  0.2499858906722991  0.0000019420048361  0.3863407832348145
  0.0987433559074091  0.9998932242547909  0.4023222977317005
  0.1533950253090453  0.0001005144830017  0.4869826107994228
  0.9999772171631349  0.0005375510099341  0.4749124578442689
  0.3465347770306266  0.9998904487951776  0.4870641224994188
  0.4003552509208319  0.0000265231884953  0.5674924118022275
  0.2499757879721614  0.9999473994616466  0.5572486169342099
  0.0999272269526301  0.0003226225006330  0.5673356440655937
  0.4059648951359023  0.5000250780034605  0.2323099313740897
  0.2501263666902105  0.5000412311132720  0.1994725404130619
  0.0940918936080521  0.5000215400031323  0.2320427860831202
  0.1543812855571218  0.6249773913224175  0.3155878742731133
  0.9999654845286017  0.6249550847432346  0.3029131645074443
  0.3456817084458734  0.6250146283603684  0.3158617185869019
  0.4012228076924984  0.6248867139995227  0.4028260331423041
  0.2499671242349777  0.6250266536379172  0.3866662954182303
  0.0986909402290621  0.6251351938632297  0.4024033051943547
  0.1531353552629469  0.6250966528817798  0.4870010829357696
  0.9998574426302298  0.6245080757753740  0.4749004756322108
  0.3465761543802586  0.6257779852921388  0.4876889800723490
  0.3982934173008132  0.6271256500296687  0.5691066389680586
  0.2488525489393041  0.6250310587952228  0.5575959904602854
  0.0991694080319050  0.6248456386494681  0.5674357860922825
  0.4059644668170677  0.6249827319885455  0.2323065018805437
  0.2501277564323701  0.6249640794202023  0.1994542727894100
  0.0940923671034284  0.6249847479956330  0.2320391785124301
  0.1543849932820294  0.7500165950739373  0.3155222596870928
  0.9999807328410881  0.7500329721896506  0.3028835684795865
  0.3456712093445944  0.7499516685725638  0.3157168540126776
  0.4012247490143750  0.7501845195878118  0.4026424392843566
  0.2499662074761275  0.7500425766709995  0.3865224955534998
  0.0987148749599456  0.7499166226566487  0.4023821215642229
  0.1532365822100701  0.7501290564900103  0.4870551555439420
  0.9999325880299637  0.7506025067970441  0.4749392119926767
  0.3465526473276412  0.7502964309688309  0.4872379259036919
  0.4004845210761303  0.7508958483576080  0.5677192431282947
  0.2499331623144982  0.7497135864595279  0.5573188217695630
  0.0998695416893014  0.7505073379882319  0.5674762994989280
  0.4059938260969957  0.7499453349285474  0.2321909682917749
  0.2501135650489346  0.7499384629008645  0.1993160736470116
  0.0940687969522145  0.7499632756537906  0.2319786961170038
  0.1543906872211949  0.8749707965867159  0.3154453729976652
  0.9999947611160991  0.8749590996972501  0.3028557591813978
  0.3456457525180667  0.8750263706905272  0.3155719905327459
  0.4012403220577738  0.8749812909609460  0.4024734377655008
  0.2499729517255815  0.8750632394667619  0.3863861285101535
  0.0987518531834652  0.8751633254916840  0.4023440995043686
  0.1534069357353829  0.8749935594576641  0.4870238184421822
  0.9999751603696865  0.8745787273227066  0.4749291474025554
  0.3465246513169689  0.8754988453778836  0.4870739908397610
  0.4001671558836080  0.8754571311756223  0.5676015976023550
  0.2499661966771711  0.8752489685332279  0.5572964659061057
  0.0999102390888922  0.8747640129412630  0.5673078532645164
  0.4060140406330390  0.8749591028547599  0.2320533592066027
  0.2500923370768930  0.8749389361836890  0.1991121589704932
  0.0940171365843412  0.8749578098048048  0.2319051437317370
  0.1543842395108328  0.5000334246921767  0.3155916806329060
  0.9999678332455630  0.5000501104390267  0.3029153268948122
  0.3456847504433043  0.4999908115813270  0.3158638172311825
  0.4012299116284481  0.5001363222550026  0.4028300929055817
  0.2499645912430353  0.4999876296865722  0.3866659035590629
  0.0987019886700793  0.4998754859191124  0.4024048604518029
  0.1531151927395626  0.4999224739656398  0.4870074062694485
  0.9998608262209032  0.5004987300737724  0.4749014633333815
  0.3465551938919305  0.4992413214720059  0.4876695921867551
  0.3982981244166766  0.4978935030004905  0.5691010552214308
  0.2488541454754838  0.5000056930476831  0.5575940604112120
  0.0991688102932571  0.5001640022207283  0.5674293811677913
  0.9060154180482130  0.9999958536804385  0.2318787923078318
  0.7499396171006865  0.9999918920000610  0.1991455353610974
  0.5939941382812890  0.9999752940657913  0.2319664866667495
  0.6543437902036686  0.1250239458809546  0.3155002548785362
  0.5000010912348074  0.1250300691439392  0.3029417568148887
  0.8455964951658288  0.1249785385430044  0.3154062359366847
  0.9012326817501659  0.1251165298366246  0.4023252314959791
  0.7500126345579758  0.1250138198910093  0.3863540600602846
  0.5987816224431342  0.1248673889754954  0.4024364107485141
  0.6535133856979201  0.1251464574384329  0.4870998090721059
  0.5000522223553077  0.1254179015552879  0.4750018811056975
  0.8465970579092783  0.1249264863020514  0.4869936084186932
  0.9000989736784959  0.1247024478713712  0.5673264273102916
  0.7500778135018749  0.1251217670961253  0.5572680350173655
  0.5997626718114546  0.1250391912533217  0.5675318288319673
  0.9060162470065265  0.1250046290209568  0.2318798968272873
  0.7499399301105285  0.1250125002022244  0.1991309627496705
  0.5939940485154125  0.1250299145255482  0.2319661662392178
  0.6543409606605124  0.2499866346071116  0.3155488194265885
  0.4999971893531452  0.2499608104582336  0.3030027145700629
  0.8455921905953048  0.2500440469955336  0.3154293003442632
  0.9012231877601522  0.2498659385529010  0.4023337362578232
  0.7499945451331058  0.2499747474627654  0.3863830519038487
  0.5987676245126394  0.2500869051972217  0.4024731793357148
  0.6534709839619666  0.2497260597011675  0.4871138398714407
  0.5000487059613832  0.2495338160419109  0.4749725235909210
  0.8465731815952182  0.2500198630647716  0.4870123526433972
  0.9000807485513462  0.2503193237279859  0.5673107294671809
  0.7500678480979346  0.2498817226977152  0.5572769926973962
  0.5999261487146228  0.2497567935512919  0.5676056339183759
  0.9059905667909831  0.2500389272290207  0.2318944249455583
  0.7499069620629442  0.2500573951610079  0.1991254454075246
  0.5939714618180432  0.2500431498857552  0.2320305863552790
  0.6543042028883761  0.3750515063417126  0.3156360993307317
  0.4999822067589363  0.3750356466826545  0.3031185312361160
  0.8455705623215835  0.3749894428759077  0.3154640554147079
  0.9012183256667541  0.3751140743042072  0.4023564474650527
  0.7499663726393777  0.3750051959841940  0.3864443006000968
  0.5987287346614067  0.3748951743489997  0.4025701188173514
  0.6533707815118817  0.3750924242203411  0.4872274173227495
  0.4999988700389224  0.3752424797247542  0.4752748805353733
  0.8465932496231403  0.3749168283729389  0.4869742223651343
  0.9001096608875301  0.3746531372403012  0.5673196048454301
  0.7500418715645694  0.3751285439251646  0.5572778041237427
  0.5996056282240332  0.3748476597169841  0.5677310161270412
  0.9059585217907085  0.3750317101587228  0.2319205707477536
  0.7498778236456758  0.3750594132058325  0.1992249526310204
  0.5939362487696869  0.3750571438367061  0.2321299332253020
  0.6543436433057011  0.9999824424422243  0.3155015506463670
  0.5000031266920573  0.9999771862594997  0.3029418841985887
  0.8455955483976965  0.0000282666782283  0.3154070809040306
  0.9012316211637383  0.9998941924090019  0.4023240161495991
  0.7500117464954954  0.9999956587935515  0.3863523122233445
  0.5987845961758893  0.0001428039841045  0.4024373941583477
  0.6535129587466244  0.9998643395150566  0.4871013513885458
  0.5000493266102310  0.9995941785776310  0.4750039317699262
  0.8465935411789403  0.0000839854764578  0.4869930595603194
  0.9000967515051883  0.0002985964668270  0.5673264239380487
  0.7500729702369000  0.9998903608760585  0.5572682479049931
  0.5997581305898407  0.9999733992344346  0.5675329619664709
  0.9059542862176286  0.5000193408308391  0.2319417212394015
  0.7498560404212071  0.5000400883310760  0.1992936684016158
  0.5939141598969542  0.5000138554012850  0.2322094388053841
  0.6542858387927666  0.6250293146126822  0.3157029493321843
  0.4999677759450236  0.6250271197527795  0.3032048448611846
  0.8455602762210859  0.6249817767400287  0.3154829415001146
  0.9011783443373744  0.6251467902734476  0.4023533215756672
  0.7499660031792743  0.6250122258807878  0.3864744787067735
  0.5986873811548605  0.6249068546751033  0.4026235645183434
  0.6533730792468972  0.6252955399546138  0.4872181217494287
  0.4999937819923872  0.6253846204451392  0.4752475310600630
  0.8464994325409236  0.6249613264300038  0.4870210255416936
  0.8997044072243341  0.6247304027249356  0.5674273363543350
  0.7501962565676195  0.6253220100216268  0.5573920814635400
  0.6010587827212817  0.6255557138916075  0.5678071918265033
  0.9059545225504877  0.6249865996733419  0.2319389687995326
  0.7498546207516128  0.6249659827018590  0.1992759014789058
  0.5939147800682605  0.6249933687196716  0.2322076278532421
  0.6543050132380444  0.7499590094906878  0.3156334812969419
  0.4999822795763933  0.7499739217957142  0.3031123135877607
  0.8455729110631012  0.7500173533628640  0.3154626515301189
  0.9012088664415359  0.7498965504152011  0.4023542980183024
  0.7499699173662933  0.7500083520912781  0.3864450067827647
  0.5987312239673770  0.7501178191159994  0.4025653901803707
  0.6533790474279328  0.7499175761211845  0.4872235867307566
  0.4999942533534352  0.7497799184391809  0.4752798355889354
  0.8466026963907893  0.7500997233563140  0.4869800779607445
  0.9001064447374674  0.7503632440754870  0.5673281064297768
  0.7500403562086859  0.7498831277087206  0.5572770591324812
  0.5995996401561143  0.7501735387417980  0.5677307148752178
  0.9059602970130953  0.7499731715150517  0.2319198223853220
  0.7498775245665144  0.7499454779476338  0.1992336962565631
  0.5939377111255766  0.7499497482629920  0.2321300172739100
  0.6543415520579430  0.8750213454233347  0.3155485532800242
  0.4999977282081076  0.8750477720982417  0.3029997425227862
  0.8455927821452320  0.8749638699585063  0.3154265547757547
  0.9012178333207217  0.8751461138409553  0.4023301420698147
  0.7499901766936219  0.8750346714443253  0.3863801754638558
  0.5987698227974008  0.8749275746879803  0.4024717316441340
  0.6534623835989493  0.8752886432847689  0.4871189638240452
  0.5000394346458421  0.8754821477633712  0.4749714184553184
  0.8465612081644736  0.8749931299833236  0.4870095554078304
  0.9000851332103110  0.8746861051908397  0.5673057013394640
  0.7500603005120112  0.8751316893465315  0.5572761966391795
  0.5999152980372671  0.8752549522199686  0.5676067883372653
  0.9059911947927475  0.8749646111428078  0.2318910314461036
  0.7499070713292681  0.8749455999920741  0.1991051943557238
  0.5939725291864022  0.8749618803513286  0.2320291372842078
  0.6542849372122532  0.4999827014561689  0.3157050920903117
  0.4999665399963646  0.4999855044558572  0.3032075556411655
  0.8455601823086809  0.5000272343973720  0.3154842913392670
  0.9011887012458857  0.4998663558169625  0.4023527267217162
  0.7499671154788672  0.5000060352642919  0.3864753438787574
  0.5986861587926526  0.5001030630744765  0.4026249863223796
  0.6533822194081722  0.4997260384709534  0.4872148185790195
  0.5000007958389574  0.4996546916900755  0.4752402587206035
  0.8465136987163646  0.5000555315919044  0.4870225924866247
  0.8997116890794530  0.5002826299976491  0.5674247145168465
  0.7501913906649023  0.4996904524215182  0.5573925985728252
  0.6010599211462164  0.4994825306573816  0.5678105771047441
  0.0000452240595550  0.1143541361438238  0.5414545279298153
  0.3360483966861025  0.0625058091624524  0.5393041826400093
  0.1665953781157796  0.0625037858932274  0.5387604715163761
  0.0000166555091070  0.2605730650152509  0.5414551373639043
  0.3334958318475998  0.1872369845294415  0.5388862878663474
  0.1642851067470517  0.1874449728958538  0.5392678936568345
  0.9999734859479190  0.3643141784549897  0.5414766306699192
  0.3362034941066128  0.3118257038576928  0.5393337009373340
  0.1665188704455005  0.3125288487741429  0.5387945498160676
  0.0000207488472057  0.0106501314125538  0.5414513774127698
  0.3326591058494657  0.4359513405440367  0.5392061057427497
  0.1636769333271886  0.4375204532439128  0.5393428823272899
  0.9994374663767545  0.6143578453878931  0.5414234268713329
  0.3317018001523664  0.5625107224039567  0.5383256524515261
  0.1650705108958661  0.5625128422930104  0.5387801849636915
  0.9999615782153839  0.7606916173055964  0.5414732254695949
  0.3326521434313463  0.6890785501678138  0.5392113450795080
  0.1636719425372988  0.6874933704809081  0.5393393957123749
  0.9999983161820154  0.8644313354290318  0.5414536302102206
  0.3361829224385460  0.8132007157974570  0.5393274552886353
  0.1665035453206016  0.8124766053174639  0.5387920864089537
  0.9994389126422405  0.5106526255598851  0.5414219081250948
  0.3334933567220801  0.9377773379301360  0.5388815184435884
  0.1642886739265990  0.9375649086549913  0.5392660334082180
  0.5000853183780691  0.1351868327939130  0.5415534797006885
  0.8334458276573713  0.0625025053609889  0.5387496099708784
  0.6640692194349711  0.0625041137611220  0.5393179857819135
  0.5000952703516290  0.2400873577799700  0.5415417244599041
  0.8357184173025800  0.1874738701859542  0.5392620280147113
  0.6664770249619494  0.1873805467273826  0.5388817154597234
  0.5001727483469693  0.3845571553522831  0.5418936360595055
  0.8333902727252109  0.3125498445347716  0.5387393071803146
  0.6639579598194771  0.3122688923039192  0.5393403455884993
  0.5000824621431121  0.9898227842632892  0.5415563560756809
  0.8356467852601597  0.4374851935388975  0.5392946534150695
  0.6667725247242373  0.4372156173701356  0.5389026321082184
  0.5007288074650589  0.6343801309655674  0.5418031392913889
  0.8332000387281866  0.5625084703578054  0.5387880016266280
  0.6636341417833336  0.5625171022348781  0.5394871252305151
  0.5001704752460157  0.7404495706580789  0.5418899946561666
  0.8356482572703641  0.6875263874777033  0.5392969623833750
  0.6667742797275622  0.6878040651855244  0.5388994916690564
  0.5000884714512068  0.8849281945296852  0.5415395856058467
  0.8333890990509474  0.8124665589314333  0.5387429015848468
  0.6639512249395310  0.8127436957471588  0.5393364772460529
  0.5007456409968327  0.4906273426024370  0.5417953868495928
  0.8357199399808408  0.9375272511132522  0.5392649831530534
  0.6664741219548276  0.9376327931983326  0.5388848959915506
  0.4378848441445129  0.5624761463927328  0.6019324935009323
 
  0.00000000E+00  0.00000000E+00  0.00000000E+00
  0.00000000E+00  0.00000000E+00  0.00000000E+00
  0.00000000E+00  0.00000000E+00  0.00000000E+00
  0.00000000E+00  0.00000000E+00  0.00000000E+00
  0.00000000E+00  0.00000000E+00  0.00000000E+00
  0.00000000E+00  0.00000000E+00  0.00000000E+00