Mo  S Ru                                
   1.00000000000000     
    15.9215000000000000    0.0000000000000000    0.0000000000000000
    -7.9622500000000000   13.7910219999999999    0.0000000000000000
     0.0000000000000000    0.0000000000000000   13.5822000000000003
   Mo   S    Ru
    25    50     3
Direct
  0.1294906067538264  0.0670981287780208  0.6809770881951351
  0.1282907516687573  0.2656161478613157  0.6787356723751898
  0.1303555947728796  0.4669150229654520  0.6798609761500174
  0.1308836961358537  0.6670985212983211  0.6806053204022291
  0.1309814546787891  0.8672747592599990  0.6813880710953484
  0.3315090588579750  0.0669539976150801  0.6811837856784209
  0.3299448024485088  0.2664725522669116  0.6783752601003101
  0.3293830242855478  0.4664836171414635  0.6808788482857722
  0.3305947862759737  0.6666281612322038  0.6802972355592232
  0.3307657952024954  0.8666155352911460  0.6807677769106348
  0.5307779881990129  0.0661786189687987  0.6802941183964535
  0.5325513382995268  0.2651650848096310  0.6787746023428909
  0.5319773401390862  0.4666108016516972  0.6759057930716992
  0.5312890187921511  0.6668433054858198  0.6804798026729344
  0.5306118222707070  0.8662741088846317  0.6806942683579322
  0.7305469777047904  0.0664219618035347  0.6801243058198025
  0.7315573937257795  0.2667721981833111  0.6799615682678422
  0.7324436814741588  0.4675025073309982  0.6799995125145273
  0.7314220391431121  0.6678529620033729  0.6800439622964092
  0.7306780559330974  0.8667496096697960  0.6807061375769692
  0.9300831623659533  0.0663983178367147  0.6805151923895352
  0.9303522205764736  0.2667537817601513  0.6795315460999944
  0.9311539350571749  0.4670301466143414  0.6801343449070458
  0.9311858126129238  0.6671944752187784  0.6809854490782641
  0.9309737437819336  0.8670364788035627  0.6811282543285628
  0.0628746685500872  0.1320744185833860  0.5646800051251972
  0.0630468304067975  0.1337884677678929  0.7956908408662358
  0.0632822529744885  0.3338423370898909  0.5638868302318869
  0.0630090357803326  0.3333312364144447  0.7945787328763743
  0.0642851877854369  0.5341541750398946  0.5649983482399676
  0.0642197126291677  0.5335412635550512  0.7953859608658149
  0.0644332440622506  0.7342558768156096  0.5659915940351965
  0.0644414680332517  0.7337187018173381  0.7962107206523257
  0.0641536419540145  0.9336674308873043  0.5661630982669124
  0.0641017009537208  0.9338995563122197  0.7963286904002373
  0.2633211050552973  0.1328783545141832  0.5662151514857570
  0.2646225800219142  0.1351672246844160  0.7971571362910979
  0.2631136111920540  0.3329698124494627  0.5654340517689747
  0.2574503668757515  0.3356475244589987  0.8007722555848531
  0.2635471386448884  0.5334318330639434  0.5645929127906797
  0.2632519459344351  0.5337779515742938  0.7953762524053403
  0.2640919914507833  0.7336101857239328  0.5653745948939459
  0.2641702587713581  0.7332975461235094  0.7956853123139780
  0.2640074472361462  0.9335879942083096  0.5660488172293867
  0.2645266887009470  0.9335230807336998  0.7960991925619254
  0.4631318230541908  0.1312893249754836  0.5643581325717335
  0.4649532973039143  0.1332628731391665  0.7954512712190080
  0.4631472753748724  0.3310363353695038  0.5645129327225291
  0.4743962385927389  0.3356677047338863  0.7961917796468327
  0.4631750421137895  0.5335551179097493  0.5652811789644758
  0.4634218514025079  0.5291891930344264  0.7974824911710030
  0.4642550957625033  0.7329452067598510  0.5655442301751066
  0.4638431432696635  0.7326700341834638  0.7955489713435639
  0.4639027118148107  0.9327513134249799  0.5654814409313786
  0.4641907368138334  0.9330974192852040  0.7957102496560395
  0.6640695882037591  0.1332032186171404  0.5650217978825935
  0.6642930036547767  0.1331907003730421  0.7951786064256083
  0.6662281652528321  0.3341791647361276  0.5640447463474203
  0.6648537581048970  0.3336666942377420  0.7954253393365320
  0.6668283268186670  0.5348278902546966  0.5641649687903723
  0.6644068031568011  0.5322742346503730  0.7964547985606956
  0.6642549740685411  0.7334663794488137  0.5653598691771435
  0.6643750127970804  0.7338157540340688  0.7960366917160471
  0.6637437173894227  0.9328052914434508  0.5653395437043329
  0.6640034617692478  0.9333840826732569  0.7956089896704199
  0.8637049548377078  0.1329261315315691  0.5649245898131028
  0.8637338205140992  0.1335270705733649  0.7951229796564974
  0.8643180170845426  0.3337684404186732  0.5646335354482446
  0.8645630828826540  0.3334573722704661  0.7951222330411341
  0.8654722191142454  0.5344879505707709  0.5650336485703775
  0.8650416890867945  0.5336398487737100  0.7957143825799804
  0.8648695107194655  0.7341950742918826  0.5657721506393543
  0.8642451931736304  0.7337354246582706  0.7959569247816844
  0.8638750357746687  0.9329514982847513  0.5656591806829638
  0.8637234869376798  0.9334815545892070  0.7959991044422949
  0.3435064251086501  0.2860457114495532  0.8853151745487438
  0.5743224858518872  0.4233888605885952  0.9231591038705957
  0.4519672861915751  0.4501454541274938  0.9424604981665397
 
  0.00000000E+00  0.00000000E+00  0.00000000E+00
  0.00000000E+00  0.00000000E+00  0.00000000E+00
  0.00000000E+00  0.00000000E+00  0.00000000E+00
  0.00000000E+00  0.00000000E+00  0.00000000E+00
  0.00000000E+00  0.00000000E+00  0.00000000E+00
  0.00000000E+00  0.00000000E+00  0.00000000E+00
  0.00000000E+00  0.00000000E+00  0.00000000E+00
  0.00000000E+00  0.00000000E+00  0.00000000E+00
  0.00000000E+00  0.00000000E+00  0.00000000E+00
  0.00000000E+00  0.00000000E+00  0.00000000E+00
  0.00000000E+00  0.00000000E+00  0.00000000E+00
  0.00000000E+00  0.00000000E+00  0.00000000E+00
  0.00000000E+00  0.00000000E+00  0.00000000E+00
  0.00000000E+00  0.00000000E+00  0.00000000E+00
  0.00000000E+00  0.00000000E+00  0.00000000E+00
  0.00000000E+00  0.00000000E+00  0.00000000E+00
  0.00000000E+00  0.00000000E+00  0.00000000E+00
  0.00000000E+00  0.00000000E+00  0.00000000E+00
  0.00000000E+00  0.00000000E+00  0.00000000E+00
  0.00000000E+00  0.00000000E+00  0.00000000E+00
  0.00000000E+00  0.00000000E+00  0.00000000E+00
  0.00000000E+00  0.00000000E+00  0.00000000E+00
  0.00000000E+00  0.00000000E+00  0.00000000E+00
  0.00000000E+00  0.00000000E+00  0.00000000E+00
  0.00000000E+00  0.00000000E+00  0.00000000E+00
  0.00000000E+00  0.00000000E+00  0.00000000E+00
  0.00000000E+00  0.00000000E+00  0.00000000E+00
  0.00000000E+00  0.00000000E+00  0.00000000E+00
  0.00000000E+00  0.00000000E+00  0.00000000E+00
  0.00000000E+00  0.00000000E+00  0.00000000E+00
  0.00000000E+00  0.00000000E+00  0.00000000E+00
  0.00000000E+00  0.00000000E+00  0.00000000E+00
  0.00000000E+00  0.00000000E+00  0.00000000E+00
  0.00000000E+00  0.00000000E+00  0.00000000E+00
  0.00000000E+00  0.00000000E+00  0.00000000E+00
  0.00000000E+00  0.00000000E+00  0.00000000E+00
  0.00000000E+00  0.00000000E+00  0.00000000E+00
  0.00000000E+00  0.00000000E+00  0.00000000E+00
  0.00000000E+00  0.00000000E+00  0.00000000E+00
  0.00000000E+00  0.00000000E+00  0.00000000E+00
  0.00000000E+00  0.00000000E+00  0.00000000E+00
  0.00000000E+00  0.00000000E+00  0.00000000E+00
  0.00000000E+00  0.00000000E+00  0.00000000E+00
  0.00000000E+00  0.00000000E+00  0.00000000E+00
  0.00000000E+00  0.00000000E+00  0.00000000E+00
  0.00000000E+00  0.00000000E+00  0.00000000E+00
  0.00000000E+00  0.00000000E+00  0.00000000E+00
  0.00000000E+00  0.00000000E+00  0.00000000E+00
  0.00000000E+00  0.00000000E+00  0.00000000E+00
  0.00000000E+00  0.00000000E+00  0.00000000E+00
  0.00000000E+00  0.00000000E+00  0.00000000E+00
  0.00000000E+00  0.00000000E+00  0.00000000E+00
  0.00000000E+00  0.00000000E+00  0.00000000E+00
  0.00000000E+00  0.00000000E+00  0.00000000E+00
  0.00000000E+00  0.00000000E+00  0.00000000E+00
  0.00000000E+00  0.00000000E+00  0.00000000E+00
  0.00000000E+00  0.00000000E+00  0.00000000E+00
  0.00000000E+00  0.00000000E+00  0.00000000E+00
  0.00000000E+00  0.00000000E+00  0.00000000E+00
  0.00000000E+00  0.00000000E+00  0.00000000E+00
  0.00000000E+00  0.00000000E+00  0.00000000E+00
  0.00000000E+00  0.00000000E+00  0.00000000E+00
  0.00000000E+00  0.00000000E+00  0.00000000E+00
  0.00000000E+00  0.00000000E+00  0.00000000E+00
  0.00000000E+00  0.00000000E+00  0.00000000E+00
  0.00000000E+00  0.00000000E+00  0.00000000E+00
  0.00000000E+00  0.00000000E+00  0.00000000E+00
  0.00000000E+00  0.00000000E+00  0.00000000E+00
  0.00000000E+00  0.00000000E+00  0.00000000E+00
  0.00000000E+00  0.00000000E+00  0.00000000E+00
  0.00000000E+00  0.00000000E+00  0.00000000E+00
  0.00000000E+00  0.00000000E+00  0.00000000E+00
  0.00000000E+00  0.00000000E+00  0.00000000E+00
  0.00000000E+00  0.00000000E+00  0.00000000E+00
  0.00000000E+00  0.00000000E+00  0.00000000E+00
  0.00000000E+00  0.00000000E+00  0.00000000E+00
  0.00000000E+00  0.00000000E+00  0.00000000E+00
  0.00000000E+00  0.00000000E+00  0.00000000E+00
