Cu	N	Ru	Ta                              
   1.00000000000000     
    18.1096308199999996    0.0000000000000000    0.0000000000000000
     0.0000000000000000   23.3551997799999995    0.0000000000000000
     0.0000000000000000    0.0000000000000000   30.4818171199999988
   Cu   N    Ru   Ta
     2   240    36   204
Selective dynamics
Direct
  0.5828120884453738  0.4386272111975821  0.6097906650856965   T   T   T
  0.4473027470863525  0.4431063701661631  0.6162510938153036   T   T   T
  0.0001216300842563  0.3742410512768865  0.4733691744716210   T   T   T
  0.0000311507716616  0.8742668634701126  0.4735395741352673   T   T   T
  0.0007546365873381  0.7508357331636546  0.3024712727493721   F   F   F
  0.0007546365873381  0.2508357331636546  0.3024712727493721   F   F   F
  0.0007971388342227  0.6259226757939587  0.3025555019798603   F   F   F
  0.0007971388342227  0.1259226757939587  0.3025555019798603   F   F   F
  0.0009289261701255  0.8759179472966139  0.3027706837052264   F   F   F
  0.0009289261701255  0.3759179472966139  0.3027706837052264   F   F   F
  0.0009959888293309  0.0008861705399639  0.3028813086718003   F   F   F
  0.0009959888293309  0.5008861705399639  0.3028813086718003   F   F   F
  0.0021639003525635  0.0003155972400979  0.4726124234936511   T   T   T
  0.0021581229032068  0.5003454380294787  0.4723739050665841   T   T   T
  0.5631298564107513  0.2616414760536253  0.5801230739206741   T   T   T
  0.5631302037291769  0.7619054872216848  0.5807760312029721   T   T   T
  0.5944407181460178  0.8759335502460033  0.2316533513143781   F   F   F
  0.5944407181460178  0.3759335502460033  0.2316533513143781   F   F   F
  0.5944879250719026  0.6260651198762730  0.2317376786361365   F   F   F
  0.5944879250719026  0.1260651198762730  0.2317376786361365   F   F   F
  0.5945319922319641  0.7509793277392376  0.2318466107902424   F   F   F
  0.5945319922319641  0.2509793277392376  0.2318466107902424   F   F   F
  0.5946973191803622  0.0011281697544092  0.2317203788144795   F   F   F
  0.5946973191803622  0.5011281697544092  0.2317203788144795   F   F   F
  0.5992621823898251  0.2514330456768100  0.4022088243757093   T   T   T
  0.5992214986073190  0.7515997650014387  0.4022764311662744   T   T   T
  0.5998812164208848  0.1262804381150894  0.4014981170025315   T   T   T
  0.5997989552401901  0.6264712050572904  0.4015808385632239   T   T   T
  0.6001829930925533  0.3759885866073906  0.4016105049569592   T   T   T
  0.6002575794764781  0.8759977304066940  0.4012486885428397   T   T   T
  0.6006051600596753  0.5012228565582550  0.4013790378673254   T   T   T
  0.6007066737734065  0.0012812659702024  0.4009260239051262   T   T   T
  0.6046342416125161  0.8767698570463263  0.5689099597111112   T   T   T
  0.6049043537144210  0.9980258104026609  0.5689670796996676   T   T   T
  0.6069907538276801  0.5007295287943797  0.5718306040933362   T   T   T
  0.6083222122467090  0.3760027175891597  0.5713509462477857   T   T   T
  0.6132986920376764  0.1413751319336458  0.5676130757708729   T   T   T
  0.6140780904895315  0.6419851645958085  0.5668657202469235   T   T   T
  0.6482180072334358  0.2500581282011142  0.4871332929239900   T   T   T
  0.6482190908308400  0.7511529953377231  0.4872141306252900   T   T   T
  0.6522617107679358  0.1256694524383146  0.4854357074456351   T   T   T
  0.6524957498836722  0.6266499544686008  0.4848772449831817   T   T   T
  0.6535802531281142  0.3784334639200996  0.4856033662087040   T   T   T
  0.6538194961140051  0.8793816217329269  0.4847369612029075   T   T   T
  0.6549923804575926  0.7511371041673840  0.3152775575080256   F   F   F
  0.6549923804575926  0.2511371041673840  0.3152775575080256   F   F   F
  0.6552059756456146  0.6260466862938543  0.3150601846403305   F   F   F
  0.6552059756456146  0.1260466862938543  0.3150601846403305   F   F   F
  0.6552570788408829  0.8758846061131820  0.3149041322638837   F   F   F
  0.6552570788408829  0.3758846061131820  0.3149041322638837   F   F   F
  0.6553002945392805  0.9989069639032442  0.4858555893520331   T   T   T
  0.6554052259801963  0.0012023099894023  0.3149218625060755   F   F   F
  0.6554052259801963  0.5012023099894023  0.3149218625060755   F   F   F
  0.6555053635084516  0.4992060757200132  0.4864649573476985   T   T   T
  0.0694073875162091  0.6306846864571956  0.5733136207147098   T   T   T
  0.0695072667204129  0.1305691766960869  0.5734015676194619   T   T   T
  0.7280048899450479  0.7619622255967270  0.5565120222228219   T   T   T
  0.7288386968240487  0.2621726651434662  0.5561594718989132   T   T   T
  0.7502453567154107  0.2508384616078837  0.3870371122862512   T   T   T
  0.7502376757803221  0.7509009027117278  0.3869790499084128   T   T   T
  0.7503837756312706  0.8759246053428527  0.1980143607002915   F   F   F
  0.7503837756312706  0.3759246053428527  0.1980143607002915   F   F   F
  0.7504065850415813  0.0010474442621131  0.1995662990185920   F   F   F
  0.7504065850415813  0.5010474442621131  0.1995662990185920   F   F   F
  0.7504116177228610  0.6259067547141299  0.1982016356247982   F   F   F
  0.7504116177228610  0.1259067547141299  0.1982016356247982   F   F   F
  0.7504539896523426  0.7509563452768688  0.1993173260006742   F   F   F
  0.7504539896523426  0.2509563452768688  0.1993173260006742   F   F   F
  0.7506658666425940  0.1258956936177973  0.3868638890756306   T   T   T
  0.7506039592225214  0.6259274239616934  0.3867031994470397   T   T   T
  0.7507960460442915  0.3761135764019079  0.3861004396546590   T   T   T
  0.7508786221604354  0.8761755497613506  0.3859340849279513   T   T   T
  0.7512325461351518  0.0008491757975630  0.3866880462047096   T   T   T
  0.7511637941658360  0.5008969546102544  0.3867600123648925   T   T   T
  0.7575121312374556  0.8822502486335561  0.5562935745549794   T   T   T
  0.7593376887229003  0.3825911941743330  0.5558049080776640   T   T   T
  0.7660254379105611  0.9972052492365230  0.5567016197837298   T   T   T
  0.7667975080188921  0.4972019365875467  0.5567253730638186   T   T   T
  0.7719312791825659  0.1382438907675673  0.5570010081423368   T   T   T
  0.7727317010970763  0.6388153755866892  0.5575017149408302   T   T   T
  0.0803386011404163  0.2411417556848634  0.5719976038220705   T   T   T
  0.0802187418285387  0.7415245200546814  0.5723862447756005   T   T   T
  0.8457971856104365  0.7508865770875488  0.3147238720130474   F   F   F
  0.8457971856104365  0.2508865770875488  0.3147238720130474   F   F   F
  0.8459094352758285  0.6257770200071491  0.3148105564777453   F   F   F
  0.8459094352758285  0.1257770200071491  0.3148105564777453   F   F   F
  0.8459894799777032  0.8758569369000710  0.3146601051453359   F   F   F
  0.8459894799777032  0.3758569369000710  0.3146601051453359   F   F   F
  0.8462370857983075  0.0009253177109869  0.3148622358114821   F   F   F
  0.8462370857983075  0.5009253177109869  0.3148622358114821   F   F   F
  0.8464968893189633  0.7541741349091667  0.4850781663761773   T   T   T
  0.8467172382686061  0.2541522422571064  0.4848400097592891   T   T   T
  0.8497994420733821  0.1249214377886651  0.4847612283518241   T   T   T
  0.8496285868514457  0.6249350771222889  0.4846732635633104   T   T   T
  0.8496300350047673  0.8728874558747683  0.4852191139333201   T   T   T
  0.8497955371746130  0.3730183325507642  0.4851729663670091   T   T   T
  0.8519683614143833  0.0009655631044844  0.4860496549898055   T   T   T
  0.8521278391758478  0.5010919600397936  0.4859295403980612   T   T   T
  0.0879517757310970  0.8613006556255579  0.5741452390003362   T   T   T
  0.0884042611829182  0.3613168166723236  0.5741782115174703   T   T   T
  0.8962469478022165  0.8698945917927351  0.5715424965717641   T   T   T
  0.8971286786727946  0.3693826129567675  0.5716112198528962   T   T   T
  0.8977532326749548  0.2479441957258847  0.5670828703297611   T   T   T
  0.8979118095281190  0.7485811567034780  0.5672348866805133   T   T   T
  0.9006622658143592  0.2504875657646836  0.4005228044346651   T   T   T
  0.9006202645781768  0.7504712327135100  0.4005962408281565   T   T   T
  0.9011459235119564  0.1256582287812679  0.4012008334881580   T   T   T
  0.9011042665591933  0.6257535342401807  0.4011046104203685   T   T   T
  0.9019027915059324  0.3759205223390253  0.4008045533851602   T   T   T
  0.9018856338786757  0.8758879996795579  0.4008867232772391   T   T   T
  0.9021787344488983  0.0005026120768128  0.4012924080770385   T   T   T
  0.9021368193494377  0.5005093363847268  0.4012016849020001   T   T   T
  0.9025689994235689  0.1057884975276282  0.5675280289824076   T   T   T
  0.9026872661216420  0.6061218361994938  0.5671418988743456   T   T   T
  0.9063370116785165  0.7509661375287990  0.2314450664875594   F   F   F
  0.9063370116785165  0.2509661375287990  0.2314450664875594   F   F   F
  0.9065036119825223  0.6258452416457985  0.2314281613274076   F   F   F
  0.9065036119825223  0.1258452416457985  0.2314281613274076   F   F   F
  0.9065431196901699  0.0009511492176983  0.2315080614196674   F   F   F
  0.9065431196901699  0.5009511492176983  0.2315080614196674   F   F   F
  0.9067333030259945  0.8759844438376305  0.2313964578368939   F   F   F
  0.9067333030259945  0.3759844438376305  0.2313964578368939   F   F   F
  0.9245380280443920  0.4830129690686813  0.5702840029834730   T   T   T
  0.9247483104403076  0.9828847133632438  0.5699700328530137   T   T   T
  0.0952407101582224  0.7510020395980561  0.2320892091881959   F   F   F
  0.0952407101582224  0.2510020395980561  0.2320892091881959   F   F   F
  0.0953260277450525  0.0008979764762245  0.2323666739458474   F   F   F
  0.0953260277450525  0.5008979764762245  0.2323666739458474   F   F   F
  0.0953735919394063  0.6258547564434522  0.2322437075234305   F   F   F
  0.0953735919394063  0.1258547564434522  0.2322437075234305   F   F   F
  0.0955543013107132  0.8759987254538473  0.2323923499085652   F   F   F
  0.0955543013107132  0.3759987254538473  0.2323923499085652   F   F   F
  0.0993709318270997  0.1252308083739437  0.4015979588697954   T   T   T
  0.0994124195478876  0.6252128627106042  0.4015691735998703   T   T   T
  0.0995282592402263  0.2508854449422864  0.4017206336884081   T   T   T
  0.0994849837972224  0.7509180229650626  0.4017381063459965   T   T   T
  0.9985459254088025  0.2504049024709581  0.4722815657164711   T   T   T
  0.9985367869185824  0.1244083758918081  0.4720244295564874   T   T   T
  0.9984162058482722  0.6243833407986817  0.4718692017955597   T   T   T
  0.9985063319001002  0.7504709426225057  0.4722801832201035   T   T   T
  0.1002810041926665  0.8755829773840051  0.4028705996151048   T   T   T
  0.1004055336288351  0.3755945897126586  0.4027930613944833   T   T   T
  0.1007313731714544  0.0011622940257869  0.4028319951957509   T   T   T
  0.1008238298083210  0.5011335653179568  0.4027175190619869   T   T   T
  0.1044841961077655  0.5003400939968541  0.5666671480208826   T   T   T
  0.1052217285077570  0.0000277991206536  0.5671541670206333   T   T   T
  0.1482531789793086  0.1283006282648212  0.4858853827494850   T   T   T
  0.1481383568445766  0.6283071670281480  0.4859410716716157   T   T   T
  0.1484022278446762  0.2459915088855762  0.4871360931306007   T   T   T
  0.1484228719314304  0.7459604151202335  0.4872069200090309   T   T   T
  0.1530987077218915  0.3764610276056769  0.4876726425989236   T   T   T
  0.1534332657150963  0.8764408404567899  0.4877960148568789   T   T   T
  0.1547367178297893  0.5015556221898156  0.4868825351991860   T   T   T
  0.1550157092565903  0.0015110640968922  0.4870827413249385   T   T   T
  0.1554278840897965  0.7509669489112838  0.3157714680232928   F   F   F
  0.1554278840897965  0.2509669489112767  0.3157714680232928   F   F   F
  0.1555300833018336  0.8760083006234964  0.3161854069282626   F   F   F
  0.1555300833018336  0.3760083006234964  0.3161854069282626   F   F   F
  0.1556347359045702  0.6258770940815310  0.3158690852351640   F   F   F
  0.1556347359045702  0.1258770940815310  0.3158690852351640   F   F   F
  0.1557688557010550  0.0008265358541948  0.3160543218953578   F   F   F
  0.1557688557010550  0.5008265358541948  0.3160543218953578   F   F   F
  0.2093236105066581  0.6125050210235876  0.5664031362153884   T   T   T
  0.2097471479784985  0.1118292030515026  0.5662013171129827   T   T   T
  0.2222810180602056  0.2490755623640851  0.5625269670735999   T   T   T
  0.2223776054776624  0.7495923078484351  0.5626556579910963   T   T   T
  0.2502026361787352  0.2512715560004595  0.3876659733646384   T   T   T
  0.2501731217339306  0.7512658004520225  0.3876772473568372   T   T   T
  0.2504551048557461  0.1254718985908336  0.3886504786198094   T   T   T
  0.2505019778028769  0.6255028304237022  0.3886668514814715   T   T   T
  0.2506886730670530  0.7509740783728773  0.1986783637654739   F   F   F
  0.2506886730670530  0.2509740783728773  0.1986783637654739   F   F   F
  0.2507303928573421  0.8760426103278647  0.2004520155719618   F   F   F
  0.2507303928573421  0.3760426103278647  0.2004520155719618   F   F   F
  0.2507787477911734  0.6260460958471867  0.2004465916827201   F   F   F
  0.2507787477911734  0.1260460958471867  0.2004465916827201   F   F   F
  0.2507842901460080  0.0010521164550710  0.1987081864626035   F   F   F
  0.2507842901460080  0.5010521164550710  0.1987081864626035   F   F   F
  0.2509047117345289  0.8755894103043097  0.3887493207231426   T   T   T
  0.2510314808219464  0.3756152074316900  0.3888085855713501   T   T   T
  0.2511067912382619  0.0013363344261060  0.3880121370512097   T   T   T
  0.2512626182401204  0.5012805158462843  0.3881297165257055   T   T   T
  0.2798528272714381  0.5010898946531420  0.5644140336493355   T   T   T
  0.2817461707996826  0.0000458213297372  0.5649087908790639   T   T   T
  0.2840479537538622  0.3660581222802682  0.5629921973384181   T   T   T
  0.2887000548746371  0.8651923950440461  0.5649017130264027   T   T   T
  0.3452817760196980  0.2520088238427989  0.4855547989567503   T   T   T
  0.3451811369918423  0.7519007399504909  0.4858689660532610   T   T   T
  0.3457709857389588  0.7509801434034244  0.3160634932646005   F   F   F
  0.3457709857389588  0.2509801434034244  0.3160634932646005   F   F   F
  0.3458124879654534  0.8762438730036024  0.3160546332285037   F   F   F
  0.3458124879654534  0.3762438730036024  0.3160546332285037   F   F   F
  0.3458692307014104  0.0011300682609701  0.3160825482309733   F   F   F
  0.3458692307014104  0.5011300682609701  0.3160825482309733   F   F   F
  0.3458914509224655  0.6260993829100983  0.3163092197569100   F   F   F
  0.3458914509224655  0.1260993829100983  0.3163092197569100   F   F   F
  0.3475611265924213  0.1267857984281009  0.4879664921649098   T   T   T
  0.3475865185258597  0.6270509011434449  0.4879139462686611   T   T   T
  0.3522036639428076  0.4972464907288007  0.4878336653239831   T   T   T
  0.3523115054660642  0.9970679292802249  0.4877821245157429   T   T   T
  0.3530369199030742  0.8785655386774750  0.4867985190992211   T   T   T
  0.3532437382003364  0.3780601047672326  0.4865168074604086   T   T   T
  0.3881224405914060  0.2537511746327516  0.5652528929958283   T   T   T
  0.3892867835799648  0.7539170358851925  0.5654256323834945   T   T   T
  0.4008758268374528  0.2516677698365171  0.4025014382468201   T   T   T
  0.4008489732129272  0.7517007161795358  0.4025770899436799   T   T   T
  0.4012612833288740  0.1259245537308389  0.4029494704524383   T   T   T
  0.4014653822500120  0.6259514980667074  0.4030499733515019   T   T   T
  0.4018403256211093  0.0016020536011912  0.4022457612794990   T   T   T
  0.4020707825362688  0.8757906820889132  0.4021281056743198   T   T   T
  0.4022086540066099  0.5016288168421943  0.4024398704246652   T   T   T
  0.4023535658706285  0.3758361802464784  0.4021494496014965   T   T   T
  0.4059113337573805  0.8760558925948985  0.2324750129594619   F   F   F
  0.4059113337573805  0.3760558925948985  0.2324750129594619   F   F   F
  0.4059234726022964  0.6261621252550071  0.2326545521246786   F   F   F
  0.4059234726022964  0.1261621252550071  0.2326545521246786   F   F   F
  0.4060644417929637  0.7510364413590125  0.2325227387887452   F   F   F
  0.4060644417929637  0.2510364413590125  0.2325227387887452   F   F   F
  0.4061374416245584  0.0011248655651599  0.2324172293308493   F   F   F
  0.4061374416245584  0.5011248655651599  0.2324172293308493   F   F   F
  0.4155832968263915  0.6149477070865995  0.5732360438474240   T   T   T
  0.4162602475007842  0.1138994640245867  0.5727014659555130   T   T   T
  0.4199745508150593  0.4983314914051529  0.5734632326598190   T   T   T
  0.4254034350334115  0.9952535538476129  0.5721023373756651   T   T   T
  0.4298102865698382  0.3832395851136369  0.5755610557061900   T   T   T
  0.4352147186119319  0.8885371382114660  0.5753182801652199   T   T   T
  0.4985316055323478  0.2516074649756431  0.4734096162870155   T   T   T
  0.4984768856029417  0.7520674759696754  0.4735548875637998   T   T   T
  0.5004630585837617  0.7510598909550410  0.3031888444713573   F   F   F
  0.5004630585837617  0.2510598909550410  0.3031888444713573   F   F   F
  0.5004977600090044  0.6261199205207575  0.3031516629609641   F   F   F
  0.5004977600090044  0.1261199205207575  0.3031516629609641   F   F   F
  0.5005209432535551  0.8761149809355189  0.3028206587442455   F   F   F
  0.5005209432535551  0.3761149809355189  0.3028206587442455   F   F   F
  0.5006083602757840  0.0011215981985515  0.3028334437431965   F   F   F
  0.5006083602757840  0.5011215981985515  0.3028334437431965   F   F   F
  0.5014660374064855  0.1270932726088079  0.4739815414791883   T   T   T
  0.5015978269681833  0.6272731977543807  0.4743298615904470   T   T   T
  0.5024806034381041  0.8770802086607598  0.4729691056217722   T   T   T
  0.5026346951725337  0.3769008338551563  0.4738994303297092   T   T   T
  0.5028801449677360  0.0017126308392277  0.4726760645335037   T   T   T
  0.5031059218542658  0.5017884911815640  0.4740132270518628   T   T   T
  0.0041902423995933  0.4969758552316882  0.5403527607473435   T   T   T
  0.0046483789140050  0.9971986878024433  0.5406349717494725   T   T   T
  0.6258379164698911  0.3002368246197180  0.5451997044515470   T   T   T
  0.6264615026217606  0.0680819954791951  0.5396924995806546   T   T   T
  0.6271482363970865  0.8004240726319682  0.5464497588279821   T   T   T
  0.6297880321219725  0.5684821578977655  0.5383141092716736   T   T   T
  0.6994783387015445  0.1883187486371361  0.5382588456155076   T   T   T
  0.6997113183180353  0.6877004879660713  0.5380812130120691   T   T   T
  0.8069411966226849  0.5665063194840101  0.5372064230352951   T   T   T
  0.8070370766088552  0.0659044977301376  0.5374342481943133   T   T   T
  0.8461753807953387  0.9367848886967729  0.5366841442225408   T   T   T
  0.8480990111402510  0.4366749901770698  0.5369409907200434   T   T   T
  0.8736967473342819  0.1764334377153023  0.5420584146159192   T   T   T
  0.8742878419188288  0.6772149730826194  0.5419954120838953   T   T   T
  0.9963548208529642  0.2536519914554343  0.5393651826813635   T   T   T
  0.9962620533109772  0.6156964339388211  0.5392882299835879   T   T   T
  0.9962543176623267  0.1153492343824259  0.5395437099187778   T   T   T
  0.9963176592027644  0.7537523491097234  0.5393742802351633   T   T   T
  0.1211091445973064  0.4281179865685920  0.5429611857623642   T   T   T
  0.1209655610315838  0.9280597692909036  0.5431573290690341   T   T   T
  0.1407726786717159  0.3018814777596365  0.5415649329627956   T   T   T
  0.1407274643643501  0.8021977133277255  0.5415142111951150   T   T   T
  0.2002763684561231  0.5416705701175553  0.5430303905747601   T   T   T
  0.2023396581493962  0.0405512294945609  0.5429370849318967   T   T   T
  0.2974301823590228  0.2949740154326491  0.5401546520011997   T   T   T
  0.2984627997961789  0.7947661362700330  0.5409153677421504   T   T   T
  0.3602259932271770  0.5561615678842936  0.5413861037744169   T   T   T
  0.3622789139037321  0.0544145136301958  0.5415355051136236   T   T   T
  0.3764434523667554  0.1791967675465821  0.5417061086788358   T   T   T
  0.3772554029428714  0.6796402540746508  0.5417906057004305   T   T   T
  0.4872297376103513  0.2523741851025868  0.5415077701371686   T   T   T
  0.4881876815779958  0.7525953964782031  0.5417136563209207   T   T   T
  0.5086942049679688  0.5010670447731490  0.5414613301379855   T   T   T
  0.5094013493696946  0.9983106754974810  0.5399642393649098   T   T   T
  0.5111358006829211  0.8827695750503836  0.5405199140188434   T   T   T
  0.5117816606965815  0.3829726096591944  0.5412635722720981   T   T   T
  0.0003551668382655  0.1255473963904001  0.3691311027837077   T   T   T
  0.0004597210155445  0.2508865596903823  0.3689971461863377   T   T   T
  0.0003811612281776  0.6255880927673106  0.3691200701572842   T   T   T
  0.0004109596310525  0.7508954282985055  0.3690002009789730   T   T   T
  0.0010343750342656  0.7509675273691911  0.1970340395507222   F   F   F
  0.0010343750342656  0.2509675273691911  0.1970340395507222   F   F   F
  0.0013074606674977  0.0009931951008113  0.1970949867046485   F   F   F
  0.0013074606674977  0.5009931951008113  0.1970949867046485   F   F   F
  0.0014056432322107  0.6258753569951239  0.1970772590869743   F   F   F
  0.0014056432322107  0.1258753569951239  0.1970772590869743   F   F   F
  0.0016300205284878  0.8760244032474702  0.1970602374639512   F   F   F
  0.0016300205284878  0.3760244032474702  0.1970602374639512   F   F   F
  0.0017476064843013  0.3758085313449187  0.3694131427734809   T   T   T
  0.0016544751558087  0.8757890903439700  0.3694334344137850   T   T   T
  0.0018529253827418  0.0006043025708520  0.3696091674097586   T   T   T
  0.0018751699128627  0.5005934818823806  0.3695850389583075   T   T   T
  0.5828489970288615  0.8134981673875430  0.2835797008416634   F   F   F
  0.5828489970288615  0.3134981673875430  0.2835797008416634   F   F   F
  0.5829043521053947  0.6885407361734863  0.2836251512160501   F   F   F
  0.5829043521053947  0.1885407361734863  0.2836251512160501   F   F   F
  0.5829602019462925  0.4385545752758304  0.2833243807611936   F   F   F
  0.5829602019462925  0.9385545752758304  0.2833243807611936   F   F   F
  0.5830265959005345  0.5635893986773652  0.2835447360626375   F   F   F
  0.5830265959005345  0.0635893986773652  0.2835447360626375   F   F   F
  0.5842470356416675  0.1888538187661903  0.4535052514542259   T   T   T
  0.5843362290115595  0.3141868716651506  0.4553428196245827   T   T   T
  0.5843423887535625  0.6894902444680759  0.4537329250704009   T   T   T
  0.5844453020589068  0.8146718916169685  0.4552676584768667   T   T   T
  0.5856807087889018  0.9390762574525403  0.4525774362371634   T   T   T
  0.5858718077037868  0.4388540477861758  0.4534179213805712   T   T   T
  0.5865000043820520  0.0632094915753365  0.4534162158919920   T   T   T
  0.5866032148971362  0.5634804231715154  0.4538042053817299   T   T   T
  0.6662453414939336  0.5635923628994988  0.2021068355520654   F   F   F
  0.6662453414939336  0.0635923628994988  0.2021068355520654   F   F   F
  0.6663404610475681  0.8134949072998268  0.2022484366903115   F   F   F
  0.6663404610475681  0.3134949072998268  0.2022484366903115   F   F   F
  0.6663750951053373  0.6883939277525641  0.2022233082671292   F   F   F
  0.6663750951053373  0.1883939277525641  0.2022233082671292   F   F   F
  0.6663864277493872  0.4383644600106251  0.2021335334354930   F   F   F
  0.6663864277493872  0.9383644600106251  0.2021335334354930   F   F   F
  0.6680844290032237  0.3135668572696972  0.3679537394946618   T   T   T
  0.6680923332509165  0.6887134085561104  0.3677121202413271   T   T   T
  0.6681105589697296  0.8135586420438170  0.3678866679719863   T   T   T
  0.6682452417985595  0.1886362809869140  0.3676942301094664   T   T   T
  0.6685699632889661  0.4385588665411511  0.3672971781614220   T   T   T
  0.6685767727654636  0.5636581371989258  0.3676149627191356   T   T   T
  0.6687533343752835  0.9385667949005804  0.3669706157966546   T   T   T
  0.6688158886980662  0.0636577984211068  0.3675046159989826   T   T   T
  0.6760095807783368  0.9358922781966934  0.5401367198175383   T   T   T
  0.6798264771079815  0.4365296835968370  0.5396292404471157   T   T   T
  0.7476941983232211  0.2519721535039729  0.4552057443617068   T   T   T
  0.7475765581509627  0.7522033589768989  0.4551901409014592   T   T   T
  0.7501730562611186  0.7507079098083409  0.2774330469442816   F   F   F
  0.7501730562611186  0.2507079098083409  0.2774330469442816   F   F   F
  0.7502979448429494  0.1257417050281658  0.4549424895025252   T   T   T
  0.7504750055418299  0.6259680682551618  0.2773981497465243   F   F   F
  0.7504750055418299  0.1259680682551618  0.2773981497465243   F   F   F
  0.7505173338481086  0.8759365097582545  0.2770578193141517   F   F   F
  0.7505173338481086  0.3759365097582545  0.2770578193141517   F   F   F
  0.7505038282213730  0.6263092934442418  0.4546161751460068   T   T   T
  0.7507337004896470  0.0010587017123740  0.2774432067716575   F   F   F
  0.7507337004896470  0.5010587017123740  0.2774432067716575   F   F   F
  0.7513252598006017  0.3755295050889764  0.4537382277902872   T   T   T
  0.7515143830921867  0.8756158657645881  0.4535506368193665   T   T   T
  0.7537690383631934  0.5003653250542724  0.4546726946301047   T   T   T
  0.7538195320487552  0.0006404166840874  0.4546213104517846   T   T   T
  0.0813549733646648  0.1876788392338725  0.4526471456102536   T   T   T
  0.0812329282894197  0.6876789652516149  0.4526289512493122   T   T   T
  0.8264242688975991  0.8146948181509708  0.5405737946877474   T   T   T
  0.8275536641518498  0.3140127348118444  0.5403746540138393   T   T   T
  0.8323363226042058  0.3133130805203730  0.3669558893224286   T   T   T
  0.8323702589279609  0.1882329651860953  0.3671074675158082   T   T   T
  0.8323296003471855  0.8133262434832679  0.3669756980273178   T   T   T
  0.8323466909204709  0.6882655125484545  0.3670833096166771   T   T   T
  0.8328843832327757  0.0632830154618862  0.3673559175996657   T   T   T
  0.8329228565483250  0.5633125677932402  0.3672754784136771   T   T   T
  0.8332345231052714  0.4383017184920423  0.3671679437134501   T   T   T
  0.8333032105511453  0.9383138814200381  0.3671395779928222   T   T   T
  0.8344344719226058  0.6883603527882158  0.2020465356692611   F   F   F
  0.8344344719226058  0.1883603527882158  0.2020465356692611   F   F   F
  0.8344691253071090  0.4383027932291981  0.2021423465583752   F   F   F
  0.8344691253071090  0.9383027932291981  0.2021423465583752   F   F   F
  0.8345236995836203  0.8136019065986346  0.2020593032807980   F   F   F
  0.8345236995836203  0.3136019065986346  0.2020593032807980   F   F   F
  0.8345432068835521  0.5635442939465207  0.2020614199525141   F   F   F
  0.8345432068835521  0.0635442939465207  0.2020614199525141   F   F   F
  0.0835181835032017  0.8134609632527869  0.2839000862688721   F   F   F
  0.0835181835032017  0.3134609632527869  0.2839000862688721   F   F   F
  0.0836480050342630  0.5633752300961916  0.2839758639034855   F   F   F
  0.0836480050342630  0.0633752300961916  0.2839758639034855   F   F   F
  0.0836768758602418  0.6884091217994310  0.2837888281379435   F   F   F
  0.0836768758602418  0.1884091217994310  0.2837888281379435   F   F   F
  0.0836920180794749  0.4383888699923588  0.2841732146708722   F   F   F
  0.0836920180794749  0.9383888699923588  0.2841732146708722   F   F   F
  0.0848452801417553  0.3125566281739584  0.4547029971907184   T   T   T
  0.0848619692018080  0.8125753751260781  0.4547560308453726   T   T   T
  0.0855859571022080  0.0635574301503376  0.4552810615610171   T   T   T
  0.0854774502287170  0.5635478429501762  0.4551463215534861   T   T   T
  0.0860667239992689  0.4381428837107807  0.4549856071666580   T   T   T
  0.0862228211878404  0.9381197089149603  0.4551435711126374   T   T   T
  0.9146915461770349  0.1887013112473734  0.4537100427776502   T   T   T
  0.9146005061929343  0.6887234111522608  0.4537578172116840   T   T   T
  0.9167612500549982  0.3125221286100479  0.4517834967564543   T   T   T
  0.9167568322990872  0.8124728586668951  0.4518738696419564   T   T   T
  0.9172354375054360  0.5627582047753347  0.4528551411603605   T   T   T
  0.9174897902122758  0.0626918742620855  0.4529755308065493   T   T   T
  0.9179034619518571  0.9375714551115524  0.4535041508993658   T   T   T
  0.9179510274248641  0.4376011614246834  0.4535024903333424   T   T   T
  0.9181839152478091  0.6884040565462470  0.2831378587445599   F   F   F
  0.9181839152478091  0.1884040565462470  0.2831378587445599   F   F   F
  0.9183594213103916  0.8134327656776748  0.2832265145484243   F   F   F
  0.9183594213103916  0.3134327656776748  0.2832265145484243   F   F   F
  0.9184058656586132  0.5633566590711467  0.2833389507587185   F   F   F
  0.9184058656586132  0.0633566590711467  0.2833389507587185   F   F   F
  0.9185001265531056  0.4384185648785746  0.2832681567508857   F   F   F
  0.9185001265531056  0.9384185648785746  0.2832681567508857   F   F   F
  0.9913406782282768  0.8662186971836144  0.5418377667427094   T   T   T
  0.9920669700928256  0.3660693319467509  0.5417257500552229   T   T   T
  0.1522979093674865  0.6803538266457463  0.5437521919944456   T   T   T
  0.1532083360470042  0.1793675528426371  0.5438944388709616   T   T   T
  0.1667765378554549  0.5633392265506032  0.2026421323795375   F   F   F
  0.1667765378554549  0.0633392265506032  0.2026421323795375   F   F   F
  0.1668059973185052  0.6886073834303943  0.2025943133799615   F   F   F
  0.1668059973185052  0.1886073834303943  0.2025943133799615   F   F   F
  0.1668155121452699  0.8133424731509606  0.2025799106952988   F   F   F
  0.1668155121452699  0.3133424731509606  0.2025799106952988   F   F   F
  0.1668272738427916  0.4386259927766716  0.2026791524822329   F   F   F
  0.1668272738427916  0.9386259927766716  0.2026791524822329   F   F   F