Ru Ta  N  Cu                            
   1.00000000000000     
    18.1096308199999996    0.0000000000000000    0.0000000000000000
     0.0000000000000000   23.3551997799999995    0.0000000000000000
     0.0000000000000000    0.0000000000000000   30.4818170799999990
   Ru   Ta   N    Cu
    64   240   240     3
Selective dynamics
Direct
  0.0683444270149825  0.0043887158501357  0.5338834028926082   T   T   T
  0.2323230899366165  0.5025482560714328  0.5269389132602283   T   T   T
  0.4419509973508219  0.0629966968378289  0.5193279281403707   T   T   T
  0.0665401015386445  0.2553319622168685  0.5335358834173098   T   T   T
  0.2867934599162357  0.2462746632241716  0.5247854518937890   T   T   T
  0.4429171380454170  0.3106079381956591  0.5203273707545292   T   T   T
  0.0683123920295690  0.1168835625003989  0.5336648943842219   T   T   T
  0.2878858429161151  0.1290110643132188  0.5242467501919992   T   T   T
  0.4464577791205108  0.1865626927961209  0.5211348386015001   T   T   T
  0.0657422886051089  0.3689507837456510  0.5331752142658812   T   T   T
  0.2843841496302336  0.3802791488095726  0.5267800063775582   T   T   T
  0.4346792806696155  0.4371994849738125  0.5201775320570006   T   T   T
  0.1727695044773907  0.4177741518656098  0.5592116549085098   T   T   T
  0.1845832654938840  0.3041053232652032  0.5501143027841893   T   T   T
  0.1751485094901989  0.1827461166503698  0.5484649776610753   T   T   T
  0.1879776823924818  0.0630673179211729  0.5498668433929368   T   T   T
  0.0802275204786919  0.5061479846165833  0.5344926395135773   T   T   T
  0.2874227201491694  0.9973183569842521  0.5242382891995367   T   T   T
  0.4459549751521975  0.5618653521536829  0.5215987580382249   T   T   T
  0.0698250175299950  0.7530508381916186  0.5330194415625331   T   T   T
  0.2915767414673739  0.7507634765651917  0.5229697642213903   T   T   T
  0.4445095886966965  0.8133216280106039  0.5195864236402373   T   T   T
  0.0691478302306661  0.6198311046967354  0.5334695929043174   T   T   T
  0.2918142393317494  0.6269967954837037  0.5249977621347703   T   T   T
  0.4523821740315220  0.6893032972925792  0.5221518123862862   T   T   T
  0.0690025872074178  0.8662988856722798  0.5338361594571149   T   T   T
  0.2884807793074105  0.8789596011798542  0.5240267284959642   T   T   T
  0.4463287550746038  0.9377501376777354  0.5214061426803331   T   T   T
  0.1768783121340194  0.9379088949233932  0.5478722456363849   T   T   T
  0.1889628099008323  0.8188488300416993  0.5506141942902522   T   T   T
  0.1824160240318114  0.6965506931635650  0.5470494924971219   T   T   T
  0.1855660669742862  0.5887750765152353  0.5637675021072344   T   T   T
  0.5684193355955326  0.0051333972075191  0.5333033278862779   T   T   T
  0.7915545548423931  0.4976569471497083  0.5238430445980369   T   T   T
  0.9407257293880492  0.0626792121252952  0.5192702810828118   T   T   T
  0.5700188095520914  0.2468841475250671  0.5343089416903740   T   T   T
  0.7843845029618373  0.2462711724479925  0.5252559271646994   T   T   T
  0.9415780659959445  0.3100815574261976  0.5197464959871144   T   T   T
  0.5658039203440328  0.1157910389156747  0.5330386478438112   T   T   T
  0.7885001912987570  0.1213974272954486  0.5244247859615356   T   T   T
  0.9437023371103941  0.1874588215914912  0.5212887231977884   T   T   T
  0.5702660755715950  0.3558816968586264  0.5343755153028139   T   T   T
  0.7910326404731267  0.3777071522785678  0.5239891115196172   T   T   T
  0.9513704710280981  0.4353206115435480  0.5224110724638876   T   T   T
  0.6789645854159104  0.4370717206493547  0.5472049303962960   T   T   T
  0.6904196009700143  0.3182529973315834  0.5523284718562578   T   T   T
  0.6784163854414391  0.1861398357466939  0.5480059009302768   T   T   T
  0.6834802168694442  0.0684862245051564  0.5524057535202679   T   T   T
  0.5748037453614524  0.5219430954764746  0.5347832120955033   T   T   T
  0.7816809021821243  0.0005412989876397  0.5257554821842293   T   T   T
  0.9515854546707473  0.5626562133060042  0.5208810610863851   T   T   T
  0.5684103629434423  0.7596444743762649  0.5322024058708160   T   T   T
  0.7905640880081224  0.7537020368625651  0.5234392407802928   T   T   T
  0.9432700074381667  0.8167281927416257  0.5198092921269918   T   T   T
  0.5728252020695719  0.6313311405071765  0.5339768612930575   T   T   T
  0.7892146202012656  0.6292866674297615  0.5245157001823942   T   T   T
  0.9519559642486708  0.6856831058795541  0.5217377236602003   T   T   T
  0.5711623845137780  0.8708186986527667  0.5337414216680457   T   T   T
  0.7824496625619890  0.8765756523374776  0.5256469191703332   T   T   T
  0.9458427146822076  0.9375419146674630  0.5207795048803586   T   T   T
  0.6750038776165123  0.9384245905552920  0.5485486067158979   T   T   T
  0.6861585635333325  0.8064698807952542  0.5527491729151144   T   T   T
  0.6829738210649002  0.6904100272701803  0.5475967293373841   T   T   T
  0.6946446551826513  0.5588109202654549  0.5520892246041628   T   T   T
  0.9996246524628063  0.9999635445867767  0.1022212275957983   F   F   F
  0.3339438256838960  0.0624457813299060  0.1075563970202325   F   F   F
  0.1656734882889026  0.0624869619810369  0.1076523577670159   F   F   F
  0.2496380332605455  0.1248777014917124  0.1827535963680589   F   F   F
  0.0820753910794778  0.0624168821917976  0.1887361965005994   F   F   F
  0.4168249566545654  0.0624128089775482  0.1889653308070223   F   F   F
  0.0002646723969264  0.1249031987376333  0.2747412302914410   T   T   T
  0.3320721086525966  0.0624433382952231  0.2731703762488247   T   T   T
  0.1677469979702139  0.0624134983759685  0.2727962789045314   T   T   T
  0.2492388570710428  0.1249233585077222  0.3596332023604804   T   T   T
  0.0839253129255945  0.0624084835749533  0.3592038256383424   T   T   T
  0.4162720889667576  0.0625234211523380  0.3589398705527863   T   T   T
  0.4952811724075580  0.1252252242688868  0.4439999535607901   T   T   T
  0.3324744638343968  0.0624697837657350  0.4450099521215726   T   T   T
  0.1657567759223739  0.0622578771724962  0.4474540204246644   T   T   T
  0.9996175425524214  0.1249358288969233  0.1022184789678420   F   F   F
  0.3339435537114426  0.1874256191358299  0.1075504356733603   F   F   F
  0.1656688965935942  0.1874633245330628  0.1076544484778310   F   F   F
  0.2496428192825420  0.2499248694537357  0.1827745152021549   F   F   F
  0.0820483011947246  0.1874164370395803  0.1887315368489411   F   F   F
  0.4168235962087010  0.1874178821048673  0.1889761876915443   F   F   F
  0.0001857255291801  0.2498899130026605  0.2747519995849547   T   T   T
  0.3321123697862426  0.1874726873311094  0.2732328894735321   T   T   T
  0.1677190809163424  0.1874315141567143  0.2728404621557289   T   T   T
  0.2491194800001231  0.2500202241481052  0.3596739334764303   T   T   T
  0.0837565549248377  0.1873225181296030  0.3593853993481300   T   T   T
  0.4160193354263620  0.1876216637656333  0.3588752307200564   T   T   T
  0.4956607213361442  0.2496360458194370  0.4443931288379637   T   T   T
  0.3322140055054217  0.1873601974907830  0.4438762575228273   T   T   T
  0.1641242248094534  0.1871308218462031  0.4481172631692957   T   T   T
  0.9996247444640574  0.2499647011854407  0.1022230082490267   F   F   F
  0.3339438339619036  0.3124448417397900  0.1075557633545969   F   F   F
  0.1656741876920407  0.3124866150128511  0.1076519504247102   F   F   F
  0.2496342491082189  0.3748782083517597  0.1827543288382500   F   F   F
  0.0820773763724816  0.3124181279228466  0.1887355922833933   F   F   F
  0.4168238893201348  0.3124134579098339  0.1889644027201030   F   F   F
  0.0000083090007523  0.3748330575141011  0.2747175565665042   T   T   T
  0.3320843617294955  0.3124822775846948  0.2732293940475757   T   T   T
  0.1676348121694953  0.3124115863548866  0.2728558735622806   T   T   T
  0.2495086735411867  0.3749270088956181  0.3596198178309903   T   T   T
  0.0836137217839213  0.3122458349435380  0.3593188795769878   T   T   T
  0.4160080014131886  0.3127040120349342  0.3592916258599834   T   T   T
  0.4966662365207731  0.3747958378070483  0.4444383529814641   T   T   T
  0.3317469441412422  0.3122210312785971  0.4454415726410171   T   T   T
  0.1650792138196305  0.3122515994813679  0.4475805033637722   T   T   T
  0.9996196554118555  0.3749345235867736  0.1022175688270863   F   F   F
  0.3339389444248013  0.4374272239936090  0.1075500232538360   F   F   F
  0.1656692123176882  0.4374660331456823  0.1076535614342404   F   F   F
  0.2496367764464793  0.9999279799998888  0.1827742299965678   F   F   F
  0.0820476334098430  0.4374171254006285  0.1887298800136392   F   F   F
  0.4168193524269412  0.4374154383080295  0.1889763507298241   F   F   F
  0.5001958557439242  0.4999236172263042  0.2748560213632613   T   T   T
  0.3321697501171227  0.4374196427816558  0.2732478480134463   T   T   T
  0.1675949101991322  0.4374053339635184  0.2728599432165412   T   T   T
  0.2498487842485518  0.4998197901671423  0.3593959181940618   T   T   T
  0.0830759557586459  0.4372179975542207  0.3590582818824539   T   T   T
  0.4160933156081872  0.4375574007891002  0.3594554943678430   T   T   T
  0.4970583229391872  0.4998497538648153  0.4447193682009341   T   T   T
  0.3328922419899785  0.4375916223492627  0.4462091951270213   T   T   T
  0.1647269874858655  0.4372768836229585  0.4453762016210161   T   T   T
  0.9996246524628063  0.4999635445867767  0.1022212275957983   F   F   F
  0.3339438256838960  0.5624457813299060  0.1075563970202325   F   F   F
  0.1656734882889026  0.5624869619810369  0.1076523577670159   F   F   F
  0.2496380332605455  0.6248777014917124  0.1827535963680589   F   F   F
  0.0820753910794778  0.5624168821917976  0.1887361965005994   F   F   F
  0.4168249566545654  0.5624128089775482  0.1889653308070223   F   F   F
  0.0000067462778057  0.6249499289272922  0.2747456874767832   T   T   T
  0.3322314802060065  0.5623799343671312  0.2732802617553153   T   T   T
  0.1675820682782885  0.5623953601482726  0.2728377239729343   T   T   T
  0.2498040569707899  0.6248017955386950  0.3596184891202047   T   T   T
  0.0830397684861409  0.5624239673398352  0.3590229206000297   T   T   T
  0.4162756514943842  0.5622634754455397  0.3595608189272964   T   T   T
  0.4939943071304683  0.6254278103039357  0.4454702108169861   T   T   T
  0.3322421837462911  0.5621356758702841  0.4460222306528765   T   T   T
  0.1648491348382787  0.5618253006706676  0.4445762146498899   T   T   T
  0.9996175425524214  0.6249358288969233  0.1022184789678420   F   F   F
  0.3339435537114426  0.6874256191358228  0.1075504356733603   F   F   F
  0.1656688965935942  0.6874633245330557  0.1076544484778310   F   F   F
  0.2496428192825420  0.7499248694537357  0.1827745152021549   F   F   F
  0.0820483011947246  0.6874164370395732  0.1887315368489411   F   F   F
  0.4168235962087010  0.6874178821048602  0.1889761876915443   F   F   F
  0.0001815762622784  0.7498866530755622  0.2747538581795844   T   T   T
  0.3323300976264432  0.6873275271962441  0.2733698822652837   T   T   T
  0.1676530828163302  0.6873765020742216  0.2728716674185941   T   T   T
  0.2495566171522354  0.7499146433169669  0.3596889983917323   T   T   T
  0.0834853827509981  0.6874813364202668  0.3594087701258218   T   T   T
  0.4162408501469514  0.6872615567769601  0.3594141013220192   T   T   T
  0.4928496111177171  0.7499862776224827  0.4452847524331085   T   T   T
  0.3315300984924848  0.6872187724323352  0.4445344446409485   T   T   T
  0.1643931064496542  0.6873000696781972  0.4475541690247017   T   T   T
  0.9996247444640574  0.7499647011854407  0.1022230082490267   F   F   F
  0.3339438339619036  0.8124448417397900  0.1075557633545969   F   F   F
  0.1656741876920407  0.8124866150128511  0.1076519504247102   F   F   F
  0.2496342491082189  0.8748782083517597  0.1827543288382500   F   F   F
  0.0820773763724816  0.8124181279228466  0.1887355922833933   F   F   F
  0.4168238893201348  0.8124134579098339  0.1889644027201030   F   F   F
  0.0002831668875676  0.8749070029467126  0.2747387500419409   T   T   T
  0.3321980172898986  0.8123401975522762  0.2732524793350418   T   T   T
  0.1677733880205589  0.8123514254477059  0.2728359088482322   T   T   T
  0.2494017851574138  0.8748877891244796  0.3596019576026779   T   T   T
  0.0838122220319062  0.8124238530481938  0.3592039472926697   T   T   T
  0.4164653808759575  0.8123538220344784  0.3591597985506600   T   T   T
  0.4955263360420675  0.8753778448710225  0.4444901160144082   T   T   T
  0.3321268742617988  0.8130093214962674  0.4446868789312334   T   T   T
  0.1654649677105527  0.8125711216076726  0.4470313356384983   T   T   T
  0.9996196554118555  0.8749345235867736  0.1022175688270863   F   F   F
  0.3339389444248013  0.9374272239936019  0.1075500232538360   F   F   F
  0.1656692123176882  0.9374660331456752  0.1076535614342404   F   F   F
  0.2496367764464793  0.4999279799998888  0.1827742299965678   F   F   F
  0.0820476334098430  0.9374171254006214  0.1887298800136392   F   F   F
  0.4168193524269412  0.9374154383080224  0.1889763507298241   F   F   F
  0.5002698347637902  0.9999338112771137  0.2747141217707537   T   T   T
  0.3321756527289007  0.9373843915450912  0.2732349778503035   T   T   T
  0.1677841685355972  0.9373819100742260  0.2728073144723234   T   T   T
  0.2492960310849679  0.0000056444529425  0.3596271691718553   T   T   T
  0.0838742712632390  0.9374236181372795  0.3592629126486446   T   T   T
  0.4163445349600888  0.9374957651484814  0.3588020628374179   T   T   T
  0.4954661975893545  0.9998722931617621  0.4443101876997079   T   T   T
  0.3324817435803841  0.9376531040872830  0.4437366567773680   T   T   T
  0.1642998664259449  0.9373975824194543  0.4480086617628070   T   T   T
  0.4996261485864011  0.9999638794554073  0.1022212895025945   F   F   F
  0.8339437371848675  0.0624482785398897  0.1075580759875550   F   F   F
  0.6656689243728380  0.0624780056916450  0.1076592327669417   F   F   F
  0.7496377014008289  0.1248750966894079  0.1827574333080477   F   F   F
  0.5820735458319604  0.0624174442172745  0.1887352315057669   F   F   F
  0.9168252921289621  0.0624138005358219  0.1889639379559043   F   F   F
  0.5002444001953305  0.1249826167896107  0.2747401505921476   T   T   T
  0.8320949060404185  0.0624198117841756  0.2731421777833534   T   T   T
  0.6677121686082337  0.0624223616966156  0.2728144036508537   T   T   T
  0.7492862992056870  0.1247942718404677  0.3595729943233421   T   T   T
  0.5837082390419931  0.0624566535253546  0.3590768957285064   T   T   T
  0.9161705173783956  0.0623748057952488  0.3589634723083069   T   T   T
  0.9961445214487439  0.1249963502929483  0.4439826218520659   T   T   T
  0.8327368642162969  0.0624129701665127  0.4450393614305799   T   T   T
  0.6653326130738574  0.0623908495214815  0.4468084909707937   T   T   T
  0.4996213536236240  0.1249348955726433  0.1022183024833154   F   F   F
  0.8339388961320680  0.1874236234033546  0.1075519903559652   F   F   F
  0.6656669566206190  0.1874574838225769  0.1076541056651124   F   F   F
  0.7496375557706187  0.2499211919418656  0.1827775726101990   F   F   F
  0.5820467926301731  0.1874136002736648  0.1887331258771638   F   F   F
  0.9168211714113710  0.1874148173649246  0.1889752459503455   F   F   F
  0.5001774718466150  0.2500433945857930  0.2747876415358765   T   T   T
  0.8320851814638565  0.1874302331702449  0.2731997151216514   T   T   T
  0.6676495652232398  0.1874512589032331  0.2728522506495387   T   T   T
  0.7492043175867240  0.2499025738167671  0.3596853013628601   T   T   T
  0.5835891242614224  0.1875047825231134  0.3593587386589400   T   T   T
  0.9160502667294078  0.1873559841411579  0.3589103470063578   T   T   T
  0.9953393472510638  0.2494751288710332  0.4440826735019055   T   T   T
  0.8316679499422753  0.1872165656725467  0.4443550844654226   T   T   T
  0.6643902343529432  0.1870606708307724  0.4479189777319754   T   T   T
  0.4996265847195431  0.2499624135589542  0.1022211658925301   F   F   F
  0.8339432913754052  0.3124470264806618  0.1075580597257542   F   F   F
  0.6656786166489255  0.3124812578813660  0.1076589101753385   F   F   F
  0.7496359798815462  0.3748756411498491  0.1827578042801292   F   F   F
  0.5820751330297256  0.3124154754956550  0.1887345581865603   F   F   F
  0.9168256971425777  0.3124110138011744  0.1889624020058491   F   F   F
  0.5001705236378746  0.3750525373185064  0.2748446571698723   T   T   T
  0.8320359790159342  0.3124449181597991  0.2732570625045601   T   T   T
  0.6676414872771986  0.3124709839048359  0.2729064687650405   T   T   T
  0.7491361912859885  0.3748983848992638  0.3598564374118459   T   T   T
  0.5837495880275935  0.3124541819445195  0.3594115219074298   T   T   T
  0.9161441768126733  0.3123111861031612  0.3591542220942210   T   T   T
  0.9943032004160808  0.3745705510765172  0.4451211037458028   T   T   T
  0.8320755988145427  0.3120734366195607  0.4452408789208005   T   T   T
  0.6651889845349570  0.3123071182650451  0.4474425494065745   T   T   T
  0.4996231203952064  0.3749337364865255  0.1022171720136171   F   F   F
  0.8339311317052278  0.4374224703005467  0.1075522038351053   F   F   F
  0.6656706818776428  0.4374574332997483  0.1076540871022118   F   F   F
  0.7496383104150084  0.9999213865668750  0.1827756388646549   F   F   F
  0.5820474546648100  0.4374150382907018  0.1887310280212660   F   F   F
  0.9168210958579976  0.4374163027642837  0.1889749839040178   F   F   F
 -0.0001501562464000  0.4999159948385904  0.2747018133260200   T   T   T
  0.8321678735082192  0.4374295053635535  0.2733979745897777   T   T   T
  0.6676884248998096  0.4374692696694293  0.2730071482496110   T   T   T
  0.7493918671751137  0.5000342789889414  0.3599490804196873   T   T   T
  0.5838351759542376  0.4374921421969734  0.3597781833831670   T   T   T
  0.9164461105235586  0.4373710202065280  0.3592654638842896   T   T   T
  0.9944931005518275  0.4994179238063954  0.4461874371893956   T   T   T
  0.8322712178141085  0.4371943840575864  0.4439949642267465   T   T   T
  0.6636346653572452  0.4374106875293209  0.4489347733420881   T   T   T
  0.4996261485864011  0.4999638794554073  0.1022212895025945   F   F   F
  0.8339437371848675  0.5624482785398897  0.1075580759875550   F   F   F
  0.6656689243728380  0.5624780056916450  0.1076592327669417   F   F   F
  0.7496377014008289  0.6248750966894079  0.1827574333080477   F   F   F
  0.5820735458319604  0.5624174442172745  0.1887352315057669   F   F   F
  0.9168252921289621  0.5624138005358219  0.1889639379559043   F   F   F
  0.5001319896287703  0.6248033630413451  0.2748338450955101   T   T   T
  0.8321724058369339  0.5623921428435126  0.2733807912748380   T   T   T
  0.6676710358191330  0.5624314423976895  0.2729773359263873   T   T   T
  0.7498050770103382  0.6249958446129074  0.3598888644102775   T   T   T
  0.5838187089849605  0.5625081159762617  0.3596048389328140   T   T   T
  0.9164389740261085  0.5624371436992596  0.3595054620839036   T   T   T
  0.9943215404121978  0.6249017154547410  0.4454370423678202   T   T   T
  0.8324967472051745  0.5624208657422310  0.4455106451362562   T   T   T
  0.6652805065254359  0.5626515516137369  0.4473955806432317   T   T   T
  0.4996213536236240  0.6249348955726433  0.1022183024833154   F   F   F
  0.8339388961320680  0.6874236234033475  0.1075519903559652   F   F   F
  0.6656669566206190  0.6874574838225698  0.1076541056651124   F   F   F
  0.7496375557706187  0.7499211919418656  0.1827775726101990   F   F   F
  0.5820467926301731  0.6874136002736577  0.1887331258771638   F   F   F
  0.9168211714113710  0.6874148173649175  0.1889752459503455   F   F   F
  0.5001834285243277  0.7498304037228618  0.2747784899963260   T   T   T
  0.8322633860518032  0.6873636745201358  0.2733404158155068   T   T   T
  0.6676737917209957  0.6873818950127537  0.2729415212962832   T   T   T
  0.7497890485000459  0.7500993118023627  0.3596791281757272   T   T   T
  0.5836949173897383  0.6874439122563062  0.3595553111728496   T   T   T
  0.9162667522366764  0.6874679243344710  0.3593728241186457   T   T   T
  0.9942657668180338  0.7501574796392009  0.4451137970423892   T   T   T
  0.8326830235508512  0.6877670010694477  0.4448739321567993   T   T   T
  0.6649592618115401  0.6880267756053492  0.4475102856725290   T   T   T
  0.4996265847195431  0.7499624135589542  0.1022211658925301   F   F   F
  0.8339432913754052  0.8124470264806618  0.1075580597257542   F   F   F
  0.6656786166489255  0.8124812578813660  0.1076589101753385   F   F   F
  0.7496359798815462  0.8748756411498491  0.1827578042801292   F   F   F
  0.5820751330297256  0.8124154754956550  0.1887345581865603   F   F   F
  0.9168256971425777  0.8124110138011744  0.1889624020058491   F   F   F
  0.5002467189331504  0.8748751672586030  0.2747244603662020   T   T   T
  0.8322107872387218  0.8123556047963731  0.2732142808863111   T   T   T
  0.6677502604027512  0.8123668117506766  0.2728494066541713   T   T   T
  0.7494988039422041  0.8749689952573111  0.3595563324920843   T   T   T
  0.5836669935874172  0.8124430530479079  0.3591452309771938   T   T   T
  0.9163679258894027  0.8125229473057338  0.3590916993934721   T   T   T
  0.9963083059695184  0.8755724570751721  0.4437993589959817   T   T   T
  0.8329431633635319  0.8128362910329601  0.4450270789418615   T   T   T
  0.6656744178420397  0.8127988062267102  0.4465016129267773   T   T   T
  0.4996231203952064  0.8749337364865255  0.1022171720136171   F   F   F
  0.8339311317052278  0.9374224703005396  0.1075522038351053   F   F   F
  0.6656706818776428  0.9374574332997412  0.1076540871022118   F   F   F
  0.7496383104150084  0.4999213865668750  0.1827756388646549   F   F   F
  0.5820474546648100  0.9374150382906947  0.1887310280212660   F   F   F
  0.9168210958579976  0.9374163027642766  0.1889749839040178   F   F   F
  0.0002936714131846  0.9998992827669883  0.2747404355681366   T   T   T
  0.8321399114404114  0.9373943001867097  0.2731488770816482   T   T   T
  0.6677192499934983  0.9373864313972399  0.2728100503980651   T   T   T
  0.7493605003667314  0.0000017659658445  0.3595579499116249   T   T   T
  0.5836877236655360  0.9374704962588131  0.3592473707238240   T   T   T
  0.9160942652661556  0.9374880806008331  0.3588444953160208   T   T   T
  0.9963597706229848 -0.0000320217874197  0.4438780325210783   T   T   T
  0.8321020388079001  0.9376846543395374  0.4448028789658841   T   T   T
  0.6645700664972987  0.9375855362145015  0.4477812811326237   T   T   T
  0.4054220745019208  0.9999222115495812  0.1371706404740110   F   F   F
  0.2498130538845231  0.9999469596221715  0.1043552466225179   F   F   F
  0.0938777968594522  0.9999465964224399  0.1371098030237761   F   F   F
  0.1543635830516692  0.1248899271375592  0.2204647086472562   F   F   F
  0.9995670073461937  0.1248966516782701  0.2080976692853085   F   F   F
  0.3446973568903360  0.1248674306196307  0.2206598414842134   F   F   F
  0.4005589067334543  0.1249832500455090  0.3067298598841295   T   T   T
  0.2496600876217607  0.1249407913603402  0.2919847032106707   T   T   T
  0.0995882066240333  0.1249092967243468  0.3070916553468955   T   T   T
  0.1517963231614591  0.1248987622540612  0.3937435554435698   T   T   T
  0.4996948542715700  0.1250710666893164  0.3761666509342644   T   T   T
  0.3479856948345968  0.1247403621160212  0.3921654514303315   T   T   T
  0.3985500937638756  0.1265508503219229  0.4793024245161960   T   T   T
  0.2509188156792961  0.1250716621278936  0.4629589591703002   T   T   T
  0.0947938054049252  0.1237292231783749  0.4732797460520136   T   T   T
  0.4054214644049878  0.1249282036816339  0.1371697875501496   F   F   F
  0.2498118312390858  0.1249501818115135  0.1042602234590362   F   F   F
  0.0938664600244081  0.1249385922007349  0.1371069089706722   F   F   F
  0.1543560911150905  0.2498790211591952  0.2204709660202369   F   F   F
  0.9995706735895027  0.2499094862395950  0.2080999580462830   F   F   F
  0.3447055266517580  0.2498932390428195  0.2206623926809286   F   F   F
  0.4005175106355366  0.2501697055768430  0.3068765825787973   T   T   T
  0.2496270196569021  0.2499646751994853  0.2920170389342309   T   T   T
  0.0995190802806584  0.2498651892669513  0.3071153555631239   T   T   T
  0.1516603145493955  0.2498589658657502  0.3937662389966300   T   T   T
  0.4996094359403823  0.2500061931957501  0.3764716922545043   T   T   T
  0.3476177033668248  0.2505482304195626  0.3924681655715527   T   T   T
  0.3987608312287071  0.2486158921191467  0.4795380624081820   T   T   T
  0.2503017393870949  0.2494090638867160  0.4633627087738886   T   T   T
  0.0944079563091715  0.2503869008950446  0.4731704162961817   T   T   T
  0.4054229972694188  0.2499207711709062  0.1371716336629376   F   F   F
  0.2498138581555835  0.2499451823925298  0.1043557657097551   F   F   F
  0.0938776901322669  0.2499459403779412  0.1371098843944125   F   F   F
  0.1543617400249389  0.3748920346981564  0.2204674382050342   F   F   F
  0.9995672189247742  0.3748993922795947  0.2080981530608312   F   F   F
  0.3446956533108718  0.3748674624887514  0.2206599019871973   F   F   F
  0.4004975169332562  0.3750733869267987  0.3070865730428394   T   T   T
  0.2496714043705050  0.3749105882223145  0.2919968599858144   T   T   T
  0.0992617215520953  0.3748070453064257  0.3070367308196729   T   T   T
  0.1517473007417627  0.3745140422285994  0.3932110740946658   T   T   T
  0.4997756897292486  0.3749831486887136  0.3765712640460642   T   T   T
  0.3474628440052290  0.3754769701033204  0.3932059613945124   T   T   T
  0.4006365560863969  0.3735930637607263  0.4789327545624445   T   T   T
  0.2503333168744538  0.3757707420763319  0.4642607949990389   T   T   T
  0.0950885034218564  0.3753795408807873  0.4727920821728282   T   T   T
  0.4054204481464510  0.3749288137657416  0.1371674470345781   F   F   F
  0.2498106243523637  0.3749504007233213  0.1042578114000037   F   F   F
  0.0938682935435935  0.3749385903486697  0.1371059653233644   F   F   F
  0.1543531827738107  0.9998787448957458  0.2204712064644667   F   F   F
  0.9995677263797802  0.9999081653989563  0.2081008624749074   F   F   F
  0.3447067510723798  0.9998918897834912  0.2206650007889195   F   F   F
  0.4005504740455123  0.4999189202371379  0.3071449246056056   T   T   T
  0.2497126003382437  0.4999173822021510  0.2918821334035197   T   T   T
  0.0989910835911705  0.4998632052523249  0.3068945726379858   T   T   T
  0.1515546471232581  0.4995671002998168  0.3921815494040773   T   T   T
  0.4999438981388854  0.4999992950920822  0.3767892737575497   T   T   T
  0.3481308363240815  0.0003362745180804  0.3921829158344064   T   T   T
  0.4014563856542139  0.5012009656192751  0.4790614812371347   T   T   T
  0.2486867049049463  0.4999465801332121  0.4619532524346410   T   T   T
  0.0950230311769492  0.0005662670336940  0.4733364023084790   T   T   T
  0.4054220745019208  0.4999222115495883  0.1371706404740110   F   F   F
  0.2498130538845231  0.4999469596221715  0.1043552466225179   F   F   F
  0.0938777968594522  0.4999465964224399  0.1371098030237761   F   F   F
  0.1543635830516692  0.6248899271375592  0.2204647086472562   F   F   F
  0.9995670073461937  0.6248966516782701  0.2080976692853085   F   F   F
  0.3446973568903360  0.6248674306196307  0.2206598414842134   F   F   F
  0.4006452419786937  0.6247820452198884  0.3071961576321767   T   T   T
  0.2497219586369520  0.6248765853506795  0.2920250435873996   T   T   T
  0.0992209672772589  0.6249574204436028  0.3070289190593721   T   T   T
  0.1517532900032804  0.6251513549274310  0.3929111902639529   T   T   T
  0.4997869610032104  0.6250507197590862  0.3774158486802908   T   T   T
  0.3480345065772619  0.6240935191161193  0.3931993576814584   T   T   T
  0.3966732421942608  0.6258548857957928  0.4822203177439579   T   T   T
  0.2501063157956780  0.6243710647928146  0.4636643042132465   T   T   T
  0.0957573718493437  0.6231596674793626  0.4727121457235611   T   T   T
  0.4054214644049878  0.6249282036816339  0.1371697875501496   F   F   F
  0.2498118312390858  0.6249501818115135  0.1042602234590362   F   F   F
  0.0938664600244081  0.6249385922007349  0.1371069089706722   F   F   F
  0.1543560911150905  0.7498790211591952  0.2204709660202369   F   F   F
  0.9995706735895027  0.7499094862395950  0.2080999580462830   F   F   F
  0.3447055266517580  0.7498932390428195  0.2206623926809286   F   F   F
  0.4007092798402326  0.7497762545439322  0.3070221058674745   T   T   T
  0.2497332703372684  0.7498310621332248  0.2920468288873856   T   T   T
  0.0994211884410296  0.7498682423181802  0.3071158950926809   T   T   T
  0.1518544151157216  0.7498479540604823  0.3933922633999085   T   T   T
  0.4998467692310714  0.7498184020453990  0.3772025443499950   T   T   T
  0.3482568424815670  0.7500243161939559  0.3926025473445520   T   T   T
  0.3940656552106007  0.7489068230068807  0.4825071545049102   T   T   T
  0.2504128795314027  0.7501987714339985  0.4623256314944872   T   T   T
  0.0949389156471683  0.7505721445732270  0.4723943454652769   T   T   T
  0.4054229972694188  0.7499207711709062  0.1371716336629376   F   F   F
  0.2498138581555835  0.7499451823925369  0.1043557657097551   F   F   F
  0.0938776901322669  0.7499459403779412  0.1371098843944125   F   F   F
  0.1543617400249389  0.8748920346981564  0.2204674382050342   F   F   F
  0.9995672189247742  0.8748993922795947  0.2080981530608312   F   F   F
  0.3446956533108718  0.8748674624887514  0.2206599019871973   F   F   F
  0.4006879557953089  0.8748112533697068  0.3068038795204166   T   T   T
  0.2497306893117281  0.8748571692345045  0.2919767896126245   T   T   T
  0.0996393587069132  0.8748514288418603  0.3070400412532382   T   T   T
  0.1518035825698649  0.8749609426183742  0.3936190756180132   T   T   T
  0.4999333200887953  0.8749840632825864  0.3765283256576669   T   T   T
  0.3483201026940638  0.8749005805345516  0.3921206399406196   T   T   T