SYSTEM = Cu-Ru-TaN
ISMEAR = 1
SIGMA = 0.1
LREAL = Auto
IBRION = 0
ENCUT = 250
PREC = low
MAXMIX = 40
NSW = 1000 
LPLANE = .TRUE.
#NPAR = 8
NCORE = 10
#IVDW = 12
NSIM = 4
NELMIN = 3
ISYM = 0
#LCHARG = .FALSE.
#LWAVE = .FALSE.
TEBEG = 500
TEEND = 500
SMASS = 2
NBLOCK = 2
POTIM = 5
NWRITE = 1
EDIFF = 0.01
