Ta  N Ru                                
   1.00000000000000     
    18.1096308199999996    0.0000000000000000    0.0000000000000000
     0.0000000000000000   23.3551997799999995    0.0000000000000000
     0.0000000000000000    0.0000000000000000   30.4818171199999988
   Ta   N    Ru
   216   240    24
Direct
  0.0000030301025226 -0.0007753415016930  0.1958755164415212
  0.3337025519209385  0.0618036784016768  0.2020142569752855
  0.1663029388383624  0.0618031767272652  0.2020157113275425
  0.2500057302889888  0.1243321254374805  0.2774896849459197
  0.0825785496089761  0.0618444547336063  0.2828920079164974
  0.4174268971492662  0.0618446854416061  0.2828908096088050
 -0.0000004185778717  0.1239898107078409  0.3686942756062550
  0.3322782455530144  0.0620055140031349  0.3671476453964954
  0.1677274737882542  0.0619933717521862  0.3671436385859961
  0.2500064572326057  0.1263725475151716  0.4560454299987922
  0.0854201201043577  0.0623951734101110  0.4545727069753844
  0.4145742884836530  0.0623942685685412  0.4545761278201635
  0.0000018853822725  0.1209273571217021  0.5431850747691931
  0.0000019993457316  0.1243816969128102  0.1958788396130214
  0.3336814246788891  0.1868454522871525  0.2019804980379019
  0.1663206596772052  0.1868442990926140  0.2019801740978379
  0.2500014761488907  0.2495266462227881  0.2773863499270612
  0.0823387746646511  0.1868265933048317  0.2830084263431461
  0.4176652891443667  0.1868274825561938  0.2830091109265418
  0.0000005484530723  0.2497243714189503  0.3685296162395892
  0.3322316550294342  0.1866974488996157  0.3673906971445370
  0.1677811165494570  0.1866929786957157  0.3673924597116850
  0.2500016061261068  0.2476427535190358  0.4530693285275615
  0.0832646735473831  0.1868872591776427  0.4519554444856265
  0.4167266716874476  0.1868915998128318  0.4519597235378856
  0.3328088799297061  0.2034320923688876  0.5412940367405787
  0.1671851842722410  0.2034386286099968  0.5412950282957386
  0.0000030301025226  0.2492246587123936  0.1958755164415212
  0.3337025519209385  0.3118036781875974  0.2020142569752855
  0.1663029388383624  0.3118031765131858  0.2020157113275425
  0.2500057302889888  0.3743321256515670  0.2774896849459197
  0.0825785496089761  0.3118444545195267  0.2828920079164974
  0.4174268971492662  0.3118446852275267  0.2828908096088050
 -0.0000004185778717  0.3739898109219276  0.3686942756062550
  0.3322782455530144  0.3120055137890553  0.3671476453964954
  0.1677274737882542  0.3119933715381066  0.3671436385859961
  0.2500064572326057  0.3763725477292582  0.4560454299987922
  0.0854201201043577  0.3123951731960315  0.4545727069753844
  0.4145742884836530  0.3123942683544616  0.4545761278201635
  0.0000018853822725  0.3709273573357887  0.5431850747691931
  0.0000019993457316  0.3743816971268967  0.1958788396130214
  0.3336814246788891  0.4368454525012389  0.2019804980379019
  0.1663206596772052  0.4368442993067004  0.2019801740978379
  0.2500014761488907 -0.0004733539912985  0.2773863499270612
  0.0823387746646511  0.4368265935189182  0.2830084263431461
  0.4176652891443667  0.4368274827702802  0.2830091109265418
  0.0000005484530723 -0.0002756287951363  0.3685296162395892
  0.3322316550294342  0.4366974491137021  0.3673906971445370
  0.1677811165494570  0.4366929789098022  0.3673924597116850
  0.2500016061261068  0.9976427533049488  0.4530693285275615
  0.0832646735473831  0.4368872593917292  0.4519554444856265
  0.4167266716874476  0.4368916000269184  0.4519597235378856
  0.3328088799297061  0.4534320925829742  0.5412940367405787
  0.1671851842722410  0.4534386288240832  0.5412950282957386
  0.0000030301025226  0.4992246584983070  0.1958755164415212
  0.3337025519209385  0.5618036784016766  0.2020142569752855
  0.1663029388383624  0.5618031767272651  0.2020157113275425
  0.2500057302889888  0.6243321254374806  0.2774896849459197
  0.0825785496089761  0.5618444547336061  0.2828920079164974
  0.4174268971492662  0.5618446854416064  0.2828908096088050
 -0.0000004185778717  0.6239898107078410  0.3686942756062550
  0.3322782455530144  0.5620055140031348  0.3671476453964954
  0.1677274737882542  0.5619933717521862  0.3671436385859961
  0.2500064572326057  0.6263725475151716  0.4560454299987922
  0.0854201201043577  0.5623951734101108  0.4545727069753844
  0.4145742884836530  0.5623942685685412  0.4545761278201635
  0.0000018853822725  0.6209273571217024  0.5431850747691931
  0.0000019993457316  0.6243816969128101  0.1958788396130214
  0.3336814246788891  0.6868454522871529  0.2019804980379019
  0.1663206596772052  0.6868442990926140  0.2019801740978379
  0.2500014761488907  0.7495266462227878  0.2773863499270612
  0.0823387746646511  0.6868265933048316  0.2830084263431461
  0.4176652891443667  0.6868274825561937  0.2830091109265418
  0.0000005484530723  0.7497243714189503  0.3685296162395892
  0.3322316550294342  0.6866974488996155  0.3673906971445370
  0.1677811165494570  0.6866929786957157  0.3673924597116850
  0.2500016061261068  0.7476427535190353  0.4530693285275615
  0.0832646735473831  0.6868872591776426  0.4519554444856265
  0.4167266716874476  0.6868915998128320  0.4519597235378856
  0.3328088799297061  0.7034320923688878  0.5412940367405787
  0.1671851842722410  0.7034386286099968  0.5412950282957386
  0.0000030301025226  0.7492246587123935  0.1958755164415212
  0.3337025519209385  0.8118036781875971  0.2020142569752855
  0.1663029388383624  0.8118031765131857  0.2020157113275425
  0.2500057302889888  0.8743321256515671  0.2774896849459197
  0.0825785496089761  0.8118444545195267  0.2828920079164974
  0.4174268971492662  0.8118446852275270  0.2828908096088050
 -0.0000004185778717  0.8739898109219275  0.3686942756062550
  0.3322782455530144  0.8120055137890554  0.3671476453964954
  0.1677274737882542  0.8119933715381068  0.3671436385859961
  0.2500064572326057  0.8763725477292581  0.4560454299987922
  0.0854201201043577  0.8123951731960314  0.4545727069753844
  0.4145742884836530  0.8123942683544618  0.4545761278201635
  0.0000018853822725  0.8709273573357890  0.5431850747691931
  0.0000019993457316  0.8743816971268966  0.1958788396130214
  0.3336814246788891  0.9368454525012394  0.2019804980379019
  0.1663206596772052  0.9368442993067005  0.2019801740978379
  0.2500014761488907  0.4995266460087015  0.2773863499270612
  0.0823387746646511  0.9368265935189182  0.2830084263431461
  0.4176652891443667  0.9368274827702803  0.2830091109265418
  0.0000005484530723  0.4997243712048636  0.3685296162395892
  0.3322316550294342  0.9366974491137020  0.3673906971445370
  0.1677811165494570  0.9366929789098022  0.3673924597116850
  0.2500016061261068  0.4976427533049493  0.4530693285275615
  0.0832646735473831  0.9368872593917291  0.4519554444856265
  0.4167266716874476  0.9368916000269185  0.4519597235378856
  0.3328088799297061  0.9534320925829743  0.5412940367405787
  0.1671851842722410  0.9534386288240834  0.5412950282957386
  0.5000030301025228 -0.0007753415016930  0.1958755164415212
  0.8337025513687474  0.0618036784016768  0.2020142569752855
  0.6663029388383620  0.0618031767272652  0.2020157113275425
  0.7500057302889886  0.1243321254374805  0.2774896849459197
  0.5825785496089760  0.0618444547336063  0.2828920079164974
  0.9174268971492661  0.0618446854416061  0.2828908096088050
  0.4999995814221284  0.1239898107078409  0.3686942756062550
  0.8322782450008089  0.0620055140031349  0.3671476453964954
  0.6677274737882543  0.0619933717521862  0.3671436385859961
  0.7500064572326057  0.1263725475151716  0.4560454299987922
  0.5854201201043577  0.0623951734101110  0.4545727069753844
  0.9145742884836531  0.0623942685685412  0.4545761278201635
  0.5000018853822725  0.1209273571217021  0.5431850747691931
  0.5000019993457319  0.1243816969128102  0.1958788396130214
  0.8336814241266979  0.1868454522871525  0.2019804980379019
  0.6663206596772056  0.1868442990926140  0.2019801740978379
  0.7500014761488906  0.2495266462227881  0.2773863499270612
  0.5823387746646508  0.1868265933048317  0.2830084263431461
  0.9176652891443666  0.1868274825561938  0.2830091109265418
  0.5000005484530725  0.2497243714189503  0.3685296162395892
  0.8322316544772360  0.1866974488996157  0.3673906971445370
  0.6677811165494573  0.1866929786957157  0.3673924597116850
  0.7500016061261070  0.2476427535190358  0.4530693285275615
  0.5832646735473833  0.1868872591776427  0.4519554444856265
  0.9167266716874474  0.1868915998128318  0.4519597235378856
  0.8328088799297062  0.2034320923688876  0.5412940367405787
  0.6671851842722412  0.2034386286099968  0.5412950282957386
  0.5000030301025228  0.2492246587123936  0.1958755164415212
  0.8337025513687474  0.3118036781875974  0.2020142569752855
  0.6663029388383620  0.3118031765131858  0.2020157113275425
  0.7500057302889886  0.3743321256515670  0.2774896849459197
  0.5825785496089760  0.3118444545195267  0.2828920079164974
  0.9174268971492661  0.3118446852275267  0.2828908096088050
  0.4999995814221284  0.3739898109219276  0.3686942756062550
  0.8322782450008089  0.3120055137890553  0.3671476453964954
  0.6677274737882543  0.3119933715381066  0.3671436385859961
  0.7500064572326057  0.3763725477292582  0.4560454299987922
  0.5854201201043577  0.3123951731960315  0.4545727069753844
  0.9145742884836531  0.3123942683544616  0.4545761278201635
  0.5000018853822725  0.3709273573357887  0.5431850747691931
  0.5000019993457319  0.3743816971268967  0.1958788396130214
  0.8336814241266979  0.4368454525012389  0.2019804980379019
  0.6663206596772056  0.4368442993067004  0.2019801740978379
  0.7500014761488906 -0.0004733539912985  0.2773863499270612
  0.5823387746646508  0.4368265935189182  0.2830084263431461
  0.9176652891443666  0.4368274827702802  0.2830091109265418
  0.5000005484530725 -0.0002756287951363  0.3685296162395892
  0.8322316544772360  0.4366974491137021  0.3673906971445370
  0.6677811165494573  0.4366929789098022  0.3673924597116850
  0.7500016061261070  0.9976427533049488  0.4530693285275615
  0.5832646735473833  0.4368872593917292  0.4519554444856265
  0.9167266716874474  0.4368916000269184  0.4519597235378856
  0.8328088799297062  0.4534320925829742  0.5412940367405787
  0.6671851842722412  0.4534386288240832  0.5412950282957386
  0.5000030301025228  0.4992246584983070  0.1958755164415212
  0.8337025513687474  0.5618036784016766  0.2020142569752855
  0.6663029388383620  0.5618031767272651  0.2020157113275425
  0.7500057302889886  0.6243321254374806  0.2774896849459197
  0.5825785496089760  0.5618444547336061  0.2828920079164974
  0.9174268971492661  0.5618446854416064  0.2828908096088050
  0.4999995814221284  0.6239898107078410  0.3686942756062550
  0.8322782450008089  0.5620055140031348  0.3671476453964954
  0.6677274737882543  0.5619933717521862  0.3671436385859961
  0.7500064572326057  0.6263725475151716  0.4560454299987922
  0.5854201201043577  0.5623951734101108  0.4545727069753844
  0.9145742884836531  0.5623942685685412  0.4545761278201635
  0.5000018853822725  0.6209273571217024  0.5431850747691931
  0.5000019993457319  0.6243816969128101  0.1958788396130214
  0.8336814241266979  0.6868454522871529  0.2019804980379019
  0.6663206596772056  0.6868442990926140  0.2019801740978379
  0.7500014761488906  0.7495266462227878  0.2773863499270612
  0.5823387746646508  0.6868265933048316  0.2830084263431461
  0.9176652891443666  0.6868274825561937  0.2830091109265418
  0.5000005484530725  0.7497243714189503  0.3685296162395892
  0.8322316544772360  0.6866974488996155  0.3673906971445370
  0.6677811165494573  0.6866929786957157  0.3673924597116850
  0.7500016061261070  0.7476427535190353  0.4530693285275615
  0.5832646735473833  0.6868872591776426  0.4519554444856265
  0.9167266716874474  0.6868915998128320  0.4519597235378856
  0.8328088799297062  0.7034320923688878  0.5412940367405787
  0.6671851842722412  0.7034386286099968  0.5412950282957386
  0.5000030301025228  0.7492246587123935  0.1958755164415212
  0.8337025513687474  0.8118036781875971  0.2020142569752855
  0.6663029388383620  0.8118031765131857  0.2020157113275425
  0.7500057302889886  0.8743321256515671  0.2774896849459197
  0.5825785496089760  0.8118444545195267  0.2828920079164974
  0.9174268971492661  0.8118446852275270  0.2828908096088050
  0.4999995814221284  0.8739898109219275  0.3686942756062550
  0.8322782450008089  0.8120055137890554  0.3671476453964954
  0.6677274737882543  0.8119933715381068  0.3671436385859961
  0.7500064572326057  0.8763725477292581  0.4560454299987922
  0.5854201201043577  0.8123951731960314  0.4545727069753844
  0.9145742884836531  0.8123942683544618  0.4545761278201635
  0.5000018853822725  0.8709273573357890  0.5431850747691931
  0.5000019993457319  0.8743816971268966  0.1958788396130214
  0.8336814241266979  0.9368454525012394  0.2019804980379019
  0.6663206596772056  0.9368442993067005  0.2019801740978379
  0.7500014761488906  0.4995266460087015  0.2773863499270612
  0.5823387746646508  0.9368265935189182  0.2830084263431461
  0.9176652891443666  0.9368274827702803  0.2830091109265418
  0.5000005484530725  0.4997243712048636  0.3685296162395892
  0.8322316544772360  0.9366974491137020  0.3673906971445370
  0.6677811165494573  0.9366929789098022  0.3673924597116850
  0.7500016061261070  0.4976427533049493  0.4530693285275615
  0.5832646735473833  0.9368872593917291  0.4519554444856265
  0.9167266716874474  0.9368916000269185  0.4519597235378856
  0.8328088799297062  0.9534320925829743  0.5412940367405787
  0.6671851842722412  0.9534386288240834  0.5412950282957386
  0.4062833553973266 -0.0007606196844951  0.2310932274813177
  0.2500012821391289 -0.0006636878757970  0.1981422113515194
  0.0937203271597351 -0.0007610327832444  0.2310934904261757
  0.1544454721348393  0.1244914524389995  0.3149072928413705
  0.0000028353041503  0.1242270387610581  0.3020077884740108
  0.3455562899038123  0.1244897837201319  0.3149081085426813
  0.4011534781219884  0.1239223987070506  0.4016684279075257
  0.2499997027094860  0.1241423639313035  0.3875765430433574
  0.0988429941107888  0.1239282819339910  0.4016675265753231
  0.1508088546918393  0.1276755893009649  0.4874820455503982
 -0.0000053065354525  0.1250916221187711  0.4746516146797063
  0.3491870824839267  0.1276781539884529  0.4874894483850256
  0.4074301857587770  0.1473278329169397  0.5685415620691595
  0.2499997993575849  0.1370969557016260  0.5553932832390527
  0.0925596962963706  0.1473167911887822  0.5685291573168261
  0.4062663264194974  0.1244052496161696  0.2311235571477094
  0.2500014991249859  0.1243133612390076  0.1985584607008007
  0.0937387112853893  0.1244047287115009  0.2311243932390975
  0.1544748891895226  0.2492064272433736  0.3147769031130009
  0.0000008181924472  0.2494150593678630  0.3019055980433965
  0.3455284456020560  0.2492032317428896  0.3147775309246020
  0.4011242188193508  0.2501566984310895  0.4008504229444949
  0.2499987086135693  0.2494790498425181  0.3858743969919473
  0.0988750707807891  0.2501595450012435  0.4008513310781574
  0.1507249656130392  0.2464336764503402  0.4825642335659679
 -0.0000012939408097  0.2503938385868414  0.4733542553852533
  0.3492699122614784  0.2464324413520320  0.4825645395410236
  0.4044798475363039  0.2699209515280535  0.5660852564421553
  0.2500078382479809  0.2583953178984454  0.5581817106380118
  0.0955447110563218  0.2699219338215552  0.5661073475189196
  0.4062833553973266  0.2492393805295914  0.2310932274813177
  0.2500012821391289  0.2493363123382894  0.1981422113515194
  0.0937203271597351  0.2492389674308421  0.2310934904261757
  0.1544454721348393  0.3744914526530861  0.3149072928413705
  0.0000028353041503  0.3742270389751446  0.3020077884740108
  0.3455562899038123  0.3744897839342182  0.3149081085426813
  0.4011534781219884  0.3739223989211370  0.4016684279075257
  0.2499997027094860  0.3741423641453901  0.3875765430433574
  0.0988429941107888  0.3739282821480775  0.4016675265753231
  0.1508088546918393  0.3776755895150516  0.4874820455503982
 -0.0000053065354525  0.3750916223328575  0.4746516146797063
  0.3491870824839267  0.3776781542025391  0.4874894483850256
  0.4074301857587770  0.3973278331310262  0.5685415620691595
  0.2499997993575849  0.3870969559157126  0.5553932832390527
  0.0925596962963706  0.3973167914028687  0.5685291573168261
  0.4062663264194974  0.3744052498302560  0.2311235571477094
  0.2500014991249859  0.3743133614530944  0.1985584607008007
  0.0937387112853893  0.3744047289255876  0.2311243932390975
  0.1544748891895226 -0.0007935729707129  0.3147769031130009
  0.0000008181924472 -0.0005849408462235  0.3019055980433965
  0.3455284456020560 -0.0007967684711969  0.3147775309246020
  0.4011242188193508  0.0001566982170028  0.4008504229444949
  0.2499987086135693 -0.0005209503715683  0.3858743969919473
  0.0988750707807891  0.0001595447871569  0.4008513310781574
  0.1507249656130392  0.9964336762362538  0.4825642335659679
 -0.0000012939408097  0.0003938383727548  0.4733542553852533
  0.3492699122614784  0.9964324411379454  0.4825645395410236
  0.4044798475363039  0.0199209513139669  0.5660852564421553
  0.2500078382479809  0.0083953176843589  0.5581817106380118
  0.0955447110563218  0.0199219336074687  0.5661073475189196
  0.4062833553973266  0.4992393803155050  0.2310932274813177
  0.2500012821391289  0.4993363121242033  0.1981422113515194
  0.0937203271597351  0.4992389672167558  0.2310934904261757
  0.1544454721348393  0.6244914524389994  0.3149072928413705
  0.0000028353041503  0.6242270387610581  0.3020077884740108
  0.3455562899038123  0.6244897837201321  0.3149081085426813
  0.4011534781219884  0.6239223987070432  0.4016684279075257
  0.2499997027094860  0.6241423639313036  0.3875765430433574
  0.0988429941107888  0.6239282819339907  0.4016675265753231
  0.1508088546918393  0.6276755893009650  0.4874820455503982
 -0.0000053065354525  0.6250916221187709  0.4746516146797063
  0.3491870824839267  0.6276781539884529  0.4874894483850256
  0.4074301857587770  0.6473278329169395  0.5685415620691595
  0.2499997993575849  0.6370969557016258  0.5553932832390527
  0.0925596962963706  0.6473167911887823  0.5685291573168261
  0.4062663264194974  0.6244052496161696  0.2311235571477094
  0.2500014991249859  0.6243133612390075  0.1985584607008007
  0.0937387112853893  0.6244047287115013  0.2311243932390975
  0.1544748891895226  0.7492064272433741  0.3147769031130009
  0.0000008181924472  0.7494150593678628  0.3019055980433965
  0.3455284456020560  0.7492032317428902  0.3147775309246020
  0.4011242188193508  0.7501566984310892  0.4008504229444949
  0.2499987086135693  0.7494790498425182  0.3858743969919473
  0.0988750707807891  0.7501595450012436  0.4008513310781574
  0.1507249656130392  0.7464336764503403  0.4825642335659679
 -0.0000012939408097  0.7503938385868411  0.4733542553852533
  0.3492699122614784  0.7464324413520319  0.4825645395410236
  0.4044798475363039  0.7699209515280533  0.5660852564421553
  0.2500078382479809  0.7583953178984455  0.5581817106380118
  0.0955447110563218  0.7699219338215554  0.5661073475189196
  0.4062833553973266  0.7492393805295918  0.2310932274813177
  0.2500012821391289  0.7493363123382897  0.1981422113515194
  0.0937203271597351  0.7492389674308421  0.2310934904261757
  0.1544454721348393  0.8744914526530859  0.3149072928413705
  0.0000028353041503  0.8742270389751446  0.3020077884740108
  0.3455562899038123  0.8744897839342186  0.3149081085426813
  0.4011534781219884  0.8739223989211298  0.4016684279075257
  0.2499997027094860  0.8741423641453901  0.3875765430433574
  0.0988429941107888  0.8739282821480773  0.4016675265753231
  0.1508088546918393  0.8776755895150515  0.4874820455503982
 -0.0000053065354525  0.8750916223328574  0.4746516146797063
  0.3491870824839267  0.8776781542025395  0.4874894483850256
  0.4074301857587770  0.8973278331310260  0.5685415620691595
  0.2499997993575849  0.8870969559157124  0.5553932832390527
  0.0925596962963706  0.8973167914028688  0.5685291573168261
  0.4062663264194974  0.8744052498302561  0.2311235571477094
  0.2500014991249859  0.8743133614530940  0.1985584607008007
  0.0937387112853893  0.8744047289255878  0.2311243932390975
  0.1544748891895226  0.4992064270292871  0.3147769031130009
  0.0000008181924472  0.4994150591537765  0.3019055980433965
  0.3455284456020560  0.4992032315288030  0.3147775309246020
  0.4011242188193508  0.5001566982170027  0.4008504229444949
  0.2499987086135693  0.4994790496284318  0.3858743969919473
  0.0988750707807891  0.5001595447871571  0.4008513310781574
  0.1507249656130392  0.4964336762362537  0.4825642335659679
 -0.0000012939408097  0.5003938383727546  0.4733542553852533
  0.3492699122614784  0.4964324411379455  0.4825645395410236
  0.4044798475363039  0.5199209513139668  0.5660852564421553
  0.2500078382479809  0.5083953176843590  0.5581817106380118
  0.0955447110563218  0.5199219336074689  0.5661073475189196
  0.9062833553973266 -0.0007606196844951  0.2310932274813178
  0.7500012821391290 -0.0006636878757970  0.1981422113515194
  0.5937203271597349 -0.0007610327832444  0.2310934904261757
  0.6544454721348393  0.1244914524389995  0.3149072928413705
  0.5000028353041504  0.1242270387610581  0.3020077884740108
  0.8455562899038123  0.1244897837201319  0.3149081085426813
  0.9011534781219886  0.1239223987070506  0.4016684279075257
  0.7499997027094859  0.1241423639313035  0.3875765430433574
  0.5988429941107885  0.1239282819339910  0.4016675265753231
  0.6508088546918392  0.1276755893009649  0.4874820455503982
  0.4999946934645474  0.1250916221187711  0.4746516146797063
  0.8491870824839264  0.1276781539884529  0.4874894483850256
  0.9074301857587768  0.1473278329169397  0.5685415620691595
  0.7499997993575848  0.1370969557016260  0.5553932832390527
  0.5925596962963710  0.1473167911887822  0.5685291573168261
  0.9062663264194970  0.1244052496161696  0.2311235571477094
  0.7500014991249856  0.1243133612390076  0.1985584607008007
  0.5937387112853891  0.1244047287115009  0.2311243932390975
  0.6544748891895227  0.2492064272433736  0.3147769031130009
  0.5000008181924471  0.2494150593678630  0.3019055980433965
  0.8455284456020560  0.2492032317428896  0.3147775309246020
  0.9011242188193506  0.2501566984310895  0.4008504229444949
  0.7499987086135693  0.2494790498425181  0.3858743969919473
  0.5988750707807889  0.2501595450012435  0.4008513310781574
  0.6507249656130394  0.2464336764503402  0.4825642335659679
  0.4999987060591905  0.2503938385868414  0.4733542553852533
  0.8492699122614785  0.2464324413520320  0.4825645395410236
  0.9044798475363037  0.2699209515280535  0.5660852564421553
  0.7500078382479809  0.2583953178984454  0.5581817106380118
  0.5955447110563220  0.2699219338215552  0.5661073475189196
  0.9062833553973266  0.2492393805295914  0.2310932274813178
  0.7500012821391290  0.2493363123382894  0.1981422113515194
  0.5937203271597349  0.2492389674308421  0.2310934904261757
  0.6544454721348393  0.3744914526530861  0.3149072928413705
  0.5000028353041504  0.3742270389751446  0.3020077884740108
  0.8455562899038123  0.3744897839342182  0.3149081085426813
  0.9011534781219886  0.3739223989211370  0.4016684279075257
  0.7499997027094859  0.3741423641453901  0.3875765430433574
  0.5988429941107885  0.3739282821480775  0.4016675265753231
  0.6508088546918392  0.3776755895150516  0.4874820455503982
  0.4999946934645474  0.3750916223328575  0.4746516146797063
  0.8491870824839264  0.3776781542025391  0.4874894483850256
  0.9074301857587768  0.3973278331310262  0.5685415620691595
  0.7499997993575848  0.3870969559157126  0.5553932832390527
  0.5925596962963710  0.3973167914028687  0.5685291573168261
  0.9062663264194970  0.3744052498302560  0.2311235571477094
  0.7500014991249856  0.3743133614530944  0.1985584607008007
  0.5937387112853891  0.3744047289255876  0.2311243932390975
  0.6544748891895227 -0.0007935729707129  0.3147769031130009
  0.5000008181924471 -0.0005849408462235  0.3019055980433965
  0.8455284456020560 -0.0007967684711969  0.3147775309246020
  0.9011242188193506  0.0001566982170028  0.4008504229444949
  0.7499987086135693 -0.0005209503715683  0.3858743969919473
  0.5988750707807889  0.0001595447871569  0.4008513310781574
  0.6507249656130394  0.9964336762362538  0.4825642335659679
  0.4999987060591905  0.0003938383727548  0.4733542553852533
  0.8492699122614785  0.9964324411379454  0.4825645395410236
  0.9044798475363037  0.0199209513139669  0.5660852564421553
  0.7500078382479809  0.0083953176843589  0.5581817106380118
  0.5955447110563220  0.0199219336074687  0.5661073475189196
  0.9062833553973266  0.4992393803155050  0.2310932274813177
  0.7500012821391290  0.4993363121242033  0.1981422113515194
  0.5937203271597349  0.4992389672167558  0.2310934904261757
  0.6544454721348393  0.6244914524389994  0.3149072928413705
  0.5000028353041504  0.6242270387610581  0.3020077884740108
  0.8455562899038123  0.6244897837201321  0.3149081085426813
  0.9011534781219886  0.6239223987070432  0.4016684279075257
  0.7499997027094859  0.6241423639313036  0.3875765430433574
  0.5988429941107885  0.6239282819339907  0.4016675265753231
  0.6508088546918392  0.6276755893009650  0.4874820455503982
  0.4999946934645474  0.6250916221187709  0.4746516146797063
  0.8491870824839264  0.6276781539884529  0.4874894483850256
  0.9074301857587768  0.6473278329169395  0.5685415620691595
  0.7499997993575848  0.6370969557016258  0.5553932832390527
  0.5925596962963710  0.6473167911887823  0.5685291573168261
  0.9062663264194970  0.6244052496161696  0.2311235571477094
  0.7500014991249856  0.6243133612390075  0.1985584607008007
  0.5937387112853891  0.6244047287115013  0.2311243932390975
  0.6544748891895227  0.7492064272433741  0.3147769031130009
  0.5000008181924471  0.7494150593678628  0.3019055980433965
  0.8455284456020560  0.7492032317428902  0.3147775309246020
  0.9011242188193506  0.7501566984310892  0.4008504229444949
  0.7499987086135693  0.7494790498425182  0.3858743969919473
  0.5988750707807889  0.7501595450012436  0.4008513310781574
  0.6507249656130394  0.7464336764503403  0.4825642335659679
  0.4999987060591905  0.7503938385868411  0.4733542553852533
  0.8492699122614785  0.7464324413520319  0.4825645395410236
  0.9044798475363037  0.7699209515280533  0.5660852564421553
  0.7500078382479809  0.7583953178984455  0.5581817106380118
  0.5955447110563220  0.7699219338215554  0.5661073475189196
  0.9062833553973266  0.7492393805295918  0.2310932274813177
  0.7500012821391290  0.7493363123382897  0.1981422113515194
  0.5937203271597349  0.7492389674308421  0.2310934904261757
  0.6544454721348393  0.8744914526530859  0.3149072928413705
  0.5000028353041504  0.8742270389751446  0.3020077884740108
  0.8455562899038123  0.8744897839342186  0.3149081085426813
  0.9011534781219886  0.8739223989211369  0.4016684279075257
  0.7499997027094859  0.8741423641453901  0.3875765430433574
  0.5988429941107885  0.8739282821480773  0.4016675265753231
  0.6508088546918392  0.8776755895150515  0.4874820455503982
  0.4999946934645474  0.8750916223328574  0.4746516146797063
  0.8491870824839264  0.8776781542025395  0.4874894483850256
  0.9074301857587768  0.8973278331310260  0.5685415620691595
  0.7499997993575848  0.8870969559157124  0.5553932832390527
  0.5925596962963710  0.8973167914028688  0.5685291573168261
  0.9062663264194970  0.8744052498302561  0.2311235571477094
  0.7500014991249856  0.8743133614530940  0.1985584607008007
  0.5937387112853891  0.8744047289255878  0.2311243932390975
  0.6544748891895227  0.4992064270292871  0.3147769031130009
  0.5000008181924471  0.4994150591537765  0.3019055980433965
  0.8455284456020560  0.4992032315288030  0.3147775309246020
  0.9011242188193506  0.5001566982170027  0.4008504229444949
  0.7499987086135693  0.4994790496284318  0.3858743969919473
  0.5988750707807889  0.5001595447871571  0.4008513310781574
  0.6507249656130394  0.4964336762362537  0.4825642335659679
  0.4999987060591905  0.5003938383727546  0.4733542553852533
  0.8492699122614785  0.4964324411379455  0.4825645395410236
  0.9044798475363037  0.5199209513139668  0.5660852564421553
  0.7500078382479809  0.5083953176843590  0.5581817106380118
  0.5955447110563220  0.5199219336074689  0.5661073475189196
  0.3383023893178339  0.0828054255864575  0.5453925966142055
  0.1616809245030283  0.0828143715915363  0.5453966351970324
  0.0000293124331024  0.2660978203828249  0.5398186703638391
  0.3383023893178339  0.3328054253723781  0.5453925966142055
  0.1616809245030283  0.3328143713774570  0.5453966351970324
  0.0000293124331024  0.0160978201687383  0.5398186703638391
  0.3383023893178339  0.5828054255864578  0.5453925966142055
  0.1616809245030283  0.5828143715915365  0.5453966351970324
  0.0000293124331024  0.7660978203828251  0.5398186703638391
  0.3383023893178339  0.8328054253723783  0.5453925966142055
  0.1616809245030283  0.8328143713774571  0.5453966351970324
  0.0000293124331024  0.5160978201687386  0.5398186703638391
  0.8383023893178342  0.0828054255864575  0.5453925966142055
  0.6616809245030285  0.0828143715915363  0.5453966351970324
  0.5000293124331024  0.2660978203828249  0.5398186703638391
  0.8383023893178342  0.3328054253723781  0.5453925966142055
  0.6616809245030285  0.3328143713774570  0.5453966351970324
  0.5000293124331024  0.0160978201687383  0.5398186703638391
  0.8383023893178342  0.5828054255864578  0.5453925966142055
  0.6616809245030285  0.5828143715915365  0.5453966351970324
  0.5000293124331024  0.7660978203828251  0.5398186703638391
  0.8383023893178342  0.8328054253723783  0.5453925966142055
  0.6616809245030285  0.8328143713774571  0.5453966351970324
  0.5000293124331024  0.5160978201687386  0.5398186703638391
 
  0.00000000E+00  0.00000000E+00  0.00000000E+00
  0.00000000E+00  0.00000000E+00  0.00000000E+00
  0.00000000E+00  0.00000000E+00  0.00000000E+00
  0.00000000E+00  0.00000000E+00  0.00000000E+00
  0.00000000E+00  0.00000000E+00  0.00000000E+00
  0.00000000E+00  0.00000000E+00  0.00000000E+00
  0.00000000E+00  0.00000000E+00  0.00000000E+00
  0.00000000E+00  0.00000000E+00  0.00000000E+00