Cu	N	Ru	Ta                              
   1.00000000000000     
    18.1096308199999996    0.0000000000000000    0.0000000000000000
     0.0000000000000000   23.3551997799999995    0.0000000000000000
     0.0000000000000000    0.0000000000000000   30.4818171199999988
   Cu   N    Ru   Ta
     4   240    12   228
Selective dynamics
Direct
  0.5634859365008466  0.4374783710763555  0.6108286226002930   T   T   T
  0.4425258946508711  0.3926252753473256  0.6270790989858069   T   T   T
  0.4543626742735269  0.4959361999580338  0.6230965654232329   T   T   T
  0.5057619401043587  0.4444683996381452  0.6828825453516573   T   T   T
  0.0000000000000000  0.0002658024790421  0.3027806050297599   F   F   F
  0.0000000000000000  0.5002658024790421  0.3027806050297599   F   F   F
  0.0000000000000000  0.6252068313499990  0.3027729437410898   F   F   F
  0.0000000000000000  0.7502658026931286  0.3027806050297599   F   F   F
  0.0000000000000000  0.8752068315640855  0.3027729437410898   F   F   F
  0.0000000000000000  0.1252068313499990  0.3027729437410898   F   F   F
  0.0000000000000000  0.2502658026931286  0.3027806050297599   F   F   F
  0.0000000000000000  0.3752068315640855  0.3027729437410898   F   F   F
  0.9999932386174768  0.7523573502151473  0.4735475846230996   T   T   T
  0.9999838518532184  0.1253984983306154  0.4736677819882803   T   T   T
  0.9999938157837750  0.6254180145320212  0.4736155932401221   T   T   T
  0.0000328944530476  0.2522267768826310  0.4735352854503330   T   T   T
  0.9999880871690819  0.0023780808901962  0.4736414390343637   T   T   T
  0.0000598617873889  0.5024991553641641  0.4731398299111329   T   T   T
 -0.0000019869618440  0.8754130571807909  0.4737276694443093   T   T   T
  0.0000965384212017  0.3753541493260000  0.4734139920582443   T   T   T
  0.5927687450792258  0.7497061435274072  0.5685899931137824   T   T   T
  0.5928269757018083  0.9997173338095621  0.5685484280998978   T   T   T
  0.5931093034762307  0.2504294158490631  0.5685450380930630   T   T   T
  0.5940493004484111  0.9998103570065027  0.2323399901691943   F   F   F
  0.5940493004484111  0.4998103570065027  0.2323399901691943   F   F   F
  0.5940493004484111  0.7498103572205892  0.2323399901691943   F   F   F
  0.5940493004484111  0.2498103572205892  0.2323399901691943   F   F   F
  0.5941034351798038  0.6248444726427422  0.2323487498175751   F   F   F
  0.5941034351798038  0.8748444728568288  0.2323487498175751   F   F   F
  0.5941034351798038  0.1248444726427422  0.2323487498175751   F   F   F
  0.5941034351798038  0.3748444728568288  0.2323487498175751   F   F   F
  0.5975012760350500  0.4988532525634279  0.5710045429379117   T   T   T
  0.5980060815666404  0.1214449954906504  0.5715688540255922   T   T   T
  0.5980415287742075  0.8712622353111020  0.5715997717551495   T   T   T
  0.5980927420462132  0.6208963000914579  0.5717217787276240   T   T   T
  0.5988460746191866  0.1242140507315662  0.4025317297089208   T   T   T
  0.5988810796892928  0.3742139747681393  0.4024314446613642   T   T   T
  0.5988263622892047  0.8742010030705705  0.4025273276080488   T   T   T
  0.5988263444925243  0.6240606092588816  0.4025526874550751   T   T   T
  0.5987156407057358  0.3725006341775741  0.5723257251082730   T   T   T
  0.5991722007023087  0.2490752686500756  0.4023008935589028   T   T   T
  0.5991921268618235  0.9990978518010379  0.4022986579746777   T   T   T
  0.5991342123237441  0.7491040532855564  0.4022970004743281   T   T   T
  0.5992187867041577  0.4991918598180174  0.4022805226378567   T   T   T
  0.6507654571505334  0.6231096591439070  0.4882710162962536   T   T   T
  0.6510088291652418  0.8730316365058991  0.4882365760785086   T   T   T
  0.6510045412813543  0.1229657808887461  0.4882237427973158   T   T   T
  0.6509920274951974  0.3726038600519654  0.4881523483485160   T   T   T
  0.6516895609691983  0.2491877387534046  0.4884049323028076   T   T   T
  0.6516784374123197  0.9990895215354235  0.4883700080016901   T   T   T
  0.6516589732549700  0.7491193280376784  0.4883443681081383   T   T   T
  0.6518620822181938  0.4992516039857574  0.4886002868009358   T   T   T
  0.6547396409045092  0.9997083480310920  0.3159103144045119   F   F   F
  0.6547396409045092  0.4997083480310920  0.3159103144045119   F   F   F
  0.6547396409045092  0.7497083482451785  0.3159103144045119   F   F   F
  0.6547396409045092  0.2497083482451785  0.3159103144045119   F   F   F
  0.6547625022209047  0.6246790182669955  0.3159667218028375   F   F   F
  0.6547625022209047  0.8746790184810820  0.3159667218028375   F   F   F
  0.6547625022209047  0.1246790182669955  0.3159667218028375   F   F   F
  0.6547625022209047  0.3746790184810820  0.3159667218028375   F   F   F
  0.7406782056553614  0.7416304489335570  0.5623217518707000   T   T   T
  0.7408513628615555  0.9918264126528376  0.5623734166576169   T   T   T
  0.7408326750836666  0.2422816794622497  0.5620087114179437   T   T   T
  0.7437451420502001  0.4924739672584859  0.5618430087987022   T   T   T
  0.7497181855858486  0.0000100119032282  0.1992701427899632   F   F   F
  0.7497181855858486  0.5000100119032282  0.1992701427899632   F   F   F
  0.7497181855858486  0.7500100121173077  0.1992701427899632   F   F   F
  0.7497181855858486  0.2500100121173077  0.1992701427899632   F   F   F
  0.7497340914871273  0.6250292589019324  0.1993221157413743   F   F   F
  0.7497340914871273  0.8750292591160189  0.1993221157413743   F   F   F
  0.7497340914871273  0.1250292589019324  0.1993221157413743   F   F   F
  0.7497340914871273  0.3750292591160189  0.1993221157413743   F   F   F
  0.7501406436488562  0.6249596902889321  0.3879391263007053   T   T   T
  0.7501877793857016  0.3748872537451835  0.3878672562251410   T   T   T
  0.7501725881069642  0.1249164308559334  0.3878429739246810   T   T   T
  0.7501473346439939  0.7498769624993091  0.3872685382525114   T   T   T
  0.7501664921383305  0.8748983992946783  0.3878674365449933   T   T   T
  0.7501631991598211  0.9999131133744755  0.3872619646594627   T   T   T
  0.7501883428930148  0.2498329461570513  0.3872726211241697   T   T   T
  0.7501800512243186  0.4998809477906231  0.3873541847003870   T   T   T
  0.7522460112352530  0.1224864149291701  0.5563151422403938   T   T   T
  0.7522333193794863  0.6220778013143579  0.5561433530668559   T   T   T
  0.7525696876735523  0.8720835874994564  0.5562680579986050   T   T   T
  0.7532764718368177  0.3723166111731170  0.5561602401421729   T   T   T
  0.8451499272473839  0.6251896283286698  0.3155471503596488   F   F   F
  0.8451499272473839  0.8751896285427563  0.3155471503596488   F   F   F
  0.8451499272473839  0.1251896283286698  0.3155471503596488   F   F   F
  0.8451499272473839  0.3751896285427563  0.3155471503596488   F   F   F
  0.8451807898312538  0.0001939208417241  0.3155011134060643   F   F   F
  0.8451807898312538  0.5001939208417241  0.3155011134060643   F   F   F
  0.8451807898312538  0.7501939210558106  0.3155011134060643   F   F   F
  0.8451807898312538  0.2501939210558106  0.3155011134060643   F   F   F
  0.8467232601270909  0.7486191195388466  0.4860364030664307   T   T   T
  0.8466898253786003  0.9986468891560213  0.4860512027231848   T   T   T
  0.8468289627185078  0.2486870180597968  0.4860326755623599   T   T   T
  0.8473292793368328  0.4987782288962460  0.4857789243896386   T   T   T
  0.8489123092083011  0.1292831663959808  0.4862224638087007   T   T   T
  0.8490042825931691  0.6291485413078763  0.4861697034071560   T   T   T
  0.8489973794113150  0.8792993337800810  0.4862485263409752   T   T   T
  0.8493410082822695  0.3791140403634686  0.4861140495289070   T   T   T
  0.9010183071499397  0.2585581477440806  0.5678538996465136   T   T   T
  0.9008555707776833  0.7588663282099397  0.5677783965303974   T   T   T
  0.9009140392268254  0.0089003885966425  0.5677979683121930   T   T   T
  0.9009913840127279  0.7508695061799990  0.4018396992879218   T   T   T
  0.9009976565075271  0.0008416349095627  0.4018518473484448   T   T   T
  0.9009748423006667  0.5008444806519211  0.4016448728453038   T   T   T
  0.9010571158676115  0.6258373427642193  0.4017684981686592   T   T   T
  0.9014673749584395  0.5086125673427117  0.5679207793970003   T   T   T
  0.9011486212999962  0.8757787611864251  0.4018882627385245   T   T   T
  0.9009827250067431  0.2508085591459159  0.4017909703978413   T   T   T
  0.9011243714492945  0.1257474226021968  0.4018588793520096   T   T   T
  0.9011511967772381  0.3756686611372974  0.4017436001700784   T   T   T
  0.9021754508727778  0.6345715812630094  0.5709881259696243   T   T   T
  0.9024934094828369  0.1347318239540881  0.5710934137720201   T   T   T
  0.9025809676398352  0.8848871852612408  0.5711399777606453   T   T   T
  0.9031270176809734  0.3841268549330273  0.5714314848207225   T   T   T
  0.9057164253114252  0.6251516265128672  0.2320045249323357   F   F   F
  0.9057164253114252  0.8751516267269537  0.2320045249323357   F   F   F
  0.9057164253114252  0.1251516265128672  0.2320045249323357   F   F   F
  0.9057164253114252  0.3751516267269537  0.2320045249323357   F   F   F
  0.9057548087553968  0.0001403618907503  0.2320193078436787   F   F   F
  0.9057548087553968  0.5001403618907503  0.2320193078436787   F   F   F
  0.9057548087553968  0.7501403621048368  0.2320193078436787   F   F   F
  0.9057548087553968  0.2501403621048368  0.2320193078436787   F   F   F
  0.0942451912446032  0.0001403618907503  0.2320193078436787   F   F   F
  0.0942451912446032  0.5001403618907503  0.2320193078436787   F   F   F
  0.0942451912446032  0.7501403621048368  0.2320193078436787   F   F   F
  0.0942451912446032  0.2501403621048368  0.2320193078436787   F   F   F
  0.0942835746885748  0.6251516265128672  0.2320045249323357   F   F   F
  0.0942835746885748  0.8751516267269537  0.2320045249323357   F   F   F
  0.0942835746885748  0.1251516265128672  0.2320045249323357   F   F   F
  0.0942835746885748  0.3751516267269537  0.2320045249323357   F   F   F
  0.0968594236275935  0.3843640332339117  0.5713991122486947   T   T   T
  0.0972399468820354  0.6349034685988389  0.5709956215563928   T   T   T
  0.0973996256896585  0.1346974192936813  0.5711272950755721   T   T   T
  0.0974750508540571  0.8849176463177778  0.5711423599742159   T   T   T
  0.0988700611047633  0.1257316201182379  0.4018555560593361   T   T   T
  0.0989549972875450  0.3756488503298529  0.4017557913395321   T   T   T
  0.0983796571543373  0.5088261514200028  0.5678161743120403   T   T   T
  0.0990771389300055  0.2508357281618080  0.4018035861067183   T   T   T
  0.0988417802064962  0.8757780237600512  0.4018804158335194   T   T   T
  0.0989827008863839  0.6258151217458855  0.4017805976552112   T   T   T
  0.0989905006029943  0.0008383327478633  0.4018454457448621   T   T   T
  0.0991269842853561  0.5008520682138590  0.4016445347913314   T   T   T
  0.0989996601042927  0.7508810071243276  0.4018237899718446   T   T   T
  0.0988979595090161  0.2586048017266898  0.5678878688114447   T   T   T
  0.0989813557448140  0.7589883208732511  0.5677712574644683   T   T   T
  0.0990812011396447  0.0088930201591185  0.5678006569595822   T   T   T
  0.1509789397393554  0.3791377740279508  0.4861138943177866   T   T   T
  0.1509140773796698  0.6292190335434977  0.4862020761769352   T   T   T
  0.1510081003538367  0.8792950135196776  0.4862385819421337   T   T   T
  0.1510489851986737  0.1292320002531233  0.4862155981272057   T   T   T
  0.1528800959249052  0.4987675058154613  0.4857455562066877   T   T   T
  0.1531992106169794  0.2486549768035394  0.4860576079809639   T   T   T
  0.1532380714070141  0.7486595791307800  0.4860181409709736   T   T   T
  0.1532976648689768  0.9986607742779089  0.4860505034315780   T   T   T
  0.1548192101687462  0.0001939208417241  0.3155011134060643   F   F   F
  0.1548192101687462  0.5001939208417241  0.3155011134060643   F   F   F
  0.1548192101687462  0.7501939210558106  0.3155011134060643   F   F   F
  0.1548192101687462  0.2501939210558106  0.3155011134060643   F   F   F
  0.1548500727526161  0.6251896283286698  0.3155471503596488   F   F   F
  0.1548500727526161  0.8751896285427563  0.3155471503596488   F   F   F
  0.1548500727526161  0.1251896283286698  0.3155471503596488   F   F   F
  0.1548500727526161  0.3751896285427563  0.3155471503596488   F   F   F
  0.2469773485908657  0.3723197248370644  0.5563150191762886   T   T   T
  0.2472411947939133  0.6225577609871418  0.5563632979637726   T   T   T
  0.2474508556022240  0.8721203989174644  0.5562444085439466   T   T   T
  0.2476208908832387  0.1222596763305884  0.5562779419823619   T   T   T
  0.2498475149762637  0.7498834300683519  0.3872515527573930   T   T   T
  0.2498313847683750  0.8749045805424445  0.3878597057162773   T   T   T
  0.2498692520836455  0.6249617443878330  0.3878883843981081   T   T   T
  0.2498358519640731  0.9999001595520663  0.3872528674642995   T   T   T
  0.2499076449889709  0.4998480457817412  0.3874605549548769   T   T   T
  0.2498494755870213  0.2498400169803620  0.3872595960726866   T   T   T
  0.2498214200968626  0.1249053994167996  0.3878320596587249   T   T   T
  0.2499371948120356  0.3749126541357758  0.3880468114020572   T   T   T
  0.2502659079606815  0.6250292589019324  0.1993221157413743   F   F   F
  0.2502659079606815  0.8750292591160189  0.1993221157413743   F   F   F
  0.2502659079606815  0.1250292589019324  0.1993221157413743   F   F   F
  0.2502659079606815  0.3750292591160189  0.1993221157413743   F   F   F
  0.2502818138619602  0.0000100119032282  0.1992701427899632   F   F   F
  0.2502818138619602  0.5000100119032282  0.1992701427899632   F   F   F
  0.2502818138619602  0.7500100121173077  0.1992701427899632   F   F   F
  0.2502818138619602  0.2500100121173077  0.1992701427899632   F   F   F
  0.2565891532743426  0.4922755985922704  0.5619276648849579   T   T   T
  0.2589781318183141  0.2418532056126402  0.5622003932760797   T   T   T
  0.2592181152569104  0.7418808603506049  0.5622876653930405   T   T   T
  0.2592051929186131  0.9917549657289976  0.5623907821010340   T   T   T
  0.3452374977790953  0.6246790182669955  0.3159667218028375   F   F   F
  0.3452374977790953  0.8746790184810820  0.3159667218028375   F   F   F
  0.3452374977790953  0.1246790182669955  0.3159667218028375   F   F   F
  0.3452374977790953  0.3746790184810820  0.3159667218028375   F   F   F
  0.3452603590954908  0.9997083480310920  0.3159103144045119   F   F   F
  0.3452603590954908  0.4997083480310920  0.3159103144045119   F   F   F
  0.3452603590954908  0.7497083482451785  0.3159103144045119   F   F   F
  0.3452603590954908  0.2497083482451785  0.3159103144045119   F   F   F
  0.3482340075725348  0.2489246627932344  0.4883787327442274   T   T   T
  0.3483320099410014  0.7492109011270687  0.4883013323166096   T   T   T
  0.3483430324943164  0.9990415308643733  0.4883415725334613   T   T   T
  0.3484993529657348  0.4990680369319667  0.4889720371812238   T   T   T
  0.3489617063750026  0.1228499834715971  0.4881820456722071   T   T   T
  0.3490089684959010  0.6233038865064345  0.4882056277407774   T   T   T
  0.3490214288651913  0.8730466745693174  0.4882182071335163   T   T   T
  0.3496383483958015  0.3727361360817061  0.4887925792153339   T   T   T
  0.4000113074524898  0.3706588083478024  0.5731792335222944   T   T   T
  0.4008134887324487  0.4991561741922984  0.4023793466283391   T   T   T
  0.4008334978833663  0.9990867137600813  0.4022758918013750   T   T   T
  0.4009002774245108  0.7491154970691593  0.4022747488175147   T   T   T
  0.4008275340703559  0.2490746215591756  0.4023240677067915   T   T   T
  0.4011949859570643  0.8741998771302992  0.4025116897671646   T   T   T
  0.4011918212390680  0.6240712422582125  0.4025396534292187   T   T   T
  0.4018061437466625  0.6209104165915341  0.5715101104757757   T   T   T
  0.4011208109065771  0.3742603843479768  0.4025963561899799   T   T   T
  0.4011688318921082  0.1241895047072973  0.4025142989617227   T   T   T
  0.4019501464193606  0.1212284326727320  0.5715752788354634   T   T   T
  0.4016635647345375  0.5003596779565312  0.5707405468794802   T   T   T
  0.4020535627040367  0.8712984723067455  0.5715980449254077   T   T   T
  0.4058965648201962  0.6248444726427422  0.2323487498175751   F   F   F
  0.4058965648201962  0.8748444728568288  0.2323487498175751   F   F   F
  0.4058965648201962  0.1248444726427422  0.2323487498175751   F   F   F
  0.4058965648201962  0.3748444728568288  0.2323487498175751   F   F   F
  0.4059506995515889  0.9998103570065027  0.2323399901691943   F   F   F
  0.4059506995515889  0.4998103570065027  0.2323399901691943   F   F   F
  0.4059506995515889  0.7498103572205892  0.2323399901691943   F   F   F
  0.4059506995515889  0.2498103572205892  0.2323399901691943   F   F   F
  0.4069006698869008  0.2499427390706244  0.5683693303882587   T   T   T
  0.4072623964695015  0.9996581390265211  0.5685378416969504   T   T   T
  0.4072050627431072  0.7497823211235536  0.5686244329528490   T   T   T
  0.4999659078132498  0.6232486858363986  0.4756174678885987   T   T   T
  0.4999916652289794  0.2492971626263981  0.4731020136718922   T   T   T
  0.5000000000000000  0.9996370422826644  0.3031199056678844   F   F   F
  0.5000000000000000  0.4996370422826644  0.3031199056678844   F   F   F
  0.5000000000000000  0.6247350156471256  0.3031143997625279   F   F   F
  0.5000000000000000  0.7496370424967509  0.3031199056678844   F   F   F
  0.5000000000000000  0.8747350158612122  0.3031143997625279   F   F   F
  0.5000000000000000  0.1247350156471256  0.3031143997625279   F   F   F
  0.5000000000000000  0.2496370424967509  0.3031199056678844   F   F   F
  0.5000000000000000  0.3747350158612122  0.3031143997625279   F   F   F
  0.4999940504022152  0.1231101392786788  0.4755177314209091   T   T   T
  0.5000116801856416  0.9991851984430145  0.4727229212381981   T   T   T
  0.4999950895202898  0.7491223488965626  0.4727167819067878   T   T   T
  0.5000789472234460  0.3730894734269201  0.4747380550460872   T   T   T
  0.5000215891681645  0.8730556999813700  0.4755640458056700   T   T   T
  0.5000897803672504  0.4991406634348281  0.4729325966228148   T   T   T
  0.8469024150177784  0.5692089324973478  0.5364624080714452   T   T   T
  0.8470467607487193  0.0695878841101687  0.5366789884846239   T   T   T
  0.8470961908832740  0.8197323687636874  0.5367594647258107   T   T   T
  0.8477944399048162  0.3195036601752799  0.5367261491845533   T   T   T
  0.1520746519723323  0.3195841121867161  0.5368298092282798   T   T   T
  0.1525065685207523  0.5695276511530122  0.5366781220811967   T   T   T
  0.1529077310318397  0.8197660550644703  0.5367640338215247   T   T   T
  0.1529490418117307  0.0695798574360543  0.5366742941339606   T   T   T
  0.5000076743692461  0.2586051567786594  0.5393709205011074   T   T   T
  0.5000408216186961  0.7562584784389347  0.5390106624329203   T   T   T
  0.5000272384386446  0.0066033099493584  0.5389914036941287   T   T   T
  0.5009216356978993  0.5056106612607156  0.5391693031865487   T   T   T
  0.0000000000000000  0.0000718854908470  0.1971343718238288   F   F   F
  0.0000000000000000  0.5000718854908470  0.1971343718238288   F   F   F
  0.0000000000000000  0.6251997477026094  0.1971274191543344   F   F   F
  0.0000000000000000  0.7500718857049335  0.1971343718238288   F   F   F
  0.0000000000000000  0.8751997479166960  0.1971274191543344   F   F   F
  0.0000000000000000  0.1251997477026094  0.1971274191543344   F   F   F
  0.0000000000000000  0.2500718857049335  0.1971343718238288   F   F   F
  0.0000000000000000  0.3751997479166960  0.1971274191543344   F   F   F
  0.9999899176247385  0.0011003423838415  0.5415602662644511   T   T   T
  0.0000265101905480  0.8785028480531543  0.5421915419270523   T   T   T
  0.0000179487241446  0.6256082044704629  0.3693262093881853   T   T   T
  0.9999894286262259  0.8756494870810231  0.3693432468184490   T   T   T
  0.9999980439141560  0.7506614260079280  0.3693827356438305   T   T   T
  0.9999954948472005  0.0006602634254069  0.3693861971240201   T   T   T
  0.0000016203963644  0.1255912418076856  0.3693517219329923   T   T   T
  0.0000310536432595  0.2506400796824672  0.3693658346519193   T   T   T
  0.9999155847260499  0.7509484956670359  0.5414972792006467   T   T   T
  0.0000475836099219  0.5006842040818033  0.3693364770155683   T   T   T
  0.0000526754784450  0.3756199604733531  0.3693106180974849   T   T   T
  0.9997202859562915  0.6286683272535869  0.5421093527445265   T   T   T
  0.5826617485954912  0.5622475047824267  0.2840383746124928   F   F   F
  0.5826617485954912  0.0622475047824267  0.2840383746124928   F   F   F
  0.5826617485954912  0.8122475045683402  0.2840383746124928   F   F   F
  0.5826617485954912  0.3122475045683402  0.2840383746124928   F   F   F
  0.5827027102256537  0.4372504995116770  0.2840867749422387   F   F   F
  0.5827027102256537  0.6872504992975905  0.2840867749422387   F   F   F
  0.5827027102256537  0.9372504995116770  0.2840867749422387   F   F   F
  0.5827027102256537  0.1872504992975905  0.2840867749422387   F   F   F
  0.5838592504461869  0.4362676362618724  0.4541707631409823   T   T   T
  0.5838626805917148  0.1861401486164483  0.4542077168424151   T   T   T
  0.5839395666709707  0.9361693591859466  0.4541514486982805   T   T   T
  0.5840041704274931  0.5610905800900260  0.4545162267005676   T   T   T
  0.5838647509275415  0.6861782693082294  0.4540934755318452   T   T   T
  0.5840641622582333  0.3111014908198390  0.4542288820766610   T   T   T
  0.5840814015433150  0.0611800723632798  0.4543184877053025   T   T   T
  0.5841248884985980  0.8112279083969798  0.4543551083984970   T   T   T
  0.6600575099657401  0.6855209727475652  0.5423619527312242   T   T   T
  0.6601940914572695  0.1847992698278452  0.5422119453681262   T   T   T
  0.6602167450062117  0.9352307258453331  0.5423368245221019   T   T   T
  0.6649085456093909  0.4354973576145257  0.5407018546901491   T   T   T
  0.6656630292367254  0.4374555758991647  0.2027209846340057   F   F   F
  0.6656630292367254  0.6874555756850853  0.2027209846340057   F   F   F
  0.6656630292367254  0.9374555758991647  0.2027209846340057   F   F   F
  0.6656630292367254  0.1874555756850853  0.2027209846340057   F   F   F
  0.6657072857987743  0.5624132520265661  0.2026937805471647   F   F   F
  0.6657072857987743  0.0624132520265661  0.2026937805471647   F   F   F
  0.6657072857987743  0.8124132518124867  0.2026937805471647   F   F   F
  0.6657072857987743  0.3124132518124867  0.2026937805471647   F   F   F
  0.6677155613054780  0.1869828374700798  0.3684751415300135   T   T   T
  0.6677943904492245  0.3121290872825373  0.3685165440388740   T   T   T
  0.6677071013542855  0.0621508151888421  0.3685366345798535   T   T   T
  0.6677115481375869  0.4369999407376857  0.3685352600334267   T   T   T
  0.6676850367371294  0.9369857100837006  0.3684819280179772   T   T   T
  0.6676814018618688  0.6869697619742656  0.3684850864353407   T   T   T
  0.6676704427563125  0.8121380525770857  0.3685483135204071   T   T   T
  0.6678592537442155  0.5621535031920759  0.3684529485596758   T   T   T
  0.6687851699034453  0.0591963509619902  0.5438070633539513   T   T   T
  0.6688653345425968  0.8095939131529740  0.5437204490064510   T   T   T
  0.6698133746527977  0.3085494603368955  0.5438967141316897   T   T   T
  0.6694420209751155  0.5601118898177903  0.5440661118352548   T   T   T
  0.7493612192951891  0.7483007371149611  0.4550553265431981   T   T   T
  0.7493684969004986  0.6264370403855261  0.4559995859431979   T   T   T
  0.7493426136661370  0.9982657393683202  0.4550313957925179   T   T   T
  0.7494225346750197  0.2483147584953609  0.4550513526625465   T   T   T
  0.7494357048466822  0.1263433459446262  0.4558878304838623   T   T   T
  0.7495076729106454  0.8763632277332289  0.4559220719183846   T   T   T
  0.7496022175152849  0.4982936272900562  0.4551163963102662   T   T   T
  0.7496510247399740  0.3762058529420230  0.4558817722398228   T   T   T
  0.7497932119634427  0.6250918038603928  0.2779408447549940   F   F   F
  0.7497932119634427  0.8750918040744793  0.2779408447549940   F   F   F
  0.7497932119634427  0.1250918038603928  0.2779408447549940   F   F   F
  0.7497932119634427  0.3750918040744793  0.2779408447549940   F   F   F
  0.7498000177344295  0.9998887643854673  0.2779024730268418   F   F   F
  0.7498000177344295  0.4998887643854673  0.2779024730268418   F   F   F
  0.7498000177344295  0.7498887645995538  0.2779024730268418   F   F   F
  0.7498000177344295  0.2498887645995538  0.2779024730268418   F   F   F
  0.0823164360430201  0.1887855107315406  0.4535642715261964   T   T   T
  0.0823435510260740  0.4387545362339615  0.4533910122483673   T   T   T
  0.0822918040684414  0.9387985847328117  0.4536095195168404   T   T   T
  0.0822732779144775  0.6887962343717469  0.4535312239083496   T   T   T
  0.0825727650034978  0.4376830284600572  0.2837096284632494   F   F   F
  0.0825727650034978  0.6876830282459707  0.2837096284632494   F   F   F
  0.0825727650034978  0.9376830284600572  0.2837096284632494   F   F   F
  0.0825727650034978  0.1876830282459707  0.2837096284632494   F   F   F
  0.0826029583302130  0.5626929404925889  0.2836274496354534   F   F   F
  0.0826029583302130  0.0626929404925889  0.2836274496354534   F   F   F
  0.0826029583302130  0.8126929402785024  0.2836274496354534   F   F   F
  0.0826029583302130  0.3126929402785024  0.2836274496354534   F   F   F
  0.8294371740921396  0.9416405346256210  0.5429622218440276   T   T   T
  0.8293711293866854  0.6915720444048837  0.5428377846863223   T   T   T
  0.8298116630398416  0.1914614977564369  0.5428114613700726   T   T   T
  0.8317478433130172  0.4415339184370621  0.5427766568417518   T   T   T
  0.8320827076258286  0.6877750113181493  0.3677790390890109   T   T   T
  0.8321038813174868  0.9377611150033005  0.3677886086401274   T   T   T
  0.8323744727183764  0.8128069246113765  0.3680422441538859   T   T   T
  0.8320989354331344  0.4377511227218386  0.3677501101441286   T   T   T
  0.8322304466443949  0.5628304347976353  0.3679187015940099   T   T   T
  0.8321198121038884  0.1877382162180453  0.3677574501316785   T   T   T
  0.8323811236749716  0.0627969947036450  0.3680293603089796   T   T   T
  0.8323267906442410  0.3127630670051227  0.3679634482665150   T   T   T
  0.8336793151700448  0.5625684457322180  0.2026879705260853   F   F   F
  0.8336793151700448  0.0625684457322180  0.2026879705260853   F   F   F
  0.8336793151700448  0.8125684455181315  0.2026879705260853   F   F   F
  0.8336793151700448  0.3125684455181315  0.2026879705260853   F   F   F
  0.8337395527315365  0.4376312579759087  0.2027221981443361   F   F   F
  0.8337395527315365  0.6876312577618222  0.2027221981443361   F   F   F
  0.8337395527315365  0.9376312579759087  0.2027221981443361   F   F   F
  0.8337395527315365  0.1876312577618222  0.2027221981443361   F   F   F
  0.0851697695307733  0.3136194305992040  0.4542286035001847   T   T   T
  0.0851496184807364  0.5637289393206296  0.4540422012571943   T   T   T
  0.0851857021320248  0.8136908439857256  0.4543067718400944   T   T   T
  0.0851775225437934  0.0636793869181945  0.4542959825293216   T   T   T
  0.9147772713499279  0.0636847477856528  0.4543067655089740   T   T   T
  0.9147903233708943  0.8136813798867910  0.4543209443469980   T   T   T
  0.9149438983061058  0.5637319559063539  0.4539931579638891   T   T   T
  0.9149771570025012  0.3136132308148817  0.4541817274569148   T   T   T
  0.9173970416697870  0.5626929404925889  0.2836274496354534   F   F   F
  0.9173970416697870  0.0626929404925889  0.2836274496354534   F   F   F
  0.9173970416697870  0.8126929402785024  0.2836274496354534   F   F   F
  0.9173970416697870  0.3126929402785024  0.2836274496354534   F   F   F
  0.9174272349965022  0.4376830284600572  0.2837096284632494   F   F   F
  0.9174272349965022  0.6876830282459707  0.2837096284632494   F   F   F
  0.9174272349965022  0.9376830284600572  0.2837096284632494   F   F   F
  0.9174272349965022  0.1876830282459707  0.2837096284632494   F   F   F
  0.9177152067130864  0.6887768173509627  0.4535688827043016   T   T   T
  0.9177010742588438  0.9387961556266357  0.4536114219499249   T   T   T
  0.9177008504723262  0.1888000629909044  0.4535711506250710   T   T   T
  0.9179316733817792  0.4387589761521944  0.4534242941658202   T   T   T
  0.9999626581606061  0.2509268569942688  0.5414926615777487   T   T   T
  0.9998406414274261  0.5012177557303422  0.5410003583544257   T   T   T
  0.9999583903152395  0.3787409709073569  0.5418439666544881   T   T   T
  0.9999581028982363  0.1285600513447271  0.5420957768378525   T   T   T
  0.1662604174500757  0.4376312579759087  0.2027221981443361   F   F   F
  0.1662604174500757  0.6876312577618222  0.2027221981443361   F   F   F
  0.1662604174500757  0.9376312579759087  0.2027221981443361   F   F   F
  0.1662604174500757  0.1876312577618222  0.2027221981443361   F   F   F
  0.1663206550115603  0.5625684457322180  0.2026879705260853   F   F   F
  0.1663206550115603  0.0625684457322180  0.2026879705260853   F   F   F
  0.1663206550115603  0.8125684455181315  0.2026879705260853   F   F   F
  0.1663206550115603  0.3125684455181315  0.2026879705260853   F   F   F
  0.1677659945546956  0.3127823961592772  0.3679917656766387   T   T   T
  0.1676175852864026  0.0627927124896683  0.3680201844071112   T   T   T
  0.1678811592911204  0.1877381023736658  0.3677566173485534   T   T   T
  0.1678412174740410  0.5628123351816986  0.3679235797002423   T   T   T
  0.1676198713167371  0.8128114220707821  0.3680327512315513   T   T   T
  0.1679922150336531  0.4377397715083179  0.3677664907333850   T   T   T
  0.1678837881428028  0.9377589474763980  0.3677846777186484   T   T   T
  0.1678979954079239  0.6877729066580043  0.3677585540879726   T   T   T
  0.1682673827086222  0.4415468293785342  0.5426205050257045   T   T   T
  0.1700004659405907  0.1913858028254574  0.5428130355578962   T   T   T