Ta  N Co Cu                             
   1.00000000000000     
    18.1096308199999996    0.0000000000000000    0.0000000000000000
     0.0000000000000000   23.3551997799999995    0.0000000000000000
     0.0000000000000000    0.0000000000000000   30.4818171199999988
   Ta   N    Co   Cu
   228   240    12     2
Direct
  0.9997274732284112  0.0000445221946705  0.1976912828083073
  0.3339537788064320  0.0624663528561555  0.2027584793018562
  0.1658650892781424  0.0624787334041983  0.2029840127669686
  0.2496996640630442  0.1249880432800339  0.2783828108836346
  0.0822722947909469  0.0625601559931539  0.2842285443088670
  0.4167980480746323  0.0624903939840848  0.2842504181768390
  0.9996464937277239  0.1250258044212558  0.3699436077232718
  0.3312792869774057  0.0625309787140296  0.3688983732359787
  0.1675856105072668  0.0625465395398379  0.3686100869741580
  0.2506032425397251  0.1275143288304719  0.4577140806818321
  0.0846329685832785  0.0626257926314651  0.4550605340696023
  0.4162539821535560  0.0620821281163870  0.4538639159508051
  0.9994822704106170  0.1250106213366422  0.5412650158327921
  0.3324711043669595  0.0608003552966139  0.5432471199794691
  0.9996966302756931  0.1249919009613762  0.1976786210013515
  0.3338765971850890  0.1875608666345201  0.2027584076639144
  0.1659804611230342  0.1875706773974599  0.2029956020840942
  0.2498270935903051  0.2499525765695481  0.2782518776023224
  0.0821744067684591  0.1875297251685737  0.2842355797984126
  0.4169469575150515  0.1874759414252836  0.2842617102439249
  0.9995896537702720  0.2500258062434000  0.3698183483812585
  0.3312777046451529  0.1873702358462381  0.3688049084468759
  0.1676483930379504  0.1875004959292852  0.3682731788254259
  0.2499768428225480  0.2483932850639263  0.4568922820811991
  0.0832331591877065  0.1877151998244315  0.4537102844659415
  0.4168424751348567  0.1877776785380547  0.4533978620029231
  0.0015096321023051  0.2487572974098953  0.5417222495515048
  0.3432527330380637  0.1871431492057383  0.5427499450781710
  0.1703860782490452  0.1849972912502054  0.5433521741666070
  0.9996617926233213  0.2500567504483868  0.1976242561071544
  0.3340139774661850  0.3124734811945586  0.2027076161947363
  0.1658381603554133  0.3124609364848183  0.2029032691839774
  0.2498437591533644  0.3750446888799956  0.2782384369103283
  0.0823405171556644  0.3125493405146074  0.2840963447697575
  0.4168343543163076  0.3124998129366361  0.2842204349609716
  0.9996856632434827  0.3751126899575965  0.3698064947320177
  0.3314322204237712  0.3125150940614603  0.3687841825647169
  0.1676192905537519  0.3125382935507588  0.3683165878426991
  0.2504071883569736  0.3770418666885718  0.4570505311021051
  0.0843827876584626  0.3125611968317443  0.4540267925516304
  0.4161679169014079  0.3121151305675198  0.4538582758342997
  0.0012466621975378  0.3754613632926151  0.5413477145903798
  0.3390927610795202  0.3107529392296371  0.5440231875908879
  0.9996760887165976  0.3750204627438407  0.1976430978589079
  0.3339167219586727  0.4375972944035169  0.2027309010072642
  0.1659943004238897  0.4376114236432187  0.2029505855794724
  0.2497436709076979  0.0000347748664353  0.2783413736811511
  0.0822588155632289  0.4375623852366886  0.2842118879046396
  0.4170146078184374  0.4374992197958392  0.2842468501902005
  0.9996695200426515  0.0001267573256811  0.3699771994892345
  0.3313944946205751  0.4374821055454632  0.3687580390605092
  0.1677638942745290  0.4376673040774293  0.3682719094260065
  0.2500563892269483  0.9979997358099837  0.4575506223852983
  0.0834100673540590  0.4376940298033531  0.4537663069676938
  0.4167248895240832  0.4377152349123818  0.4533183504202754
  0.0000092846096820  0.9992501691510327  0.5415702739420496
  0.3432005145420547  0.4376919188475199  0.5427455157504255
  0.1706884661196355  0.4384362700078839  0.5432385665770809
  0.9997017999362896  0.5000745730858398  0.1976443943327553
  0.3339882515938513  0.5624754231260169  0.2027447096868542
  0.1659253761752595  0.5624880309438467  0.2029436143483139
  0.2498653160313182  0.6250173913367334  0.2783668160862547
  0.0823594812203723  0.5625385835868073  0.2841855972162648
  0.4168950352497376  0.5625111553648736  0.2842368962523523
  0.9997790657610750  0.6250099062619157  0.3699376982568907
  0.3314285415589708  0.5625309885560554  0.3688897940452449
  0.1677279862368906  0.5625449483794895  0.3685417262986235
  0.2507730514204454  0.6275074925592534  0.4576548089506005
  0.0849001973996550  0.5625866288164758  0.4549992714939251
  0.4163720612110922  0.5620858491938989  0.4538807191368477
  0.9999671014743683  0.6249771817688767  0.5411919352034289
  0.3326533853989417  0.5608467776238726  0.5432577040743496
  0.9997384500435729  0.6250436930550620  0.1976841115523911
  0.3339624505684782  0.6875794183772470  0.2027441892864630
  0.1659838016702579  0.6876003848813426  0.2029832483389526
  0.2499479149471426  0.7499703390453547  0.2782964330843427
  0.0822939301030772  0.6875372120905965  0.2842629083377233
  0.4170385913588674  0.6874899175637310  0.2842805176332419
  0.9996262594572158  0.7500435727846977  0.3698583710514995
  0.3313667922503072  0.6873883749003937  0.3688318660275556
  0.1677559606694743  0.6875074322452122  0.3682901313630182
  0.2500676925698286  0.7483704696470426  0.4569842594623523
  0.0833897532273440  0.6877162079514036  0.4537444763180432
  0.4169356652912697  0.6877779344470198  0.4534197273611511
  0.0015797915260549  0.7488058205379602  0.5417732006491747
  0.3435289051734358  0.6872101596780595  0.5428193718159378
  0.1706433280897883  0.6848628083426220  0.5434047063508984
  0.9997154123142948  0.7500317090829753  0.1976736385090945
  0.3340023854849434  0.8124788885200900  0.2027620690261003
  0.1659079481625554  0.8124921526095790  0.2029708132012331
  0.2498415079921870  0.8750582456087415  0.2783121068805130
  0.0823935635682602  0.8125504334602311  0.2841734470932877
  0.4168750204891225  0.8124976146645935  0.2842559851617565
  0.9996517022204046  0.8751139717919969  0.3698843350281180
  0.3314572031250265  0.8125039815722204  0.3688421744667494
  0.1676542330432440  0.8125353911040420  0.3683615862564835
  0.2503168424761668  0.8770673159646520  0.4571075385999421
  0.0843770715631820  0.8125844310433052  0.4540861047680949
  0.4162332456184146  0.8121212368455701  0.4538918691576512
  0.0012450954719156  0.8754348255318547  0.5414786424807687
  0.3390635551700356  0.8107623667921473  0.5440842397623769
  0.9997258127801416  0.8750173165102382  0.1977127032894117
  0.3339145297014454  0.9375784266944791  0.2027675459374549
  0.1659664909774463  0.9376049207614585  0.2030045285969067
  0.2498678991970067  0.5000471153437331  0.2782723094842936
  0.0822270146615693  0.9375758638464546  0.2842875130118045
  0.4169884818746112  0.9374941388090789  0.2842880330260726
  0.9997662023058780  0.5001184124355333  0.3699178223742834
  0.3313200800716274  0.9374658520674188  0.3687991017123338
  0.1676911606228302  0.9376688445604628  0.3683586203666991
  0.2502602838623957  0.4979770252756524  0.4574691190139930
  0.0833492026580558  0.9377323956984824  0.4538812147606350
  0.4166652220853351  0.9377460147986056  0.4533311310383326
  0.0002397759566009  0.4992363805646889  0.5414857888822482
  0.3431167276296634  0.9377074627360074  0.5427553689793925
  0.1704732916117848  0.9384846941087233  0.5433789310431933
  0.4999079068643439  0.0000197670787259  0.1975784830917675
  0.8337796699609257  0.0624733559469348  0.2029943062087796
  0.6657647823500241  0.0624553341635163  0.2028140281885271
  0.7497056748526063  0.1250321516773809  0.2784027615492803
  0.5827339872877957  0.0624932698403597  0.2843015545262872
  0.9170531574826200  0.0625307876341381  0.2842929677966026
  0.4994650963780671  0.1250533560878111  0.3693719279491177
  0.8317158377974891  0.0625639861399208  0.3686599261902614
  0.6679684829695560  0.0625356077741301  0.3689200456305883
  0.7487172294633311  0.1273008408261234  0.4577649786149323
  0.5823241538030004  0.0621244609905531  0.4536311756412914
  0.9146557363459351  0.0626810585730837  0.4550774968074620
  0.5001249985580856  0.1123792496092264  0.5435790060820622
  0.6670638385212868  0.0608243241175614  0.5428958485927708
  0.4999170603791185  0.1249725012158933  0.1976057490130572
  0.8336805109177092  0.1875521046381223  0.2030161747795134
  0.6658285212969162  0.1875839806038968  0.2028122863393591
  0.7496604020229896  0.2500106594723661  0.2783730006812632
  0.5825934698520570  0.1874908828558972  0.2843092530734097
  0.9171569416431140  0.1875344529142353  0.2843441367788913
  0.4994279328223499  0.2498213783541487  0.3693494861339701
  0.8317050100249332  0.1876156626921883  0.3684899717628554
  0.6680192067148312  0.1874390312040575  0.3688828530244876
  0.7494998006163485  0.2482943567024876  0.4574537889709873
  0.5815175952273037  0.1878493817061866  0.4530573305110721
  0.9162811218874651  0.1877840166424392  0.4536403415749675
  0.8279452538871368  0.1866898317530072  0.5428452240275234
  0.6568256624146898  0.1872775615851694  0.5411707438557372
  0.4999080652514039  0.2500186278843515  0.1975606298584367
  0.8338091901219329  0.3124777417433009  0.2029431016961638
  0.6657020439230976  0.3124673509074611  0.2027924279152273
  0.7497302085296340  0.3750247394990893  0.2784346370485338
  0.5827360423453669  0.3125040844723372  0.2842877533738033
  0.9170408788723989  0.3125544077796221  0.2842292948301548
  0.4994708743857785  0.3750533786469248  0.3693996515604780
  0.8317853765364163  0.3125728826630905  0.3686586950615691
  0.6680521364061036  0.3125688006977825  0.3688792050737177
  0.7489375280954818  0.3773128931606138  0.4579745377688411
  0.5824507025112595  0.3121285680854129  0.4535740117455234
  0.9149411141217314  0.3126272808609087  0.4551294829138612
  0.5026719677326810  0.3634749626184330  0.5432311790830582
  0.6677990050634506  0.3108246956344658  0.5429215618439329
  0.4999212169533536  0.3749947839370833  0.1975864316028790
  0.8337282133778032  0.4375992479697501  0.2030086261184820
  0.6658043877959230  0.4375855890466269  0.2028023152856733
  0.7496911139658096  0.9999672382990568  0.2783934910239694
  0.5826580024599366  0.4375007884719295  0.2843284748491968
  0.9172014898035741  0.4375553538640347  0.2843536945682601
  0.4995174128611097  0.9998325335462468  0.3693172827866817
  0.8317526288653880  0.4375892733666689  0.3684891315381122
  0.6680992216714046  0.4374201542514768  0.3689177278770188
  0.7493481382556126  0.9983503599459311  0.4574629856169210
  0.5814348180910756  0.4378351079711678  0.4531550445578603
  0.9165494354742592  0.4378080978954770  0.4535729883053179
  0.8287036297835613  0.4366688130210576  0.5426976705041469
  0.6573419656061361  0.4374904206831971  0.5411618104731346
  0.4999492963903478  0.5000385360410604  0.1975595758470661
  0.8337663901795267  0.5624868329773278  0.2029967838939584
  0.6657789510368985  0.5624758665005132  0.2028185522990285
  0.7498003534633639  0.6250349285835455  0.2784360627386278
  0.5828043252630124  0.5625085069979789  0.2843106613321211
  0.9171022685757961  0.5625496712424720  0.2842848931402102
  0.4995669323834946  0.6250652440502407  0.3693857461639709
  0.8318042267315917  0.5625581394426433  0.3686695452107287
  0.6680648800602285  0.5625488406247499  0.3689340815575903
  0.7489781108590776  0.6272767104314951  0.4578523833548829
  0.5824452482563132  0.5621458166801787  0.4536314241144481
  0.9148590694317349  0.5626260034674928  0.4550506077419314
  0.5006234497041433  0.6124796615947972  0.5435853304025926
  0.6673125515051197  0.5608597226433005  0.5428761105616644
  0.4999432856119768  0.6250067118864067  0.1976057049547038
  0.8337675002963678  0.6875732523313047  0.2030362004216784
  0.6658196864524086  0.6876035397767595  0.2028146566903928
  0.7497678756265174  0.7499959075034752  0.2784251852824653
  0.5826842716827514  0.6874995654777223  0.2843400438529997
  0.9172401418668983  0.6875457472161699  0.2843834913768433
  0.4994904636394395  0.7498136197790757  0.3693763969611652
  0.8317977348850576  0.6876120990073176  0.3685323063903496
  0.6681279386725123  0.6874476018963378  0.3689118841379297
  0.7496264730364786  0.7482946011085545  0.4574768991028790
  0.5816343272744291  0.6878694405596448  0.4530995416985277
  0.9164386763266492  0.6877859983081152  0.4536402041508367
  0.8283680017755444  0.6867597105575811  0.5428354786435179
  0.6571872672630832  0.6872906340542997  0.5411511914793579
  0.4999271903042057  0.7500117574088065  0.1975716506158705
  0.8338326247266608  0.8124810175774613  0.2029932266839936
  0.6657779772847761  0.8124623634790140  0.2028292401672971
  0.7497917495615596  0.8750218501391060  0.2784611215959316
  0.5827961344503194  0.8125082111557234  0.2843037468066143
  0.9171046249560533  0.8125488759158372  0.2842823797621250
  0.4994462129631216  0.8750449700757130  0.3694229564537963
  0.8318497909684410  0.8125899160654200  0.3687099813231072
  0.6681083310811715  0.8125665915374043  0.3688924815019590
  0.7489396222620925  0.8773297961600690  0.4579342618065354
  0.5824908967586495  0.8121309086175543  0.4536018554116481
  0.9149831562463007  0.8126473639360157  0.4551801440267198
  0.5025448946115176  0.8635245135997707  0.5432950562354080
  0.6678869173236919  0.8108251724136721  0.5429457515187224
  0.4999234215875532  0.8750071383676783  0.1976102253130136
  0.8337609759925115  0.9375919627146061  0.2030511682189555
  0.6658146813367622  0.9375617650652757  0.2028141122762221
  0.7497162868091181  0.4999749640695512  0.2783827302006188
  0.5826480896266872  0.9374967810621655  0.2843263579267372
  0.9172045645073084  0.9375471049803750  0.2843988451421993
  0.4995942374053115  0.4998432958861940  0.3693120195328348
  0.8317208626746790  0.9376010716286984  0.3685140854071065
  0.6680657509592152  0.9374179201562143  0.3689103304544403
  0.7494685384317350  0.4983418851451660  0.4574762370896934
  0.5813962353466877  0.9378233887320064  0.4531414281385509
  0.9164358406207000  0.9378467828849537  0.4536576780375938
  0.8285759359114593  0.9366290766353913  0.5427707711242675
  0.6572793848315683  0.9374702529267296  0.5411733765814759
  0.4054554889291921  0.9999594677449153  0.2324486330037132
  0.2499344766126370  0.0000292094858452  0.1994377378423877
  0.0941123400406383  0.0000162827852108  0.2324990957176567
  0.1546670776707799  0.1249888910647741  0.3159663163931654
  0.9996656433017534  0.1249980946787517  0.3033267138153661
  0.3447263630414739  0.1250005541055330  0.3162170864082725
  0.4004845636715189  0.1248290281096587  0.4021861113312539
  0.2493300590334542  0.1248986025004513  0.3890000026386815
  0.0990582608045045  0.1250261672437958  0.4021286397316359
  0.1503057572680220  0.1266092078422218  0.4874276045222246
  0.9996594070841454  0.1250488569186459  0.4730086087747836
  0.3513679461789607  0.1252601131086735  0.4881430902819517
  0.4063805822566238  0.1267593205508888  0.5718441060742521
  0.2567834064978101  0.1307429837711993  0.5561010746477848
  0.0972621170949495  0.1273870826879531  0.5695345156721530
  0.4053649172396092  0.1250244485725389  0.2324553780007008
  0.2499269538290605  0.1249917075760365  0.1995416308414093
  0.0941286983707030  0.1250576076131011  0.2325044578489752
  0.1546583443600582  0.2500016231091848  0.3157476250802773
  0.9997037974040879  0.2500980018989551  0.3032256605075077
  0.3448265220690061  0.2499072970121006  0.3160865968821795
  0.4003315424874359  0.2499970139014351  0.4020180596340737
  0.2493572003944422  0.2500076820593833  0.3885010206205521
  0.0990942567134638  0.2499506883778366  0.4017798177979728
  0.1506000730324217  0.2487161534823059  0.4874291690371209
  0.9999059879521539  0.2501391227915022  0.4731562183631581
  0.3498182039196394  0.2503579300919014  0.4881311508128263
  0.4136397315563727  0.2545173937150693  0.5657914963662307
  0.2601113464219154  0.2475190476155404  0.5607190328343066
  0.0992169327419958  0.2494092996547153  0.5699191394540364
  0.4054594193209482  0.2499687756412285  0.2324289679209173
  0.2499318851727992  0.2500418971448468  0.1993294105968886
  0.0940451797232029  0.2499908766956480  0.2324064353450268
  0.1548358121292850  0.3750903105968391  0.3158078355922669
  0.9997478638720096  0.3750214633702029  0.3032124852193334
  0.3447923468386094  0.3750681438560122  0.3161474728170077
  0.4003755919167489  0.3748327870356789  0.4021953559251301
  0.2494196457143971  0.3750277087293341  0.3886822316570573
  0.0991597943440397  0.3752579826660210  0.4017656870035182
  0.1509414949419252  0.3764289038104280  0.4872405816599468
  0.0000687990338406  0.3750684659378436  0.4729500363035513
  0.3505431199751072  0.3748341587757906  0.4887453891847997
  0.4092440413571126  0.3764265737120596  0.5716237266973465
  0.2582216549700576  0.3832823300007391  0.5622968075778871
  0.0991460782004410  0.3749858847539826  0.5695466273624845
  0.4054041846117826  0.3750476713276498  0.2324459654760105
  0.2499230483061723  0.3750109199694478  0.1995437377144924
  0.0941381020919607  0.3751007095796197  0.2324309975281622
  0.1546203281742891  0.0000938940351460  0.3159293039307443
  0.9996977939191467  0.0001068660981574  0.3033699732256778
  0.3447568063976263  0.9999869202853588  0.3161345174594814
  0.4005188129095956  0.0000193970070370  0.4019172636719475
  0.2493237155008572  0.0001932703484613  0.3888447619887643
  0.0991420549397972  0.0001375062960278  0.4021827449195925
  0.1500426087062152  0.9989921812577194  0.4879754338603774
  0.9997369870483368  0.0002574508317466  0.4731264192241227
  0.3504606136202710  0.0000269332762528  0.4873961657188346
  0.4104053108748076  0.0045691451686309  0.5652222258747699
  0.2576758017312102  0.9985301693128150  0.5552167386919464
  0.0973315910863519  0.9971831690623816  0.5700697429089416
  0.4055000952931920  0.4999763892669975  0.2324172662831288
  0.2499452120532908  0.5000528949174878  0.1992701765969969
  0.0941087799750449  0.5000219235058623  0.2324267178522774
  0.1548081866907722  0.6249935838940957  0.3159239032235917
  0.9997695632444632  0.6249848218038636  0.3033200323663721
  0.3448723768535871  0.6250193541616582  0.3162225779293948
  0.4005996683098445  0.6248194043841195  0.4022071720909892
  0.2494655059450608  0.6248992749987394  0.3889717260970542
  0.0992288748361148  0.6250389752589101  0.4020843020473421
  0.1505265011743759  0.6265959124409477  0.4874055202573970
  0.9999103582492879  0.6249930881156232  0.4729277443313933
  0.3514382566220675  0.6252880364452054  0.4881685998057321
  0.4068377688549702  0.6268674744325793  0.5717670540776467
  0.2571471406400789  0.6308632094508368  0.5563682038512354
  0.0976098403168066  0.6271789252181250  0.5695122671690811
  0.4054105153956584  0.6250504886824046  0.2324621211700872
  0.2499557293986427  0.6250402307939922  0.1995900264251347
  0.0941974921587416  0.6250690241025865  0.2324909591139317
  0.1547663268170680  0.7500201683520373  0.3157943047426173
  0.9997886371779217  0.7500909499794020  0.3032714362430937
  0.3449158149688500  0.7499149443049546  0.3161388682862238
  0.4004092469266496  0.7500127641897620  0.4020582229521708
  0.2493976832696490  0.7500054735371720  0.3885825139023069
  0.0991451891161219  0.7499312122037836  0.4018164910565574
  0.1506605582599576  0.7487231881604757  0.4874893364740913
  0.0000094606455150  0.7501749963216540  0.4731702845823236
  0.3499373211764052  0.7503847531834538  0.4881993911717473
  0.4138228200637499  0.7546858762431157  0.5658821472319815
  0.2601863495215326  0.7476226286454803  0.5607097953302969
  0.0992937551238597  0.7493577293321749  0.5698891925274765
  0.4054906838120473  0.7499748913642605  0.2324439065260151
  0.2499550528749097  0.7500380773985924  0.1993833611751299
  0.0941319459052821  0.7499927829707360  0.2324506294133144
  0.1548200670933397  0.8750961082707960  0.3158850318263546
  0.9997565810945730  0.8750123518066388  0.3032898487076139
  0.3448007754406888  0.8750465440203925  0.3161984967709444
  0.4003495868666889  0.8748146796109992  0.4022223778871918
  0.2493713696766804  0.8750022609215407  0.3887074352236510
  0.0991370624006649  0.8752728916926458  0.4018409499540709
  0.1508495577954818  0.8764715583960765  0.4873481033473155
  0.0000263492059389  0.8750817032277496  0.4730524366381559
  0.3505157661444329  0.8748471839901129  0.4887148270568460
  0.4091617091127020  0.8766285157833735  0.5717192547920220
  0.2581490061435474  0.8832947697490781  0.5623212684811136
  0.0991430857457303  0.8749547402380671  0.5697122854877747
  0.4054105581623091  0.8750500810158641  0.2324781569572139
  0.2499370004002586  0.8750232614353166  0.1995557047233589
  0.0941833999343586  0.8751092424142257  0.2325053571727906
  0.1547343201857601  0.5000699483433664  0.3158462065511074
  0.9997639605257049  0.5001001763597870  0.3032992636960188
  0.3448547460418396  0.4999998257442897  0.3161092116733357
  0.4006039607680449  0.5000172029880261  0.4019114943849971
  0.2494210318347854  0.5001776667044169  0.3887964245886053
  0.0992529559859747  0.5001335922958390  0.4021053120831084
  0.1502787896809465  0.4989076745356371  0.4878812115510485
  0.9999451529599526  0.5002449798840800  0.4730307563770495
  0.3505898770865983  0.5000185490208082  0.4873985735467627
  0.4105707411132045  0.5046525723481281  0.5651815283817072
  0.2577729485876290  0.4985616428653472  0.5552044058337700
  0.0975177378166237  0.4971430028088406  0.5699540934946228
  0.9054592080081107  0.9999933492527902  0.2326012512438211
  0.7497998377636108  0.0000090139701072  0.1994799779460337
  0.5942619639895810  0.9999566926683130  0.2324984752251922
  0.6547440127312356  0.1250418632671071  0.3162437798625675
  0.4997444177349664  0.1249815970575412  0.3029159370600780
  0.8446225492537849  0.1250613623508130  0.3160352523353396
  0.9002962161278347  0.1250266457488749  0.4020844363977432
  0.7499503366367080  0.1249517675610576  0.3890507486181107
  0.5984176861542494  0.1247791925614621  0.4019831191470260
  0.6471435332483253  0.1251238753888870  0.4875096126887044
  0.4992880310301544  0.1244962804325453  0.4747319565045629
  0.8493088946314344  0.1269074997263573  0.4871661963140923
  0.9019375276417350  0.1271615037490506  0.5692553513903960
  0.7431957750096032  0.1295983797670530  0.5544570645085543
  0.5936604836661559  0.1260649714465245  0.5714329867981505
  0.9053746271806631  0.1250483902635509  0.2326036463571128
  0.7497827158043222  0.1249934029445257  0.1995205532394522
  0.5943465469244700  0.1250353620925182  0.2325206118294716
  0.6547182037526653  0.2499476670598497  0.3161739566228476
  0.4997435609723198  0.2500024624174628  0.3028969708041558
  0.8447289436799181  0.2500643896180819  0.3159845833265251
  0.9002491593029660  0.2502418228574612  0.4021613606685506
  0.7500120412173672  0.2501602139547501  0.3888886485570993
  0.5985207753032000  0.2501205614903341  0.4017016250349954
  0.6488053435917251  0.2503806506955968  0.4869456624080968
  0.4994138981514880  0.2502317443839033  0.4736116361432963
  0.8495602892579512  0.2488357859359596  0.4879218816554030
  0.9035142058684187  0.2471524061428738  0.5694523518832071
  0.7417135260120276  0.2471333109938314  0.5553081211711799
  0.5896268111379470  0.2544057615062059  0.5650539576982894
  0.9053839626834232  0.2499928677721144  0.2325465357584164
  0.7497917851583935  0.2500456713583574  0.1993869221875073
  0.5942321830969846  0.2499603898151435  0.2324974478135218
  0.6547704530699789  0.3750517461654042  0.3162541674107615
  0.4997726265283546  0.3749967091799888  0.3029401985577493
  0.8446952504043637  0.3750539295220747  0.3160307561832880
  0.9004103099489171  0.3749945445252507  0.4020621064160892
  0.7500427774545031  0.3749294202452091  0.3891636738308790
  0.5985180729940183  0.3748077745673797  0.4019535679972037
  0.6471110754758769  0.3750373611845745  0.4875204331135379
  0.4993361817161315  0.3745768700405279  0.4743265463874380
  0.8498577783335861  0.3769013474011018  0.4870812254040473
  0.9031630984206842  0.3772337721852992  0.5691412082709491
  0.7441355851381104  0.3794228432720033  0.5537435942239597
  0.5959127767386150  0.3759065383947018  0.5721047244671595
  0.9053491178578597  0.3750957180194092  0.2325770635849764
  0.7497845456587271  0.3750141526908237  0.1996407268182949
  0.5943395590761185  0.3750667881278886  0.2325273914539778
  0.6547438869843063  0.9999517638775970  0.3161998645183957
  0.4997641541504407  0.0000026074908348  0.3028780986674704
  0.8447197694157325  0.0000415941192031  0.3160163378711616
  0.9002267000729347  0.0002516887886941  0.4021541004057170
  0.7499892302222761  0.0001246172431664  0.3888877009118801
  0.5984891396546530  0.0000621535447820  0.4017517416205365
  0.6486048859942173  0.0004091498420635  0.4869502114290043
  0.4992201416248250  0.0001487274148815  0.4737299559496506
  0.8494310509931893  0.9988823197850891  0.4878546921654703
  0.9026417787879595  0.9973686806163116  0.5696274594875135
  0.7417885750104602  0.9973399805804561  0.5550078123229909
  0.5892756104571930  0.0042374233883677  0.5651031693849831
  0.9054460879721944  0.5000179591260405  0.2325697713137984
  0.7497884239137420  0.5000328686159961  0.1993994845359595
  0.5942816832374191  0.4999730940649414  0.2325074226316488
  0.6548357196514516  0.6250505850820360  0.3162600548488612
  0.4998270558435465  0.6249934200176810  0.3029327523276564
  0.8447194278561199  0.6250678791654707  0.3160664079445041
  0.9004180679645870  0.6249941890121704  0.4020863256540608
  0.7500606636865967  0.6249510195698704  0.3891136411640232
  0.5985328191376738  0.6248110514140635  0.4019926561402087
  0.6473152520807588  0.6251222379273713  0.4875129368218296
  0.4994417632265638  0.6245062407866016  0.4747407520230169
  0.8496500503952831  0.6268302857674968  0.4872054806956285
  0.9024478963100933  0.6272913656720505  0.5692706014640052
  0.7436577945992866  0.6295463964528807  0.5542650058617511
  0.5942059015444201  0.6260327605789371  0.5715057145675857
  0.9054019192972689  0.6250713100023120  0.2326177778856646
  0.7498059079315169  0.6250348813990598  0.1996001708792505
  0.5943841382099109  0.6250622850361367  0.2325367336663930
  0.6548020703742807  0.7499550150542547  0.3161949393038839
  0.4998164260597378  0.7500114747315791  0.3029196296141805
  0.8448264964319421  0.7500626743113301  0.3160351697386687
  0.9003105537880600  0.7502717055023211  0.4022044240251148
  0.7500911453602512  0.7501626460920008  0.3889116268060064
  0.5986000523485302  0.7501216436359002  0.4017310596597596
  0.6489132600560339  0.7504084395943664  0.4869643027611303
  0.4995142087349365  0.7502317506868792  0.4736540836615220
  0.8496862594397072  0.7488090448982732  0.4879335011512964
  0.9035928113862752  0.7473477105530009  0.5695168209138686
  0.7419972518198605  0.7471846920932421  0.5552251775427024
  0.5898502707255631  0.7543658019551742  0.5650842473437123
  0.9054495098667061  0.7499886716570856  0.2326005519835235
  0.7498423981868854  0.7500341886526698  0.1994425097061097
  0.5942581259773760  0.7499621687067730  0.2325157423533568
  0.6548165137789681  0.8750510951872243  0.3162582590667853
  0.4997972394513965  0.8749958511176388  0.3029654944090652
  0.8447313983616667  0.8750532955517372  0.3160792319972998
  0.9003929940061042  0.8750327425247519  0.4021394568321881
  0.7500467535267106  0.8749536126140214  0.3891530108483963
  0.5985207591603299  0.8747876220900963  0.4019528003287149
  0.6471672200296084  0.8750477169763329  0.4875312544602579
  0.4993310148697461  0.8746020921351558  0.4743687553679337
  0.8497605838030040  0.8769073223446355  0.4871564634633856
  0.9031326240331694  0.8772704785668282  0.5691834258234678
  0.7440433872284586  0.8794783925016958  0.5539395755755265
  0.5958232165346971  0.8759282995033644  0.5721089963630916
  0.9053809181285999  0.8750846748832473  0.2326315675109782
  0.7498336715222038  0.8750094058063027  0.1996400348486844
  0.5943549204172456  0.8750624984860380  0.2325310514136376
  0.6547842442683773  0.4999525091474055  0.3162019078734915
  0.4998084059553776  0.5000038417039008  0.3028711076935693
  0.8447608199600509  0.5000519139726975  0.3160013517338882
  0.9003218948982195  0.5002250501138406  0.4021071957771696
  0.7500631267327265  0.5001069018533428  0.3889016713628379
  0.5985576140855500  0.5000794708038967  0.4017579466627268
  0.6487337752971811  0.5004409735948059  0.4869434479387422
  0.4993203075917876  0.5001686920377040  0.4737431692898966
  0.8496023139443025  0.4988337592893117  0.4878205095016952
  0.9028718516537211  0.4973254594236067  0.5695844226762716
  0.7419317260731049  0.4972616951795743  0.5550036962148468
  0.5894692863339444  0.5042833421091046  0.5650955492463439
  0.1273444972670248  0.0618184614196977  0.5357782786387233
  0.1278524773138940  0.3119340720292172  0.5322814986945659
  0.1279509271020558  0.5616504158307905  0.5356822485332344
  0.1278939443060452  0.8119485903902373  0.5322819976285871
  0.8730077700998109  0.0616616706391966  0.5364833862052123
  0.5014911512025861  0.2615977396341478  0.5364301020879054
  0.8750021844735940  0.3115393060505056  0.5367768835040252
  0.5004677010629237  0.0109310434007455  0.5366728790836959
  0.8733323141896534  0.5617667440948679  0.5364923843336058
  0.5017169178486540  0.7616298003217068  0.5364739834016135
  0.8747533508747409  0.8116423037851135  0.5367353825229273
  0.5006294174009867  0.5110553456175566  0.5366637233661820
  0.2168621843853487  0.8149184596487302  0.5903866657223205
  0.2167744065449995  0.3148543476097529  0.5902817806410212
 
  0.00000000E+00  0.00000000E+00  0.00000000E+00
  0.00000000E+00  0.00000000E+00  0.00000000E+00
  0.00000000E+00  0.00000000E+00  0.00000000E+00
  0.00000000E+00  0.00000000E+00  0.00000000E+00
  0.00000000E+00  0.00000000E+00  0.00000000E+00