Mo  S Co                                
   1.00000000000000     
    15.9214998300000001    0.0000000000000000    0.0000000000000000
    -7.9622501300000001   13.7910221699999997    0.0000000000000000
     0.0000000000000000    0.0000000000000000   13.5821998300000004
    25    49     4
Direct
  0.1330155675079397  0.0654843748696065  0.6705889335531736
  0.1371018375372358  0.2660201445738238  0.6688957985880475
  0.1323768362575758  0.4620035979155206  0.6739867655196420
  0.1326838451211024  0.6637364048294671  0.6765681551042484
  0.1327957719078801  0.8643691633015028  0.6737596813763855
  0.3311180512059524  0.0629307806230215  0.6760370296505338
  0.3290653812870794  0.2644595290814611  0.6722600144680735
  0.3302172694103647  0.4591826761225797  0.6702939011660145
  0.3329967071976651  0.6643472356701461  0.6759995959906389
  0.3318686527354586  0.8633266929169793  0.6763995330003542
  0.5312767785396730  0.0628302216597731  0.6810952753903422
  0.5270744991285006  0.2607342741871084  0.6885809709718138
  0.5292129353341083  0.4623030277803758  0.6818533620751338
  0.5318541890946423  0.6654474600922914  0.6775679297371247
  0.5322980003008254  0.8642122395966928  0.6773420569345254
  0.7326076773791304  0.0634823539253784  0.6787897170974337
  0.7337594575658162  0.2620157616944369  0.6885641384991975
  0.7348502807326580  0.4698401624449213  0.6898377363861764
  0.7318278023933615  0.6663605064827334  0.6780894302535906
  0.7328020964506941  0.8651820255621183  0.6760550740343906
  0.9339958366328971  0.0652710229873368  0.6740889172863753
  0.9351136418539454  0.2636043331572563  0.6788842889649296
  0.9311693036395086  0.4629235642161628  0.6842980829149730
  0.9342832462619940  0.6662256108549350  0.6775490695903481
  0.9330753181974578  0.8655134803237168  0.6736136363886992
  0.0658110395452155  0.1323837800710203  0.5556381323753201
  0.0718905953840564  0.1355733671519588  0.7860212948706209
  0.0647130077766647  0.3290825173278015  0.5584515799633756
  0.0750695649493659  0.3307179817820822  0.7901140956223967
  0.0611860911479974  0.5282627999041328  0.5638811533818601
  0.0684889751177582  0.5304361271071102  0.7924793711108907
  0.0653866305897312  0.7293553846067151  0.5605761357956470
  0.0685729180596892  0.7334906525001592  0.7908889237440424
  0.0657024172837161  0.9301668347648390  0.5572939322229277
  0.0669611138453684  0.9331642001214354  0.7870893482196959
  0.2685265963732272  0.1322039053041446  0.5574277107768455
  0.2620440651199313  0.1315165433742277  0.7874693725393639
  0.2675856570292193  0.3306005858735393  0.5540209903419822
  0.2668586053659867  0.5306760387198652  0.5590439187320505
  0.2649436767906949  0.5256670295686880  0.7866634750341059
  0.2655610300295320  0.7301068577743994  0.5610046434797431
  0.2656404135902042  0.7300158120815659  0.7915290629114451
  0.2668844139185125  0.9307491354221378  0.5597843612637458
  0.2638734980788497  0.9296872669251971  0.7904795037315020
  0.4678831848169849  0.1328192625234703  0.5664226763050754
  0.4585666244019095  0.1235282384227760  0.7967182365748221
  0.4672458932358494  0.3294380143715795  0.5672389736142892
  0.4438901712623600  0.3259134912069696  0.8043210335079936
  0.4665974991999745  0.5309860607106773  0.5620576682309845
  0.4593325421754554  0.5279116158570339  0.7910869443372081
  0.4661995011223720  0.7314649856411392  0.5615656165019554
  0.4650943467929899  0.7314819863591946  0.7924178834470249
  0.4665241095961187  0.9321552877380056  0.5629933470795687
  0.4637231658465624  0.9281317000831822  0.7934489378043306
  0.6658343279908244  0.1331262130892307  0.5678649112366728
  0.6645245957197922  0.1249377519379836  0.7975369913080225
  0.6657086458121694  0.3321170855055608  0.5818075079631471
  0.6477086015490534  0.3058326963009137  0.8295109947127922
  0.6646831879486934  0.5286758633168317  0.5698087646890724
  0.6698198662595677  0.5420468811267275  0.8044867843198957
  0.6648267300464460  0.7308912705551216  0.5619975786398352
  0.6656631396550875  0.7337574749515903  0.7924894245740487
  0.6656164461756866  0.9319801904155927  0.5619347059753259
  0.6659245611994775  0.9299242611877984  0.7925583779859198
  0.8651812233067697  0.1320267746433127  0.5624423651181610
  0.8679610028178961  0.1289751104990747  0.7921977531805636
  0.8631329234854854  0.3297454883844748  0.5702313690980142
  0.8714917938981644  0.3260313626237604  0.8043236179286414
  0.8629080885523075  0.5282374378852587  0.5696421743439873
  0.8714196149471635  0.5420712376761818  0.8041384244195078
  0.8644221414350864  0.7294076591006186  0.5617345558458425
  0.8680568903397693  0.7355553540818011  0.7909015540659735
  0.8652263216327359  0.9314781234367910  0.5592164549844283
  0.8680213538297615  0.9326411306783239  0.7894152463960286
  0.3944485166221082  0.4762936482691994  0.9382094885984605
  0.5891268538957889  0.3953846893450016  0.8375244974839154
  0.7946561392729109  0.3957586074522861  0.8432542266985834
  0.2579109951093173  0.4621543518530595  0.9319331853543659
 
  0.00000000E+00  0.00000000E+00  0.00000000E+00
  0.00000000E+00  0.00000000E+00  0.00000000E+00
  0.00000000E+00  0.00000000E+00  0.00000000E+00
  0.00000000E+00  0.00000000E+00  0.00000000E+00
  0.00000000E+00  0.00000000E+00  0.00000000E+00
  0.00000000E+00  0.00000000E+00  0.00000000E+00
  0.00000000E+00  0.00000000E+00  0.00000000E+00
  0.00000000E+00  0.00000000E+00  0.00000000E+00
  0.00000000E+00  0.00000000E+00  0.00000000E+00
  0.00000000E+00  0.00000000E+00  0.00000000E+00
  0.00000000E+00  0.00000000E+00  0.00000000E+00
  0.00000000E+00  0.00000000E+00  0.00000000E+00
  0.00000000E+00  0.00000000E+00  0.00000000E+00
  0.00000000E+00  0.00000000E+00  0.00000000E+00
  0.00000000E+00  0.00000000E+00  0.00000000E+00
  0.00000000E+00  0.00000000E+00  0.00000000E+00
  0.00000000E+00  0.00000000E+00  0.00000000E+00
  0.00000000E+00  0.00000000E+00  0.00000000E+00
  0.00000000E+00  0.00000000E+00  0.00000000E+00
  0.00000000E+00  0.00000000E+00  0.00000000E+00
  0.00000000E+00  0.00000000E+00  0.00000000E+00
  0.00000000E+00  0.00000000E+00  0.00000000E+00
  0.00000000E+00  0.00000000E+00  0.00000000E+00
  0.00000000E+00  0.00000000E+00  0.00000000E+00
  0.00000000E+00  0.00000000E+00  0.00000000E+00
  0.00000000E+00  0.00000000E+00  0.00000000E+00
  0.00000000E+00  0.00000000E+00  0.00000000E+00
  0.00000000E+00  0.00000000E+00  0.00000000E+00
  0.00000000E+00  0.00000000E+00  0.00000000E+00
  0.00000000E+00  0.00000000E+00  0.00000000E+00
  0.00000000E+00  0.00000000E+00  0.00000000E+00
  0.00000000E+00  0.00000000E+00  0.00000000E+00
  0.00000000E+00  0.00000000E+00  0.00000000E+00
  0.00000000E+00  0.00000000E+00  0.00000000E+00
  0.00000000E+00  0.00000000E+00  0.00000000E+00
  0.00000000E+00  0.00000000E+00  0.00000000E+00
  0.00000000E+00  0.00000000E+00  0.00000000E+00
  0.00000000E+00  0.00000000E+00  0.00000000E+00
  0.00000000E+00  0.00000000E+00  0.00000000E+00
  0.00000000E+00  0.00000000E+00  0.00000000E+00
  0.00000000E+00  0.00000000E+00  0.00000000E+00
  0.00000000E+00  0.00000000E+00  0.00000000E+00
  0.00000000E+00  0.00000000E+00  0.00000000E+00
  0.00000000E+00  0.00000000E+00  0.00000000E+00
  0.00000000E+00  0.00000000E+00  0.00000000E+00
  0.00000000E+00  0.00000000E+00  0.00000000E+00
  0.00000000E+00  0.00000000E+00  0.00000000E+00
  0.00000000E+00  0.00000000E+00  0.00000000E+00
  0.00000000E+00  0.00000000E+00  0.00000000E+00
  0.00000000E+00  0.00000000E+00  0.00000000E+00
  0.00000000E+00  0.00000000E+00  0.00000000E+00
  0.00000000E+00  0.00000000E+00  0.00000000E+00
  0.00000000E+00  0.00000000E+00  0.00000000E+00
  0.00000000E+00  0.00000000E+00  0.00000000E+00
  0.00000000E+00  0.00000000E+00  0.00000000E+00
  0.00000000E+00  0.00000000E+00  0.00000000E+00
  0.00000000E+00  0.00000000E+00  0.00000000E+00
  0.00000000E+00  0.00000000E+00  0.00000000E+00
  0.00000000E+00  0.00000000E+00  0.00000000E+00
  0.00000000E+00  0.00000000E+00  0.00000000E+00
  0.00000000E+00  0.00000000E+00  0.00000000E+00
  0.00000000E+00  0.00000000E+00  0.00000000E+00
  0.00000000E+00  0.00000000E+00  0.00000000E+00
  0.00000000E+00  0.00000000E+00  0.00000000E+00
  0.00000000E+00  0.00000000E+00  0.00000000E+00
  0.00000000E+00  0.00000000E+00  0.00000000E+00
  0.00000000E+00  0.00000000E+00  0.00000000E+00
  0.00000000E+00  0.00000000E+00  0.00000000E+00
  0.00000000E+00  0.00000000E+00  0.00000000E+00
  0.00000000E+00  0.00000000E+00  0.00000000E+00
  0.00000000E+00  0.00000000E+00  0.00000000E+00
  0.00000000E+00  0.00000000E+00  0.00000000E+00
  0.00000000E+00  0.00000000E+00  0.00000000E+00
  0.00000000E+00  0.00000000E+00  0.00000000E+00
  0.00000000E+00  0.00000000E+00  0.00000000E+00
  0.00000000E+00  0.00000000E+00  0.00000000E+00
  0.00000000E+00  0.00000000E+00  0.00000000E+00
  0.00000000E+00  0.00000000E+00  0.00000000E+00
