Ta  N Ru Cu                             
   1.00000000000000     
     9.0548154099999998    0.0000000000000000    0.0000000000000000
     0.0000000000000000   11.6775998899999998    0.0000000000000000
     0.0000000000000000    0.0000000000000000   23.4818170799999990
   Ta   N    Ru   Cu
    60    60    16     2
Selective dynamics
Direct
  0.0000000000000000  0.0000000000000000  0.2546926809530987   F   F   F
  0.6670845899906297  0.1250000003211298  0.2638822399803757   F   F   F
  0.3329153514769843  0.1250000003211298  0.2638822399803757   F   F   F
  0.4999999994478088  0.2499999997859135  0.3618861993156202   F   F   F
  0.1650707596845180  0.1250000003211298  0.3684425577811794   F   F   F
  0.8349292403154820  0.1250000003211298  0.3684425577811794   F   F   F
  0.0003252361789171  0.2502578960081341  0.4799351890314105   T   T   T
  0.6638230637853353  0.1251415695660799  0.4779066992340518   T   T   T
  0.3350217682579970  0.1251733378402803  0.4779503564787118   T   T   T
  0.4972798696467077  0.2504917892338029  0.5903580200740585   T   T   T
  0.1682507030987960  0.1253708433165211  0.5900943054936875   T   T   T
  0.8315317782861952  0.1252991651179232  0.5891993376489260   T   T   T
  0.9938041709072095  0.2495416565942824  0.6991775385085860   T   T   T
  0.6625323346607407  0.1250110516094460  0.7005467591667773   T   T   T
  0.3289644255145323  0.1254395233277762  0.7051228667150033   T   T   T
  0.0000000000000000  0.2499999997859135  0.2546926809530987   F   F   F
  0.6670845899906297  0.3750000001070433  0.2638822399803757   F   F   F
  0.3329153514769843  0.3750000001070433  0.2638822399803757   F   F   F
  0.4999999994478088  0.5000000004281731  0.3618861993156202   F   F   F
  0.1650707596845180  0.3750000001070433  0.3684425577811794   F   F   F
  0.8349292403154820  0.3750000001070433  0.3684425577811794   F   F   F
  0.0003325896810970  0.5000538421176727  0.4799920989619120   T   T   T
  0.6640099504086995  0.3751836216813409  0.4780002600718721   T   T   T
  0.3350860106313791  0.3751794787398726  0.4780597400615285   T   T   T
  0.4980315415654574  0.5001209798517037  0.5905953037919416   T   T   T
  0.1679572391514665  0.3755304771343573  0.5904617318396783   T   T   T
  0.8320870130073592  0.3753875166787768  0.5893963495977980   T   T   T
  0.9961310120391750  0.4999292264014300  0.7005479329223606   T   T   T
  0.6657015196389846  0.3755279351560715  0.7006812040544993   T   T   T
  0.3276488986615900  0.3754796329874910  0.7058534027231687   T   T   T
  0.0000000000000000  0.5000000004281731  0.2546926809530987   F   F   F
  0.6670845899906297  0.6249999998929567  0.2638822399803757   F   F   F
  0.3329153514769843  0.6249999998929567  0.2638822399803757   F   F   F
  0.4999999994478088  0.7500000002140865  0.3618861993156202   F   F   F
  0.1650707596845180  0.6249999998929567  0.3684425577811794   F   F   F
  0.8349292403154820  0.6249999998929567  0.3684425577811794   F   F   F
  0.0003927772075657  0.7500857059466850  0.4799473677607338   T   T   T
  0.6639160975967353  0.6250705735707406  0.4779933580993342   T   T   T
  0.3348678536208621  0.6250879543130224  0.4780325255840387   T   T   T
  0.4979922807362420  0.7503941602943206  0.5904426309174489   T   T   T
  0.1681909121379497  0.6252821630629114  0.5904870603166514   T   T   T
  0.8320874016945587  0.6251332476749758  0.5895556351925900   T   T   T
  0.9966090530555202  0.7517911728652956  0.6993388390532052   T   T   T
  0.6652072521594408  0.6249613323134515  0.7018363159199811   T   T   T
  0.3315483838048790  0.6254227317915589  0.7047630797567348   T   T   T
  0.0000000000000000  0.7500000002140865  0.2546926809530987   F   F   F
  0.6670845899906297  0.8750000005352163  0.2638822399803757   F   F   F
  0.3329153514769843  0.8750000005352163  0.2638822399803757   F   F   F
  0.4999999994478088  0.0000000000000000  0.3618861993156202   F   F   F
  0.1650707596845180  0.8750000005352163  0.3684425577811794   F   F   F
  0.8349292403154820  0.8750000005352163  0.3684425577811794   F   F   F
  0.0003097056278202  0.0000534548930731  0.4799057383489701   T   T   T
  0.6638613553564811  0.8750410590527207  0.4779597220444194   T   T   T
  0.3349792284762064  0.8750797699609209  0.4780183305169657   T   T   T
  0.4973927286625195  0.0002216673568355  0.5902111961293749   T   T   T
  0.1682843932005730  0.8753179226290343  0.5902552283931428   T   T   T
  0.8316670077538022  0.8751176404182948  0.5891134122998851   T   T   T
  0.9940634868102716 -0.0000739809530960  0.6987139361214842   T   T   T
  0.6642731522126368  0.8745209043597454  0.7001933319862155   T   T   T
  0.3284301109114786  0.8758033496578684  0.7056617687879331   T   T   T
  0.8141011533980276  0.0000000000000000  0.3013105672926031   F   F   F
  0.4999999994478088  0.0000000000000000  0.2564174481620327   F   F   F
  0.1858988466019724  0.0000000000000000  0.3013105672926031   F   F   F
  0.3088456122590841  0.2499999997859135  0.4099867722441957   F   F   F
  0.0000000000000000  0.2499999997859135  0.3930971035158137   F   F   F
  0.6911543877409159  0.2499999997859135  0.4099867722441957   F   F   F
  0.8011619295368797  0.2502957043439725  0.5216230542629970   T   T   T
  0.4992953460933327  0.2502444404304344  0.5026872210195517   T   T   T
  0.1987483117559880  0.2504410349323177  0.5223219214402088   T   T   T
  0.3025633998794131  0.2507539642932923  0.6352931302265480   T   T   T
 -0.0008283334042469  0.2504160369074214  0.6114017476186129   T   T   T
  0.6940088353897338  0.2505319427732862  0.6327003627638922   T   T   T
  0.8008270215452136  0.2480913595519451  0.7427438177076020   T   T   T
  0.5006275434597922  0.2512629680848423  0.7257257735112078   T   T   T
  0.1891482064974515  0.2492424375240216  0.7390758119816058   T   T   T
  0.8141011533980276  0.2499999997859135  0.3013105672926031   F   F   F
  0.4999999994478088  0.2499999997859135  0.2564174481620327   F   F   F
  0.1858988466019724  0.2499999997859135  0.3013105672926031   F   F   F
  0.3088456122590841  0.5000000004281731  0.4099867722441957   F   F   F
  0.0000000000000000  0.5000000004281731  0.3930971035158137   F   F   F
  0.6911543877409159  0.5000000004281731  0.4099867722441957   F   F   F
  0.8012603080721872  0.5002194584765476  0.5218111130467268   T   T   T
  0.4993345179928315  0.5002141330971680  0.5028355897959785   T   T   T
  0.1986396940802389  0.5000905584387063  0.5224685272628403   T   T   T
  0.3033949525699540  0.5001412273670500  0.6352849144948517   T   T   T
 -0.0007986959944934  0.5002238476148457  0.6124843984128908   T   T   T
  0.6946248024966188  0.5006791660176826  0.6333177793912415   T   T   T
  0.8038431634764172  0.5020262718130354  0.7446054475404696   T   T   T
  0.5013780982773300  0.4989492215127480  0.7257811074599555   T   T   T
  0.1920114441233536  0.5018914477989650  0.7400944111544308   T   T   T
  0.8141011533980276  0.5000000004281731  0.3013105672926031   F   F   F
  0.4999999994478088  0.5000000004281731  0.2564174481620327   F   F   F
  0.1858988466019724  0.5000000004281731  0.3013105672926031   F   F   F
  0.3088456122590841  0.7500000002140865  0.4099867722441957   F   F   F
  0.0000000000000000  0.7500000002140865  0.3930971035158137   F   F   F
  0.6911543877409159  0.7500000002140865  0.4099867722441957   F   F   F
  0.8011477106702836  0.7499893960215478  0.5216661534676280   T   T   T
  0.4992710400369733  0.7500264801312377  0.5027641000720184   T   T   T
  0.1987619366861062  0.7502097521019323  0.5223405917244808   T   T   T
  0.3034404018113088  0.7505318179604984  0.6352491086161722   T   T   T
 -0.0008430500761055  0.7505323198474455  0.6115969676961985   T   T   T
  0.6946594597282963  0.7493283507563827  0.6330537362143703   T   T   T
  0.8040838324697699  0.7522133802930540  0.7436395609555636   T   T   T
  0.5020110500354676  0.7512023401765863  0.7264148872852232   T   T   T
  0.1923598174886040  0.7497181640462474  0.7392311117747858   T   T   T
  0.8141011533980276  0.7500000002140865  0.3013105672926031   F   F   F
  0.4999999994478088  0.7500000002140865  0.2564174481620327   F   F   F
  0.1858988466019724  0.7500000002140865  0.3013105672926031   F   F   F
  0.3088456122590841  0.0000000000000000  0.4099867722441957   F   F   F
  0.0000000000000000  0.0000000000000000  0.3930971035158137   F   F   F
  0.6911543877409159  0.0000000000000000  0.4099867722441957   F   F   F
  0.8010813750463847  0.0001238180696524  0.5215261260348858   T   T   T
  0.4992662958285908  0.0001221920885012  0.5025939708528601   T   T   T
  0.1987909264815926  0.0001457206862469  0.5222286269586504   T   T   T
  0.3029634811094941  0.0002854853866484  0.6352090163009514   T   T   T
 -0.0010619312312404  0.0001579076448680  0.6110583170185798   T   T   T
  0.6941007301404232  0.0005851510954751  0.6326116882921026   T   T   T
  0.8014743771864440 -0.0025083057275384  0.7430005942399379   T   T   T
  0.5008425779773369  0.0004505596209633  0.7252749234286998   T   T   T
  0.1885488130655749  0.0018086135801853  0.7388112572420411   T   T   T
  0.1217470899342524  0.0171264497563834  0.8160530883418338   T   T   T
  0.5660753448460247  0.0021891010036464  0.8057588128453647   T   T   T
  0.8685831376917064  0.1217594304044120  0.7983651269695741   T   T   T
  0.1483738556223521  0.5294076165778100  0.8195453680521677   T   T   T
  0.5529220012398802  0.4833891099245794  0.8079301967419895   T   T   T
  0.8821902693629640  0.6307691383125102  0.7994407389061666   T   T   T
  0.1207831881752099  0.2400414216227707  0.8164549989453680   T   T   T
  0.5563046062040022  0.2574018123040896  0.8072312457833267   T   T   T
  0.8692117892124109  0.3705461271138601  0.7980712274676381   T   T   T
  0.1364590440527015  0.7485819113955288  0.8180011049011748   T   T   T
  0.5583726501402229  0.7744661280053683  0.8082299422064033   T   T   T
  0.8818969642340749  0.8779576103798672  0.7989782458245227   T   T   T
  0.3423464172754301  0.8855661111151417  0.8378409905432139   T   T   T
  0.3818983413153516  0.6262771136853050  0.8431084697917850   T   T   T
  0.3327786628222792  0.3652726749287351  0.8393017876179896   T   T   T
  0.3570493932616281  0.1216502922096696  0.8382197413001479   T   T   T
  0.6802500073619598  0.6245797376654924  0.8733375493072719   T   T   T
  0.9151171366314331  0.4966775696091549  0.8825810563527769   T   T   T
 
  0.00000000E+00  0.00000000E+00  0.00000000E+00
  0.00000000E+00  0.00000000E+00  0.00000000E+00
  0.00000000E+00  0.00000000E+00  0.00000000E+00
  0.00000000E+00  0.00000000E+00  0.00000000E+00
  0.00000000E+00  0.00000000E+00  0.00000000E+00
  0.00000000E+00  0.00000000E+00  0.00000000E+00
  0.00000000E+00  0.00000000E+00  0.00000000E+00
  0.00000000E+00  0.00000000E+00  0.00000000E+00
  0.00000000E+00  0.00000000E+00  0.00000000E+00
  0.00000000E+00  0.00000000E+00  0.00000000E+00
  0.00000000E+00  0.00000000E+00  0.00000000E+00
  0.00000000E+00  0.00000000E+00  0.00000000E+00
  0.00000000E+00  0.00000000E+00  0.00000000E+00
  0.00000000E+00  0.00000000E+00  0.00000000E+00
  0.00000000E+00  0.00000000E+00  0.00000000E+00
  0.00000000E+00  0.00000000E+00  0.00000000E+00
  0.00000000E+00  0.00000000E+00  0.00000000E+00
  0.00000000E+00  0.00000000E+00  0.00000000E+00
  0.00000000E+00  0.00000000E+00  0.00000000E+00
  0.00000000E+00  0.00000000E+00  0.00000000E+00
  0.00000000E+00  0.00000000E+00  0.00000000E+00
  0.00000000E+00  0.00000000E+00  0.00000000E+00
  0.00000000E+00  0.00000000E+00  0.00000000E+00
  0.00000000E+00  0.00000000E+00  0.00000000E+00
  0.00000000E+00  0.00000000E+00  0.00000000E+00
  0.00000000E+00  0.00000000E+00  0.00000000E+00
  0.00000000E+00  0.00000000E+00  0.00000000E+00
  0.00000000E+00  0.00000000E+00  0.00000000E+00
  0.00000000E+00  0.00000000E+00  0.00000000E+00
  0.00000000E+00  0.00000000E+00  0.00000000E+00
  0.00000000E+00  0.00000000E+00  0.00000000E+00
  0.00000000E+00  0.00000000E+00  0.00000000E+00
  0.00000000E+00  0.00000000E+00  0.00000000E+00
  0.00000000E+00  0.00000000E+00  0.00000000E+00
  0.00000000E+00  0.00000000E+00  0.00000000E+00
  0.00000000E+00  0.00000000E+00  0.00000000E+00
  0.00000000E+00  0.00000000E+00  0.00000000E+00
  0.00000000E+00  0.00000000E+00  0.00000000E+00
  0.00000000E+00  0.00000000E+00  0.00000000E+00
  0.00000000E+00  0.00000000E+00  0.00000000E+00
  0.00000000E+00  0.00000000E+00  0.00000000E+00
  0.00000000E+00  0.00000000E+00  0.00000000E+00
  0.00000000E+00  0.00000000E+00  0.00000000E+00
  0.00000000E+00  0.00000000E+00  0.00000000E+00
  0.00000000E+00  0.00000000E+00  0.00000000E+00
  0.00000000E+00  0.00000000E+00  0.00000000E+00
  0.00000000E+00  0.00000000E+00  0.00000000E+00
  0.00000000E+00  0.00000000E+00  0.00000000E+00
  0.00000000E+00  0.00000000E+00  0.00000000E+00
  0.00000000E+00  0.00000000E+00  0.00000000E+00
  0.00000000E+00  0.00000000E+00  0.00000000E+00
  0.00000000E+00  0.00000000E+00  0.00000000E+00
  0.00000000E+00  0.00000000E+00  0.00000000E+00
  0.00000000E+00  0.00000000E+00  0.00000000E+00
  0.00000000E+00  0.00000000E+00  0.00000000E+00
  0.00000000E+00  0.00000000E+00  0.00000000E+00
  0.00000000E+00  0.00000000E+00  0.00000000E+00
  0.00000000E+00  0.00000000E+00  0.00000000E+00
  0.00000000E+00  0.00000000E+00  0.00000000E+00
  0.00000000E+00  0.00000000E+00  0.00000000E+00
  0.00000000E+00  0.00000000E+00  0.00000000E+00
  0.00000000E+00  0.00000000E+00  0.00000000E+00
  0.00000000E+00  0.00000000E+00  0.00000000E+00
  0.00000000E+00  0.00000000E+00  0.00000000E+00
  0.00000000E+00  0.00000000E+00  0.00000000E+00
  0.00000000E+00  0.00000000E+00  0.00000000E+00
  0.00000000E+00  0.00000000E+00  0.00000000E+00
  0.00000000E+00  0.00000000E+00  0.00000000E+00
  0.00000000E+00  0.00000000E+00  0.00000000E+00
  0.00000000E+00  0.00000000E+00  0.00000000E+00
  0.00000000E+00  0.00000000E+00  0.00000000E+00
  0.00000000E+00  0.00000000E+00  0.00000000E+00
  0.00000000E+00  0.00000000E+00  0.00000000E+00
  0.00000000E+00  0.00000000E+00  0.00000000E+00
  0.00000000E+00  0.00000000E+00  0.00000000E+00
  0.00000000E+00  0.00000000E+00  0.00000000E+00
  0.00000000E+00  0.00000000E+00  0.00000000E+00
  0.00000000E+00  0.00000000E+00  0.00000000E+00
  0.00000000E+00  0.00000000E+00  0.00000000E+00
  0.00000000E+00  0.00000000E+00  0.00000000E+00
  0.00000000E+00  0.00000000E+00  0.00000000E+00
  0.00000000E+00  0.00000000E+00  0.00000000E+00
  0.00000000E+00  0.00000000E+00  0.00000000E+00
  0.00000000E+00  0.00000000E+00  0.00000000E+00
  0.00000000E+00  0.00000000E+00  0.00000000E+00
  0.00000000E+00  0.00000000E+00  0.00000000E+00
  0.00000000E+00  0.00000000E+00  0.00000000E+00
  0.00000000E+00  0.00000000E+00  0.00000000E+00
  0.00000000E+00  0.00000000E+00  0.00000000E+00
  0.00000000E+00  0.00000000E+00  0.00000000E+00
  0.00000000E+00  0.00000000E+00  0.00000000E+00
  0.00000000E+00  0.00000000E+00  0.00000000E+00
  0.00000000E+00  0.00000000E+00  0.00000000E+00
  0.00000000E+00  0.00000000E+00  0.00000000E+00
  0.00000000E+00  0.00000000E+00  0.00000000E+00
  0.00000000E+00  0.00000000E+00  0.00000000E+00
  0.00000000E+00  0.00000000E+00  0.00000000E+00
  0.00000000E+00  0.00000000E+00  0.00000000E+00
  0.00000000E+00  0.00000000E+00  0.00000000E+00
  0.00000000E+00  0.00000000E+00  0.00000000E+00
  0.00000000E+00  0.00000000E+00  0.00000000E+00
  0.00000000E+00  0.00000000E+00  0.00000000E+00
  0.00000000E+00  0.00000000E+00  0.00000000E+00
  0.00000000E+00  0.00000000E+00  0.00000000E+00
  0.00000000E+00  0.00000000E+00  0.00000000E+00
  0.00000000E+00  0.00000000E+00  0.00000000E+00
  0.00000000E+00  0.00000000E+00  0.00000000E+00
  0.00000000E+00  0.00000000E+00  0.00000000E+00
  0.00000000E+00  0.00000000E+00  0.00000000E+00
  0.00000000E+00  0.00000000E+00  0.00000000E+00
  0.00000000E+00  0.00000000E+00  0.00000000E+00
  0.00000000E+00  0.00000000E+00  0.00000000E+00
  0.00000000E+00  0.00000000E+00  0.00000000E+00
  0.00000000E+00  0.00000000E+00  0.00000000E+00
  0.00000000E+00  0.00000000E+00  0.00000000E+00
  0.00000000E+00  0.00000000E+00  0.00000000E+00
  0.00000000E+00  0.00000000E+00  0.00000000E+00
  0.00000000E+00  0.00000000E+00  0.00000000E+00
  0.00000000E+00  0.00000000E+00  0.00000000E+00
  0.00000000E+00  0.00000000E+00  0.00000000E+00
  0.00000000E+00  0.00000000E+00  0.00000000E+00
  0.00000000E+00  0.00000000E+00  0.00000000E+00
  0.00000000E+00  0.00000000E+00  0.00000000E+00
  0.00000000E+00  0.00000000E+00  0.00000000E+00
  0.00000000E+00  0.00000000E+00  0.00000000E+00
  0.00000000E+00  0.00000000E+00  0.00000000E+00
  0.00000000E+00  0.00000000E+00  0.00000000E+00
  0.00000000E+00  0.00000000E+00  0.00000000E+00
  0.00000000E+00  0.00000000E+00  0.00000000E+00
  0.00000000E+00  0.00000000E+00  0.00000000E+00
  0.00000000E+00  0.00000000E+00  0.00000000E+00
  0.00000000E+00  0.00000000E+00  0.00000000E+00
  0.00000000E+00  0.00000000E+00  0.00000000E+00
  0.00000000E+00  0.00000000E+00  0.00000000E+00
  0.00000000E+00  0.00000000E+00  0.00000000E+00
  0.00000000E+00  0.00000000E+00  0.00000000E+00
  0.00000000E+00  0.00000000E+00  0.00000000E+00
  0.00000000E+00  0.00000000E+00  0.00000000E+00
