Ta N                                    
   1.00000000000000     
     5.2278127828457590    0.0000281997343405    0.0000000000000000
    -2.6138819647409495    4.5274328810317668    0.0000000000000000
     0.0000000000000000    0.0000000000000000    2.9193662303251351
   Ta   N 
     3     3
Direct
  0.9999973683300638  0.9999973683300638  0.0000000000000000
  0.6666845374953141  0.3333162508140219  0.5000000017088198
  0.3333163301198780  0.6666845594302302  0.5000000017088198
  0.0000025964800727  0.3926515034662685  0.0000000000000000
  0.6073476471098189  0.6073476265485240  0.0000000000000000
  0.3926514611829646  0.0000025766690115  0.0000000000000000
 
  0.00000000E+00  0.00000000E+00  0.00000000E+00
  0.00000000E+00  0.00000000E+00  0.00000000E+00
  0.00000000E+00  0.00000000E+00  0.00000000E+00
  0.00000000E+00  0.00000000E+00  0.00000000E+00
  0.00000000E+00  0.00000000E+00  0.00000000E+00
  0.00000000E+00  0.00000000E+00  0.00000000E+00
