Ta  N  W Cu                             
   1.00000000000000     
    18.1096308199999996    0.0000000000000000    0.0000000000000000
     0.0000000000000000   23.3551997799999995    0.0000000000000000
     0.0000000000000000    0.0000000000000000   30.4818171199999988
   Ta   N    W    Cu
   216   240    24     4
Selective dynamics
Direct
  0.0002012859900000  0.0001999924800000  0.1971740500000000   F   F   F
  0.3316281700000000  0.0649534020000000  0.2018748600000000   F   F   F
  0.1720477300000000  0.0664959030000000  0.2033294700000000   F   F   F
  0.2487031900000000  0.1251512900000000  0.2814966500000000   F   F   F
  0.0826027350000000  0.0625051290000000  0.2839784200000000   F   F   F
  0.4171488700000000  0.0626099820000000  0.2842028500000000   F   F   F
  0.9996622200000000  0.1253265700000000  0.3698721300000000   F   F   F
  0.3327934500000000  0.0627393670000000  0.3691115100000000   F   F   F
  0.1665745500000000  0.0627077510000000  0.3692361300000000   F   F   F
  0.2510524139588878  0.1279878177998151  0.4554413535200024   T   T   T
  0.0851098404557726  0.0599498654126731  0.4547921590915786   T   T   T
  0.4193257954545160  0.0598887686657966  0.4538898024586268   T   T   T
  0.0010686562481612  0.1260694479214138  0.5433906306925297   T   T   T
  0.3358310248110813  0.0639761006657978  0.5449090845747564   T   T   T
  0.1600678548876651  0.0614030087062500  0.5444341994642704   T   T   T
  0.0004574534400000  0.1249939500000000  0.1960185600000000   F   F   F
  0.3315837100000000  0.1850649200000000  0.2016317700000000   F   F   F
  0.1721626200000000  0.1834962100000000  0.2030697300000000   F   F   F
  0.2499620500000000  0.2501219300000000  0.2806225700000000   F   F   F
  0.0826183860000000  0.1877578600000000  0.2836262700000000   F   F   F
  0.4171469500000000  0.1876947900000000  0.2839059800000000   F   F   F
  0.9997045500000000  0.2504152100000000  0.3693231100000000   F   F   F
  0.3330069700000000  0.1876631800000000  0.3686886600000000   F   F   F
  0.1664600200000000  0.1877684800000000  0.3687374900000000   F   F   F
  0.2509120178144377  0.2491401296593270  0.4554286705256659   T   T   T
  0.0843706144882314  0.1878257413047209  0.4572966403910008   T   T   T
  0.4168188215250541  0.1853953290931049  0.4561093221318575   T   T   T
  0.9925310046666558  0.2489958960665115  0.5456659753681212   T   T   T
  0.0002705360000000  0.2499388500000000  0.1966880000000000   F   F   F
  0.3316276200000000  0.3148131400000000  0.2013152900000000   F   F   F
  0.1721887400000000  0.3164229000000000  0.2027093100000000   F   F   F
  0.2488955600000000  0.3752583000000000  0.2807558400000000   F   F   F
  0.0826197460000000  0.3124496900000000  0.2832206600000000   F   F   F
  0.4172785500000000  0.3125191900000000  0.2835667900000000   F   F   F
  0.9997643700000000  0.3754234800000000  0.3687742600000000   F   F   F
  0.3329393300000000  0.3127984700000000  0.3683016300000000   F   F   F
  0.1665207100000000  0.3127791600000000  0.3682470500000000   F   F   F
  0.2517991862517567  0.3772251557492567  0.4555805000507805   T   T   T
  0.0826212980169061  0.3133044487202973  0.4562205142151272   T   T   T
  0.4157920187093865  0.3134072372766912  0.4550886696969589   T   T   T
  0.9994614011299884  0.3788664373511820  0.5428335223222881   T   T   T
  0.0005871437300000  0.3749539300000000  0.1953268600000000   F   F   F
  0.3315922500000000  0.4352216900000000  0.2011555800000000   F   F   F
  0.1723053500000000  0.4335912400000000  0.2025584800000000   F   F   F
  0.2498844700000000  0.0002352379800000  0.2811771300000000   F   F   F
  0.0826126130000000  0.4378713600000000  0.2829472100000000   F   F   F
  0.4172401100000000  0.4377629800000000  0.2833141300000000   F   F   F
  0.9996650800000000  0.0003016936000000  0.3701635800000000   F   F   F
  0.3329439000000000  0.4378465100000000  0.3679857800000000   F   F   F
  0.1665330000000000  0.4379081000000000  0.3679924600000000   F   F   F
  0.2476648186165568  0.0009036311430262  0.4555890750490338   T   T   T
  0.0838167519397929  0.4415912951494689  0.4536632708677091   T   T   T
  0.4141409245276099  0.4363474068993802  0.4540366557903645   T   T   T
  0.9971675986733869  0.9981965779466370  0.5401301712747866   T   T   T
  0.0002102442100000  0.5001745500000000  0.1962116900000000   F   F   F
  0.3314771500000000  0.5652274200000000  0.2011001000000000   F   F   F
  0.1722244500000000  0.5668073800000000  0.2025405100000000   F   F   F
  0.2488311900000000  0.6252218600000000  0.2806495400000000   F   F   F
  0.0826181800000000  0.5626397800000000  0.2829359100000000   F   F   F
  0.4172537600000000  0.5627019000000000  0.2832363200000000   F   F   F
  0.9997995300000000  0.6252290900000000  0.3688012000000000   F   F   F
  0.3330631100000000  0.5628678600000000  0.3679455200000000   F   F   F
  0.1665808300000000  0.5628161500000000  0.3679682000000000   F   F   F
  0.2521400532309407  0.6253839376192259  0.4543669829005852   T   T   T
  0.0846865641841295  0.5645148014096482  0.4574873383934008   T   T   T
  0.4207291483882898  0.5649974127858137  0.4527658737647171   T   T   T
  0.0032447001603932  0.6244693963197545  0.5461561105444631   T   T   T
  0.0005497678100000  0.6254014300000000  0.1952717600000000   F   F   F
  0.3316021100000000  0.6855816600000000  0.2012353300000000   F   F   F
  0.1721756900000000  0.6838967800000000  0.2026400900000000   F   F   F
  0.2498993300000000  0.7503933100000000  0.2805199300000000   F   F   F
  0.0826169010000000  0.6880470000000000  0.2831672700000000   F   F   F
  0.4172541100000000  0.6879474900000000  0.2834130500000000   F   F   F
  0.9997712200000000  0.7501842100000000  0.3693032800000000   F   F   F
  0.3331339300000000  0.6878543600000000  0.3681113400000000   F   F   F
  0.1665087000000000  0.6879044000000000  0.3682062400000000   F   F   F
  0.2529492271154334  0.7498814399759349  0.4536331472179816   T   T   T
  0.0908768282491090  0.6882626907463785  0.4562928499390512   T   T   T
  0.4175190861292692  0.6895830241176361  0.4514048798724974   T   T   T
  0.9972455082851767  0.7485201776643771  0.5424252857265311   T   T   T
  0.0002436081000000  0.7504926300000000  0.1965975400000000   F   F   F
  0.3315252500000000  0.8153638500000000  0.2015544400000000   F   F   F
  0.1721078200000000  0.8169244100000000  0.2029846400000000   F   F   F
  0.2487503200000000  0.8753545500000000  0.2814108200000000   F   F   F
  0.0826117960000000  0.8127170500000001  0.2835655300000000   F   F   F
  0.4172179000000000  0.8128087100000000  0.2838056300000000   F   F   F
  0.9997135000000000  0.8752259900000000  0.3698451800000000   F   F   F
  0.3330637700000000  0.8128883200000000  0.3685877200000000   F   F   F
  0.1665055900000000  0.8128292700000000  0.3687159200000000   F   F   F
  0.2482725771136080  0.8751069256652310  0.4562882775722279   T   T   T
  0.0866585878406036  0.8124630999183652  0.4550585657476422   T   T   T
  0.4151716543220496  0.8140806932191195  0.4552798757921372   T   T   T
  0.0037816747492141  0.8736647420120113  0.5439233697962216   T   T   T
  0.0004515380000000  0.8754332800000000  0.1959605700000000   F   F   F
  0.3316088000000000  0.9354902100000000  0.2018601300000000   F   F   F
  0.1720416800000000  0.9338575900000000  0.2032748200000000   F   F   F
  0.2499647100000000  0.5002067000000000  0.2802029100000000   F   F   F
  0.0825970670000000  0.9379650000000000  0.2839669100000000   F   F   F
  0.4171552200000000  0.9378925200000000  0.2841670600000000   F   F   F
  0.9997985600000000  0.5003470500000000  0.3686480200000000   F   F   F
  0.3328437000000000  0.9377813200000000  0.3690780800000000   F   F   F
  0.1666243000000000  0.9378472500000000  0.3691895000000000   F   F   F
  0.2514909482597245  0.4994248572836357  0.4544765984584902   T   T   T
  0.0861993340747360  0.9359094289801058  0.4559237575363651   T   T   T
  0.4117403916833632  0.9398610037458310  0.4553212903794899   T   T   T
  0.0015060889790117  0.5043291985893820  0.5414958422955658   T   T   T
  0.3378217207849847  0.9346151050406969  0.5438800352007456   T   T   T
  0.1604103412367131  0.9400203011119020  0.5452050152080880   T   T   T
  0.5002618000000000  0.0002438680600000  0.1971910800000000   F   F   F
  0.8314240000000001  0.0649566000000000  0.2018663400000000   F   F   F
  0.6718362200000000  0.0665484540000000  0.2034310900000000   F   F   F
  0.7485457500000000  0.1251511300000000  0.2815627600000000   F   F   F
  0.5825496500000000  0.0625242270000000  0.2841358900000000   F   F   F
  0.9170921399999999  0.0626094180000000  0.2841294000000000   F   F   F
  0.4996751100000000  0.1253137200000000  0.3700728400000000   F   F   F
  0.8326952600000000  0.0627737770000000  0.3690574600000000   F   F   F
  0.6664552600000000  0.0627120970000000  0.3694219800000000   F   F   F
  0.7454530349986177  0.1251597525139102  0.4554600889521970   T   T   T
  0.5850826754948374  0.0616931021292320  0.4572041738167254   T   T   T
  0.9094032833417933  0.0620516445361652  0.4548080556639908   T   T   T
  0.5008321189140608  0.1298436280947750  0.5417172880587681   T   T   T
  0.8352133014217693  0.0583196166745466  0.5443199742251373   T   T   T
  0.6628531174077527  0.0599086083232772  0.5423774973031691   T   T   T
  0.5005282900000000  0.1250227200000000  0.1960700000000000   F   F   F
  0.8314103400000000  0.1851004100000000  0.2016113100000000   F   F   F
  0.6719858399999999  0.1834768800000000  0.2031934000000000   F   F   F
  0.7497081700000000  0.2501040500000000  0.2806616600000000   F   F   F
  0.5825633500000000  0.1877614000000000  0.2838147700000000   F   F   F
  0.9171449699999999  0.1876809800000000  0.2838100100000000   F   F   F
  0.4997313600000000  0.2504271300000000  0.3696185100000000   F   F   F
  0.8328729300000000  0.1877035200000000  0.3686026100000000   F   F   F
  0.6663219500000001  0.1877323000000000  0.3690195600000000   F   F   F
  0.7475347390951556  0.2498973275965881  0.4549637482764207   T   T   T
  0.5818319805223620  0.1898895855662883  0.4551647242406960   T   T   T
  0.9156583391111611  0.1841820748218162  0.4567870885520169   T   T   T
  0.4925901182993448  0.2532610325245237  0.5416787464519884   T   T   T
  0.5003030200000000  0.2499129100000000  0.1967653200000000   F   F   F
  0.8314091200000000  0.3147572100000000  0.2012584800000000   F   F   F
  0.6719670500000000  0.3164111000000000  0.2027809800000000   F   F   F
  0.7485425300000000  0.3752616400000000  0.2807417500000000   F   F   F
  0.5825404700000000  0.3124284100000000  0.2834447400000000   F   F   F
  0.9172307400000000  0.3125300400000000  0.2833470200000000   F   F   F
  0.4997259900000000  0.3753719200000000  0.3691171500000000   F   F   F
  0.8329518000000000  0.3128020500000000  0.3680260300000000   F   F   F
  0.6664142900000000  0.3127087100000000  0.3685517400000000   F   F   F
  0.7499053869819865  0.3768779009611823  0.4551699553542746   T   T   T
  0.5797993120914593  0.3146525104847300  0.4549030059967128   T   T   T
  0.9153928682104364  0.3118675067533657  0.4523556580915911   T   T   T
  0.4921065023026769  0.3726010555974916  0.5425473354459185   T   T   T
  0.5005705200000000  0.3750213700000000  0.1954368800000000   F   F   F
  0.8312969099999999  0.4352571400000000  0.2010495900000000   F   F   F
  0.6720420400000000  0.4335464400000000  0.2026597700000000   F   F   F
  0.7497360700000000  0.0002682149000000  0.2812229200000000   F   F   F
  0.5825618100000000  0.4378519200000000  0.2831789700000000   F   F   F
  0.9172723800000000  0.4378081400000000  0.2830450900000000   F   F   F
  0.4996850100000000  0.0002338928500000  0.3702935000000000   F   F   F
  0.8330202600000000  0.4378355600000000  0.3676878200000000   F   F   F
  0.6664971500000000  0.4378876700000000  0.3681333400000000   F   F   F
  0.7496418582036587  0.9966389808519008  0.4531661525992793   T   T   T
  0.5811975848880947  0.4381968288112574  0.4528138602347966   T   T   T
  0.9123854438057493  0.4368872669555801  0.4541935683095276   T   T   T
  0.4966178780362381  0.9967948573042865  0.5416776587090740   T   T   T
  0.5001909400000000  0.5001515900000000  0.1962888900000000   F   F   F
  0.8312966300000000  0.5652527100000000  0.2009994100000000   F   F   F
  0.6720323700000000  0.5668387300000000  0.2026248700000000   F   F   F
  0.7486152500000000  0.6252456100000000  0.2806589100000000   F   F   F
  0.5825104000000000  0.5626102500000000  0.2831279000000000   F   F   F
  0.9172313400000000  0.5627375300000000  0.2830279400000000   F   F   F
  0.4997893800000000  0.6251844200000000  0.3690056300000000   F   F   F
  0.8330079400000000  0.5628779000000000  0.3677061200000000   F   F   F
  0.6665133000000000  0.5628337200000000  0.3681063700000000   F   F   F
  0.7533708388825525  0.6264475571373074  0.4533306950463221   T   T   T
  0.5795317787914523  0.5622308935997689  0.4538116222572836   T   T   T
  0.9143094551261324  0.5632354918398903  0.4531422250759113   T   T   T
  0.5025244471320945  0.6248837538953260  0.5404393380857889   T   T   T
  0.5005484100000001  0.6253813700000000  0.1953496100000000   F   F   F
  0.8313341700000000  0.6856567200000000  0.2011653500000000   F   F   F
  0.6718871800000000  0.6839489600000001  0.2027015400000000   F   F   F
  0.7497611600000000  0.7504226800000000  0.2805137200000000   F   F   F
  0.5825814499999999  0.6880456700000001  0.2833128900000000   F   F   F
  0.9172143900000000  0.6879937800000000  0.2832869400000000   F   F   F
  0.4998341100000000  0.7501813200000000  0.3694675100000000   F   F   F
  0.8330567300000000  0.6878600200000000  0.3679761800000000   F   F   F
  0.6664794600000000  0.6879098500000000  0.3683159400000000   F   F   F
  0.7466390415659044  0.7514547267854309  0.4547884462436733   T   T   T
  0.5781358318371549  0.6859544130946941  0.4541881196308575   T   T   T
  0.9198341716930937  0.6853379918141308  0.4551418252226369   T   T   T
  0.4986841594424328  0.7466662776257603  0.5432209755692569   T   T   T
  0.5003146800000000  0.7504817300000000  0.1966659700000000   F   F   F
  0.8313362600000000  0.8153679200000000  0.2014880600000000   F   F   F
  0.6719377400000000  0.8169996800000000  0.2030488100000000   F   F   F
  0.7485847900000000  0.8753817300000000  0.2814556100000000   F   F   F
  0.5825821600000000  0.8127303200000000  0.2837117700000000   F   F   F
  0.9171565100000000  0.8128187800000000  0.2837037300000000   F   F   F
  0.4997518800000000  0.8752103300000000  0.3699732500000000   F   F   F
  0.8330083600000000  0.8128926400000001  0.3685261200000000   F   F   F
  0.6664735500000000  0.8128438600000000  0.3688536700000000   F   F   F
  0.7484522162613846  0.8699969788547298  0.4544694032570855   T   T   T
  0.5810873711912171  0.8125732141177533  0.4562032544607951   T   T   T
  0.9179860512520043  0.8119049134749434  0.4536917305295270   T   T   T
  0.5002203003432103  0.8781465171876927  0.5408722666824897   T   T   T
  0.5005477600000000  0.8754509800000000  0.1959809100000000   F   F   F
  0.8313991200000000  0.9355683100000000  0.2018273000000000   F   F   F
  0.6718725400000000  0.9338965100000000  0.2033558700000000   F   F   F
  0.7497904900000000  0.5002190100000000  0.2801785900000000   F   F   F
  0.5825840700000000  0.9379707600000000  0.2840947300000000   F   F   F
  0.9170895300000000  0.9378875700000000  0.2841078200000000   F   F   F
  0.4997030700000000  0.5003002200000000  0.3689809500000000   F   F   F
  0.8327533900000000  0.9378178100000000  0.3690151700000000   F   F   F
  0.6665379200000000  0.9378476600000000  0.3693419500000000   F   F   F
  0.7521097132804480  0.5037483614331396  0.4550337280492132   T   T   T
  0.5830210844563845  0.9358261116015051  0.4556518734271570   T   T   T
  0.9170937716821241  0.9350572138038780  0.4569213028508040   T   T   T
  0.5010779654790445  0.4983741915589627  0.5406997395351133   T   T   T
  0.8321122525111380  0.9316905301031357  0.5470998350939932   T   T   T
  0.6644196066631567  0.9365642671884880  0.5425748140065216   T   T   T
  0.4062710200000000  0.0002484842700000  0.2323634200000000   F   F   F
  0.2511935200000000  0.0002086046800000  0.2109619300000000   F   F   F
  0.0953386280000000  0.0002150912400000  0.2318227000000000   F   F   F
  0.1523100000000000  0.1251835000000000  0.3170750200000000   F   F   F
  0.9997979800000000  0.1251980700000000  0.3027760700000000   F   F   F
  0.3468653900000000  0.1251827300000000  0.3167305700000000   F   F   F
  0.4010781800000000  0.1253433200000000  0.4031580900000000   F   F   F
  0.2496483200000000  0.1252961300000000  0.3878316600000000   F   F   F
  0.0981759010000000  0.1254187000000000  0.4031464100000000   F   F   F
  0.1509917849354779  0.1282903639329974  0.4894005285416928   T   T   T
  0.9981948794344354  0.1256397852342950  0.4742831092902923   T   T   T
  0.3500026439903995  0.1240469309876197  0.4863411437115088   T   T   T
  0.4007968515735759  0.1284724845788978  0.5689738530006353   T   T   T
  0.2482073523027966  0.1246753423243161  0.5580220810860586   T   T   T
  0.0955891443633068  0.1256818173081275  0.5743651368016027   T   T   T
  0.4055556100000000  0.1250684300000000  0.2322903000000000   F   F   F
  0.2529463300000000  0.1249063400000000  0.1776350600000000   F   F   F
  0.0941743070000000  0.1250104600000000  0.2324949100000000   F   F   F
  0.1528549900000000  0.2502175800000000  0.3162867300000000   F   F   F
  0.9999394100000000  0.2502157300000000  0.3024558300000000   F   F   F
  0.3469198800000000  0.2502249900000000  0.3162528600000000   F   F   F
  0.4010785200000000  0.2504855700000000  0.4027949900000000   F   F   F
  0.2497529300000000  0.2502858700000000  0.3870626600000000   F   F   F
  0.0982786780000000  0.2505464100000000  0.4025994900000000   F   F   F
  0.1553617450460462  0.2524822043882959  0.4858928902959842   T   T   T
  0.9980190840254841  0.2489846673512947  0.4795557123772712   T   T   T
  0.3458546881738946  0.2564258299249469  0.4880692341356060   T   T   T
  0.3938912800654663  0.2447278532780969  0.5749202015791606   T   T   T
  0.2520926176427584  0.2502341101924418  0.5585162972687375   T   T   T
  0.0983008448151391  0.2524706657977701  0.5695080335354158   T   T   T
  0.4063111800000000  0.2500241800000000  0.2318870500000000   F   F   F
  0.2512274700000000  0.2500033100000000  0.2104305700000000   F   F   F
  0.0953910520000000  0.2499798100000000  0.2313017800000000   F   F   F
  0.1523162800000000  0.3752476800000000  0.3162398800000000   F   F   F
  0.9998472100000000  0.3752186200000000  0.3018462500000000   F   F   F
  0.3470186900000000  0.3752194500000000  0.3160484300000000   F   F   F
  0.4012056200000000  0.3755041000000000  0.4024789300000000   F   F   F
  0.2497475300000000  0.3754333300000000  0.3866867700000000   F   F   F
  0.0981537290000000  0.3754778300000000  0.4022480500000000   F   F   F
  0.1539473654512572  0.3821764687239546  0.4861985275155333   T   T   T
  0.9964040391775555  0.3761752375738098  0.4744418541785209   T   T   T
  0.3476535182200167  0.3763427402128371  0.4905140873386333   T   T   T
  0.3894794937396901  0.3751232377851353  0.5645340422997382   T   T   T
  0.2376160324477659  0.3790718757218175  0.5569285947119025   T   T   T
  0.0949893701954838  0.3746924608723720  0.5719252509006227   T   T   T
  0.4056134800000000  0.3750358000000000  0.2316384300000000   F   F   F
  0.2530247900000000  0.3748959300000000  0.1772297500000000   F   F   F
  0.0942268240000000  0.3750182900000000  0.2317531100000000   F   F   F
  0.1528426500000000  0.0002566250300000  0.3169222800000000   F   F   F
  0.9998744300000000  0.0002399873100000  0.3031297400000000   F   F   F
  0.3468003600000000  0.0002546037500000  0.3168139300000000   F   F   F
  0.4009253300000000  0.0002002490300000  0.4033500300000000   F   F   F
  0.2497287600000000  0.0002564032000000  0.3881878200000000   F   F   F
  0.0983276420000000  0.0002865155000000  0.4033276900000000   F   F   F
  0.1492534272439104  0.9975313608859364  0.4908851451018520   T   T   T
  0.9951716248424678  0.9992337631041613  0.4725220943630722   T   T   T
  0.3501450974167618  0.9998498030884306  0.4901321129231851   T   T   T
  0.4027715092035274  0.0003449608521266  0.5725884401498653   T   T   T
  0.2449710701679798  0.9975532237086212  0.5601627876802487   T   T   T
  0.0964482768446821  0.0005929930396987  0.5726385452427438   T   T   T
  0.4063065200000000  0.5001936400000000  0.2314350300000000   F   F   F
  0.2512413900000000  0.5001806200000000  0.2100148100000000   F   F   F
  0.0953896240000000  0.5002229800000000  0.2307641000000000   F   F   F
  0.1523359900000000  0.6253361100000000  0.3161970600000000   F   F   F
  0.9998465300000000  0.6253094900000000  0.3018438600000000   F   F   F
  0.3470353200000000  0.6253031800000000  0.3159080000000000   F   F   F
  0.4012680500000000  0.6251629100000000  0.4022859800000000   F   F   F
  0.2498033600000000  0.6253317200000000  0.3865578300000000   F   F   F
  0.0982366730000000  0.6252086400000000  0.4022280100000000   F   F   F
  0.1569891008371295  0.6210659532320991  0.4919843626543091   T   T   T
  0.9979999608585870  0.6249565294312970  0.4791324150053796   T   T   T
  0.3508009621543174  0.6287207647112601  0.4872526280907982   T   T   T
  0.4028926413159031  0.6235783854578963  0.5724822796357422   T   T   T
  0.2534699293014080  0.6259258202073253  0.5606611474349074   T   T   T
  0.1065265483922370  0.6287798562079923  0.5758276912190060   T   T   T
  0.4056064200000000  0.6253832300000000  0.2315436000000000   F   F   F
  0.2529718000000000  0.6254639100000000  0.1770630900000000   F   F   F
  0.0941737860000000  0.6254160800000000  0.2317218200000000   F   F   F
  0.1528673800000000  0.7503541400000000  0.3162172800000000   F   F   F
  0.9999341500000000  0.7503010200000000  0.3024154100000000   F   F   F
  0.3469166500000000  0.7503542700000000  0.3160971400000000   F   F   F
  0.4011547500000000  0.7501581300000000  0.4026058700000000   F   F   F
  0.2498286500000000  0.7502768500000000  0.3870473300000000   F   F   F
  0.0983325470000000  0.7501121200000000  0.4025556700000000   F   F   F
  0.1555108507102806  0.7538120754595928  0.4881142135903117   T   T   T
  0.0025940960691859  0.7465134501981806  0.4726907482379227   T   T   T
  0.3465201261597785  0.7473625970258765  0.4891842764638287   T   T   T
  0.3989926896189329  0.7437152992421440  0.5753959979754456   T   T   T
  0.2535584016327899  0.7468642150925680  0.5588661477690173   T   T   T
  0.0990442306338861  0.7429016259524446  0.5677211137344642   T   T   T
  0.4063143300000000  0.7504587900000000  0.2317519500000000   F   F   F
  0.2511725900000000  0.7504005800000000  0.2103537900000000   F   F   F
  0.0953424560000000  0.7504494600000000  0.2312128000000000   F   F   F
  0.1523439600000000  0.8753338300000000  0.3170103300000000   F   F   F
  0.9997967200000000  0.8753025000000000  0.3027443000000000   F   F   F
  0.3469037200000000  0.8753353200000000  0.3166520300000000   F   F   F
  0.4011517400000000  0.8751655400000000  0.4030861200000000   F   F   F
  0.2497150100000000  0.8752377900000000  0.3877964600000000   F   F   F
  0.0982322420000000  0.8751711000000000  0.4030970200000000   F   F   F
  0.1532028537813095  0.8726715577066521  0.4921894248851403   T   T   T
  0.0023807874897399  0.8733423713031473  0.4784830027954582   T   T   T
  0.3500151664913799  0.8728090674425024  0.4891719073813287   T   T   T
  0.3994686080822140  0.8757389033066509  0.5698947612296771   T   T   T
  0.2472336473733615  0.8719621459025257  0.5594539195903245   T   T   T
  0.1052131514551253  0.8727665055284646  0.5748041798233388   T   T   T
  0.4055872000000000  0.8754117400000000  0.2322219000000000   F   F   F
  0.2529197600000000  0.8755044900000000  0.1775187000000000   F   F   F
  0.0941314550000000  0.8754011900000001  0.2324460800000000   F   F   F
  0.1527897700000000  0.5002850300000000  0.3157995900000000   F   F   F
  0.9999696300000001  0.5002825200000000  0.3018755900000000   F   F   F
  0.3470120700000000  0.5002638200000000  0.3157923400000000   F   F   F
  0.4011072700000000  0.5003011400000000  0.4023915700000000   F   F   F
  0.2499043500000000  0.5003498700000000  0.3866118700000000   F   F   F
  0.0983250010000000  0.5003816000000000  0.4020913700000000   F   F   F
  0.1577797341113495  0.5005916663919652  0.4894290499123478   T   T   T
  0.9982435728507671  0.5024358222434576  0.4737372124241555   T   T   T
  0.3428895798391934  0.5012510051551388  0.4905425942313131   T   T   T
  0.4018731189271920  0.5036559400760782  0.5684090047124728   T   T   T
  0.2611448176084979  0.5044871351702288  0.5643452493699069   T   T   T
  0.1079898781530783  0.4981689580624527  0.5742182905037807   T   T   T
  0.9061490400000000  0.0002450331100000  0.2322924400000000   F   F   F
  0.7510182200000000  0.0002500089500000  0.2110028400000000   F   F   F
  0.5952573799999999  0.0002584363700000  0.2319758000000000   F   F   F
  0.6522201200000000  0.1251981600000000  0.3172602400000000   F   F   F
  0.4997754700000000  0.1252135100000000  0.3029646200000000   F   F   F
  0.8467867400000000  0.1251976400000000  0.3166809900000000   F   F   F
  0.9010674000000000  0.1253888700000000  0.4030508500000000   F   F   F
  0.7496607000000000  0.1253169100000000  0.3879631100000000   F   F   F
  0.5981165000000001  0.1254739600000000  0.4034341100000000   F   F   F
  0.6480852247118346  0.1288664187289877  0.4893055571979144   T   T   T
  0.4964613445849177  0.1188993036411923  0.4746392599919763   T   T   T
  0.8433296202036894  0.1211127412872111  0.4885217332606785   T   T   T
  0.8971008588339089  0.1272333613477370  0.5754156213390310   T   T   T
  0.7457936017769295  0.1365410949526386  0.5606650826866497   T   T   T
  0.5979202069894684  0.1289766087862977  0.5711034966686059   T   T   T
  0.9054674400000000  0.1250325100000000  0.2322245500000000   F   F   F
  0.7527454800000000  0.1249185200000000  0.1776856900000000   F   F   F
  0.5940723999999999  0.1250507600000000  0.2326618200000000   F   F   F
  0.6527470900000000  0.2502058600000000  0.3165415800000000   F   F   F
  0.4999295700000000  0.2501557900000000  0.3027270400000000   F   F   F
  0.8467943800000000  0.2501964300000000  0.3161006400000000   F   F   F
  0.9010454600000000  0.2505190100000000  0.4025026100000000   F   F   F
  0.7497446000000000  0.2502801500000000  0.3871898200000000   F   F   F
  0.5982163400000000  0.2504638400000000  0.4030446000000000   F   F   F
  0.6494599428728387  0.2539323894441518  0.4902785602757070   T   T   T
  0.4958264464828274  0.2513198558692639  0.4736849632825214   T   T   T
  0.8499574791098525  0.2497178981670196  0.4904971058647824   T   T   T
  0.8914177356700006  0.2502396223488029  0.5752261202921544   T   T   T
  0.7461875896052143  0.2568705397397484  0.5591555814480978   T   T   T
  0.5899058907956277  0.2552374265527433  0.5711943393816856   T   T   T
  0.9061928200000000  0.2499710000000000  0.2317503400000000   F   F   F
  0.7510166000000000  0.2499993500000000  0.2104477500000000   F   F   F
  0.5952700100000000  0.2500086600000000  0.2314862500000000   F   F   F
  0.6522225600000000  0.3751587300000000  0.3164506100000000   F   F   F
  0.4998371500000000  0.3752118200000000  0.3021664200000000   F   F   F
  0.8469632100000000  0.3752237600000000  0.3157643300000000   F   F   F
  0.9012845100000000  0.3754770900000000  0.4020898300000000   F   F   F
  0.7498110400000000  0.3753948500000000  0.3864860200000000   F   F   F
  0.5981359100000000  0.3754318200000000  0.4025488200000000   F   F   F
  0.6498480592732379  0.3779213912778630  0.4855169689427091   T   T   T
  0.5011364878157316  0.3791458960638105  0.4754965099082590   T   T   T
  0.8464168807402117  0.3715763072429078  0.4858359419412121   T   T   T
  0.8970125526905023  0.3751260619462895  0.5694401209641337   T   T   T
  0.7467382304385894  0.3782102109734877  0.5576026968498465   T   T   T
  0.5988230180479206  0.3751952359218623  0.5698256176139208   T   T   T
  0.9054541600000000  0.3750320900000000  0.2314033900000000   F   F   F
  0.7527629500000000  0.3748745400000000  0.1772615200000000   F   F   F
  0.5940357000000001  0.3750044800000000  0.2319656500000000   F   F   F
  0.6527894700000000  0.0002847469900000  0.3170740100000000   F   F   F
  0.4998807100000000  0.0002450996000000  0.3032368800000000   F   F   F
  0.8467420500000000  0.0002807372000000  0.3167672900000000   F   F   F
  0.9009168400000001  0.0002906385500000  0.4032667900000000   F   F   F
  0.7497542699999999  0.0002690270400000  0.3882444500000000   F   F   F
  0.5983088000000000  0.0002096931400000  0.4034908900000000   F   F   F
  0.6535509597593367  0.0000873485912456  0.4896699576665261   T   T   T
  0.4967544303124698  0.9979386539391334  0.4717534674743836   T   T   T
  0.8461278470570465  0.9968503304979037  0.4884802829532168   T   T   T
  0.8979135048494398  0.9969985842015476  0.5726672370444907   T   T   T
  0.7473518786257731  0.0042644778488062  0.5586308459066743   T   T   T
  0.5917095990579301  0.9982145471114484  0.5714465422331942   T   T   T
  0.9061498100000001  0.5002485100000000  0.2312008900000000   F   F   F
  0.7510320800000000  0.5001986100000000  0.2099977900000000   F   F   F
  0.5952447600000000  0.5001912700000000  0.2309494500000000   F   F   F
  0.6522323300000000  0.6253276800000001  0.3163325100000000   F   F   F
  0.4998426000000000  0.6253141400000000  0.3020558600000000   F   F   F
  0.8469726000000000  0.6253508900000000  0.3157498400000000   F   F   F
  0.9012713999999999  0.6252315400000000  0.4020930100000000   F   F   F
  0.7498373400000000  0.6253566300000000  0.3865586600000000   F   F   F
  0.5982576300000000  0.6251983700000000  0.4024150000000000   F   F   F
  0.6451229248220953  0.6212469776772339  0.4844233110629187   T   T   T