Ta  N Cu 
 1.0000000000000000
    18.1096308199999996    0.0000000000000000    0.0000000000000000
     0.0000000000000000   23.3551997799999995    0.0000000000000000
     0.0000000000000000    0.0000000000000000   30.4818170799999990
 240 240  29
Selective dynamics
Cartesian
 18.0450359999999996 23.3378890000000006  5.9449470000000000   F   F   F
  5.9331310000000004  1.3574400000000000  6.1383830000000001   F   F   F
  3.0478209999999999  1.3561319999999999  6.1388889999999998   F   F   F
  4.4868509999999997  2.8955899999999999  8.5356190000000005   F   F   F
  1.4600949999999999  1.4404720000000000  8.6238100000000006   F   F   F
  7.5159089999999997  1.4410840000000000  8.6235289999999996   F   F   F
 18.0687840000000008  2.8956670000000000 11.2413539999999994   F   F   F
  5.9832559999999999  1.4364650000000001 11.2141629999999992   F   F   F
  2.9945650000000001  1.4368529999999999 11.2145150000000005   F   F   F
  4.4878770000000001  2.8962639999999999 13.8773210000000002   F   F   F
  1.4778480000000001  1.4351940000000001 13.8367140000000006   F   F   F
  7.4997910000000001  1.4357819999999999 13.8361970000000003   F   F   F
 18.0758650000000003  2.8973110000000002 16.4718349999999987   F   F   F
  6.0343929999999997  1.4302670000000000 16.5257089999999991   F   F   F
  2.9511330000000000  1.4387680000000000 16.5241429999999987   F   F   F
 18.1040449999999993  2.8962690000000002  5.9444229999999996   F   F   F
  5.9312959999999997  4.4373750000000003  6.1378320000000004   F   F   F
  3.0473360000000000  4.4382149999999996  6.1413399999999996   F   F   F
  4.4837619999999996  5.8123149999999999  8.5552399999999995   F   F   F
  1.4582269999999999  4.3511680000000004  8.6250529999999994   F   F   F
  7.5150079999999999  4.3512820000000003  8.6223010000000002   F   F   F
 18.0646990000000010  5.8140479999999997 11.2473220000000005   F   F   F
  5.9796940000000003  4.3533489999999997 11.2128789999999992   F   F   F
  2.9911560000000001  4.3542259999999997 11.2160799999999998   F   F   F
  4.4810449999999999  5.8085769999999997 13.8752560000000003   F   F   F
  1.4716510000000000  4.3517349999999997 13.8368450000000003   F   F   F
  7.5008039999999996  4.3506119999999999 13.8359419999999993   F   F   F
 18.0568010000000001  5.8222899999999997 16.4756469999999986   F   F   F
  6.0080429999999998  4.3224799999999997 16.5261850000000017   F   F   F
  2.9331239999999998  4.3582460000000003 16.5195529999999984   F   F   F
 18.0446680000000015  5.8110530000000002  5.9479980000000001   F   F   F
  5.9328940000000001  7.1944800000000004  6.1364700000000001   F   F   F
  3.0461250000000000  7.1912839999999996  6.1414879999999998   F   F   F
  4.4834139999999998  8.7322830000000007  8.5350500000000000   F   F   F
  1.4573689999999999  7.2745910000000000  8.6260619999999992   F   F   F
  7.5145619999999997  7.2751390000000002  8.6219310000000000   F   F   F
 18.0671970000000002  8.7330020000000008 11.2492529999999995   F   F   F
  5.9806340000000002  7.2723709999999997 11.2094159999999992   F   F   F
  2.9878480000000001  7.2736749999999999 11.2146749999999997   F   F   F
  4.4699549999999997  8.7316350000000007 13.8640220000000003   F   F   F
  1.4646690000000000  7.2731019999999997 13.8438330000000001   F   F   F
  7.4977130000000001  7.2689230000000000 13.8240459999999992   F   F   F
 18.0252370000000006  8.7410999999999994 16.5109819999999985   F   F   F
  5.9406580000000000  7.2422230000000001 16.4576649999999987   F   F   F
  2.9071810000000000  7.2637689999999999 16.5117639999999994   F   F   F
 -0.0014450000000000  8.7253190000000007  5.9489109999999998   F   F   F
  5.9291010000000002 10.2728859999999997  6.1352659999999997   F   F   F
  3.0484979999999999 10.2758299999999991  6.1402559999999999   F   F   F
  4.4885770000000003 23.3342199999999984  8.5550230000000003   F   F   F
  1.4552860000000001 10.1878489999999999  8.6254700000000000   F   F   F
  7.5141629999999999 10.1886150000000004  8.6190770000000008   F   F   F
 18.0725520000000017 23.3337779999999988 11.2384950000000003   F   F   F
  5.9789459999999996 10.1930960000000006 11.2079509999999996   F   F   F
  2.9856980000000002 10.1929560000000006 11.2140419999999992   F   F   F
  4.4927590000000004 23.3333440000000003 13.8803160000000005   F   F   F
  1.4739370000000001 10.1942100000000000 13.8533989999999996   F   F   F
  7.4917860000000003 10.1907940000000004 13.8149820000000005   F   F   F
 18.0771300000000004 23.3332869999999986 16.4711910000000010   F   F   F
  5.9545370000000002 10.1718790000000006 16.4442249999999994   F   F   F
  2.8930600000000002 10.1689740000000004 16.5252209999999984   F   F   F
 18.0623770000000015 11.6491740000000004  5.9364640000000000   F   F   F
  5.9316300000000002 13.0340819999999997  6.1348649999999996   F   F   F
  3.0504430000000000 13.0301050000000007  6.1410710000000002   F   F   F
  4.4857839999999998 14.5749270000000006  8.5312230000000007   F   F   F
  1.4563410000000001 13.1156910000000000  8.6217880000000005   F   F   F
  7.5165410000000001 13.1166450000000001  8.6170550000000006   F   F   F
 18.0801909999999992 14.5754929999999998 11.2428530000000002   F   F   F
  5.9819339999999999 13.1167949999999998 11.2065300000000008   F   F   F
  2.9907379999999999 13.1151400000000002 11.2117489999999993   F   F   F
  4.4837639999999999 14.5766720000000003 13.8620680000000007   F   F   F
  1.4923620000000000 13.1151979999999995 13.8578259999999993   F   F   F
  7.4887759999999997 13.1189160000000005 13.8231289999999998   F   F   F
 18.0825920000000018 14.5766200000000001 16.4598030000000008   F   F   F
  5.9932359999999996 13.1091759999999997 16.4498649999999991   F   F   F
  2.8897979999999999 13.1017890000000001 16.5594159999999988   F   F   F
  0.0127920000000000 14.5760249999999996  5.9451470000000004   F   F   F
  5.9324420000000000 16.1158779999999986  6.1351560000000003   F   F   F
  3.0509260000000000 16.1175110000000004  6.1391780000000002   F   F   F
  4.4878330000000002 17.4963219999999993  8.5491390000000003   F   F   F
  1.4586680000000001 16.0332200000000000  8.6205169999999995   F   F   F
  7.5173189999999996 16.0337229999999984  8.6180760000000003   F   F   F
 18.0781829999999992 17.4978429999999996 11.2370389999999993   F   F   F
  5.9839300000000000 16.0360249999999986 11.2100130000000000   F   F   F
  2.9940039999999999 16.0345459999999989 11.2105569999999997   F   F   F
  4.4926800000000000 17.4952609999999993 13.8773529999999994   F   F   F
  1.4899560000000001 16.0357610000000008 13.8464179999999999   F   F   F
  7.4948009999999998 16.0418419999999990 13.8322990000000008   F   F   F
 18.0787869999999984 17.4954099999999997 16.4582310000000014   F   F   F
  5.9881520000000004 16.0639150000000015 16.4886030000000012   F   F   F
  2.9180549999999998 16.0503660000000004 16.5387839999999997   F   F   F
 18.0634380000000014 17.5003069999999994  5.9325820000000000   F   F   F
  5.9319240000000004 18.8760310000000011  6.1345679999999998   F   F   F
  3.0514899999999998 18.8738519999999994  6.1368479999999996   F   F   F
  4.4895230000000002 20.4166349999999994  8.5355319999999999   F   F   F
  1.4614840000000000 18.9603609999999989  8.6216679999999997   F   F   F
  7.5163320000000002 18.9607729999999997  8.6214169999999992   F   F   F
 18.0760299999999994 20.4163929999999993 11.2359249999999999   F   F   F
  5.9839599999999997 18.9556980000000017 11.2128460000000008   F   F   F
  2.9964559999999998 18.9549449999999986 11.2122480000000007   F   F   F
  4.4926919999999999 20.4155620000000013 13.8743970000000001   F   F   F
  1.4841740000000001 18.9578349999999993 13.8354099999999995   F   F   F
  7.4998839999999998 18.9614720000000005 13.8343129999999999   F   F   F
 18.0789359999999988 20.4143879999999989 16.4676720000000003   F   F   F
  6.0075820000000002 18.9923189999999984 16.5209970000000013   F   F   F
  2.9467859999999999 18.9583259999999996 16.5203950000000006   F   F   F
  0.0002490000000000 20.4240339999999989  5.9443929999999998   F   F   F
  5.9345720000000002 21.9569650000000003  6.1367969999999996   F   F   F
  3.0478830000000001 21.9566610000000004  6.1383749999999999   F   F   F
  4.4815290000000001 11.6540909999999993  8.5497910000000008   F   F   F
  1.4620569999999999 21.8725319999999996  8.6232419999999994   F   F   F
  7.5162209999999998 21.8728389999999990  8.6227129999999992   F   F   F
 18.0749579999999987 11.6524149999999995 11.2480869999999999   F   F   F
  5.9845189999999997 21.8742899999999985 11.2134889999999992   F   F   F
  2.9966050000000002 21.8739960000000018 11.2134540000000005   F   F   F
  4.4760400000000002 11.6506150000000002 13.8597029999999997   F   F   F
  1.4806500000000000 21.8749989999999990 13.8361470000000004   F   F   F
  7.5012720000000002 21.8763910000000017 13.8357309999999991   F   F   F
 18.0632519999999985 11.6540879999999998 16.4714309999999990   F   F   F
  6.0382930000000004 21.8834629999999990 16.5276400000000017   F   F   F
  2.9536280000000001 21.8759079999999990 16.5235559999999992   F   F   F
  9.0427520000000001 23.3379149999999989  5.9430310000000004   F   F   F
 14.9888639999999995  1.5183350000000000  6.1414400000000002   F   F   F
 12.0977340000000009  1.5163489999999999  6.1410869999999997   F   F   F
 13.5439980000000002  2.8964270000000001  8.5535739999999993   F   F   F
 10.5117480000000008  1.4340010000000001  8.6233889999999995   F   F   F
 16.5754139999999985  1.4348170000000000  8.6235640000000000   F   F   F
  9.0163840000000004  2.8952079999999998 11.2383780000000009   F   F   F
 15.0385240000000007  1.4369090000000000 11.2135599999999993   F   F   F
 12.0487179999999992  1.4369289999999999 11.2132140000000007   F   F   F
 13.5450260000000000  2.8953419999999999 13.8771489999999993   F   F   F
 10.5360659999999999  1.4342770000000000 13.8377999999999997   F   F   F
 16.5534460000000010  1.4345190000000001 13.8372080000000004   F   F   F
  9.0121629999999993  2.9033650000000000 16.4654549999999986   F   F   F
 15.0824949999999998  1.4250309999999999 16.5248980000000003   F   F   F
 12.0055169999999993  1.4185970000000001 16.5271779999999993   F   F   F
  8.9836340000000003  2.8961260000000002  5.9421619999999997   F   F   F
 14.9891009999999998  4.2789289999999998  6.1432580000000003   F   F   F
 12.0976970000000001  4.2788000000000004  6.1411290000000003   F   F   F
 13.5434020000000004  5.8112510000000004  8.5416640000000008   F   F   F
 10.5106470000000005  4.3582590000000003  8.6234310000000001   F   F   F
 16.5746320000000011  4.3589180000000001  8.6249749999999992   F   F   F
  9.0160160000000005  5.8112649999999997 11.2403399999999998   F   F   F
 15.0391069999999996  4.3554420000000000 11.2165280000000003   F   F   F
 12.0479459999999996  4.3549550000000004 11.2155760000000004   F   F   F
 13.5393620000000006  5.8116969999999997 13.8705660000000002   F   F   F
 10.5380929999999999  4.3502239999999999 13.8416189999999997   F   F   F
 16.5458210000000001  4.3515360000000003 13.8457039999999996   F   F   F
  9.0052330000000005  5.8332139999999999 16.4544780000000017   F   F   F
 15.1082789999999996  4.3297540000000003 16.5363320000000016   F   F   F
 12.0039999999999996  4.3020399999999999 16.5299729999999983   F   F   F
  9.0421209999999999  5.8110960000000000  5.9425330000000001   F   F   F
 14.9859050000000007  7.3444989999999999  6.1413589999999996   F   F   F
 12.0990909999999996  7.3423939999999996  6.1388600000000002   F   F   F
 13.5457800000000006  8.7287929999999996  8.5491139999999994   F   F   F
 10.5103390000000001  7.2664890000000000  8.6212870000000006   F   F   F
 16.5741070000000015  7.2666719999999998  8.6238469999999996   F   F   F
  9.0148080000000004  8.7320829999999994 11.2353310000000004   F   F   F
 15.0426149999999996  7.2735519999999996 11.2180900000000001   F   F   F
 12.0456710000000005  7.2734120000000004 11.2138240000000007   F   F   F
 13.5467860000000009  8.7408429999999999 13.8667840000000009   F   F   F
 10.5340980000000002  7.2713029999999996 13.8366080000000000   F   F   F
 16.5468760000000010  7.2745490000000004 13.8558299999999992   F   F   F
  8.9949630000000003  8.7296680000000002 16.4268500000000017   F   F   F
 15.1061829999999997  7.2568210000000004 16.5127179999999996   F   F   F
 12.0065100000000005  7.2672059999999998 16.4749729999999985   F   F   F
  8.9788019999999999  8.7255269999999996  5.9434589999999998   F   F   F
 14.9859960000000001 10.0946680000000004  6.1282980000000000   F   F   F
 12.1013199999999994 10.0948910000000005  6.1256440000000003   F   F   F
 13.5442549999999997 23.3368630000000010  8.5406030000000008   F   F   F
 10.5135149999999999 10.1917720000000003  8.6187039999999993   F   F   F
 16.5724319999999992 10.1917130000000000  8.6227429999999998   F   F   F
  9.0166789999999999 23.3334070000000011 11.2382829999999991   F   F   F
 15.0439399999999992 10.1928859999999997 11.2119280000000003   F   F   F
 12.0482499999999995 10.1936269999999993 11.2059029999999993   F   F   F
 13.5462760000000006 23.3328120000000006 13.8741800000000008   F   F   F
 10.5301980000000004 10.2015349999999998 13.8167880000000007   F   F   F
 16.5518709999999984 10.1967230000000004 13.8484370000000006   F   F   F
  9.0205959999999994 23.3330729999999988 16.4710460000000012   F   F   F
 15.1134229999999992 10.2351050000000008 16.4921809999999986   F   F   F
 12.0374710000000000 10.2260380000000008 16.4296390000000017   F   F   F
  9.0276099999999992 11.6504930000000009  5.9300590000000000   F   F   F
 15.0672960000000007 13.1258900000000001  6.1703270000000003   F   F   F
 12.0228830000000002 13.1235060000000008  6.1659910000000000   F   F   F
 13.5453089999999996 14.5759390000000000  8.4548810000000003   F   F   F
 10.5113059999999994 13.1104649999999996  8.6184779999999996   F   F   F
 16.5777830000000002 13.1098409999999994  8.6213429999999995   F   F   F
  9.0144149999999996 14.5789380000000008 11.2319540000000000   F   F   F
 15.0423580000000001 13.1165520000000004 11.1960850000000001   F   F   F
 12.0534909999999993 13.1176460000000006 11.1953160000000000   F   F   F
 13.5578260000000004 14.5836579999999998 13.8495530000000002   F   F   F
 10.5335409999999996 13.1251770000000008 13.8136620000000008   F   F   F
 16.5601650000000014 13.1223250000000000 13.8281390000000002   F   F   F
  9.0520060000000004 14.5909999999999993 16.4291629999999991   F   F   F
 15.1434899999999999 13.1553629999999995 16.5049439999999983   F   F   F
 12.0842740000000006 13.1609940000000005 16.4474300000000007   F   F   F
  8.9685360000000003 14.5760500000000004  5.9413229999999997   F   F   F
 15.0686800000000005 16.0235360000000000  6.1676890000000002   F   F   F
 12.0223440000000004 16.0255720000000004  6.1653979999999997   F   F   F
 13.5445150000000005 17.5226000000000006  8.4861679999999993   F   F   F
 10.5116999999999994 16.0407660000000014  8.6186579999999999   F   F   F
 16.5776649999999997 16.0413229999999984  8.6198990000000002   F   F   F
  9.0162479999999992 17.4996550000000006 11.2339830000000003   F   F   F
 15.0396339999999995 16.0394599999999983 11.1945499999999996   F   F   F
 12.0524719999999999 16.0396409999999996 11.1977259999999994   F   F   F
 13.5513100000000009 17.5023580000000010 13.8613230000000005   F   F   F
 10.5347720000000002 16.0439219999999985 13.8211160000000000   F   F   F
 16.5634559999999986 16.0418039999999991 13.8209029999999995   F   F   F
  9.0228769999999994 17.4810760000000016 16.4444209999999984   F   F   F
 15.1237729999999999 16.0539839999999998 16.5017220000000009   F   F   F
 12.0900110000000005 16.0694920000000003 16.4623339999999985   F   F   F
  9.0276099999999992 17.5001770000000008  5.9300879999999996   F   F   F
 14.9879639999999998 19.0560250000000018  6.1246900000000002   F   F   F
 12.1029250000000008 19.0554279999999991  6.1231220000000004   F   F   F
 13.5447260000000007 20.4214650000000013  8.5474530000000009   F   F   F
 10.5153780000000001 18.9576649999999987  8.6193890000000000   F   F   F
 16.5740699999999990 18.9583520000000014  8.6195050000000002   F   F   F
  9.0161210000000001 20.4161709999999985 11.2360679999999995   F   F   F
 15.0396199999999993 18.9591579999999986 11.2054969999999994   F   F   F
 12.0521340000000006 18.9588269999999994 11.2073529999999995   F   F   F
 13.5503160000000005 20.4150430000000007 13.8704619999999998   F   F   F
 10.5372610000000009 18.9618320000000011 13.8302449999999997   F   F   F
 16.5604699999999987 18.9596470000000004 13.8237009999999998   F   F   F
  9.0191719999999993 20.4077370000000009 16.4661350000000013   F   F   F
 15.1018539999999994 18.9614939999999983 16.5103240000000007   F   F   F
 12.0268499999999996 18.9909280000000003 16.5173850000000009   F   F   F
  8.9787739999999996 20.4242659999999994  5.9442000000000004   F   F   F
 14.9885310000000000 21.8062860000000001  6.1379729999999997   F   F   F
 12.1009890000000002 21.8072049999999997  6.1372080000000002   F   F   F
 13.5452480000000008 11.6285520000000009  8.4864099999999993   F   F   F
 10.5123180000000005 21.8810959999999994  8.6207779999999996   F   F   F
 16.5760010000000015 21.8824840000000016  8.6209319999999998   F   F   F
  9.0140740000000008 11.6536939999999998 11.2318770000000008   F   F   F
 15.0396190000000001 21.8761679999999998 11.2107869999999998   F   F   F
 12.0495769999999993 21.8759739999999994 11.2113019999999999   F   F   F
 13.5560539999999996 11.6669649999999994 13.8382760000000005   F   F   F
 10.5375779999999999 21.8752279999999999 13.8356300000000001   F   F   F
 16.5573850000000000 21.8748030000000000 13.8318910000000006   F   F   F
  9.0192660000000000 11.6592640000000003 16.4174690000000005   F   F   F
 15.0898610000000009 21.8727230000000006 16.5202279999999995   F   F   F
 12.0032499999999995 21.8774489999999986 16.5225940000000016   F   F   F
  7.3262590000000003 23.3356160000000017  7.0485569999999997   F   F   F
  4.4912720000000004 23.3342799999999997  5.3687310000000004   F   F   F
  1.6539980000000001 23.3353980000000014  7.0482920000000000   F   F   F
  2.7299989999999998  2.8956860000000000  9.6183470000000000   F   F   F
 18.0697280000000013  2.8966099999999999  9.1956919999999993   F   F   F
  6.2443249999999999  2.8959980000000001  9.6161069999999995   F   F   F
  7.2291350000000003  2.8959910000000000 12.2427890000000001   F   F   F
  4.4880190000000004  2.8950999999999998 11.8015299999999996   F   F   F
  1.7460670000000000  2.8952049999999998 12.2437640000000005   F   F   F
  2.7034229999999999  2.8933879999999998 14.8531390000000005   F   F   F
 18.0683900000000008  2.8949300000000000 14.3989110000000000   F   F   F
  6.2747140000000003  2.8950979999999999 14.8553230000000003   F   F   F
  7.2602250000000002  2.9067500000000002 17.3789690000000014   F   F   F
  4.4923909999999996  2.9060079999999999 16.9876790000000000   F   F   F
  1.7182470000000001  2.8921800000000002 17.3736609999999985   F   F   F
  7.3010789999999997  2.8966360000000000  7.0362600000000004   F   F   F
  4.4898410000000002  2.8972319999999998  6.3963260000000002   F   F   F
  1.6780370000000000  2.8961809999999999  7.0375589999999999   F   F   F
  2.7225370000000000  5.8130009999999999  9.6278720000000000   F   F   F
 18.0717919999999985  5.8135469999999998  9.2005890000000008   F   F   F
  6.2484810000000000  5.8132260000000002  9.6228370000000005   F   F   F
  7.2271570000000001  5.8090370000000000 12.2403800000000000   F   F   F
  4.4863580000000001  5.8142360000000002 11.8020029999999991   F   F   F
  1.7418750000000001  5.8153810000000004 12.2480829999999994   F   F   F
  2.6955339999999999  5.8069300000000004 14.8543920000000007   F   F   F
 18.0609830000000002  5.8128960000000003 14.4039870000000008   F   F   F
  6.2743869999999999  5.8001090000000000 14.8576169999999994   F   F   F
  7.2330420000000002  5.8398300000000001 17.4143100000000004   F   F   F
  4.4649369999999999  5.8149189999999997 16.9929810000000003   F   F   F
  1.6943649999999999  5.8101079999999996 17.3785300000000014   F   F   F
  7.3257009999999996  5.8130459999999999  7.0469790000000003   F   F   F
  4.4909860000000004  5.8152109999999997  5.3701150000000002   F   F   F
  1.6513030000000000  5.8130829999999998  7.0517099999999999   F   F   F
  2.7269109999999999  8.7321989999999996  9.6200709999999994   F   F   F
 18.0670970000000004  8.7308229999999991  9.2007630000000002   F   F   F
  6.2416570000000000  8.7328790000000005  9.6132030000000004   F   F   F
  7.2233169999999998  8.7314290000000003 12.2307989999999993   F   F   F
  4.4834610000000001  8.7318809999999996 11.7937650000000005   F   F   F
  1.7421420000000001  8.7339120000000001 12.2513850000000009   F   F   F
  2.6904309999999998  8.7265259999999998 14.8578650000000003   F   F   F
 18.0603359999999995  8.7360050000000005 14.4294949999999993   F   F   F
  6.2633830000000001  8.7189920000000001 14.8299550000000000   F   F   F
  7.1729079999999996  8.7145130000000002 17.3224699999999991   F   F   F
  4.4443919999999997  8.7259600000000006 16.9851129999999984   F   F   F
  1.6699430000000000  8.7261330000000008 17.3772489999999991   F   F   F
  7.2998219999999998  8.7317389999999993  7.0373669999999997   F   F   F
  4.4881739999999999  8.7312530000000006  6.4007339999999999   F   F   F
  1.6788060000000000  8.7312969999999996  7.0415869999999998   F   F   F
  2.7260330000000002 23.3342519999999993  9.6253679999999999   F   F   F
 18.0747450000000001 23.3348259999999996  9.1942419999999991   F   F   F
  6.2520540000000002 23.3343489999999996  9.6250669999999996   F   F   F
  7.2310070000000000 23.3335140000000010 12.2450589999999995   F   F   F
  4.4902600000000001 23.3331060000000008 11.8049090000000003   F   F   F
  1.7492170000000000 23.3333990000000000 12.2449440000000003   F   F   F
  2.7074039999999999 23.3336450000000006 14.8530010000000008   F   F   F
 18.0719990000000017 23.3328759999999988 14.3966379999999994   F   F   F
  6.2794770000000000 23.3338269999999994 14.8572019999999991   F   F   F
  7.2657080000000001 23.3355710000000016 17.3794250000000012   F   F   F
  4.4947499999999998 23.3346219999999995 16.9914209999999990   F   F   F
  1.7246550000000000 23.3321860000000001 17.3693589999999993   F   F   F
  7.3222269999999998 11.6451080000000005  7.0448430000000002   F   F   F
  4.4914040000000002 11.6525580000000009  5.3676899999999996   F   F   F
  1.6554430000000000 11.6447669999999999  7.0527369999999996   F   F   F
  2.7285759999999999 14.5742989999999999  9.6154150000000005   F   F   F
 18.0687950000000015 14.5748739999999994  9.1982110000000006   F   F   F
  6.2453219999999998 14.5757259999999995  9.6109100000000005   F   F   F
  7.2248720000000004 14.5788080000000004 12.2354500000000002   F   F   F
  4.4877609999999999 14.5754570000000001 11.7906350000000000   F   F   F
  1.7581650000000000 14.5739690000000000 12.2506350000000008   F   F   F
  2.7221780000000000 14.5774329999999992 14.8866429999999994   F   F   F
 18.0794010000000007 14.5775030000000001 14.3860849999999996   F   F   F
  6.2602130000000002 14.5856019999999997 14.8550480000000000   F   F   F
  7.2557270000000003 14.5614860000000004 17.3163130000000010   F   F   F
  4.4997330000000000 14.5495629999999991 17.1424239999999983   F   F   F
  1.7108420000000000 14.5763040000000004 17.3991720000000001   F   F   F
  7.2917719999999999 14.5753350000000008  7.0354089999999996   F   F   F
  4.4904169999999999 14.5748800000000003  6.3888840000000000   F   F   F
  1.6895540000000000 14.5743670000000005  7.0386499999999996   F   F   F
  2.7258079999999998 17.4940940000000005  9.6229689999999994   F   F   F
 18.0722160000000009 17.4976160000000007  9.1932820000000000   F   F   F
  6.2520230000000003 17.4943910000000002  9.6216419999999996   F   F   F
  7.2289979999999998 17.4976710000000004 12.2423999999999999   F   F   F
  4.4912099999999997 17.4944540000000011 11.8011590000000002   F   F   F
  1.7538460000000000 17.4942969999999995 12.2451720000000002   F   F   F
  2.7111160000000001 17.5007120000000000 14.8591840000000008   F   F   F
 18.0769540000000006 17.4975759999999987 14.3848509999999994   F   F   F
  6.2801109999999998 17.5072049999999990 14.8680489999999992   F   F   F
  7.2458729999999996 17.4978259999999999 17.4091309999999986   F   F   F
  4.4839609999999999 17.4845599999999983 17.0089550000000003   F   F   F
  1.7183640000000000 17.4960650000000015 17.3777310000000007   F   F   F
  7.3226620000000002 17.5043819999999997  7.0460430000000001   F   F   F
  4.4927789999999996 17.4962389999999992  5.3665700000000003   F   F   F
  1.6587430000000001 17.5040839999999989  7.0485490000000004   F   F   F
  2.7320920000000002 20.4151500000000006  9.6163810000000005   F   F   F
 18.0713240000000006 20.4170499999999997  9.1911970000000007   F   F   F
  6.2468769999999996 20.4154319999999991  9.6163919999999994   F   F   F
  7.2302790000000003 20.4153599999999997 12.2420860000000005   F   F   F
  4.4909270000000001 20.4146290000000015 11.7995610000000006   F   F   F
  1.7524709999999999 20.4150120000000008 12.2421520000000008   F   F   F
  2.7100010000000001 20.4186750000000004 14.8534419999999994   F   F   F
 18.0748579999999990 20.4151799999999994 14.3921399999999995   F   F   F
  6.2775840000000001 20.4193069999999999 14.8553789999999992   F   F   F
  7.2627870000000003 20.4088220000000007 17.3781180000000006   F   F   F
  4.4957729999999998 20.4079149999999991 16.9889159999999997   F   F   F
  1.7244090000000001 20.4157979999999988 17.3712000000000018   F   F   F
  7.2997040000000002 20.4175530000000016  7.0381340000000003   F   F   F
  4.4911560000000001 20.4180700000000002  6.3996930000000001   F   F   F
  1.6809989999999999 20.4172140000000013  7.0372719999999997   F   F   F
  2.7204169999999999 11.6540029999999994  9.6258239999999997   F   F   F
 18.0692580000000014 11.6523339999999997  9.2018599999999999   F   F   F
  6.2475129999999996 11.6554079999999995  9.6175189999999997   F   F   F
  7.2231569999999996 11.6564080000000008 12.2317149999999994   F   F   F
  4.4850320000000004 11.6544889999999999 11.7887219999999999   F   F   F
  1.7516550000000000 11.6545299999999994 12.2548010000000005   F   F   F
  2.7141860000000002 11.6500400000000006 14.8861919999999994   F   F   F
 18.0706430000000005 11.6579250000000005 14.3979750000000006   F   F   F
  6.2580780000000003 11.6467279999999995 14.8430540000000004   F   F   F
  7.2311600000000000 11.6404250000000005 17.3456529999999987   F   F   F
  4.4906879999999996 11.6335499999999996 17.1284039999999997   F   F   F
  1.6951510000000001 11.6448409999999996 17.4028880000000008   F   F   F
 16.3620100000000015 23.3376470000000005  7.0380830000000003   F   F   F
 13.5448339999999998 23.3391960000000012  6.4084989999999999   F   F   F
 10.7266220000000008 23.3360100000000017  7.0368899999999996   F   F   F
 11.7795520000000007  2.8972099999999998  9.6242999999999999   F   F   F
  9.0151199999999996  2.8966319999999999  9.1939229999999998   F   F   F
 15.3069220000000001  2.8970170000000000  9.6253089999999997   F   F   F
 16.2821050000000014  2.8960140000000001 12.2483480000000000   F   F   F
 13.5437159999999999  2.8960360000000001 11.8017590000000006   F   F   F
 10.8027309999999996  2.8959769999999998 12.2461599999999997   F   F   F
 11.7619009999999999  2.8901390000000000 14.8590479999999996   F   F   F
  9.0174640000000004  2.8956580000000001 14.3966279999999998   F   F   F
 15.3245790000000000  2.8872860000000000 14.8599779999999999   F   F   F
 16.3176540000000010  2.8866360000000002 17.3767129999999987   F   F   F
 13.5418529999999997  2.9032330000000002 17.0041310000000010   F   F   F
 10.7720640000000003  2.8914629999999999 17.3788230000000006   F   F   F
 16.3863680000000009  2.8975439999999999  7.0484549999999997   F   F   F
 13.5440410000000000  2.8979320000000000  5.3873059999999997   F   F   F
 10.7017670000000003  2.8969309999999999  7.0474860000000001   F   F   F
 11.7834360000000000  5.8152130000000000  9.6184809999999992   F   F   F
  9.0106240000000000  5.8135820000000002  9.1956840000000000   F   F   F
 15.3022240000000007  5.8156070000000000  9.6209919999999993   F   F   F
 16.2766309999999983  5.8146599999999999 12.2527799999999996   F   F   F
 13.5423810000000007  5.8169320000000004 11.7987540000000006   F   F   F
 10.8051709999999996  5.8136169999999998 12.2466229999999996   F   F   F
 11.7624650000000006  5.8017180000000002 14.8804630000000007   F   F   F
  9.0170480000000008  5.8145100000000003 14.3919680000000003   F   F   F
 15.3119750000000003  5.8026759999999999 14.8719990000000006   F   F   F
 16.3044370000000001  5.8078640000000004 17.3999379999999988   F   F   F
 13.5412459999999992  5.8267119999999997 17.1037889999999990   F   F   F
 10.7774789999999996  5.7994479999999999 17.4223840000000010   F   F   F
 16.3611860000000000  5.8126569999999997  7.0408429999999997   F   F   F
 13.5433660000000007  5.8109339999999996  6.4092250000000002   F   F   F
 10.7243759999999995  5.8123630000000004  7.0385239999999998   F   F   F
 11.7806689999999996  8.7323339999999998  9.6201589999999992   F   F   F
  9.0149640000000009  8.7326779999999999  9.1923040000000000   F   F   F
 15.3080470000000002  8.7314720000000001  9.6251599999999993   F   F   F
 16.2799790000000009  8.7354149999999997 12.2543260000000007   F   F   F
 13.5445620000000009  8.7345109999999995 11.7977100000000004   F   F   F
 10.8028680000000001  8.7345520000000008 12.2367670000000004   F   F   F
 11.7540560000000003  8.7408260000000002 14.8461639999999999   F   F   F
  9.0127380000000006  8.7382930000000005 14.3729960000000005   F   F   F
 15.3248400000000000  8.7384160000000008 14.8793550000000003   F   F   F
 16.2498170000000002  8.7539929999999995 17.5001700000000007   F   F   F
 13.5271200000000000  8.7634080000000001 16.9956269999999989   F   F   F
 10.7806660000000001  8.7836400000000001 17.3888640000000017   F   F   F
 16.3856709999999985  8.7264440000000008  7.0453180000000000   F   F   F
 13.5427619999999997  8.7119289999999996  5.3573120000000003   F   F   F