Ta  N  W Cu                             
   1.00000000000000     
    18.1096308199999996    0.0000000000000000    0.0000000000000000
     0.0000000000000000   23.3551997799999995    0.0000000000000000
     0.0000000000000000    0.0000000000000000   30.4818171199999988
   Ta   N    W    Cu
   216   240    24     1
Direct
 -0.0000320623957567  0.0003989254678810  0.1970378952220288
  0.3296636025763351  0.0661994063560152  0.2023594447792216
  0.1703453929464686  0.0662207160756352  0.2024012648049728
  0.2499620858568657  0.1252974948794009  0.2815307695286798
  0.0829334693500963  0.0626922645909285  0.2843728005388593
  0.4171005998281025  0.0627020045910605  0.2843138581981523
  0.0000478527772869  0.1253408129150615  0.3701996831951875
  0.3329975239058383  0.0627365409709044  0.3692657779247950
  0.1670491646850713  0.0627062071667302  0.3693279042234293
  0.2500816676790374  0.1252563139523553  0.4556151716642725
  0.0834582334962608  0.0626617930264546  0.4556127422546253
  0.4166251499062582  0.0627199423263042  0.4555207664251150
  0.0001747396972725  0.1289402791741546  0.5423424975639569
  0.3354685169974746  0.0632215651117127  0.5429106385421967
  0.1648416562679009  0.0629873102726611  0.5429372474336610
  0.0000376249793932  0.1255299414639355  0.1963407526798389
  0.3298176028351033  0.1848504963847721  0.2025498033824505
  0.1701618625578216  0.1848385200508814  0.2026090354653937
  0.2499886621119696  0.2502261121938092  0.2811554162220483
  0.0827578142057643  0.1878958615490660  0.2841299916948872
  0.4172973598956630  0.1878851869208325  0.2840314387815050
  0.0000870691778792  0.2503663281013186  0.3698161984088623
  0.3332323641271074  0.1877043984281383  0.3689773628355580
  0.1667835765204218  0.1877116926120023  0.3690819579011861
  0.2500434538661287  0.2506066595579539  0.4546527334847486
  0.0835965665468181  0.1878450451058752  0.4552551084014667
  0.4164488695581894  0.1879847117864256  0.4551266387094675
  0.0000933268181709  0.2516253176109741  0.5416662453544479
  0.0000889020177150  0.2501044408433261  0.1971854832952615
  0.3297453143405899  0.3154073853771667  0.2022979456416119
  0.1702659604695671  0.3154634534082270  0.2023903807416366
  0.2499511421839916  0.3752424889826686  0.2811228983341391
  0.0827478507411857  0.3124453363070805  0.2838047967062941
  0.4173182207801188  0.3124327539382288  0.2836798849672573
  0.0001049533078893  0.3752640015143117  0.3693826337821933
  0.3332548697898033  0.3126754035336738  0.3686083748703955
  0.1667736151538430  0.3126600843670723  0.3687365270152971
  0.2498525892822166  0.3753759699479717  0.4544679354080936
  0.0832825279242569  0.3129201802529502  0.4549956239295345
  0.4166143623911849  0.3130313716400865  0.4546841552635892
 -0.0008654709681101  0.3768911063963817  0.5418784208187082
  0.0001389332324769  0.3749638907138352  0.1956948253533487
  0.3296363146551347  0.4345288180284717  0.2022462426008446
  0.1703726061815740  0.4344894544646421  0.2023089580933067
  0.2500008576101832  0.0011885323035032  0.2801885962851439
  0.0827072182637292  0.4377080230198816  0.2836155015138607
  0.4173672530079880  0.4376918111994696  0.2834667027006044
  0.0000070071034502  0.0003062842715336  0.3704242975941214
  0.3331950576054071  0.4376402465743824  0.3684144391686276
  0.1667929666368297  0.4376553783085049  0.3686297734086104
  0.2500785549152119  0.0000876467546382  0.4559618989206634
  0.0835889520781262  0.4378058546315443  0.4548618097959101
  0.4164532614704262  0.4378334289352029  0.4544929359999723
  0.0000701734525088 -0.0007449515140166  0.5418003910850177
  0.0001371842141274  0.4998679431831931  0.1967159533616221
  0.3297392219691209  0.5652822300692449  0.2020456429515246
  0.1702598956519578  0.5653042467464381  0.2021146314720373
  0.2499619657443239  0.6248314420055165  0.2808466941130957
  0.0827379510798469  0.5622903487584558  0.2835285675559381
  0.4173255876018608  0.5623033349491783  0.2834241508923960
  0.0000798240155409  0.6249325476486886  0.3692768980506412
  0.3332532812820721  0.5625301901415291  0.3683357074522866
  0.1667397667693106  0.5625478069178008  0.3684813194105074
  0.2500914916656844  0.6249920695048076  0.4541802033762507
  0.0833834178869375  0.5626055555821270  0.4547410087739684
  0.4164985329940933  0.5624672700985269  0.4543828294436236
  0.0000949535088729  0.6253159036821669  0.5417885550798904
  0.0001145813418910  0.6246613205353347  0.1956020824671807
  0.3296503000106208  0.6840506626364227  0.2016520674413047
  0.1703506879379750  0.6840188644640700  0.2017014569649785
  0.2499652555675989  0.7489928268778028  0.2795059247316570
  0.0829135196867219  0.6875629216803576  0.2836577918398257
  0.4171305556218948  0.6875576659640891  0.2835667823845641
  0.0000190017837655  0.7497558231505239  0.3696082030356491
  0.3331748927129107  0.6874975112292989  0.3683438840774448
  0.1668302333271648  0.6875035727358442  0.3684682724899706
  0.2500970034485394  0.7496036579954012  0.4543076430958575
  0.0833989439285679  0.6873592874806610  0.4546185036601147
  0.4165661504523270  0.6872692205239129  0.4544945549682251
  0.0000982966036403  0.7468422601295196  0.5412471683434181
  0.0000358556994093  0.7499123669107048  0.1964544352720557
  0.3345835738945735  0.8135511978097512  0.2032737670370906
  0.1653748945030053  0.8135735747939618  0.2032925476371900
  0.2499927149171323  0.8751620827450195  0.2780198259653400
  0.0826374625222218  0.8124516227589200  0.2840865803736629
  0.4174048059515448  0.8124511075103585  0.2840306577365902
 -0.0000051693071933  0.8749932439418953  0.3701666894603603
  0.3329927029055201  0.8125571786034456  0.3684201502020297
  0.1670344122529565  0.8125852832922625  0.3684806513525633
  0.2500313735003514  0.8749331489741410  0.4552475417541228
  0.0837139044628725  0.8123690124647343  0.4548537913399716
  0.4163337030071659  0.8122488002369711  0.4547988495598871
  0.0000614419872330  0.8729084209143608  0.5419416412845863
  0.0000517434611869  0.8753179437516188  0.1963049252138738
  0.3348814010860157  0.9370426747792203  0.2034791921561804
  0.1650896779786628  0.9370198941794209  0.2034990705928468
  0.2499696185090603  0.4999529011984724  0.2808401913568314
  0.0825810685178803  0.9378892129340534  0.2844516478634280
  0.4174583260204653  0.9378960277877096  0.2844032147967500
  0.0001203078224784  0.5000166292267210  0.3693319819990747
  0.3328365580180369  0.9376870229342286  0.3689074293962902
  0.1671979440279787  0.9376954103638093  0.3689543023586643
  0.2498266681368727  0.5001029576006822  0.4542709445696941
  0.0835483820196787  0.9374716838523646  0.4553582932971179
  0.4165233721966338  0.9374659199689660  0.4552657490045037
 -0.0008809953992186  0.4993873645094388  0.5415784513457317
  0.3354013617390609  0.9369585145707815  0.5427807946205118
  0.1648880141844818  0.9369075312551054  0.5427207139150038
  0.5000410857530390  0.0003939257541196  0.1969772844477556
  0.8296792268966382  0.0662365482575842  0.2024540653292979
  0.6703318672311188  0.0662132993377975  0.2023904405442269
  0.7500938655309964  0.1252894930935246  0.2815413691890302
  0.5829239112525851  0.0626972517627406  0.2843300461286322
  0.9171527133147583  0.0626865913762118  0.2843894323803589
  0.5000520349529745  0.1253580749925801  0.3701084513411537
  0.8330112148945653  0.0627244138996215  0.3693368304616860
  0.6670719874048824  0.0627353077183632  0.3692833831026127
  0.7500126471133465  0.1253238460608967  0.4556160831117500
  0.5834992597039754  0.0627263496783521  0.4555474026676312
  0.9165586882779507  0.0627155767378342  0.4556248795697343
  0.5001382635877685  0.1283963218277014  0.5420462045428178
  0.8353685823105073  0.0632705786024864  0.5429743341469455
  0.6646945929491093  0.0632951553160073  0.5429510020902344
  0.5000042627357947  0.1255124364719811  0.1962822097156073
  0.8299139145190881  0.1847965421707180  0.2026041812962852
  0.6701973878180503  0.1848165410286892  0.2025415387136893
  0.7500731143500461  0.2502046830226939  0.2811041995468193
  0.5827367048571873  0.1878725935288308  0.2840159797289317
  0.9173439467853594  0.1878809870275476  0.2841047058919941
  0.5000424279633847  0.2503825280508266  0.3696908599903721
  0.8332928447161443  0.1877133567376907  0.3690402729961387
  0.6667987679313389  0.1877193840583316  0.3689676452352996
  0.7500336064022272  0.2506908128404280  0.4545968587723052
  0.5836517401569663  0.1880214922902640  0.4551457573962325
  0.9164049808756362  0.1879247255529822  0.4552365967393515
  0.5001588598516229  0.2525257124281101  0.5415437548634516
  0.4999920347138407  0.2501248228364212  0.1970660467340919
  0.8298099901265664  0.3154783032907756  0.2023618001561367
  0.6702944470262566  0.3154101070250218  0.2022650397609616
  0.7501204972824745  0.3752356523484902  0.2809826035638932
  0.5827148678878188  0.3124298109951557  0.2836201265138614
  0.9173774619494497  0.3124375823720770  0.2837325983364241
  0.5000592102222658  0.3752363920815270  0.3692114176354110
  0.8333339922829478  0.3126640382942198  0.3685974965608779
  0.6667577458307664  0.3126833972190702  0.3685292130551638
  0.7500352424190545  0.3754775334942847  0.4541795200017016
  0.5835080807980830  0.3130625824000340  0.4547038202680798
  0.9166052041357986  0.3130313649322405  0.4548048348474120
  0.5003895842841501  0.3764278612826381  0.5414915780016657
  0.4999477908747217  0.3749438514946987  0.1955835326431269
  0.8297262348329347  0.4344606117820359  0.2022648934928200
  0.6704158056185006  0.4344974038054960  0.2022030705743765
  0.7500341682807519  0.0012102760063158  0.2803205794173232
  0.5826566959304531  0.4376895945799134  0.2833920040542141
  0.9174373898724190  0.4377110272830881  0.2835177929287593
  0.5000388060854311  0.0003208218595007  0.3703634373281493
  0.8332681255125078  0.4376660212720288  0.3684120962132948
  0.6667720571004061  0.4376578813821748  0.3682716400347635
  0.7499916280797512  0.0001105008144648  0.4559817207922821
  0.5836590593261478  0.4378545367951287  0.4545311007993332
  0.9164152577250080  0.4378348337023588  0.4546282460423264
  0.5001121892424472 -0.0000210428829918  0.5417205207020382
  0.4999709986781984  0.4998376970496325  0.1966250791455270
  0.8298222023429308  0.5653226392095192  0.2020943689186016
  0.6702467207017623  0.5653011755887090  0.2020140505380876
  0.7500886951040080  0.6248490770237258  0.2807967306965075
  0.5826737137628576  0.5623079353922108  0.2833686253568910
  0.9173949092328618  0.5622913050642832  0.2834596621719129
  0.5000355724708715  0.6249220889863020  0.3691540213107063
  0.8333572558359668  0.5625779195527891  0.3683203590329907
  0.6667268305293942  0.5625479418164794  0.3682293418455693
  0.7500385579011423  0.6249403535492416  0.4540658385154182
  0.5836141992212981  0.5624430514422821  0.4544231603139610
  0.9164556248316089  0.5625317642112417  0.4545327652317653
  0.5001000385133030  0.6243674371195563  0.5413298668226773
  0.4999674584163410  0.6246946494647723  0.1955384265324959
  0.8297028208171190  0.6839575916905364  0.2017397980811969
  0.6703459501611424  0.6840004434994594  0.2016919479817188
  0.7500571477090145  0.7489955567633354  0.2796267406557027
  0.5828477538774655  0.6875639295541309  0.2835563788946162
  0.9172327160734894  0.6875611354390488  0.2836244733057265
  0.5000344008259967  0.7497268969865645  0.3695424229665827
  0.8332508608923586  0.6875127897145391  0.3684245485498829
  0.6668076824375178  0.6874937399375995  0.3683354431008066
  0.7499567199240095  0.7495630783840390  0.4542994852604396
  0.5835077528996802  0.6872528025638007  0.4545103295777367
  0.9166028411770041  0.6873081663110581  0.4546368219418616
  0.5000703740564266  0.7474168025701514  0.5412791190839974
  0.5000282876209969  0.7499512581289489  0.1964002152892118
  0.8344031715340745  0.8136258102401474  0.2033177747289057
  0.6656562656848188  0.8136132056431736  0.2032849580109471
  0.7500365545526715  0.8751339227852061  0.2779156093557618
  0.5825986266121429  0.8124538690674667  0.2840044223989711
  0.9174341559451142  0.8124477525170033  0.2840475343279221
  0.5000295757313189  0.8749844808231605  0.3701005734515136
  0.8330044520897274  0.8125922354220122  0.3684516636670825
  0.6670354551546989  0.8125683256226953  0.3684072142539436
  0.7500197164073842  0.8749124994216348  0.4552572989475603
  0.5837136434804983  0.8122583507531518  0.4548021430467959
  0.9162695617511367  0.8123360825510036  0.4548674842644436
  0.5000208398292618  0.8720225942071885  0.5416485684067202
  0.4999522190313944  0.8753248907686216  0.1962777777967729
  0.8346765061487572  0.9369179899396423  0.2035358356053384
  0.6653808968316056  0.9369500980971740  0.2034977481288258
  0.7500647132434806  0.4999759433587621  0.2807337724170222
  0.5825731641491270  0.9378892611439753  0.2843843012190291
  0.9174690000313943  0.9378856957743387  0.2844402818140505
  0.5000621330379942  0.5000208336782801  0.3691605260497333
  0.8328424801210024  0.9376871850977904  0.3689538293594692
  0.6671969015673798  0.9376796918210616  0.3689168101758206
  0.7499648130927369  0.5000634752510594  0.4539715049424260
  0.5835685507728959  0.9374775173096934  0.4552903457664913
  0.9164566960210021  0.9374825170404931  0.4553841228334554
  0.5003321318061148  0.4999230878746684  0.5414453974670538
  0.8352008348116864  0.9369883674712112  0.5427780321003534
  0.6647181388743845  0.9369981107812635  0.5428066950367205
  0.4059630604136484  0.0009116629630733  0.2325793077446387
  0.2499885364582489  0.0008650033012388  0.2088969360156291
  0.0940502411976917  0.0009058690342255  0.2326320273876382
  0.1528118215140480  0.1252375783132514  0.3171168045737529
  0.0000472651209829  0.1252413994280641  0.3031236571763415
  0.3471911319064507  0.1252470239146114  0.3170398497174147
  0.4014673082462585  0.1252855634968674  0.4032627909062991
  0.2500554624581294  0.1252240181170456  0.3880469593836264
  0.0986272961248175  0.1252106398167705  0.4033597964503989
  0.1524344104768616  0.1257411254309403  0.4885922692132250
  0.0000246518938309  0.1258288735974957  0.4745618414420967
  0.3477946307504236  0.1259502488070099  0.4885524389605084
  0.4006960695785787  0.1295700178301784  0.5703196627908690
  0.2503311005109147  0.1307637914447328  0.5584449642450016
  0.0999227194540214  0.1293278931312843  0.5704623790440900
  0.4057231567015842  0.1253326947292715  0.2326380006110692
  0.2499933384600593  0.1255229189654041  0.1776994612053225
  0.0942949738505595  0.1253348735762416  0.2327136632825609
  0.1529895567915611  0.2501976881746382  0.3166864592886942
  0.0000450551620287  0.2502869086281764  0.3029387301306974
  0.3470340732016428  0.2501861450008173  0.3165888043094299
  0.4014596618557114  0.2504386461095998  0.4029103663722217
  0.2500474057121754  0.2502437268416362  0.3874448936573612
  0.0986302971041868  0.2504474328152545  0.4030799105679883
  0.1530762297283488  0.2506795182478292  0.4879559389824439
 -0.0000052820608413  0.2508116759830853  0.4741670526229696
  0.3471409550482001  0.2509833514713670  0.4878695424981798
  0.3988167537000771  0.2520638941719178  0.5692756201668779
  0.2501730641922472  0.2535748810963995  0.5582017943213112
  0.1018018276878631  0.2513544211379350  0.5694445137708697
  0.4054008380352322  0.2501239751977928  0.2318929608759949
  0.2499924605805080  0.2501154310320322  0.2111224497522634
  0.0946741670712150  0.2501507067126204  0.2320070885502502
  0.1527622369864892  0.3751623846531888  0.3165984641568166
  0.0000572106353265  0.3750953517211525  0.3024188064687665
  0.3472724320932630  0.3751418730144119  0.3164289209106875
  0.4016440541682490  0.3753310104674031  0.4026244236734873
  0.2500137538310097  0.3751788117594514  0.3871913905660412
  0.0984684642449663  0.3752953714545820  0.4029338077525139
  0.1528788005477051  0.3751152963286908  0.4881263771217600
 -0.0000521301574683  0.3758368102606245  0.4740953149571138
  0.3471330251323825  0.3755498922099706  0.4874773001225292
  0.3986956032790491  0.3759896895207751  0.5691499150460619
  0.2508198868446307  0.3766262777385018  0.5579941479660029
  0.1029134580349368  0.3744359970550064  0.5707232823070418
  0.4057646893440061  0.3749847860314229  0.2319853095893600
  0.2500267522319106  0.3748706727399642  0.1779342020855333
  0.0942582075159640  0.3750029904871544  0.2321396967432970
  0.1537823008999130  0.0003318885795889  0.3168201214052520
  0.0000409977624722  0.0003467301443658  0.3035126073784299
  0.3462630992766547  0.0003366402198703  0.3167761091197008
  0.4012190366600382  0.0001272282063834  0.4032464766036760
  0.2500472605425876  0.0000808301154556  0.3881353279551068
  0.0988347804212092  0.0001310194304987  0.4032881715426607
  0.1518964716767651  0.0000537086449411  0.4886712119020718
  0.0000108245822393 -0.0000411294640169  0.4739099529544858
  0.3483567528212305  0.0000481147857757  0.4886720344037297
  0.4026247013440110 -0.0000195488996473  0.5708530708244652
  0.2501987956261872  0.0000052990192865  0.5585048217001437
  0.0977024540511401 -0.0001683715897930  0.5708376203285388
  0.4054064995920339  0.4999352826663921  0.2314648203659519
  0.2499979034610211  0.4999851285754869  0.2107811995182761
  0.0946581432628247  0.4999126595017988  0.2315936651462381
  0.1527207013399605  0.6249487897276008  0.3164086569236655
  0.0000678251880618  0.6249692165440618  0.3023350514325389
  0.3472837706996558  0.6249550680931848  0.3162959667609898
  0.4015480665633775  0.6249839358943893  0.4025107569682528
  0.2500397282928944  0.6250122326168435  0.3869514162595860
  0.0984829165931206  0.6249687945687632  0.4027073945182103
  0.1531472332027971  0.6250316187753593  0.4874960830154297
 -0.0000235671998027  0.6247444412549770  0.4740430685752324
  0.3470928841811621  0.6247169877173110  0.4874023412949329
  0.3983322493975844  0.6244115907335311  0.5689481520016919
  0.2502494558641321  0.6236568090280750  0.5577383101952326
  0.1024044114923956  0.6252260137609460  0.5692357334439410
  0.4057538569133081  0.6248690171737818  0.2319403932815815
  0.2499998624836788  0.6246381924484313  0.1770872262304823
  0.0942961211003542  0.6248654161742841  0.2320340598695950
  0.1537386802522764  0.7498932694543887  0.3161546376511283
  0.0000505598144169  0.7498803420940863  0.3028268572758123
  0.3462582539960676  0.7498829257210583  0.3160898875587778
  0.4013046394134435  0.7498646871699054  0.4025645961682775
  0.2500361174152110  0.7500875090641710  0.3870469175513166
  0.0987354700022553  0.7499111630989714  0.4026231757335224
  0.1531262336494373  0.7494955633719121  0.4875020736523019
  0.0000087068754762  0.7495947761266567  0.4737196546627636
  0.3470892474018610  0.7493203816538609  0.4875903964483572
  0.3987890888555369  0.7480820738588219  0.5690058502376212
  0.2502008983410170  0.7470544804428079  0.5578495819182419
  0.1016255265899361  0.7483067916169861  0.5688863156765609
  0.4060028785627752  0.7494456085593668  0.2319807082772953
  0.2499847730386354  0.7494486609926354  0.2080642102788041
  0.0940299161666150  0.7494460397474573  0.2320535610887623
  0.1548304848897435  0.8751489152162203  0.3161849064232762
  0.0000179494117820  0.8750931388528930  0.3033714120557495
  0.3452093261875117  0.8751458531899611  0.3161362147671725
  0.4011730713712521  0.8749244640830736  0.4028449375057446
  0.2500398291897681  0.8750293706442469  0.3875102468646762
  0.0988491169448079  0.8749666032726423  0.4029100846078050
  0.1525205531583077  0.8742444523716382  0.4883052010505082
 -0.0000016417171772  0.8742901575063553  0.4740700105131618
  0.3476670785517972  0.8742283479723048  0.4882536588354381
  0.4006990828100373  0.8705640766327913  0.5699948263657578
  0.2501824681715965  0.8692795162845867  0.5581476385516376
  0.0994969548064832  0.8706663332000791  0.5700764748924759
  0.4069914529172846  0.8752573805050670  0.2325014695475202
  0.2499935588172094  0.8754126921117575  0.1983885698322931
  0.0929959372142989  0.8752589051523751  0.2325483056496253
  0.1528976778026462  0.5000613338095141  0.3163451593289138
  0.0000594019553836  0.4999978342413890  0.3025200845793390
  0.3471330650991051  0.5000527803648982  0.3161927587377579
  0.4015028355125034  0.5000741905979931  0.4025174403324041
  0.2500031435151522  0.5001282176396662  0.3870759184473925
  0.0985927714669180  0.5001172506514403  0.4028111188743480
  0.1529284593420891  0.5006138976087382  0.4879586130935608
 -0.0000644739965545  0.5000167150631110  0.4738917857531174
  0.3471054972004752  0.5001813134937528  0.4873937191726090
  0.3987011157502878  0.5002338014877588  0.5691300401713650
  0.2506995408910298  0.4999692543685875  0.5579246809621037
  0.1028297668243742  0.5018512872659616  0.5705079937121278
  0.9059233603273762  0.0008860398182215  0.2326419285502605
  0.7500207466577996  0.0009115272869246  0.2092050967663296
  0.5940920845761493  0.0008991344136634  0.2325801344597719
  0.6528239406917676  0.1252497487915665  0.3170422901547241
  0.5000139334837225  0.1252415698882435  0.3030385785260190
  0.8472808761357989  0.1252432278619972  0.3171076221349367
  0.9014469589375932  0.1252589629756207  0.4033517495526567
  0.7500091639213075  0.1252625526506618  0.3880449539796795
  0.5986347825563761  0.1252941982567749  0.4032863127088480
  0.6523279995058763  0.1260162935476516  0.4885897235058808
  0.5000575730876454  0.1259622999340061  0.4743464816259379
  0.8476367359222373  0.1259080025596681  0.4886007343817326
  0.9003933051813341  0.1296942031681925  0.5703776973445943
  0.7499293347287144  0.1309490346598705  0.5584487798327864
  0.5995673956236789  0.1296542742013174  0.5703650205166571
  0.9058018963134080  0.1253159804747004  0.2327178597759010
  0.7500325554016930  0.1254984954381495  0.1777426715649034
  0.5942691015039857  0.1253169036768784  0.2326420623414792
  0.6530164644579203  0.2501821570127519  0.3165404594635189
  0.5000313198579128  0.2502755678354070  0.3028177218907380
  0.8470717190559963  0.2501757796391633  0.3166050185950464
  0.9014793109823319  0.2504516882026177  0.4029691724723193
  0.7500187882852597  0.2502654918466578  0.3873877827222691
  0.5986227131475572  0.2504708524990176  0.4029007285309281
  0.6530026746755258  0.2510374001761864  0.4878498856229487
  0.5000588521347807  0.2509585081231995  0.4740718731004088
  0.8470380765887822  0.2509915424013787  0.4878271873964029
  0.8986089917760709  0.2520902945972930  0.5691879265218474
  0.7500268846935926  0.2534320729176870  0.5580886790913140
  0.6014470141060690  0.2522936922199147  0.5692275651351802
  0.9054434277252590  0.2501306892849408  0.2319495764659651
  0.7500660622954363  0.2500995221499391  0.2110730344556837
  0.5946204272280026  0.2501100969664647  0.2318511377750466
  0.6527723058126107  0.3751353207681166  0.3163184404260746
  0.5000297457948431  0.3750927124333472  0.3022699628682484
  0.8473250165033406  0.3751538409874414  0.3164323583785156
  0.9016221199678635  0.3753200966503152  0.4027136493003176
  0.7500126425961661  0.3751946935976397  0.3869339541662314
  0.5985056593829786  0.3753544632997116  0.4026074717685565
  0.6530876183804192  0.3756167067253219  0.4874847882934634
  0.5000946360427262  0.3756863257851863  0.4738572269679101
  0.8468817795436451  0.3755997210412248  0.4875389261878769
  0.8972710895313458  0.3759598209884960  0.5690868651945947
  0.7497887367842058  0.3765264099333919  0.5577494474494981
  0.6019501640892203  0.3761355811402363  0.5690794571013460
  0.9059413881987983  0.3749942252169940  0.2320490908040258
  0.7500268101028402  0.3748617658056720  0.1779190249378940
  0.5942020705372654  0.3749814627660165  0.2319105361824066
  0.6537014929348487  0.0003180998199785  0.3168076763793384
  0.5000053210087211  0.0003619240678924  0.3034491042435017
  0.8463359694828125  0.0003230931953259  0.3168517984634433
  0.9011821383504731  0.0001389436039655  0.4033203737657597
  0.7500091908603448  0.0000861743001099  0.3881493854688639
  0.5988484723920990  0.0001265483626930  0.4032681650448158
  0.6517553265984523  0.0000696478269143  0.4887074110050074
  0.5000525672643507 -0.0000037825130957  0.4738627368401074
  0.8481515404482349  0.0001193598844981  0.4887253519747110
  0.9024432052690453 -0.0000497742991347  0.5708344745142426
  0.7499532551750019  0.0000756039846559  0.5585713805696729
  0.5975575006413367  0.0000238240320232  0.5708972907237458
  0.9055136031554106  0.4999152771629697  0.2314982258084930
  0.7500487068287905  0.4999849982043942  0.2107182017034449
  0.5945875516538311  0.4999411654778887  0.2313992783927986
  0.6527180491086990  0.6249718551682386  0.3162483516544731
  0.4999953568459078  0.6249800302220540  0.3022317825521644
  0.8473832806757096  0.6249866925937125  0.3163236235743832
  0.9016003065456725  0.6249973288473142  0.4025998984996373
  0.7500094892978589  0.6250154822208099  0.3868535912498092
  0.5985205504641314  0.6249470112918973  0.4025017625238872
  0.6530697519132623  0.6247104986165972  0.4873524905214986
  0.5000507707404799  0.6246696373976023  0.4737038505216294
  0.8469245639026989  0.6247981261965965  0.4873863117677881
  0.8980431600584035  0.6245398382548657  0.5689677670901041
  0.7498858479288939  0.6239248254194788  0.5576053354840784
  0.6018282598998985  0.6242555786513153  0.5688353046404073
  0.9058994452968694  0.6248715153382016  0.2319803960762651
  0.7500282788544003  0.6246361969347289  0.1771038771307015
  0.5941908834253624  0.6248806647129430  0.2319130686700625
  0.6536661267777583  0.7498926074665290  0.3160993182075090
  0.4999918306884703  0.7498667818120123  0.3027625121417461
  0.8464036271454156  0.7498932121355569  0.3161483571959496
  0.9012834390654734  0.7498949518466117  0.4026239820550193
  0.7499969563747401  0.7500722773958287  0.3870256851273224
  0.5987423360074685  0.7498693000193748  0.4025795248104805
  0.6529870172800409  0.7493088472217890  0.4876037832885856
  0.5000334839084396  0.7493724205079743  0.4737054633510487
  0.8469013313210646  0.7493528384509857  0.4875253748958876
  0.8985478062539302  0.7480631214867550  0.5688279890627144
  0.7499469142487813  0.7469178212211385  0.5578310869058588
  0.6013209252313461  0.7480468977680389  0.5689933010134389
  0.9060343130925685  0.7494331685341871  0.2320256694493440
  0.7500391380786443  0.7493679095022577  0.2084090654175378
  0.5940211417326522  0.7494394126673126  0.2319765206230910
  0.6548080200802624  0.8751525687660396  0.3160959869431931
  0.5000161333882021  0.8750914671271763  0.3033239779352598
  0.8452108172826586  0.8751500774548948  0.3161400098676857
  0.9011536966908127  0.8749560591919761  0.4029281465658081
  0.7500003207486321  0.8750199877640022  0.3875076225298155
  0.5988815378269466  0.8749331035487929  0.4028592795903031
  0.6523915115594976  0.8742280070723081  0.4882726448530837
  0.5000195754047927  0.8742421435796733  0.4739012517997377
  0.8474867962594204  0.8742277476953723  0.4883440305461932
  0.9006077484317583  0.8705960225204569  0.5700553836310858
  0.7499110496654542  0.8692005748097931  0.5581708265961958
  0.5994101489218336  0.8705668798170269  0.5700011848614026
  0.9070723610827293  0.8752512806293230  0.2325013142465431
  0.7500096951748300  0.8753744051011914  0.1974485542130028
  0.5929800740546830  0.8752528622968488  0.2324409300050194
  0.6528747413421541  0.5000756196466500  0.3160903956626868
  0.5000230365147297  0.4999820876561925  0.3023768214519634
  0.8471920936070622  0.5000812008402439  0.3161788620125210
  0.9014830029809384  0.5001287446092134  0.4025821083034652
  0.7500181518059607  0.5001521794481745  0.3868023062612727
  0.5986324840862730  0.5000827432961344  0.4024982183417927
  0.6531399140100373  0.5001699203166189  0.4873777494471724
  0.5000819444132444  0.5002032289382358  0.4738260475221773
  0.8468424188856550  0.5001924234626808  0.4873872773115062
  0.8973449721901270  0.5004546788938575  0.5688639347748172
  0.7498252410892781  0.5001883424869860  0.5576686780353755
  0.6018917097325817  0.5002077375465029  0.5690416074178477
  0.3350970405212920  0.1888532732216696  0.5405140814432171
  0.1653470940919300  0.1883363862822392  0.5405225911065499
  0.3351476931714018  0.3136089472015386  0.5398862563532651
  0.1663108520653298  0.3119851311650987  0.5402116914896881
  0.3356877638072343  0.4379720361254701  0.5396689171603791
  0.1687665700531069  0.4379799319255737  0.5389133554843741
  0.3351800854484672  0.5622106932828022  0.5395766767700185
  0.1664265070855325  0.5638262262645931  0.5398561265014016
  0.3348240622203890  0.6867882855306399  0.5396953190152683
  0.1655924851366503  0.6872580476460797  0.5396768954675425
  0.3348943453856015  0.8112928882618963  0.5402858286210384
  0.1653361771140160  0.8115151715144857  0.5402188735745851
  0.8347687031398753  0.1888387119687964  0.5405001459924031
  0.6652386699198986  0.1889591379179653  0.5405274493772758
  0.8344654101625825  0.3133037441192896  0.5398236347639437
  0.6655562298288570  0.3135711728708455  0.5398463246966351
  0.8342212148220874  0.4380224200848793  0.5397130388510271
  0.6654694842636716  0.4380186222259923  0.5396483145912594
  0.8343689609170428  0.5626629212549455  0.5394700260957987
  0.6654810150691939  0.5622881439335579  0.5395387031509049
  0.8344421321475131  0.6868625769003388  0.5396803150570302
  0.6654563763912019  0.6867888971076139  0.5396632204664649
  0.8347909336780618  0.8113773888688862  0.5402348527417596
  0.6651483193849910  0.8113099200614323  0.5402893747889883
  0.0713557388185779  0.4382213697274839  0.6074929478389887
 
  0.00000000E+00  0.00000000E+00  0.00000000E+00
  0.00000000E+00  0.00000000E+00  0.00000000E+00
  0.00000000E+00  0.00000000E+00  0.00000000E+00
  0.00000000E+00  0.00000000E+00  0.00000000E+00
  0.00000000E+00  0.00000000E+00  0.00000000E+00
  0.00000000E+00  0.00000000E+00  0.00000000E+00