generated by phonopy                    
   1.00000000000000     
     7.6677308845160148    0.0071810079924340   -0.0178765615898480
    -3.8278119087469635    6.6449540217942173   -0.0369070232236085
    -0.0315590548635785   -0.0921695130863768   13.4817056561334923
   B    N    Ga
    32    36     4
Direct
  0.1073227375573332  0.2143998022207093 -0.0024851068539976
  0.4383591663915178  0.2173550860243334  0.0026160886267624
  0.7774963830461249  0.2115735518678073  0.0018458673636120
  0.1074031604793312  0.5383558171968283 -0.0014287353650971
  0.4364597695632103  0.5406323445296310 -0.0169710732121099
  0.7645880301799594  0.5384668678544754 -0.0016527896417259
  0.4383811477425764  0.8666450967467602  0.0025405567559885
  0.7646709948499963  0.8718260007999439 -0.0027176785125917
  0.0976438328393703  0.2309770215768728  0.5021236941980244
  0.4487425716997160  0.2311962163638263  0.5013707655881017
  0.7731495605556280  0.2317709912267245  0.4816429600014415
  0.1003047684548217  0.5618223235648536  0.4970462157219974
  0.7766629008200658  0.5618458023202969  0.4968448625093699
  0.1038122726248608  0.8921907658560971  0.5012075835958004
  0.4433955558408821  0.9047450675054626  0.4959563372523063
  0.7766258597337199  0.9046943749394408  0.4965846793432632
  0.2375366577206983  0.1226101321870294  0.2480190049989769
  0.5684530439155685  0.4509474676206465  0.2527459390103061
  0.9112483145253369  0.1173700770977811  0.2537543729002004
  0.2396474587195179  0.4485543791575154  0.2690318857238844
  0.9112894147286278  0.4507567856526535  0.2527945796911564
  0.2372706223399642  0.7715993118802337  0.2485226986909713
  0.5684268816423047  0.7744598239599321  0.2538318436782794
  0.8982510106527133  0.7775349949303767  0.2490815173547877
  0.2140898942408910  0.7730980162350656  0.7524778829978294
  0.5571250978778405  0.1155520261139309  0.7516136359091700
  0.8807167992086234  0.1153549059578545  0.7523558138502836
  0.2086578564702253  0.4462849870647039  0.7473871792149084
  0.5599825033430146  0.4465514671845127  0.7466786322648414
  0.8841019377657841  0.4456746266308105  0.7672081116006734
  0.5537743950705318  0.7853903984222542  0.7483031883715799
  0.8810794979373743  0.7730503254750777  0.7521380066211167
  0.2297242013533295  0.1268613587926277  0.0156551298597850
  0.5513019423301769  0.0986048861455322  0.0187858726115507
  0.8825251583238189  0.0971791588885578 -0.0004965334935516
  0.2154671475179475  0.4301621763353431 -0.0162578615873518
  0.5477273453800430  0.4293057655931818 -0.0165338229593699
  0.8826137113403498  0.4309883877140701  0.0011601891695272
  0.2300827371104220  0.7486576327657325  0.0169479673001502
  0.5476779670009937  0.7632658150156848 -0.0178007949857663
  0.8509879420769502  0.7486655280564978  0.0146031302021086
  0.2174074771229335  0.1190886968514707  0.5179756918159597
  0.5507044461961251  0.1206887892165256  0.4816160589509717
  0.8847923814261199  0.1207346255770757  0.4827923087023917
  0.1885932059069365  0.4402927518114311  0.5157857933015306
  0.5670838142408238  0.4405037389873184  0.5147512873010039
  0.8839756933902119  0.4529770724744719  0.4830708952077888
  0.2179208886121828  0.7870093730888322  0.4985281650222436
  0.5669569837685785  0.8183633474269384  0.5122661613518712
  0.8845779312740489  0.7869570538614656  0.4987084348970494
  0.1283096476593298  0.2256366196718268  0.2688474366472439
  0.4459825504173436  0.2406396478175586  0.2340200054197723
  0.8248935172369192  0.2405444152519957  0.2362907022271971
  0.1280546487399832  0.5596893363774823  0.2675768826641872
  0.4605703778055745  0.5589390859038345  0.2679205414519472
  0.7933070708810429  0.5584029182495994  0.2503630347751403
  0.1245767519222554  0.8904564715758108  0.2322204240283629
  0.4461403463012087  0.8623739705996435  0.2357898164426271
  0.7933329693517807  0.8919481836197128  0.2512746250665864
  0.0901265255133671  0.2369557833347871  0.7340851917267717
  0.4690393987280333  0.2372307043940328  0.7329695859909140
  0.7731911356633743  0.2241835841683991  0.7670414663046997
  0.1065072817477778  0.5569458701094581  0.7666355205480760
  0.4399978560608259  0.5583287448899004  0.7309889206188778
  0.7728005173587291  0.5568676859698121  0.7660549149674559
  0.0904918192530117  0.8592120558016311  0.7360588877997565
  0.4395383743150021  0.8907144120091350  0.7502868835617944
  0.7730320639354460  0.8905381200085032  0.7498198536161196
  0.1024329265558948  0.8757310377196491  0.0731007431784795
  0.5733136941416274  0.1132006678425600  0.1778374443626206
  0.4438131167354437  0.5709971341805143  0.5719661456381846
  0.2137563367659020  0.1068705357369550  0.6768243800451855
 
  0.00000000E+00  0.00000000E+00  0.00000000E+00
  0.00000000E+00  0.00000000E+00  0.00000000E+00
  0.00000000E+00  0.00000000E+00  0.00000000E+00
  0.00000000E+00  0.00000000E+00  0.00000000E+00
  0.00000000E+00  0.00000000E+00  0.00000000E+00
  0.00000000E+00  0.00000000E+00  0.00000000E+00
  0.00000000E+00  0.00000000E+00  0.00000000E+00
  0.00000000E+00  0.00000000E+00  0.00000000E+00
  0.00000000E+00  0.00000000E+00  0.00000000E+00
  0.00000000E+00  0.00000000E+00  0.00000000E+00
  0.00000000E+00  0.00000000E+00  0.00000000E+00
  0.00000000E+00  0.00000000E+00  0.00000000E+00
  0.00000000E+00  0.00000000E+00  0.00000000E+00
  0.00000000E+00  0.00000000E+00  0.00000000E+00
  0.00000000E+00  0.00000000E+00  0.00000000E+00
  0.00000000E+00  0.00000000E+00  0.00000000E+00
  0.00000000E+00  0.00000000E+00  0.00000000E+00
  0.00000000E+00  0.00000000E+00  0.00000000E+00
  0.00000000E+00  0.00000000E+00  0.00000000E+00
  0.00000000E+00  0.00000000E+00  0.00000000E+00
  0.00000000E+00  0.00000000E+00  0.00000000E+00
  0.00000000E+00  0.00000000E+00  0.00000000E+00
  0.00000000E+00  0.00000000E+00  0.00000000E+00
  0.00000000E+00  0.00000000E+00  0.00000000E+00
  0.00000000E+00  0.00000000E+00  0.00000000E+00
  0.00000000E+00  0.00000000E+00  0.00000000E+00
  0.00000000E+00  0.00000000E+00  0.00000000E+00
  0.00000000E+00  0.00000000E+00  0.00000000E+00
  0.00000000E+00  0.00000000E+00  0.00000000E+00
  0.00000000E+00  0.00000000E+00  0.00000000E+00
  0.00000000E+00  0.00000000E+00  0.00000000E+00
  0.00000000E+00  0.00000000E+00  0.00000000E+00
  0.00000000E+00  0.00000000E+00  0.00000000E+00
  0.00000000E+00  0.00000000E+00  0.00000000E+00
  0.00000000E+00  0.00000000E+00  0.00000000E+00
  0.00000000E+00  0.00000000E+00  0.00000000E+00
  0.00000000E+00  0.00000000E+00  0.00000000E+00
  0.00000000E+00  0.00000000E+00  0.00000000E+00
  0.00000000E+00  0.00000000E+00  0.00000000E+00
  0.00000000E+00  0.00000000E+00  0.00000000E+00
  0.00000000E+00  0.00000000E+00  0.00000000E+00
  0.00000000E+00  0.00000000E+00  0.00000000E+00
  0.00000000E+00  0.00000000E+00  0.00000000E+00
  0.00000000E+00  0.00000000E+00  0.00000000E+00
  0.00000000E+00  0.00000000E+00  0.00000000E+00
  0.00000000E+00  0.00000000E+00  0.00000000E+00
  0.00000000E+00  0.00000000E+00  0.00000000E+00
  0.00000000E+00  0.00000000E+00  0.00000000E+00
  0.00000000E+00  0.00000000E+00  0.00000000E+00
  0.00000000E+00  0.00000000E+00  0.00000000E+00
  0.00000000E+00  0.00000000E+00  0.00000000E+00
  0.00000000E+00  0.00000000E+00  0.00000000E+00
  0.00000000E+00  0.00000000E+00  0.00000000E+00
  0.00000000E+00  0.00000000E+00  0.00000000E+00
  0.00000000E+00  0.00000000E+00  0.00000000E+00
  0.00000000E+00  0.00000000E+00  0.00000000E+00
  0.00000000E+00  0.00000000E+00  0.00000000E+00
  0.00000000E+00  0.00000000E+00  0.00000000E+00
  0.00000000E+00  0.00000000E+00  0.00000000E+00
  0.00000000E+00  0.00000000E+00  0.00000000E+00
  0.00000000E+00  0.00000000E+00  0.00000000E+00
  0.00000000E+00  0.00000000E+00  0.00000000E+00
  0.00000000E+00  0.00000000E+00  0.00000000E+00
  0.00000000E+00  0.00000000E+00  0.00000000E+00
  0.00000000E+00  0.00000000E+00  0.00000000E+00
  0.00000000E+00  0.00000000E+00  0.00000000E+00
  0.00000000E+00  0.00000000E+00  0.00000000E+00
  0.00000000E+00  0.00000000E+00  0.00000000E+00
  0.00000000E+00  0.00000000E+00  0.00000000E+00
  0.00000000E+00  0.00000000E+00  0.00000000E+00
  0.00000000E+00  0.00000000E+00  0.00000000E+00
  0.00000000E+00  0.00000000E+00  0.00000000E+00
