Mo  S Cu                                
   1.00000000000000     
    15.9214998300000001    0.0000000000000000    0.0000000000000000
    -7.9622501300000001   13.7910221699999997    0.0000000000000000
     0.0000000000000000    0.0000000000000000   13.5821998300000004
   Mo   S    Cu
    25    50     4
Direct
  0.1309176410093187  0.0674330337149414  0.6774976328772979
  0.1309072120534367  0.2678138789336160  0.6749020199416762
  0.1305182561060505  0.4671196441489016  0.6760405552183428
  0.1306970818599851  0.6674204996322999  0.6775981460424063
  0.1306562363107915  0.8674082423554239  0.6781296177126777
  0.3315450098094530  0.0683159074314190  0.6767284864969909
  0.3298886556738623  0.2676433314463011  0.6722559654785059
  0.3308158905184513  0.4672597391544002  0.6744694489879919
  0.3309754064021675  0.6675819612056841  0.6761348221127861
  0.3309616746994237  0.8676001379569627  0.6772561121134544
  0.5314889428218450  0.0673711450165442  0.6758513308351866
  0.5316147053191500  0.2664992265810397  0.6711036091069005
  0.5305609450076219  0.4681981853472195  0.6724683722366223
  0.5303442034263739  0.6673059967786870  0.6749301398219814
  0.5309395911755885  0.8673658795525654  0.6761919339504914
  0.7310760086366628  0.0670136288633500  0.6759133924791030
  0.7308497179175575  0.2666341668887355  0.6755662138183425
  0.7299540546932946  0.4668051421787069  0.6763296294879595
  0.7307420882743045  0.6673166555074204  0.6771295114136322
  0.7309669458826846  0.8673472188600968  0.6763553507998310
  0.9308161545332894  0.0671591171297052  0.6763861836624088
  0.9307745477772968  0.2671447191049694  0.6760384913468727
  0.9305310010002188  0.4671498809411219  0.6770105112648466
  0.9307876343076131  0.6675375282673102  0.6779350571312506
  0.9308101078013209  0.8673610682450530  0.6777335953620067
  0.0641783072862125  0.1334664751001782  0.5614358894159110
  0.0643036337604741  0.1348366051408121  0.7912877301913568
  0.0636746992980122  0.3340178950213826  0.5605410308159051
  0.0642492083708888  0.3337949633643831  0.7909904511962011
  0.0638415873117282  0.5344847909310317  0.5619561220614244
  0.0640669971009942  0.5334588301304279  0.7919675373458190
  0.0640494639945217  0.7342748492981599  0.5629249658997679
  0.0641432212573250  0.7339027533388460  0.7932397252667513
  0.0641441596572534  0.9338759319819161  0.5628309498439208
  0.0641844253494881  0.9344613376433557  0.7930155975168560
  0.2630834741071695  0.1321790969753280  0.5607413098571286
  0.2663479883736741  0.1370890666103435  0.7923292352903886
  0.2631802340278924  0.3345017018358405  0.5581475692858220
  0.2665828093179954  0.3352532988599393  0.7912290956894807
  0.2635864012499383  0.5345862742234786  0.5604750504857492
  0.2642888802683458  0.5337281028090715  0.7907043398828577
  0.2637004919775165  0.7343661186218782  0.5620748323682534
  0.2645700423816919  0.7339526752101904  0.7920866786426046
  0.2637173269791617  0.9340505327982171  0.5626946469744425
  0.2648033162935235  0.9348462282023604  0.7922519093639480
  0.4633443628939133  0.1319817361390676  0.5595163026474381
  0.4661242652232502  0.1357101914895011  0.7920769019747951
  0.4642429385379288  0.3339847865367389  0.5568294375523593
  0.4632668844533328  0.3343526873701848  0.7858024678944346
  0.4637090237981170  0.5349377587188044  0.5583347482450023
  0.4628115493029341  0.5315120295127613  0.7914065089541609
  0.4640763463918987  0.7344946921969751  0.5606508148710176
  0.4642983522962183  0.7338627182142616  0.7911032753472327
  0.4638088321381488  0.9336645236100267  0.5614112912331422
  0.4647822863624285  0.9342807609322392  0.7916236040431812
  0.6643931748673921  0.1335583164347582  0.5605435284265781
  0.6646943364776732  0.1336173692109028  0.7912010349612828
  0.6661065551626990  0.3347793877587648  0.5593130656560632
  0.6629544030851946  0.3323981610236686  0.7916118613097680
  0.6657853444528143  0.5350576978479609  0.5604916854971904
  0.6615398546747144  0.5321912447336885  0.7919668761125607
  0.6645596207267275  0.7340726748779787  0.5612985358526785
  0.6634230532291099  0.7338538500298952  0.7911979816787067
  0.6642495262762225  0.9337216077882218  0.5610189095993192
  0.6642678298287450  0.9339561289814711  0.7912924597942990
  0.8643679316394497  0.1337549927365060  0.5609792862963729
  0.8641830987804937  0.1338886274226994  0.7912355405536289
  0.8645300913779366  0.3342749432013790  0.5611559169937266
  0.8638768984441043  0.3333427074795878  0.7913996615385983
  0.8642398134755851  0.5345468999477134  0.5623785957139518
  0.8633252706290264  0.5333748813805244  0.7919829561915535
  0.8644216286930018  0.7341725958071521  0.5626190160884335
  0.8636028062459786  0.7338802093274879  0.7928207535831788
  0.8645113352979052  0.9336560377722591  0.5616449054731163
  0.8639010794482331  0.9342154617307799  0.7920528745752264
  0.3942645866494772  0.2614413831172371  0.9660381351517344
  0.5394117558796694  0.2618409015924641  0.9104000713524840
  0.5401913984514408  0.4049742020143441  0.9738087019768713
  0.3952704519464803  0.4106373002983119  0.9238780901330941
 
  0.00000000E+00  0.00000000E+00  0.00000000E+00
  0.00000000E+00  0.00000000E+00  0.00000000E+00
  0.00000000E+00  0.00000000E+00  0.00000000E+00
  0.00000000E+00  0.00000000E+00  0.00000000E+00
  0.00000000E+00  0.00000000E+00  0.00000000E+00
  0.00000000E+00  0.00000000E+00  0.00000000E+00
  0.00000000E+00  0.00000000E+00  0.00000000E+00
  0.00000000E+00  0.00000000E+00  0.00000000E+00
  0.00000000E+00  0.00000000E+00  0.00000000E+00
  0.00000000E+00  0.00000000E+00  0.00000000E+00
  0.00000000E+00  0.00000000E+00  0.00000000E+00
  0.00000000E+00  0.00000000E+00  0.00000000E+00
  0.00000000E+00  0.00000000E+00  0.00000000E+00
  0.00000000E+00  0.00000000E+00  0.00000000E+00
  0.00000000E+00  0.00000000E+00  0.00000000E+00
  0.00000000E+00  0.00000000E+00  0.00000000E+00
  0.00000000E+00  0.00000000E+00  0.00000000E+00
  0.00000000E+00  0.00000000E+00  0.00000000E+00
  0.00000000E+00  0.00000000E+00  0.00000000E+00
  0.00000000E+00  0.00000000E+00  0.00000000E+00
  0.00000000E+00  0.00000000E+00  0.00000000E+00
  0.00000000E+00  0.00000000E+00  0.00000000E+00
  0.00000000E+00  0.00000000E+00  0.00000000E+00
  0.00000000E+00  0.00000000E+00  0.00000000E+00
  0.00000000E+00  0.00000000E+00  0.00000000E+00
  0.00000000E+00  0.00000000E+00  0.00000000E+00
  0.00000000E+00  0.00000000E+00  0.00000000E+00
  0.00000000E+00  0.00000000E+00  0.00000000E+00
  0.00000000E+00  0.00000000E+00  0.00000000E+00
  0.00000000E+00  0.00000000E+00  0.00000000E+00
  0.00000000E+00  0.00000000E+00  0.00000000E+00
  0.00000000E+00  0.00000000E+00  0.00000000E+00
  0.00000000E+00  0.00000000E+00  0.00000000E+00
  0.00000000E+00  0.00000000E+00  0.00000000E+00
  0.00000000E+00  0.00000000E+00  0.00000000E+00
  0.00000000E+00  0.00000000E+00  0.00000000E+00
  0.00000000E+00  0.00000000E+00  0.00000000E+00
  0.00000000E+00  0.00000000E+00  0.00000000E+00
  0.00000000E+00  0.00000000E+00  0.00000000E+00
  0.00000000E+00  0.00000000E+00  0.00000000E+00
  0.00000000E+00  0.00000000E+00  0.00000000E+00
  0.00000000E+00  0.00000000E+00  0.00000000E+00
  0.00000000E+00  0.00000000E+00  0.00000000E+00
  0.00000000E+00  0.00000000E+00  0.00000000E+00
  0.00000000E+00  0.00000000E+00  0.00000000E+00
  0.00000000E+00  0.00000000E+00  0.00000000E+00
  0.00000000E+00  0.00000000E+00  0.00000000E+00
  0.00000000E+00  0.00000000E+00  0.00000000E+00
  0.00000000E+00  0.00000000E+00  0.00000000E+00
  0.00000000E+00  0.00000000E+00  0.00000000E+00
  0.00000000E+00  0.00000000E+00  0.00000000E+00
  0.00000000E+00  0.00000000E+00  0.00000000E+00
  0.00000000E+00  0.00000000E+00  0.00000000E+00
  0.00000000E+00  0.00000000E+00  0.00000000E+00
  0.00000000E+00  0.00000000E+00  0.00000000E+00
  0.00000000E+00  0.00000000E+00  0.00000000E+00
  0.00000000E+00  0.00000000E+00  0.00000000E+00
  0.00000000E+00  0.00000000E+00  0.00000000E+00
  0.00000000E+00  0.00000000E+00  0.00000000E+00
  0.00000000E+00  0.00000000E+00  0.00000000E+00
  0.00000000E+00  0.00000000E+00  0.00000000E+00
  0.00000000E+00  0.00000000E+00  0.00000000E+00
  0.00000000E+00  0.00000000E+00  0.00000000E+00
  0.00000000E+00  0.00000000E+00  0.00000000E+00
  0.00000000E+00  0.00000000E+00  0.00000000E+00
  0.00000000E+00  0.00000000E+00  0.00000000E+00
  0.00000000E+00  0.00000000E+00  0.00000000E+00
  0.00000000E+00  0.00000000E+00  0.00000000E+00
  0.00000000E+00  0.00000000E+00  0.00000000E+00
  0.00000000E+00  0.00000000E+00  0.00000000E+00
  0.00000000E+00  0.00000000E+00  0.00000000E+00
  0.00000000E+00  0.00000000E+00  0.00000000E+00
  0.00000000E+00  0.00000000E+00  0.00000000E+00
  0.00000000E+00  0.00000000E+00  0.00000000E+00
  0.00000000E+00  0.00000000E+00  0.00000000E+00
  0.00000000E+00  0.00000000E+00  0.00000000E+00
  0.00000000E+00  0.00000000E+00  0.00000000E+00
  0.00000000E+00  0.00000000E+00  0.00000000E+00
  0.00000000E+00  0.00000000E+00  0.00000000E+00
