Mo  S Co                                
   1.00000000000000     
    15.9214998300000001    0.0000000000000000    0.0000000000000000
    -7.9622501300000001   13.7910221699999997    0.0000000000000000
     0.0000000000000000    0.0000000000000000   13.5821998300000004
   Mo   S    Co
    25    49     4
Direct
  0.1343460297331511  0.0684687088459365  0.6759948223758188
  0.1381052869001047  0.2720251542701481  0.6720913240724405
  0.1324432992787680  0.4651873300066954  0.6730590355200298
  0.1333222360977045  0.6663179472775675  0.6798105006811217
  0.1334925448071384  0.8669716529377719  0.6797041457612226
  0.3331557623323289  0.0669233761476370  0.6779783980793279
  0.3326090999221368  0.2658269873499854  0.6659975743084666
  0.3252463880453141  0.4601298821678738  0.6698911414842081
  0.3333477638012747  0.6658664939354474  0.6767594435779297
  0.3332754829081422  0.8661828582067961  0.6814808023942192
  0.5334963112232726  0.0668416467468858  0.6818326905232865
  0.5327396153130269  0.2661981881246656  0.6760738554470487
  0.5318924199489597  0.4643556325871294  0.6723488814591480
  0.5316107263689923  0.6655108769541154  0.6767090639275493
  0.5333228584013761  0.8663356979150124  0.6809764192991233
  0.7338878875363896  0.0667584045675989  0.6822159583477623
  0.7334272166096504  0.2666475713585475  0.6815825717509408
  0.7328245011212527  0.4664168579637354  0.6796220324983953
  0.7327419473818884  0.6659223144413584  0.6800639146956451
  0.7330766922402959  0.8660442132984409  0.6823300439003903
  0.9346433229415855  0.0678095356571082  0.6801091985180083
  0.9345289066499944  0.2666680815648509  0.6795287090504553
  0.9332522588294817  0.4665238209863179  0.6799188407537158
  0.9331512618047286  0.6665618498881730  0.6802190692852738
  0.9333867634464489  0.8668870195932332  0.6803897593845211
  0.0660249472653133  0.1342338250541933  0.5616874815573304
  0.0745489077876596  0.1414049205236144  0.7908298237273813
  0.0643349398335102  0.3304994429726323  0.5592462229458137
  0.0731967176734505  0.3355317465238833  0.7916066129236679
  0.0649007572653991  0.5342330072561428  0.5625918944118525
  0.0688756558837943  0.5320818196350482  0.7931869660427676
  0.0664614019783391  0.7334005211848313  0.5650067713123832
  0.0668753195487482  0.7335070342573533  0.7947737245847249
  0.0658306722329601  0.9325145119383498  0.5640069215775054
  0.0682240569437279  0.9361663269923743  0.7933881353888252
  0.2658175841083506  0.1298255543421658  0.5577034140542555
  0.2676049775770090  0.1399715520830219  0.7885767920902380
  0.2654493617105196  0.3315091576746019  0.5535270213305648
  0.2667070218543289  0.5341853076137553  0.5578699677332997
  0.2640894828083981  0.5263126270972477  0.7884351429368143
  0.2665915003141453  0.7342587831857046  0.5647539531447775
  0.2660291064758775  0.7294270763852450  0.7959565138813346
  0.2670106068970609  0.9322055311743667  0.5650092316768356
  0.2665618569539281  0.9346600846172534  0.7947780420392919
  0.4670407272614384  0.1315567489535164  0.5640425722300523
  0.4653307570138794  0.1352431386683138  0.7950211692503625
  0.4684119075918062  0.3319722560920388  0.5561493400771748
  0.4590031713809856  0.3319499179388338  0.7858403909631384
  0.4645293536990933  0.5325215392214337  0.5595357860528093
  0.4582056039482113  0.5253759565494510  0.7862530041048783
  0.4675102866700535  0.7348077408136359  0.5633520563398947
  0.4651480502387281  0.7305184072721570  0.7939687335989639
  0.4669357322771043  0.9335741074419084  0.5667842480843384
  0.4665810351607315  0.9329776498489500  0.7965932111226914
  0.6670325591657975  0.1330587853329619  0.5671559725599188
  0.6670543439616510  0.1336706862812669  0.7970282750981944
  0.6682729807709336  0.3331947059682515  0.5645246031837331
  0.6637023333716021  0.3334819747557625  0.7956896849093662
  0.6685938962670051  0.5343066550027965  0.5622976331914888
  0.6624032749459271  0.5308840178095746  0.7923555134487721
  0.6673134678973602  0.7339702550485800  0.5654683879519629
  0.6626690124893827  0.7285473624117164  0.7967991387349652
  0.6674428745189617  0.9334749596341965  0.5672108961100741
  0.6664809811789220  0.9328868610122755  0.7970149436120033
  0.8661887863442568  0.1326158367519143  0.5660069873121145
  0.8688684997870160  0.1344240806055979  0.7959672697459544
  0.8660840477334921  0.3326390028249495  0.5657005706850796
  0.8682557807553540  0.3335723253186235  0.7953854048002239
  0.8665373642348198  0.5332707308656374  0.5650496604659649
  0.8662932851181782  0.5330993220946570  0.7949337257907370
  0.8665976636728611  0.7335276939750484  0.5653447033323528
  0.8664736529062512  0.7331479130340467  0.7953101989477461
  0.8660000938996064  0.9333762114459830  0.5663944942683293
  0.8682788825601395  0.9344870455961285  0.7960480563710901
  0.2019024942962289  0.2651212578873570  0.0189210032893825
  0.4965948977202269  0.3109136284894293  0.9279696591365199
  0.5124398001603582  0.5770363100472821  0.9256304195113442
  0.2459479428343940  0.5653942525451114  0.9264627859789845
 
  0.00000000E+00  0.00000000E+00  0.00000000E+00
  0.00000000E+00  0.00000000E+00  0.00000000E+00
  0.00000000E+00  0.00000000E+00  0.00000000E+00
  0.00000000E+00  0.00000000E+00  0.00000000E+00
  0.00000000E+00  0.00000000E+00  0.00000000E+00
  0.00000000E+00  0.00000000E+00  0.00000000E+00
  0.00000000E+00  0.00000000E+00  0.00000000E+00
  0.00000000E+00  0.00000000E+00  0.00000000E+00
  0.00000000E+00  0.00000000E+00  0.00000000E+00
  0.00000000E+00  0.00000000E+00  0.00000000E+00
  0.00000000E+00  0.00000000E+00  0.00000000E+00
  0.00000000E+00  0.00000000E+00  0.00000000E+00
  0.00000000E+00  0.00000000E+00  0.00000000E+00
  0.00000000E+00  0.00000000E+00  0.00000000E+00
  0.00000000E+00  0.00000000E+00  0.00000000E+00
  0.00000000E+00  0.00000000E+00  0.00000000E+00
  0.00000000E+00  0.00000000E+00  0.00000000E+00
  0.00000000E+00  0.00000000E+00  0.00000000E+00
  0.00000000E+00  0.00000000E+00  0.00000000E+00
  0.00000000E+00  0.00000000E+00  0.00000000E+00
  0.00000000E+00  0.00000000E+00  0.00000000E+00
  0.00000000E+00  0.00000000E+00  0.00000000E+00
  0.00000000E+00  0.00000000E+00  0.00000000E+00
  0.00000000E+00  0.00000000E+00  0.00000000E+00
  0.00000000E+00  0.00000000E+00  0.00000000E+00
  0.00000000E+00  0.00000000E+00  0.00000000E+00
  0.00000000E+00  0.00000000E+00  0.00000000E+00
  0.00000000E+00  0.00000000E+00  0.00000000E+00
  0.00000000E+00  0.00000000E+00  0.00000000E+00
  0.00000000E+00  0.00000000E+00  0.00000000E+00
  0.00000000E+00  0.00000000E+00  0.00000000E+00
  0.00000000E+00  0.00000000E+00  0.00000000E+00
  0.00000000E+00  0.00000000E+00  0.00000000E+00
  0.00000000E+00  0.00000000E+00  0.00000000E+00
  0.00000000E+00  0.00000000E+00  0.00000000E+00
  0.00000000E+00  0.00000000E+00  0.00000000E+00
  0.00000000E+00  0.00000000E+00  0.00000000E+00
  0.00000000E+00  0.00000000E+00  0.00000000E+00
  0.00000000E+00  0.00000000E+00  0.00000000E+00
  0.00000000E+00  0.00000000E+00  0.00000000E+00
  0.00000000E+00  0.00000000E+00  0.00000000E+00
  0.00000000E+00  0.00000000E+00  0.00000000E+00
  0.00000000E+00  0.00000000E+00  0.00000000E+00
  0.00000000E+00  0.00000000E+00  0.00000000E+00
  0.00000000E+00  0.00000000E+00  0.00000000E+00
  0.00000000E+00  0.00000000E+00  0.00000000E+00
  0.00000000E+00  0.00000000E+00  0.00000000E+00
  0.00000000E+00  0.00000000E+00  0.00000000E+00
  0.00000000E+00  0.00000000E+00  0.00000000E+00
  0.00000000E+00  0.00000000E+00  0.00000000E+00
  0.00000000E+00  0.00000000E+00  0.00000000E+00
  0.00000000E+00  0.00000000E+00  0.00000000E+00
  0.00000000E+00  0.00000000E+00  0.00000000E+00
  0.00000000E+00  0.00000000E+00  0.00000000E+00
  0.00000000E+00  0.00000000E+00  0.00000000E+00
  0.00000000E+00  0.00000000E+00  0.00000000E+00
  0.00000000E+00  0.00000000E+00  0.00000000E+00
  0.00000000E+00  0.00000000E+00  0.00000000E+00
  0.00000000E+00  0.00000000E+00  0.00000000E+00
  0.00000000E+00  0.00000000E+00  0.00000000E+00
  0.00000000E+00  0.00000000E+00  0.00000000E+00
  0.00000000E+00  0.00000000E+00  0.00000000E+00
  0.00000000E+00  0.00000000E+00  0.00000000E+00
  0.00000000E+00  0.00000000E+00  0.00000000E+00
  0.00000000E+00  0.00000000E+00  0.00000000E+00
  0.00000000E+00  0.00000000E+00  0.00000000E+00
  0.00000000E+00  0.00000000E+00  0.00000000E+00
  0.00000000E+00  0.00000000E+00  0.00000000E+00
  0.00000000E+00  0.00000000E+00  0.00000000E+00
  0.00000000E+00  0.00000000E+00  0.00000000E+00
  0.00000000E+00  0.00000000E+00  0.00000000E+00
  0.00000000E+00  0.00000000E+00  0.00000000E+00
  0.00000000E+00  0.00000000E+00  0.00000000E+00
  0.00000000E+00  0.00000000E+00  0.00000000E+00
  0.00000000E+00  0.00000000E+00  0.00000000E+00
  0.00000000E+00  0.00000000E+00  0.00000000E+00
  0.00000000E+00  0.00000000E+00  0.00000000E+00
  0.00000000E+00  0.00000000E+00  0.00000000E+00
