Mo  S Co                                
   1.00000000000000     
    15.9215000000000000    0.0000000000000000    0.0000000000000000
    -7.9622500000000000   13.7910219999999999    0.0000000000000000
     0.0000000000000000    0.0000000000000000   13.5822000000000003
   Mo   S    Co
    25    50     1
Direct
  0.1326810600000030  0.0658289499999967  0.6789216900000028
  0.1326810600000030  0.2658289399999987  0.6789216900000028
  0.1326810799999976  0.4658289600000032  0.6789216900000028
  0.1326810400000014  0.6658289499999981  0.6789216900000028
  0.1326810400000014  0.8658289299999993  0.6789216900000028
  0.3326810399999971  0.0658289499999967  0.6789216900000028
  0.3326810399999971  0.2658289399999987  0.6789216900000028
  0.3326810599999988  0.4658289600000032  0.6789216900000028
  0.3326810599999988  0.6658289499999981  0.6789216900000028
  0.3326810599999988  0.8658289299999993  0.6789216900000028
  0.5326810700000024  0.0658289499999967  0.6789216900000028
  0.5326810600000016  0.2658289399999987  0.6789216900000028
  0.5326810800000032  0.4658289600000032  0.6789216900000028
  0.5326810500000008  0.6658289499999981  0.6789216900000028
  0.5326810500000008  0.8658289299999993  0.6789216900000028
  0.7326810499999965  0.0658289499999967  0.6789216900000028
  0.7326810499999965  0.2658289399999987  0.6789216900000028
  0.7326810699999982  0.4658289600000032  0.6789216900000028
  0.7326810699999982  0.6658289499999981  0.6789216900000028
  0.7326810699999982  0.8658289299999993  0.6789216900000028
  0.9326810700000010  0.0658289499999967  0.6789216900000028
  0.9326810700000010  0.2658289399999987  0.6789216900000028
  0.9326810499999993  0.4658289600000032  0.6789216900000028
  0.9326810499999993  0.6658289499999981  0.6789216900000028
  0.9326810499999993  0.8658289299999993  0.6789216900000028
  0.0660171899999966  0.1325014999999965  0.5637008599999973
  0.0660171899999966  0.1325014999999965  0.7941425300000020
  0.0660171899999966  0.3325014899999985  0.5637008599999973
  0.0660171899999966  0.3325014899999985  0.7941425300000020
  0.0660172099999983  0.5325015100000030  0.5637008599999973
  0.0660172099999983  0.5325015100000030  0.7941425300000020
  0.0660172099999983  0.7325014899999971  0.5637008599999973
  0.0660172099999983  0.7325014899999971  0.7941425300000020
  0.0660171700000021  0.9325014799999991  0.5637008599999973
  0.0660171700000021  0.9325014799999991  0.7941425300000020
  0.2660171799999986  0.1325014999999965  0.5637008599999973
  0.2660171799999986  0.1325014999999965  0.7941425300000020
  0.2660171799999986  0.3325014899999985  0.5637008599999973
  0.2660171799999986  0.3325014899999985  0.7941425300000020
  0.2660171899999995  0.5325015100000030  0.5637008599999973
  0.2660171899999995  0.5325015100000030  0.7941425300000020
  0.2660171899999995  0.7325014899999971  0.5637008599999973
  0.2660171899999995  0.7325014899999971  0.7941425300000020
  0.2660171899999995  0.9325014799999991  0.5637008599999973
  0.2660171899999995  0.9325014799999991  0.7941425300000020
  0.4660172000000031  0.1325014999999965  0.5637008599999973
  0.4660172000000031  0.1325014999999965  0.7941425300000020
  0.4660172000000031  0.3325014899999985  0.5637008599999973
  0.4660172000000031  0.3325014899999985  0.7941425300000020
  0.4660172099999969  0.5325015100000030  0.5637008599999973
  0.4660172099999969  0.5325015100000030  0.7941425300000020
  0.4660171800000015  0.7325014899999971  0.5637008599999973
  0.4660171800000015  0.7325014899999971  0.7941425300000020
  0.4660171800000015  0.9325014799999991  0.5637008599999973
  0.4660171800000015  0.9325014799999991  0.7941425300000020
  0.6660171799999972  0.1325014999999965  0.5637008599999973
  0.6660171799999972  0.1325014999999965  0.7941425300000020
  0.6660171799999972  0.3325014899999985  0.5637008599999973
  0.6660171799999972  0.3325014899999985  0.7941425300000020
  0.6660171999999989  0.5325015100000030  0.5637008599999973
  0.6660171999999989  0.5325015100000030  0.7941425300000020
  0.6660171999999989  0.7325014899999971  0.5637008599999973
  0.6660171999999989  0.7325014899999971  0.7941425300000020
  0.6660171999999989  0.9325014799999991  0.5637008599999973
  0.6660171999999989  0.9325014799999991  0.7941425300000020
  0.8660172000000017  0.1325014999999965  0.5637008599999973
  0.8660172000000017  0.1325014999999965  0.7941425300000020
  0.8660172000000017  0.3325014899999985  0.5637008599999973
  0.8660172000000017  0.3325014899999985  0.7941425300000020
  0.8660172200000034  0.5325015100000030  0.5637008599999973
  0.8660172200000034  0.5325015100000030  0.7941425300000020
  0.8660171900000009  0.7325014899999971  0.5637008599999973
  0.8660171900000009  0.7325014899999971  0.7941425300000020
  0.8660171900000009  0.9325014799999991  0.5637008599999973
  0.8660171900000009  0.9325014799999991  0.7941425300000020
  0.3944449123012248  0.3900909243243262  0.8830721173818645
 
  0.00000000E+00  0.00000000E+00  0.00000000E+00
  0.00000000E+00  0.00000000E+00  0.00000000E+00
  0.00000000E+00  0.00000000E+00  0.00000000E+00
  0.00000000E+00  0.00000000E+00  0.00000000E+00
  0.00000000E+00  0.00000000E+00  0.00000000E+00
  0.00000000E+00  0.00000000E+00  0.00000000E+00
  0.00000000E+00  0.00000000E+00  0.00000000E+00
  0.00000000E+00  0.00000000E+00  0.00000000E+00
  0.00000000E+00  0.00000000E+00  0.00000000E+00
  0.00000000E+00  0.00000000E+00  0.00000000E+00
  0.00000000E+00  0.00000000E+00  0.00000000E+00
  0.00000000E+00  0.00000000E+00  0.00000000E+00
  0.00000000E+00  0.00000000E+00  0.00000000E+00
  0.00000000E+00  0.00000000E+00  0.00000000E+00
  0.00000000E+00  0.00000000E+00  0.00000000E+00
  0.00000000E+00  0.00000000E+00  0.00000000E+00
  0.00000000E+00  0.00000000E+00  0.00000000E+00
  0.00000000E+00  0.00000000E+00  0.00000000E+00
  0.00000000E+00  0.00000000E+00  0.00000000E+00
  0.00000000E+00  0.00000000E+00  0.00000000E+00
  0.00000000E+00  0.00000000E+00  0.00000000E+00
  0.00000000E+00  0.00000000E+00  0.00000000E+00
  0.00000000E+00  0.00000000E+00  0.00000000E+00
  0.00000000E+00  0.00000000E+00  0.00000000E+00
  0.00000000E+00  0.00000000E+00  0.00000000E+00
  0.00000000E+00  0.00000000E+00  0.00000000E+00
  0.00000000E+00  0.00000000E+00  0.00000000E+00
  0.00000000E+00  0.00000000E+00  0.00000000E+00
  0.00000000E+00  0.00000000E+00  0.00000000E+00
  0.00000000E+00  0.00000000E+00  0.00000000E+00
  0.00000000E+00  0.00000000E+00  0.00000000E+00
  0.00000000E+00  0.00000000E+00  0.00000000E+00
  0.00000000E+00  0.00000000E+00  0.00000000E+00
  0.00000000E+00  0.00000000E+00  0.00000000E+00
  0.00000000E+00  0.00000000E+00  0.00000000E+00
  0.00000000E+00  0.00000000E+00  0.00000000E+00
  0.00000000E+00  0.00000000E+00  0.00000000E+00
  0.00000000E+00  0.00000000E+00  0.00000000E+00
  0.00000000E+00  0.00000000E+00  0.00000000E+00
  0.00000000E+00  0.00000000E+00  0.00000000E+00
  0.00000000E+00  0.00000000E+00  0.00000000E+00
  0.00000000E+00  0.00000000E+00  0.00000000E+00
  0.00000000E+00  0.00000000E+00  0.00000000E+00
  0.00000000E+00  0.00000000E+00  0.00000000E+00
  0.00000000E+00  0.00000000E+00  0.00000000E+00
  0.00000000E+00  0.00000000E+00  0.00000000E+00
  0.00000000E+00  0.00000000E+00  0.00000000E+00
  0.00000000E+00  0.00000000E+00  0.00000000E+00
  0.00000000E+00  0.00000000E+00  0.00000000E+00
  0.00000000E+00  0.00000000E+00  0.00000000E+00
  0.00000000E+00  0.00000000E+00  0.00000000E+00
  0.00000000E+00  0.00000000E+00  0.00000000E+00
  0.00000000E+00  0.00000000E+00  0.00000000E+00
  0.00000000E+00  0.00000000E+00  0.00000000E+00
  0.00000000E+00  0.00000000E+00  0.00000000E+00
  0.00000000E+00  0.00000000E+00  0.00000000E+00
  0.00000000E+00  0.00000000E+00  0.00000000E+00
  0.00000000E+00  0.00000000E+00  0.00000000E+00
  0.00000000E+00  0.00000000E+00  0.00000000E+00
  0.00000000E+00  0.00000000E+00  0.00000000E+00
  0.00000000E+00  0.00000000E+00  0.00000000E+00
  0.00000000E+00  0.00000000E+00  0.00000000E+00
  0.00000000E+00  0.00000000E+00  0.00000000E+00
  0.00000000E+00  0.00000000E+00  0.00000000E+00
  0.00000000E+00  0.00000000E+00  0.00000000E+00
  0.00000000E+00  0.00000000E+00  0.00000000E+00
  0.00000000E+00  0.00000000E+00  0.00000000E+00
  0.00000000E+00  0.00000000E+00  0.00000000E+00
  0.00000000E+00  0.00000000E+00  0.00000000E+00
  0.00000000E+00  0.00000000E+00  0.00000000E+00
  0.00000000E+00  0.00000000E+00  0.00000000E+00
  0.00000000E+00  0.00000000E+00  0.00000000E+00
  0.00000000E+00  0.00000000E+00  0.00000000E+00
  0.00000000E+00  0.00000000E+00  0.00000000E+00
  0.00000000E+00  0.00000000E+00  0.00000000E+00
  0.00000000E+00  0.00000000E+00  0.00000000E+00
