Cu	N	Ru	Ta                              
   1.00000000000000     
    18.1096308199999996    0.0000000000000000    0.0000000000000000
     0.0000000000000000   23.3551997799999995    0.0000000000000000
     0.0000000000000000    0.0000000000000000   30.4818171199999988
   Cu   N    Ru   Ta
     4   240    36   204
Selective dynamics
Direct
  0.5836024324486075  0.4397825448001603  0.6142948891898122   T   T   T
  0.4676366781688247  0.4902124429690752  0.6280684216690523   T   T   T
  0.4726013836171433  0.3855581313672771  0.6293152064937387   T   T   T
  0.5280219187544193  0.4399518952276406  0.6864516961871828   T   T   T
  0.0000899737530392  0.3742447112458205  0.4733786020481196   T   T   T
  0.9997950054929191  0.8742198326863423  0.4734585122007127   T   T   T
  0.0007546365873381  0.7508357331636546  0.3024712727493721   F   F   F
  0.0007546365873381  0.2508357331636546  0.3024712727493721   F   F   F
  0.0007971388342227  0.6259226757939587  0.3025555019798603   F   F   F
  0.0007971388342227  0.1259226757939587  0.3025555019798603   F   F   F
  0.0009289261701255  0.8759179472966139  0.3027706837052264   F   F   F
  0.0009289261701255  0.3759179472966139  0.3027706837052264   F   F   F
  0.0009959888293309  0.0008861705399639  0.3028813086718003   F   F   F
  0.0009959888293309  0.5008861705399639  0.3028813086718003   F   F   F
  0.0020695465131531  0.5003263346909167  0.4723609341731824   T   T   T
  0.0020645878812490  0.0002935038251527  0.4725306166960426   T   T   T
  0.5624374375454120  0.7617220769117251  0.5807031587701621   T   T   T
  0.5632310224582843  0.2641265260253338  0.5799963858116304   T   T   T
  0.5944407181460178  0.8759335502460033  0.2316533513143781   F   F   F
  0.5944407181460178  0.3759335502460033  0.2316533513143781   F   F   F
  0.5944879250719026  0.6260651198762730  0.2317376786361365   F   F   F
  0.5944879250719026  0.1260651198762730  0.2317376786361365   F   F   F
  0.5945319922319641  0.7509793277392376  0.2318466107902424   F   F   F
  0.5945319922319641  0.2509793277392376  0.2318466107902424   F   F   F
  0.5946973191803622  0.0011281697544092  0.2317203788144795   F   F   F
  0.5946973191803622  0.5011281697544092  0.2317203788144795   F   F   F
  0.5991124844249872  0.7515621900218283  0.4022651525438458   T   T   T
  0.5992948036961263  0.2513450458663941  0.4021885628840555   T   T   T
  0.5997055620816236  0.6264420322015415  0.4015570683096157   T   T   T
  0.5998378916872306  0.1261954884356213  0.4013919457547671   T   T   T
  0.6001578231514468  0.8759720192781201  0.4012460863402562   T   T   T
  0.6002140083172159  0.3759691352493605  0.4016385872020024   T   T   T
  0.6005579532472827  0.5010773331450767  0.4013268791316287   T   T   T
  0.6006133255648783  0.0012404014905645  0.4008830892146255   T   T   T
  0.6040219120148662  0.8769306781724421  0.5688504417552132   T   T   T
  0.6047169562599232  0.9982241512389974  0.5689629720128776   T   T   T
  0.6052777344372809  0.4990488193170103  0.5708315405439360   T   T   T
  0.6064870492351219  0.3783148137604059  0.5714905845580280   T   T   T
  0.6130491615077200  0.1417789575973640  0.5676230530606706   T   T   T
  0.6140497181525757  0.6413184399788718  0.5670878894753961   T   T   T
  0.6479137563693690  0.7509911591761874  0.4872323175254814   T   T   T
  0.6481937116057606  0.2496585459689434  0.4871422744128060   T   T   T
  0.6520342132435812  0.1254093799223031  0.4852801573616142   T   T   T
  0.6521834838181301  0.6265238484323108  0.4849677418134801   T   T   T
  0.6535644946535251  0.8793292767339695  0.4847625274685415   T   T   T
  0.6535383123697609  0.3784268764842544  0.4860048760301093   T   T   T
  0.6549923804575926  0.7511371041673840  0.3152775575080256   F   F   F
  0.6549923804575926  0.2511371041673840  0.3152775575080256   F   F   F
  0.6550241984407654  0.9988681258348411  0.4857878857887417   T   T   T
  0.6552059756456146  0.6260466862938543  0.3150601846403305   F   F   F
  0.6552059756456146  0.1260466862938543  0.3150601846403305   F   F   F
  0.6552570788408829  0.8758846061131820  0.3149041322638837   F   F   F
  0.6552570788408829  0.3758846061131820  0.3149041322638837   F   F   F
  0.6553359594899459  0.4989535793717056  0.4864240183486739   T   T   T
  0.6554052259801963  0.0012023099894023  0.3149218625060755   F   F   F
  0.6554052259801963  0.5012023099894023  0.3149218625060755   F   F   F
  0.0691360931897417  0.6310337429442585  0.5733966201700320   T   T   T
  0.0693222727885078  0.1306377467995382  0.5734274595252253   T   T   T
  0.7273642556782459  0.7622766389899598  0.5564859427149030   T   T   T
  0.7288270381815877  0.2632086528182013  0.5559556806983189   T   T   T
  0.7501392469732954  0.7508913608491314  0.3869777319472794   T   T   T
  0.7502540002004217  0.2508426462016682  0.3870261960091593   T   T   T
  0.7504916691394543  0.6259206462004089  0.3866967346756804   T   T   T
  0.7503837756312706  0.8759246053428527  0.1980143607002915   F   F   F
  0.7503837756312706  0.3759246053428527  0.1980143607002915   F   F   F
  0.7504065850415813  0.0010474442621131  0.1995662990185920   F   F   F
  0.7504065850415813  0.5010474442621131  0.1995662990185920   F   F   F
  0.7504116177228610  0.6259067547141299  0.1982016356247982   F   F   F
  0.7504116177228610  0.1259067547141299  0.1982016356247982   F   F   F
  0.7504539896523426  0.7509563452768688  0.1993173260006742   F   F   F
  0.7504539896523426  0.2509563452768688  0.1993173260006742   F   F   F
  0.7506412517581240  0.1258747144735849  0.3868368989643404   T   T   T
  0.7507835591831900  0.8761871998935725  0.3859241107869085   T   T   T
  0.7507954711364552  0.3761007921477180  0.3861085413945950   T   T   T
  0.7511398490792149  0.5009210183017214  0.3867303119411527   T   T   T
  0.7511801328903150  0.0008568644223089  0.3867139968046449   T   T   T
  0.7573399439916901  0.8826721947098549  0.5563143541384813   T   T   T
  0.7593405847973193  0.3830613250657553  0.5563407737888075   T   T   T
  0.7652993616825025  0.9979690007941602  0.5561459279424855   T   T   T
  0.7664137781445463  0.4976503813363795  0.5566827561154203   T   T   T
  0.7715250184939828  0.1393350449976342  0.5564985253190442   T   T   T
  0.7722686872520325  0.6390967820973860  0.5572966453064341   T   T   T
  0.0797529701702537  0.7420565855573759  0.5723890928157889   T   T   T
  0.0803402746696408  0.2411882944265598  0.5720113401865494   T   T   T
  0.8457971856104365  0.7508865770875488  0.3147238720130474   F   F   F
  0.8457971856104365  0.2508865770875488  0.3147238720130474   F   F   F
  0.8459094352758285  0.6257770200071491  0.3148105564777453   F   F   F
  0.8459094352758285  0.1257770200071491  0.3148105564777453   F   F   F
  0.8459894799777032  0.8758569369000710  0.3146601051453359   F   F   F
  0.8459894799777032  0.3758569369000710  0.3146601051453359   F   F   F
  0.8462112773413598  0.7541487930435935  0.4850631178526769   T   T   T
  0.8462370857983075  0.0009253177109869  0.3148622358114821   F   F   F
  0.8462370857983075  0.5009253177109869  0.3148622358114821   F   F   F
  0.8466500191902856  0.2541834226345902  0.4849048822769078   T   T   T
  0.8493319599755822  0.6248071278009649  0.4845609487814247   T   T   T
  0.8493699542395819  0.8728955827918730  0.4851792599622248   T   T   T
  0.8495907156294205  0.3731280115201989  0.4851639877820247   T   T   T
  0.8497001677731201  0.1249438510183764  0.4846583911989791   T   T   T
  0.8519739160544767  0.0009341688418741  0.4858961383922683   T   T   T
  0.8520540877971183  0.5011399009281874  0.4858899481047404   T   T   T
  0.0876029239396531  0.8617070291123416  0.5739974645071168   T   T   T
  0.0886797822259193  0.3612501271356464  0.5741532586774448   T   T   T
  0.8959060319369938  0.8701043767723499  0.5715402438648948   T   T   T
  0.8975048452203557  0.7488419378050065  0.5673238931265396   T   T   T
  0.8973487792065363  0.3698145108953623  0.5715209436410044   T   T   T
  0.8977657216099997  0.2484128608832237  0.5670576411251955   T   T   T
  0.9004985113402321  0.7504584332371410  0.4005798263324031   T   T   T
  0.9006349002262248  0.2505338013876696  0.4005392889848805   T   T   T
  0.9009684592885500  0.6257322449656452  0.4010682342687417   T   T   T
  0.9011395179920326  0.1256675182993607  0.4011776574256058   T   T   T
  0.9017499342485642  0.8758680505891719  0.4008499189145475   T   T   T
  0.9018634898879117  0.3759105626899743  0.4008076933588929   T   T   T
  0.9020794057747596  0.5005130134582804  0.4011856598244973   T   T   T
  0.9021249305480390  0.0005140043184214  0.4012310119435619   T   T   T
  0.9021973679816393  0.1063563486442090  0.5673917717409901   T   T   T
  0.9023693485314803  0.6065598188781306  0.5671113598057540   T   T   T
  0.9063370116785165  0.7509661375287990  0.2314450664875594   F   F   F
  0.9063370116785165  0.2509661375287990  0.2314450664875594   F   F   F
  0.9065036119825223  0.6258452416457985  0.2314281613274076   F   F   F
  0.9065036119825223  0.1258452416457985  0.2314281613274076   F   F   F
  0.9065431196901699  0.0009511492176983  0.2315080614196674   F   F   F
  0.9065431196901699  0.5009511492176983  0.2315080614196674   F   F   F
  0.9067333030259945  0.8759844438376305  0.2313964578368939   F   F   F
  0.9067333030259945  0.3759844438376305  0.2313964578368939   F   F   F
  0.9238051980593645  0.9833729626552166  0.5699271801116160   T   T   T
  0.9242295325977053  0.4835412308000659  0.5702855806871929   T   T   T
  0.0952407101582224  0.7510020395980561  0.2320892091881959   F   F   F
  0.0952407101582224  0.2510020395980561  0.2320892091881959   F   F   F
  0.0953260277450525  0.0008979764762245  0.2323666739458474   F   F   F
  0.0953260277450525  0.5008979764762245  0.2323666739458474   F   F   F
  0.0953735919394063  0.6258547564434522  0.2322437075234305   F   F   F
  0.0953735919394063  0.1258547564434522  0.2322437075234305   F   F   F
  0.0955543013107132  0.8759987254538473  0.2323923499085652   F   F   F
  0.0955543013107132  0.3759987254538473  0.2323923499085652   F   F   F
  0.0993467240969943  0.6251643275251920  0.4016040045675018   T   T   T
  0.0993956483677140  0.7508855677434572  0.4017518335836915   T   T   T
  0.0993583941838159  0.1252367460299878  0.4016033872998344   T   T   T
  0.0995016231119664  0.2508850905967788  0.4017088111040918   T   T   T
  0.9982083127733412  0.6243777143347787  0.4718804492683533   T   T   T
  0.9982486697400508  0.7504238871633379  0.4722676783554249   T   T   T
  0.9984748797586072  0.1244253283286581  0.4719920323530237   T   T   T
  0.9985107967852956  0.2504141669760186  0.4722539331675839   T   T   T
  0.1002083333842506  0.8755493763851335  0.4028564555564461   T   T   T
  0.1003438959969684  0.3755777110455318  0.4027698314945863   T   T   T
  0.1007659347721287  0.5011505291237421  0.4027003544842908   T   T   T
  0.1006919118245594  0.0011529255264279  0.4028192400832164   T   T   T
  0.1044446115570227  0.0003863184309517  0.5669940402435515   T   T   T
  0.1045295176650409  0.5003488416774667  0.5665654789175832   T   T   T
  0.1479422622363568  0.6282513730459578  0.4860183052979654   T   T   T
  0.1482217803914138  0.7459525029240026  0.4872203364322255   T   T   T
  0.1481921971429314  0.1282755938096589  0.4858791561257697   T   T   T
  0.1484329269715241  0.2459720731657551  0.4870942433537780   T   T   T
  0.1531043312074124  0.3764636553472624  0.4875592995245918   T   T   T
  0.1532477616747461  0.8762883924547221  0.4878516792938171   T   T   T
  0.1547132627605527  0.5015234589529544  0.4868293584530820   T   T   T
  0.1548569249864251  0.0014067054620027  0.4870849007247962   T   T   T
  0.1554278840897965  0.7509669489112838  0.3157714680232928   F   F   F
  0.1554278840897965  0.2509669489112767  0.3157714680232928   F   F   F
  0.1555300833018336  0.8760083006234964  0.3161854069282626   F   F   F
  0.1555300833018336  0.3760083006234964  0.3161854069282626   F   F   F
  0.1556347359045702  0.6258770940815310  0.3158690852351640   F   F   F
  0.1556347359045702  0.1258770940815310  0.3158690852351640   F   F   F
  0.1557688557010550  0.0008265358541948  0.3160543218953578   F   F   F
  0.1557688557010550  0.5008265358541948  0.3160543218953578   F   F   F
  0.2091843832472881  0.6128695996729223  0.5663707330693440   T   T   T
  0.2095400931758876  0.1118581825774007  0.5662522306958716   T   T   T
  0.2214870216065933  0.7499340869336949  0.5631271676409310   T   T   T
  0.2227811670814868  0.2488224490572096  0.5622668634033782   T   T   T
  0.2501096299903224  0.7512298380756876  0.3877003546815089   T   T   T
  0.2501813269224042  0.2513006068673880  0.3876873054835369   T   T   T
  0.2504611533392988  0.6254916128829608  0.3887443746668168   T   T   T
  0.2504352220014321  0.1254945005777886  0.3886891477206862   T   T   T
  0.2506886730670530  0.7509740783728773  0.1986783637654739   F   F   F
  0.2506886730670530  0.2509740783728773  0.1986783637654739   F   F   F
  0.2508426808862809  0.8755876663164059  0.3887739691235345   T   T   T
  0.2507303928573421  0.8760426103278647  0.2004520155719618   F   F   F
  0.2507303928573421  0.3760426103278647  0.2004520155719618   F   F   F
  0.2507787477911734  0.6260460958471867  0.2004465916827201   F   F   F
  0.2507787477911734  0.1260460958471867  0.2004465916827201   F   F   F
  0.2507842901460080  0.0010521164550710  0.1987081864626035   F   F   F
  0.2507842901460080  0.5010521164550710  0.1987081864626035   F   F   F
  0.2510119899557999  0.3756051102214603  0.3887754839907159   T   T   T
  0.2510576965014552  0.0013326883435672  0.3880249800401579   T   T   T
  0.2512504324884891  0.5013227446439572  0.3881328948624962   T   T   T
  0.2790012135294732  0.5010816346706142  0.5641283445643230   T   T   T
  0.2814659463198158  0.0001094713629794  0.5648582432958152   T   T   T
  0.2823058328459016  0.3663056175141758  0.5627700820310996   T   T   T
  0.2889945651556037  0.8648032366587280  0.5647900268966028   T   T   T
  0.3450375179826183  0.7519863948575177  0.4858373380337350   T   T   T
  0.3453313958608289  0.2519462983637020  0.4856923385611923   T   T   T
  0.3457709857389588  0.7509801434034244  0.3160634932646005   F   F   F
  0.3457709857389588  0.2509801434034244  0.3160634932646005   F   F   F
  0.3458124879654534  0.8762438730036024  0.3160546332285037   F   F   F
  0.3458124879654534  0.3762438730036024  0.3160546332285037   F   F   F
  0.3458692307014104  0.0011300682609701  0.3160825482309733   F   F   F
  0.3458692307014104  0.5011300682609701  0.3160825482309733   F   F   F
  0.3458914509224655  0.6260993829100983  0.3163092197569100   F   F   F
  0.3458914509224655  0.1260993829100983  0.3163092197569100   F   F   F
  0.3475650269418903  0.6270313521848148  0.4880339953339430   T   T   T
  0.3474842158562567  0.1269436894744510  0.4881548686748066   T   T   T
  0.3522100015746357  0.4970732620890598  0.4880227840750230   T   T   T
  0.3521778531743690  0.9971012071804682  0.4877457788453999   T   T   T
  0.3529221056382612  0.8786325827135645  0.4867077541707398   T   T   T
  0.3531800333249360  0.3780944276981821  0.4866560326768523   T   T   T
  0.3885510950772561  0.7530413424954507  0.5654738019709272   T   T   T
  0.3885086269070052  0.2542409348024400  0.5653583634131651   T   T   T
  0.4007385913929277  0.7516525719465930  0.4025934523869306   T   T   T
  0.4008597406624921  0.2516677371545038  0.4025373919367758   T   T   T
  0.4011995378180508  0.1259196182960605  0.4029650015729698   T   T   T
  0.4013405572961456  0.6259220409496097  0.4031046904282046   T   T   T
  0.4017441965683806  0.0016304148433618  0.4022404637102177   T   T   T
  0.4019708251117374  0.8757957578245473  0.4021067287122550   T   T   T
  0.4021397087552338  0.5015267660474896  0.4025294283449413   T   T   T
  0.4023702671627108  0.3758419922434960  0.4021994143637836   T   T   T
  0.4059113337573805  0.8760558925948985  0.2324750129594619   F   F   F
  0.4059113337573805  0.3760558925948985  0.2324750129594619   F   F   F
  0.4059234726022964  0.6261621252550071  0.2326545521246786   F   F   F
  0.4059234726022964  0.1261621252550071  0.2326545521246786   F   F   F
  0.4060644417929637  0.7510364413590125  0.2325227387887452   F   F   F
  0.4060644417929637  0.2510364413590125  0.2325227387887452   F   F   F
  0.4061374416245584  0.0011248655651599  0.2324172293308493   F   F   F
  0.4061374416245584  0.5011248655651599  0.2324172293308493   F   F   F
  0.4161716984944204  0.1140429570765822  0.5726463959102578   T   T   T
  0.4165887000388507  0.6137436248279523  0.5734998189195375   T   T   T
  0.4173736564605618  0.4956487020510930  0.5745893394168828   T   T   T
  0.4251247878711189  0.9955334592958729  0.5721005462205572   T   T   T
  0.4272238353283625  0.3827613861286925  0.5750340597901261   T   T   T
  0.4347853002695031  0.8888127930481718  0.5754168322287400   T   T   T
  0.4982634022219579  0.7519600496785487  0.4735643657523168   T   T   T
  0.4986010540068556  0.2515978015352532  0.4734968002288762   T   T   T
  0.5004630585837617  0.7510598909550410  0.3031888444713573   F   F   F
  0.5004630585837617  0.2510598909550410  0.3031888444713573   F   F   F
  0.5004977600090044  0.6261199205207575  0.3031516629609641   F   F   F
  0.5004977600090044  0.1261199205207575  0.3031516629609641   F   F   F
  0.5005209432535551  0.8761149809355189  0.3028206587442455   F   F   F
  0.5005209432535551  0.3761149809355189  0.3028206587442455   F   F   F
  0.5006083602757840  0.0011215981985515  0.3028334437431965   F   F   F
  0.5006083602757840  0.5011215981985515  0.3028334437431965   F   F   F
  0.5014313810383549  0.6271701798604215  0.4742681465933947   T   T   T
  0.5014081837987293  0.1270993830286942  0.4739128557217935   T   T   T
  0.5022795823887769  0.8770550252935905  0.4729108279592457   T   T   T
  0.5026351610237391  0.3766793576281317  0.4735707115943085   T   T   T
  0.5026986332273424  0.0017096358777695  0.4726995512559802   T   T   T
  0.5030307462044596  0.5016011854010819  0.4738300830967308   T   T   T
  0.0038936177464859  0.9973723070959373  0.5405697371190886   T   T   T
  0.0040999578925534  0.4969852877788426  0.5403445598105372   T   T   T
  0.6261154738287391  0.8005863115149723  0.5464074655886703   T   T   T
  0.6260197662722042  0.3024095323813649  0.5445116132674266   T   T   T
  0.6263667396933317  0.0683196131990775  0.5397760832672036   T   T   T
  0.6290331768599885  0.5678409137402182  0.5381715539263344   T   T   T
  0.6987713752025593  0.1895396906864698  0.5381107250823695   T   T   T
  0.6991063260443281  0.6879989938076227  0.5380881190194569   T   T   T
  0.8065891217045136  0.0666745852568330  0.5371041291973309   T   T   T
  0.8066962909600497  0.5668584057093123  0.5372083119859619   T   T   T
  0.8460674034446558  0.9370865685900159  0.5365913917638516   T   T   T
  0.8480122831510203  0.4371680884950348  0.5369902590194008   T   T   T
  0.8738385424070567  0.1770149635854481  0.5418238844878391   T   T   T
  0.8742039840576324  0.6774703910655249  0.5417368728096633   T   T   T
  0.9957043104049987  0.7539911036464650  0.5393583053470298   T   T   T
  0.9960545661807466  0.6158478073282451  0.5393220059226291   T   T   T
  0.9961241131904556  0.1155422244393821  0.5394961346760098   T   T   T
  0.9964149131895593  0.2537773178922911  0.5393439779264443   T   T   T
  0.1204378806931762  0.9284854208236414  0.5429940270593615   T   T   T
  0.1212929911818472  0.4280936728490974  0.5428377640103640   T   T   T
  0.1403431754096721  0.8025925673348944  0.5413731612023491   T   T   T
  0.1409647238506909  0.3017574728244825  0.5415961553374581   T   T   T
  0.2000129862089202  0.5421667684981959  0.5428235746843579   T   T   T
  0.2021372895048073  0.0406251803593989  0.5428428519609551   T   T   T
  0.2972893602818948  0.2953324706135065  0.5400499058217402   T   T   T
  0.2981403920268100  0.7941582123561505  0.5410540986093352   T   T   T
  0.3608104552983017  0.5551838307966515  0.5414398480282013   T   T   T
  0.3620142972583024  0.0545609299741458  0.5414383110141592   T   T   T
  0.3771260417223092  0.6786037526301392  0.5421076515667059   T   T   T
  0.3770464353366192  0.1796856426134808  0.5418046805390091   T   T   T
  0.4874514699095785  0.7521975050640907  0.5416703068171875   T   T   T
  0.4879444677296240  0.2528367165555623  0.5415621683084484   T   T   T
  0.5076564417995972  0.4994979899286738  0.5416407109178248   T   T   T
  0.5091436733340156  0.9985471832937323  0.5400010052691497   T   T   T
  0.5104230731143951  0.3826077296670664  0.5411240781854227   T   T   T
  0.5105361947814047  0.8829096026280885  0.5404436084554566   T   T   T
  0.0002903360431769  0.6255612915032139  0.3691186159039706   T   T   T
  0.0003279079528746  0.7508783347632985  0.3689994870701427   T   T   T
  0.0003445867507537  0.1255861108752868  0.3691172065453638   T   T   T
  0.0004338546545238  0.2509021113352773  0.3689981316751983   T   T   T
  0.0010343750342656  0.7509675273691911  0.1970340395507222   F   F   F
  0.0010343750342656  0.2509675273691911  0.1970340395507222   F   F   F
  0.0013074606674977  0.0009931951008113  0.1970949867046485   F   F   F
  0.0013074606674977  0.5009931951008113  0.1970949867046485   F   F   F
  0.0014056432322107  0.6258753569951239  0.1970772590869743   F   F   F
  0.0014056432322107  0.1258753569951239  0.1970772590869743   F   F   F
  0.0015693669923627  0.8757752451264107  0.3694259646721458   T   T   T
  0.0016300205284878  0.8760244032474702  0.1970602374639512   F   F   F
  0.0016300205284878  0.3760244032474702  0.1970602374639512   F   F   F
  0.0016998220765116  0.3757846947960053  0.3694179217871712   T   T   T
  0.0017957895322718  0.5006116469886903  0.3695749230701471   T   T   T
  0.0018163026440370  0.0006191652612258  0.3695909836053158   T   T   T
  0.5828489970288615  0.8134981673875430  0.2835797008416634   F   F   F
  0.5828489970288615  0.3134981673875430  0.2835797008416634   F   F   F
  0.5829043521053947  0.6885407361734863  0.2836251512160501   F   F   F
  0.5829043521053947  0.1885407361734863  0.2836251512160501   F   F   F
  0.5829602019462925  0.4385545752758304  0.2833243807611936   F   F   F
  0.5829602019462925  0.9385545752758304  0.2833243807611936   F   F   F
  0.5830265959005345  0.5635893986773652  0.2835447360626375   F   F   F
  0.5830265959005345  0.0635893986773652  0.2835447360626375   F   F   F
  0.5841411207291546  0.6893521641614050  0.4537095182020508   T   T   T
  0.5842131526407117  0.8145923866494191  0.4552692656823070   T   T   T
  0.5843528794862546  0.1887341293774067  0.4534299281422364   T   T   T
  0.5843938992468954  0.3140184121704847  0.4553075630018800   T   T   T
  0.5854732204815730  0.9390315089535318  0.4525404087063088   T   T   T
  0.5856981211930304  0.4387837522547932  0.4532704698970682   T   T   T
  0.5864177648815400  0.5633005599874408  0.4537293001143464   T   T   T
  0.5863732923310214  0.0631415756046263  0.4533460890330549   T   T   T
  0.6662453414939336  0.5635923628994988  0.2021068355520654   F   F   F
  0.6662453414939336  0.0635923628994988  0.2021068355520654   F   F   F
  0.6663404610475681  0.8134949072998268  0.2022484366903115   F   F   F
  0.6663404610475681  0.3134949072998268  0.2022484366903115   F   F   F
  0.6663750951053373  0.6883939277525641  0.2022233082671292   F   F   F
  0.6663750951053373  0.1883939277525641  0.2022233082671292   F   F   F
  0.6663864277493872  0.4383644600106251  0.2021335334354930   F   F   F
  0.6663864277493872  0.9383644600106251  0.2021335334354930   F   F   F
  0.6680130297718411  0.6887074384326277  0.3676985737686037   T   T   T
  0.6680403904742228  0.8135441746390780  0.3678938086693312   T   T   T
  0.6681040624841798  0.3135491199643977  0.3679549151757134   T   T   T
  0.6682793395295787  0.1886008411989003  0.3676687413679248   T   T   T
  0.6685164903980995  0.5636408752189516  0.3676070840749868   T   T   T
  0.6686172441208889  0.4385279297673442  0.3672708486924806   T   T   T
  0.6686954462161838  0.9385592685733462  0.3669529950153632   T   T   T
  0.6687916109714963  0.0636275227559758  0.3674658592656350   T   T   T
  0.6757115069153489  0.9360396626071404  0.5400601812479108   T   T   T
  0.6794217543458538  0.4367257229342009  0.5398362073392461   T   T   T
  0.7472958637492318  0.7522066184839579  0.4551776967877470   T   T   T
  0.7476073770919696  0.2520252507030792  0.4552021636572643   T   T   T
  0.7501556444954975  0.6262284810296499  0.4546123250815899   T   T   T
  0.7501227840833193  0.1257646707427944  0.4549199451844485   T   T   T
  0.7501730562611186  0.7507079098083409  0.2774330469442816   F   F   F
  0.7501730562611186  0.2507079098083409  0.2774330469442816   F   F   F
  0.7504750055418299  0.6259680682551618  0.2773981497465243   F   F   F
  0.7504750055418299  0.1259680682551618  0.2773981497465243   F   F   F
  0.7505173338481086  0.8759365097582545  0.2770578193141517   F   F   F
  0.7505173338481086  0.3759365097582545  0.2770578193141517   F   F   F
  0.7507337004896470  0.0010587017123740  0.2774432067716575   F   F   F
  0.7507337004896470  0.5010587017123740  0.2774432067716575   F   F   F
  0.7511362663796425  0.3756706354251059  0.4538025542017355   T   T   T
  0.7512776483974529  0.8755468411127200  0.4535425620982206   T   T   T
  0.7536734637131720  0.5003042538774152  0.4546700686145834   T   T   T
  0.7536880538138416  0.0007125353999077  0.4546576773533295   T   T   T
  0.0810359867573522  0.6876444058079451  0.4526519865918440   T   T   T
  0.0813341402563484  0.1876653786107233  0.4526362948881084   T   T   T
  0.8259999048755948  0.8148449197087426  0.5405725162542531   T   T   T
  0.8273996136050384  0.3144279960352146  0.5404946035209518   T   T   T
  0.8322270351240603  0.6882577574589367  0.3670641212938026   T   T   T
  0.8322492953940948  0.8133195139913033  0.3669696004903735   T   T   T
  0.8322770974295519  0.3133131999454131  0.3669269548330071   T   T   T
  0.8323492747269755  0.1882333300418083  0.3670992787498386   T   T   T
  0.8328255788694773  0.5633072202683691  0.3672386462672930   T   T   T
  0.8328400446502803  0.0632768401328203  0.3673495782645373   T   T   T
  0.8331800462140538  0.4382992409427440  0.3671593505894756   T   T   T
  0.8331999133815626  0.9383192883247179  0.3671133814493659   T   T   T
  0.8344344719226058  0.6883603527882158  0.2020465356692611   F   F   F
  0.8344344719226058  0.1883603527882158  0.2020465356692611   F   F   F
  0.8344691253071090  0.4383027932291981  0.2021423465583752   F   F   F
  0.8344691253071090  0.9383027932291981  0.2021423465583752   F   F   F
  0.8345236995836203  0.8136019065986346  0.2020593032807980   F   F   F
  0.8345236995836203  0.3136019065986346  0.2020593032807980   F   F   F
  0.8345432068835521  0.5635442939465207  0.2020614199525141   F   F   F
  0.8345432068835521  0.0635442939465207  0.2020614199525141   F   F   F
  0.0835181835032017  0.8134609632527869  0.2839000862688721   F   F   F
  0.0835181835032017  0.3134609632527869  0.2839000862688721   F   F   F
  0.0836480050342630  0.5633752300961916  0.2839758639034855   F   F   F
  0.0836480050342630  0.0633752300961916  0.2839758639034855   F   F   F
  0.0836768758602418  0.6884091217994310  0.2837888281379435   F   F   F
  0.0836768758602418  0.1884091217994310  0.2837888281379435   F   F   F
  0.0836920180794749  0.4383888699923588  0.2841732146708722   F   F   F
  0.0836920180794749  0.9383888699923588  0.2841732146708722   F   F   F
  0.0846238938040767  0.8125355694790988  0.4547006145209063   T   T   T
  0.0847671799568769  0.3125235701541572  0.4547113223302184   T   T   T
  0.0852655533151890  0.5634942064731341  0.4551555222736156   T   T   T
  0.0854981929771020  0.0635115431482526  0.4552654390163116   T   T   T
  0.0860127171201769  0.4381101784196297  0.4549461000196150   T   T   T
  0.0860623526957460  0.9380656560704725  0.4550913861469651   T   T   T
  0.9143640964264783  0.6886636275474138  0.4536925599932375   T   T   T
  0.9146135992488075  0.1887400340676045  0.4536703713503774   T   T   T
  0.9164866933559327  0.8124520800947311  0.4518600774817830   T   T   T
  0.9166647801489530  0.3125599961359295  0.4518154351467432   T   T   T
  0.9171932939975644  0.5627331512386597  0.4528041028761141   T   T   T
  0.9174471112917013  0.0626963621422539  0.4529201729760141   T   T   T
  0.9177742193983696  0.9375848534226026  0.4534297328372951   T   T   T
  0.9179015525145054  0.4376066206721075  0.4534810969277931   T   T   T
  0.9181839152478091  0.6884040565462470  0.2831378587445599   F   F   F
  0.9181839152478091  0.1884040565462470  0.2831378587445599   F   F   F
  0.9183594213103916  0.8134327656776748  0.2832265145484243   F   F   F
  0.9183594213103916  0.3134327656776748  0.2832265145484243   F   F   F
  0.9184058656586132  0.5633566590711467  0.2833389507587185   F   F   F
  0.9184058656586132  0.0633566590711467  0.2833389507587185   F   F   F
  0.9185001265531056  0.4384185648785746  0.2832681567508857   F   F   F
  0.9185001265531056  0.9384185648785746  0.2832681567508857   F   F   F
  0.9909033406458192  0.8663268575602735  0.5417690125037913   T   T   T
  0.9923089689564328  0.3662135045746118  0.5417354905065112   T   T   T
  0.1517690911927763  0.6806542021202688  0.5438139733990024   T   T   T
  0.1531097371660396  0.1793134985978165  0.5439005197276610   T   T   T
  0.1667765378554549  0.5633392265506032  0.2026421323795375   F   F   F
  0.1667765378554549  0.0633392265506032  0.2026421323795375   F   F   F
  0.1668059973185052  0.6886073834303943  0.2025943133799615   F   F   F
  0.1668059973185052  0.1886073834303943  0.2025943133799615   F   F   F
  0.1668155121452699  0.8133424731509606  0.2025799106952988   F   F   F
  0.1668155121452699  0.3133424731509606  0.2025799106952988   F   F   F