generated by phonopy                    
   1.00000000000000     
     5.1455182744329813    0.0050355772629420    0.0000000000000000
    -2.5683981993840623    4.4586673299275015    0.0000000000000000
     0.0000000000000000    0.0000000000000000   12.6375603117945552
   B    N    Al
    14    16     2
Direct
  0.6618223351882772  0.3297585691171189 -0.0066783918631219
  0.1702414308828810  0.8381776648117228 -0.0066783918631219
  0.6611000376600296  0.8388999623399704 -0.0142426541837980
  0.1611000376600290  0.3388999623399711  0.5142426541837989
  0.6702414308828812  0.3381776648117232  0.5066783918631217
  0.1618223351882769  0.8297585691171188  0.5066783918631217
  0.3324439398731622  0.1675560601268379  0.2495665001379984
  0.8326658640708027  0.1673341359291982  0.2500000000000000
  0.3326658640708017  0.6673341359291973  0.2500000000000000
  0.8324439398731621  0.6675560601268379  0.2504334998620020
  0.3396515576676205  0.1603484423323790  0.7497669689197693
  0.8350052745155543  0.1649947254844455  0.7500000000000000
  0.3350052745155545  0.6649947254844457  0.7500000000000000
  0.8396515576676208  0.6603484423323792  0.7502330310802307
  0.3439183467376619  0.1560816532623383  0.0078092620953539
  0.8022329841050748  0.1556355799094327 -0.0224265392667786
  0.3443644200905672  0.6977670158949252 -0.0224265392667786
  0.8303782080188765  0.6696217919811235 -0.0141867916727285
  0.3303782080188767  0.1696217919811235  0.5141867916727281
  0.8443644200905671  0.1977670158949255  0.5224265392667785
  0.3022329841050745  0.6556355799094329  0.5224265392667785
  0.8439183467376616  0.6560816532623384  0.4921907379046463
  0.1657714783134863  0.3342285216865136  0.2509279312023237
  0.6659062226440525  0.3340937773559479  0.2500000000000000
  0.1659062226440522  0.8340937773559475  0.2500000000000000
  0.6657714783134863  0.8342285216865137  0.2490720687976766
  0.1710721237651213  0.3289278762348783  0.7628050564510578
  0.6704072672683283  0.3295927327316722  0.7500000000000000
  0.1704072672683279  0.8295927327316717  0.7500000000000000
  0.6710721237651210  0.8289278762348790  0.7371949435489422
  0.1730185091985061  0.3269814908014940  0.9445935472698247
  0.6730185091985061  0.8269814908014939  0.5554064527301753
 
  0.00000000E+00  0.00000000E+00  0.00000000E+00
  0.00000000E+00  0.00000000E+00  0.00000000E+00
  0.00000000E+00  0.00000000E+00  0.00000000E+00
  0.00000000E+00  0.00000000E+00  0.00000000E+00
  0.00000000E+00  0.00000000E+00  0.00000000E+00
  0.00000000E+00  0.00000000E+00  0.00000000E+00
  0.00000000E+00  0.00000000E+00  0.00000000E+00
  0.00000000E+00  0.00000000E+00  0.00000000E+00
  0.00000000E+00  0.00000000E+00  0.00000000E+00
  0.00000000E+00  0.00000000E+00  0.00000000E+00
  0.00000000E+00  0.00000000E+00  0.00000000E+00
  0.00000000E+00  0.00000000E+00  0.00000000E+00
  0.00000000E+00  0.00000000E+00  0.00000000E+00
  0.00000000E+00  0.00000000E+00  0.00000000E+00
  0.00000000E+00  0.00000000E+00  0.00000000E+00
  0.00000000E+00  0.00000000E+00  0.00000000E+00
  0.00000000E+00  0.00000000E+00  0.00000000E+00
  0.00000000E+00  0.00000000E+00  0.00000000E+00
  0.00000000E+00  0.00000000E+00  0.00000000E+00
  0.00000000E+00  0.00000000E+00  0.00000000E+00
  0.00000000E+00  0.00000000E+00  0.00000000E+00
  0.00000000E+00  0.00000000E+00  0.00000000E+00
  0.00000000E+00  0.00000000E+00  0.00000000E+00
  0.00000000E+00  0.00000000E+00  0.00000000E+00
  0.00000000E+00  0.00000000E+00  0.00000000E+00
  0.00000000E+00  0.00000000E+00  0.00000000E+00
  0.00000000E+00  0.00000000E+00  0.00000000E+00
  0.00000000E+00  0.00000000E+00  0.00000000E+00
  0.00000000E+00  0.00000000E+00  0.00000000E+00
  0.00000000E+00  0.00000000E+00  0.00000000E+00
  0.00000000E+00  0.00000000E+00  0.00000000E+00
  0.00000000E+00  0.00000000E+00  0.00000000E+00
