generated by phonopy                    
   1.00000000000000     
     5.1348636687728444    0.0003074662303744   -0.0148698128788333
    -2.5671655608201154    4.4470761152422336    0.0148698128788333
    -0.0355607670361312    0.0205310184208999   12.1862621390697221
   B    N    Al
    14    16     2
Direct
  0.6667863083777185  0.3225059770092244 -0.0156557224448860
  0.1774940229907756  0.8332136916222814 -0.0156557224448860
  0.6678884727324658  0.8321115272675342 -0.0211327910027272
  0.1678884727324657  0.3321115272675342  0.4788672089972729
  0.6774940229907754  0.3332136916222812  0.4843442775551141
  0.1667863083777189  0.8225059770092246  0.4843442775551141
  0.3327464245998729  0.1672535754001270  0.2345106232530146
  0.8236907369713544  0.1671159838170405  0.2368278688370950
  0.3328840161829596  0.6763092630286457  0.2368278688370950
  0.8295109788795008  0.6704890211204992  0.2373838222741051
  0.3295109788795004  0.1704890211204996  0.7373838222741060
  0.8328840161829598  0.1763092630286462  0.7368278688370952
  0.3236907369713536  0.6671159838170402  0.7368278688370952
  0.8327464245998729  0.6672535754001271  0.7345106232530147
  0.3510387503617957  0.1489612496382047 -0.0001193861413237
  0.8158726530459346  0.1517020003435856  0.9750348173801593
  0.3482979996564142  0.6841273469540654  0.9750348173801593
  0.8375847396088131  0.6624152603911869  0.9851768046291900
  0.3375847396088131  0.1624152603911866  0.4851768046291902
  0.8482979996564143  0.1841273469540653  0.4750348173801598
  0.3158726530459347  0.6517020003435856  0.4750348173801598
  0.8510387503617951  0.6489612496382049  0.4998806138586762
  0.1624915081670025  0.3375084918329976  0.2193341819218619
  0.6630527001434569  0.3370806901436196  0.2379833069983426
  0.1629193098563803  0.8369472998565431  0.2379833069983426
  0.6629667837823385  0.8370332162176615  0.2365792037725581
  0.1629667837823389  0.3370332162176606  0.7365792037725587
  0.6629193098563804  0.3369472998565431  0.7379833069983435
  0.1630527001434571  0.8370806901436196  0.7379833069983435
  0.6624915081670026  0.8375084918329974  0.7193341819218622
  0.1647745946432163  0.3352254053567835  0.0398869997519096
  0.6647745946432160  0.8352254053567840  0.5398869997519097
 
  0.00000000E+00  0.00000000E+00  0.00000000E+00
  0.00000000E+00  0.00000000E+00  0.00000000E+00
  0.00000000E+00  0.00000000E+00  0.00000000E+00
  0.00000000E+00  0.00000000E+00  0.00000000E+00
  0.00000000E+00  0.00000000E+00  0.00000000E+00
  0.00000000E+00  0.00000000E+00  0.00000000E+00
  0.00000000E+00  0.00000000E+00  0.00000000E+00
  0.00000000E+00  0.00000000E+00  0.00000000E+00
  0.00000000E+00  0.00000000E+00  0.00000000E+00
  0.00000000E+00  0.00000000E+00  0.00000000E+00
  0.00000000E+00  0.00000000E+00  0.00000000E+00
  0.00000000E+00  0.00000000E+00  0.00000000E+00
  0.00000000E+00  0.00000000E+00  0.00000000E+00
  0.00000000E+00  0.00000000E+00  0.00000000E+00
  0.00000000E+00  0.00000000E+00  0.00000000E+00
  0.00000000E+00  0.00000000E+00  0.00000000E+00
  0.00000000E+00  0.00000000E+00  0.00000000E+00
  0.00000000E+00  0.00000000E+00  0.00000000E+00
  0.00000000E+00  0.00000000E+00  0.00000000E+00
  0.00000000E+00  0.00000000E+00  0.00000000E+00
  0.00000000E+00  0.00000000E+00  0.00000000E+00
  0.00000000E+00  0.00000000E+00  0.00000000E+00
  0.00000000E+00  0.00000000E+00  0.00000000E+00
  0.00000000E+00  0.00000000E+00  0.00000000E+00
  0.00000000E+00  0.00000000E+00  0.00000000E+00
  0.00000000E+00  0.00000000E+00  0.00000000E+00
  0.00000000E+00  0.00000000E+00  0.00000000E+00
  0.00000000E+00  0.00000000E+00  0.00000000E+00
  0.00000000E+00  0.00000000E+00  0.00000000E+00
  0.00000000E+00  0.00000000E+00  0.00000000E+00
  0.00000000E+00  0.00000000E+00  0.00000000E+00
  0.00000000E+00  0.00000000E+00  0.00000000E+00
