generated by phonopy                    
   1.00000000000000     
     5.1349633656342117    0.0004397625539458   -0.0219292972197464
    -2.5671008372737578    4.4472286034186403    0.0219292972197465
    -0.0522119564085039    0.0301445870873667   12.3496790814709314
   B    N    Al
    14    16     2
Direct
  0.6668623134651773  0.3224920052216747  0.9852328525826518
  0.1775079947783255  0.8331376865348227  0.9852328525826518
  0.6679312790425231  0.8320687209574769  0.9795711117165624
  0.1679312790425231  0.3320687209574770  0.4795711117165625
  0.6775079947783258  0.3331376865348225  0.4852328525826515
  0.1668623134651774  0.8224920052216742  0.4852328525826515
  0.3326076302781832  0.1673923697218168  0.2337266094422141
  0.8237948059819202  0.1673212835083603  0.2357215484024502
  0.3326787164916396  0.6762051940180798  0.2357215484024502
  0.8294707179995394  0.6705292820004606  0.2366604282590075
  0.3294707179995395  0.1705292820004607  0.7366604282590076
  0.8326787164916395  0.1762051940180872  0.7357215484024500
  0.3237948059819130  0.6673212835083605  0.7357215484024500
  0.8326076302781831  0.6673923697218169  0.7337266094422142
  0.3513221543398254  0.1486778456601746  0.0012366339397847
  0.8157737540813678  0.1516565474122094  0.9758832251610731
  0.3483434525877906  0.6842262459186322  0.9758832251610731
  0.8376446365101908  0.6623553634898092  0.9859357697033875
  0.3376446365101906  0.1623553634898093  0.4859357697033874
  0.8483434525877904  0.1842262459186323  0.4758832251610733
  0.3157737540813676  0.6516565474122096  0.4758832251610733
  0.8513221543398255  0.6486778456601745  0.5012366339397847
  0.1623949613886523  0.3376050386113477  0.2188398842795690
  0.6630208800143184  0.3371248049998035  0.2373875028595191
  0.1628751950001965  0.8369791199856816  0.2373875028595191
  0.6628743002910343  0.8371256997089657  0.2358711442152958
  0.1628743002910345  0.3371256997089654  0.7358711442152959
  0.6628751950001963  0.3369791199856817  0.7373875028595190
  0.1630208800143183  0.8371248049998037  0.7373875028595190
  0.6623949613886521  0.8376050386113479  0.7188398842795690
  0.1648972077493230  0.3351027922506769  0.0397081604328162
  0.6648972077493230  0.8351027922506770  0.5397081604328161
 
  0.00000000E+00  0.00000000E+00  0.00000000E+00
  0.00000000E+00  0.00000000E+00  0.00000000E+00
  0.00000000E+00  0.00000000E+00  0.00000000E+00
  0.00000000E+00  0.00000000E+00  0.00000000E+00
  0.00000000E+00  0.00000000E+00  0.00000000E+00
  0.00000000E+00  0.00000000E+00  0.00000000E+00
  0.00000000E+00  0.00000000E+00  0.00000000E+00
  0.00000000E+00  0.00000000E+00  0.00000000E+00
  0.00000000E+00  0.00000000E+00  0.00000000E+00
  0.00000000E+00  0.00000000E+00  0.00000000E+00
  0.00000000E+00  0.00000000E+00  0.00000000E+00
  0.00000000E+00  0.00000000E+00  0.00000000E+00
  0.00000000E+00  0.00000000E+00  0.00000000E+00
  0.00000000E+00  0.00000000E+00  0.00000000E+00
  0.00000000E+00  0.00000000E+00  0.00000000E+00
  0.00000000E+00  0.00000000E+00  0.00000000E+00
  0.00000000E+00  0.00000000E+00  0.00000000E+00
  0.00000000E+00  0.00000000E+00  0.00000000E+00
  0.00000000E+00  0.00000000E+00  0.00000000E+00
  0.00000000E+00  0.00000000E+00  0.00000000E+00
  0.00000000E+00  0.00000000E+00  0.00000000E+00
  0.00000000E+00  0.00000000E+00  0.00000000E+00
  0.00000000E+00  0.00000000E+00  0.00000000E+00
  0.00000000E+00  0.00000000E+00  0.00000000E+00
  0.00000000E+00  0.00000000E+00  0.00000000E+00
  0.00000000E+00  0.00000000E+00  0.00000000E+00
  0.00000000E+00  0.00000000E+00  0.00000000E+00
  0.00000000E+00  0.00000000E+00  0.00000000E+00
  0.00000000E+00  0.00000000E+00  0.00000000E+00
  0.00000000E+00  0.00000000E+00  0.00000000E+00
  0.00000000E+00  0.00000000E+00  0.00000000E+00
  0.00000000E+00  0.00000000E+00  0.00000000E+00
