generated by phonopy                    
   1.00000000000000     
     5.1350966594585952    0.0004851038843495   -0.0178442468452302
    -2.5671282174419763    4.4473667099219272    0.0178442468452302
    -0.0429057337100513    0.0247716369072765   12.3656020191812352
   B    N    Al
    14    16     2
Direct
  0.6669741212275263  0.3223713596294751  0.9853076291038461
  0.1776286403705248  0.8330258787724737  0.9853076291038461
  0.6680782120162915  0.8319217879837085  0.9796126059013537
  0.1680782120162916  0.3319217879837085  0.4796126059013534
  0.6776286403705249  0.3330258787724664  0.4853076291038459
  0.1669741212275266  0.8223713596294751  0.4853076291038459
  0.3324724249261158  0.1675275750738842  0.2336405261509062
  0.8237062307579223  0.1674459588604882  0.2356730663454876
  0.3325540411395119  0.6762937692420777  0.2356730663454876
  0.8293594066085069  0.6706405933914931  0.2366231369877130
  0.3293594066085069  0.1706405933914932  0.7366231369877132
  0.8325540411395119  0.1762937692420849  0.7356730663454873
  0.3237062307579150  0.6674459588604881  0.7356730663454873
  0.8324724249261158  0.6675275750738842  0.7336405261509061
  0.3514337552606578  0.1485662447393422  0.0013048345732121
  0.8159053193583993  0.1515050327695166  0.9759069371296694
  0.3484949672304833  0.6840946806416007  0.9759069371296694
  0.8377725921239535  0.6622274078760465  0.9860297901025004
  0.3377725921239536  0.1622274078760466  0.4860297901025002
  0.8484949672304835  0.1840946806416006  0.4759069371296692
  0.3159053193583994  0.6515050327695165  0.4759069371296692
  0.8514337552606578  0.6485662447393422  0.5013048345732122
  0.1623082492143806  0.3376917507856194  0.2188090244170510
  0.6628866147331437  0.3372375261715402  0.2373161574590319
  0.1627624738284599  0.8371133852668563  0.2373161574590319
  0.6627658368166105  0.8372341631833895  0.2359650055175537
  0.1627658368166103  0.3372341631833896  0.7359650055175537
  0.6627624738284600  0.3371133852668565  0.7373161574590319
  0.1628866147331437  0.8372375261715400  0.7373161574590319
  0.6623082492143805  0.8376917507856195  0.7188090244170510
  0.1648971143875117  0.3351028856124882  0.0396074962736667
  0.6648971143875119  0.8351028856124881  0.5396074962736666
 
  0.00000000E+00  0.00000000E+00  0.00000000E+00
  0.00000000E+00  0.00000000E+00  0.00000000E+00
  0.00000000E+00  0.00000000E+00  0.00000000E+00
  0.00000000E+00  0.00000000E+00  0.00000000E+00
  0.00000000E+00  0.00000000E+00  0.00000000E+00
  0.00000000E+00  0.00000000E+00  0.00000000E+00
  0.00000000E+00  0.00000000E+00  0.00000000E+00
  0.00000000E+00  0.00000000E+00  0.00000000E+00
  0.00000000E+00  0.00000000E+00  0.00000000E+00
  0.00000000E+00  0.00000000E+00  0.00000000E+00
  0.00000000E+00  0.00000000E+00  0.00000000E+00
  0.00000000E+00  0.00000000E+00  0.00000000E+00
  0.00000000E+00  0.00000000E+00  0.00000000E+00
  0.00000000E+00  0.00000000E+00  0.00000000E+00
  0.00000000E+00  0.00000000E+00  0.00000000E+00
  0.00000000E+00  0.00000000E+00  0.00000000E+00
  0.00000000E+00  0.00000000E+00  0.00000000E+00
  0.00000000E+00  0.00000000E+00  0.00000000E+00
  0.00000000E+00  0.00000000E+00  0.00000000E+00
  0.00000000E+00  0.00000000E+00  0.00000000E+00
  0.00000000E+00  0.00000000E+00  0.00000000E+00
  0.00000000E+00  0.00000000E+00  0.00000000E+00
  0.00000000E+00  0.00000000E+00  0.00000000E+00
  0.00000000E+00  0.00000000E+00  0.00000000E+00
  0.00000000E+00  0.00000000E+00  0.00000000E+00
  0.00000000E+00  0.00000000E+00  0.00000000E+00
  0.00000000E+00  0.00000000E+00  0.00000000E+00
  0.00000000E+00  0.00000000E+00  0.00000000E+00
  0.00000000E+00  0.00000000E+00  0.00000000E+00
  0.00000000E+00  0.00000000E+00  0.00000000E+00
  0.00000000E+00  0.00000000E+00  0.00000000E+00
  0.00000000E+00  0.00000000E+00  0.00000000E+00
