generated by phonopy
1.0000000000000
     5.1091071242756270    0.0000000000000000    0.0000000000000000
    -2.5545535621378135    4.4246165602787520    0.0000000000000000
     0.0000000000000000    0.0000000000000000   11.4072801800324335
B    N    Al
14   16   2
Direct
  0.6666666666666679  0.3333333333333321  0.0000000000000000
  0.1666666666666679  0.8333333333333321  0.0000000000000000
  0.6666666666666679  0.8333333333333321  0.0000000000000000
  0.1666666666666679  0.3333333333333321  0.5000000000000000
  0.6666666666666679  0.3333333333333321  0.5000000000000000
  0.1666666666666679  0.8333333333333321  0.5000000000000000
  0.3333333333333321  0.1666666666666679  0.2500000000000000
  0.8333333333333321  0.1666666666666679  0.2500000000000000
  0.3333333333333321  0.6666666666666679  0.2500000000000000
  0.8333333333333321  0.6666666666666679  0.2500000000000000
  0.3333333333333321  0.1666666666666679  0.7500000000000000
  0.8333333333333321  0.1666666666666679  0.7500000000000000
  0.3333333333333321  0.6666666666666679  0.7500000000000000
  0.8333333333333321  0.6666666666666679  0.7500000000000000
  0.3333333333333321  0.1666666666666679  0.9750000000000000
  0.8333333333333321  0.1666666666666679  0.9750000000000000
  0.3333333333333321  0.6666666666666679  0.9750000000000000
  0.8333333333333321  0.6666666666666679  0.9750000000000000
  0.3333333333333321  0.1666666666666679  0.4750000000000000
  0.8333333333333321  0.1666666666666679  0.4750000000000000
  0.3333333333333321  0.6666666666666679  0.4750000000000000
  0.8333333333333321  0.6666666666666679  0.4750000000000000
  0.1666666666666679  0.3333333333333321  0.2250000000000000
  0.6666666666666679  0.3333333333333321  0.2250000000000000
  0.1666666666666679  0.8333333333333321  0.2250000000000000
  0.6666666666666679  0.8333333333333321  0.2250000000000000
  0.1666666666666679  0.3333333333333321  0.7250000000000000
  0.6666666666666679  0.3333333333333321  0.7250000000000000
  0.1666666666666679  0.8333333333333321  0.7250000000000000
  0.6666666666666679  0.8333333333333321  0.7250000000000000
  0.1666666666666679  0.3333333333333321  0.0000000000000000
  0.6666666666666679  0.8333333333333321  0.5000000000000000
