Ta  N Cu                                
   1.00000000000000     
    10.4555999800000006    0.0000000000000000    0.0000000000000000
     0.0000000000000000   11.6775998899999998    0.0000000000000000
     0.0000000000000000    0.0000000000000000   24.0732377500000005
   Ta   N    Cu
    64    64     1
Selective dynamics
Direct
  0.4991785186325330  0.1250000003211298  0.3753726828051569   F   F   F
  0.2600588226580172  0.1250000003211298  0.3190980514078845   F   F   F
  0.2470962603561304  0.0000000000000000  0.4358978840493251   F   F   F
  0.2483002552004463  0.1249530184841797  0.5616385427810892   T   T   T
  0.9984349491751097  0.1249766786843366  0.5004846179105011   T   T   T
  0.9974306883138022  0.0002317671556647  0.6262946311256010   T   T   T
  0.5084924891761947  0.1263600218853284  0.7449558235786746   T   T   T
  0.2503793195927877  0.1247955117822609  0.6867214539701268   T   T   T
  0.4991785186325330  0.3750000001070433  0.3753726828051569   F   F   F
  0.2600588226580172  0.3750000001070433  0.3190980514078845   F   F   F
  0.2470962603561304  0.2499999997859135  0.4358978840493251   F   F   F
  0.2482997541826131  0.3750588861636038  0.5616379086580873   T   T   T
  0.9984331144452054  0.3750331857411411  0.5004847099275811   T   T   T
  0.9975064615855640  0.2500116810976264  0.6260673279246085   T   T   T
  0.5084788896381233  0.3736521559176422  0.7449616581193307   T   T   T
  0.2503765283495981  0.3752254213196035  0.6867210839212309   T   T   T
  0.4991785186325330  0.6249999998929567  0.3753726828051569   F   F   F
  0.2600588226580172  0.6249999998929567  0.3190980514078845   F   F   F
  0.2470962603561304  0.5000000004281731  0.4358978840493251   F   F   F
  0.2483993675506458  0.6250393230437497  0.5616721748156449   T   T   T
  0.9983272407037533  0.6250104792653955  0.5005499791035024   T   T   T
  0.9974266275188152  0.4997870167794581  0.6262944567721199   T   T   T
  0.5107552329137129  0.6240261447379453  0.7432653997054967   T   T   T
  0.2502716387428457  0.6249284349247957  0.6868514333838601   T   T   T
  0.4991785186325330  0.8750000005352163  0.3753726828051569   F   F   F
  0.2600588226580172  0.8750000005352163  0.3190980514078845   F   F   F
  0.2470962603561304  0.7500000002140865  0.4358978840493251   F   F   F
  0.2483974366468263  0.8749699803947160  0.5616739999537241   T   T   T
  0.9983286906419423  0.8749989452280763  0.5005495345210023   T   T   T
  0.9973910336044874  0.7500075830535007  0.6263665602248999   T   T   T
  0.5107523265800601  0.8759991330897731  0.7432631912850679   T   T   T
  0.2502602698385424  0.8750894144271837  0.6868499281478168   T   T   T
  0.9991784928090510  0.1250000003211298  0.3753726828051569   F   F   F
  0.7600587968345351  0.1250000003211298  0.3190980514078845   F   F   F
  0.7470962345326484  0.0000000000000000  0.4358978840493251   F   F   F
  0.7486072127128754  0.1250483100968804  0.5616737738979011   T   T   T
  0.4984110632075049  0.1249701412310585  0.5005021851201785   T   T   T
  0.4974713261692667  0.9995821853191633  0.6258799279985592   T   T   T
  0.0106312155277097  0.1259402867496631  0.7432133547964305   T   T   T
  0.7490930440381209  0.1248879249694743  0.6867984554852306   T   T   T
  0.9991784928090510  0.3750000001070433  0.3753726828051569   F   F   F
  0.7600587968345351  0.3750000001070433  0.3190980514078845   F   F   F
  0.7470962345326484  0.2499999997859135  0.4358978840493251   F   F   F
  0.7486043725524893  0.3749661746023844  0.5616733979680905   T   T   T
  0.4984126479224068  0.3750349862007793  0.5005005636096519   T   T   T
  0.4979201113556718  0.2500071829385842  0.6255592857455559   T   T   T
  0.0106369483406923  0.3740832175727732  0.7432149634368898   T   T   T
  0.7490892801438067  0.3751240122027199  0.6868026393534870   T   T   T
  0.9991784928090510  0.6249999998929567  0.3753726828051569   F   F   F
  0.7600587968345351  0.6249999998929567  0.3190980514078845   F   F   F
  0.7470962345326484  0.5000000004281731  0.4358978840493251   F   F   F
  0.7484829224258949  0.6250078599221742  0.5617491942937075   T   T   T
  0.4985443409901858  0.6250543039416557  0.5005181746961868   T   T   T
  0.4974700376686348  0.5004429372226247  0.6258814711056460   T   T   T
  0.0110265811772030  0.6247682591902316  0.7427731932789911   T   T   T
  0.7492825799106441  0.6247847713895033  0.6868752399442298   T   T   T
  0.9991784928090439  0.8750000005352163  0.3753726828051569   F   F   F
  0.7600587968345351  0.8750000005352163  0.3190980514078845   F   F   F
  0.7470962345326484  0.7500000002140865  0.4358978840493251   F   F   F
  0.7484828249428005  0.8750053711772804  0.5617483592557410   T   T   T
  0.4985417555443236  0.8749516586364928  0.5005181866781122   T   T   T
  0.4974685479972905  0.7500056495122697  0.6261935557449465   T   T   T
  0.0110193458203139  0.8752561283554552  0.7427746301879398   T   T   T
  0.7492945963459127  0.8752279695328996  0.6868730011996314   T   T   T
  0.1472195596423447  0.0000000000000000  0.3601606351366584   F   F   F
  0.4003222342624682  0.0000000000000000  0.3237632067519129   F   F   F
  0.4439214822817661  0.0000000000000000  0.4377276028165085   F   F   F
  0.4004005865012646  0.9998405269548930  0.5517111232222566   T   T   T
  0.1505524585515947  0.9998694869422390  0.5102696655020742   T   T   T
  0.1943509498196365  0.9999605645684313  0.6245686164831069   T   T   T
  0.1510681675212784  0.0001276854607238  0.7384722846766043   T   T   T
  0.3987981159989462  0.0008859116136359  0.7015345745635995   T   T   T
  0.1472195596423447  0.2499999997859135  0.3601606351366584   F   F   F
  0.4003222342624682  0.2499999997859135  0.3237632067519129   F   F   F
  0.4439214822817661  0.2499999997859135  0.4377276028165085   F   F   F
  0.4002111663625531  0.2500033919554930  0.5515726296858805   T   T   T
  0.1505599240322153  0.2500050317323955  0.5102139091078137   T   T   T
  0.1943261102999697  0.2500071884988508  0.6244527141191584   T   T   T
  0.1515849870728441  0.2500097443707820  0.7383399181736762   T   T   T
  0.3991353538889372  0.2500077549054189  0.6994178785082320   T   T   T
  0.1472195596423447  0.5000000004281731  0.3601606351366584   F   F   F
  0.4003222342624682  0.5000000004281731  0.3237632067519129   F   F   F
  0.4439214822817661  0.5000000004281731  0.4377276028165085   F   F   F
  0.4004027880804625  0.5001679998542931  0.5517109468949787   T   T   T
  0.1505512706582492  0.5001387067665042  0.5102693708514369   T   T   T
  0.1943476428812042  0.5000549637928672  0.6245676808129510   T   T   T
  0.1510697076775886  0.4998957545978766  0.7384715523441132   T   T   T
  0.3988000528133166  0.4991333588013950  0.7015419780273692   T   T   T
  0.1472195596423447  0.7500000002140865  0.3601606351366584   F   F   F
  0.4003222342624682  0.7500000002140865  0.3237632067519129   F   F   F
  0.4439214822817661  0.7500000002140865  0.4377276028165085   F   F   F
  0.4005558110562828  0.7500047629457809  0.5518997877538155   T   T   T
  0.1505441098340689  0.7500028186659151  0.5102999914580787   T   T   T
  0.1942746515460093  0.7500052476482105  0.6245444674420523   T   T   T
  0.1515741787633771  0.7500115235771829  0.7385672792273190   T   T   T
  0.3986897353361484  0.7500117891242929  0.7021175993018159   T   T   T
  0.6472195338188556  0.0000000000000000  0.3601606351366584   F   F   F
  0.9003222591295312  0.0000000000000000  0.3237632067519129   F   F   F
  0.9439215071488221  0.0000000000000000  0.4377276028165085   F   F   F
  0.9007222627214045  0.0000084838020791  0.5519077333307708   T   T   T
  0.6506717243320882  0.9999603450348346  0.5102961890694656   T   T   T
  0.6943683321909101  0.0000694712165326  0.6244173508170257   T   T   T
  0.6507389745614820  0.0008803384308182  0.7387530893386884   T   T   T
  0.8976579486827375  0.0001113107952737  0.7019156222869192   T   T   T
  0.6472195338188556  0.2499999997859135  0.3601606351366584   F   F   F
  0.9003222591295312  0.2499999997859135  0.3237632067519129   F   F   F
  0.9439215071488221  0.2499999997859135  0.4377276028165085   F   F   F
  0.9007059309005423  0.2500062122542815  0.5517755377545311   T   T   T
  0.6505740722437897  0.2500029179155906  0.5102664173362219   T   T   T
  0.6947575862490654  0.2500082457692381  0.6243640170944648   T   T   T
  0.6513156656173776  0.2500134442712036  0.7380800386623089   T   T   T
  0.8975175619354983  0.2500093290153388  0.7017115477764002   T   T   T
  0.6472195338188556  0.5000000004281731  0.3601606351366584   F   F   F
  0.9003222591295312  0.5000000004281731  0.3237632067519129   F   F   F
  0.9439215071488221  0.5000000004281731  0.4377276028165085   F   F   F
  0.9007210087316706  0.5000061310060335  0.5519074040385274   T   T   T
  0.6506715092336063  0.5000479663080767  0.5102959904848504   T   T   T
  0.6943677116510674  0.4999462710576403  0.6244180495979765   T   T   T
  0.6507263707539865  0.4991392985499996  0.7387505782239459   T   T   T
  0.8976547780232448  0.4999175657266750  0.7019184639274757   T   T   T
  0.6472195338188556  0.7500000002140865  0.3601606351366584   F   F   F
  0.9003222591295312  0.7500000002140865  0.3237632067519129   F   F   F
  0.9439215071488221  0.7500000002140865  0.4377276028165085   F   F   F
  0.9007442088049966  0.7500071687242537  0.5519743516994643   T   T   T
  0.6507098848512771  0.7500049591715054  0.5103270465812271   T   T   T
  0.6943590960009107  0.7500084178912586  0.6245554769712001   T   T   T
  0.6503215185480944  0.7500075582376883  0.7386401692883705   T   T   T
  0.8972359987480766  0.7500071392080396  0.7020226587570015   T   T   T
  0.4167544306102144  0.2499668895588439  0.8261537048494982   T   T   T
 
  0.00000000E+00  0.00000000E+00  0.00000000E+00
  0.00000000E+00  0.00000000E+00  0.00000000E+00
  0.00000000E+00  0.00000000E+00  0.00000000E+00
  0.00000000E+00  0.00000000E+00  0.00000000E+00
  0.00000000E+00  0.00000000E+00  0.00000000E+00
  0.00000000E+00  0.00000000E+00  0.00000000E+00
  0.00000000E+00  0.00000000E+00  0.00000000E+00
  0.00000000E+00  0.00000000E+00  0.00000000E+00
  0.00000000E+00  0.00000000E+00  0.00000000E+00
  0.00000000E+00  0.00000000E+00  0.00000000E+00
  0.00000000E+00  0.00000000E+00  0.00000000E+00
  0.00000000E+00  0.00000000E+00  0.00000000E+00
  0.00000000E+00  0.00000000E+00  0.00000000E+00
  0.00000000E+00  0.00000000E+00  0.00000000E+00
  0.00000000E+00  0.00000000E+00  0.00000000E+00
  0.00000000E+00  0.00000000E+00  0.00000000E+00
  0.00000000E+00  0.00000000E+00  0.00000000E+00
  0.00000000E+00  0.00000000E+00  0.00000000E+00
  0.00000000E+00  0.00000000E+00  0.00000000E+00
  0.00000000E+00  0.00000000E+00  0.00000000E+00
  0.00000000E+00  0.00000000E+00  0.00000000E+00
  0.00000000E+00  0.00000000E+00  0.00000000E+00
  0.00000000E+00  0.00000000E+00  0.00000000E+00
  0.00000000E+00  0.00000000E+00  0.00000000E+00
  0.00000000E+00  0.00000000E+00  0.00000000E+00
  0.00000000E+00  0.00000000E+00  0.00000000E+00
  0.00000000E+00  0.00000000E+00  0.00000000E+00
  0.00000000E+00  0.00000000E+00  0.00000000E+00
  0.00000000E+00  0.00000000E+00  0.00000000E+00
  0.00000000E+00  0.00000000E+00  0.00000000E+00
  0.00000000E+00  0.00000000E+00  0.00000000E+00
  0.00000000E+00  0.00000000E+00  0.00000000E+00
  0.00000000E+00  0.00000000E+00  0.00000000E+00
  0.00000000E+00  0.00000000E+00  0.00000000E+00
  0.00000000E+00  0.00000000E+00  0.00000000E+00
  0.00000000E+00  0.00000000E+00  0.00000000E+00
  0.00000000E+00  0.00000000E+00  0.00000000E+00
  0.00000000E+00  0.00000000E+00  0.00000000E+00
  0.00000000E+00  0.00000000E+00  0.00000000E+00
  0.00000000E+00  0.00000000E+00  0.00000000E+00
  0.00000000E+00  0.00000000E+00  0.00000000E+00
  0.00000000E+00  0.00000000E+00  0.00000000E+00
  0.00000000E+00  0.00000000E+00  0.00000000E+00
  0.00000000E+00  0.00000000E+00  0.00000000E+00
  0.00000000E+00  0.00000000E+00  0.00000000E+00
  0.00000000E+00  0.00000000E+00  0.00000000E+00
  0.00000000E+00  0.00000000E+00  0.00000000E+00
  0.00000000E+00  0.00000000E+00  0.00000000E+00
  0.00000000E+00  0.00000000E+00  0.00000000E+00
  0.00000000E+00  0.00000000E+00  0.00000000E+00
  0.00000000E+00  0.00000000E+00  0.00000000E+00
  0.00000000E+00  0.00000000E+00  0.00000000E+00
  0.00000000E+00  0.00000000E+00  0.00000000E+00
  0.00000000E+00  0.00000000E+00  0.00000000E+00
  0.00000000E+00  0.00000000E+00  0.00000000E+00
  0.00000000E+00  0.00000000E+00  0.00000000E+00
  0.00000000E+00  0.00000000E+00  0.00000000E+00
  0.00000000E+00  0.00000000E+00  0.00000000E+00
  0.00000000E+00  0.00000000E+00  0.00000000E+00
  0.00000000E+00  0.00000000E+00  0.00000000E+00
  0.00000000E+00  0.00000000E+00  0.00000000E+00
  0.00000000E+00  0.00000000E+00  0.00000000E+00
  0.00000000E+00  0.00000000E+00  0.00000000E+00
  0.00000000E+00  0.00000000E+00  0.00000000E+00
  0.00000000E+00  0.00000000E+00  0.00000000E+00
  0.00000000E+00  0.00000000E+00  0.00000000E+00
  0.00000000E+00  0.00000000E+00  0.00000000E+00
  0.00000000E+00  0.00000000E+00  0.00000000E+00
  0.00000000E+00  0.00000000E+00  0.00000000E+00
  0.00000000E+00  0.00000000E+00  0.00000000E+00
  0.00000000E+00  0.00000000E+00  0.00000000E+00
  0.00000000E+00  0.00000000E+00  0.00000000E+00
  0.00000000E+00  0.00000000E+00  0.00000000E+00
  0.00000000E+00  0.00000000E+00  0.00000000E+00
  0.00000000E+00  0.00000000E+00  0.00000000E+00
  0.00000000E+00  0.00000000E+00  0.00000000E+00
  0.00000000E+00  0.00000000E+00  0.00000000E+00
  0.00000000E+00  0.00000000E+00  0.00000000E+00
  0.00000000E+00  0.00000000E+00  0.00000000E+00
  0.00000000E+00  0.00000000E+00  0.00000000E+00
  0.00000000E+00  0.00000000E+00  0.00000000E+00
  0.00000000E+00  0.00000000E+00  0.00000000E+00
  0.00000000E+00  0.00000000E+00  0.00000000E+00
  0.00000000E+00  0.00000000E+00  0.00000000E+00
  0.00000000E+00  0.00000000E+00  0.00000000E+00
  0.00000000E+00  0.00000000E+00  0.00000000E+00
  0.00000000E+00  0.00000000E+00  0.00000000E+00
  0.00000000E+00  0.00000000E+00  0.00000000E+00
  0.00000000E+00  0.00000000E+00  0.00000000E+00
  0.00000000E+00  0.00000000E+00  0.00000000E+00
  0.00000000E+00  0.00000000E+00  0.00000000E+00
  0.00000000E+00  0.00000000E+00  0.00000000E+00
  0.00000000E+00  0.00000000E+00  0.00000000E+00
  0.00000000E+00  0.00000000E+00  0.00000000E+00
  0.00000000E+00  0.00000000E+00  0.00000000E+00
  0.00000000E+00  0.00000000E+00  0.00000000E+00
  0.00000000E+00  0.00000000E+00  0.00000000E+00
  0.00000000E+00  0.00000000E+00  0.00000000E+00
  0.00000000E+00  0.00000000E+00  0.00000000E+00
  0.00000000E+00  0.00000000E+00  0.00000000E+00
  0.00000000E+00  0.00000000E+00  0.00000000E+00
  0.00000000E+00  0.00000000E+00  0.00000000E+00
  0.00000000E+00  0.00000000E+00  0.00000000E+00
  0.00000000E+00  0.00000000E+00  0.00000000E+00
  0.00000000E+00  0.00000000E+00  0.00000000E+00
  0.00000000E+00  0.00000000E+00  0.00000000E+00
  0.00000000E+00  0.00000000E+00  0.00000000E+00
  0.00000000E+00  0.00000000E+00  0.00000000E+00
  0.00000000E+00  0.00000000E+00  0.00000000E+00
  0.00000000E+00  0.00000000E+00  0.00000000E+00
  0.00000000E+00  0.00000000E+00  0.00000000E+00
  0.00000000E+00  0.00000000E+00  0.00000000E+00
  0.00000000E+00  0.00000000E+00  0.00000000E+00
  0.00000000E+00  0.00000000E+00  0.00000000E+00
  0.00000000E+00  0.00000000E+00  0.00000000E+00
  0.00000000E+00  0.00000000E+00  0.00000000E+00
  0.00000000E+00  0.00000000E+00  0.00000000E+00
  0.00000000E+00  0.00000000E+00  0.00000000E+00
  0.00000000E+00  0.00000000E+00  0.00000000E+00
  0.00000000E+00  0.00000000E+00  0.00000000E+00
  0.00000000E+00  0.00000000E+00  0.00000000E+00
  0.00000000E+00  0.00000000E+00  0.00000000E+00
  0.00000000E+00  0.00000000E+00  0.00000000E+00
  0.00000000E+00  0.00000000E+00  0.00000000E+00
  0.00000000E+00  0.00000000E+00  0.00000000E+00
  0.00000000E+00  0.00000000E+00  0.00000000E+00
  0.00000000E+00  0.00000000E+00  0.00000000E+00
  0.00000000E+00  0.00000000E+00  0.00000000E+00
  0.00000000E+00  0.00000000E+00  0.00000000E+00
