Ta  N Ru Cu                             
   1.00000000000000     
    18.1096308199999996    0.0000000000000000    0.0000000000000000
     0.0000000000000000   23.3551997799999995    0.0000000000000000
     0.0000000000000000    0.0000000000000000   30.4818171199999988
   Ta   N    Ru   Cu
   216   240    24    29
Selective dynamics
Direct
  0.0000000000000000  0.0001540493432017  0.1952048772750459   F   F   F
  0.3335911226994313  0.0626178990550343  0.2011666574477005   F   F   F
  0.1661313464181191  0.0626435039054911  0.2013756225831216   F   F   F
  0.2497136469180603  0.1249913080150051  0.2769716716429613   F   F   F
  0.0824132892486986  0.0625280043020950  0.2823539174859135   F   F   F
  0.4173080235982880  0.0622158469098082  0.2818060632728887   F   F   F
  0.9990308204721292  0.1221443548480329  0.3674983114502973   T   T   T
  0.3290379130620615  0.0628917722336918  0.3655937546344606   T   T   T
  0.1675478167862878  0.0645190961921869  0.3669144157406856   T   T   T
  0.2419865201584956  0.1224820111544567  0.4531570343006551   T   T   T
  0.0800630662194417  0.0634145856259416  0.4515140888637997   T   T   T
  0.4130354762318919  0.0636553167382429  0.4520186682364304   T   T   T
  0.9906899061567727  0.1328844873241473  0.5387841207007097   T   T   T
  0.0000000000000000  0.1252934673573236  0.1957184605568116   F   F   F
  0.3338815497781340  0.1878831457175423  0.2019461464240635   F   F   F
  0.1661948949258303  0.1878540692822313  0.2019564242544476   F   F   F
  0.2502115669416796  0.2500369944875231  0.2777639619025223   F   F   F
  0.0824374490347353  0.1875904829007098  0.2829684025212984   F   F   F
  0.4174192825879786  0.1874333417367495  0.2829715540753668   F   F   F
  0.9999263190843793  0.2478231584806095  0.3677520339761427   T   T   T
  0.3314409579677912  0.1886506825808620  0.3652932786297207   T   T   T
  0.1676219171211916  0.1880608209938629  0.3664919549963091   T   T   T
  0.2485113433527018  0.2518648632056207  0.4553654144268545   T   T   T
  0.0805661959243817  0.1887553707967461  0.4540103308508497   T   T   T
  0.4126017926998256  0.1852669824416523  0.4520134695202310   T   T   T
  0.0000000000000000  0.2502681216697269  0.1962263215238949   F   F   F
  0.3344987696923738  0.3125187466315609  0.2026668881404063   F   F   F
  0.1661942511615422  0.3125671912316150  0.2024404242882341   F   F   F
  0.2506210431627167  0.3749227899199923  0.2783919089997156   F   F   F
  0.0823618586752204  0.3124866975306020  0.2834913249867341   F   F   F
  0.4175905476312707  0.3123986209820302  0.2843182411077976   F   F   F
  0.9938508759056901  0.3764329440695749  0.3687916470860313   T   T   T
  0.3292119918527134  0.3125135328243965  0.3681514972655534   T   T   T
  0.1663519905134339  0.3123374855925531  0.3677967859281965   T   T   T
  0.2488115970360824  0.3733133274448309  0.4569725835907542   T   T   T
  0.0842158749679571  0.3116481627231793  0.4540974398634417   T   T   T
  0.4132154375230234  0.3124863588002403  0.4564220630932058   T   T   T
  0.0187808103897020  0.3812512698908866  0.5365477544035786   T   T   T
  0.0000000000000000  0.3748427101281635  0.1963807855582331   F   F   F
  0.3345163880268487  0.4372854327724411  0.2027504300156835   F   F   F
  0.1664683163950542  0.4373113135708522  0.2024835848108779   F   F   F
  0.2496514720479368  0.0000136476026498  0.2762899058119643   F   F   F
  0.0825727467587427  0.4373792291061918  0.2832358711618497   F   F   F
  0.4174986217674430  0.4370699171736305  0.2843873273286093   F   F   F
  0.0018207198532139  0.0013819859375642  0.3666167874453894   T   T   T
  0.3326692503098154  0.4373021625655595  0.3697133054657685   T   T   T
  0.1710318809612268  0.4378491324337364  0.3687033415704865   T   T   T
  0.2453388344470140  0.0014531425682515  0.4532351168504790   T   T   T
  0.0820649598628121  0.4377994623735001  0.4519070849434720   T   T   T
  0.4147163305084460  0.4379914287502126  0.4563844861743118   T   T   T
  0.0000000000000000  0.4996600384981846  0.1960122970312383   F   F   F
  0.3340351755459352  0.5619131390770420  0.2021890025370681   F   F   F
  0.1665722925482243  0.5620352928756773  0.2019996637769879   F   F   F
  0.2501429157372073  0.6247388243367382  0.2770555720987531   F   F   F
  0.0823139344992256  0.5624071479513688  0.2827242320219199   F   F   F
  0.4177054922446999  0.5620703723524798  0.2835027055422685   F   F   F
  0.9983672120525251  0.6234479100451309  0.3687677914251378   T   T   T
  0.3322667623563731  0.5638421422799899  0.3665769134267564   T   T   T
  0.1724138479189559  0.5620813999366625  0.3664341445655107   T   T   T
  0.2518507480118500  0.6285652755321531  0.4561574540382323   T   T   T
  0.0837961102018809  0.5597175181589032  0.4520471649300652   T   T   T
  0.4140025713084337  0.5622981947420277  0.4524666386128279   T   T   T
  0.9819792922328588  0.6133945158742651  0.5386961942500860   T   T   T
  0.0000000000000000  0.6245357501514945  0.1955793289240901   F   F   F
  0.3339923607873985  0.6869740216822109  0.2015918950363513   F   F   F
  0.1663048432324175  0.6871515664123251  0.2015456485425915   F   F   F
  0.2499896679286877  0.7496463705244523  0.2766638540929520   F   F   F
  0.0824660912763733  0.6874672270731992  0.2824343777610991   F   F   F
  0.4174829552423418  0.6871308384112780  0.2826795856657682   F   F   F
  0.9977043915510049  0.7487021690662685  0.3676209425539230   T   T   T
  0.3328330706488297  0.6866611963718486  0.3692352922349738   T   T   T
  0.1701592986910966  0.6873866868783998  0.3671333282318457   T   T   T
  0.2495049973115460  0.7509004805301641  0.4580485292006650   T   T   T
  0.0853579686696182  0.6870126077557913  0.4488730913858901   T   T   T
  0.4201556012398830  0.6912365080689474  0.4546079422231321   T   T   T
  0.0000000000000000  0.7496781775342214  0.1953645300692344   F   F   F
  0.3337937128121951  0.8120159814150867  0.2012723865559281   F   F   F
  0.1661863262123759  0.8121765886067962  0.2013174620412883   F   F   F
  0.2497655804100987  0.8747514740683400  0.2763088131779128   F   F   F
  0.0825580188978989  0.8124898946519963  0.2823318451015737   F   F   F
  0.4173866347344344  0.8121155721843465  0.2822419416884330   F   F   F
  0.0007903818240291  0.8769140420760347  0.3677587067554896   T   T   T
  0.3333582108108046  0.8115393641777480  0.3677227183363061   T   T   T
  0.1702820501880304  0.8123546949474663  0.3660788149972213   T   T   T
  0.2467889912716573  0.8815349669076915  0.4553955236525357   T   T   T
  0.0913614336050498  0.8121957781735800  0.4512204889950539   T   T   T
  0.4109554912602317  0.8145811032775355  0.4559406326939816   T   T   T
  0.0482039830833961  0.8656180814227528  0.5410216809898717   T   T   T
  0.0000000000000000  0.8749709405038288  0.1952216004293277   F   F   F
  0.3336027360284533  0.9373254077095297  0.2010339935283412   F   F   F
  0.1660935290752192  0.9375055884914048  0.2011735569652160   F   F   F
  0.2504830212189049  0.4996808151450338  0.2776753851277860   F   F   F
  0.0824372547392471  0.9374188030533617  0.2822023922818460   F   F   F
  0.4174708236543907  0.9370820673138667  0.2818462101306238   F   F   F
  0.0007874071015476  0.5003149865944463  0.3667976296610959   T   T   T
  0.3320731388720031  0.9375000142637158  0.3674528860945868   T   T   T
  0.1681215139021451  0.9400708746964036  0.3678643038445938   T   T   T
  0.2491626533918368  0.5055903768984219  0.4624169549745897   T   T   T
  0.0853413182285453  0.9403310723336467  0.4536033510757712   T   T   T
  0.4113462506119206  0.9380858227762031  0.4538431069646013   T   T   T
  0.3406312027030808  0.9408250325133217  0.5424797950272019   T   T   T
  0.1728479562406441  0.9495044612025082  0.5437099692709141   T   T   T
  0.5000000000000000  0.9999198696006601  0.1948903532541308   F   F   F
  0.8338686237634931  0.0626435039054911  0.2013756225831216   F   F   F
  0.6664088480343722  0.0626178990550343  0.2011666574477005   F   F   F
  0.7502863525297556  0.1249913080150051  0.2769716716429613   F   F   F
  0.5826919764017120  0.0622158469098082  0.2818060632728887   F   F   F
  0.9175867107513014  0.0625280043020950  0.2823539174859135   F   F   F
  0.5010078204138925  0.1220637814785757  0.3704923939388684   T   T   T
  0.8281550062063028  0.0636994985158121  0.3666555113100702   T   T   T
  0.6648039246391392  0.0600642294456634  0.3675319435207334   T   T   T
  0.7506983334848580  0.1219848383937237  0.4520813073007593   T   T   T
  0.5841402306292366  0.0582733998226719  0.4509655293530945   T   T   T
  0.9165716179301217  0.0589392613210458  0.4511179401083376   T   T   T
  0.4821550090151236  0.1332457204582533  0.5396467051294109   T   T   T
  0.5000000000000000  0.1254990580004929  0.1954646149468999   F   F   F
  0.8338050752557820  0.1878540692822313  0.2019564242544476   F   F   F
  0.6661184209556694  0.1878831457175423  0.2019461464240635   F   F   F
  0.7497884325061293  0.2500369944875231  0.2777639619025223   F   F   F
  0.5825807174120214  0.1874333417367495  0.2829715540753668   F   F   F
  0.9175625509652647  0.1875904829007098  0.2829684025212984   F   F   F
  0.4999627206440245  0.2497148278538686  0.3681729250909059   T   T   T
  0.8288425753169226  0.1870818020616861  0.3661490949915205   T   T   T
  0.6631905788377784  0.1879621888132929  0.3658734067515596   T   T   T
  0.7481103138916676  0.2491971268294302  0.4568167575270357   T   T   T
  0.5846130734458209  0.1860190590679297  0.4520493791220391   T   T   T
  0.9103251763190475  0.1852867954466084  0.4544189394294640   T   T   T
  0.5000000000000000  0.2505013661093045  0.1964427338884676   F   F   F
  0.8338057190200701  0.3125671912316150  0.2024404242882341   F   F   F
  0.6655012010414296  0.3125187466315609  0.2026668881404063   F   F   F
  0.7493789562850921  0.3749227899199923  0.2783919089997156   F   F   F
  0.5824094523687293  0.3123986209820302  0.2843182411077976   F   F   F
  0.9176381413247796  0.3124866975306020  0.2834913249867341   F   F   F
  0.5005890300346899  0.3751520542503398  0.3708538223904511   T   T   T
  0.8289905504667271  0.3113245961965232  0.3672166795730898   T   T   T
  0.6630890048235157  0.3108740460292314  0.3713144865545646   T   T   T
  0.7551373933163787  0.3765254450654493  0.4517989517136696   T   T   T
  0.5864034668548681  0.3163336886242851  0.4643370109954531   T   T   T
  0.9155252646291552  0.3099611447359769  0.4506509343610311   T   T   T
  0.5016270385334308  0.3783729100491071  0.5478090466251481   T   T   T
  0.5000000000000000  0.3748991137487110  0.1971899805056978   F   F   F
  0.8335316537865580  0.4373113135708522  0.2024835848108779   F   F   F
  0.6654835827069547  0.4372854327724411  0.2027504300156835   F   F   F
  0.7503485273998720  0.0000136476026498  0.2762899058119643   F   F   F
  0.5825013782325570  0.4370699171736305  0.2843873273286093   F   F   F
  0.9174272532412573  0.4373792291061918  0.2832358711618497   F   F   F
  0.4992850030805960  0.9983477424213093  0.3684603263759825   T   T   T
  0.8292989997507604  0.4368581713692508  0.3682615438970495   T   T   T
  0.6655527321378439  0.4383150064821343  0.3690973617591272   T   T   T
  0.7483932744067158  0.9967557731797356  0.4539076979457801   T   T   T
  0.5852902295807765  0.4384855477777213  0.4562811392695082   T   T   T
  0.9160287912529648  0.4366308832480982  0.4523360996752115   T   T   T
  0.5000000000000000  0.4994643024967829  0.1967282283003158   F   F   F
  0.8334276776333880  0.5620352928756773  0.2019996637769879   F   F   F
  0.6659647951878682  0.5619131390770420  0.2021890025370681   F   F   F
  0.7498570837106016  0.6247388243367382  0.2770555720987531   F   F   F
  0.5822945077553001  0.5620703723524798  0.2835027055422685   F   F   F
  0.9176860655007744  0.5624071479513688  0.2827242320219199   F   F   F
  0.4999543841604402  0.6250423129283996  0.3681512112593630   T   T   T
  0.8304387710554783  0.5635588620333747  0.3670342747354910   T   T   T
  0.6673222983975661  0.5646095306986967  0.3674460248473851   T   T   T
  0.7497145422263963  0.6254219676110605  0.4572750689529896   T   T   T
  0.5873114413718986  0.5624181725003691  0.4531510273141807   T   T   T
  0.9158008111000576  0.5608388807078999  0.4508723447046799   T   T   T
  0.5086472935863181  0.6321832946174225  0.5387481324346928   T   T   T
  0.5000000000000000  0.6241464195896782  0.1959625473447417   F   F   F
  0.8336951269491948  0.6871515664123251  0.2015456485425915   F   F   F
  0.6660076099464050  0.6869740216822109  0.2015918950363513   F   F   F
  0.7500103315191211  0.7496463705244523  0.2766638540929520   F   F   F
  0.5825170447576582  0.6871308384112780  0.2826795856657682   F   F   F
  0.9175339087236267  0.6874672270731992  0.2824343777610991   F   F   F
  0.5013652611097025  0.7539809902325497  0.3686462435630493   T   T   T
  0.8293469566992058  0.6875270286699142  0.3671697117612190   T   T   T
  0.6702390113142307  0.6889289065668650  0.3680663924827387   T   T   T
  0.7486452084578248  0.7494843730297496  0.4613666080088372   T   T   T
  0.5845892345431269  0.6872614385915172  0.4556383352025294   T   T   T
  0.9181376063635052  0.6866945814002388  0.4505515631181087   T   T   T
  0.5000000000000000  0.7492608262324936  0.1954491219570258   F   F   F
  0.8338136439692363  0.8121765886067962  0.2013174620412883   F   F   F
  0.6662062579216084  0.8120159814150867  0.2012723865559281   F   F   F
  0.7502344190377102  0.8747514740683400  0.2763088131779128   F   F   F
  0.5826133652655656  0.8121155721843465  0.2822419416884330   F   F   F
  0.9174419811021011  0.8124898946519963  0.2823318451015737   F   F   F
  0.4987496063630009  0.8758025804769919  0.3695289943300031   T   T   T
  0.8317442077016578  0.8141801191960537  0.3669625299719957   T   T   T
  0.6664965541927387  0.8128617632302682  0.3660163333968618   T   T   T
  0.7476547433692255  0.8765302570248122  0.4573421000361090   T   T   T
  0.5859767129522194  0.8152093566082484  0.4539934271935470   T   T   T
  0.9162913001590818  0.8129364708992902  0.4569565698740721   T   T   T
  0.5011529752179362  0.8743283263366364  0.5422924588000101   T   T   T
  0.5000000000000000  0.8746701782158013  0.1950268913488955   F   F   F
  0.8339064411064001  0.9375055884914048  0.2011735569652160   F   F   F
  0.6663972347053502  0.9373254077095297  0.2010339935283412   F   F   F
  0.7495169782289040  0.4996808151450338  0.2776753851277860   F   F   F
  0.5825291763456093  0.9370820673138667  0.2818462101306238   F   F   F
  0.9175627452607529  0.9374188030533617  0.2822023922818460   F   F   F
  0.5040407965738386  0.4996659423929378  0.3689889201858374   T   T   T
  0.8327012101549940  0.9381689780557803  0.3645186323331812   T   T   T
  0.6683307470482643  0.9347942889887576  0.3653501776640453   T   T   T
  0.7555040254175582  0.4989240957241083  0.4536011633870104   T   T   T
  0.5785353724137154  0.9388925983477207  0.4533725871746670   T   T   T
  0.9188958100521919  0.9367833689401254  0.4521282273885903   T   T   T
  0.8311913026317316  0.9420582465438766  0.5386240158760247   T   T   T
  0.6591164956811374  0.9347769595890311  0.5431630778574993   T   T   T
  0.3256641010717828  0.0682618166335830  0.5406202094288528   T   T   T
  0.1560013573051408  0.0706268162947191  0.5399349624614661   T   T   T
  0.0036793353575068  0.2588306613879175  0.5429430921956796   T   T   T
  0.9919998093116654  0.9943102190564994  0.5441806350806081   T   T   T
  0.0647233431880165  0.7368777807791743  0.5380654553321846   T   T   T
  0.1011323600303967  0.5078739498621094  0.5570246708943946   T   T   T
  0.8273858760116001  0.0750424803837885  0.5448584517561686   T   T   T
  0.6586323231951117  0.0588373777851017  0.5395595156399358   T   T   T
  0.5174246676686484  0.2497954451361838  0.5383074754978240   T   T   T
  0.4972157635341845  0.0021719701237332  0.5401698423657795   T   T   T
  0.5497363210518565  0.7471858386823030  0.5372884865977093   T   T   T
  0.5013090653590936  0.5047050350947211  0.5393036153284062   T   T   T
  0.4061289664388497  0.9997402073788066  0.2299469413761983   F   F   F
  0.2499243442227694  0.0000438992941199  0.1972592478097255   F   F   F
  0.0937634807389713  0.0000060933876753  0.2303819593707956   F   F   F
  0.1543157078586574  0.1250764905392501  0.3144006291067782   F   F   F
  0.0000000000000000  0.1251032437903064  0.3017457848904002   F   F   F
  0.3452685446959336  0.1247294648472135  0.3139779832144782   F   F   F
  0.3961340260713031  0.1257119058608538  0.4009933597527145   T   T   T
  0.2472913448916707  0.1280486574026708  0.3848371117636613   T   T   T
  0.0992959202386315  0.1283053643421638  0.3990329638667325   T   T   T
  0.1477185684006783  0.1213902488469790  0.4851889748672613   T   T   T
  0.9989492944483587  0.1245727756363036  0.4725594111701027   T   T   T
  0.3425547766778183  0.1258278056245625  0.4831031391443931   T   T   T
  0.3836908369806954  0.1334757397152429  0.5722501798115369   T   T   T
  0.2357023962427005  0.1333509489032266  0.5583189475988266   T   T   T
  0.0869119018783325  0.1306435014053742  0.5679543343977886   T   T   T
  0.4060922726490972  0.1252483525494625  0.2305072749907424   F   F   F
  0.2499853373031016  0.1253680865118554  0.1980301026484881   F   F   F
  0.0938705441988859  0.1252872407861290  0.2308075844758477   F   F   F
  0.1545811603609692  0.2502172040039952  0.3150875426512627   F   F   F
  0.0000000000000000  0.2500118363359647  0.3026576964998000   F   F   F
  0.3454213900442511  0.2501666210715499  0.3155411423685734   F   F   F
  0.3998875223251660  0.2538536755990626  0.4031143392649975   T   T   T
  0.2525214968906530  0.2485004860767776  0.3859575751667375   T   T   T
  0.0961699613496084  0.2474361463641621  0.4010657403285649   T   T   T
  0.1476175884334708  0.2509157337001088  0.4843252691715650   T   T   T
  0.0023407743475639  0.2533017031631348  0.4743068392828175   T   T   T
  0.3488403975254934  0.2459497663392160  0.4854251238194652   T   T   T
  0.4338510007236369  0.2997762972508661  0.5399059282923850   T   T   T
  0.2980779839856306  0.2442407183557340  0.5807225483099167   T   T   T
  0.1029836794788245  0.2483870994826505  0.5740420409325794   T   T   T
  0.4063537820413998  0.2503554436372752  0.2318217329215244   F   F   F
  0.2501513892027489  0.2503837172861623  0.1987743679215939   F   F   F
  0.0937459477286708  0.2502472980689348  0.2314396456129870   F   F   F
  0.1547329312016998  0.3748240360379640  0.3152648351295895   F   F   F
  0.0000000000000000  0.3750074687728571  0.3026805859104442   F   F   F
  0.3457516654221564  0.3744942564091502  0.3165611258293524   F   F   F
  0.3968694048034966  0.3720395232829415  0.4026298221542518   T   T   T
  0.2505340834429007  0.3746786577568700  0.3881661170278178   T   T   T
  0.0941757693809589  0.3761431198480074  0.4009945522250600   T   T   T
  0.1420432845034353  0.3750683734386314  0.4843547970036324   T   T   T
  0.9976204357503171  0.3764935725736981  0.4708412325548083   T   T   T
  0.3474168904661915  0.3755104634705714  0.4871759147243965   T   T   T
  0.4134433187182405  0.3990546204773725  0.5946075942731974   T   T   T
  0.2365895505306521  0.3546274609498873  0.5572213625535829   T   T   T
  0.0831252009625602  0.4242896787405491  0.5741681245338592   T   T   T
  0.4063450296950606  0.3748105982353493  0.2326129276751985   F   F   F
  0.2503815799939773  0.3748833278233974  0.1999379082155102   F   F   F
  0.0937603312984550  0.3748447341583656  0.2316121428621187   F   F   F
  0.1544387718848412  0.9996829985042694  0.3140614921184621   F   F   F
  0.0000000000000000  0.9999586470014989  0.3011413469010975   F   F   F
  0.3452207830953640  0.9993250578202932  0.3135800436600817   F   F   F
  0.3968621659101323  0.0007905564589895  0.4012837085912502   T   T   T
  0.2482643350306460  0.0009121724354972  0.3840094211865075   T   T   T
  0.1022161400078280  0.0019483278652893  0.4005556287237451   T   T   T
  0.1483820760009121  0.0035712785039494  0.4853083271876144   T   T   T
  0.9979952330580989  0.0010256763461547  0.4748933489557556   T   T   T
  0.3437362905623291  0.0035934469147599  0.4905819940581138   T   T   T
  0.4022586179207168  0.0051365830035530  0.5715702774678070   T   T   T
  0.2443194286920295  0.0162569133668986  0.5584997447054535   T   T   T
  0.0939075892786991  0.0045200893975085  0.5677394237827121   T   T   T
  0.4063919750489262  0.4994383192689185  0.2320699339374244   F   F   F
  0.2503562457577360  0.4994733889603751  0.1984713927521753   F   F   F
  0.0937692161019683  0.4997186735604657  0.2311634630953918   F   F   F
  0.1544189180639535  0.6249313455917331  0.3142752564094309   F   F   F
  0.0000000000000000  0.6250871852705728  0.3016444522084001   F   F   F
  0.3455048527126365  0.6246178489899563  0.3146330939141251   F   F   F
  0.4013410120698998  0.6221244793101450  0.4017972608439011   T   T   T
  0.2505484990880318  0.6242960842894509  0.3884943119585461   T   T   T
  0.0995257959119682  0.6209462526817109  0.3995958144560388   T   T   T
  0.1448046498181696  0.6278307311837046  0.4835656100653966   T   T   T
  0.0020714527644109  0.6251618222667866  0.4708384758509441   T   T   T
  0.3525252132833805  0.6306031656517465  0.4829486566186514   T   T   T
  0.4107280875542938  0.6317301094212650  0.5668402267118861   T   T   T
  0.2936070066595130  0.6912163148407086  0.5819570721637372   T   T   T
  0.0666532556852275  0.6564887653279862  0.5587945181059617   T   T   T
  0.4062813521908808  0.6243967556400136  0.2312165259231449   F   F   F
  0.2502036679887922  0.6245155546987675  0.1983452378000550   F   F   F
  0.0937766661575239  0.6247540281504627  0.2307495947632816   F   F   F
  0.1546033435283221  0.7500785159681627  0.3141978718615590   F   F   F
  0.0000000000000000  0.7500305717557652  0.3016383232735009   F   F   F
  0.3453015051544455  0.7497428282577090  0.3142525964722225   F   F   F
  0.4008318254974910  0.7536808710645069  0.4011749411370622   T   T   T
  0.2516001704672604  0.7498735221519803  0.3866188504511375   T   T   T
  0.0999024686794290  0.7517139069702311  0.3988709324097715   T   T   T
  0.1435922613859207  0.7490047300493587  0.4866258972296406   T   T   T
  0.0043904797442758  0.7506373472783400  0.4716169147897987   T   T   T
  0.3556962242711777  0.7497247512479570  0.4878842147222469   T   T   T
  0.4542590262160295  0.7790191267550863  0.5634474757261214   T   T   T
  0.2889330456746945  0.8104197590695591  0.6279235115309768   T   T   T
  0.1519029943246100  0.7661109278658746  0.5761464499002046   T   T   T
  0.4062711913523245  0.7494715794673255  0.2306001329891103   F   F   F
  0.2500741286340968  0.7495298625147910  0.1975175958228235   F   F   F
  0.0937118033124449  0.7498015672246723  0.2305201988047330   F   F   F
  0.1546291005700482  0.8749761849418931  0.3141837548196165   F   F   F
  0.0000000000000000  0.8748932220635766  0.3014812161455396   F   F   F
  0.3451245848043172  0.8746053037018058  0.3138810939481544   F   F   F
  0.4007123540115866  0.8743311347987301  0.4011641060011427   T   T   T
  0.2535955656004775  0.8741609425766586  0.3897160063048728   T   T   T
  0.1000982329771508  0.8732709569031956  0.4006661204551257   T   T   T
  0.1479755627874385  0.8734616592064613  0.4913763859934138   T   T   T
  0.0047113545072702  0.8720596871423533  0.4725047517191285   T   T   T
  0.3439809373251875  0.8804792960379448  0.4889122258028940   T   T   T
  0.4120673193137587  0.8933702179270245  0.5779309087959595   T   T   T
  0.2536344987152764  0.9059630538308567  0.5743647628640532   T   T   T
  0.1221096625976732  0.8905343630990368  0.5818157414863467   T   T   T
  0.4061874568895689  0.8745829884845264  0.2301668008934286   F   F   F
  0.2499290053865906  0.8746976559329411  0.1974476691903959   F   F   F
  0.0937950848089244  0.8748753778232796  0.2304039901560628   F   F   F
  0.1546720275628246  0.4999270048239595  0.3147507493888071   F   F   F
  0.0000000000000000  0.4998372765106751  0.3021481560570436   F   F   F
  0.3456001409594549  0.4994987117009870  0.3156404985996346   F   F   F
  0.4023091118486188  0.4987499152790680  0.4028987113464220   T   T   T
  0.2505344585424726  0.5007671077266858  0.3921685762028990   T   T   T
  0.0999452933808607  0.5008451061696949  0.4013951255524749   T   T   T
  0.1437664846102310  0.4917139031200234  0.4948650397214341   T   T   T
  0.0028187267354278  0.5005472321565753  0.4676631963980381   T   T   T
  0.3517389277741598  0.5018488975164558  0.4898692853420539   T   T   T
  0.3994116505325946  0.5105084424981253  0.5744474243037672   T   T   T
  0.2496717525994629  0.5715207819523087  0.5132384830251937   T   T   T
  0.1691114462511633  0.5551983640973253  0.5879347444763469   T   T   T
  0.9062365192610287  0.0000060933876753  0.2303819593707956   F   F   F
  0.7500756552250394  0.0000438992941199  0.1972592478097255   F   F   F
  0.5938710335611503  0.9997402073788066  0.2299469413761983   F   F   F
  0.6547314553040664  0.1247294648472135  0.3139779832144782   F   F   F
  0.5000000000000000  0.1246461532123107  0.3009409192362540   F   F   F
  0.8456842921413426  0.1250764905392501  0.3144006291067782   F   F   F
  0.8978946808105224  0.1254797885541394  0.3983526300734845   T   T   T
  0.7474382940000518  0.1238859469590163  0.3850595726227071   T   T   T
  0.6004689380837624  0.1233653098976072  0.4011987607440226   T   T   T
  0.6525563999343633  0.1216009040332866  0.4858770893672464   T   T   T
  0.4989828079832944  0.1271514571407246  0.4725619713399836   T   T   T
  0.8456931080965097  0.1169853143760260  0.4828168296356923   T   T   T
  0.8934201430004541  0.1358589373481583  0.5732762982512800   T   T   T
  0.7300746075037114  0.1154506805555333  0.5648779755709593   T   T   T
  0.5617279208425424  0.0985250271592423  0.5686228912496537   T   T   T
  0.9061294558011141  0.1252872407861290  0.2308075844758477   F   F   F
  0.7500146621447072  0.1253680865118554  0.1980301026484881   F   F   F
  0.5939077273509028  0.1252483525494625  0.2305072749907424   F   F   F
  0.6545786099557489  0.2501666210715499  0.3155411423685734   F   F   F
  0.5000000000000000  0.2498087327690257  0.3027998836310033   F   F   F
  0.8454188396390308  0.2502172040039952  0.3150875426512627   F   F   F
  0.8983871579067810  0.2464623323436914  0.4002202552740111   T   T   T
  0.7490813285553168  0.2479846008238814  0.3879691919177989   T   T   T
  0.5959670847965621  0.2494572492306692  0.4010593764573349   T   T   T
  0.6518005817294457  0.2435814635822836  0.4861927574880766   T   T   T
  0.4996975649408070  0.2465197471793681  0.4731720319811456   T   T   T
  0.8464698887469846  0.2482514978739345  0.4838822289292100   T   T   T
  0.9098249489845057  0.2779780687990279  0.5737359909588567   T   T   T
  0.7456930801286117  0.2527608405897935  0.5496333981982434   T   T   T
  0.5813574495623935  0.3162723937144136  0.5320365232168947   T   T   T
  0.9062540522713292  0.2502472980689348  0.2314396456129870   F   F   F
  0.7498486102450599  0.2503837172861623  0.1987743679215939   F   F   F
  0.5936462179585931  0.2503554436372752  0.2318217329215244   F   F   F
  0.6542483345778436  0.3744942564091502  0.3165611258293524   F   F   F
  0.5000000000000000  0.3746674438902389  0.3043243890304694   F   F   F
  0.8452670687983002  0.3748240360379640  0.3152648351295895   F   F   F
  0.8954506673872036  0.3707094976622055  0.4023813998953324   T   T   T
  0.7481186232835795  0.3733766202033152  0.3848441274520485   T   T   T
  0.6008429735368497  0.3758164144291908  0.4024362872031925   T   T   T
  0.6635864116980432  0.3841054087461614  0.4863707423554994   T   T   T
  0.5007401992772350  0.3784449285524016  0.4755503401733375   T   T   T
  0.8512296097993520  0.3712570062048376  0.4842864430887198   T   T   T
  0.9278933160165591  0.4181971371380474  0.5549276341642931   T   T   T
  0.7739420486063698  0.3742134140962061  0.5718072120295380   T   T   T
  0.5871246588603976  0.4008671456694210  0.5988925385864191   T   T   T
  0.9062396687015450  0.3748447341583656  0.2316121428621187   F   F   F
  0.7496184194538316  0.3748833278233974  0.1999379082155102   F   F   F
  0.5936549703049394  0.3748105982353493  0.2326129276751985   F   F   F
  0.6547792169046360  0.9993250578202932  0.3135800436600817   F   F   F
  0.5000000000000000  0.9995461887499104  0.3005273028076445   F   F   F
  0.8455612281151588  0.9996829985042694  0.3140614921184621   F   F   F
  0.9024870811509632  0.9997211766401648  0.3980170886996702   T   T   T
  0.7496784566435813  0.9991157837654038  0.3855051059032549   T   T   T
  0.5982490097741836  0.9968594078169439  0.3997332529902994   T   T   T
  0.6478768120246490  0.0010916556403624  0.4841189190167504   T   T   T
  0.4984876473075934  0.0018749142793850  0.4693563186973475   T   T   T
  0.8508592227759952  0.9983208558607608  0.4825777543891385   T   T   T
  0.8886935697263764  0.0103624615144639  0.5697934167161095   T   T   T
  0.7456194708676026  0.9998356617959188  0.5514691677100535   T   T   T
  0.5978569022958683  0.9993777657944902  0.5689953044955222   T   T   T
  0.9062307838980246  0.4997186735604657  0.2311634630953918   F   F   F
  0.7496437536900729  0.4994733889603751  0.1984713927521753   F   F   F
  0.5936080249510738  0.4994383192689185  0.2320699339374244   F   F   F
  0.6544951472873635  0.6246178489899563  0.3146330939141251   F   F   F
  0.5000000000000000  0.6248457726619137  0.3021681632881084   F   F   F
  0.8455810819360465  0.6249313455917331  0.3142752564094309   F   F   F
  0.9009782862006667  0.6242161815908409  0.4001793422075725   T   T   T
  0.7451441332192908  0.6264631689804460  0.3875357440164400   T   T   T
  0.6011950298976640  0.6259956937436499  0.4032517374812247   T   T   T
  0.6528090043555446  0.6266752184629614  0.4860107553019365   T   T   T