Mo  S Ru                                
   1.00000000000000     
    15.9215000000000000    0.0000000000000000    0.0000000000000000
    -7.9622500000000000   13.7910219999999999    0.0000000000000000
     0.0000000000000000    0.0000000000000000   13.5822000000000003
   Mo   S    Ru
    25    50     1
Direct
  0.1327635002615963  0.0657392217535104  0.6789781993735744
  0.1313737220043194  0.2652155411258406  0.6770457979093720
  0.1325928698249115  0.4658501424280033  0.6792127330550883
  0.1326268062243017  0.6658725251996600  0.6793083034581429
  0.1326431910608861  0.8657133785087439  0.6792817196580856
  0.3324451578070580  0.0654702072939060  0.6788461188498545
  0.3332854192756542  0.2650917698725905  0.6768205373890552
  0.3330595109041212  0.4667483054518726  0.6784515316898876
  0.3324512331823755  0.6657813035661562  0.6793410917505369
  0.3326435061540636  0.8657573547355923  0.6792525791908517
  0.5327256394212796  0.0657980564583127  0.6789744093604142
  0.5329780215711111  0.2660467505799531  0.6789316310673357
  0.5327067092480675  0.4657555620329674  0.6792968535316959
  0.5327777487737038  0.6657222877635647  0.6794259019172770
  0.5326511252453443  0.8657790350457333  0.6791071989998940
  0.7326566841676083  0.0658223661420365  0.6790512252757850
  0.7327362692239348  0.2658503087545370  0.6791266517732382
  0.7328142832743012  0.4658874634644761  0.6791789356164912
  0.7327680543993367  0.6658841431415610  0.6792870678191747
  0.7326640549377501  0.8658209807091168  0.6792352085522282
  0.9327251124379003  0.0657029089274488  0.6792789049357779
  0.9327059597998399  0.2660244573940460  0.6790793517062141
  0.9326501047631552  0.4659024474436606  0.6792031104042238
  0.9326974925512985  0.6658546081997372  0.6791596209290205
  0.9326477332565801  0.8657752087304118  0.6793168397666776
  0.0652989847115251  0.1312189471895593  0.5632457817422249
  0.0668138731939933  0.1333636308690558  0.7938723731091812
  0.0653262754293635  0.3331795866942713  0.5631491477698205
  0.0663416972897224  0.3321456111973902  0.7938074984734200
  0.0660097159384563  0.5326214870150281  0.5641850538662041
  0.0659563594877710  0.5324824139858748  0.7943292062806222
  0.0660456347482494  0.7325124745620570  0.5641010172805210
  0.0658970346991552  0.7324377940743290  0.7943706734207083
  0.0658942482060638  0.9322197868787896  0.5641559257967543
  0.0661017233274634  0.9326017981993786  0.7942832330658334
  0.2654864527018503  0.1311893858394910  0.5630119216337377
  0.2663270249736200  0.1331876465178894  0.7938197458987091
  0.2661401315505216  0.3328447510682224  0.5636908926031623
  0.2654092023400239  0.3311328664199777  0.7933229174125032
  0.2656613544636386  0.5329244060927252  0.5638368284578235
  0.2660253239548140  0.5322886881565267  0.7943256251618749
  0.2659586612882023  0.7324910047614495  0.5642176672560595
  0.2659079568228933  0.7325404375088524  0.7944298638281211
  0.2658430233111275  0.9320774753738590  0.5640168472333258
  0.2659820939563247  0.9324406162372583  0.7943085977414910
  0.4660599912754719  0.1324955277264195  0.5639186635257403
  0.4659895084973869  0.1324759193569491  0.7938476711208153
  0.4673109429454385  0.3331277965712118  0.5631901766370717
  0.4652475328606229  0.3320281923292256  0.7937908761487193
  0.4666771954224274  0.5328542952839257  0.5639259127389380
  0.4655622344178596  0.5320437359773251  0.7943839202816250
  0.4659046460641179  0.7322316587349533  0.5642843094677588
  0.4659938570791056  0.7325327081670565  0.7942920005122431
  0.4659188318047285  0.9323770661059783  0.5640340414312135
  0.4660903480200176  0.9325484453765043  0.7941698151968026
  0.6660774590387959  0.1325369967489607  0.5639364159748794
  0.6659984787874862  0.1324737730395498  0.7941178773200406
  0.6663195092025944  0.3326437175557757  0.5639720127352419
  0.6661516090732249  0.3325565791033327  0.7942347054436709
  0.6661036090908041  0.5325906039102080  0.5642054138135890
  0.6660835104376588  0.5324831822871232  0.7943102085881506
  0.6659999068654017  0.7324633504246805  0.5642369191909182
  0.6661652569629837  0.7325689983311747  0.7944063341436589
  0.6659969386581679  0.9324285338655613  0.5640005754526527
  0.6659734819112373  0.9325421263734555  0.7941540948815700
  0.8661392452202037  0.1325089038113560  0.5641605758078754
  0.8659530996815050  0.1325575064167310  0.7941776490088941
  0.8660089593995508  0.3325841393312459  0.5640866797226920
  0.8660334194166524  0.3325652684598097  0.7942561219313191
  0.8660678504647947  0.5325662330108969  0.5640224375353426
  0.8660815083815621  0.5326058695445539  0.7942830293056105
  0.8660175279337636  0.7325599215802683  0.5641197390137407
  0.8660880826895507  0.7324594531494171  0.7943459658367189
  0.8659895648937450  0.9324555464115178  0.5642412801266232
  0.8659829314787046  0.9324512032156704  0.7943895399808483
  0.2629979659567496  0.3128809099837468  0.9484607043476672
 
  0.00000000E+00  0.00000000E+00  0.00000000E+00
  0.00000000E+00  0.00000000E+00  0.00000000E+00
  0.00000000E+00  0.00000000E+00  0.00000000E+00
  0.00000000E+00  0.00000000E+00  0.00000000E+00
  0.00000000E+00  0.00000000E+00  0.00000000E+00
  0.00000000E+00  0.00000000E+00  0.00000000E+00
  0.00000000E+00  0.00000000E+00  0.00000000E+00
  0.00000000E+00  0.00000000E+00  0.00000000E+00
  0.00000000E+00  0.00000000E+00  0.00000000E+00
  0.00000000E+00  0.00000000E+00  0.00000000E+00
  0.00000000E+00  0.00000000E+00  0.00000000E+00
  0.00000000E+00  0.00000000E+00  0.00000000E+00
  0.00000000E+00  0.00000000E+00  0.00000000E+00
  0.00000000E+00  0.00000000E+00  0.00000000E+00
  0.00000000E+00  0.00000000E+00  0.00000000E+00
  0.00000000E+00  0.00000000E+00  0.00000000E+00
  0.00000000E+00  0.00000000E+00  0.00000000E+00
  0.00000000E+00  0.00000000E+00  0.00000000E+00
  0.00000000E+00  0.00000000E+00  0.00000000E+00
  0.00000000E+00  0.00000000E+00  0.00000000E+00
  0.00000000E+00  0.00000000E+00  0.00000000E+00
  0.00000000E+00  0.00000000E+00  0.00000000E+00
  0.00000000E+00  0.00000000E+00  0.00000000E+00
  0.00000000E+00  0.00000000E+00  0.00000000E+00
  0.00000000E+00  0.00000000E+00  0.00000000E+00
  0.00000000E+00  0.00000000E+00  0.00000000E+00
  0.00000000E+00  0.00000000E+00  0.00000000E+00
  0.00000000E+00  0.00000000E+00  0.00000000E+00
  0.00000000E+00  0.00000000E+00  0.00000000E+00
  0.00000000E+00  0.00000000E+00  0.00000000E+00
  0.00000000E+00  0.00000000E+00  0.00000000E+00
  0.00000000E+00  0.00000000E+00  0.00000000E+00
  0.00000000E+00  0.00000000E+00  0.00000000E+00
  0.00000000E+00  0.00000000E+00  0.00000000E+00
  0.00000000E+00  0.00000000E+00  0.00000000E+00
  0.00000000E+00  0.00000000E+00  0.00000000E+00
  0.00000000E+00  0.00000000E+00  0.00000000E+00
  0.00000000E+00  0.00000000E+00  0.00000000E+00
  0.00000000E+00  0.00000000E+00  0.00000000E+00
  0.00000000E+00  0.00000000E+00  0.00000000E+00
  0.00000000E+00  0.00000000E+00  0.00000000E+00
  0.00000000E+00  0.00000000E+00  0.00000000E+00
  0.00000000E+00  0.00000000E+00  0.00000000E+00
  0.00000000E+00  0.00000000E+00  0.00000000E+00
  0.00000000E+00  0.00000000E+00  0.00000000E+00
  0.00000000E+00  0.00000000E+00  0.00000000E+00
  0.00000000E+00  0.00000000E+00  0.00000000E+00
  0.00000000E+00  0.00000000E+00  0.00000000E+00
  0.00000000E+00  0.00000000E+00  0.00000000E+00
  0.00000000E+00  0.00000000E+00  0.00000000E+00
  0.00000000E+00  0.00000000E+00  0.00000000E+00
  0.00000000E+00  0.00000000E+00  0.00000000E+00
  0.00000000E+00  0.00000000E+00  0.00000000E+00
  0.00000000E+00  0.00000000E+00  0.00000000E+00
  0.00000000E+00  0.00000000E+00  0.00000000E+00
  0.00000000E+00  0.00000000E+00  0.00000000E+00
  0.00000000E+00  0.00000000E+00  0.00000000E+00
  0.00000000E+00  0.00000000E+00  0.00000000E+00
  0.00000000E+00  0.00000000E+00  0.00000000E+00
  0.00000000E+00  0.00000000E+00  0.00000000E+00
  0.00000000E+00  0.00000000E+00  0.00000000E+00
  0.00000000E+00  0.00000000E+00  0.00000000E+00
  0.00000000E+00  0.00000000E+00  0.00000000E+00
  0.00000000E+00  0.00000000E+00  0.00000000E+00
  0.00000000E+00  0.00000000E+00  0.00000000E+00
  0.00000000E+00  0.00000000E+00  0.00000000E+00
  0.00000000E+00  0.00000000E+00  0.00000000E+00
  0.00000000E+00  0.00000000E+00  0.00000000E+00
  0.00000000E+00  0.00000000E+00  0.00000000E+00
  0.00000000E+00  0.00000000E+00  0.00000000E+00
  0.00000000E+00  0.00000000E+00  0.00000000E+00
  0.00000000E+00  0.00000000E+00  0.00000000E+00
  0.00000000E+00  0.00000000E+00  0.00000000E+00
  0.00000000E+00  0.00000000E+00  0.00000000E+00
  0.00000000E+00  0.00000000E+00  0.00000000E+00
  0.00000000E+00  0.00000000E+00  0.00000000E+00
