SYSTEM = TaN
ISMEAR = 1
SIGMA = 0.1
LREAL = Auto
IBRION = 2
ISIF = 2
ENCUT = 400
ISPIN = 2
NSW = 500
LPLANE = .TRUE.
NPAR = 8
NSIM = 4
PREC = normal
LASPH = .TRUE.
LORBIT = 11

EDIFFG = -0.02

LAECHG = .TRUE.
