Mo  S Cu                                
   1.00000000000000     
    15.9214998300000001    0.0000000000000000    0.0000000000000000
    -7.9622501300000001   13.7910221699999997    0.0000000000000000
     0.0000000000000000    0.0000000000000000   13.5821998300000004
   Mo   S    Ru
    25    50     4
Direct
  0.1297388880847521  0.0670437073925498  0.6777006285980605
  0.1291371563637611  0.2671397056524327  0.6756180611687554
  0.1295609028532070  0.4671037122842279  0.6762999255646491
  0.1296820927702029  0.6670984990871318  0.6774898436080008
  0.1296394274661097  0.8669880792959006  0.6778819861175549
  0.3301362066501170  0.0667249994038386  0.6748373767993954
  0.3284243243952147  0.2668291382395722  0.6689941479413335
  0.3289792511026377  0.4670696850396183  0.6729343839646518
  0.3296498693472714  0.6669309396361243  0.6766132476001729
  0.3297498825616429  0.8669622273449988  0.6767733343095870
  0.5298893879193969  0.0665441131849605  0.6751754831547174
  0.5285009552134667  0.2661282920570898  0.6686852158115499
  0.5302382477107486  0.4668043668787618  0.6686469195627254
  0.5299021787319589  0.6674754059139403  0.6766305976722649
  0.5295980364248010  0.8668457271802197  0.6772049381867618
  0.7297619819841259  0.0667830874631790  0.6770262743619924
  0.7301890415174697  0.2668733107225378  0.6746621377504596
  0.7298388767145312  0.4676015974224157  0.6759302274630059
  0.7292214795025416  0.6666735800486308  0.6771221570326702
  0.7297245378411361  0.8669322580653258  0.6781362213122577
  0.9295580023779166  0.0668773692506619  0.6779680081681363
  0.9295814561214115  0.2671131490552199  0.6769342848307573
  0.9296143306243749  0.4669545381297908  0.6770278807989456
  0.9297640521184078  0.6670785199691380  0.6780690670428058
  0.9295735581485260  0.8669521803204745  0.6788019739177642
  0.0622018688168069  0.1326632582668381  0.5623214361998450
  0.0636190630548583  0.1346570195290440  0.7921714920112848
  0.0621490747680866  0.3335804293673164  0.5612457143489493
  0.0633049593637622  0.3339056846750381  0.7915641077944713
  0.0628074006413897  0.5341380353334131  0.5619474327134810
  0.0630040147418498  0.5333998009928393  0.7920943057352829
  0.0627926965174552  0.7337877861115061  0.5628197388601563
  0.0632400407173606  0.7336706183437940  0.7930869649504473
  0.0623549859775991  0.9333239080226292  0.5633423814982095
  0.0635840590764190  0.9341298997229472  0.7933126465328186
  0.2604973172841909  0.1301091483484598  0.5589958163665614
  0.2674440615978284  0.1372895859068990  0.7905895539949483
  0.2602924507589464  0.3340516549074692  0.5573215218856333
  0.2661385005155594  0.3345513652835095  0.7893706644085015
  0.2620665671389801  0.5347689204689772  0.5599821528468070
  0.2633937900622172  0.5329766520885002  0.7905473458189576
  0.2626884285827700  0.7336000619120639  0.5619590481409560
  0.2633846357043694  0.7337398842580996  0.7920981741258970
  0.2619979386532876  0.9323443643432867  0.5614759699272440
  0.2640045290046089  0.9346197378423611  0.7915660793622195
  0.4621927264750525  0.1307959440929594  0.5580332215556325
  0.4647715585827186  0.1361960556733806  0.7900756126136770
  0.4621395312262351  0.3332146661193178  0.5532584035214683
  0.4582655790970662  0.3329417245739279  0.7836481132232507
  0.4632693460743198  0.5360130177318041  0.5583626989707682
  0.4617485601035867  0.5281275676248924  0.7893787694239904
  0.4633060168663974  0.7340705847103663  0.5617963503647303
  0.4627685019719863  0.7332201059237988  0.7920785968690893
  0.4628710085786096  0.9326217116719988  0.5612013748816125
  0.4632213183786504  0.9342303368863796  0.7916287082317979
  0.6635489005135682  0.1328563390896420  0.5604603850513001
  0.6627914462538129  0.1342411944811701  0.7906748695671908
  0.6654721204258394  0.3351298854125915  0.5590930143727775
  0.6598693283390205  0.3318991671716134  0.7907355276658805
  0.6663715975032645  0.5358606295515500  0.5586099907676925
  0.6592173485536890  0.5303143714906540  0.7908225868862218
  0.6634576148208211  0.7342479563053246  0.5623687874962471
  0.6624736003639811  0.7330363193844818  0.7926631446416081
  0.6632293525855530  0.9332192293613986  0.5624861651092559
  0.6627519729535294  0.9337780258288433  0.7926446286348110
  0.8631800828509029  0.1333168637043940  0.5623385537956977
  0.8628825200499648  0.1340064629474682  0.7924740956840921
  0.8640915392569681  0.3341969582584383  0.5610123590041667
  0.8621729287126740  0.3333418570787074  0.7916652939919828
  0.8640480016118630  0.5346327017046235  0.5619464753483072
  0.8622896189836524  0.5330581107338119  0.7921583667921226
  0.8633641333919115  0.7341389504794975  0.5632546054811343
  0.8620713575628329  0.7328124155850446  0.7932179052887918
  0.8630601579128125  0.9333810836620842  0.5633651686404448
  0.8628815535016656  0.9338309976307002  0.7936405364356247
  0.4168103411858510  0.2572908269927296  0.9385387182360958
  0.5809462068052795  0.2827536537382400  0.9370769475852541
  0.5509775525067084  0.4166540349078929  0.9862621556352735
  0.4142391369948228  0.4146571753027430  0.9240175923376341
 
  0.00000000E+00  0.00000000E+00  0.00000000E+00
  0.00000000E+00  0.00000000E+00  0.00000000E+00
  0.00000000E+00  0.00000000E+00  0.00000000E+00
  0.00000000E+00  0.00000000E+00  0.00000000E+00
  0.00000000E+00  0.00000000E+00  0.00000000E+00
  0.00000000E+00  0.00000000E+00  0.00000000E+00
  0.00000000E+00  0.00000000E+00  0.00000000E+00
  0.00000000E+00  0.00000000E+00  0.00000000E+00
  0.00000000E+00  0.00000000E+00  0.00000000E+00
  0.00000000E+00  0.00000000E+00  0.00000000E+00
  0.00000000E+00  0.00000000E+00  0.00000000E+00
  0.00000000E+00  0.00000000E+00  0.00000000E+00
  0.00000000E+00  0.00000000E+00  0.00000000E+00
  0.00000000E+00  0.00000000E+00  0.00000000E+00
  0.00000000E+00  0.00000000E+00  0.00000000E+00
  0.00000000E+00  0.00000000E+00  0.00000000E+00
  0.00000000E+00  0.00000000E+00  0.00000000E+00
  0.00000000E+00  0.00000000E+00  0.00000000E+00
  0.00000000E+00  0.00000000E+00  0.00000000E+00
  0.00000000E+00  0.00000000E+00  0.00000000E+00
  0.00000000E+00  0.00000000E+00  0.00000000E+00
  0.00000000E+00  0.00000000E+00  0.00000000E+00
  0.00000000E+00  0.00000000E+00  0.00000000E+00
  0.00000000E+00  0.00000000E+00  0.00000000E+00
  0.00000000E+00  0.00000000E+00  0.00000000E+00
  0.00000000E+00  0.00000000E+00  0.00000000E+00
  0.00000000E+00  0.00000000E+00  0.00000000E+00
  0.00000000E+00  0.00000000E+00  0.00000000E+00
  0.00000000E+00  0.00000000E+00  0.00000000E+00
  0.00000000E+00  0.00000000E+00  0.00000000E+00
  0.00000000E+00  0.00000000E+00  0.00000000E+00
  0.00000000E+00  0.00000000E+00  0.00000000E+00
  0.00000000E+00  0.00000000E+00  0.00000000E+00
  0.00000000E+00  0.00000000E+00  0.00000000E+00
  0.00000000E+00  0.00000000E+00  0.00000000E+00
  0.00000000E+00  0.00000000E+00  0.00000000E+00
  0.00000000E+00  0.00000000E+00  0.00000000E+00
  0.00000000E+00  0.00000000E+00  0.00000000E+00
  0.00000000E+00  0.00000000E+00  0.00000000E+00
  0.00000000E+00  0.00000000E+00  0.00000000E+00
  0.00000000E+00  0.00000000E+00  0.00000000E+00
  0.00000000E+00  0.00000000E+00  0.00000000E+00
  0.00000000E+00  0.00000000E+00  0.00000000E+00
  0.00000000E+00  0.00000000E+00  0.00000000E+00
  0.00000000E+00  0.00000000E+00  0.00000000E+00
  0.00000000E+00  0.00000000E+00  0.00000000E+00
  0.00000000E+00  0.00000000E+00  0.00000000E+00
  0.00000000E+00  0.00000000E+00  0.00000000E+00
  0.00000000E+00  0.00000000E+00  0.00000000E+00
  0.00000000E+00  0.00000000E+00  0.00000000E+00
  0.00000000E+00  0.00000000E+00  0.00000000E+00
  0.00000000E+00  0.00000000E+00  0.00000000E+00
  0.00000000E+00  0.00000000E+00  0.00000000E+00
  0.00000000E+00  0.00000000E+00  0.00000000E+00
  0.00000000E+00  0.00000000E+00  0.00000000E+00
  0.00000000E+00  0.00000000E+00  0.00000000E+00
  0.00000000E+00  0.00000000E+00  0.00000000E+00
  0.00000000E+00  0.00000000E+00  0.00000000E+00
  0.00000000E+00  0.00000000E+00  0.00000000E+00
  0.00000000E+00  0.00000000E+00  0.00000000E+00
  0.00000000E+00  0.00000000E+00  0.00000000E+00
  0.00000000E+00  0.00000000E+00  0.00000000E+00
  0.00000000E+00  0.00000000E+00  0.00000000E+00
  0.00000000E+00  0.00000000E+00  0.00000000E+00
  0.00000000E+00  0.00000000E+00  0.00000000E+00
  0.00000000E+00  0.00000000E+00  0.00000000E+00
  0.00000000E+00  0.00000000E+00  0.00000000E+00
  0.00000000E+00  0.00000000E+00  0.00000000E+00
  0.00000000E+00  0.00000000E+00  0.00000000E+00
  0.00000000E+00  0.00000000E+00  0.00000000E+00
  0.00000000E+00  0.00000000E+00  0.00000000E+00
  0.00000000E+00  0.00000000E+00  0.00000000E+00
  0.00000000E+00  0.00000000E+00  0.00000000E+00
  0.00000000E+00  0.00000000E+00  0.00000000E+00
  0.00000000E+00  0.00000000E+00  0.00000000E+00
  0.00000000E+00  0.00000000E+00  0.00000000E+00
  0.00000000E+00  0.00000000E+00  0.00000000E+00
  0.00000000E+00  0.00000000E+00  0.00000000E+00
  0.00000000E+00  0.00000000E+00  0.00000000E+00
