Ru  N  H  C                             
   1.00000000000000     
     8.1450004578000001    0.0000000000000000    0.0000000000000000
     0.0000000000000000   12.8549995421999999    0.0000000000000000
     0.0000000000000000    0.0000000000000000   28.0000000000000000
   Ru   N    H    C 
    73    18    37    10
Selective dynamics
Direct
  0.0000000000000000  0.0833299949999997  0.0559800010000018   F   F   F
  0.1666699889999990  0.0833299949999997  0.1399600080000027   F   F   F
  0.0006473281946263  0.0835125248111234  0.2226921150394910   T   T   T
  0.1682779732669360  0.0767565147127495  0.3107412914041441   T   T   T
  0.0000000000000000  0.2500000000000000  0.0000000000000000   F   F   F
  0.1666699889999990  0.2500000000000000  0.0839700020000009   F   F   F
  0.0005297781639465  0.2502334422069445  0.1673090514884211   T   T   T
  0.1671231663350213  0.2506300829032215  0.2524727001070737   T   T   T
  0.3333299960000033  0.0833299949999997  0.0559800010000018   F   F   F
  0.5000000000000000  0.0833299949999997  0.1399600080000027   F   F   F
  0.3336353424954655  0.0833375766793597  0.2226716640641608   T   T   T
  0.5025173109495853  0.0822245877164603  0.3059213821919675   T   T   T
  0.3333299960000033  0.2500000000000000  0.0000000000000000   F   F   F
  0.5000000000000000  0.2500000000000000  0.0839700020000009   F   F   F
  0.3326081687026030  0.2501638114077355  0.1670971224999760   T   T   T
  0.5011806155886644  0.2488538705915084  0.2510937771322839   T   T   T
  0.6666700039999967  0.0833299949999997  0.0559800010000018   F   F   F
  0.8333299960000033  0.0833299949999997  0.1399600080000027   F   F   F
  0.6673258140197452  0.0842602276819734  0.2217993090355460   T   T   T
  0.8327870341599597  0.0842909649086604  0.3061918013211068   T   T   T
  0.6666700039999967  0.2500000000000000  0.0000000000000000   F   F   F
  0.8333299960000033  0.2500000000000000  0.0839700020000009   F   F   F
  0.6668353962371271  0.2502958745598375  0.1667803117229022   T   T   T
  0.8327995607526777  0.2499177289762492  0.2512348658450664   T   T   T
  0.0000000000000000  0.4166700050000003  0.0559800010000018   F   F   F
  0.1666699889999990  0.4166700050000003  0.1399600080000027   F   F   F
  0.0004178843320587  0.4169573393533797  0.2227084803252405   T   T   T
  0.1671880060717100  0.4101167400692101  0.3106589119030598   T   T   T
  0.0000000000000000  0.5833299580000002  0.0000000000000000   F   F   F
  0.1666699889999990  0.5833299580000002  0.0839700020000009   F   F   F
  0.0004161510260996  0.5834395103727417  0.1671478506186747   T   T   T
  0.1666977695685110  0.5840484359550310  0.2525226838963817   T   T   T
  0.3333299960000033  0.4166700050000003  0.0559800010000018   F   F   F
  0.5000000000000000  0.4166700050000003  0.1399600080000027   F   F   F
  0.3333762805865225  0.4167795484683535  0.2226170760938276   T   T   T
  0.5018844269019728  0.4158374134005388  0.3058551331194808   T   T   T
  0.3333299960000033  0.5833299580000002  0.0000000000000000   F   F   F
  0.5000000000000000  0.5833299580000002  0.0839700020000009   F   F   F
  0.3325094230231071  0.5837293408975479  0.1671810227292310   T   T   T
  0.5015488614414331  0.5821559587548302  0.2508895863210775   T   T   T
  0.6666700039999967  0.4166700050000003  0.0559800010000018   F   F   F
  0.8333299960000033  0.4166700050000003  0.1399600080000027   F   F   F
  0.6672210983034145  0.4176297766328008  0.2217766292054311   T   T   T
  0.8319516292700891  0.4174860177752863  0.3062587141718229   T   T   T
  0.6666700039999967  0.5833299580000002  0.0000000000000000   F   F   F
  0.8333299960000033  0.5833299580000002  0.0839700020000009   F   F   F
  0.6666347014452012  0.5837347109044979  0.1668512190087256   T   T   T
  0.8326227509546362  0.5832934304736672  0.2512913689568952   T   T   T
  0.0000000000000000  0.7500000000000000  0.0559800010000018   F   F   F
  0.1666699889999990  0.7500000000000000  0.1399600080000027   F   F   F
  0.0005175427789416  0.7502788673632032  0.2225995932588634   T   T   T
  0.1677827587918264  0.7433546641815858  0.3107017286536620   T   T   T
  0.0000000000000000  0.9166700050000003  0.0000000000000000   F   F   F
  0.1666699889999990  0.9166700050000003  0.0839700020000009   F   F   F
  0.0004903277887806  0.9171323521916206  0.1671455346994725   T   T   T
  0.1669812981671778  0.9173862423482255  0.2525438435250160   T   T   T
  0.3333299960000033  0.7500000000000000  0.0559800010000018   F   F   F
  0.5000000000000000  0.7500000000000000  0.1399600080000027   F   F   F
  0.3335714027299306  0.7501161322629252  0.2227262866703555   T   T   T
  0.5024583274301789  0.7487089249196512  0.3057468694578777   T   T   T
  0.3333299960000033  0.9166700050000003  0.0000000000000000   F   F   F
  0.5000000000000000  0.9166700050000003  0.0839700020000009   F   F   F
  0.3326305742575775  0.9168681580950125  0.1671710182911422   T   T   T
  0.5016518890792402  0.9154804946854804  0.2510956699227381   T   T   T
  0.6666700039999967  0.7500000000000000  0.0559800010000018   F   F   F
  0.8333299960000033  0.7500000000000000  0.1399600080000027   F   F   F
  0.6674229613586989  0.7511376767543506  0.2217775637567652   T   T   T
  0.8328366762443431  0.7510890630769930  0.3062439373716727   T   T   T
  0.6666700039999967  0.9166700050000003  0.0000000000000000   F   F   F
  0.8333299960000033  0.9166700050000003  0.0839700020000009   F   F   F
  0.6666613566431869  0.9170757631273688  0.1668150135083322   T   T   T
  0.8329017734875952  0.9167361782525153  0.2512683516794378   T   T   T
  0.5199977142956158  0.7124145914304908  0.6969629301325828   T   T   T
  0.3386541857891466  0.1109420249952465  0.3650087085829071   T   T   T
  0.6718196874529961  0.0454799509867791  0.3648196680362926   T   T   T
  0.0000114068328723  0.1147191534411963  0.3647645653472177   T   T   T
  0.3374564925171928  0.4453886537238289  0.3647496905822131   T   T   T
  0.3387896572167665  0.7768973481559275  0.3649121735538077   T   T   T
  0.3393952145600238  0.2935523736051725  0.3066496778488181   T   T   T
  0.3393731411735448  0.6268144361877566  0.3062896354762996   T   T   T
  0.3396854757840560  0.9599948953882944  0.3065641284275807   T   T   T
  0.9928545397847136  0.2948665779882286  0.3066853731916573   T   T   T
  0.9932774951490529  0.6282197458347182  0.3069653459308438   T   T   T
  0.9934422239084920  0.9617084636623879  0.3069198534946925   T   T   T
  0.6653011498688771  0.2018607133081920  0.3067197944759703   T   T   T
  0.6650254832878033  0.5354216181851530  0.3066570663833522   T   T   T
  0.6651131064002376  0.8684568633420551  0.3067480410480594   T   T   T
  0.6690158634421598  0.3795583642557191  0.3647398683537356   T   T   T
  0.6719857558328740  0.7120804935393513  0.3647940700438268   T   T   T
  0.9986943777658490  0.4464713532094497  0.3648508485774297   T   T   T
 -0.0000355737877429  0.7810874689252644  0.3647841809511939   T   T   T
  0.3546355411172544  0.0500070379774501  0.3882806589947237   T   T   T
  0.3218209352806007  0.1753741905535531  0.3863020078333849   T   T   T
  0.6865725626518503  0.9803520214904340  0.3858478694553120   T   T   T
  0.6686687575774088  0.1065679940787679  0.3884395105541712   T   T   T
  0.9845509759302354  0.0548605393789093  0.3886527929801720   T   T   T
  0.0230458183682950  0.1793611285241775  0.3854331314539498   T   T   T
  0.3528668671705395  0.3847523493847396  0.3882036676184742   T   T   T
  0.3552277466239577  0.7157210050426409  0.3880266863960073   T   T   T
  0.3232375735277139  0.8411442234393722  0.3863844061183316   T   T   T
  0.3456240663608884  0.2459077410292325  0.3355966534452504   T   T   T
  0.3453965377004511  0.5792445342783460  0.3352711372772952   T   T   T
  0.3450406397075531  0.9122786770302079  0.3355544890269520   T   T   T
  0.9840463868560962  0.2471236517926647  0.3355611928508690   T   T   T
  0.9848003797482968  0.5804849243862654  0.3358411960563133   T   T   T
  0.9841569034182174  0.9140327594138281  0.3357585585336892   T   T   T
  0.6609631662075059  0.2519924651793679  0.3347315166429480   T   T   T
  0.6586214088230292  0.9185255214867635  0.3347657451011735   T   T   T
  0.6778410139588117  0.3143927993858542  0.3860087578093384   T   T   T
  0.6666235839221706  0.4409514921254188  0.3882148056383481   T   T   T
  0.6878523227922534  0.6471134639587612  0.3858241961035871   T   T   T
  0.6682111674655984  0.7731757504866708  0.3884111964568554   T   T   T
  0.9830334070795683  0.3860714007179801  0.3884384683790124   T   T   T
  0.0202807764696694  0.5108338045029347  0.3858259493399407   T   T   T
  0.9850638607977500  0.7210693676683968  0.3886014216651524   T   T   T
  0.0227291859028494  0.8456648922288137  0.3855416270808509   T   T   T
  0.3206059921281322  0.5100778905576819  0.3858883136317054   T   T   T
  0.3664280578669079  0.5634904296049870  0.6304774156950957   T   T   T
  0.6989746284040691  0.5774462481763785  0.6294267786305653   T   T   T
  0.7811641779760684  0.7819858356016808  0.6323703099578928   T   T   T
  0.4990425546319631  0.8947256685754724  0.6352293093397871   T   T   T
  0.2426064601671213  0.7594202830728775  0.6340701637552812   T   T   T
  0.3596750243304557  0.5657068840836017  0.7637124831422859   T   T   T
  0.6927276817299551  0.5697378150621145  0.7631208588638089   T   T   T
  0.7895652381457586  0.7716443496595912  0.7616727813975740   T   T   T
  0.5163624290597851  0.8924398631332784  0.7611108679054310   T   T   T
  0.2506248017822527  0.7651197443685519  0.7626354442372976   T   T   T
  0.6583813526069692  0.5856526670890821  0.3346205946168844   T   T   T
  0.3721201727276667  0.7387688438235760  0.6332494679810656   T   T   T
  0.4375418614165428  0.6350236974691574  0.6316568697846867   T   T   T
  0.6136483437798858  0.6424164569422617  0.6311205490808030   T   T   T
  0.6570871933937008  0.7507042757258643  0.6323929813020346   T   T   T
  0.5078004447922069  0.8103279101911451  0.6337021748051617   T   T   T
  0.3783253679306227  0.7405013985455031  0.7618439646412963   T   T   T
  0.4360345052478306  0.6350046440624527  0.7622106146300359   T   T   T
  0.6121813348416431  0.6371604290725980  0.7618792591059289   T   T   T
  0.6634392146451821  0.7439337775173469  0.7612842283955329   T   T   T
  0.5188841626515643  0.8079030842213453  0.7612567022843812   T   T   T
 
  0.00000000E+00  0.00000000E+00  0.00000000E+00
  0.00000000E+00  0.00000000E+00  0.00000000E+00
  0.00000000E+00  0.00000000E+00  0.00000000E+00
  0.00000000E+00  0.00000000E+00  0.00000000E+00
  0.00000000E+00  0.00000000E+00  0.00000000E+00
  0.00000000E+00  0.00000000E+00  0.00000000E+00
  0.00000000E+00  0.00000000E+00  0.00000000E+00
  0.00000000E+00  0.00000000E+00  0.00000000E+00
  0.00000000E+00  0.00000000E+00  0.00000000E+00
  0.00000000E+00  0.00000000E+00  0.00000000E+00
  0.00000000E+00  0.00000000E+00  0.00000000E+00
  0.00000000E+00  0.00000000E+00  0.00000000E+00
  0.00000000E+00  0.00000000E+00  0.00000000E+00
  0.00000000E+00  0.00000000E+00  0.00000000E+00
  0.00000000E+00  0.00000000E+00  0.00000000E+00
  0.00000000E+00  0.00000000E+00  0.00000000E+00
  0.00000000E+00  0.00000000E+00  0.00000000E+00
  0.00000000E+00  0.00000000E+00  0.00000000E+00
  0.00000000E+00  0.00000000E+00  0.00000000E+00
  0.00000000E+00  0.00000000E+00  0.00000000E+00
  0.00000000E+00  0.00000000E+00  0.00000000E+00
  0.00000000E+00  0.00000000E+00  0.00000000E+00
  0.00000000E+00  0.00000000E+00  0.00000000E+00
  0.00000000E+00  0.00000000E+00  0.00000000E+00
  0.00000000E+00  0.00000000E+00  0.00000000E+00
  0.00000000E+00  0.00000000E+00  0.00000000E+00
  0.00000000E+00  0.00000000E+00  0.00000000E+00
  0.00000000E+00  0.00000000E+00  0.00000000E+00
  0.00000000E+00  0.00000000E+00  0.00000000E+00
  0.00000000E+00  0.00000000E+00  0.00000000E+00
  0.00000000E+00  0.00000000E+00  0.00000000E+00
  0.00000000E+00  0.00000000E+00  0.00000000E+00
  0.00000000E+00  0.00000000E+00  0.00000000E+00
  0.00000000E+00  0.00000000E+00  0.00000000E+00
  0.00000000E+00  0.00000000E+00  0.00000000E+00
  0.00000000E+00  0.00000000E+00  0.00000000E+00
  0.00000000E+00  0.00000000E+00  0.00000000E+00
  0.00000000E+00  0.00000000E+00  0.00000000E+00
  0.00000000E+00  0.00000000E+00  0.00000000E+00
  0.00000000E+00  0.00000000E+00  0.00000000E+00
  0.00000000E+00  0.00000000E+00  0.00000000E+00
  0.00000000E+00  0.00000000E+00  0.00000000E+00
  0.00000000E+00  0.00000000E+00  0.00000000E+00
  0.00000000E+00  0.00000000E+00  0.00000000E+00
  0.00000000E+00  0.00000000E+00  0.00000000E+00
  0.00000000E+00  0.00000000E+00  0.00000000E+00
  0.00000000E+00  0.00000000E+00  0.00000000E+00
  0.00000000E+00  0.00000000E+00  0.00000000E+00
  0.00000000E+00  0.00000000E+00  0.00000000E+00
  0.00000000E+00  0.00000000E+00  0.00000000E+00
  0.00000000E+00  0.00000000E+00  0.00000000E+00
  0.00000000E+00  0.00000000E+00  0.00000000E+00
  0.00000000E+00  0.00000000E+00  0.00000000E+00
  0.00000000E+00  0.00000000E+00  0.00000000E+00
  0.00000000E+00  0.00000000E+00  0.00000000E+00
  0.00000000E+00  0.00000000E+00  0.00000000E+00
  0.00000000E+00  0.00000000E+00  0.00000000E+00
  0.00000000E+00  0.00000000E+00  0.00000000E+00
  0.00000000E+00  0.00000000E+00  0.00000000E+00
  0.00000000E+00  0.00000000E+00  0.00000000E+00
  0.00000000E+00  0.00000000E+00  0.00000000E+00
  0.00000000E+00  0.00000000E+00  0.00000000E+00
  0.00000000E+00  0.00000000E+00  0.00000000E+00
  0.00000000E+00  0.00000000E+00  0.00000000E+00
  0.00000000E+00  0.00000000E+00  0.00000000E+00
  0.00000000E+00  0.00000000E+00  0.00000000E+00
  0.00000000E+00  0.00000000E+00  0.00000000E+00
  0.00000000E+00  0.00000000E+00  0.00000000E+00
  0.00000000E+00  0.00000000E+00  0.00000000E+00
  0.00000000E+00  0.00000000E+00  0.00000000E+00
  0.00000000E+00  0.00000000E+00  0.00000000E+00
  0.00000000E+00  0.00000000E+00  0.00000000E+00
  0.00000000E+00  0.00000000E+00  0.00000000E+00
  0.00000000E+00  0.00000000E+00  0.00000000E+00
  0.00000000E+00  0.00000000E+00  0.00000000E+00
  0.00000000E+00  0.00000000E+00  0.00000000E+00
  0.00000000E+00  0.00000000E+00  0.00000000E+00
  0.00000000E+00  0.00000000E+00  0.00000000E+00
  0.00000000E+00  0.00000000E+00  0.00000000E+00
  0.00000000E+00  0.00000000E+00  0.00000000E+00
  0.00000000E+00  0.00000000E+00  0.00000000E+00
  0.00000000E+00  0.00000000E+00  0.00000000E+00
  0.00000000E+00  0.00000000E+00  0.00000000E+00
  0.00000000E+00  0.00000000E+00  0.00000000E+00
  0.00000000E+00  0.00000000E+00  0.00000000E+00
  0.00000000E+00  0.00000000E+00  0.00000000E+00
  0.00000000E+00  0.00000000E+00  0.00000000E+00
  0.00000000E+00  0.00000000E+00  0.00000000E+00
  0.00000000E+00  0.00000000E+00  0.00000000E+00
  0.00000000E+00  0.00000000E+00  0.00000000E+00
  0.00000000E+00  0.00000000E+00  0.00000000E+00
  0.00000000E+00  0.00000000E+00  0.00000000E+00
  0.00000000E+00  0.00000000E+00  0.00000000E+00
  0.00000000E+00  0.00000000E+00  0.00000000E+00
  0.00000000E+00  0.00000000E+00  0.00000000E+00
  0.00000000E+00  0.00000000E+00  0.00000000E+00
  0.00000000E+00  0.00000000E+00  0.00000000E+00
  0.00000000E+00  0.00000000E+00  0.00000000E+00
  0.00000000E+00  0.00000000E+00  0.00000000E+00
  0.00000000E+00  0.00000000E+00  0.00000000E+00
  0.00000000E+00  0.00000000E+00  0.00000000E+00
  0.00000000E+00  0.00000000E+00  0.00000000E+00
  0.00000000E+00  0.00000000E+00  0.00000000E+00
  0.00000000E+00  0.00000000E+00  0.00000000E+00
  0.00000000E+00  0.00000000E+00  0.00000000E+00
  0.00000000E+00  0.00000000E+00  0.00000000E+00
  0.00000000E+00  0.00000000E+00  0.00000000E+00
  0.00000000E+00  0.00000000E+00  0.00000000E+00
  0.00000000E+00  0.00000000E+00  0.00000000E+00
  0.00000000E+00  0.00000000E+00  0.00000000E+00
  0.00000000E+00  0.00000000E+00  0.00000000E+00
  0.00000000E+00  0.00000000E+00  0.00000000E+00
  0.00000000E+00  0.00000000E+00  0.00000000E+00
  0.00000000E+00  0.00000000E+00  0.00000000E+00
  0.00000000E+00  0.00000000E+00  0.00000000E+00
  0.00000000E+00  0.00000000E+00  0.00000000E+00
  0.00000000E+00  0.00000000E+00  0.00000000E+00
  0.00000000E+00  0.00000000E+00  0.00000000E+00
  0.00000000E+00  0.00000000E+00  0.00000000E+00
  0.00000000E+00  0.00000000E+00  0.00000000E+00
  0.00000000E+00  0.00000000E+00  0.00000000E+00
  0.00000000E+00  0.00000000E+00  0.00000000E+00
  0.00000000E+00  0.00000000E+00  0.00000000E+00
  0.00000000E+00  0.00000000E+00  0.00000000E+00
  0.00000000E+00  0.00000000E+00  0.00000000E+00
  0.00000000E+00  0.00000000E+00  0.00000000E+00
  0.00000000E+00  0.00000000E+00  0.00000000E+00
  0.00000000E+00  0.00000000E+00  0.00000000E+00
  0.00000000E+00  0.00000000E+00  0.00000000E+00
  0.00000000E+00  0.00000000E+00  0.00000000E+00
  0.00000000E+00  0.00000000E+00  0.00000000E+00
  0.00000000E+00  0.00000000E+00  0.00000000E+00
  0.00000000E+00  0.00000000E+00  0.00000000E+00
  0.00000000E+00  0.00000000E+00  0.00000000E+00
  0.00000000E+00  0.00000000E+00  0.00000000E+00
  0.00000000E+00  0.00000000E+00  0.00000000E+00
  0.00000000E+00  0.00000000E+00  0.00000000E+00
  0.00000000E+00  0.00000000E+00  0.00000000E+00
