Ta  N Co Cu                             
   1.00000000000000     
    18.1096308199999996    0.0000000000000000    0.0000000000000000
     0.0000000000000000   23.3551997799999995    0.0000000000000000
     0.0000000000000000    0.0000000000000000   30.4818171199999988
   Ta   N    Co   Cu
   216   240    24     1
Direct
  0.9976282539533869  0.0009574800895322  0.1983266949927440
  0.3314870392779383  0.0632707912100088  0.2033407337948248
  0.1637017056342316  0.0633984663357907  0.2033981506957971
  0.2472690334659333  0.1256732671173424  0.2789746031120046
  0.0803197947561003  0.0633195698588835  0.2847451317819818
  0.4142549851983404  0.0632537587450628  0.2847374835590486
  0.9972003759758437  0.1257095002314372  0.3703564333102349
  0.3285516375148489  0.0627849099503734  0.3694473638166542
  0.1660250514872459  0.0628694971056873  0.3694040731780461
  0.2475295272131248  0.1265233697919541  0.4600880317189606
  0.0803089768787046  0.0622808809459912  0.4538897580084651
  0.4146596163611562  0.0619298316467507  0.4535852653052999
  0.9988951276598783  0.1305011882849243  0.5423728245598411
  0.3369799819210826  0.0642416962695620  0.5467097157707386
  0.1586299714234229  0.0656751637792610  0.5474761735476292
  0.9977201509719862  0.1261320666804266  0.1984985115321365
  0.3319149923079223  0.1884181826315938  0.2034022342282427
  0.1632991266808759  0.1885352387082690  0.2034625483109593
  0.2473146780234430  0.2507302496355379  0.2791267101393160
  0.0802403855693754  0.1882251880264505  0.2849876392660349
  0.4142313666813351  0.1881598471862844  0.2850889715463722
  0.9966936295558853  0.2504408926449457  0.3701787331241064
  0.3288467316137655  0.1879791061538896  0.3698709036194927
  0.1655924046055688  0.1880443618738070  0.3697158323415266
  0.2477799064318447  0.2487345580485396  0.4611838141207301
  0.0813298448428625  0.1876753752168909  0.4549376664884406
  0.4133506462757524  0.1873177246521109  0.4550399607156947
  0.0022310858868479  0.2529342108577666  0.5414876022006965
  0.9976527513399702  0.2506363796832858  0.1986523304745802
  0.3312459417386151  0.3133047568012515  0.2036666183048865
  0.1638664838343189  0.3133429129158927  0.2037386000971750
  0.2474969549952277  0.3757849014665595  0.2794441266663625
  0.0802900561488116  0.3132727360189236  0.2849466629769424
  0.4139000374831383  0.3132268828364531  0.2851339596983777
  0.9964451256548443  0.3758255802816990  0.3701763901184165
  0.3286803099287781  0.3132198931693253  0.3701113838125778
  0.1655095041042998  0.3132225979948231  0.3694259329554086
  0.2479229686017277  0.3760247960386423  0.4629322288914892
  0.0787342648148766  0.3131367875798716  0.4528370821176395
  0.4136378699381709  0.3127193002310662  0.4542737788098705
  0.0154125303512060  0.3923187903187610  0.5462103818608313
  0.9977695909109059  0.3758913004755158  0.1987020012713074
  0.3315543338143456  0.4381700224316631  0.2036656476768641
  0.1633565893826372  0.4381536315789987  0.2036197155998281
  0.2472802644549148  0.0007676022204492  0.2787797772402740
  0.0802265329923415  0.4382635203410317  0.2851882350728800
  0.4139641859093786  0.4382634585461389  0.2854640486947275
  0.9974491471051579  0.0007134164775735  0.3696907403725191
  0.3286817804166446  0.4383764209797150  0.3712720089300348
  0.1664603976656522  0.4383673379885735  0.3700728621975244
  0.2476844935231099  0.9998530252513405  0.4629310118723353
  0.0796689287132253  0.4386047141341862  0.4539375997093060
  0.4109814337687112  0.4379945606405471  0.4574077453704035
  0.9989131750258053  0.9992651739905156  0.5438995534668365
  0.9976835655027543  0.5005794903451246  0.1985555084774830
  0.3315011974508764  0.5631481793451414  0.2033938751946422
  0.1633756344935691  0.5631779442624136  0.2033155204864840
  0.2476622763122762  0.6256602757769087  0.2786595164021364
  0.0802562876745441  0.5631794335595188  0.2847636802053302
  0.4139630676331336  0.5631621987388939  0.2850490670390897
  0.9959009034152686  0.6257607853305345  0.3691431725343577
  0.3287137869594119  0.5630002891710788  0.3706630016909429
  0.1665390384566194  0.5631716350906117  0.3693071246726660
  0.2472344445521415  0.6260951595995863  0.4613524408631804
  0.0783285736497419  0.5640666954499949  0.4521873460393593
  0.4127220757060428  0.5630829690800283  0.4570799661526124
  0.0013486509308436  0.6224962366388240  0.5394831552315367
  0.9976432107036501  0.6253725501196143  0.1981841766221351
  0.3310655112592613  0.6882146696857703  0.2030734123519835
  0.1639334432839235  0.6883156759004265  0.2030531920607288
  0.2474187246094317  0.7508786177421811  0.2784112178690918
  0.0803106710174291  0.6883269505623986  0.2841991118601825
  0.4141198890887239  0.6882635153040582  0.2844571908997366
  0.9967919511889036  0.7512920433107766  0.3694384916460720
  0.3287307055093294  0.6882024308807999  0.3691360350773465
  0.1657357975841762  0.6883993256602707  0.3683571447829621
  0.2480336414248399  0.7513388000506538  0.4606983678640120
  0.0792023476534780  0.6885285896068893  0.4512559821648665
  0.4144706222402235  0.6883511551498671  0.4529290920017459
  0.9982444993034392  0.7461460891457676  0.5403484420922879
  0.9975052924478334  0.7510771904065265  0.1980226853287590
  0.3318243558532714  0.8132127948453203  0.2029535803517746
  0.1632187998588179  0.8132793111902217  0.2029803676015405
  0.2473173470672734  0.8758515343086231  0.2787142778886675
  0.0802191907331533  0.8134274809158555  0.2844945973847004
  0.4143036811898924  0.8133748085217292  0.2845615754790245
  0.9974171428032435  0.8757182415563847  0.3700934837917984
  0.3289514450598361  0.8132221811420166  0.3693460934590291
  0.1658765329357834  0.8133548894958054  0.3692448599377443
  0.2480762327855288  0.8730896629968612  0.4604505314685241
  0.0816646681487185  0.8131273160547110  0.4549041015024642
  0.4136170877966450  0.8131897336676701  0.4547590586221588
  0.9986512693334433  0.8712406044422991  0.5417916751486942
  0.9976792272174180  0.8756635160229465  0.1981842109290923
  0.3314599656867401  0.9385358470331155  0.2031950661726469
  0.1636556204177495  0.9385924898169051  0.2032683186063124
  0.2476794675304674  0.5007104085299545  0.2794611784575309
  0.0803134009088780  0.9383010401404661  0.2846015540123474
  0.4143164984745056  0.9382613314270856  0.2845837926410155
  0.9963794982508674  0.5007608669757815  0.3706372113378507
  0.3286390608800787  0.9381953635899762  0.3694658018657648
  0.1661047155381681  0.9382830442369112  0.3693957284466123
  0.2483220629196055  0.5008424918990357  0.4671762171511205
  0.0805971311024507  0.9385820531381626  0.4540088811139000
  0.4145336865974016  0.9383696839510804  0.4539906733527062
  0.0944456827941735  0.5169276524335444  0.5480415165974435
  0.3379530106360704  0.9314705064920545  0.5484337022294241
  0.1589503199510673  0.9324366940319777  0.5480208547659871
  0.4974119523063365  0.0009280345939189  0.1982002475632783
  0.8316086913650054  0.0633973299359312  0.2032832302488004
  0.6636831598687323  0.0634322112963446  0.2032458093987870
  0.7474244643812611  0.1257191011016019  0.2787811095364461
  0.5802205418523272  0.0633017586324982  0.2845468152468626
  0.9144707986268514  0.0633501120601068  0.2847161900870248
  0.4972182895211361  0.1254502539178048  0.3702268062341005
  0.8287584810375819  0.0630857673069585  0.3694571549238361
  0.6661783836235458  0.0630081075975184  0.3692289512895428
  0.7481317446473810  0.1275480360574619  0.4603218192788745
  0.5805601762758528  0.0621818824535438  0.4538070816752366
  0.9145830696291597  0.0625635752422937  0.4538462188547143
  0.4992336506693249  0.1286300681241528  0.5418466609248469
  0.8380036815205756  0.0670401731874435  0.5477123768095424
  0.6593427606907056  0.0666535172267686  0.5473709378751863
  0.4971898987654839  0.1260918318563427  0.1983787534501076
  0.8320584882398236  0.1883514713964018  0.2032900146087613
  0.6632280127861776  0.1882994902666937  0.2032073019866161
  0.7474140754838530  0.2505537475317681  0.2787632174342463
  0.5800548453881476  0.1881490297449915  0.2847002035181987
  0.9143702420723656  0.1882279828046549  0.2849829929587742
  0.4965652975242847  0.2501334160763093  0.3700946662799254
  0.8290906398081930  0.1882005309630301  0.3697942481584349
  0.6657831200259352  0.1879438304863754  0.3693954595687430
  0.7478275806706804  0.2497867749848268  0.4607436536142586
  0.5814612365469713  0.1875109849025094  0.4549449431578836
  0.9132151660683903  0.1881274807734385  0.4553580227024838
  0.5009019203909730  0.2507217392778074  0.5418022057773939
  0.4969876433001943  0.2505769410383394  0.1984992268376189
  0.8313240928180079  0.3132195262071846  0.2033896756566875
  0.6638455037648470  0.3133419033134857  0.2032591920451026
  0.7474838764401213  0.3755790916908595  0.2785210858828648
  0.5800094158190774  0.3131114175443770  0.2843836299965403
  0.9142432651828543  0.3132386265161742  0.2848874671522168
  0.4956803620907166  0.3755971284331494  0.3699676151487239
  0.8287508908146393  0.3131842529781110  0.3696611599802608
  0.6655029457362929  0.3128148611831989  0.3686743685205940
  0.7461059186864887  0.3769526683962994  0.4609582993737433
  0.5795300075968157  0.3126057714073980  0.4520723567924634
  0.9140282502556545  0.3138410946639354  0.4542326426746897
  0.5057521586058513  0.3828291553785945  0.5435327304596669
  0.4965659435971546  0.3759386954520494  0.1985447541140459
  0.8316788523546066  0.4379819809302390  0.2031968385257983
  0.6633393323131713  0.4380232216040909  0.2030537174986051
  0.7474533630365272  0.0008707212429968  0.2786338993111244
  0.5797898793867233  0.4381688262737455  0.2844351998035179
  0.9142363599286085  0.4382598471292880  0.2849206794136094
  0.4973746812978703  0.0005673583422521  0.3695530359338122
  0.8278213880829313  0.4382843128462284  0.3697124806171530
  0.6657637332294328  0.4380630625521960  0.3685029063967349
  0.7481798710988841  0.0006492770536326  0.4627397491496694
  0.5803002387535869  0.4371669101582043  0.4521416747445812
  0.9127133774896024  0.4390327476586435  0.4550664907753372
  0.4986341281311510  0.9997421363391652  0.5439630888002256
  0.4966573144304363  0.5005640601007357  0.1984400577846728
  0.8316575097175445  0.5632700730511075  0.2028802626325472
  0.6633943965875346  0.5632308590059054  0.2028114854789749
  0.7474559020809508  0.6258231640851264  0.2778854863577251
  0.5798668864235239  0.5632097293331384  0.2841287989944945
  0.9140847526835287  0.5631235155228680  0.2845540498956467
  0.4961889600415788  0.6257440613113872  0.3693650856438566
  0.8276675758739600  0.5630079274925706  0.3692943303544425
  0.6659643000177056  0.5631553842297166  0.3681373468221238
  0.7453431013918674  0.6242098383544317  0.4605452099096965
  0.5809097556924172  0.5638918746622466  0.4516188918535349
  0.9116461176140049  0.5630017151810165  0.4543274890008533
  0.5199908984237922  0.6183130702706379  0.5383299763729639
  0.4966977607468266  0.6254059256360520  0.1981264473461479
  0.8312074002253027  0.6882396151211694  0.2027483913464394
  0.6640062308064003  0.6882413692714167  0.2027413164716023
  0.7474495896239688  0.7510153676010987  0.2780005117551099
  0.5801100444045559  0.6883892939926710  0.2837865026132960
  0.9141762003477680  0.6883044387873554  0.2841449314454749
  0.4968103359662877  0.7512564464580507  0.3693805527928831
  0.8284272219910278  0.6883714419315154  0.3685863271653389
  0.6658216763615101  0.6885921418220136  0.3678078890217691
  0.7479096631708799  0.7518509892684335  0.4598061703779877
  0.5806650038844197  0.6889304041443296  0.4510960263239383
  0.9129800800977961  0.6884324892432545  0.4524400981147636
  0.5028030957529452  0.7467214711056798  0.5402143016702468
  0.4970562613739560  0.7511142534535367  0.1979772688738706
  0.8320176238703070  0.8133986320566819  0.2027562183288936
  0.6633294596911128  0.8134827126089945  0.2027391321155250
  0.7474516200370829  0.8760368327566184  0.2783539341759678
  0.5800956610927841  0.8134807140735134  0.2841635246666314
  0.9144360437295660  0.8134210658268159  0.2844415107120142
  0.4971205421580507  0.8757723495028813  0.3699549004457978
  0.8290316286919648  0.8134457919621312  0.3690540583207422
  0.6659055474253179  0.8136415229490197  0.3687055283607990
  0.7482174690642438  0.8740351907507886  0.4597143725501738
  0.5817929348003332  0.8138665744121454  0.4541823781135150
  0.9130323985191993  0.8134367363890149  0.4546911089696195
  0.4983391042868917  0.8702167289695879  0.5420359490684987
  0.4971717148337618  0.8757223221852968  0.1980745785335642
  0.8316017281781143  0.9385359131102362  0.2031149527888587
  0.6637172220952294  0.9385947044878904  0.2030808395559873
  0.7473929791584624  0.5006457809925919  0.2783915705949482
  0.5802239552251578  0.9383602189703808  0.2843430903587389
  0.9144788976273901  0.9383508710899662  0.2845316807651130
  0.4959162315881969  0.5006277161659014  0.3703691527382489
  0.8287611177451026  0.9385187493871925  0.3692055533517689
  0.6661901358057065  0.9385336699853681  0.3689968848317164
  0.7436488478062770  0.5004384858102640  0.4639393845678512
  0.5805306061904147  0.9387955357307618  0.4536105599087605
  0.9147228459929408  0.9387785268981617  0.4536419106182592
  0.5633991154682576  0.5011368113328842  0.5373006237424036
  0.8379575258204355  0.9339659798270432  0.5472748569405681
  0.6592715010992407  0.9341395573294164  0.5470441972213607
  0.4028840481535383  0.0008404473743866  0.2328991798054361
  0.2475777042275809  0.0009307772858378  0.1989841221505202
  0.0921894493073907  0.0009107698643191  0.2329178295993586
  0.1526377355690514  0.1256056861910295  0.3168619562086974
  0.9973197775966440  0.1257291482269238  0.3037249176210821
  0.3418548607095317  0.1255319786173885  0.3169178225648182
  0.3980440167088801  0.1251787117693581  0.4023944008077365
  0.2472002382473875  0.1254220660858607  0.3903235667706042
  0.0964274534354530  0.1254288210115462  0.4024263041444698
  0.1459429582664242  0.1216053362977476  0.4887331762551952
  0.9974861778522310  0.1252084631496970  0.4739763764185199
  0.3490961741127947  0.1209773003882049  0.4887245180118356
  0.4036595692543941  0.1256671396326325  0.5708401021081286
  0.2483301878921012  0.0883443360277241  0.5765698211677943
  0.0944152642093314  0.1287456637368933  0.5715239240519026
  0.4027368343131812  0.1258370319697448  0.2332604104612130
  0.2476395456788083  0.1260157961709609  0.2007626332746995
  0.0922795962616405  0.1258837937454018  0.2332147238473183
  0.1526700788684252  0.2505702782518995  0.3168158575471054
  0.9972244635475391  0.2506432720731837  0.3036454083365285
  0.3418039750795074  0.2505532799655370  0.3170969942962074
  0.3979328157780628  0.2496075666048938  0.4026265439209311
  0.2470181378516898  0.2504569669845154  0.3910160970391843
  0.0958242672933025  0.2497950703105900  0.4019331326661018
  0.1446725637566715  0.2524427179178943  0.4863559820746346
  0.9974461766140976  0.2501788332196355  0.4741562074366144
  0.3500884292668829  0.2511824346934191  0.4878389807501478
  0.3986648251835732  0.2441630073216530  0.5656977924769961
  0.2475797919970404  0.1880917341722323  0.5122253942040302
  0.1044787049173195  0.2515774829364332  0.5652113958628533
  0.4025817382443577  0.2507369166485276  0.2334135623599778
  0.2476331204334841  0.2506686846133022  0.2000894231363901
  0.0922006057030629  0.2507718250601272  0.2332929109102366
  0.1528786421001129  0.3759024688384187  0.3169583155194289
  0.9971009474841992  0.3757317117260897  0.3035786349637419
  0.3417143544205103  0.3759590794277443  0.3176016337133873
  0.3974314408923192  0.3760841385811915  0.4033296839890497
  0.2470589494265880  0.3757675457109286  0.3922866620345431
  0.0956585149387905  0.3760765126427472  0.4015049075810424
  0.1409309770478586  0.3711481231252876  0.4851913612643273
  0.9973836860928671  0.3796163773017227  0.4761325428233363
  0.3519810913148831  0.3720003689384939  0.4894109980992454
  0.4186558629560082  0.3552114441202789  0.5757305600923530
  0.2385892567028947  0.4367180413978531  0.5107839273655870
  0.1267472064355459  0.3777000069406284  0.5692974585902206
  0.4022753194004167  0.3757814108363959  0.2335963810004387
  0.2475424509641613  0.3758803365777439  0.1999636251969363
  0.0922393845201910  0.3758219722240383  0.2333712840728879
  0.1525217526724205  0.0006788451954094  0.3166006506370849
  0.9973937636028651  0.0008036138440488  0.3031867046663947
  0.3420478284250095  0.0006119912726632  0.3165958641204227
  0.3986495446439591  0.0002651831502050  0.4020127515911298
  0.2473207828937376  0.0004289705328802  0.3905771206158093
  0.0961452062304744  0.0004884200963957  0.4020597442419174
  0.1421597854407111  0.0006042985941619  0.4877111215495447
  0.9975048209016819  0.0005040757518557  0.4747038073694654
  0.3530135000450940  0.0002503752800251  0.4877080360537178
  0.4018448116257360  0.9986710500144653  0.5733256320771929
  0.2477251327219321  0.9980964039950351  0.5351083578564086
  0.0952587855364726  0.9993586014473763  0.5739466346757069
  0.4022871414533427  0.5006099303070641  0.2335943226289174
  0.2474462404940354  0.5006333576478426  0.2009513335876321
  0.0922076946935206  0.5006072858240671  0.2333048956040429
  0.1530051943352646  0.6256376199136398  0.3160420456994544
  0.9970334773857203  0.6257745385675051  0.3027768716460599
  0.3417841148602676  0.6254729607991933  0.3168208851426542
  0.3977115788287264  0.6253763786683422  0.4020961722969858
  0.2471923104371427  0.6257164727940250  0.3911336711990074
  0.0956438131730124  0.6258508480722256  0.3997792420286501
  0.1415415674207807  0.6293237135099119  0.4827021322795417
  0.9952649006834164  0.6252118390880526  0.4722558572461750
  0.3509042921542118  0.6303324418843488  0.4867467877683040
  0.4189605233927267  0.6104777024653600  0.5609845365087907
  0.2453833854546659  0.5674287476139597  0.5143750243977507
  0.1023139456045570  0.6074921071759434  0.5645849687610749
  0.4023381254952696  0.6256456722624293  0.2330179031433772
  0.2474450515907307  0.6255340597745800  0.1991607719677475
  0.0922755712036718  0.6256537309149479  0.2327176821853811
  0.1527319570024446  0.7511011963416223  0.3160708532899221
  0.9972227944303995  0.7509491122611109  0.3029441596361977
  0.3419331899732043  0.7509209808007000  0.3164199389985143
  0.3981318192534360  0.7516308579847433  0.4018557234844380
  0.2471607134567435  0.7507883759597505  0.3903587502346397
  0.0961959250185913  0.7519523971512427  0.4011749626984340
  0.1451007626697844  0.7471475586727010  0.4866740974382893
  0.9968956472816046  0.7513716604475178  0.4727145672229369
  0.3507485049565915  0.7486167387514939  0.4872920788979158
  0.4025376093147841  0.7452837210698107  0.5646934529661038
  0.2480058864477570  0.8108277202468130  0.5122799821818802
  0.1008523690396146  0.7444612218157545  0.5643522717462020
  0.4025650291622824  0.7508290412143737  0.2327994237066449
  0.2475321319145607  0.7510224550518458  0.1992364263051840
  0.0921247837375319  0.7509298572119434  0.2326233916591889
  0.1526662472257740  0.8758786011999931  0.3165942321346762
  0.9973400854623620  0.8758665832318187  0.3034235874665399
  0.3419716517222255  0.8758520906251093  0.3166501572487093
  0.3980866534991065  0.8757335493140630  0.4024260902260153
  0.2473547629775084  0.8755597273579738  0.3903535914171812
  0.0966212204591059  0.8757113850205585  0.4023886261023506
  0.1462974823775056  0.8786889689193274  0.4888746077902653
  0.9976072928292510  0.8757086074731006  0.4735342161595000
  0.3496799302485414  0.8779827650309997  0.4894193728935079
  0.4038560750587266  0.8702502099387246  0.5722240026703247
  0.2480935993951547  0.9090829371464437  0.5776413421574560
  0.0937349017925513  0.8694476828936999  0.5716380251654911
  0.4026647666521583  0.8758507855847313  0.2329054305598035
  0.2475700090155399  0.8758087721946310  0.2006705781616134
  0.0922734055581955  0.8759166783477923  0.2328914349594697
  0.1529956353284305  0.5006587426301436  0.3168817819842715
  0.9971358317308088  0.5007464046311370  0.3038673820025437
  0.3419781376275424  0.5006214870628511  0.3178096475379846
  0.3974456097182397  0.5006756386778761  0.4039950789531304
  0.2473775390711808  0.5007807794668224  0.3931024740884936
  0.0968411548331503  0.5009225182171448  0.4011089682437046
  0.1366934576887502  0.5027889311497944  0.4871873864683494
  0.9967181473295170  0.5011211087630656  0.4696591937425296
  0.3569607902778813  0.5019602707512192  0.4917331621596119
  0.4702377467476353  0.4641820383127921  0.5618197950494519
  0.2959859069408139  0.4252186595719820  0.5916754376193438
  0.1843118752523552  0.5054421317188158  0.5826239418750063
  0.9029817846960881  0.0009142800641229  0.2328792504333208
  0.7476909774948908  0.0009934035040828  0.1993117732280467
  0.5920711893698751  0.0009214738847376  0.2326905335777880
  0.6526609032592106  0.1255841301897362  0.3166053979280008
  0.4972499865907452  0.1256242458945138  0.3036093948384817
  0.8420008362045053  0.1256947195439579  0.3168542814600528
  0.8980265932769314  0.1256642423984431  0.4026663238959998
  0.7474005714640697  0.1256893167440154  0.3903651362337257
  0.5966047721020686  0.1253158623106572  0.4022795488817152
  0.6463561689673725  0.1218052330977955  0.4886491583554289
  0.4976553867675619  0.1247379956202366  0.4734983154228658
  0.8495381317456818  0.1224007128882647  0.4893072200696054
  0.9038081854879252  0.1287904665484803  0.5717421421168609
  0.7485798772778125  0.0900042782319517  0.5770107054744003
  0.5945850974848668  0.1293249023407341  0.5713830298363689
  0.9029803655356545  0.1258935563941037  0.2331490782443595
  0.7477104667689431  0.1260077367534365  0.2001921780504787
  0.5919706936657434  0.1258425535020322  0.2329242516156143
  0.6525689411824871  0.2502971337710562  0.3162907955711418
  0.4971339815535387  0.2505801326034387  0.3035395336152860
  0.8419374633277883  0.2505990580252799  0.3168546621586259
  0.8980785837388652  0.2501755322700703  0.4026554516870888
  0.7471302149819081  0.2504855327972066  0.3905605074362057
  0.5959257759129244  0.2492796397227579  0.4015873328359376
  0.6448923859813931  0.2528149721491033  0.4864457190639087
  0.4975502626739754  0.2492245641712856  0.4741185267182786
  0.8501145155876060  0.2528061462018769  0.4878019562504861
  0.9009993109963474  0.2515693247485373  0.5656824182027620
  0.7475098879201383  0.1895512648331206  0.5121822396571716
  0.6028078299946245  0.2524051520959461  0.5650003008476503
  0.9028928396051654  0.2507490834963022  0.2332091799244083
  0.7475599732113238  0.2505593396113426  0.2002257688124658
  0.5918860359556248  0.2506408422234045  0.2327988560190377
  0.6527316302171968  0.3755021901332753  0.3158553053342246
  0.4969725914017147  0.3756110555460808  0.3034123300717013
  0.8417036229220685  0.3757098158543073  0.3168029095372660
  0.8974166469562661  0.3762513408219306  0.4025569781100131
  0.7466718673088835  0.3757260311240955  0.3910210992466361
  0.5957523615257685  0.3751057966301303  0.4000837843034972
  0.6424994770897712  0.3717222307660109  0.4839727767211741
  0.4966788762225249  0.3767543422526529  0.4745849235410091
  0.8489974782927590  0.3726510108752450  0.4873900643307820
  0.9097509176508822  0.3800642375671970  0.5627596245015525
  0.7462015060139393  0.4375566213096533  0.5167770952690631
  0.6082379313243038  0.3789385740953222  0.5679013970463700
  0.9027817467341350  0.3756982926517409  0.2330866875282211
  0.7475773182693359  0.3757490278412732  0.1986828038846511
  0.5916896736534412  0.3756733101796925  0.2325838582517150
  0.6525624514554806  0.0008310843308195  0.3163341392876688
  0.4973078601480907  0.0007525840914013  0.3030754134220999
  0.8422164763240900  0.0008767924235329  0.3165161765681788
  0.8986827736658256  0.0007321868925843  0.4020198399890802
  0.7474157272056772  0.0007596497384625  0.3904106041011843
  0.5962246443481618  0.0006476742277925  0.4018484712413724
  0.6426513902415394  0.0004558436667566  0.4875459503483697
  0.4975904408997991  0.0002370788090928  0.4747356978129034
  0.8533337869886779  0.0006767594066943  0.4877474739797165
  0.9023491138815842  0.0004217875433667  0.5733457245934801
  0.7483785727498216  0.0004224457492654  0.5351109610947091
  0.5953759827072318  0.0001897661096990  0.5735726244413613
  0.9027088939914734  0.5005819869856367  0.2329934315504900
  0.7475799012328466  0.5005985618530531  0.2005298297482696
  0.5917130664843882  0.5005985941056963  0.2325279127706494
  0.6528645935498147  0.6258358117548610  0.3153277266886931
  0.4970781650600387  0.6258119376905782  0.3028698455804459
  0.8415502047210381  0.6256611395105480  0.3160763220030844
  0.8968052314359554  0.6253538149444751  0.4012977767758983
  0.7466289726864659  0.6256565652284820  0.3905330157137072
  0.5964103720975089  0.6262898805629931  0.3993555359084553
  0.6419669062372719  0.6299683226356549  0.4840342024466011
  0.4987703950657476  0.6253145116345848  0.4716930525702097
  0.8479604911663330  0.6293583005084145  0.4856994067523459
  0.9010664925556426  0.6187265037091620  0.5638474874668162
  0.7471903307300920  0.5632701972964966  0.5169816439438293
  0.6187956142544664  0.6259623682869488  0.5693908345078285
  0.9026757932126372  0.6256754304936223  0.2325197357438213
  0.7475474303885079  0.6255633152520730  0.1981402222628006
  0.5918653377889385  0.6257279487482350  0.2321198779401996
  0.6526542782509281  0.7512727627615163  0.3155702352646728
  0.4972488098666190  0.7509447841241439  0.3028584094340445
  0.8419010933222069  0.7510513968670480  0.3160354099763509
  0.8977466218973476  0.7517272481777795  0.4015810145110308
  0.7471895883470694  0.7510957333407333  0.3896918665608169
  0.5963585208180007  0.7521935999694591  0.4006323122648752
  0.6453457400322549  0.7494065666889966  0.4853686424766792
  0.4983249114704478  0.7513420371864967  0.4727740891521393
  0.8498592733338697  0.7487319804857648  0.4872099596637653
  0.8974886765700134  0.7491058951824172  0.5657054372077042
  0.7480238793050304  0.8119525501426423  0.5114968138674172
  0.6051433882137971  0.7496606870552327  0.5647486861876061
  0.9027501338959141  0.7508947405178503  0.2325439433500236
  0.7476241339870100  0.7511086318148372  0.1994139151177521
  0.5920127155897390  0.7510024270648756  0.2322058481883005
  0.6526903726423114  0.8760718077207628  0.3161684559900806
  0.4972903224062719  0.8758834496813108  0.3032887077762396
  0.8420213111172998  0.8760174431619703  0.3164063971233162
  0.8980863846042766  0.8759280678347920  0.4021876933380071
  0.7474224510072460  0.8759093758455379  0.3898094327517612
  0.5966053693790272  0.8760550004413332  0.4018621104921820
  0.6465782275226886  0.8793571278460632  0.4882251692282651
  0.4977999800127506  0.8758632638290464  0.4736492369121663
  0.8494664564015082  0.8791299213922557  0.4888419245823243
  0.9035634815563185  0.8716894594655926  0.5712379565330536
  0.7485641611085541  0.9107290255586946  0.5765716039399251
  0.5941556249470707  0.8714342275695870  0.5709210034425851
  0.9029265112858909  0.8759210151822998  0.2327789247970031
  0.7476953856009132  0.8758944992699895  0.1998890428016580
  0.5920388979327171  0.8759675817288368  0.2325290415299506
  0.6526330693545006  0.5006141940967410  0.3156635824082201
  0.4970299940337597  0.5007438007651075  0.3036456221105510
  0.8416542616235390  0.5005856810082960  0.3165872008141761
  0.8961920146890989  0.5007316645178292  0.4019656009682109
  0.7462473423515377  0.5005632219314862  0.3911138962723513
  0.5963912377600238  0.5004737845460880  0.3997072696459441
  0.6373119194731984  0.5004409424046443  0.4851128022160864
  0.5010704067337812  0.4999563598822618  0.4715075179675665
  0.8506452673369793  0.5004339569425937  0.4873112682212835
  0.0196274545746178  0.4669597769882401  0.5700099777789376
  0.8563153416642280  0.4993121204476054  0.5688575895461483
  0.6560496197508598  0.4998611463732914  0.5762430685365700
  0.3599516695105507  0.1875440714773617  0.5334351185465707
  0.1381716175724677  0.1909085019385728  0.5330116078466816
  0.3743086686078385  0.3090698398431329  0.5363692782329679
  0.1306791118020882  0.3166823073212939  0.5342836777595181
  0.3875469464601977  0.4272521587034745  0.5845825421865527
  0.2077448649891522  0.4232242460130209  0.5655690316110054
  0.4112246468534124  0.5337791956998785  0.5473435031228959
  0.2002787255632157  0.5815447434264911  0.5622699430730975
  0.3815985358178224  0.6772238157257888  0.5351034529447105
  0.1270406103612700  0.6824138115945004  0.5314831034698955
  0.3625578204079289  0.8061300476200870  0.5334992798764091
  0.1347024750388925  0.8074983333521359  0.5333619514906331
  0.8615072397385859  0.1923966823063310  0.5338016988473697
  0.6368807907459200  0.1910344590771231  0.5328658188942583
  0.8775116784061794  0.3166418012428949  0.5351515122479071
  0.6284147976962089  0.3166210642065224  0.5320552188162608
  0.8502703937496960  0.4395118235654891  0.5365547260621071
  0.6812954370944055  0.4299132940098787  0.5618497877386304
  0.8504297731523778  0.5592888075493008  0.5367889423561536
  0.6844866689444089  0.5701701971503894  0.5634423949124781
  0.8726488834860930  0.6848711321577383  0.5333771883993350
  0.6349180438956594  0.6872310800362982  0.5323971651116324
  0.8611203518245460  0.8092287208685676  0.5333140712721942
  0.6370310770600014  0.8107445831358362  0.5325278280959580
  0.2912431748727329  0.5063157025837270  0.5855298853757702
 
  0.00000000E+00  0.00000000E+00  0.00000000E+00
  0.00000000E+00  0.00000000E+00  0.00000000E+00
  0.00000000E+00  0.00000000E+00  0.00000000E+00
  0.00000000E+00  0.00000000E+00  0.00000000E+00
  0.00000000E+00  0.00000000E+00  0.00000000E+00
  0.00000000E+00  0.00000000E+00  0.00000000E+00