Mo  S Co                                
   1.00000000000000     
    15.9215000000000000    0.0000000000000000    0.0000000000000000
    -7.9622500000000000   13.7910219999999999    0.0000000000000000
     0.0000000000000000    0.0000000000000000   13.5822000000000003
   Mo   S    Co
    25    50     3
Direct
  0.1332054493047465  0.0668814452461746  0.6805747710876418
  0.1324056551797099  0.2660135106139521  0.6804517485566350
  0.1332221049314413  0.4666480710061194  0.6804684877579774
  0.1333001536867755  0.6670557485031807  0.6797776416467087
  0.1335025397105341  0.8670844162105809  0.6799266962505683
  0.3335378429778117  0.0669102606137741  0.6808792785586633
  0.3329763557091923  0.2662373099598838  0.6808290920439148
  0.3326455294034432  0.4672617253535307  0.6799682106903546
  0.3327492277365778  0.6669987125946690  0.6804521391637266
  0.3333821662279277  0.8670870873849452  0.6801073215736366
  0.5332841399904993  0.0668523681777060  0.6804835820946948
  0.5333722742725371  0.2660984321225257  0.6813585786542689
  0.5344792108513303  0.4673262802338911  0.6807310937497704
  0.5345538154777714  0.6691539933514008  0.6774821909072415
  0.5335856160434105  0.8676903176719648  0.6800664320115857
  0.7333828252105192  0.0669012369758377  0.6803224647037283
  0.7334345155221342  0.2667142007153913  0.6806620325726627
  0.7332934836108436  0.4666341500378834  0.6811062950140965
  0.7340498585153554  0.6668437527828388  0.6806304264094507
  0.7340799032925744  0.8677616394736987  0.6798718413616882
  0.9334000404890901  0.0668251653710783  0.6800600752643930
  0.9330662269246730  0.2667001785907388  0.6802707469796232
  0.9333301028481031  0.4667847663903686  0.6802704259891925
  0.9336507125650257  0.6670232361918522  0.6799134088491243
  0.9336050653080648  0.8670783558492730  0.6799815030541083
  0.0667186563809068  0.1335490519035361  0.5650941830752672
  0.0659262850974969  0.1329104857789645  0.7957033121267258
  0.0665581249494522  0.3331637238809222  0.5653661818794973
  0.0659471029951320  0.3332083244888580  0.7955763690934177
  0.0666651213764453  0.5332830085485085  0.5651173059117056
  0.0667624340034223  0.5337731181094156  0.7951596741414022
  0.0668114813803200  0.7337648482263361  0.5646321800712357
  0.0668844662353791  0.7337495956782760  0.7949465056243525
  0.0669090716152638  0.9339126927566213  0.5649601502479911
  0.0665540166865100  0.9332616497660027  0.7952347131007755
  0.2667908167610520  0.1335210313299910  0.5657539391161706
  0.2660561580773972  0.1325573892488805  0.7964837847265898
  0.2662565429429549  0.3328189035804030  0.5657429307078843
  0.2676519606545753  0.3346944137390366  0.7961089004237536
  0.2663551548689753  0.5338560361235594  0.5650322679635096
  0.2666276345518241  0.5340306834832163  0.7956944361085050
  0.2667705232046202  0.7339195188939840  0.5647018793061847
  0.2661019645865679  0.7337603812451334  0.7951302760748860
  0.2670635498762550  0.9340577481949524  0.5651163326393274
  0.2665206676974847  0.9331697374938628  0.7954051678403715
  0.4668500338467823  0.1337967049429309  0.5656979699067861
  0.4666927589215959  0.1327308310380602  0.7962759700698641
  0.4666601725216708  0.3329970865798870  0.5664094033153475
  0.4663624145932488  0.3347456860206321  0.7970606069920905
  0.4672762808553301  0.5342018665541914  0.5657154658413432
  0.4663570687422904  0.5334494925932347  0.7965507251796922
  0.4665262995806785  0.7342504195673598  0.5651610497836330
  0.4646523994169769  0.7353324571953550  0.8008995143211166
  0.4667241789793835  0.9339328504733757  0.5648932340149599
  0.4665674712767185  0.9336755026212984  0.7953821855746881
  0.6666475449607390  0.1335382198867734  0.5653136452909777
  0.6667705113052946  0.1332578520045402  0.7955555519988309
  0.6662289521823510  0.3331478358088660  0.5660708616428494
  0.6672098310297230  0.3332079969008177  0.7962788323790093
  0.6672669860210547  0.5335937401577695  0.5655871930105931
  0.6673951683757835  0.5341880258126324  0.7962723021191067
  0.6677138267059703  0.7341299156611356  0.5651241026489231
  0.6703890050602794  0.7354245975175999  0.8003679763238551
  0.6667740749064350  0.9337442333762596  0.5650368345095274
  0.6668010051304663  0.9335528635784911  0.7953096399522721
  0.8665220240286260  0.1334485841756106  0.5650076755383964
  0.8665387219290537  0.1333390879013976  0.7952515957004707
  0.8664593537345695  0.3334202050758819  0.5652296500853780
  0.8668363150394285  0.3335825605322071  0.7955451789731995
  0.8662412824947197  0.5331724510452460  0.5654108395336408
  0.8671647416678780  0.5338424902007333  0.7954241867087148
  0.8669273435844502  0.7336959912750203  0.5647994780706185
  0.8676401568739820  0.7338512155192873  0.7951674417588208
  0.8670662223121255  0.9337961257069480  0.5646008212426423
  0.8671111772737703  0.9338062865756669  0.7951606967575771
  0.3715153917468896  0.3458066014667551  0.9247791513351515
  0.4429560237869836  0.4976662993566521  0.9484388393863554
  0.5326770360503659  0.6660851244941952  0.8687053329223531
 
  0.00000000E+00  0.00000000E+00  0.00000000E+00
  0.00000000E+00  0.00000000E+00  0.00000000E+00
  0.00000000E+00  0.00000000E+00  0.00000000E+00
  0.00000000E+00  0.00000000E+00  0.00000000E+00
  0.00000000E+00  0.00000000E+00  0.00000000E+00
  0.00000000E+00  0.00000000E+00  0.00000000E+00
  0.00000000E+00  0.00000000E+00  0.00000000E+00
  0.00000000E+00  0.00000000E+00  0.00000000E+00
  0.00000000E+00  0.00000000E+00  0.00000000E+00
  0.00000000E+00  0.00000000E+00  0.00000000E+00
  0.00000000E+00  0.00000000E+00  0.00000000E+00
  0.00000000E+00  0.00000000E+00  0.00000000E+00
  0.00000000E+00  0.00000000E+00  0.00000000E+00
  0.00000000E+00  0.00000000E+00  0.00000000E+00
  0.00000000E+00  0.00000000E+00  0.00000000E+00
  0.00000000E+00  0.00000000E+00  0.00000000E+00
  0.00000000E+00  0.00000000E+00  0.00000000E+00
  0.00000000E+00  0.00000000E+00  0.00000000E+00
  0.00000000E+00  0.00000000E+00  0.00000000E+00
  0.00000000E+00  0.00000000E+00  0.00000000E+00
  0.00000000E+00  0.00000000E+00  0.00000000E+00
  0.00000000E+00  0.00000000E+00  0.00000000E+00
  0.00000000E+00  0.00000000E+00  0.00000000E+00
  0.00000000E+00  0.00000000E+00  0.00000000E+00
  0.00000000E+00  0.00000000E+00  0.00000000E+00
  0.00000000E+00  0.00000000E+00  0.00000000E+00
  0.00000000E+00  0.00000000E+00  0.00000000E+00
  0.00000000E+00  0.00000000E+00  0.00000000E+00
  0.00000000E+00  0.00000000E+00  0.00000000E+00
  0.00000000E+00  0.00000000E+00  0.00000000E+00
  0.00000000E+00  0.00000000E+00  0.00000000E+00
  0.00000000E+00  0.00000000E+00  0.00000000E+00
  0.00000000E+00  0.00000000E+00  0.00000000E+00
  0.00000000E+00  0.00000000E+00  0.00000000E+00
  0.00000000E+00  0.00000000E+00  0.00000000E+00
  0.00000000E+00  0.00000000E+00  0.00000000E+00
  0.00000000E+00  0.00000000E+00  0.00000000E+00
  0.00000000E+00  0.00000000E+00  0.00000000E+00
  0.00000000E+00  0.00000000E+00  0.00000000E+00
  0.00000000E+00  0.00000000E+00  0.00000000E+00
  0.00000000E+00  0.00000000E+00  0.00000000E+00
  0.00000000E+00  0.00000000E+00  0.00000000E+00
  0.00000000E+00  0.00000000E+00  0.00000000E+00
  0.00000000E+00  0.00000000E+00  0.00000000E+00
  0.00000000E+00  0.00000000E+00  0.00000000E+00
  0.00000000E+00  0.00000000E+00  0.00000000E+00
  0.00000000E+00  0.00000000E+00  0.00000000E+00
  0.00000000E+00  0.00000000E+00  0.00000000E+00
  0.00000000E+00  0.00000000E+00  0.00000000E+00
  0.00000000E+00  0.00000000E+00  0.00000000E+00
  0.00000000E+00  0.00000000E+00  0.00000000E+00
  0.00000000E+00  0.00000000E+00  0.00000000E+00
  0.00000000E+00  0.00000000E+00  0.00000000E+00
  0.00000000E+00  0.00000000E+00  0.00000000E+00
  0.00000000E+00  0.00000000E+00  0.00000000E+00
  0.00000000E+00  0.00000000E+00  0.00000000E+00
  0.00000000E+00  0.00000000E+00  0.00000000E+00
  0.00000000E+00  0.00000000E+00  0.00000000E+00
  0.00000000E+00  0.00000000E+00  0.00000000E+00
  0.00000000E+00  0.00000000E+00  0.00000000E+00
  0.00000000E+00  0.00000000E+00  0.00000000E+00
  0.00000000E+00  0.00000000E+00  0.00000000E+00
  0.00000000E+00  0.00000000E+00  0.00000000E+00
  0.00000000E+00  0.00000000E+00  0.00000000E+00
  0.00000000E+00  0.00000000E+00  0.00000000E+00
  0.00000000E+00  0.00000000E+00  0.00000000E+00
  0.00000000E+00  0.00000000E+00  0.00000000E+00
  0.00000000E+00  0.00000000E+00  0.00000000E+00
  0.00000000E+00  0.00000000E+00  0.00000000E+00
  0.00000000E+00  0.00000000E+00  0.00000000E+00
  0.00000000E+00  0.00000000E+00  0.00000000E+00
  0.00000000E+00  0.00000000E+00  0.00000000E+00
  0.00000000E+00  0.00000000E+00  0.00000000E+00
  0.00000000E+00  0.00000000E+00  0.00000000E+00
  0.00000000E+00  0.00000000E+00  0.00000000E+00
  0.00000000E+00  0.00000000E+00  0.00000000E+00
  0.00000000E+00  0.00000000E+00  0.00000000E+00
  0.00000000E+00  0.00000000E+00  0.00000000E+00
