Ta  N Ru                                
   1.00000000000000     
    11.9754398999999996    0.0000000000000000    0.0000000000000000
    -1.7175315499999999   11.8516346499999994    0.0000000000000000
     0.0000000000000000    0.0000000000000000   22.7106327899999982
   Ta   N    Ru
    72    72     2
Selective dynamics
Direct
  0.9955339587019623  0.9955339540487174  0.2712224588739929   F   F   F
  0.2699333485827822  0.1030132974397020  0.3100259080635226   F   F   F
  0.1030132717436416  0.2699333822854797  0.3100259080635226   F   F   F
  0.3596205863249367  0.3596206399952564  0.3447007771003783   F   F   F
  0.1253409742651783  0.4593656738838163  0.3919418349552828   F   F   F
  0.4593656603424634  0.1253409739335112  0.3919418349552828   F   F   F
  0.2212223839325133  0.2214363125666355  0.4358029598094796   T   T   T
  0.4862697622436891  0.3201031288446165  0.4784561559679227   T   T   T
  0.3199080679163914  0.4867405948977598  0.4782677888719641   T   T   T
  0.0840135687206702  0.0845335350403184  0.5208624442502621   T   T   T
  0.3473898708860776  0.1820230587689846  0.5645597931317812   T   T   T
  0.1811971456852522  0.3480784302888650  0.5640572610074166   T   T   T
  0.4452280829130392  0.4463163397635661  0.6064677121466401   T   T   T
  0.2070774164621489  0.0417739511513795  0.6495492949932314   T   T   T
  0.0407696609045979  0.2077625557335026  0.6492878810001741   T   T   T
  0.3062091348792242  0.3128436033414278  0.6975144577217038   T   T   T
  0.0697219774751872  0.3999881469744894  0.7299711720498573   T   T   T
  0.3973165490515391  0.0654667225447778  0.7344048008003925   T   T   T
  0.9955339590589745  0.4955339536268326  0.2712224588739929   F   F   F
  0.2699333482257629  0.6030132978615868  0.3100259080635226   F   F   F
  0.1030132722216663  0.7699333827073573  0.3100259080635226   F   F   F
  0.3596205866819489  0.8596206395733716  0.3447007771003783   F   F   F
  0.1253409746221976  0.9593656734619316  0.3919418349552828   F   F   F
  0.4593656608204952  0.6253409743553888  0.3919418349552828   F   F   F
  0.2213267604318453  0.7214184112554983  0.4357213497233429   T   T   T
  0.4865649603796369  0.8203548014611484  0.4783938745535021   T   T   T
  0.3201433884830572  0.9866880291466699  0.4783834534719742   T   T   T
  0.0842447882049326  0.5844915938201305  0.5209101089853083   T   T   T
  0.3473545097778146  0.6820599472545266  0.5640792803499637   T   T   T
  0.1812937069111935  0.8471238446714001  0.5640415442248079   T   T   T
  0.4433745467185640  0.9439238195104602  0.6079275078316151   T   T   T
  0.2075909306341541  0.5435049027232746  0.6502406853309297   T   T   T
  0.0425993782490239  0.7080499475783619  0.6507128299451701   T   T   T
  0.3153079150501000  0.8108789340721770  0.6937094549547925   T   T   T
  0.0647648463659284  0.9044673352664063  0.7296332810876549   T   T   T
  0.4047862733463978  0.5675229562165074  0.7282311227939701   T   T   T
  0.4955339587019623  0.9955339540487174  0.2712224588739929   F   F   F
  0.7699333485827822  0.1030132974397020  0.3100259080635226   F   F   F
  0.6030132717436416  0.2699333822854797  0.3100259080635226   F   F   F
  0.8596205863249367  0.3596206399952564  0.3447007771003783   F   F   F
  0.6253409742651783  0.4593656738838163  0.3919418349552828   F   F   F
  0.9593656603424634  0.1253409739335112  0.3919418349552828   F   F   F
  0.7208689012646131  0.2214856830902299  0.4358923442116944   T   T   T
  0.9859794006472514  0.3203568760624795  0.4783605087606895   T   T   T
  0.8198086340719256  0.4865852828357535  0.4785664988369460   T   T   T
  0.5838748337027659  0.0848517330388787  0.5211867956684343   T   T   T
  0.8460993236437282  0.1816370413396851  0.5642829917742604   T   T   T
  0.6808072547825608  0.3471121430864224  0.5647318082097410   T   T   T
  0.9435498534306881  0.4441183832995135  0.6080394560404496   T   T   T
  0.7065604087143005  0.0432815897578815  0.6513291711022611   T   T   T
  0.5407904094853493  0.2066001204721536  0.6513270144200607   T   T   T
  0.8113360242789979  0.3144838836180778  0.6946786811115833   T   T   T
  0.5691160270550900  0.4078795003505327  0.7299915017742739   T   T   T
  0.9044645581818300  0.0670904598974577  0.7296648245864609   T   T   T
  0.4955339590589745  0.4955339536268326  0.2712224588739929   F   F   F
  0.7699333482257629  0.6030132978615868  0.3100259080635226   F   F   F
  0.6030132722216663  0.7699333827073573  0.3100259080635226   F   F   F
  0.8596205866819489  0.8596206395733716  0.3447007771003783   F   F   F
  0.6253409746221976  0.9593656734619316  0.3919418349552828   F   F   F
  0.9593656608204952  0.6253409743553888  0.3919418349552828   F   F   F
  0.7213300442262186  0.7214973428667844  0.4357709073506970   T   T   T
  0.9865086949208537  0.8202696725370607  0.4784743118334556   T   T   T
  0.8199147353331350  0.9868727137861590  0.4785606922111056   T   T   T
  0.5843260147036461  0.5844760678930988  0.5210569406637759   T   T   T
  0.8469711768821954  0.6815740319530503  0.5641793826051033   T   T   T
  0.6813224843513760  0.8474039448747867  0.5642705950995985   T   T   T
  0.9434592495214266  0.9441242015971244  0.6074165933303930   T   T   T
  0.7080493194288092  0.5434633139111759  0.6506868349932295   T   T   T
  0.5436285100969432  0.7086045302267027  0.6506061606295181   T   T   T
  0.8131039710543942  0.8139601401535381  0.6950360641764594   T   T   T
  0.5662311565267397  0.9049590361900345  0.7292145517909491   T   T   T
  0.9066666780006847  0.5664620111322951  0.7288558914033028   T   T   T
  0.4506180773709048  0.1400782132052782  0.2976725581183857   F   F   F
  0.2642075833142314  0.2642075209653356  0.2836189927733201   F   F   F
  0.1400781798198807  0.4506180903161052  0.2976725581183857   F   F   F
  0.3074132852265237  0.9999309000767909  0.3839488749030693   F   F   F
  0.1352939988863540  0.1352940283866033  0.3689431455789318   F   F   F
  0.9999308780646601  0.3074132624267207  0.3839488749030693   F   F   F
  0.1680774029509173  0.3644183571206346  0.4691369926505556   T   T   T
  0.4969113106863042  0.4970222076383589  0.4538095441902673   T   T   T
  0.3641805218200337  0.1684168398865279  0.4693288521774919   T   T   T
  0.0286889406972390  0.2255851146544545  0.5545814086681281   T   T   T
  0.3573215441402721  0.3579832103714335  0.5398848085494112   T   T   T
  0.2250994523393043  0.0294784467928118  0.5547330343993230   T   T   T
  0.3877937842567106  0.0869237209876110  0.6408898954632771   T   T   T
  0.2204666489485408  0.2218663410966292  0.6262025770879728   T   T   T
  0.0868954774143480  0.3890981663912795  0.6404218507064400   T   T   T
  0.2518916019002949  0.4574869218771836  0.7294248986595810   T   T   T
  0.0770100153496081  0.0775556346791469  0.7059501654982819   T   T   T
  0.4536080913803496  0.2579570650220305  0.7257512629291035   T   T   T
  0.4506180777279170  0.6400782127833935  0.2976725581183857   F   F   F
  0.2642075828362067  0.7642075205434509  0.2836189927733201   F   F   F
  0.1400781801769000  0.9506180898942276  0.2976725581183857   F   F   F
  0.3074132857045484  0.4999309004986756  0.3839488749030693   F   F   F
  0.1352939993643858  0.6352940288084810  0.3689431455789318   F   F   F
  0.9999308775866353  0.8074132620048431  0.3839488749030693   F   F   F
  0.1681755760689636  0.8642726613175908  0.4692137981976507   T   T   T
  0.4970079191506580  0.9971686182270335  0.4538932283036088   T   T   T
  0.3643311300471618  0.6684486630072624  0.4692203234565503   T   T   T
  0.0292707499918898  0.7252177683069098  0.5550883384954292   T   T   T
  0.3572854979849767  0.8576478778412532  0.5397896361916569   T   T   T
  0.2252489687109467  0.5302896267187018  0.5546299883437410   T   T   T
  0.3904519226868411  0.5886307902546247  0.6391376850915375   T   T   T
  0.2207424665288062  0.7211063465348603  0.6277834026010193   T   T   T
  0.0867917868036915  0.8900155124807793  0.6395512624998324   T   T   T
  0.2489151514507158  0.9446557920884114  0.7271245718538116   T   T   T
  0.0758033320399401  0.5746842173897113  0.7093939235364315   T   T   T
  0.4526100695495046  0.7499986206818896  0.7301307032878107   T   T   T
  0.9506180773709048  0.1400782132052782  0.2976725581183857   F   F   F
  0.7642075824791874  0.2642075209653356  0.2836189927733201   F   F   F
  0.6400781798198807  0.4506180903161052  0.2976725581183857   F   F   F
  0.8074132852265237  0.9999309000767909  0.3839488749030693   F   F   F
  0.6352939988863540  0.1352940283866033  0.3689431455789318   F   F   F
  0.4999308780646601  0.3074132624267207  0.3839488749030693   F   F   F
  0.6679392019866468  0.3644051705810329  0.4695581496740884   T   T   T
  0.9967801377276203  0.4970343796263837  0.4537970101898916   T   T   T
  0.8637262115484805  0.1683480846415208  0.4692944813185261   T   T   T
  0.5293134149837471  0.2255103170101971  0.5553165620855455   T   T   T
  0.8566865325775301  0.3573224419447659  0.5400970940128310   T   T   T
  0.7244706787003812  0.0297313051127830  0.5554017386205833   T   T   T
  0.8888156065562399  0.0872581162993451  0.6396473227733299   T   T   T
  0.7203439080453337  0.2214135296115130  0.6284249152295381   T   T   T
  0.5865786580871027  0.3901011763315015  0.6399344231577764   T   T   T
  0.7520346204122657  0.4538110169280205  0.7302747689428083   T   T   T
  0.5720713079259213  0.0738421607689616  0.7103498986739576   T   T   T
  0.9480551570108137  0.2512373683531177  0.7276946482019364   T   T   T
  0.9506180777279170  0.6400782127833935  0.2976725581183857   F   F   F
  0.7642075828362067  0.7642075205434509  0.2836189927733201   F   F   F
  0.6400781801769000  0.9506180898942276  0.2976725581183857   F   F   F
  0.8074132857045484  0.4999309004986756  0.3839488749030693   F   F   F
  0.6352939993643858  0.6352940288084810  0.3689431455789318   F   F   F
  0.4999308775866353  0.8074132620048431  0.3839488749030693   F   F   F
  0.6682354913539074  0.8644727168499406  0.4693059224077689   T   T   T
  0.9968044949257128  0.9969968693257389  0.4538087677250994   T   T   T
  0.8642379720641291  0.6683569695980686  0.4692626514821051   T   T   T
  0.5296513294612542  0.7254955625303808  0.5550344227036081   T   T   T
  0.8567324369234784  0.8570510156341694  0.5398142227798726   T   T   T
  0.7249324819881169  0.5296201213700906  0.5553145516771751   T   T   T
  0.8898278896146314  0.5879452148346443  0.6398066795970627   T   T   T
  0.7221545916543957  0.7223484039389191  0.6282868690982905   T   T   T
  0.5874390469157804  0.8903329962954463  0.6397208446356376   T   T   T
  0.7514367059441945  0.9518572894919110  0.7299089808155136   T   T   T
  0.5773394934195244  0.5775679030682538  0.7094870963472449   T   T   T
  0.9515619475574435  0.7514533568434449  0.7302450317747540   T   T   T
  0.1881306838054977  0.1669131127991944  0.7612795583729990   T   T   T
  0.3754513105531149  0.2248079401881412  0.8029509567448144   T   T   T
 
  0.00000000E+00  0.00000000E+00  0.00000000E+00
  0.00000000E+00  0.00000000E+00  0.00000000E+00
  0.00000000E+00  0.00000000E+00  0.00000000E+00
  0.00000000E+00  0.00000000E+00  0.00000000E+00
  0.00000000E+00  0.00000000E+00  0.00000000E+00
  0.00000000E+00  0.00000000E+00  0.00000000E+00
  0.00000000E+00  0.00000000E+00  0.00000000E+00
  0.00000000E+00  0.00000000E+00  0.00000000E+00
  0.00000000E+00  0.00000000E+00  0.00000000E+00
  0.00000000E+00  0.00000000E+00  0.00000000E+00
  0.00000000E+00  0.00000000E+00  0.00000000E+00
  0.00000000E+00  0.00000000E+00  0.00000000E+00
  0.00000000E+00  0.00000000E+00  0.00000000E+00
  0.00000000E+00  0.00000000E+00  0.00000000E+00
  0.00000000E+00  0.00000000E+00  0.00000000E+00
  0.00000000E+00  0.00000000E+00  0.00000000E+00
  0.00000000E+00  0.00000000E+00  0.00000000E+00
  0.00000000E+00  0.00000000E+00  0.00000000E+00
  0.00000000E+00  0.00000000E+00  0.00000000E+00
  0.00000000E+00  0.00000000E+00  0.00000000E+00
  0.00000000E+00  0.00000000E+00  0.00000000E+00
  0.00000000E+00  0.00000000E+00  0.00000000E+00
  0.00000000E+00  0.00000000E+00  0.00000000E+00
  0.00000000E+00  0.00000000E+00  0.00000000E+00
  0.00000000E+00  0.00000000E+00  0.00000000E+00
  0.00000000E+00  0.00000000E+00  0.00000000E+00
  0.00000000E+00  0.00000000E+00  0.00000000E+00
  0.00000000E+00  0.00000000E+00  0.00000000E+00
  0.00000000E+00  0.00000000E+00  0.00000000E+00
  0.00000000E+00  0.00000000E+00  0.00000000E+00
  0.00000000E+00  0.00000000E+00  0.00000000E+00
  0.00000000E+00  0.00000000E+00  0.00000000E+00
  0.00000000E+00  0.00000000E+00  0.00000000E+00
  0.00000000E+00  0.00000000E+00  0.00000000E+00
  0.00000000E+00  0.00000000E+00  0.00000000E+00
  0.00000000E+00  0.00000000E+00  0.00000000E+00
  0.00000000E+00  0.00000000E+00  0.00000000E+00
  0.00000000E+00  0.00000000E+00  0.00000000E+00
  0.00000000E+00  0.00000000E+00  0.00000000E+00
  0.00000000E+00  0.00000000E+00  0.00000000E+00
  0.00000000E+00  0.00000000E+00  0.00000000E+00
  0.00000000E+00  0.00000000E+00  0.00000000E+00
  0.00000000E+00  0.00000000E+00  0.00000000E+00
  0.00000000E+00  0.00000000E+00  0.00000000E+00
  0.00000000E+00  0.00000000E+00  0.00000000E+00
  0.00000000E+00  0.00000000E+00  0.00000000E+00
  0.00000000E+00  0.00000000E+00  0.00000000E+00
  0.00000000E+00  0.00000000E+00  0.00000000E+00
  0.00000000E+00  0.00000000E+00  0.00000000E+00
  0.00000000E+00  0.00000000E+00  0.00000000E+00
  0.00000000E+00  0.00000000E+00  0.00000000E+00
  0.00000000E+00  0.00000000E+00  0.00000000E+00
  0.00000000E+00  0.00000000E+00  0.00000000E+00
  0.00000000E+00  0.00000000E+00  0.00000000E+00
  0.00000000E+00  0.00000000E+00  0.00000000E+00
  0.00000000E+00  0.00000000E+00  0.00000000E+00
  0.00000000E+00  0.00000000E+00  0.00000000E+00
  0.00000000E+00  0.00000000E+00  0.00000000E+00
  0.00000000E+00  0.00000000E+00  0.00000000E+00
  0.00000000E+00  0.00000000E+00  0.00000000E+00
  0.00000000E+00  0.00000000E+00  0.00000000E+00
  0.00000000E+00  0.00000000E+00  0.00000000E+00
  0.00000000E+00  0.00000000E+00  0.00000000E+00
  0.00000000E+00  0.00000000E+00  0.00000000E+00
  0.00000000E+00  0.00000000E+00  0.00000000E+00
  0.00000000E+00  0.00000000E+00  0.00000000E+00
  0.00000000E+00  0.00000000E+00  0.00000000E+00
  0.00000000E+00  0.00000000E+00  0.00000000E+00
  0.00000000E+00  0.00000000E+00  0.00000000E+00
  0.00000000E+00  0.00000000E+00  0.00000000E+00
  0.00000000E+00  0.00000000E+00  0.00000000E+00
  0.00000000E+00  0.00000000E+00  0.00000000E+00
  0.00000000E+00  0.00000000E+00  0.00000000E+00
  0.00000000E+00  0.00000000E+00  0.00000000E+00
  0.00000000E+00  0.00000000E+00  0.00000000E+00
  0.00000000E+00  0.00000000E+00  0.00000000E+00
  0.00000000E+00  0.00000000E+00  0.00000000E+00
  0.00000000E+00  0.00000000E+00  0.00000000E+00
  0.00000000E+00  0.00000000E+00  0.00000000E+00
  0.00000000E+00  0.00000000E+00  0.00000000E+00
  0.00000000E+00  0.00000000E+00  0.00000000E+00
  0.00000000E+00  0.00000000E+00  0.00000000E+00
  0.00000000E+00  0.00000000E+00  0.00000000E+00
  0.00000000E+00  0.00000000E+00  0.00000000E+00
  0.00000000E+00  0.00000000E+00  0.00000000E+00
  0.00000000E+00  0.00000000E+00  0.00000000E+00
  0.00000000E+00  0.00000000E+00  0.00000000E+00
  0.00000000E+00  0.00000000E+00  0.00000000E+00
  0.00000000E+00  0.00000000E+00  0.00000000E+00
  0.00000000E+00  0.00000000E+00  0.00000000E+00
  0.00000000E+00  0.00000000E+00  0.00000000E+00
  0.00000000E+00  0.00000000E+00  0.00000000E+00
  0.00000000E+00  0.00000000E+00  0.00000000E+00
  0.00000000E+00  0.00000000E+00  0.00000000E+00
  0.00000000E+00  0.00000000E+00  0.00000000E+00
  0.00000000E+00  0.00000000E+00  0.00000000E+00
  0.00000000E+00  0.00000000E+00  0.00000000E+00
  0.00000000E+00  0.00000000E+00  0.00000000E+00
  0.00000000E+00  0.00000000E+00  0.00000000E+00
  0.00000000E+00  0.00000000E+00  0.00000000E+00
  0.00000000E+00  0.00000000E+00  0.00000000E+00
  0.00000000E+00  0.00000000E+00  0.00000000E+00
  0.00000000E+00  0.00000000E+00  0.00000000E+00
  0.00000000E+00  0.00000000E+00  0.00000000E+00
  0.00000000E+00  0.00000000E+00  0.00000000E+00
  0.00000000E+00  0.00000000E+00  0.00000000E+00
  0.00000000E+00  0.00000000E+00  0.00000000E+00
  0.00000000E+00  0.00000000E+00  0.00000000E+00
  0.00000000E+00  0.00000000E+00  0.00000000E+00
  0.00000000E+00  0.00000000E+00  0.00000000E+00
  0.00000000E+00  0.00000000E+00  0.00000000E+00
  0.00000000E+00  0.00000000E+00  0.00000000E+00
  0.00000000E+00  0.00000000E+00  0.00000000E+00
  0.00000000E+00  0.00000000E+00  0.00000000E+00
  0.00000000E+00  0.00000000E+00  0.00000000E+00
  0.00000000E+00  0.00000000E+00  0.00000000E+00
  0.00000000E+00  0.00000000E+00  0.00000000E+00
  0.00000000E+00  0.00000000E+00  0.00000000E+00
  0.00000000E+00  0.00000000E+00  0.00000000E+00
  0.00000000E+00  0.00000000E+00  0.00000000E+00
  0.00000000E+00  0.00000000E+00  0.00000000E+00
  0.00000000E+00  0.00000000E+00  0.00000000E+00
  0.00000000E+00  0.00000000E+00  0.00000000E+00
  0.00000000E+00  0.00000000E+00  0.00000000E+00
  0.00000000E+00  0.00000000E+00  0.00000000E+00
  0.00000000E+00  0.00000000E+00  0.00000000E+00
  0.00000000E+00  0.00000000E+00  0.00000000E+00
  0.00000000E+00  0.00000000E+00  0.00000000E+00
  0.00000000E+00  0.00000000E+00  0.00000000E+00
  0.00000000E+00  0.00000000E+00  0.00000000E+00
  0.00000000E+00  0.00000000E+00  0.00000000E+00
  0.00000000E+00  0.00000000E+00  0.00000000E+00
  0.00000000E+00  0.00000000E+00  0.00000000E+00
  0.00000000E+00  0.00000000E+00  0.00000000E+00
  0.00000000E+00  0.00000000E+00  0.00000000E+00
  0.00000000E+00  0.00000000E+00  0.00000000E+00
  0.00000000E+00  0.00000000E+00  0.00000000E+00
  0.00000000E+00  0.00000000E+00  0.00000000E+00
  0.00000000E+00  0.00000000E+00  0.00000000E+00
  0.00000000E+00  0.00000000E+00  0.00000000E+00
  0.00000000E+00  0.00000000E+00  0.00000000E+00
  0.00000000E+00  0.00000000E+00  0.00000000E+00
  0.00000000E+00  0.00000000E+00  0.00000000E+00
  0.00000000E+00  0.00000000E+00  0.00000000E+00
  0.00000000E+00  0.00000000E+00  0.00000000E+00
  0.00000000E+00  0.00000000E+00  0.00000000E+00
