Ta N Cu Ru                              
   1.00000000000000     
    18.1096308199999996    0.0000000000000000    0.0000000000000000
     0.0000000000000000   11.6775998899999998    0.0000000000000000
     0.0000000000000000    0.0000000000000000   23.4818170799999990
   Ta   N    Cu   Ru
   119   120     2     1
Direct
  0.0005774278653711  0.9993762230595128  0.2550147261562768
  0.3331621093654320  0.1260939472079554  0.2637705425029684
  0.1660818224305097  0.1260390437092087  0.2638619923580228
  0.2494315370606976  0.2495348005254924  0.3613449633571198
  0.0817192756166174  0.1244040563704235  0.3687419472152150
  0.4172183868790675  0.1244769063553628  0.3687725579510044
 -0.0002914558651697  0.2496951809154677  0.4798755651948022
  0.3316308988523041  0.1244840250047916  0.4782707258349269
  0.1677124883922669  0.1243868670067118  0.4782770632013353
  0.2496493892719449  0.2505736018010335  0.5918913883386211
  0.0837302504735169  0.1243384408380989  0.5893222585533527
  0.4143888728124036  0.1243978250169647  0.5900578571494423
  0.9968782406187778  0.2503698659782366  0.7012385187475184
  0.1599728321855407  0.1240761970641618  0.7059067627069791
 -0.0012365835983079  0.2493596432120551  0.2549765284790628
  0.3326800296030634  0.3727480560596849  0.2638103581879244
  0.1663941276932692  0.3727725157570230  0.2638102061913017
  0.2494680977316289  0.4993820875949549  0.3617234360211782
  0.0818527954644455  0.3742798444756464  0.3684958218417829
  0.4169944018342759  0.3744130220448880  0.3685845589581878
  0.9993840641294882  0.4992063899674993  0.4797131830592317
  0.3318237305205753  0.3744479445915849  0.4779041705487502
  0.1675196505887829  0.3743267483425721  0.4778758902472913
  0.2489791131880724  0.4988869452581983  0.5910081050439974
  0.0826004518527214  0.3744488251807071  0.5896705327670577
  0.4154681539458718  0.3751537177841414  0.5894445025117570
  0.9987849987176217  0.4994538669212966  0.7021303680172615
  0.3313319835964021  0.3717174370057320  0.7049335658704748
  0.1617197895306526  0.3754975585372681  0.7055975585646522
  0.0005184802591972  0.4990785683214833  0.2548663310417804
  0.3326335404644956  0.6261704791469060  0.2637540206608906
  0.1666338584054625  0.6260866660783372  0.2639622060112415
  0.2494781887055777  0.7495821582011200  0.3614282418442237
  0.0819329260290263  0.6244525440190988  0.3684090860951401
  0.4169886388608335  0.6245341986571501  0.3682775288918432
  0.9993654319193261  0.7494728937634082  0.4797315420529545
  0.3315762700868316  0.6244987389010368  0.4778984560220837
  0.1671286738742143  0.6243299163247533  0.4780872913608566
  0.2489796829299813  0.7498177322688607  0.5910942479542864
  0.0829459661226013  0.6242991518250469  0.5892108713251832
  0.4154511975012602  0.6245963002165229  0.5895353116725430
  0.9984658057627191  0.7493863852705468  0.7021281487374158
  0.3331531552571332  0.6246823601785946  0.7035381570318450
  0.1639153453117801  0.6243329816853155  0.7038142142460125
 -0.0012398214759672  0.7499638212673505  0.2549233705664935
  0.3331597811571355  0.8729616903157704  0.2637160815373118
  0.1657646424498912  0.8729350874506681  0.2636272380641705
  0.2494154737549653 -0.0006800248922103  0.3620786472837396
  0.0817678717121508  0.8744681345707443  0.3686003263069827
  0.4171435705927402  0.8745325488322803  0.3686490385132790
 -0.0002917252501981  0.9991110860697622  0.4798889390746526
  0.3318285920285703  0.8743015338676334  0.4779404494344984
  0.1674836046817815  0.8742230296125262  0.4779418291248472
  0.2496728812461211  0.9980248308704307  0.5918447176540750
  0.0825440356238019  0.8742096138607236  0.5897211245645519
  0.4155313838283697  0.8737867133154104  0.5894582245898946
  0.9965567419754633  0.9983138759924864  0.7012402534867609
  0.3317252184701694  0.8773569880317192  0.7054560732019605
  0.1616613933302248  0.8729298426695806  0.7055171906792690
  0.4986665934184367 -0.0004154535279450  0.2550831524690482
  0.8329369272520156  0.1230479905304095  0.2637547156788393
  0.6660283523592102  0.1230563777366725  0.2638675072605858
  0.7494613620962670  0.2495726315657519  0.3618276650967364
  0.5819840778794590  0.1244988673045001  0.3686485049031993
  0.9167196721155940  0.1244506444004165  0.3684767782621057
  0.4993052457742200  0.2492473332751217  0.4801479624765138
  0.8318865147369694  0.1244541700950266  0.4783294274283811
  0.6670698577655273  0.1244062093347990  0.4783895581141672
  0.7493633475433937  0.2492348487867862  0.5910668176814683
  0.5827743969799619  0.1244152985688508  0.5901463275318001
  0.9155543271185174  0.1244343968806788  0.5898459578036618
  0.5049253303229241  0.2535396038247285  0.7015842088928227
  0.8356892062012864  0.1243845416037407  0.7039565769949999
  0.6672147967853316  0.1230914404211010  0.7050231063045498
  0.5004052129645487  0.2492633381194162  0.2550884674925009
  0.8332211208803073  0.3758423711850425  0.2635995579279892
  0.6660254379585669  0.3758670135157465  0.2638268223231401
  0.7493261683615282  0.4994256997458315  0.3612323232322459
  0.5820677264906431  0.3745237411251712  0.3686511068689052
  0.9168177291730968  0.3744880478354179  0.3684042712738507
  0.4993465974636928  0.4996340979733097  0.4799193947857736
  0.8318096293978234  0.3744450152929783  0.4780306888214723
  0.6668328965688445  0.3744587959030839  0.4783069821699115
  0.7491501386564945  0.4995588207964734  0.5910575328580796
  0.5831774914592801  0.3748063303469746  0.5904549390489156
  0.9156474814970079  0.3746018545825890  0.5898249739462593
  0.4982154448951600  0.4994810770144952  0.7025170839783957
  0.8359350741747815  0.3747482746391187  0.7042346547418855
  0.6686744245370301  0.3747701286063662  0.7022643797006687
  0.4987189603285393  0.4993694814954704  0.2550360038205650
  0.8328293723344838  0.6230241744070508  0.2638339447892663
  0.6661783770254885  0.6229835852339312  0.2637676062301789
  0.7493761900568765  0.7495366758485775  0.3617365698158537
  0.5819500163191391  0.6244313856566452  0.3684678391050730
  0.9168295778653370  0.6244043955921152  0.3683740116477289
  0.4993709598324697  0.7494010613978024  0.4798985681978335
  0.8317625996407536  0.6243770623109521  0.4781791724913026
  0.6670329317676593  0.6243889730238407  0.4783174154883424
  0.7493608589975083  0.7495138275200126  0.5908127956075732
  0.5830375445008390  0.6246743856124822  0.5900308242573180
  0.9153508632760061  0.6243943077313462  0.5897596583413282
  0.4989083390430935  0.7491706039638348  0.7028117324570500
  0.8348313642284761  0.6245552533249907  0.7041795600592167
  0.6646924285051413  0.6265665603372323  0.7050095950720847
  0.5005048325940281  0.7495860946468001  0.2549807099630811
  0.8330165206563658  0.8759128470567794  0.2636671987699850
  0.6661427553137549  0.8759908098380151  0.2638119115106901
  0.7494779371039096 -0.0005710418524831  0.3612181500299108
  0.5821251264287167  0.8744775039683326  0.3685849987785458
  0.9167690106150419  0.8744777494776124  0.3684137338202322
  0.4993343597543518  0.9996692003470935  0.4801334696484209
  0.8318449987604298  0.8744150253902899  0.4780168412821137
  0.6669307074375017  0.8743932612370163  0.4781408817439016
  0.7495422704743723 -0.0005206179887179  0.5909064715222233
  0.5833633942789743  0.8742159484949592  0.5903036386853709
  0.9155633078760939  0.8741576010361150  0.5898433308251541
  0.5053963973963275  0.9964527846965457  0.7019960801677453
  0.8349126116266691  0.8742292917974341  0.7040592420534640
  0.6648123289592880  0.8746404172756951  0.7041610162127089
  0.4055861580284231 -0.0004175753066246  0.3015367846642326
  0.2495938908298043 -0.0006537634340919  0.2624430809586953
  0.0935306675667999 -0.0004845560135619  0.3015759877676228
  0.1538157521481210  0.2494340549255521  0.4100781523001844
  0.9992393412947678  0.2495287326257927  0.3932069715359008
  0.3450744223414157  0.2493589072871884  0.4100212023148871
  0.3999629105683525  0.2496183137104043  0.5222925337677081
  0.2495256392305136  0.2500358751468460  0.5034300382010591
  0.0987152856241199  0.2494659031081655  0.5220936801930582
  0.1515912008656640  0.2489502564292890  0.6342085031086631
 -0.0003628983364451  0.2493702507699317  0.6127485079956587
  0.3477024044522549  0.2515777213159999  0.6344754870739497
  0.4087705480712641  0.2644801405071913  0.7426534055774426
  0.2434882139568383  0.2639088873277531  0.7330615552019005
  0.0921818698910854  0.2471742953099150  0.7401921460477273
  0.4068814521406773  0.2492240170236993  0.3012471226507838
  0.2495825805412336  0.2490869901279437  0.2539066856446331
  0.0922183450842671  0.2491716588439389  0.3012524634499907
  0.1538439894481545  0.4992720637140317  0.4099248140359439
 -0.0004830816360332  0.4994246940993770  0.3930331668477982
  0.3450394448852906  0.4996415414450548  0.4098524432505970
  0.4002125045167245  0.4997704170885107  0.5217907517880956
  0.2494666848427036  0.4992636530527743  0.5028575009945092
  0.0984860167597424  0.4991159374094905  0.5217991172409175
  0.1503988358416342  0.4995339532141353  0.6330881054751850
  0.9992729079448680  0.4995183309862208  0.6131130145401735
  0.3471369409510905  0.4992589480286643  0.6329198541817772
  0.4010618445644505  0.4993998977852876  0.7394497224766343
  0.2485222506617706  0.5014014974071932  0.7230485977745235
  0.0949422250068822  0.4997158506524691  0.7411189760999795
  0.4054765955543634  0.4993691754596080  0.3012769493962905
  0.2496041717796024  0.4994005631768104  0.2597617801590930
  0.0935460223494969  0.4992547912472789  0.3012964528080856
  0.1537522316519820  0.7494112801550296  0.4099426073606107
  0.9992477429544863  0.7493791729338621  0.3930557282375795
  0.3451703030645232  0.7492790183894887  0.4098465013550354
  0.4002873409483353  0.7492401067442961  0.5218366437707762
  0.2494660623366247  0.7494734900586485  0.5028672409424189
  0.0984109546721166  0.7494758346186917  0.5218443257996010
  0.1503410840290184  0.7489277756734184  0.6330571228893225
  0.9992122271227634  0.7491652207776318  0.6131327701980517
  0.3472489387550470  0.7498965285520126  0.6329129632343098
  0.4009044689458531  0.7491739859040168  0.7396297174001711
  0.2483513513797061  0.7471522375851478  0.7230007070793550
  0.0947223097843005  0.7487916098096450  0.7410189365632827
  0.4069260561884482  0.7497986640695247  0.3010191344972150
  0.2495264923278803  0.7499920381310147  0.2539229911496490
  0.0921973446240888  0.7497359488271944  0.3011205079557889
  0.1537428504488439 -0.0006602537464543  0.4101773519815896
  0.9994258093234681 -0.0006296935430286  0.3932315552198434
  0.3451249781566613 -0.0004446138139698  0.4100825247484699
  0.3999917871330029  0.9992645649899023  0.5222959635563139
  0.2495515818215673 -0.0012457361517946  0.5034844072876071
  0.0987363641481956  0.9992211713711939  0.5221031483294976
  0.1516636163702495  0.9996841108703043  0.6342748468777878
 -0.0003896066257800 -0.0006144509489399  0.6127663222359581
  0.3477572344744719  0.9969266191066107  0.6344191476356532
  0.4085439725723893  0.9850908261523026  0.7428757405748962
  0.2431923086300079  0.9843030878993928  0.7333787696547575
  0.0918621565355821  0.0014282069183502  0.7401163647770562
  0.9069143800016999 -0.0004713156413865  0.3010843776784787
  0.7495572228365794 -0.0004777004350115  0.2544660896592120
  0.5921824811595114 -0.0004487510817457  0.3012771219091137
  0.6538858818496702  0.2494091988204829  0.4101600646519913
  0.4996120773739504  0.2496198202760648  0.3934371371629171
  0.8449995446445238  0.2495133259111925  0.4100184870032592
  0.9004382420318293  0.2494736155828489  0.5218553981261599
  0.7493664487390003  0.2497195960804375  0.5029792802599553
  0.5983876154625990  0.2494651796089830  0.5223516309376669
  0.6510591470338492  0.2485927616905132  0.6340607971485192
  0.4993799176960039  0.2507223385708247  0.6132012660503056
  0.8480133987756263  0.2494552207663341  0.6331214291204187
  0.9019067579969580  0.2496537578861431  0.7414190391321928
  0.7511428532959131  0.2503127880193590  0.7237252845751001
  0.6009041290631324  0.2478285103362363  0.7446084829059585
  0.9056757766691976  0.2494374701237655  0.3013311903890569
  0.7495520852845465  0.2495671998352660  0.2613488145739201
  0.5934521624025363  0.2494607125058640  0.3015387487655557
  0.6538151144241858  0.4995314955178053  0.4100585430134299
  0.4993073977291990  0.4995369141609077  0.3931808188517480
  0.8449385500821899  0.4994353407872259  0.4098832476109326
  0.9002988222820127  0.4994659857107037  0.5219412486023129
  0.7493359638746344  0.4990858272960733  0.5028995013315195
  0.5983289654394121  0.4995611274107004  0.5222963578913582
  0.6509577261524494  0.5007940357573374  0.6339641401708526
  0.4987951717167232  0.5004009041185054  0.6137920215539150
  0.8476721993115074  0.4995825475273485  0.6332098412450893
  0.9026063645190896  0.5002959883593381  0.7409178697089694
  0.7500868020379474  0.4993316679779111  0.7240834553236988
  0.5967531129914414  0.5019466700811357  0.7435277266898058
  0.9069401359016160  0.4993183640397680  0.3010220350386107
  0.7495976092845751  0.4992474189590215  0.2545703721418602
  0.5922116260155055  0.4993973314681729  0.3011944778567607
  0.6538083467378052  0.7492881149169699  0.4100592132343042
  0.4995991599088134  0.7494173530699065  0.3931603600641431
  0.8450017366306666  0.7493995244711462  0.4099114554224663
  0.9002635168935451  0.7492442593457086  0.5219759298642569
  0.7494074218950242  0.7496451089166061  0.5027452017301094
  0.5983762423122038  0.7494370118354003  0.5222355709218592
  0.6513998010443339  0.7490156019494270  0.6333393106863920
  0.4989974951463252  0.7487997283386166  0.6140094170307064
  0.8475454756502100  0.7492814365898776  0.6333361756346352
  0.9021394418723728  0.7492401805421793  0.7408299444674560
  0.7492217177230981  0.7486374505880709  0.7239214527932929
  0.5963720038673684  0.7497235690685669  0.7408353246711242
  0.9056192039091177  0.7495365633040306  0.3012750340099389
  0.7495356000194600  0.7495447476982647  0.2606579177955843
  0.5935630460682650  0.7494261870712603  0.3014103098204876
  0.6539235371384607 -0.0003845924515406  0.4100531041613811
  0.4994384699458834 -0.0006112254593401  0.3934218814525436
  0.8449809999352387 -0.0005567428184940  0.4099413588892200
  0.9004540697151442 -0.0005989618323675  0.5218819816686180
  0.7494148113801639  0.9992129260158354  0.5028103783344324
  0.5984301661864109  0.9994747104555375  0.5222723848006943
  0.6514801154141108 -0.0001560872161720  0.6334580188290863
  0.4995733756607654  0.9981286886174277  0.6133939630357010
  0.8479290461620421  0.9993103330880992  0.6331711918380379
  0.9014073916425777  0.9986070285936706  0.7412806406413721
  0.7504203201222828  0.0001363125086181  0.7235535511417758
  0.6003617464994812  0.0006012040757722  0.7421736938272060
  0.2726305853965382  0.1241142216231351  0.7700725293550361
  0.5709036900867248  0.3753576682607225  0.7920344814796918
  0.3838871877348626  0.1248100051942030  0.7013175934547656
 
  0.00000000E+00  0.00000000E+00  0.00000000E+00
  0.00000000E+00  0.00000000E+00  0.00000000E+00
  0.00000000E+00  0.00000000E+00  0.00000000E+00
  0.00000000E+00  0.00000000E+00  0.00000000E+00
  0.00000000E+00  0.00000000E+00  0.00000000E+00
  0.00000000E+00  0.00000000E+00  0.00000000E+00
  0.00000000E+00  0.00000000E+00  0.00000000E+00
  0.00000000E+00  0.00000000E+00  0.00000000E+00
  0.00000000E+00  0.00000000E+00  0.00000000E+00
  0.00000000E+00  0.00000000E+00  0.00000000E+00
  0.00000000E+00  0.00000000E+00  0.00000000E+00
  0.00000000E+00  0.00000000E+00  0.00000000E+00
  0.00000000E+00  0.00000000E+00  0.00000000E+00
  0.00000000E+00  0.00000000E+00  0.00000000E+00
  0.00000000E+00  0.00000000E+00  0.00000000E+00
  0.00000000E+00  0.00000000E+00  0.00000000E+00
  0.00000000E+00  0.00000000E+00  0.00000000E+00
  0.00000000E+00  0.00000000E+00  0.00000000E+00
  0.00000000E+00  0.00000000E+00  0.00000000E+00
  0.00000000E+00  0.00000000E+00  0.00000000E+00
  0.00000000E+00  0.00000000E+00  0.00000000E+00
  0.00000000E+00  0.00000000E+00  0.00000000E+00
  0.00000000E+00  0.00000000E+00  0.00000000E+00
  0.00000000E+00  0.00000000E+00  0.00000000E+00
  0.00000000E+00  0.00000000E+00  0.00000000E+00
  0.00000000E+00  0.00000000E+00  0.00000000E+00
  0.00000000E+00  0.00000000E+00  0.00000000E+00
  0.00000000E+00  0.00000000E+00  0.00000000E+00
  0.00000000E+00  0.00000000E+00  0.00000000E+00
  0.00000000E+00  0.00000000E+00  0.00000000E+00
  0.00000000E+00  0.00000000E+00  0.00000000E+00
  0.00000000E+00  0.00000000E+00  0.00000000E+00
  0.00000000E+00  0.00000000E+00  0.00000000E+00
  0.00000000E+00  0.00000000E+00  0.00000000E+00
  0.00000000E+00  0.00000000E+00  0.00000000E+00
  0.00000000E+00  0.00000000E+00  0.00000000E+00
  0.00000000E+00  0.00000000E+00  0.00000000E+00
  0.00000000E+00  0.00000000E+00  0.00000000E+00
  0.00000000E+00  0.00000000E+00  0.00000000E+00
  0.00000000E+00  0.00000000E+00  0.00000000E+00
  0.00000000E+00  0.00000000E+00  0.00000000E+00
  0.00000000E+00  0.00000000E+00  0.00000000E+00
  0.00000000E+00  0.00000000E+00  0.00000000E+00
  0.00000000E+00  0.00000000E+00  0.00000000E+00
  0.00000000E+00  0.00000000E+00  0.00000000E+00
  0.00000000E+00  0.00000000E+00  0.00000000E+00
  0.00000000E+00  0.00000000E+00  0.00000000E+00
  0.00000000E+00  0.00000000E+00  0.00000000E+00
  0.00000000E+00  0.00000000E+00  0.00000000E+00
  0.00000000E+00  0.00000000E+00  0.00000000E+00
  0.00000000E+00  0.00000000E+00  0.00000000E+00
  0.00000000E+00  0.00000000E+00  0.00000000E+00
  0.00000000E+00  0.00000000E+00  0.00000000E+00
  0.00000000E+00  0.00000000E+00  0.00000000E+00
  0.00000000E+00  0.00000000E+00  0.00000000E+00
  0.00000000E+00  0.00000000E+00  0.00000000E+00
  0.00000000E+00  0.00000000E+00  0.00000000E+00
  0.00000000E+00  0.00000000E+00  0.00000000E+00
  0.00000000E+00  0.00000000E+00  0.00000000E+00
  0.00000000E+00  0.00000000E+00  0.00000000E+00
  0.00000000E+00  0.00000000E+00  0.00000000E+00
  0.00000000E+00  0.00000000E+00  0.00000000E+00
  0.00000000E+00  0.00000000E+00  0.00000000E+00
  0.00000000E+00  0.00000000E+00  0.00000000E+00
  0.00000000E+00  0.00000000E+00  0.00000000E+00
  0.00000000E+00  0.00000000E+00  0.00000000E+00
  0.00000000E+00  0.00000000E+00  0.00000000E+00
  0.00000000E+00  0.00000000E+00  0.00000000E+00
  0.00000000E+00  0.00000000E+00  0.00000000E+00
  0.00000000E+00  0.00000000E+00  0.00000000E+00
  0.00000000E+00  0.00000000E+00  0.00000000E+00
  0.00000000E+00  0.00000000E+00  0.00000000E+00
  0.00000000E+00  0.00000000E+00  0.00000000E+00
  0.00000000E+00  0.00000000E+00  0.00000000E+00
  0.00000000E+00  0.00000000E+00  0.00000000E+00
  0.00000000E+00  0.00000000E+00  0.00000000E+00
  0.00000000E+00  0.00000000E+00  0.00000000E+00
  0.00000000E+00  0.00000000E+00  0.00000000E+00
  0.00000000E+00  0.00000000E+00  0.00000000E+00
  0.00000000E+00  0.00000000E+00  0.00000000E+00
  0.00000000E+00  0.00000000E+00  0.00000000E+00
  0.00000000E+00  0.00000000E+00  0.00000000E+00
  0.00000000E+00  0.00000000E+00  0.00000000E+00
  0.00000000E+00  0.00000000E+00  0.00000000E+00
  0.00000000E+00  0.00000000E+00  0.00000000E+00
  0.00000000E+00  0.00000000E+00  0.00000000E+00
  0.00000000E+00  0.00000000E+00  0.00000000E+00
  0.00000000E+00  0.00000000E+00  0.00000000E+00
  0.00000000E+00  0.00000000E+00  0.00000000E+00
  0.00000000E+00  0.00000000E+00  0.00000000E+00
  0.00000000E+00  0.00000000E+00  0.00000000E+00
  0.00000000E+00  0.00000000E+00  0.00000000E+00
  0.00000000E+00  0.00000000E+00  0.00000000E+00
  0.00000000E+00  0.00000000E+00  0.00000000E+00
  0.00000000E+00  0.00000000E+00  0.00000000E+00
  0.00000000E+00  0.00000000E+00  0.00000000E+00
  0.00000000E+00  0.00000000E+00  0.00000000E+00
  0.00000000E+00  0.00000000E+00  0.00000000E+00
  0.00000000E+00  0.00000000E+00  0.00000000E+00
  0.00000000E+00  0.00000000E+00  0.00000000E+00
  0.00000000E+00  0.00000000E+00  0.00000000E+00
  0.00000000E+00  0.00000000E+00  0.00000000E+00
  0.00000000E+00  0.00000000E+00  0.00000000E+00
  0.00000000E+00  0.00000000E+00  0.00000000E+00
  0.00000000E+00  0.00000000E+00  0.00000000E+00
  0.00000000E+00  0.00000000E+00  0.00000000E+00
  0.00000000E+00  0.00000000E+00  0.00000000E+00
  0.00000000E+00  0.00000000E+00  0.00000000E+00
  0.00000000E+00  0.00000000E+00  0.00000000E+00
  0.00000000E+00  0.00000000E+00  0.00000000E+00
  0.00000000E+00  0.00000000E+00  0.00000000E+00
  0.00000000E+00  0.00000000E+00  0.00000000E+00
  0.00000000E+00  0.00000000E+00  0.00000000E+00
  0.00000000E+00  0.00000000E+00  0.00000000E+00
  0.00000000E+00  0.00000000E+00  0.00000000E+00
  0.00000000E+00  0.00000000E+00  0.00000000E+00
  0.00000000E+00  0.00000000E+00  0.00000000E+00
  0.00000000E+00  0.00000000E+00  0.00000000E+00
  0.00000000E+00  0.00000000E+00  0.00000000E+00
  0.00000000E+00  0.00000000E+00  0.00000000E+00
  0.00000000E+00  0.00000000E+00  0.00000000E+00
  0.00000000E+00  0.00000000E+00  0.00000000E+00
  0.00000000E+00  0.00000000E+00  0.00000000E+00
  0.00000000E+00  0.00000000E+00  0.00000000E+00
  0.00000000E+00  0.00000000E+00  0.00000000E+00
  0.00000000E+00  0.00000000E+00  0.00000000E+00
  0.00000000E+00  0.00000000E+00  0.00000000E+00
  0.00000000E+00  0.00000000E+00  0.00000000E+00
  0.00000000E+00  0.00000000E+00  0.00000000E+00
  0.00000000E+00  0.00000000E+00  0.00000000E+00
  0.00000000E+00  0.00000000E+00  0.00000000E+00
  0.00000000E+00  0.00000000E+00  0.00000000E+00
  0.00000000E+00  0.00000000E+00  0.00000000E+00
  0.00000000E+00  0.00000000E+00  0.00000000E+00
  0.00000000E+00  0.00000000E+00  0.00000000E+00
  0.00000000E+00  0.00000000E+00  0.00000000E+00
  0.00000000E+00  0.00000000E+00  0.00000000E+00
  0.00000000E+00  0.00000000E+00  0.00000000E+00
  0.00000000E+00  0.00000000E+00  0.00000000E+00
  0.00000000E+00  0.00000000E+00  0.00000000E+00
  0.00000000E+00  0.00000000E+00  0.00000000E+00
  0.00000000E+00  0.00000000E+00  0.00000000E+00
  0.00000000E+00  0.00000000E+00  0.00000000E+00
  0.00000000E+00  0.00000000E+00  0.00000000E+00
  0.00000000E+00  0.00000000E+00  0.00000000E+00
  0.00000000E+00  0.00000000E+00  0.00000000E+00
  0.00000000E+00  0.00000000E+00  0.00000000E+00
  0.00000000E+00  0.00000000E+00  0.00000000E+00
  0.00000000E+00  0.00000000E+00  0.00000000E+00
  0.00000000E+00  0.00000000E+00  0.00000000E+00
  0.00000000E+00  0.00000000E+00  0.00000000E+00
  0.00000000E+00  0.00000000E+00  0.00000000E+00
  0.00000000E+00  0.00000000E+00  0.00000000E+00
  0.00000000E+00  0.00000000E+00  0.00000000E+00
  0.00000000E+00  0.00000000E+00  0.00000000E+00
  0.00000000E+00  0.00000000E+00  0.00000000E+00
  0.00000000E+00  0.00000000E+00  0.00000000E+00
  0.00000000E+00  0.00000000E+00  0.00000000E+00
  0.00000000E+00  0.00000000E+00  0.00000000E+00
  0.00000000E+00  0.00000000E+00  0.00000000E+00
  0.00000000E+00  0.00000000E+00  0.00000000E+00
  0.00000000E+00  0.00000000E+00  0.00000000E+00
  0.00000000E+00  0.00000000E+00  0.00000000E+00
  0.00000000E+00  0.00000000E+00  0.00000000E+00
  0.00000000E+00  0.00000000E+00  0.00000000E+00
  0.00000000E+00  0.00000000E+00  0.00000000E+00
  0.00000000E+00  0.00000000E+00  0.00000000E+00
  0.00000000E+00  0.00000000E+00  0.00000000E+00
  0.00000000E+00  0.00000000E+00  0.00000000E+00
  0.00000000E+00  0.00000000E+00  0.00000000E+00
  0.00000000E+00  0.00000000E+00  0.00000000E+00
  0.00000000E+00  0.00000000E+00  0.00000000E+00
  0.00000000E+00  0.00000000E+00  0.00000000E+00
  0.00000000E+00  0.00000000E+00  0.00000000E+00
  0.00000000E+00  0.00000000E+00  0.00000000E+00
  0.00000000E+00  0.00000000E+00  0.00000000E+00
  0.00000000E+00  0.00000000E+00  0.00000000E+00
  0.00000000E+00  0.00000000E+00  0.00000000E+00
  0.00000000E+00  0.00000000E+00  0.00000000E+00
  0.00000000E+00  0.00000000E+00  0.00000000E+00
  0.00000000E+00  0.00000000E+00  0.00000000E+00
  0.00000000E+00  0.00000000E+00  0.00000000E+00
  0.00000000E+00  0.00000000E+00  0.00000000E+00
  0.00000000E+00  0.00000000E+00  0.00000000E+00
  0.00000000E+00  0.00000000E+00  0.00000000E+00
  0.00000000E+00  0.00000000E+00  0.00000000E+00
  0.00000000E+00  0.00000000E+00  0.00000000E+00
  0.00000000E+00  0.00000000E+00  0.00000000E+00
  0.00000000E+00  0.00000000E+00  0.00000000E+00
  0.00000000E+00  0.00000000E+00  0.00000000E+00
  0.00000000E+00  0.00000000E+00  0.00000000E+00
  0.00000000E+00  0.00000000E+00  0.00000000E+00
  0.00000000E+00  0.00000000E+00  0.00000000E+00
  0.00000000E+00  0.00000000E+00  0.00000000E+00
  0.00000000E+00  0.00000000E+00  0.00000000E+00
  0.00000000E+00  0.00000000E+00  0.00000000E+00
  0.00000000E+00  0.00000000E+00  0.00000000E+00
  0.00000000E+00  0.00000000E+00  0.00000000E+00
  0.00000000E+00  0.00000000E+00  0.00000000E+00
  0.00000000E+00  0.00000000E+00  0.00000000E+00
  0.00000000E+00  0.00000000E+00  0.00000000E+00
  0.00000000E+00  0.00000000E+00  0.00000000E+00
  0.00000000E+00  0.00000000E+00  0.00000000E+00
  0.00000000E+00  0.00000000E+00  0.00000000E+00
  0.00000000E+00  0.00000000E+00  0.00000000E+00
  0.00000000E+00  0.00000000E+00  0.00000000E+00
  0.00000000E+00  0.00000000E+00  0.00000000E+00
  0.00000000E+00  0.00000000E+00  0.00000000E+00
  0.00000000E+00  0.00000000E+00  0.00000000E+00
  0.00000000E+00  0.00000000E+00  0.00000000E+00
  0.00000000E+00  0.00000000E+00  0.00000000E+00
  0.00000000E+00  0.00000000E+00  0.00000000E+00
  0.00000000E+00  0.00000000E+00  0.00000000E+00
  0.00000000E+00  0.00000000E+00  0.00000000E+00
  0.00000000E+00  0.00000000E+00  0.00000000E+00
  0.00000000E+00  0.00000000E+00  0.00000000E+00
  0.00000000E+00  0.00000000E+00  0.00000000E+00
  0.00000000E+00  0.00000000E+00  0.00000000E+00
  0.00000000E+00  0.00000000E+00  0.00000000E+00
  0.00000000E+00  0.00000000E+00  0.00000000E+00
  0.00000000E+00  0.00000000E+00  0.00000000E+00
  0.00000000E+00  0.00000000E+00  0.00000000E+00
  0.00000000E+00  0.00000000E+00  0.00000000E+00
  0.00000000E+00  0.00000000E+00  0.00000000E+00
  0.00000000E+00  0.00000000E+00  0.00000000E+00
  0.00000000E+00  0.00000000E+00  0.00000000E+00
  0.00000000E+00  0.00000000E+00  0.00000000E+00
  0.00000000E+00  0.00000000E+00  0.00000000E+00
  0.00000000E+00  0.00000000E+00  0.00000000E+00
  0.00000000E+00  0.00000000E+00  0.00000000E+00
  0.00000000E+00  0.00000000E+00  0.00000000E+00
  0.00000000E+00  0.00000000E+00  0.00000000E+00
  0.00000000E+00  0.00000000E+00  0.00000000E+00
  0.00000000E+00  0.00000000E+00  0.00000000E+00
  0.00000000E+00  0.00000000E+00  0.00000000E+00
  0.00000000E+00  0.00000000E+00  0.00000000E+00
  0.00000000E+00  0.00000000E+00  0.00000000E+00
  0.00000000E+00  0.00000000E+00  0.00000000E+00
  0.00000000E+00  0.00000000E+00  0.00000000E+00
  0.00000000E+00  0.00000000E+00  0.00000000E+00
  0.00000000E+00  0.00000000E+00  0.00000000E+00
  0.00000000E+00  0.00000000E+00  0.00000000E+00
