Ta  N Co Cu                             
   1.00000000000000     
    18.1096308199999996    0.0000000000000000    0.0000000000000000
     0.0000000000000000   23.3551997799999995    0.0000000000000000
     0.0000000000000000    0.0000000000000000   30.4818171199999988
   Ta   N    Co   Cu
   228   240    12     1
Direct
  0.0000001885047212  0.0000759947242983  0.1977901186601514
  0.3339375522635919  0.0624372925084558  0.2027155938093799
  0.1658672653926061  0.0624553508594161  0.2030414678170800
  0.2499101287496188  0.1250475059788343  0.2784613725904705
  0.0826147644836723  0.0625792575891140  0.2844095818915733
  0.4170026073433419  0.0624966724222418  0.2841261277659015
  0.0000236518027918  0.1250767253485918  0.3701260668151320
  0.3316358957421457  0.0625058465387198  0.3687875938742735
  0.1679051415302126  0.0625578811679617  0.3687296526706945
  0.2507443480507661  0.1272536993153537  0.4576405819767899
  0.0849525176013728  0.0626729702158215  0.4552140319468876
  0.4168678970794417  0.0620870451997320  0.4535609461389001
  0.9999227332481837  0.1251538180209764  0.5414347228378915
  0.3327132325018027  0.0605307601390308  0.5431067180781639
  0.0000204970060622  0.1250528564193374  0.1978203547314834
  0.3338904971432513  0.1876340960295195  0.2027542460849361
  0.1659782761792172  0.1876562243193618  0.2030948586384298
  0.2499735243810832  0.2499870300445863  0.2784406770510870
  0.0825385578288120  0.1875742458781886  0.2844984379817816
  0.4171052374047619  0.1874915525171374  0.2842113323435314
  0.9999977076079318  0.2501381277866344  0.3701353717155058
  0.3315386406844354  0.1873986396001968  0.3687895580876130
  0.1679672977476656  0.1875950225781580  0.3685788035533903
  0.2501410045272578  0.2482476540280061  0.4574060838639795
  0.0835649051570186  0.1878523396413314  0.4538809957352328
  0.4176299921629365  0.1877040919709785  0.4530569209844586
  0.0001415931801958  0.2490198214860371  0.5417991336569301
  0.3432607875612135  0.1867041049829297  0.5414411956423422
  0.1716359891614303  0.1859744647001875  0.5431561797471502
  0.0000021111736004  0.2501035780556435  0.1977953770082976
  0.3339712763969587  0.3124670624763510  0.2028192673602831
  0.1659083932794871  0.3124784065962345  0.2030964150568266
  0.2499562142151177  0.3750300437064809  0.2785511164953931
  0.0826484776840388  0.3125808100701164  0.2844656001488559
  0.4170043810061657  0.3125087215186753  0.2842699673789468
  0.9999177934693080  0.3750551965531770  0.3701529384501683
  0.3315909145526703  0.3125436636590351  0.3689382841864841
  0.1679132948044924  0.3125835480466606  0.3688161234361331
  0.2508728467706476  0.3772553108773664  0.4580071270284805
  0.0849235229841696  0.3126372803443473  0.4552051273553417
  0.4168383808895868  0.3119376398910632  0.4536549355048223
  0.9993405988596891  0.3751214953029418  0.5414015148408851
  0.3316415639114751  0.3094090607310847  0.5438837806174277
  0.0000123733806561  0.3750405421006064  0.1978436244958317
  0.3339884020006494  0.4375885408158808  0.2028799059106987
  0.1659377727230975  0.4376461828582947  0.2031564700298034
  0.2499400659225941  0.9999929679124122  0.2783626238982180
  0.0825338876246136  0.4375581745881547  0.2845935682406378
  0.4171144068223569  0.4374850020178940  0.2843827646864767
  0.0000020686253421  0.0001798478126531  0.3701072976130035
  0.3315571079015385  0.4374803557809983  0.3691030243101494
  0.1680327965201940  0.4376329057462840  0.3687789335195291
  0.2501959981799047  0.9983056741800596  0.4573980759071290
  0.0831029598934379  0.4377940019940070  0.4538406972488929
  0.4180779406963353  0.4378272808053580  0.4531524878319004
  0.9998085755895332  0.9990995917955701  0.5417912983920701
  0.3383943492167205  0.4374764987765474  0.5404110312837247
  0.1700083698138997  0.4366460069021798  0.5430096961345470
  0.0000165059198167  0.5000538855727470  0.1978512664408640
  0.3340058356600082  0.5624289369394191  0.2028681855632328
  0.1658686417113699  0.5624619002809368  0.2031316564997994
  0.2499551468834298  0.6249938954937804  0.2785614683129936
  0.0826833703573513  0.5625429054954907  0.2845081538551355
  0.4169794862335436  0.5624758460957295  0.2843138830548142
  0.9999934660308369  0.6250689225395902  0.3701490242221084
  0.3315673421572924  0.5625504811632851  0.3690202019805753
  0.1679352589768044  0.5625701373483025  0.3688801208472583
  0.2506651248992924  0.6277517601039833  0.4582935682517473
  0.0847631663407569  0.5627204799410777  0.4551835604730812
  0.4171996609714057  0.5620142877050682  0.4538448043464314
  0.0000933955464433  0.6252907112811243  0.5414044637135618
  0.3332972052609975  0.5623025692296792  0.5432223131012393
  0.0000127765593163  0.6250010118180001  0.1978514771424642
  0.3339100120787961  0.6875485898484328  0.2028143817784098
  0.1659691574555637  0.6875873413955418  0.2031297764984430
  0.2499730549681658  0.7499740758367892  0.2783875349682390
  0.0825659841106017  0.6875405010437703  0.2845461779895899
  0.4171278886310716  0.6874673152656072  0.2842777857878005
  0.0000307124405055  0.7501911136210637  0.3701226790252719
  0.3315331448018526  0.6873914945220037  0.3689192967013284
  0.1679852237743162  0.6875651342725604  0.3686780014847528
  0.2502032957682729  0.7484099258608197  0.4574316012416304
  0.0833840624280455  0.6879096896912174  0.4538478974186830
  0.4179289637206196  0.6878956301693648  0.4529778086490523
  0.0001350380396588  0.7491921128632555  0.5417760793986162
  0.3435192097239508  0.6880604616085506  0.5410436898820450
  0.1716571769159074  0.6871951572397847  0.5429531016385738
  0.0000120906285943  0.7500424653376783  0.1978141852624375
  0.3339434138660948  0.8123986263927208  0.2027285619419601
  0.1658673932932331  0.8124379316194350  0.2030487541621397
  0.2499054324104719  0.8750150612025180  0.2784214921321180
  0.0826168200875372  0.8125519431192956  0.2844266920865550
  0.4170095261519577  0.8124794935385111  0.2841463450878692
  0.0000025023918795  0.8750885378785398  0.3700970195133806
  0.3316358841167357  0.8125491109959029  0.3687795273829764
  0.1679240995483013  0.8125719300340961  0.3687325923614466
  0.2506944023196382  0.8773661484063453  0.4577929197830173
  0.0849021120016502  0.8127464393449060  0.4552072588906810
  0.4169641314259209  0.8122374815335220  0.4535081255168265
  0.9998384877821849  0.8753154434240287  0.5414093649158289
  0.3328090831720871  0.8110460749725306  0.5430285989722847
  0.0000099888293619  0.8749817953622170  0.1978220157455439
  0.3338306489139669  0.9375909868104912  0.2027234465797463
  0.1659991439357213  0.9376174332912441  0.2030946618614493
  0.2499930500436847  0.4999965348650477  0.2785589479017005
  0.0825294107086947  0.9375587938055574  0.2844865246682957
  0.4171170533594548  0.9374818299862255  0.2841316066010435
  0.9998982046663016  0.5001557923461135  0.3701516359162298
  0.3315562448831457  0.9374069804202705  0.3687348069324798
  0.1679660269824836  0.9376022511301230  0.3685656176455154
  0.2501512298415349  0.4979229634151707  0.4581678763962316
  0.0834552926646381  0.9378789011018185  0.4538266747013111
  0.4178185512434922  0.9378243794261181  0.4529196068567671
  0.9995294522871134  0.4991177148128401  0.5417038023323641
  0.3430375467263076  0.9373817662501480  0.5412347363087662
  0.1718915062346227  0.9367918491681735  0.5430198559504618
  0.4999991162209980  0.0000479339113539  0.1974897956628254
  0.8341692226430055  0.0624838878020739  0.2030283223696685
  0.6661104478052806  0.0624646249855800  0.2027070093101244
  0.7501359463393129  0.1250743238515923  0.2784249075088852
  0.5830324764724679  0.0625122419788653  0.2841121957345294
  0.9174222236548886  0.0625931629001002  0.2844070248654660
  0.4999085335032092  0.1250217701256631  0.3691770704224453
  0.8320987332460845  0.0626102254442316  0.3687171618956597
  0.6683739510687019  0.0625688177661132  0.3687646003632352
  0.7491542170042678  0.1273320179189525  0.4577892402947867
  0.5829343748079765  0.0621146176407734  0.4534719509900071
  0.9150326034494114  0.0627124599081625  0.4551962831656340
  0.5002141492153456  0.1118490736412525  0.5435169788132583
  0.6671409207902244  0.0607104692171845  0.5429479670464659
  0.4999854212347259  0.1250180645918135  0.1975333121451825
  0.8340669271976680  0.1876447153099150  0.2030748809411662
  0.6661351030203448  0.1876354402592071  0.2027195758533011
  0.7500879128950615  0.2500150900251512  0.2783832683811056
  0.5829133612046604  0.1875005441765225  0.2841810782070979
  0.9175128864523927  0.1875802982427928  0.2845037569974380
  0.4998457748348883  0.2498065508989100  0.3691898894533594
  0.8320069265666348  0.1876219370281191  0.3685883930279488
  0.6684239472356310  0.1874193086420703  0.3687686426427348
  0.7496057169079435  0.2482991339674214  0.4575085931069580
  0.5819914585736470  0.1877345299903936  0.4529302617909252
  0.9165425977675881  0.1878727456966871  0.4538418888017048
  0.8279727778816550  0.1866071238241673  0.5430038295225614
  0.6567310878070316  0.1872155232616493  0.5412365659283651
  0.4999819380504178  0.2500474463446594  0.1975389958037468
  0.8341717975062011  0.3124983713330920  0.2030387714854598
  0.6660352288096973  0.3124720265568186  0.2027518009289082
  0.7501035899680275  0.3750214878897324  0.2784228179881438
  0.5830099686932186  0.3125048480238064  0.2841966430252540
  0.9173961416399550  0.3125836395387509  0.2844281531763428
  0.4999254806614601  0.3749974672425793  0.3692967051571969
  0.8320414384815322  0.3125670153440367  0.3687240320540681
  0.6683819891366554  0.3125283358230178  0.3687720255806823
  0.7491081569382274  0.3772486778798267  0.4577375209649901
  0.5830185543629653  0.3119574344670397  0.4534269352953046
  0.9149304907663378  0.3126399984110790  0.4552115759341717
  0.5004226999842771  0.3622201492607573  0.5425942267708592
  0.6670080030992480  0.3105710659814704  0.5430261186144349
  0.4999554631873124  0.3750089199365405  0.1976240263328748
  0.8341198694471288  0.4376339266568934  0.2030722581763058
  0.6660858795584161  0.4376115626162189  0.2027728562085542
  0.7501072360268921  0.0000164711146411  0.2783458239903993
  0.5828898059406811  0.4374939916652707  0.2842722907451645
  0.9174777228297941  0.4375731705133248  0.2845431081027456
  0.4999941257669249  0.9998610755939836  0.3690875129078250
  0.8319678095932517  0.4376323855057294  0.3686317670840822
  0.6683500219231462  0.4374548151856388  0.3688773786262516
  0.7497289532601101  0.9983616823532486  0.4574074522296101
  0.5822207450462429  0.4378286659652417  0.4530224895528292
  0.9163151953396138  0.4378397629274460  0.4538564409797488
  0.8276598353139022  0.4363613240734523  0.5431608350496973
  0.6571210163644849  0.4376507730650161  0.5410909560802324
  0.4999424066611837  0.4999943921742585  0.1976358572865706
  0.8341745827207916  0.5624734692828000  0.2030611941784599
  0.6660163183461165  0.5624418487964746  0.2027817150705573
  0.7501316223493220  0.6250353565082420  0.2784630828744241
  0.5830430210584794  0.5624902372962808  0.2842265739174934
  0.9173711944426728  0.5625716400379517  0.2844550966356039
  0.4999510032216463  0.6250650200320962  0.3692922877388725
  0.8320327654023529  0.5626002519603048  0.3687378146093749
  0.6684100664857908  0.5625728002264054  0.3688214859837373
  0.7491996055318282  0.6275248407122191  0.4579967304503398
  0.5830032566772516  0.5621686841482898  0.4536170471817726
  0.9148927783598921  0.5627258465483251  0.4551882087157537
  0.5000850024293229  0.6134405368842053  0.5431357855601391
  0.6665839981308892  0.5610176197148817  0.5430421883378926
  0.4999757217452370  0.6249698899382494  0.1976441367372104
  0.8340855053924869  0.6876207148708744  0.2030866090719030
  0.6661154663034665  0.6875810431862988  0.2027470747264886
  0.7500944967405516  0.7500145211959435  0.2783486149621126
  0.5829342631295091  0.6874836180832133  0.2842257374165840
  0.9175107874230122  0.6875733928749099  0.2845292067433220
  0.5000275123272289  0.7498907572114888  0.3691341225959235
  0.8320358699437662  0.6876422648882894  0.3686175444970701
  0.6685133697092027  0.6874420600570090  0.3688214965140304
  0.7497776707454022  0.7483636852938034  0.4575186193995506
  0.5822159713193429  0.6879144834979840  0.4529117908794973
  0.9165224135557963  0.6879357238583239  0.4538141419569186
  0.8280484717002992  0.6867039228113825  0.5429880672065437
  0.6565990016042775  0.6875179490852545  0.5411974181425521
  0.4999781211918730  0.7500101322164738  0.1975297357455119
  0.8341593084276937  0.8124547518728633  0.2030349476212621
  0.6660866732640116  0.8124096855282659  0.2026959883415884
  0.7501518903122673  0.8750421966978621  0.2784046544287548
  0.5830441417897774  0.8124922886116295  0.2841184531452470
  0.9174296435496458  0.8125771986391754  0.2844126525212687
  0.5000285678355993  0.8750467667431039  0.3691261205406278
  0.8321043574457576  0.8126199038760120  0.3687075445095616
  0.6684431677567204  0.8125796830905614  0.3687454205374223
  0.7492563879406262  0.8774201660086476  0.4577953191174231
  0.5830255844845880  0.8122180568465041  0.4534473444637257
  0.9150494895628611  0.8127566925930623  0.4551770888092292
  0.4999208051529465  0.8621060662151621  0.5434254936913732
  0.6669322649219680  0.8108683917112884  0.5429158595009866
  0.4999842315750200  0.8749680033283411  0.1975250292334749
  0.8340451760297753  0.9376296763531258  0.2030913445638092
  0.6662014535363738  0.9376004784906371  0.2027186694657459
  0.7500559323792828  0.5000319594290588  0.2783992652565246
  0.5829359791916460  0.9374913689968594  0.2841234782368076
  0.9175118371495117  0.9375807880085389  0.2844910701514749
  0.4999500584982712  0.4999186058294853  0.3692980925629001
  0.8320342938860392  0.9376524603908223  0.3685642468213288
  0.6684746159649038  0.9374476837566093  0.3687122750052154
  0.7496603864530371  0.4982397018590845  0.4576449142523842
  0.5821908997009260  0.9378260914658725  0.4528592620989116
  0.9165172774151316  0.9379266855878612  0.4538145499788158
  0.8277752746277969  0.9367438008184124  0.5429997777518878
  0.6566619478923030  0.9373529950377204  0.5411721831893104
  0.4055198057571374  0.9999732612845449  0.2323130702015135
  0.2498948926940514  0.0000434800415761  0.1992500833211253
  0.0942658485733858  0.0000171887075169  0.2326870746045984
  0.1550112891932329  0.1250489049576657  0.3161308309681772
  0.0000268824924561  0.1250461600386572  0.3035021991707012
  0.3450042924376930  0.1250133956903099  0.3161540202426920
  0.4009746507389451  0.1247431939596311  0.4019293450397683
  0.2496845560223449  0.1249182142645608  0.3890068846844414
  0.0994409592504155  0.1250616744759370  0.4022482443442428
  0.1504410020679785  0.1267661523812649  0.4874038176615869
  0.0000351517394037  0.1251023895856775  0.4731232892914434
  0.3519545828801185  0.1248938992789235  0.4876805517287366
  0.4065483756162749  0.1261396638973906  0.5714598865992642
  0.2568855078107362  0.1300480447296408  0.5557472951805238
  0.0976071673982801  0.1269138628841304  0.5695295109385512
  0.4054291732119708  0.1250608989320128  0.2323792895684491
  0.2499031949185238  0.1250404571335864  0.1997294303809198
  0.0943621477812613  0.1251100132577605  0.2327294109022446
  0.1549625069699729  0.2500817759914398  0.3161073758244086
  0.0000278497140584  0.2501282503474300  0.3035175188866290
  0.3450163031487961  0.2499827108557966  0.3161487670297873
  0.4008762457787398  0.2499984943726901  0.4017636378414053
  0.2496460153602342  0.2501134962632747  0.3888685406462074
  0.0994816326946548  0.2502275184122453  0.4023083092556234
  0.1504214628815177  0.2489109058441414  0.4881288135260107
  0.0000119461316999  0.2502639910258253  0.4732958547981241
  0.3506222118174804  0.2503272137829811  0.4872650980636877
  0.4108459693355968  0.2544223350925350  0.5649330993748336
  0.2584193727357373  0.2475241609805963  0.5558382490911953
  0.0976377261832795  0.2472948235445571  0.5698042825768255
  0.4055558325786208  0.2499933981251701  0.2324233039908421
  0.2499281643489581  0.2500652958456868  0.1993258581985415
  0.0942662700300758  0.2500514400107434  0.2327115812483314
  0.1550880560314027  0.3751193476992682  0.3162508936507393
  0.0000115133164300  0.3750310311925489  0.3035407927785414
  0.3449362898789872  0.3751014091927800  0.3163488394510523
  0.4010337520171632  0.3748576685067349  0.4021026527781402
  0.2496998724659534  0.3749866815150682  0.3893253056725072
  0.0993108233221989  0.3750730102127164  0.4022668931270346
  0.1502029468682053  0.3767456422522741  0.4874224916839083
  0.9997632650255710  0.3750353349625541  0.4730881205027231
  0.3526075135649194  0.3746785925877063  0.4882288904826879
  0.4067363020526855  0.3757196701021357  0.5736416580755517
  0.2561977055018403  0.3804603615584625  0.5558972944917429
  0.0968559121477881  0.3768942091934946  0.5695413314089279
  0.4054663278486217  0.3750659626772475  0.2325511204182220
  0.2499179992002212  0.3750591157673568  0.1998554880287671
  0.0943606208244816  0.3751263952998869  0.2327991529343620
  0.1549444486152041  0.0000648221890458  0.3160587934172554
  0.0000195711615518  0.0001228119877155  0.3034950548806208
  0.3450239426670834  0.9999390000389354  0.3160335975671202
  0.4010095561586766  0.0000578251419796  0.4016090982081408
  0.2496633755893853  0.0001141093126265  0.3888197413165813
  0.0994738340510395  0.0002535981958616  0.4022762896737362
  0.1503186971452450  0.9989282465968543  0.4880484678762045
  0.9999794722541679  0.0003301060117593  0.4732721401834610
  0.3508862390485845  0.0003311162406874  0.4870033412393084
  0.4108906524189777  0.0044125378429811  0.5648754804714216
  0.2583335579583306  0.9973021890603917  0.5554617827196680
  0.0973244999169296  0.9976085596274089  0.5697991136885960
  0.4055403534346596  0.4999227997300792  0.2325583432266285
  0.2499474705744618  0.5000274727625822  0.1996146121534466
  0.0942686987126464  0.4999922985011409  0.2327927678939545
  0.1550748672596995  0.6250194155287900  0.3162333385835794
  0.0000298080455394  0.6250149445272015  0.3035293386442248
  0.3449671421382590  0.6249846746192418  0.3163119085890074
  0.4010182484539584  0.6247692014431507  0.4020108635025252
  0.2496691817575396  0.6248692728911038  0.3894026643735558
  0.0993783535086692  0.6250783348008966  0.4022663185989614
  0.1498657077024035  0.6269109085913129  0.4874254619725065
  0.9998879139558170  0.6251454104567742  0.4730886024352827
  0.3526407866044821  0.6251145931771944  0.4876528190725651
  0.4060255103496573  0.6265324827008101  0.5714584289204723
  0.2568065666789892  0.6289746930466720  0.5532860772610277
  0.0978121016069835  0.6275076937394317  0.5694944813704552
  0.4054498043562518  0.6250164007460910  0.2325201910237169
  0.2499250403277031  0.6249712124413662  0.1996990207443687
  0.0943481586674508  0.6250594768317370  0.2327926455902016
  0.1549870035430772  0.7500267879633853  0.3161029591538096
  0.0000360689143193  0.7501055424301200  0.3035201054017520
  0.3450101166864741  0.7499072208493018  0.3161130464635988
  0.4010110662286692  0.7501146599995181  0.4016403958626427
  0.2496650936202300  0.7501294943886592  0.3888640669624124
  0.0995035830282092  0.7502774365424401  0.4022926973308074
  0.1503008189568433  0.7490597977777327  0.4880754989183842
  0.9999821500861188  0.7503523445965854  0.4732825230775646
  0.3509145293662215  0.7506695503604419  0.4870095139667754
  0.4110171944832643  0.7547223157516498  0.5649992833598461
  0.2586749209394270  0.7468897515864157  0.5557633521219003
  0.0976901901018508  0.7479019226496462  0.5698480976686966
  0.4055423387416042  0.7499247743869617  0.2324032750183989
  0.2499098920212148  0.7499911307947968  0.1993893691545168
  0.0942751437547855  0.7499862292286608  0.2327333946483705
  0.1550187072260130  0.8750482345968322  0.3161178654424006
  0.0000177955701943  0.8750401580462750  0.3034868944939220
  0.3450001233312463  0.8750237345173986  0.3161140883183862
  0.4010714508360493  0.8748130169880000  0.4018280245165187
  0.2496726200642883  0.8749564473879516  0.3890556587594389
  0.0994067074987797  0.8750717356112432  0.4022225433061664
  0.1501900697466496  0.8768726196267735  0.4874062887749702
  0.9999766592752337  0.8751589680370913  0.4730770060238285
  0.3522163971168553  0.8751381274664212  0.4875049733633361
  0.4060423540943461  0.8761899370743222  0.5713311890428585
  0.2565301498837229  0.8796556209326525  0.5547181244581765
  0.0975194783712539  0.8773869248858048  0.5694651876526819
  0.4054130397372120  0.8750105029678750  0.2323513989397625
  0.2498983714511951  0.8749844482218307  0.1996227069610086
  0.0943522174541727  0.8750657760567790  0.2327289449228118
  0.1550261342903596  0.5000332451012213  0.3162440973409275
  0.0000013111709904  0.5001224449785724  0.3035484887652444
  0.3449767747253389  0.4999458893301707  0.3163456369724429
  0.4010206806760976  0.5000290239638119  0.4019213080105644
  0.2496374314620624  0.5002585413583489  0.3894036015219058
  0.0993456682938003  0.5002159907545618  0.4023217813244244
  0.1496365757710052  0.4989110262763106  0.4879626516708839
  0.9997192101344368  0.5003164090416590  0.4732124018607848
  0.3514835693384981  0.5002761380936676  0.4875803869239448
  0.4093664426223498  0.5066863763811895  0.5688584898028637
  0.2570098089584079  0.4979317766905353  0.5541914220175315
  0.0969049426300330  0.4974917192297212  0.5699017348223592
  0.9057525308689378  0.0000287933817020  0.2326984233945453
  0.7501409703582524  0.0000536867862664  0.1992747302042162
  0.5944936954883957  0.9999809281369707  0.2322975043569144
  0.6550547436770842  0.1250492030283823  0.3161201811214625
  0.5000088014505266  0.1250039941002257  0.3027374152490125
  0.8450072619900979  0.1250864043090942  0.3161241320198869
  0.9006086093142684  0.1250817092548928  0.4022299705967853
  0.7503094448600223  0.1249717690348078  0.3890669832463658
  0.5988733671446766  0.1247766992871959  0.4018410544267539
  0.6476164343160917  0.1250692771564275  0.4875015488199068
  0.4998626965482202  0.1243740922879653  0.4746270351986439
  0.8496795033283533  0.1268638519820797  0.4873437008718255
  0.9022330022639125  0.1272269014554794  0.5694590146260126
  0.7432401566290849  0.1298217684213085  0.5548003343185641
  0.5938517124640157  0.1260777564666213  0.5713995355893147
  0.9056687761205424  0.1251187858118072  0.2327312775027721
  0.7501339253549730  0.1250541496820503  0.1996165755766413
  0.5945782556483223  0.1250736301114017  0.2323477738515152
  0.6550235106708087  0.2499550783899522  0.3160630059406344
  0.5000063964210710  0.2499959610091906  0.3027524071397707
  0.8450872308503179  0.2500683251533005  0.3160743905044754
  0.9005048480550002  0.2502519841792505  0.4022918594870930
  0.7503040205805931  0.2501361982768699  0.3888975466643174
  0.5989125663666002  0.2499994720378425  0.4015905143478093
  0.6488337661934978  0.2502907366923424  0.4869716272703926
  0.4998500858917296  0.2500378968240824  0.4735984590091675
  0.8496304443397733  0.2489191352998432  0.4880419882043938
  0.9025633867340161  0.2473774130530799  0.5698005694117896
  0.7415050493711135  0.2474530144065952  0.5551063234114508
  0.5892598444108330  0.2544169073152105  0.5650459522951792
  0.9057400397447068  0.2500388669373379  0.2327073016029004
  0.7501238272248685  0.2500808643403474  0.1993560823564877
  0.5944630037292526  0.2499870669929365  0.2323623380973459
  0.6550726967945977  0.3750752623527092  0.3161733857349347
  0.5000100652483965  0.3749989730449030  0.3028744546418523
  0.8449451282504725  0.3750900550236125  0.3161484066168541
  0.9004883400192085  0.3750382067564217  0.4022426126778385
  0.7502690438693307  0.3749688197477852  0.3890718309644328
  0.5989568182036180  0.3747723482511276  0.4018662218581071
  0.6476610126334705  0.3748892755561073  0.4876343049898324
  0.5000984846465713  0.3742226122162648  0.4740566051632058
  0.8494201049055761  0.3767631457887433  0.4873993585204701
  0.9017803013264185  0.3768937810568076  0.5696197985945233
  0.7428081025238527  0.3799473085353782  0.5554602893077956
  0.5927536665079245  0.3763485635306765  0.5713467270554347
  0.9056689096079324  0.3751280057786701  0.2327583965181717
  0.7501183076657441  0.3750538023662173  0.1996994553122349
  0.5945578630643809  0.3750700461655683  0.2324417842096480
  0.6550371397837580  0.9999787017691091  0.3160129543303682
  0.5000251054865288  0.9999911713255969  0.3026584689293230
  0.8450795895385923  0.0001009177431115  0.3160556479339860
  0.9005175558916889  0.0002956688827567  0.4022602848361885
  0.7503389064020212  0.0001863950292105  0.3888261406100284
  0.5990007523863028  0.0001016967435206  0.4015572836010008
  0.6489703501873478  0.0003977565589608  0.4869291265918179
  0.4999715160793983  0.0000942217733453  0.4734833172076875
  0.8496176381913259  0.9990034396743823  0.4880184400317162
  0.9022547628151258  0.9976302629821419  0.5698050943940487
  0.7414005961380212  0.9972465512866435  0.5553615529729754
  0.5890032309905564  0.0043477695001926  0.5648278718562167
  0.9057378306644637  0.5000087657378458  0.2327379654992683
  0.7501137795083395  0.5000424537868611  0.1994148562294242
  0.5944516906872934  0.4999416853870216  0.2324353449271257
  0.6550917942759327  0.6250368756904408  0.3161874091290073
  0.5000410181058612  0.6249724721410956  0.3028461570766083
  0.8449995875103440  0.6250964978560205  0.3161524987026283
  0.9005676644655978  0.6250993497333894  0.4022206901490790
  0.7503346282642127  0.6249376168352185  0.3891905223754790
  0.5989955994723104  0.6248075140495502  0.4018689396292316
  0.6475226345086824  0.6251712974153065  0.4875624649885708
  0.5001010008868789  0.6246224101466638  0.4742464631261640
  0.8498123849196446  0.6269550059481119  0.4873430178510603
  0.9023215765800643  0.6271788108783909  0.5694079199523756
  0.7433639369314236  0.6296416506738893  0.5542583138987069
  0.5939570510616150  0.6258965476506830  0.5714915438441110
  0.9056597667370099  0.6250932635993891  0.2327582944697184
  0.7501198141962817  0.6250008825685356  0.1996559301871059
  0.5945895397719951  0.6250371851636700  0.2324384156379722
  0.6550695211559230  0.7499533351491650  0.3160629311885188
  0.5000462394918017  0.7499899210757448  0.3027176250209465
  0.8450596247828770  0.7500879138901766  0.3160731495625626
  0.9005413145392680  0.7503205713759513  0.4022630225275634
  0.7503765758357446  0.7501953749183983  0.3888988739575723
  0.5990633780216186  0.7501345320423027  0.4015918907751086
  0.6489432999477742  0.7504900642784307  0.4869640740951979
  0.5000250212259090  0.7502829812865883  0.4734719178670872
  0.8497398073371869  0.7490555548751630  0.4880444455742392
  0.9025663637159340  0.7476091642581011  0.5697956274113807
  0.7414864064472937  0.7472731943957029  0.5551638791752467
  0.5890736726980847  0.7543527448198759  0.5649891083171354
  0.9057532047379624  0.7499996409617395  0.2327227603224031
  0.7501297200201051  0.7500074168499609  0.1993351723785537
  0.5944632707457345  0.7499393962122411  0.2323505422762935
  0.6550694885559665  0.8750416427037706  0.3160859732811829
  0.5000318503217116  0.8749980733751244  0.3026898329775420
  0.8450128410105293  0.8750932317184592  0.3161075323661109
  0.9005943433822949  0.8751174924490428  0.4021992086631698
  0.7503479147822603  0.8749846801457366  0.3890513892478680
  0.5989892197710205  0.8748128050337556  0.4017885800823180
  0.6476918112206747  0.8751211175853371  0.4874378312321852
  0.4999936919160319  0.8745046379948533  0.4745097339254869
  0.8497821908005960  0.8769141512782426  0.4873271985687921
  0.9021205521874052  0.8773304405519582  0.5694628837042828
  0.7432185657145141  0.8796438577240409  0.5545495788320665
  0.5936313038588494  0.8761170497765605  0.5712693166590341
  0.9056673665466946  0.8750904160893072  0.2327360177269853
  0.7501334656221559  0.8749949953894642  0.1996008377314240
  0.5945935691176487  0.8750221602816879  0.2323206561485236
  0.6550389956389466  0.4999526957708937  0.3161480367540506
  0.5000202065991175  0.4999921331501795  0.3028604800656325
  0.8450153575265844  0.5000713968110162  0.3161125754716849
  0.9004069094079910  0.5002665593907665  0.4022945379424456
  0.7502989711477781  0.5001978777888425  0.3890100388514668
  0.5989699261890209  0.5001389815818555  0.4017212756868460
  0.6488256568691355  0.5004354002636546  0.4870543263123253
  0.5000713088580113  0.5003255330264125  0.4740205497631322
  0.8496545539821838  0.4989806724351808  0.4880441604186601
  0.9021398987956459  0.4973355469076282  0.5698515209045780
  0.7416999876533765  0.4975044886140196  0.5548570543624365
  0.5902933794767833  0.5039278281246737  0.5658780190072079
  0.1271580080484895  0.0616280171234038  0.5365036443343385
  0.1270601796645678  0.3116907084253242  0.5364738878002981
  0.1267822739825277  0.5618897439615509  0.5364982255887654
  0.1270368510134361  0.8122069830134322  0.5365497022988848
  0.8729314921309523  0.0618873089701353  0.5365745606900987
  0.5001508896982330  0.2610662501584571  0.5365153272322161
  0.8728144729965095  0.3115438419378194  0.5366392818381627
  0.4999499213072269  0.0107200373924883  0.5363280713648422
  0.8729294655219917  0.5617349572192722  0.5366187933642337
  0.4999711794793811  0.7607137367532459  0.5362901618650895
  0.8731203148319935  0.8118950469201707  0.5366355008026105
  0.5010622153069804  0.5115383939730052  0.5369062638199154
  0.4430740109847235  0.4443747852885735  0.6021522716907484
 
  0.00000000E+00  0.00000000E+00  0.00000000E+00
  0.00000000E+00  0.00000000E+00  0.00000000E+00
  0.00000000E+00  0.00000000E+00  0.00000000E+00
  0.00000000E+00  0.00000000E+00  0.00000000E+00
  0.00000000E+00  0.00000000E+00  0.00000000E+00
  0.00000000E+00  0.00000000E+00  0.00000000E+00