Mo  S Cu                                
   1.00000000000000     
    15.9215000000000000    0.0000000000000000    0.0000000000000000
    -7.9622500000000000   13.7910219999999999    0.0000000000000000
     0.0000000000000000    0.0000000000000000   13.5822000000000003
   Mo   S    Cu
    25    50     2
Direct
  0.1320041381113626  0.0651642569189903  0.6783415140613940
  0.1328979777271329  0.2652445836756456  0.6793718771812749
  0.1330331791873718  0.4654713933903949  0.6793448187321474
  0.1329877233723238  0.6655406399587989  0.6787502718832883
  0.1328820977774541  0.8657198152295464  0.6788133325767376
  0.3331311381901401  0.0652459016697762  0.6805468749926860
  0.3331012854819164  0.2653609019596388  0.6811180899055174
  0.3332539451059091  0.4655955894491797  0.6793956065216449
  0.3331253420196774  0.6657368246096311  0.6784291903406725
  0.3332482730392385  0.8656419686731951  0.6785437791281481
  0.5335002289241970  0.0649868482376021  0.6778853092606454
  0.5332275460039639  0.2653393557574049  0.6805767844875206
  0.5333080248914257  0.4664565743489888  0.6783948217397224
  0.5330042808965203  0.6659888344659564  0.6783153707688996
  0.5330642400361612  0.8653719508059794  0.6779193610571923
  0.7331207386780889  0.0654317714243007  0.6779122689155628
  0.7328525835358732  0.2652448532200395  0.6785554519600296
  0.7327665932525349  0.4655996182374977  0.6788483363503204
  0.7331386357557008  0.6657975330610881  0.6783546052022160
  0.7329540834075559  0.8655328607346533  0.6780345858076657
  0.9324971622054221  0.0654932302445204  0.6782826262016641
  0.9327680675072401  0.2653743696317292  0.6784224010110762
  0.9329603616672983  0.4655128198071381  0.6787569066416665
  0.9328936751281347  0.6655903949025017  0.6785602296326374
  0.9326740072303750  0.8653384289051615  0.6783275544625695
  0.0662174422416015  0.1323320127532810  0.5635349189652672
  0.0650578180511587  0.1313775902985483  0.7942732322440449
  0.0667128839913502  0.3321704992283827  0.5640408987336656
  0.0660538698008466  0.3320969426436022  0.7945426210850925
  0.0664477506582699  0.5320584153060182  0.5639143270796083
  0.0661705277334761  0.5323422216371654  0.7940743585127095
  0.0664188097714487  0.7323717006022790  0.5636861151818664
  0.0661718659844510  0.7322230362509501  0.7936712394778027
  0.0661988914747127  0.9323595997704075  0.5634077556751151
  0.0654873320322054  0.9317346769148287  0.7937360128247022
  0.2669894851858672  0.1326252697209043  0.5654612665686187
  0.2657786528346620  0.1310011716565000  0.7979446946883400
  0.2668022455870300  0.3317147748762537  0.5648332504907714
  0.2655009200654277  0.3329645989739802  0.7952305817511416
  0.2663561772873280  0.5317979696268154  0.5640546750738977
  0.2664160763246244  0.5324751297037764  0.7945353856077944
  0.2662409559912362  0.7322389955129580  0.5634838748550592
  0.2664820382369726  0.7323349457441353  0.7936140197357560
  0.2666014028198731  0.9328706210912614  0.5641526267957602
  0.2658892128087018  0.9310162417552306  0.7944234018039751
  0.4661280366711580  0.1323703668874003  0.5649788325909384
  0.4665724695100906  0.1318864624025764  0.7973969786469439
  0.4658660610905940  0.3314987605307209  0.5654938039967732
  0.4674489316070520  0.3326546420110645  0.7979913404185623
  0.4661738712238090  0.5322677956687798  0.5635790972036858
  0.4671287793686432  0.5334427266194979  0.7943057491117713
  0.4660941970872514  0.7320478929175351  0.5629912822414127
  0.4664778561827561  0.7326021339715965  0.7934642105392626
  0.4664094907048977  0.9321326206250333  0.5629246494619125
  0.4667474145452175  0.9317744574876698  0.7933546690679663
  0.6663685120751808  0.1320983589529732  0.5629249389799895
  0.6667251571841248  0.1317475053470005  0.7933557917888194
  0.6656235020915986  0.3319006480463429  0.5641828722653912
  0.6674772848881361  0.3325947964661182  0.7944484502594591
  0.6661140896072695  0.5322687038059684  0.5634526575136789
  0.6667561166630165  0.5329932750761941  0.7937784285156795
  0.6662406972659198  0.7321374924149069  0.5631264609865880
  0.6664280349478915  0.7325400970445699  0.7933017465900747
  0.6663858016133517  0.9321146795927220  0.5627726323594970
  0.6663533523698746  0.9321581459828536  0.7930118873062142
  0.8664454811039306  0.1324178014382582  0.5629745373372685
  0.8659023083023953  0.1320220895549653  0.7934490157747334
  0.8662673072305225  0.3322734299352206  0.5634905069799672
  0.8661831810967229  0.3320281739087463  0.7936134582970098
  0.8661105924898322  0.5320654113243606  0.5637012588711912
  0.8662895462080158  0.5323316800078857  0.7936856480789913
  0.8663158529729600  0.7321479787568066  0.5632252602456447
  0.8662378280158620  0.7322653795403582  0.7936309815162517
  0.8663411473424887  0.9322515338152826  0.5631052094454390
  0.8659667986835231  0.9320826298178488  0.7932766145697485
  0.2452110061713597  0.3512908646857795  0.9505691965011209
  0.3987783329480123  0.1995504925494558  0.9016010495709423
 
  0.00000000E+00  0.00000000E+00  0.00000000E+00
  0.00000000E+00  0.00000000E+00  0.00000000E+00
  0.00000000E+00  0.00000000E+00  0.00000000E+00
  0.00000000E+00  0.00000000E+00  0.00000000E+00
  0.00000000E+00  0.00000000E+00  0.00000000E+00
  0.00000000E+00  0.00000000E+00  0.00000000E+00
  0.00000000E+00  0.00000000E+00  0.00000000E+00
  0.00000000E+00  0.00000000E+00  0.00000000E+00
  0.00000000E+00  0.00000000E+00  0.00000000E+00
  0.00000000E+00  0.00000000E+00  0.00000000E+00
  0.00000000E+00  0.00000000E+00  0.00000000E+00
  0.00000000E+00  0.00000000E+00  0.00000000E+00
  0.00000000E+00  0.00000000E+00  0.00000000E+00
  0.00000000E+00  0.00000000E+00  0.00000000E+00
  0.00000000E+00  0.00000000E+00  0.00000000E+00
  0.00000000E+00  0.00000000E+00  0.00000000E+00
  0.00000000E+00  0.00000000E+00  0.00000000E+00
  0.00000000E+00  0.00000000E+00  0.00000000E+00
  0.00000000E+00  0.00000000E+00  0.00000000E+00
  0.00000000E+00  0.00000000E+00  0.00000000E+00
  0.00000000E+00  0.00000000E+00  0.00000000E+00
  0.00000000E+00  0.00000000E+00  0.00000000E+00
  0.00000000E+00  0.00000000E+00  0.00000000E+00
  0.00000000E+00  0.00000000E+00  0.00000000E+00
  0.00000000E+00  0.00000000E+00  0.00000000E+00
  0.00000000E+00  0.00000000E+00  0.00000000E+00
  0.00000000E+00  0.00000000E+00  0.00000000E+00
  0.00000000E+00  0.00000000E+00  0.00000000E+00
  0.00000000E+00  0.00000000E+00  0.00000000E+00
  0.00000000E+00  0.00000000E+00  0.00000000E+00
  0.00000000E+00  0.00000000E+00  0.00000000E+00
  0.00000000E+00  0.00000000E+00  0.00000000E+00
  0.00000000E+00  0.00000000E+00  0.00000000E+00
  0.00000000E+00  0.00000000E+00  0.00000000E+00
  0.00000000E+00  0.00000000E+00  0.00000000E+00
  0.00000000E+00  0.00000000E+00  0.00000000E+00
  0.00000000E+00  0.00000000E+00  0.00000000E+00
  0.00000000E+00  0.00000000E+00  0.00000000E+00
  0.00000000E+00  0.00000000E+00  0.00000000E+00
  0.00000000E+00  0.00000000E+00  0.00000000E+00
  0.00000000E+00  0.00000000E+00  0.00000000E+00
  0.00000000E+00  0.00000000E+00  0.00000000E+00
  0.00000000E+00  0.00000000E+00  0.00000000E+00
  0.00000000E+00  0.00000000E+00  0.00000000E+00
  0.00000000E+00  0.00000000E+00  0.00000000E+00
  0.00000000E+00  0.00000000E+00  0.00000000E+00
  0.00000000E+00  0.00000000E+00  0.00000000E+00
  0.00000000E+00  0.00000000E+00  0.00000000E+00
  0.00000000E+00  0.00000000E+00  0.00000000E+00
  0.00000000E+00  0.00000000E+00  0.00000000E+00
  0.00000000E+00  0.00000000E+00  0.00000000E+00
  0.00000000E+00  0.00000000E+00  0.00000000E+00
  0.00000000E+00  0.00000000E+00  0.00000000E+00
  0.00000000E+00  0.00000000E+00  0.00000000E+00
  0.00000000E+00  0.00000000E+00  0.00000000E+00
  0.00000000E+00  0.00000000E+00  0.00000000E+00
  0.00000000E+00  0.00000000E+00  0.00000000E+00
  0.00000000E+00  0.00000000E+00  0.00000000E+00
  0.00000000E+00  0.00000000E+00  0.00000000E+00
  0.00000000E+00  0.00000000E+00  0.00000000E+00
  0.00000000E+00  0.00000000E+00  0.00000000E+00
  0.00000000E+00  0.00000000E+00  0.00000000E+00
  0.00000000E+00  0.00000000E+00  0.00000000E+00
  0.00000000E+00  0.00000000E+00  0.00000000E+00
  0.00000000E+00  0.00000000E+00  0.00000000E+00
  0.00000000E+00  0.00000000E+00  0.00000000E+00
  0.00000000E+00  0.00000000E+00  0.00000000E+00
  0.00000000E+00  0.00000000E+00  0.00000000E+00
  0.00000000E+00  0.00000000E+00  0.00000000E+00
  0.00000000E+00  0.00000000E+00  0.00000000E+00
  0.00000000E+00  0.00000000E+00  0.00000000E+00
  0.00000000E+00  0.00000000E+00  0.00000000E+00
  0.00000000E+00  0.00000000E+00  0.00000000E+00
  0.00000000E+00  0.00000000E+00  0.00000000E+00
  0.00000000E+00  0.00000000E+00  0.00000000E+00
  0.00000000E+00  0.00000000E+00  0.00000000E+00
  0.00000000E+00  0.00000000E+00  0.00000000E+00
