Ta N W                                  
   1.00000000000000     
    18.1096308199999996    0.0000000000000000    0.0000000000000000
     0.0000000000000000   11.6775998899999998    0.0000000000000000
     0.0000000000000000    0.0000000000000000   23.4818170799999990
   Ta   N    W 
   119   120     1
Direct
  0.0000157880935415  0.0000584067850653  0.2547353854942527
  0.3334871491296553  0.1250000003211298  0.2637754592187974
  0.1664895634227757  0.1250000003211298  0.2637331186542435
  0.2499590376041592  0.2500002849212199  0.3613040922931594
  0.0825593723453247  0.1250000003211298  0.3683741465354947
  0.4175079020915712  0.1250000003211298  0.3683136009953851
  0.0000332428487218  0.2500161143435319  0.4798211187388178
  0.3323991960479203  0.1250000003211298  0.4779022824935397
  0.1674919868154301  0.1250000003211298  0.4779952943018148
  0.2503190448440151  0.2504119396292024  0.5905288043144720
  0.0838772671229299  0.1250000003211298  0.5897683243006575
  0.4162765410009157  0.1250000003211298  0.5897686736957303
 -0.0000015194958865  0.2491679040012766  0.7022105244229263
  0.3346329877238726  0.1250000003211298  0.7042287284644547
  0.0000157880935415  0.2499415930008481  0.2547353854942527
  0.3334691946245425  0.3749614696956177  0.2637792065011597
  0.1665489337745714  0.3750081337706883  0.2637885097751552
  0.2499636487281084  0.5000596639757054  0.3613493131017876
  0.0825568887496937  0.3750000146680352  0.3684033943178038
  0.4174921176976165  0.3750201841319833  0.3683634536128663
  0.0000698074966263  0.5000101850448174  0.4798487606269868
  0.3323639584291311  0.3750117208111041  0.4780498833491709
  0.1675655386261009  0.3750189212468706  0.4781719292258468
  0.2498721808036256  0.4998953344043123  0.5908185302025093
  0.0836232507392144  0.3751890351883893  0.5899619486549303
  0.4162894723861383  0.3749801708976818  0.5897977508271486
  0.0001214301327149  0.4994933144269291  0.7023143654568057
  0.3353585872051170  0.3758419393030030  0.7040894227750879
  0.1649976755491643  0.3735673712788326  0.7040464502395823
  0.0000217485148294  0.4999680313839024  0.2546934975608180
  0.3334772730632134  0.6249999998929567  0.2637347641020265
  0.1665738003802905  0.6249999998929567  0.2638106392090246
  0.2499636487281084  0.7499403366665541  0.3613493131017876
  0.0825420969683089  0.6249999998929567  0.3684093711013069
  0.4174164426054462  0.6249999998929567  0.3683270992696476
  0.0000698074966263  0.7499898155974423  0.4798487606269868
  0.3323501147982225  0.6249999998929567  0.4780918532470425
  0.1675570987480185  0.6249999998929567  0.4781933819808516
  0.2498721808036256  0.7501046662379475  0.5908185302025093
  0.0837269187379427  0.6249999998929567  0.5900664467461204
  0.4163329253331602  0.6249999998929567  0.5897881508530867
  0.0001214301327149  0.7505066862153303  0.7023143654568057
  0.3347310036947498  0.6249999998929567  0.7039856263081222
  0.1644662739081524  0.6249999998929567  0.7047601474555715
  0.0000217485148294  0.7500319692583572  0.2546934975608180
  0.3334691946245425  0.8750385309466422  0.2637792065011597
  0.1665489337745714  0.8749918668715714  0.2637885097751552
  0.2499590376041592 -0.0000002851353063  0.3613040922931594
  0.0825568887496937  0.8749999859742245  0.3684033943178038
  0.4174921176976165  0.8749798165102766  0.3683634536128663
  0.0000332428487218 -0.0000161145576185  0.4798211187388178
  0.3323639584291311  0.8749882798311557  0.4780498833491709
  0.1675655386261009  0.8749810793953889  0.4781719292258468
  0.2503190448440151 -0.0004119398432890  0.5905288043144720
  0.0836232507392144  0.8748109654538699  0.5899619486549303
  0.4162894723861383  0.8750198297445780  0.5897977508271486
 -0.0000015194958865  0.0008320957846369  0.7022105244229263
  0.3353585872051170  0.8741580613392566  0.7040894227750879
  0.1649976755491643  0.8764326293634270  0.7040464502395823
  0.4999978285537902 -0.0000646095515833  0.2546654059164098
  0.8334742948242085  0.1250000003211298  0.2637810170257178
  0.6665296065983169  0.1250000003211298  0.2637960468863322
  0.7500358813638082  0.2500082225919513  0.3614312295625464
  0.5825916022831856  0.1250000003211298  0.3683528683867428
  0.9174121435917001  0.1250000003211298  0.3684038793129051
  0.4999452685225662  0.2499993495410680  0.4798012546470979
  0.8324301806746901  0.1250000003211298  0.4782117765390673
  0.6675962443193396  0.1250000003211298  0.4781390890560371
  0.7500039613258669  0.2498858615388575  0.5908076418665341
  0.5835245451129385  0.1250000003211298  0.5899060743182138
  0.9165433070141689  0.1250000003211298  0.5899467030974498
  0.4998358940624014  0.2500968549973775  0.7024713148133361
  0.8348402827565164  0.1250000003211298  0.7041942418217885
  0.6649172235792167  0.1250000003211298  0.7042700300006022
  0.4999978285537902  0.2500646093374967  0.2546654059164098
  0.8334623884064194  0.3750056048136483  0.2637766833165909
  0.6665422046916452  0.3749667895040645  0.2637757290229151
  0.7500061410169009  0.4999787576036832  0.3614301575301105
  0.5825618937899812  0.3750134965802626  0.3683856739224158
  0.9174464402526993  0.3749999412766406  0.3684118854918793
  0.5000092014085761  0.4999698309547583  0.4797984762920043
  0.8324408004804142  0.3749906701941886  0.4781538705127510
  0.6675648729934213  0.3749781857144469  0.4781456438715496
  0.7500200727067686  0.4999557696366478  0.5908167519754628
  0.5835357571058454  0.3749490538710549  0.5899638097386926
  0.9163759968200322  0.3750029771164649  0.5898097966904033
  0.5002417566735996  0.5000363094312192  0.7022728217496466
  0.8352270662165452  0.3750648995446318  0.7041873428203220
  0.6649057931762589  0.3750167179081616  0.7042570096485713
  0.4999996649791399  0.4999814748814387  0.2546627116967505
  0.8334257461717273  0.6249999998929567  0.2637991180348058
  0.6666052331536002  0.6249999998929567  0.2637885137040999
  0.7500061410169009  0.7500212430385765  0.3614301575301105
  0.5825589292603106  0.6249999998929567  0.3683829992690591
  0.9174937681090966  0.6249999998929567  0.3683846877833301
  0.5000092014085761  0.7500301696875014  0.4797984762920043
  0.8323556129488613  0.6249999998929567  0.4781051123823396
  0.6675819816137986  0.6249999998929567  0.4781584047959744
  0.7500200727067686  0.7500442310056121  0.5908167519754628
  0.5836087273087464  0.6249999998929567  0.5899048228923791
  0.9164184784549949  0.6249999998929567  0.5897988849038444
  0.5002417566735996  0.7499636912110403  0.7022728217496466
  0.8352813355545542  0.6249999998929567  0.7042551611388346
  0.6649675790040493  0.6249999998929567  0.7042206131563213
  0.4999996649791399  0.7500185257608210  0.2546627116967505
  0.8334623884064194  0.8749943958286115  0.2637766833165909
  0.6665422046916452  0.8750332111381949  0.2637757290229151
  0.7500358813638082 -0.0000082228060378  0.3614312295625464
  0.5825618937899812  0.8749865040619972  0.3683856739224158
  0.9174464402526993  0.8750000593656191  0.3684118854918793
  0.4999452685225662  0.0000006502448456  0.4798012546470979
  0.8324408004804142  0.8750093304480708  0.4781538705127510
  0.6675648729934213  0.8750218149278125  0.4781456438715496
  0.7500039613258669  0.0001141382470560  0.5908076418665341
  0.5835357571058454  0.8750509467712048  0.5899638097386926
  0.9163759968200322  0.8749970235257949  0.5898097966904033
  0.4998358940624014 -0.0000968552114641  0.7024713148133361
  0.8352270662165452  0.8749351010976277  0.7041873428203220
  0.6649057931762589  0.8749832827340981  0.7042570096485713
  0.4069118307921557 -0.0000237292631422  0.3011375191101420
  0.2499751241130935  0.0000263669274497  0.2575408116422140
  0.0931227438836660  0.0000117517895209  0.3011650311136332
  0.1544202553975598  0.2500351725007072  0.4098924829306416
  0.0000027708476356  0.2500038136248210  0.3931292579661240
  0.3455677285895108  0.2500529883966432  0.4098228279184842
  0.4008911941358970  0.2499944545199060  0.5219698009644664
  0.2499979870247705  0.2498782848360482  0.5025781070855813
  0.0990684746670445  0.2500305216779120  0.5220634637419979
  0.1522727288406284  0.2495190013415014  0.6329426754399957
  0.0000854012719204  0.2499655913961439  0.6135245998157979
  0.3481681654882313  0.2500199923755531  0.6331777594721125
  0.4022562680754144  0.2502779615518691  0.7403057965396160
  0.2484968961438228  0.2469197195477754  0.7236478169406437
  0.0986446414971679  0.2445443277370675  0.7394024565681453
  0.4069118307921557  0.2500237290490556  0.3011375191101420
  0.2499751241130935  0.2499736328584638  0.2575408116422140
  0.0931227438836660  0.2499882479963926  0.3011650311136332
  0.1544297981073821  0.4999957772759888  0.4099623503608600
  0.0000249295549241  0.5000016677273605  0.3931343192651142
  0.3455684912548515  0.5000261681860347  0.4098749503654558
  0.4009529739730123  0.4999299420902685  0.5219963915065168
  0.2499846969516757  0.5000372171176852  0.5027651403247450
  0.0990786969104458  0.5000143573979092  0.5221778740115458
  0.1516712173249178  0.4998820296880225  0.6334021228943861
  0.0000096881871056  0.4999711470430149  0.6134659871399736
  0.3481234760139600  0.5000084268959545  0.6331885587674111
  0.4029427632990665  0.5001380071458066  0.7400363693668617
  0.2497500701995342  0.4991536645923229  0.7240362143596717
  0.0970552450588528  0.4981552337436836  0.7406820476705925
  0.4069081711140687  0.4999833346515642  0.3011354828529118
  0.2500207402530130  0.4999941959019439  0.2575288916062761
  0.0931182005218415  0.4999989226075410  0.3011727398689720
  0.1544297981073821  0.7500042233662708  0.4099623503608600
  0.0000249295549241  0.7499983329148990  0.3931343192651142
  0.3455684912548515  0.7499738324562251  0.4098749503654558
  0.4009529739730123  0.7500700585519909  0.5219963915065168
  0.2499846969516757  0.7499627835245744  0.5027651403247450
  0.0990786969104458  0.7499856432443505  0.5221778740115458
  0.1516712173249178  0.7501179709542370  0.6334021228943861
  0.0000096881871056  0.7500288535992446  0.6134659871399736
  0.3481234760139600  0.7499915737463052  0.6331885587674111
  0.4029427632990665  0.7498619934964531  0.7400363693668617
  0.2497500701995342  0.7508463360499368  0.7240362143596717
  0.0970552450588528  0.7518447668985762  0.7406820476705925
  0.4069081711140687  0.7500166659906954  0.3011354828529118
  0.2500207402530130  0.7500058047403156  0.2575288916062761
  0.0931182005218415  0.7500010780347185  0.3011727398689720
  0.1544202553975598 -0.0000351727147938  0.4098924829306416
  0.0000027708476356 -0.0000038138389075  0.3931292579661240
  0.3455677285895108 -0.0000529886107298  0.4098228279184842
  0.4008911941358970  0.0000055452660074  0.5219698009644664
  0.2499979870247705  0.0001217149498653  0.5025781070855813
  0.0990684746670445 -0.0000305218919986  0.5220634637419979
  0.1522727288406284  0.0004809984444120  0.6329426754399957
  0.0000854012719204  0.0000344083897696  0.6135245998157979
  0.3481681654882313 -0.0000199925896395  0.6331777594721125
  0.4022562680754144 -0.0002779617659557  0.7403057965396160
  0.2484968961438228  0.0030802802381381  0.7236478169406437
  0.0986446414971679  0.0054556720488459  0.7394024565681453
  0.9068953390955412 -0.0000049122541200  0.3011565505512601
  0.7500276341733426  0.0000102538882236  0.2575146837204053
  0.5930805403710018 -0.0000193795853448  0.3011239220046453
  0.6544439367762770  0.2500070667260880  0.4099169937880183
  0.5000148104510661  0.2499961564922485  0.3930972065565080
  0.8456126781064474  0.2500023491688916  0.4099403569900849
  0.9010247077875172  0.2499543184715970  0.5220762338711820
  0.7499869746109173  0.2500143315687932  0.5027909600563579
  0.5989476978686197  0.2499270029885333  0.5220655083437140
  0.6516782168756979  0.2498813543108345  0.6332138494626955
  0.4998229510871052  0.2499060252887235  0.6135636788164326
  0.8483552893944232  0.2499576867109472  0.6332531240107014
  0.9034555820788573  0.2497459057105260  0.7403113589859612
  0.7499990841278892  0.2499786022613551  0.7238894858919963
  0.5966378413339172  0.2499850610213059  0.7403079307835846
  0.9068953390955412  0.2500049120400335  0.3011565505512601
  0.7500276341733426  0.2499897458976898  0.2575146837204053
  0.5930805403710018  0.2500193793712583  0.3011239220046453
  0.6544091340515912  0.4999921107547217  0.4099098981243426
  0.4999988964063964  0.5000188366225962  0.3930883410304719
  0.8455940813688126  0.4999888405161486  0.4099025589871671
  0.9010145389788760  0.5000527250186303  0.5220079044400764
  0.7500113779429741  0.4999561167977940  0.5027746529982814
  0.5990026005097618  0.4998997723465877  0.5220699098192005
  0.6517038498124672  0.4999138895781715  0.6332089476070563
  0.4999204980422373  0.4999710936213083  0.6134195287682863
  0.8483416180480390  0.5000109013043912  0.6331453184611688
  0.9032524393582692  0.4998252356241323  0.7403082567887499
  0.7501290401521232  0.4999668663197816  0.7237982461182639
  0.5970142673217305  0.4999921975778132  0.7404232890099103
  0.9069363554600116  0.4999927173034682  0.3011398549738326
  0.7500081595201052  0.4999719420434433  0.2574755835609473
  0.5930755785087265  0.5000055672366381  0.3011340440844462
  0.6544091340515912  0.7500078898875377  0.4099098981243426
  0.4999988964063964  0.7499811640196634  0.3930883410304719
  0.8455940813688126  0.7500111601261112  0.4099025589871671
  0.9010145389788760  0.7499472756236293  0.5220079044400764
  0.7500113779429741  0.7500438838444656  0.5027746529982814
  0.5990026005097618  0.7501002282956720  0.5220699098192005
  0.6517038498124672  0.7500861110640882  0.6332089476070563
  0.4999204980422373  0.7500289070209513  0.6134195287682863
  0.8483416180480390  0.7499890993378684  0.6331453184611688
  0.9032524393582692  0.7501747650181272  0.7403082567887499
  0.7501290401521232  0.7500331343224781  0.7237982461182639
  0.5970142673217305  0.7500078030644464  0.7404232890099103
  0.9069363554600116  0.7500072833387913  0.3011398549738326
  0.7500081595201052  0.7500280585988162  0.2574755835609473
  0.5930755785087265  0.7499944334056216  0.3011340440844462
  0.6544439367762770 -0.0000070669401745  0.4099169937880183
  0.5000148104510661  0.0000038432936650  0.3930972065565080
  0.8456126781064474 -0.0000023493829782  0.4099403569900849
  0.9010247077875172  0.0000456813143165  0.5220762338711820
  0.7499869746109173 -0.0000143317828797  0.5027909600563579
  0.5989476978686197  0.0000729967973802  0.5220655083437140
  0.6516782168756979  0.0001186454750790  0.6332138494626955
  0.4998229510871052  0.0000939744971899  0.6135636788164326
  0.8483552893944232  0.0000423130749663  0.6332531240107014
  0.9034555820788573  0.0002540940753875  0.7403113589859612
  0.7499990841278892  0.0000213975245584  0.7238894858919963
  0.5966378413339172  0.0000149387646075  0.7403079307835846
  0.1645145394357700  0.1250000003211298  0.7015149352949882
 
  0.00000000E+00  0.00000000E+00  0.00000000E+00
  0.00000000E+00  0.00000000E+00  0.00000000E+00
  0.00000000E+00  0.00000000E+00  0.00000000E+00
  0.00000000E+00  0.00000000E+00  0.00000000E+00
  0.00000000E+00  0.00000000E+00  0.00000000E+00
  0.00000000E+00  0.00000000E+00  0.00000000E+00
  0.00000000E+00  0.00000000E+00  0.00000000E+00
  0.00000000E+00  0.00000000E+00  0.00000000E+00
  0.00000000E+00  0.00000000E+00  0.00000000E+00
  0.00000000E+00  0.00000000E+00  0.00000000E+00
  0.00000000E+00  0.00000000E+00  0.00000000E+00
  0.00000000E+00  0.00000000E+00  0.00000000E+00
  0.00000000E+00  0.00000000E+00  0.00000000E+00
  0.00000000E+00  0.00000000E+00  0.00000000E+00
  0.00000000E+00  0.00000000E+00  0.00000000E+00
  0.00000000E+00  0.00000000E+00  0.00000000E+00
  0.00000000E+00  0.00000000E+00  0.00000000E+00
  0.00000000E+00  0.00000000E+00  0.00000000E+00
  0.00000000E+00  0.00000000E+00  0.00000000E+00
  0.00000000E+00  0.00000000E+00  0.00000000E+00
  0.00000000E+00  0.00000000E+00  0.00000000E+00
  0.00000000E+00  0.00000000E+00  0.00000000E+00
  0.00000000E+00  0.00000000E+00  0.00000000E+00
  0.00000000E+00  0.00000000E+00  0.00000000E+00
  0.00000000E+00  0.00000000E+00  0.00000000E+00
  0.00000000E+00  0.00000000E+00  0.00000000E+00
  0.00000000E+00  0.00000000E+00  0.00000000E+00
  0.00000000E+00  0.00000000E+00  0.00000000E+00
  0.00000000E+00  0.00000000E+00  0.00000000E+00
  0.00000000E+00  0.00000000E+00  0.00000000E+00
  0.00000000E+00  0.00000000E+00  0.00000000E+00
  0.00000000E+00  0.00000000E+00  0.00000000E+00
  0.00000000E+00  0.00000000E+00  0.00000000E+00
  0.00000000E+00  0.00000000E+00  0.00000000E+00
  0.00000000E+00  0.00000000E+00  0.00000000E+00
  0.00000000E+00  0.00000000E+00  0.00000000E+00
  0.00000000E+00  0.00000000E+00  0.00000000E+00
  0.00000000E+00  0.00000000E+00  0.00000000E+00
  0.00000000E+00  0.00000000E+00  0.00000000E+00
  0.00000000E+00  0.00000000E+00  0.00000000E+00
  0.00000000E+00  0.00000000E+00  0.00000000E+00
  0.00000000E+00  0.00000000E+00  0.00000000E+00
  0.00000000E+00  0.00000000E+00  0.00000000E+00
  0.00000000E+00  0.00000000E+00  0.00000000E+00
  0.00000000E+00  0.00000000E+00  0.00000000E+00
  0.00000000E+00  0.00000000E+00  0.00000000E+00
  0.00000000E+00  0.00000000E+00  0.00000000E+00
  0.00000000E+00  0.00000000E+00  0.00000000E+00
  0.00000000E+00  0.00000000E+00  0.00000000E+00
  0.00000000E+00  0.00000000E+00  0.00000000E+00
  0.00000000E+00  0.00000000E+00  0.00000000E+00
  0.00000000E+00  0.00000000E+00  0.00000000E+00
  0.00000000E+00  0.00000000E+00  0.00000000E+00
  0.00000000E+00  0.00000000E+00  0.00000000E+00
  0.00000000E+00  0.00000000E+00  0.00000000E+00
  0.00000000E+00  0.00000000E+00  0.00000000E+00
  0.00000000E+00  0.00000000E+00  0.00000000E+00
  0.00000000E+00  0.00000000E+00  0.00000000E+00
  0.00000000E+00  0.00000000E+00  0.00000000E+00
  0.00000000E+00  0.00000000E+00  0.00000000E+00
  0.00000000E+00  0.00000000E+00  0.00000000E+00
  0.00000000E+00  0.00000000E+00  0.00000000E+00
  0.00000000E+00  0.00000000E+00  0.00000000E+00
  0.00000000E+00  0.00000000E+00  0.00000000E+00
  0.00000000E+00  0.00000000E+00  0.00000000E+00
  0.00000000E+00  0.00000000E+00  0.00000000E+00
  0.00000000E+00  0.00000000E+00  0.00000000E+00
  0.00000000E+00  0.00000000E+00  0.00000000E+00
  0.00000000E+00  0.00000000E+00  0.00000000E+00
  0.00000000E+00  0.00000000E+00  0.00000000E+00
  0.00000000E+00  0.00000000E+00  0.00000000E+00
  0.00000000E+00  0.00000000E+00  0.00000000E+00
  0.00000000E+00  0.00000000E+00  0.00000000E+00
  0.00000000E+00  0.00000000E+00  0.00000000E+00
  0.00000000E+00  0.00000000E+00  0.00000000E+00
  0.00000000E+00  0.00000000E+00  0.00000000E+00
  0.00000000E+00  0.00000000E+00  0.00000000E+00
  0.00000000E+00  0.00000000E+00  0.00000000E+00
  0.00000000E+00  0.00000000E+00  0.00000000E+00
  0.00000000E+00  0.00000000E+00  0.00000000E+00
  0.00000000E+00  0.00000000E+00  0.00000000E+00
  0.00000000E+00  0.00000000E+00  0.00000000E+00
  0.00000000E+00  0.00000000E+00  0.00000000E+00
  0.00000000E+00  0.00000000E+00  0.00000000E+00
  0.00000000E+00  0.00000000E+00  0.00000000E+00
  0.00000000E+00  0.00000000E+00  0.00000000E+00
  0.00000000E+00  0.00000000E+00  0.00000000E+00
  0.00000000E+00  0.00000000E+00  0.00000000E+00
  0.00000000E+00  0.00000000E+00  0.00000000E+00
  0.00000000E+00  0.00000000E+00  0.00000000E+00
  0.00000000E+00  0.00000000E+00  0.00000000E+00
  0.00000000E+00  0.00000000E+00  0.00000000E+00
  0.00000000E+00  0.00000000E+00  0.00000000E+00
  0.00000000E+00  0.00000000E+00  0.00000000E+00
  0.00000000E+00  0.00000000E+00  0.00000000E+00
  0.00000000E+00  0.00000000E+00  0.00000000E+00
  0.00000000E+00  0.00000000E+00  0.00000000E+00
  0.00000000E+00  0.00000000E+00  0.00000000E+00
  0.00000000E+00  0.00000000E+00  0.00000000E+00
  0.00000000E+00  0.00000000E+00  0.00000000E+00
  0.00000000E+00  0.00000000E+00  0.00000000E+00
  0.00000000E+00  0.00000000E+00  0.00000000E+00
  0.00000000E+00  0.00000000E+00  0.00000000E+00
  0.00000000E+00  0.00000000E+00  0.00000000E+00
  0.00000000E+00  0.00000000E+00  0.00000000E+00
  0.00000000E+00  0.00000000E+00  0.00000000E+00
  0.00000000E+00  0.00000000E+00  0.00000000E+00
  0.00000000E+00  0.00000000E+00  0.00000000E+00
  0.00000000E+00  0.00000000E+00  0.00000000E+00
  0.00000000E+00  0.00000000E+00  0.00000000E+00
  0.00000000E+00  0.00000000E+00  0.00000000E+00
  0.00000000E+00  0.00000000E+00  0.00000000E+00
  0.00000000E+00  0.00000000E+00  0.00000000E+00
  0.00000000E+00  0.00000000E+00  0.00000000E+00
  0.00000000E+00  0.00000000E+00  0.00000000E+00
  0.00000000E+00  0.00000000E+00  0.00000000E+00
  0.00000000E+00  0.00000000E+00  0.00000000E+00
  0.00000000E+00  0.00000000E+00  0.00000000E+00
  0.00000000E+00  0.00000000E+00  0.00000000E+00
  0.00000000E+00  0.00000000E+00  0.00000000E+00
  0.00000000E+00  0.00000000E+00  0.00000000E+00
  0.00000000E+00  0.00000000E+00  0.00000000E+00
  0.00000000E+00  0.00000000E+00  0.00000000E+00
  0.00000000E+00  0.00000000E+00  0.00000000E+00
  0.00000000E+00  0.00000000E+00  0.00000000E+00
  0.00000000E+00  0.00000000E+00  0.00000000E+00
  0.00000000E+00  0.00000000E+00  0.00000000E+00
  0.00000000E+00  0.00000000E+00  0.00000000E+00
  0.00000000E+00  0.00000000E+00  0.00000000E+00
  0.00000000E+00  0.00000000E+00  0.00000000E+00
  0.00000000E+00  0.00000000E+00  0.00000000E+00
  0.00000000E+00  0.00000000E+00  0.00000000E+00
  0.00000000E+00  0.00000000E+00  0.00000000E+00
  0.00000000E+00  0.00000000E+00  0.00000000E+00
  0.00000000E+00  0.00000000E+00  0.00000000E+00
  0.00000000E+00  0.00000000E+00  0.00000000E+00
  0.00000000E+00  0.00000000E+00  0.00000000E+00
  0.00000000E+00  0.00000000E+00  0.00000000E+00
  0.00000000E+00  0.00000000E+00  0.00000000E+00
  0.00000000E+00  0.00000000E+00  0.00000000E+00
  0.00000000E+00  0.00000000E+00  0.00000000E+00
  0.00000000E+00  0.00000000E+00  0.00000000E+00
  0.00000000E+00  0.00000000E+00  0.00000000E+00
  0.00000000E+00  0.00000000E+00  0.00000000E+00
  0.00000000E+00  0.00000000E+00  0.00000000E+00
  0.00000000E+00  0.00000000E+00  0.00000000E+00
  0.00000000E+00  0.00000000E+00  0.00000000E+00
  0.00000000E+00  0.00000000E+00  0.00000000E+00
  0.00000000E+00  0.00000000E+00  0.00000000E+00
  0.00000000E+00  0.00000000E+00  0.00000000E+00
  0.00000000E+00  0.00000000E+00  0.00000000E+00
  0.00000000E+00  0.00000000E+00  0.00000000E+00
  0.00000000E+00  0.00000000E+00  0.00000000E+00
  0.00000000E+00  0.00000000E+00  0.00000000E+00
  0.00000000E+00  0.00000000E+00  0.00000000E+00
  0.00000000E+00  0.00000000E+00  0.00000000E+00
  0.00000000E+00  0.00000000E+00  0.00000000E+00
  0.00000000E+00  0.00000000E+00  0.00000000E+00
  0.00000000E+00  0.00000000E+00  0.00000000E+00
  0.00000000E+00  0.00000000E+00  0.00000000E+00
  0.00000000E+00  0.00000000E+00  0.00000000E+00
  0.00000000E+00  0.00000000E+00  0.00000000E+00
  0.00000000E+00  0.00000000E+00  0.00000000E+00
  0.00000000E+00  0.00000000E+00  0.00000000E+00
  0.00000000E+00  0.00000000E+00  0.00000000E+00
  0.00000000E+00  0.00000000E+00  0.00000000E+00
  0.00000000E+00  0.00000000E+00  0.00000000E+00
  0.00000000E+00  0.00000000E+00  0.00000000E+00
  0.00000000E+00  0.00000000E+00  0.00000000E+00
  0.00000000E+00  0.00000000E+00  0.00000000E+00
  0.00000000E+00  0.00000000E+00  0.00000000E+00
  0.00000000E+00  0.00000000E+00  0.00000000E+00
  0.00000000E+00  0.00000000E+00  0.00000000E+00
  0.00000000E+00  0.00000000E+00  0.00000000E+00
  0.00000000E+00  0.00000000E+00  0.00000000E+00
  0.00000000E+00  0.00000000E+00  0.00000000E+00
  0.00000000E+00  0.00000000E+00  0.00000000E+00
  0.00000000E+00  0.00000000E+00  0.00000000E+00
  0.00000000E+00  0.00000000E+00  0.00000000E+00
  0.00000000E+00  0.00000000E+00  0.00000000E+00
  0.00000000E+00  0.00000000E+00  0.00000000E+00
  0.00000000E+00  0.00000000E+00  0.00000000E+00
  0.00000000E+00  0.00000000E+00  0.00000000E+00
  0.00000000E+00  0.00000000E+00  0.00000000E+00
  0.00000000E+00  0.00000000E+00  0.00000000E+00
  0.00000000E+00  0.00000000E+00  0.00000000E+00
  0.00000000E+00  0.00000000E+00  0.00000000E+00
  0.00000000E+00  0.00000000E+00  0.00000000E+00
  0.00000000E+00  0.00000000E+00  0.00000000E+00
  0.00000000E+00  0.00000000E+00  0.00000000E+00
  0.00000000E+00  0.00000000E+00  0.00000000E+00
  0.00000000E+00  0.00000000E+00  0.00000000E+00
  0.00000000E+00  0.00000000E+00  0.00000000E+00
  0.00000000E+00  0.00000000E+00  0.00000000E+00
  0.00000000E+00  0.00000000E+00  0.00000000E+00
  0.00000000E+00  0.00000000E+00  0.00000000E+00
  0.00000000E+00  0.00000000E+00  0.00000000E+00
  0.00000000E+00  0.00000000E+00  0.00000000E+00
  0.00000000E+00  0.00000000E+00  0.00000000E+00
  0.00000000E+00  0.00000000E+00  0.00000000E+00
  0.00000000E+00  0.00000000E+00  0.00000000E+00
  0.00000000E+00  0.00000000E+00  0.00000000E+00
  0.00000000E+00  0.00000000E+00  0.00000000E+00
  0.00000000E+00  0.00000000E+00  0.00000000E+00
  0.00000000E+00  0.00000000E+00  0.00000000E+00
  0.00000000E+00  0.00000000E+00  0.00000000E+00
  0.00000000E+00  0.00000000E+00  0.00000000E+00
  0.00000000E+00  0.00000000E+00  0.00000000E+00
  0.00000000E+00  0.00000000E+00  0.00000000E+00
  0.00000000E+00  0.00000000E+00  0.00000000E+00
  0.00000000E+00  0.00000000E+00  0.00000000E+00
  0.00000000E+00  0.00000000E+00  0.00000000E+00
  0.00000000E+00  0.00000000E+00  0.00000000E+00
  0.00000000E+00  0.00000000E+00  0.00000000E+00
  0.00000000E+00  0.00000000E+00  0.00000000E+00
  0.00000000E+00  0.00000000E+00  0.00000000E+00
  0.00000000E+00  0.00000000E+00  0.00000000E+00
  0.00000000E+00  0.00000000E+00  0.00000000E+00
  0.00000000E+00  0.00000000E+00  0.00000000E+00
  0.00000000E+00  0.00000000E+00  0.00000000E+00
  0.00000000E+00  0.00000000E+00  0.00000000E+00
  0.00000000E+00  0.00000000E+00  0.00000000E+00
  0.00000000E+00  0.00000000E+00  0.00000000E+00
  0.00000000E+00  0.00000000E+00  0.00000000E+00
  0.00000000E+00  0.00000000E+00  0.00000000E+00
  0.00000000E+00  0.00000000E+00  0.00000000E+00
  0.00000000E+00  0.00000000E+00  0.00000000E+00
  0.00000000E+00  0.00000000E+00  0.00000000E+00
  0.00000000E+00  0.00000000E+00  0.00000000E+00
  0.00000000E+00  0.00000000E+00  0.00000000E+00
  0.00000000E+00  0.00000000E+00  0.00000000E+00
  0.00000000E+00  0.00000000E+00  0.00000000E+00
  0.00000000E+00  0.00000000E+00  0.00000000E+00
  0.00000000E+00  0.00000000E+00  0.00000000E+00
  0.00000000E+00  0.00000000E+00  0.00000000E+00
  0.00000000E+00  0.00000000E+00  0.00000000E+00
  0.00000000E+00  0.00000000E+00  0.00000000E+00
  0.00000000E+00  0.00000000E+00  0.00000000E+00
  0.00000000E+00  0.00000000E+00  0.00000000E+00
  0.00000000E+00  0.00000000E+00  0.00000000E+00
