Ta  N Cu                                
   1.00000000000000     
    18.1096308199999996    0.0000000000000000    0.0000000000000000
     0.0000000000000000   11.6775998899999998    0.0000000000000000
     0.0000000000000000    0.0000000000000000   23.4818170799999990
   Ta   N    Cu
   120   120     2
Direct
  0.0000425081570133  0.0001795657623815  0.2547875023552806
  0.3335814698321419  0.1250915107081780  0.2637254093120965
  0.1661573168606217  0.1250389113401700  0.2637713618444531
  0.2497873413051826  0.2500890714885566  0.3614193646804980
  0.0824636156665130  0.1250843550873338  0.3685405187261029
  0.4173096191175391  0.1251162639346239  0.3683506579709203
  0.0000307891570851  0.2502869373033228  0.4799436478426932
  0.3322251432470272  0.1251964074608217  0.4779788233964842
  0.1673361885139424  0.1251978472628318  0.4782776336097853
  0.2498299482366651  0.2503638733821071  0.5907562025335542
  0.0835497811704835  0.1252277542113557  0.5902516192692818
  0.4160760218108240  0.1252243010625877  0.5898699437229885
  0.9982917515263712  0.2489010712268209  0.7019024693708235
  0.3390188363829316  0.1253844941315011  0.7031398201001184
  0.1652203210105888  0.1253370843689301  0.7002918843684061
  0.0000615773865439  0.2499611474828086  0.2547926599288365
  0.3333464401625550  0.3750037317679858  0.2637788876242435
  0.1663735863917404  0.3751054346713157  0.2638255490264619
  0.2498387390215394  0.5001133301480585  0.3613916317725120
  0.0824348355011057  0.3750743081188636  0.3684686198856603
  0.4173461958498300  0.3750818770189199  0.3683606691955058
  0.0000355490545616  0.5001074061862183  0.4798031665446664
  0.3322220392958764  0.3751926073816104  0.4781045498339208
  0.1675017206304714  0.3751555398028188  0.4782822901864059
  0.2499075879580781  0.5002757802364060  0.5909077760051458
  0.0837076928343515  0.3755968939698185  0.5901251306711561
  0.4158974195703370  0.3753929259893277  0.5898819622348807
  0.9997165470818346  0.5000611858696667  0.7019645599644768
  0.3367037340246037  0.3765913272259145  0.7046537246195375
  0.1646490288312578  0.3785308144865075  0.7053387836072296
  0.0000563650929137  0.4999516237164554  0.2546998740716656
  0.3332016029663967  0.6250899838879505  0.2637595622390680
  0.1665249595049677  0.6250976622908285  0.2638436352750806
  0.2498389803233756  0.7501590738151842  0.3613893651213099
  0.0824813722822930  0.6251049449678066  0.3684140611550544
  0.4172863824739227  0.6251206482548646  0.3683012588594347
  0.0000303263978087  0.7502024646154417  0.4797990034575866
  0.3322429465576415  0.6251697931290350  0.4780586000893033
  0.1675137198062107  0.6251731110794285  0.4781925151008596
  0.2499074732683241  0.7502751907909110  0.5909123778652239
  0.0836272511592433  0.6252656304671642  0.5899925629777732
  0.4162003082864702  0.6252522587374427  0.5898660402863843
  0.9997192392556866  0.7504576286441462  0.7019691536217019
  0.3352849107731236  0.6253717832313629  0.7040846549127642
  0.1647200908026408  0.6253374803754154  0.7043243486103722
  0.0000525145095535  0.7501871540607140  0.2546969198574432
  0.3333419715090126  0.8752311861528754  0.2637795684567577
  0.1663772220070097  0.8750901341051021  0.2638252523736982
  0.2497887245300264  0.0001514883596883  0.3614080520211897
  0.0824287557303832  0.8751136167277540  0.3684653311894756
  0.4173520906407841  0.8751398279083428  0.3683573333043049
  0.0000274483495651  0.0000186171487907  0.4799427652514752
  0.3322295633810651  0.8751768923370736  0.4780985021426327
  0.1674977094615698  0.8752051552306032  0.4782760550328154
  0.2498255141677506  0.0001658567664284  0.5907628321864313
  0.0837280940022904  0.8749384992544114  0.5901210657729741
  0.4159049438484758  0.8750861011372374  0.5898815399963278
  0.9983119708776437  0.0016128318492921  0.7018964928017060
  0.3367397038578516  0.8741805778559626  0.7046786007076963
  0.1646749158534208  0.8721044918490102  0.7053510712217140
  0.4997826852880536  0.0001578490595188  0.2546982247965404
  0.8335209459888954  0.1250753348042470  0.2636933600028101
  0.6664048645465108  0.1250820154523490  0.2637309618023974
  0.7498996319991199  0.2501250932578057  0.3613959246503569
  0.5823357150053664  0.1251296535787998  0.3682860419429086
  0.9173983351277628  0.1250772387790948  0.3683998413819181
  0.4997517986165768  0.2501570840870647  0.4798582082173185
  0.8323913453933960  0.1251282593589074  0.4780054744147424
  0.6675433041954707  0.1251810315072109  0.4779247726924193
  0.7498381201419895  0.2503470570038488  0.5906328221786717
  0.5834545774778164  0.1252470383020116  0.5897693310415312
  0.9162005703489586  0.1252015506856207  0.5898939719652165
  0.5011448505397185  0.2501757373345263  0.7019584897670659
  0.8346564474566377  0.1251542635576463  0.7033865210111726
  0.6648283524258236  0.1253058646834435  0.7038892517511169
  0.4997735854728734  0.2500181420975727  0.2546964741617873
  0.8333903602896575  0.3750179211681339  0.2637317619975734
  0.6665341757613168  0.3749974239237851  0.2637503486128194
  0.7498650363156906  0.5000508972774849  0.3613771393990867
  0.5823353309943700  0.3751137408858835  0.3682734135644745
  0.9174273131783461  0.3750838469525709  0.3683310273918403
  0.4997947901823657  0.5001610242577688  0.4797456617046849
  0.8322652304022331  0.3751202079847664  0.4779704933186467
  0.6674665749948641  0.3751891030110790  0.4779357268554800
  0.7498620251517701  0.5001913130730938  0.5905810529676211
  0.5835132314650248  0.3752797857954634  0.5897328400370930
  0.9160895864306541  0.3753120083018539  0.5896029190011370
  0.5005832345666754  0.5003781766237890  0.7020123661897879
  0.8349613537292074  0.3745388386310077  0.7037088256521196
  0.6647883109189068  0.3752944514148774  0.7039324705394689
  0.4997891952262329  0.5000473316680774  0.2546459934398954
  0.8332531760554907  0.6250761547943512  0.2637576384351146
  0.6665857889830989  0.6250872877598636  0.2636930823058263
  0.7498659052089768  0.7501676336668363  0.3613780788037682
  0.5823248179787409  0.6251425305161008  0.3682470943026672
  0.9174610382516879  0.6250939092058321  0.3682754475990378
  0.4997951859126728  0.7501974588062087  0.4797409226118145
  0.8322882285397089  0.6251314844281294  0.4779129296468967
  0.6674537118358306  0.6251986635856510  0.4779381416117119
  0.7498652906173021  0.7502316038935520  0.5905770255797873
  0.5834692552477392  0.6252243133693358  0.5897277101338666
  0.9163142466978254  0.6251877595407356  0.5895710393080636
  0.5005852010368744  0.7502193995806224  0.7020139728433040
  0.8348435433636262  0.6252273437889955  0.7040473572197637
  0.6648919952624285  0.6253008680276793  0.7039253288807650
  0.4997821801612113  0.7501087359268928  0.2546480533717885
  0.8333734030427942  0.8751189153073928  0.2637360168845534
  0.6665406334970996  0.8751849791722099  0.2637480350103298
  0.7498996674996268  0.0000995661847503  0.3613952263740728
  0.5823454919675750  0.8751539987396876  0.3682704124624262
  0.9174178871475477  0.8751116769183643  0.3683297147841361
  0.4997494589704045  0.0002115540598743  0.4798561703919970
  0.8322555056717195  0.8751356670222056  0.4779622629834929
  0.6674668141774854  0.8751884353859887  0.4779294761560621
  0.7498432671152595  0.0000527024053216  0.5906237047670114
  0.5835308815768019  0.8751953308317081  0.5897168017680320
  0.9160935246193253  0.8750672159886006  0.5896052475960678
  0.5011360436501257  0.0004065388573239  0.7019547739249143
  0.8349900344872588  0.8757964605262178  0.7037113151205360
  0.6647879728006213  0.8752979549360950  0.7039357474857854
  0.4067225174937825  0.0001318702875448  0.3011687469046182
  0.2498343110895297  0.0002474034201835  0.2581669206506219
  0.0930819888259236  0.0001249491618189  0.3012946154974065
  0.1542942102810460  0.2501870806075015  0.4100547808281676
  0.9999351192375564  0.2501188854708900  0.3932325626052892
  0.3453962118418935  0.2501771618975382  0.4099001774232491
  0.4006511642799867  0.2502311776431606  0.5220041160484611
  0.2498332902037454  0.2500442638202799  0.5027469235404902
  0.0990716660057115  0.2503086508662677  0.5222775430633161
  0.1517645952367651  0.2523560729381827  0.6342217480633371
  0.9997879573386845  0.2506766198838400  0.6133906224881832
  0.3477614434726133  0.2512966740984923  0.6335450530695724
  0.4045282352983618  0.2511277987081427  0.7406868866861221
  0.2507670024044933  0.2474627827121166  0.7286082226784549
  0.0958157124924094  0.2537495143010632  0.7433552506151939
  0.4067161426750827  0.2500767807040577  0.3011713584659788
  0.2498227952859623  0.2499339174550403  0.2582096671554770
  0.0931068858356841  0.2500310736020001  0.3012945673892551
  0.1543290030204658  0.5001029222070291  0.4100173259145664
  0.9999516896667789  0.5001296485296465  0.3930872363055770
  0.3454411501046137  0.5001665529522348  0.4098915747268462
  0.4007801035034309  0.5001567513984353  0.5220344904983463
  0.2499042801587571  0.5003102447801479  0.5028330498523296
  0.0990077679772910  0.5001682531554084  0.5222073588468886
  0.1518308121962146  0.5003556328575254  0.6335691689581264
  0.9998528108734895  0.5003128240462761  0.6133172724472565
  0.3479456577702148  0.5004704466109495  0.6334506490219350
  0.4033794436389338  0.5006818713098223  0.7404532631530095
  0.2498276519681130  0.4991001068849030  0.7245477492262692
  0.0970468782328311  0.5005548844235734  0.7407931899244357
  0.4067110305882786  0.5000365952195983  0.3011157296113746
  0.2498922812309305  0.4999963733323248  0.2575685756066228
  0.0930757946944600  0.5000439201482265  0.3012234031547833
  0.1543299286875430  0.7501695469642367  0.4100160122359758
  0.9999514697418519  0.7500727984288041  0.3930850940548979
  0.3454445404513939  0.7501196766859677  0.4098838450327606
  0.4007779692732077  0.7502675834006556  0.5220321295770366
  0.2499007415277979  0.7500676343208377  0.5028338794262324
  0.0990081810068975  0.7502510115632960  0.5222040501125862
  0.1518292517838637  0.7502307977126538  0.6335815502399215
  0.9998572606699335  0.7501388026725367  0.6133177128492671
  0.3479450779026023  0.7501290203337643  0.6334538625600562
  0.4033955033727158  0.7500161242980471  0.7404569116649871
  0.2498402077250158  0.7515444078314157  0.7245711570708020
  0.0970405920057309  0.7500544924613408  0.7408121565253575
  0.4067028834846103  0.7501685842650906  0.3011120269102818
  0.2498997845293567  0.7501930159769939  0.2575831306203819
  0.0930757092933143  0.7501346704385816  0.3012233164556642
  0.1542908176410731  0.0000919581674455  0.4100517060765358
  0.9999306550678559  0.0000722790321407  0.3932307022986885
  0.3453987686799172  0.0001135186688088  0.4098946772873184
  0.4006483255311143  0.0002073291114458  0.5219991689237045
  0.2498301665930952  0.0003563543101697  0.5027429158065363
  0.0990769710494947  0.0001186127614055  0.5222754838782809
  0.1517828289885846  0.9982002651166082  0.6342442922865906
  0.9997941146865114  0.9997729676334322  0.6133885618907785
  0.3477615986727671  0.9992764206943533  0.6335520234807968
  0.4045326946481098 -0.0004091776501474  0.7406911174631471
  0.2507893686985179  0.0031860848544372  0.7286028148034510
  0.0958302514864575  0.9968792752401235  0.7433680394843070
  0.9068449515417414  0.0001113021215067  0.3011065082209324
  0.7499904302578451  0.0001691399329410  0.2576314075870661
  0.5929772272367534  0.0001361960526095  0.3010409361484775
  0.6542385323864671  0.2501729505902980  0.4097800209928051
  0.4998328787040032  0.2500986188158694  0.3931235683887395
  0.8455184351430424  0.2501686967267295  0.4098067087658169
  0.9008491253937785  0.2502303561362046  0.5219078284481226
  0.7498800700978899  0.2501390398463540  0.5025381016300228
  0.5988875936109372  0.2501880540820039  0.5218755748037385
  0.6516353495834408  0.2503665244662622  0.6330708285550373
  0.4997921093071358  0.2503405210917953  0.6132295024849465
  0.8480418937411013  0.2506556292254253  0.6330637136130283
  0.9025492125411443  0.2496936785384906  0.7405315120279106
  0.7498346634739558  0.2503527228581322  0.7237568600279257
  0.5972293388938418  0.2502663077258441  0.7406093376600226
  0.9068556869147595  0.2500386861639730  0.3011050407102094
  0.7499880856955526  0.2499765301751136  0.2576186912432670
  0.5929731990225225  0.2500674908758487  0.3010402340797051
  0.6542166081859734  0.5001612942379936  0.4097509847183628
  0.4998243249553870  0.5001541273019389  0.3930193869692701
  0.8455212979539053  0.5000993878342932  0.4097434340557832
  0.9009167233932595  0.5001859024697304  0.5218178151861447
  0.7498730913821113  0.5002102803773253  0.5024996128277771
  0.5988497622178851  0.5001862369628237  0.5218633685225068
  0.6516786312263292  0.5004070908633421  0.6330015191525566
  0.4998111199909132  0.5001934236941840  0.6132978100204399
  0.8480372352404840  0.5006732072155219  0.6328457765668727
  0.9033330537457426  0.5000478219188561  0.7399814667388894
  0.7500750589917797  0.5002463948477168  0.7237070770147117
  0.5968594226932100  0.5004235893317402  0.7403520585918291
  0.9068786996737469  0.5000489220478492  0.3010351943558189
  0.7499411919288341  0.5000161411723147  0.2573784525264197
  0.5929608752904950  0.5000981099143079  0.3009865269526994
  0.6542157118202777  0.7501358713093137  0.4097491229330849
  0.4998228920080736  0.7501157215698235  0.3930182636452539
  0.8455199792609325  0.7501234656578162  0.4097442732514066
  0.9009136293270320  0.7501375175764490  0.5218195235440017
  0.7498754495093649  0.7501175881526179  0.5025001660924490
  0.5988531866399279  0.7502308956981342  0.5218592871681623
  0.6516835349736122  0.7501034215563678  0.6330027997734241
  0.4998212545339463  0.7502928082752072  0.6132899849426261
  0.8480388355256180  0.7497353405755627  0.6328502102287089
  0.9033265999807547  0.7503662863791332  0.7399845250457755
  0.7500807296429832  0.7502229621737722  0.7237063902361982
  0.5968761976475190  0.7501653758337508  0.7403586402897502
  0.9068815121254509  0.7501053276093279  0.3010327205792227
  0.7499341104315719  0.7501223423034648  0.2573604469341469
  0.5929611928039122  0.7501061348784211  0.3009855421560582
  0.6542390257069861  0.0001134373969807  0.4097794477225293
  0.4998345563048678  0.0001498636647349  0.3931189323899600
  0.8455161343450428  0.0000545171976652  0.4098058008467341
  0.9008463958766818  0.0000948594446325  0.5219077391779053
  0.7498786798146256  0.0001751887353556  0.5025441026506583
  0.5988915447031071  0.0002278404349498  0.5218705565827388
  0.6516455705161899  0.0001270372452833  0.6330733759258378
  0.4997965857904973  0.0001474977124145  0.6132246887974462
  0.8480543605909866  0.9997279667292113  0.6330670601413707
  0.9025651108167759  0.0007274285024369  0.7405288660745730
  0.7498413660988961  0.0001118996747277  0.7237562078044993
  0.5972309088852843  0.0003112012206056  0.7406081590208270
  0.0830902528948866  0.1253084704304538  0.7932745511674145
  0.2432691748389688  0.1252470452987900  0.7926344413534017
 
  0.00000000E+00  0.00000000E+00  0.00000000E+00
  0.00000000E+00  0.00000000E+00  0.00000000E+00
  0.00000000E+00  0.00000000E+00  0.00000000E+00
  0.00000000E+00  0.00000000E+00  0.00000000E+00
  0.00000000E+00  0.00000000E+00  0.00000000E+00
  0.00000000E+00  0.00000000E+00  0.00000000E+00
  0.00000000E+00  0.00000000E+00  0.00000000E+00
  0.00000000E+00  0.00000000E+00  0.00000000E+00
  0.00000000E+00  0.00000000E+00  0.00000000E+00
  0.00000000E+00  0.00000000E+00  0.00000000E+00
  0.00000000E+00  0.00000000E+00  0.00000000E+00
  0.00000000E+00  0.00000000E+00  0.00000000E+00
  0.00000000E+00  0.00000000E+00  0.00000000E+00
  0.00000000E+00  0.00000000E+00  0.00000000E+00
  0.00000000E+00  0.00000000E+00  0.00000000E+00
  0.00000000E+00  0.00000000E+00  0.00000000E+00
  0.00000000E+00  0.00000000E+00  0.00000000E+00
  0.00000000E+00  0.00000000E+00  0.00000000E+00
  0.00000000E+00  0.00000000E+00  0.00000000E+00
  0.00000000E+00  0.00000000E+00  0.00000000E+00
  0.00000000E+00  0.00000000E+00  0.00000000E+00
  0.00000000E+00  0.00000000E+00  0.00000000E+00
  0.00000000E+00  0.00000000E+00  0.00000000E+00
  0.00000000E+00  0.00000000E+00  0.00000000E+00
  0.00000000E+00  0.00000000E+00  0.00000000E+00
  0.00000000E+00  0.00000000E+00  0.00000000E+00
  0.00000000E+00  0.00000000E+00  0.00000000E+00
  0.00000000E+00  0.00000000E+00  0.00000000E+00
  0.00000000E+00  0.00000000E+00  0.00000000E+00
  0.00000000E+00  0.00000000E+00  0.00000000E+00
  0.00000000E+00  0.00000000E+00  0.00000000E+00
  0.00000000E+00  0.00000000E+00  0.00000000E+00
  0.00000000E+00  0.00000000E+00  0.00000000E+00
  0.00000000E+00  0.00000000E+00  0.00000000E+00
  0.00000000E+00  0.00000000E+00  0.00000000E+00
  0.00000000E+00  0.00000000E+00  0.00000000E+00
  0.00000000E+00  0.00000000E+00  0.00000000E+00
  0.00000000E+00  0.00000000E+00  0.00000000E+00
  0.00000000E+00  0.00000000E+00  0.00000000E+00
  0.00000000E+00  0.00000000E+00  0.00000000E+00
  0.00000000E+00  0.00000000E+00  0.00000000E+00
  0.00000000E+00  0.00000000E+00  0.00000000E+00
  0.00000000E+00  0.00000000E+00  0.00000000E+00
  0.00000000E+00  0.00000000E+00  0.00000000E+00
  0.00000000E+00  0.00000000E+00  0.00000000E+00
  0.00000000E+00  0.00000000E+00  0.00000000E+00
  0.00000000E+00  0.00000000E+00  0.00000000E+00
  0.00000000E+00  0.00000000E+00  0.00000000E+00
  0.00000000E+00  0.00000000E+00  0.00000000E+00
  0.00000000E+00  0.00000000E+00  0.00000000E+00
  0.00000000E+00  0.00000000E+00  0.00000000E+00
  0.00000000E+00  0.00000000E+00  0.00000000E+00
  0.00000000E+00  0.00000000E+00  0.00000000E+00
  0.00000000E+00  0.00000000E+00  0.00000000E+00
  0.00000000E+00  0.00000000E+00  0.00000000E+00
  0.00000000E+00  0.00000000E+00  0.00000000E+00
  0.00000000E+00  0.00000000E+00  0.00000000E+00
  0.00000000E+00  0.00000000E+00  0.00000000E+00
  0.00000000E+00  0.00000000E+00  0.00000000E+00
  0.00000000E+00  0.00000000E+00  0.00000000E+00
  0.00000000E+00  0.00000000E+00  0.00000000E+00
  0.00000000E+00  0.00000000E+00  0.00000000E+00
  0.00000000E+00  0.00000000E+00  0.00000000E+00
  0.00000000E+00  0.00000000E+00  0.00000000E+00
  0.00000000E+00  0.00000000E+00  0.00000000E+00
  0.00000000E+00  0.00000000E+00  0.00000000E+00
  0.00000000E+00  0.00000000E+00  0.00000000E+00
  0.00000000E+00  0.00000000E+00  0.00000000E+00
  0.00000000E+00  0.00000000E+00  0.00000000E+00
  0.00000000E+00  0.00000000E+00  0.00000000E+00
  0.00000000E+00  0.00000000E+00  0.00000000E+00
  0.00000000E+00  0.00000000E+00  0.00000000E+00
  0.00000000E+00  0.00000000E+00  0.00000000E+00
  0.00000000E+00  0.00000000E+00  0.00000000E+00
  0.00000000E+00  0.00000000E+00  0.00000000E+00
  0.00000000E+00  0.00000000E+00  0.00000000E+00
  0.00000000E+00  0.00000000E+00  0.00000000E+00
  0.00000000E+00  0.00000000E+00  0.00000000E+00
  0.00000000E+00  0.00000000E+00  0.00000000E+00
  0.00000000E+00  0.00000000E+00  0.00000000E+00
  0.00000000E+00  0.00000000E+00  0.00000000E+00
  0.00000000E+00  0.00000000E+00  0.00000000E+00
  0.00000000E+00  0.00000000E+00  0.00000000E+00
  0.00000000E+00  0.00000000E+00  0.00000000E+00
  0.00000000E+00  0.00000000E+00  0.00000000E+00
  0.00000000E+00  0.00000000E+00  0.00000000E+00
  0.00000000E+00  0.00000000E+00  0.00000000E+00
  0.00000000E+00  0.00000000E+00  0.00000000E+00
  0.00000000E+00  0.00000000E+00  0.00000000E+00
  0.00000000E+00  0.00000000E+00  0.00000000E+00
  0.00000000E+00  0.00000000E+00  0.00000000E+00
  0.00000000E+00  0.00000000E+00  0.00000000E+00
  0.00000000E+00  0.00000000E+00  0.00000000E+00
  0.00000000E+00  0.00000000E+00  0.00000000E+00
  0.00000000E+00  0.00000000E+00  0.00000000E+00
  0.00000000E+00  0.00000000E+00  0.00000000E+00
  0.00000000E+00  0.00000000E+00  0.00000000E+00
  0.00000000E+00  0.00000000E+00  0.00000000E+00
  0.00000000E+00  0.00000000E+00  0.00000000E+00
  0.00000000E+00  0.00000000E+00  0.00000000E+00
  0.00000000E+00  0.00000000E+00  0.00000000E+00
  0.00000000E+00  0.00000000E+00  0.00000000E+00
  0.00000000E+00  0.00000000E+00  0.00000000E+00
  0.00000000E+00  0.00000000E+00  0.00000000E+00
  0.00000000E+00  0.00000000E+00  0.00000000E+00
  0.00000000E+00  0.00000000E+00  0.00000000E+00
  0.00000000E+00  0.00000000E+00  0.00000000E+00
  0.00000000E+00  0.00000000E+00  0.00000000E+00
  0.00000000E+00  0.00000000E+00  0.00000000E+00
  0.00000000E+00  0.00000000E+00  0.00000000E+00
  0.00000000E+00  0.00000000E+00  0.00000000E+00
  0.00000000E+00  0.00000000E+00  0.00000000E+00
  0.00000000E+00  0.00000000E+00  0.00000000E+00
  0.00000000E+00  0.00000000E+00  0.00000000E+00
  0.00000000E+00  0.00000000E+00  0.00000000E+00
  0.00000000E+00  0.00000000E+00  0.00000000E+00
  0.00000000E+00  0.00000000E+00  0.00000000E+00
  0.00000000E+00  0.00000000E+00  0.00000000E+00
  0.00000000E+00  0.00000000E+00  0.00000000E+00
  0.00000000E+00  0.00000000E+00  0.00000000E+00
  0.00000000E+00  0.00000000E+00  0.00000000E+00
  0.00000000E+00  0.00000000E+00  0.00000000E+00
  0.00000000E+00  0.00000000E+00  0.00000000E+00
  0.00000000E+00  0.00000000E+00  0.00000000E+00
  0.00000000E+00  0.00000000E+00  0.00000000E+00
  0.00000000E+00  0.00000000E+00  0.00000000E+00
  0.00000000E+00  0.00000000E+00  0.00000000E+00
  0.00000000E+00  0.00000000E+00  0.00000000E+00
  0.00000000E+00  0.00000000E+00  0.00000000E+00
  0.00000000E+00  0.00000000E+00  0.00000000E+00
  0.00000000E+00  0.00000000E+00  0.00000000E+00
  0.00000000E+00  0.00000000E+00  0.00000000E+00
  0.00000000E+00  0.00000000E+00  0.00000000E+00
  0.00000000E+00  0.00000000E+00  0.00000000E+00
  0.00000000E+00  0.00000000E+00  0.00000000E+00
  0.00000000E+00  0.00000000E+00  0.00000000E+00
  0.00000000E+00  0.00000000E+00  0.00000000E+00
  0.00000000E+00  0.00000000E+00  0.00000000E+00
  0.00000000E+00  0.00000000E+00  0.00000000E+00
  0.00000000E+00  0.00000000E+00  0.00000000E+00
  0.00000000E+00  0.00000000E+00  0.00000000E+00
  0.00000000E+00  0.00000000E+00  0.00000000E+00
  0.00000000E+00  0.00000000E+00  0.00000000E+00
  0.00000000E+00  0.00000000E+00  0.00000000E+00
  0.00000000E+00  0.00000000E+00  0.00000000E+00
  0.00000000E+00  0.00000000E+00  0.00000000E+00
  0.00000000E+00  0.00000000E+00  0.00000000E+00
  0.00000000E+00  0.00000000E+00  0.00000000E+00
  0.00000000E+00  0.00000000E+00  0.00000000E+00
  0.00000000E+00  0.00000000E+00  0.00000000E+00
  0.00000000E+00  0.00000000E+00  0.00000000E+00
  0.00000000E+00  0.00000000E+00  0.00000000E+00
  0.00000000E+00  0.00000000E+00  0.00000000E+00
  0.00000000E+00  0.00000000E+00  0.00000000E+00
  0.00000000E+00  0.00000000E+00  0.00000000E+00
  0.00000000E+00  0.00000000E+00  0.00000000E+00
  0.00000000E+00  0.00000000E+00  0.00000000E+00
  0.00000000E+00  0.00000000E+00  0.00000000E+00
  0.00000000E+00  0.00000000E+00  0.00000000E+00
  0.00000000E+00  0.00000000E+00  0.00000000E+00
  0.00000000E+00  0.00000000E+00  0.00000000E+00
  0.00000000E+00  0.00000000E+00  0.00000000E+00
  0.00000000E+00  0.00000000E+00  0.00000000E+00
  0.00000000E+00  0.00000000E+00  0.00000000E+00
  0.00000000E+00  0.00000000E+00  0.00000000E+00
  0.00000000E+00  0.00000000E+00  0.00000000E+00
  0.00000000E+00  0.00000000E+00  0.00000000E+00
  0.00000000E+00  0.00000000E+00  0.00000000E+00
  0.00000000E+00  0.00000000E+00  0.00000000E+00
  0.00000000E+00  0.00000000E+00  0.00000000E+00
  0.00000000E+00  0.00000000E+00  0.00000000E+00
  0.00000000E+00  0.00000000E+00  0.00000000E+00
  0.00000000E+00  0.00000000E+00  0.00000000E+00
  0.00000000E+00  0.00000000E+00  0.00000000E+00
  0.00000000E+00  0.00000000E+00  0.00000000E+00
  0.00000000E+00  0.00000000E+00  0.00000000E+00
  0.00000000E+00  0.00000000E+00  0.00000000E+00
  0.00000000E+00  0.00000000E+00  0.00000000E+00
  0.00000000E+00  0.00000000E+00  0.00000000E+00
  0.00000000E+00  0.00000000E+00  0.00000000E+00
  0.00000000E+00  0.00000000E+00  0.00000000E+00
  0.00000000E+00  0.00000000E+00  0.00000000E+00
  0.00000000E+00  0.00000000E+00  0.00000000E+00
  0.00000000E+00  0.00000000E+00  0.00000000E+00
  0.00000000E+00  0.00000000E+00  0.00000000E+00
  0.00000000E+00  0.00000000E+00  0.00000000E+00
  0.00000000E+00  0.00000000E+00  0.00000000E+00
  0.00000000E+00  0.00000000E+00  0.00000000E+00
  0.00000000E+00  0.00000000E+00  0.00000000E+00
  0.00000000E+00  0.00000000E+00  0.00000000E+00
  0.00000000E+00  0.00000000E+00  0.00000000E+00
  0.00000000E+00  0.00000000E+00  0.00000000E+00
  0.00000000E+00  0.00000000E+00  0.00000000E+00
  0.00000000E+00  0.00000000E+00  0.00000000E+00
  0.00000000E+00  0.00000000E+00  0.00000000E+00
  0.00000000E+00  0.00000000E+00  0.00000000E+00
  0.00000000E+00  0.00000000E+00  0.00000000E+00
  0.00000000E+00  0.00000000E+00  0.00000000E+00
  0.00000000E+00  0.00000000E+00  0.00000000E+00
  0.00000000E+00  0.00000000E+00  0.00000000E+00
  0.00000000E+00  0.00000000E+00  0.00000000E+00
  0.00000000E+00  0.00000000E+00  0.00000000E+00
  0.00000000E+00  0.00000000E+00  0.00000000E+00
  0.00000000E+00  0.00000000E+00  0.00000000E+00
  0.00000000E+00  0.00000000E+00  0.00000000E+00
  0.00000000E+00  0.00000000E+00  0.00000000E+00
  0.00000000E+00  0.00000000E+00  0.00000000E+00
  0.00000000E+00  0.00000000E+00  0.00000000E+00
  0.00000000E+00  0.00000000E+00  0.00000000E+00
  0.00000000E+00  0.00000000E+00  0.00000000E+00
  0.00000000E+00  0.00000000E+00  0.00000000E+00
  0.00000000E+00  0.00000000E+00  0.00000000E+00
  0.00000000E+00  0.00000000E+00  0.00000000E+00
  0.00000000E+00  0.00000000E+00  0.00000000E+00
  0.00000000E+00  0.00000000E+00  0.00000000E+00
  0.00000000E+00  0.00000000E+00  0.00000000E+00
  0.00000000E+00  0.00000000E+00  0.00000000E+00
  0.00000000E+00  0.00000000E+00  0.00000000E+00
  0.00000000E+00  0.00000000E+00  0.00000000E+00
  0.00000000E+00  0.00000000E+00  0.00000000E+00
  0.00000000E+00  0.00000000E+00  0.00000000E+00
  0.00000000E+00  0.00000000E+00  0.00000000E+00
  0.00000000E+00  0.00000000E+00  0.00000000E+00
  0.00000000E+00  0.00000000E+00  0.00000000E+00
  0.00000000E+00  0.00000000E+00  0.00000000E+00
  0.00000000E+00  0.00000000E+00  0.00000000E+00
  0.00000000E+00  0.00000000E+00  0.00000000E+00
  0.00000000E+00  0.00000000E+00  0.00000000E+00
  0.00000000E+00  0.00000000E+00  0.00000000E+00
  0.00000000E+00  0.00000000E+00  0.00000000E+00
  0.00000000E+00  0.00000000E+00  0.00000000E+00
  0.00000000E+00  0.00000000E+00  0.00000000E+00
  0.00000000E+00  0.00000000E+00  0.00000000E+00
  0.00000000E+00  0.00000000E+00  0.00000000E+00
  0.00000000E+00  0.00000000E+00  0.00000000E+00
  0.00000000E+00  0.00000000E+00  0.00000000E+00
  0.00000000E+00  0.00000000E+00  0.00000000E+00
  0.00000000E+00  0.00000000E+00  0.00000000E+00
  0.00000000E+00  0.00000000E+00  0.00000000E+00
  0.00000000E+00  0.00000000E+00  0.00000000E+00
  0.00000000E+00  0.00000000E+00  0.00000000E+00
  0.00000000E+00  0.00000000E+00  0.00000000E+00
