Mo  S Cu                                
   1.00000000000000     
    15.9214998300000001    0.0000000000000000    0.0000000000000000
    -7.9622501300000001   13.7910221699999997    0.0000000000000000
     0.0000000000000000    0.0000000000000000   13.5821998300000004
   Mo   S    Cu
    25    50     4
Direct
  0.1317354232232191  0.0654476528890129  0.6799217207879877
  0.1322342475663802  0.2655098009047592  0.6796924231921793
  0.1327263625069364  0.4657783209508040  0.6787095040261164
  0.1326919587257294  0.6658348947357453  0.6782471728900390
  0.1324147248587977  0.8656783719498833  0.6784384864921336
  0.3328526560557208  0.0661648144127156  0.6794727722731864
  0.3310682259692541  0.2647583361500310  0.6826378290384056
  0.3329809226986384  0.4663032972980190  0.6795759274621602
  0.3327326604177898  0.6660114524478686  0.6783768166288411
  0.3328106275637381  0.8656845918072591  0.6784782041029302
  0.5332669189349488  0.0654930156987987  0.6799471505334083
  0.5332455651168004  0.2648057390237426  0.6826351949205716
  0.5335489444423445  0.4675938916540900  0.6803840998375179
  0.5328619650687685  0.6663551839212545  0.6784067733396455
  0.5328478450068488  0.8658270301558559  0.6783222315410384
  0.7327810951737064  0.0656329249737340  0.6785272858019979
  0.7328467023287857  0.2655497422920803  0.6796332518801478
  0.7328786000605305  0.4663695758318980  0.6794825519687109
  0.7329950791014781  0.6663594754112481  0.6783628003943747
  0.7327231381607007  0.8659443129955662  0.6781380474922543
  0.9323618878926538  0.0656123243172573  0.6785149300741153
  0.9325702512725726  0.2655940272141208  0.6785498469129507
  0.9326067947594510  0.4658001320279865  0.6786611840802408
  0.9328220737785955  0.6660308883962713  0.6783009580097428
  0.9324848191704405  0.8658060779986556  0.6782671829675095
  0.0662917320837053  0.1327188643141994  0.5640982733056532
  0.0647328940693157  0.1318890232411718  0.7946330421500463
  0.0662175331152213  0.3321842613031549  0.5637962703024684
  0.0653274021158126  0.3326519018726799  0.7940063813442038
  0.0659160404048080  0.5322405692119858  0.5634499806322708
  0.0660823714799008  0.5326445947530516  0.7934862445494701
  0.0660614446703036  0.7325641930485887  0.5631279382970362
  0.0660165034228228  0.7323987203023634  0.7934228796872418
  0.0661852471262634  0.9330251838553707  0.5636236880675654
  0.0649709592530385  0.9312498453693436  0.7939175935541556
  0.2662174395093260  0.1333047985840565  0.5661318868993561
  0.2628393328934280  0.1282551550945215  0.7985398826220802
  0.2666862070642253  0.3318094468691584  0.5658558036881374
  0.2637025574078464  0.3341158398744639  0.7979430383754433
  0.2663299244177040  0.5322607916349540  0.5637529418020648
  0.2658214571866395  0.5332719745273522  0.7940915986662702
  0.2660810441127239  0.7325628724999191  0.5631710811671837
  0.2659054557025797  0.7323971533541354  0.7934655975996421
  0.2664755703244950  0.9333672849708208  0.5638051225870626
  0.2654875192412547  0.9314514414842421  0.7934213519737199
  0.4666500595134977  0.1333454402766918  0.5661471270042000
  0.4649588310034289  0.1282794366407316  0.7985485686031524
  0.4654726485235727  0.3314283051699718  0.5686626471645013
  0.4682546533047116  0.3370118040598982  0.8006438552524600
  0.4659735997469667  0.5321851664554984  0.5642212579743102
  0.4664288648215731  0.5344655981635498  0.7946734271948301
  0.4660233838631811  0.7326007354258977  0.5631396970058660
  0.4661187537472600  0.7327959423251116  0.7934255363283711
  0.4663886804448296  0.9330526580630405  0.5636702484783953
  0.4658283403305958  0.9312966076811477  0.7939656171781948
  0.6659675441907780  0.1327340025463570  0.5640934579149643
  0.6667399447578362  0.1319682252604011  0.7946357552521022
  0.6646662924263111  0.3318412194641809  0.5658088979763747
  0.6701072365378238  0.3342531726701026  0.7978587520672562
  0.6656896390458655  0.5322016797800444  0.5641713978921032
  0.6675717851404102  0.5344831126149217  0.7946315787614608
  0.6660313123695687  0.7325893941975679  0.5630714208972663
  0.6663085669794455  0.7330811999859250  0.7933939052565080
  0.6660807301948708  0.9326637346924826  0.5630887913271394
  0.6661218852785211  0.9323154594546423  0.7934829654264206
  0.8659624594947388  0.1324048220147773  0.5633059942295233
  0.8658821704492112  0.1322277951052513  0.7936342519315289
  0.8655476666353792  0.3321993807108825  0.5637558392105433
  0.8668872887632872  0.3326875115762533  0.7939691317665662
  0.8655013328590684  0.5322880306171029  0.5636692449705620
  0.8670083012208494  0.5333159661002895  0.7940136562939983
  0.8660729287607793  0.7325910315159874  0.5630754736311374
  0.8661942517282384  0.7327822938775412  0.7933601243189727
  0.8660713241129514  0.9326484909823733  0.5630631131924915
  0.8657132946458290  0.9322850229554618  0.7934537505825361
  0.3271320625501914  0.2626598705614711  0.8983214004240665
  0.5354275793791317  0.2628661253838658  0.8979323912258934
  0.5042450199092627  0.2616270998330208  0.0636872024980875
  0.3557127244654197  0.2606419761265002  0.0644218749087173
 
  0.00000000E+00  0.00000000E+00  0.00000000E+00
  0.00000000E+00  0.00000000E+00  0.00000000E+00
  0.00000000E+00  0.00000000E+00  0.00000000E+00
  0.00000000E+00  0.00000000E+00  0.00000000E+00
  0.00000000E+00  0.00000000E+00  0.00000000E+00
  0.00000000E+00  0.00000000E+00  0.00000000E+00
  0.00000000E+00  0.00000000E+00  0.00000000E+00
  0.00000000E+00  0.00000000E+00  0.00000000E+00
  0.00000000E+00  0.00000000E+00  0.00000000E+00
  0.00000000E+00  0.00000000E+00  0.00000000E+00
  0.00000000E+00  0.00000000E+00  0.00000000E+00
  0.00000000E+00  0.00000000E+00  0.00000000E+00
  0.00000000E+00  0.00000000E+00  0.00000000E+00
  0.00000000E+00  0.00000000E+00  0.00000000E+00
  0.00000000E+00  0.00000000E+00  0.00000000E+00
  0.00000000E+00  0.00000000E+00  0.00000000E+00
  0.00000000E+00  0.00000000E+00  0.00000000E+00
  0.00000000E+00  0.00000000E+00  0.00000000E+00
  0.00000000E+00  0.00000000E+00  0.00000000E+00
  0.00000000E+00  0.00000000E+00  0.00000000E+00
  0.00000000E+00  0.00000000E+00  0.00000000E+00
  0.00000000E+00  0.00000000E+00  0.00000000E+00
  0.00000000E+00  0.00000000E+00  0.00000000E+00
  0.00000000E+00  0.00000000E+00  0.00000000E+00
  0.00000000E+00  0.00000000E+00  0.00000000E+00
  0.00000000E+00  0.00000000E+00  0.00000000E+00
  0.00000000E+00  0.00000000E+00  0.00000000E+00
  0.00000000E+00  0.00000000E+00  0.00000000E+00
  0.00000000E+00  0.00000000E+00  0.00000000E+00
  0.00000000E+00  0.00000000E+00  0.00000000E+00
  0.00000000E+00  0.00000000E+00  0.00000000E+00
  0.00000000E+00  0.00000000E+00  0.00000000E+00
  0.00000000E+00  0.00000000E+00  0.00000000E+00
  0.00000000E+00  0.00000000E+00  0.00000000E+00
  0.00000000E+00  0.00000000E+00  0.00000000E+00
  0.00000000E+00  0.00000000E+00  0.00000000E+00
  0.00000000E+00  0.00000000E+00  0.00000000E+00
  0.00000000E+00  0.00000000E+00  0.00000000E+00
  0.00000000E+00  0.00000000E+00  0.00000000E+00
  0.00000000E+00  0.00000000E+00  0.00000000E+00
  0.00000000E+00  0.00000000E+00  0.00000000E+00
  0.00000000E+00  0.00000000E+00  0.00000000E+00
  0.00000000E+00  0.00000000E+00  0.00000000E+00
  0.00000000E+00  0.00000000E+00  0.00000000E+00
  0.00000000E+00  0.00000000E+00  0.00000000E+00
  0.00000000E+00  0.00000000E+00  0.00000000E+00
  0.00000000E+00  0.00000000E+00  0.00000000E+00
  0.00000000E+00  0.00000000E+00  0.00000000E+00
  0.00000000E+00  0.00000000E+00  0.00000000E+00
  0.00000000E+00  0.00000000E+00  0.00000000E+00
  0.00000000E+00  0.00000000E+00  0.00000000E+00
  0.00000000E+00  0.00000000E+00  0.00000000E+00
  0.00000000E+00  0.00000000E+00  0.00000000E+00
  0.00000000E+00  0.00000000E+00  0.00000000E+00
  0.00000000E+00  0.00000000E+00  0.00000000E+00
  0.00000000E+00  0.00000000E+00  0.00000000E+00
  0.00000000E+00  0.00000000E+00  0.00000000E+00
  0.00000000E+00  0.00000000E+00  0.00000000E+00
  0.00000000E+00  0.00000000E+00  0.00000000E+00
  0.00000000E+00  0.00000000E+00  0.00000000E+00
  0.00000000E+00  0.00000000E+00  0.00000000E+00
  0.00000000E+00  0.00000000E+00  0.00000000E+00
  0.00000000E+00  0.00000000E+00  0.00000000E+00
  0.00000000E+00  0.00000000E+00  0.00000000E+00
  0.00000000E+00  0.00000000E+00  0.00000000E+00
  0.00000000E+00  0.00000000E+00  0.00000000E+00
  0.00000000E+00  0.00000000E+00  0.00000000E+00
  0.00000000E+00  0.00000000E+00  0.00000000E+00
  0.00000000E+00  0.00000000E+00  0.00000000E+00
  0.00000000E+00  0.00000000E+00  0.00000000E+00
  0.00000000E+00  0.00000000E+00  0.00000000E+00
  0.00000000E+00  0.00000000E+00  0.00000000E+00
  0.00000000E+00  0.00000000E+00  0.00000000E+00
  0.00000000E+00  0.00000000E+00  0.00000000E+00
  0.00000000E+00  0.00000000E+00  0.00000000E+00
  0.00000000E+00  0.00000000E+00  0.00000000E+00
  0.00000000E+00  0.00000000E+00  0.00000000E+00
  0.00000000E+00  0.00000000E+00  0.00000000E+00
  0.00000000E+00  0.00000000E+00  0.00000000E+00
