Ru Ta  N  Cu                            
   1.00000000000000     
    18.1096308199999996    0.0000000000000000    0.0000000000000000
     0.0000000000000000   23.3551997799999995    0.0000000000000000
     0.0000000000000000    0.0000000000000000   32.4818170799999990
   Ru   Ta   N    Cu
   128   240   240     4
Selective dynamics
Direct
  0.0454700385108759  0.0039978996864368  0.4478241743986350   T   T   T
  0.2784411753646398  0.4985112700556982  0.4400575662756886   T   T   T
  0.4059584593730732  0.0634004589080060  0.4355091906102155   T   T   T
  0.0276968366755221  0.2591318479426583  0.4468641936806006   T   T   T
  0.2773234527759623  0.2543091949392296  0.4393698807152717   T   T   T
  0.4268749587530364  0.3108655658866714  0.4327759308816249   T   T   T
  0.0508420344278355  0.1187208216584426  0.4487709047565020   T   T   T
  0.2685051714722451  0.1378239850987241  0.4387759250227000   T   T   T
  0.4121833478958899  0.1848895181538681  0.4338673667258053   T   T   T
  0.0295969055665945  0.3767952103097912  0.4488527293633215   T   T   T
  0.2790447087460395  0.3763681495925652  0.4391268871644829   T   T   T
  0.4289453433606735  0.4360185416129091  0.4379746088122546   T   T   T
  0.1530930385677766  0.4364541891886545  0.4487692575000543   T   T   T
  0.1529481350388241  0.3183176406082503  0.4489542925048666   T   T   T
  0.1497794173826982  0.2026843116250697  0.4468592601314499   T   T   T
  0.1732476008067801  0.0594325370763700  0.4575095974491045   T   T   T
  0.0663935374908164  0.4415793790629299  0.5092831015039276   T   T   T
  0.3313325188580877  0.4336571604662522  0.5000537195703746   T   T   T
  0.4357155242483625  0.0075798333114273  0.5023526998520301   T   T   T
  0.0639988343890475  0.1942839574228185  0.5067177673181315   T   T   T
  0.3218664292724177  0.1899129862683345  0.4994090662170572   T   T   T
  0.4480524555233230  0.2507669193024922  0.5000593920303075   T   T   T
  0.0775806485202766  0.0534511535764844  0.5129637176788971   T   T   T
  0.3076721519081839  0.0652755570312362  0.4947886872489040   T   T   T
  0.4376921086890898  0.1178289525129412  0.5021338613100428   T   T   T
  0.0616545290632267  0.3122445090054026  0.5095047014745191   T   T   T
  0.3254188905578149  0.3167753990321812  0.4986983339563962   T   T   T
  0.4532319584723564  0.3579512724391256  0.5034591090863905   T   T   T
  0.2073981427843568  0.3782998179212143  0.5059647807051463   T   T   T
  0.2012628383032275  0.2577644522869066  0.5065257054697375   T   T   T
  0.1952390982250449  0.1431637388270550  0.5062535357268438   T   T   T
  0.2030993420275456  0.4937667121395418  0.5079247977523998   T   T   T
  0.0323684718499534  0.4991715203468342  0.4473890235258711   T   T   T
  0.2757453710563526  0.9896795900295388  0.4380558010840649   T   T   T
  0.4052046643805549  0.5720751868878932  0.4357030327872961   T   T   T
  0.0405946565295660  0.7515909237688774  0.4482075957481831   T   T   T
  0.2761981984984178  0.7459217372208429  0.4341315759790454   T   T   T
  0.4102033359777345  0.8133810319163173  0.4353049630387497   T   T   T
  0.0423677583752464  0.6262061308593849  0.4480671673666624   T   T   T
  0.2676045157101888  0.6260118778515713  0.4389383859232094   T   T   T
  0.4088734808065993  0.6909947351045884  0.4335067785212234   T   T   T
  0.0461141092860896  0.8673383700175474  0.4486211684639668   T   T   T
  0.2719907563498116  0.8750323176832872  0.4396436557468944   T   T   T
  0.4094053594502152  0.9361499259325211  0.4326145722122043   T   T   T
  0.1560939422277689  0.9377399860826091  0.4509409298959431   T   T   T
  0.1655457741907183  0.8036928355467099  0.4577770594339777   T   T   T
  0.1571371928725644  0.6923189199212580  0.4533007833036955   T   T   T
  0.1543871054240096  0.5542029649684257  0.4498909628869485   T   T   T
  0.0677097291045516  0.9366101018957383  0.5088703946624894   T   T   T
  0.3265727516919577  0.9357928888336559  0.5004932571750497   T   T   T
  0.4439497725421545  0.5244096885098438  0.5083512929774048   T   T   T
  0.0642549167938385  0.6902169663933436  0.5103545834874660   T   T   T
  0.3174943930716162  0.6906021475073792  0.4978416777667307   T   T   T
  0.4390951924585865  0.7566459031658442  0.5024781052542668   T   T   T
  0.0671777972928218  0.5580057154059119  0.5091520827354148   T   T   T
  0.3170066806553318  0.5640565327411612  0.4977661604622643   T   T   T
  0.4384444568882943  0.6316415897806281  0.5018576682510997   T   T   T
  0.0699802278679166  0.8078701525558226  0.5132253114975625   T   T   T
  0.3119378154452543  0.8054615934008263  0.4967448960252585   T   T   T
  0.4372707221576080  0.8672779344509794  0.5018572305113883   T   T   T
  0.2024664031050119  0.8786977225535439  0.5099316023607844   T   T   T
  0.1933571171006584  0.7360355168367381  0.5195536203264014   T   T   T
  0.1977098688955239  0.6225483792962911  0.5076978234462113   T   T   T
  0.2001819262601390  0.9860274160517462  0.5136851213152992   T   T   T
  0.5304645059266407 -0.0005500402081786  0.4469923577242447   T   T   T
  0.7726716614782206  0.5058155088837567  0.4409848992375124   T   T   T
  0.9236294282864829  0.0631829631762629  0.4343190923497383   T   T   T
  0.5469846986812168  0.2464326183965803  0.4464080929202665   T   T   T
  0.7801201150051011  0.2340918383426080  0.4407791698718807   T   T   T
  0.9005923464742434  0.3188803062264801  0.4364650076435044   T   T   T
  0.5344990794320461  0.1206520311309118  0.4470178267241813   T   T   T
  0.7785860810024458  0.1183486414135526  0.4397836305257663   T   T   T
  0.9199894432189745  0.1856110945150554  0.4335053429469520   T   T   T
  0.5583904405552239  0.3646867585651687  0.4478778076235337   T   T   T
  0.7614441933644805  0.3879267588375148  0.4386485602058491   T   T   T
  0.9020411227009394  0.4377353923844144  0.4362062186787426   T   T   T
  0.6446223911951405  0.4581492442224321  0.4446769199670971   T   T   T
  0.6750247125378797  0.3014329698254890  0.4565070489016697   T   T   T
  0.6579848499436990  0.1765323397816987  0.4499321967470847   T   T   T
  0.6543780924824691  0.0563678267207195  0.4481840707666410   T   T   T
  0.5452278062269313  0.4451758683424872  0.4982601449834784   T   T   T
  0.8114156266445585  0.4378993772377022  0.5000026197792313   T   T   T
  0.9493085535056484  0.0047461061012147  0.5025596729490075   T   T   T
  0.5689879236031165  0.1838943566437387  0.5082515696611771   T   T   T
  0.8321044984801861  0.1733171602595970  0.5006261892574200   T   T   T
  0.9305536260397903  0.2601287709205798  0.5012008348128063   T   T   T
  0.5647912612143856  0.0578225876621724  0.5085673252557271   T   T   T
  0.8238817564624001  0.0553739094742868  0.4988230971156853   T   T   T
  0.9508456098616719  0.1148343605976581  0.5023874303217289   T   T   T
  0.5801445597043341  0.2941960259778565  0.5128252376536707   T   T   T
  0.8022969247753957  0.3183406462423602  0.4951205094573856   T   T   T
  0.9320418966736815  0.3724604382891086  0.5033093110514532   T   T   T
  0.6776762881478510  0.3895386803287673  0.5021699339523378   T   T   T
  0.7063293391369200  0.2268238934038973  0.5112741788504112   T   T   T
  0.7064461747757946  0.1150563243154177  0.5067732481708827   T   T   T
  0.6945479798949701  0.5096585255608442  0.5078379864986152   T   T   T
  0.5303392692794926  0.5202629056406749  0.4448808044451456   T   T   T
  0.7786193422857167  0.9961419790102681  0.4385141812545180   T   T   T
  0.9114128413964077  0.5632605344914965  0.4355824809645556   T   T   T
  0.5340928150712801  0.7541287632588862  0.4466074411900662   T   T   T
  0.7776829848170320  0.7517697453256795  0.4394028911285889   T   T   T
  0.9169959629068781  0.8139076075497212  0.4350217963032553   T   T   T
  0.5340592776084581  0.6329156381269541  0.4466850607751733   T   T   T
  0.7752464915790026  0.6316008876382659  0.4391191446689446   T   T   T
  0.9132575647751587  0.6879676977319498  0.4335962405677569   T   T   T
  0.5338735256726541  0.8754921411092429  0.4475480731092799   T   T   T
  0.7768217765281724  0.8767664540609246  0.4390841782496779   T   T   T
  0.9207578818270145  0.9359533463448719  0.4336652251621634   T   T   T
  0.6521876864629503  0.9386118867496690  0.4472690915696233   T   T   T
  0.6546204869758905  0.8156736373330313  0.4490251362968543   T   T   T
  0.6542967692266104  0.6947347701593227  0.4485166147745969   T   T   T
  0.6544199155838795  0.5732876879268648  0.4504066326466100   T   T   T
  0.5655978299765184  0.9379375115788406  0.5079605347317238   T   T   T
  0.8277977180723562  0.9362930880954147  0.4987750720690052   T   T   T
  0.9370824603401248  0.5064827748217204  0.5024618688904399   T   T   T
  0.5692133141174848  0.6927427122554125  0.5089709803180071   T   T   T
  0.8270673303562998  0.6885758746551653  0.4989328233111499   T   T   T
  0.9421797216564349  0.7567198024613830  0.5021594157308883   T   T   T
  0.5704870277907526  0.5808950523259160  0.5115183595408919   T   T   T
  0.8168901187862736  0.5694365599813777  0.4988734595657017   T   T   T
  0.9446886714864088  0.6180437178583893  0.5028118078205134   T   T   T
  0.5666160067498042  0.8145164519050030  0.5089688754305485   T   T   T
  0.8205371493963187  0.8162124964204973  0.4984712377937343   T   T   T
  0.9463282756890649  0.8674142129433023  0.5023367006800654   T   T   T
  0.7019977398615127  0.8800723774135571  0.5055887265706027   T   T   T
  0.7029213962825702  0.7532524407758593  0.5063441570132218   T   T   T
  0.6995489056212463  0.6379274615430277  0.5081058303910005   T   T   T
  0.7036808924387511  0.9951512314840103  0.5056667800975726   T   T   T
  0.0002112439569970  0.0001379294448540  0.0373463921698374   F   F   F
  0.3342257926207992  0.0625994154237475  0.0423987318545187   F   F   F
  0.1660626269271432  0.0626581163633873  0.0424061668450690   F   F   F
  0.2502202084754828  0.1252178855354416  0.1130358333669221   F   F   F
  0.0828588434925734  0.0627073156657261  0.1186643004524512   F   F   F
  0.4176999472490408  0.0627059576615423  0.1186271515872050   F   F   F
  0.0010129534461477  0.1252361080288939  0.1991933887707304   T   T   T
  0.3328371666691550  0.0627952413474152  0.1976947845994009   T   T   T
  0.1681205515541639  0.0627877838078558  0.1977128169188316   T   T   T
  0.2494016549286770  0.1252757906924336  0.2787428066344307   T   T   T
  0.0845327431952042  0.0626846345954519  0.2790052666634296   T   T   T
  0.4173765710509172  0.0627130606006523  0.2780205891828457   T   T   T
  0.0026796268824760  0.1253467899222648  0.3596181454469645   T   T   T
  0.3331775553840023  0.0624427309570692  0.3577475046470667   T   T   T
  0.1658166070427766  0.0626542879214334  0.3619345516125702   T   T   T
  0.0001993579241457  0.1251124241418680  0.0373673238785415   F   F   F
  0.3342248374093941  0.1876083518869578  0.0424180467130881   F   F   F
  0.1660568042752573  0.1876606967942038  0.0424146876443743   F   F   F
  0.2502332970886698  0.2502158349488468  0.1130222857832806   F   F   F
  0.0828712378028129  0.1877169521294775  0.1186661494224168   F   F   F
  0.4176644359050954  0.1877065482458207  0.1186607550294028   F   F   F
  0.0008709761022295  0.2502655020358494  0.1992023730652527   T   T   T
  0.3328937230450663  0.1878085553230719  0.1977207077391925   T   T   T
  0.1681616209910758  0.1878220586022177  0.1977186299631440   T   T   T
  0.2496533262577930  0.2503871702666399  0.2789251743886124   T   T   T
  0.0841273193268212  0.1877569248106607  0.2788834116436412   T   T   T
  0.4173259781136781  0.1877407966167975  0.2782277636828052   T   T   T
  0.0023105497136034  0.2502409543780310  0.3600702819376144   T   T   T
  0.3335341564142015  0.1875913065536566  0.3578816877571924   T   T   T
  0.1662493967813226  0.1876899255785175  0.3602941268380398   T   T   T
  0.0002122078768210  0.2501392066830732  0.0373456541597363   F   F   F
  0.3342232035055162  0.3125992309382539  0.0423967923009556   F   F   F
  0.1660586660861370  0.3126582257413517  0.0424062846115874   F   F   F
  0.2502173161139041  0.3752178897059935  0.1130360339591618   F   F   F
  0.0828568376004242  0.3127060748111887  0.1186645141734175   F   F   F
  0.4176984722473520  0.3127078846600213  0.1186298408889357   F   F   F
  0.0009405718260779  0.3752336289404112  0.1992061632173020   T   T   T
  0.3328968179721326  0.3127919607403959  0.1978366665760714   T   T   T
  0.1681542013300933  0.3127891109765986  0.1978689352561367   T   T   T
  0.2499222822082245  0.3752893736414682  0.2792067045413060   T   T   T
  0.0840352015858814  0.3127765417152683  0.2790587111523298   T   T   T
  0.4171538923522103  0.3128136125464883  0.2787122506262433   T   T   T
  0.0037690395511867  0.3753032388645361  0.3604726729005895   T   T   T
  0.3339317087596244  0.3129425610389065  0.3595610372682558   T   T   T
  0.1664432371411927  0.3128683830450109  0.3608944315734230   T   T   T
  0.0001993469486266  0.3751125453592721  0.0373668329409540   F   F   F
  0.3342265491584655  0.4376091382735581  0.0424193945147948   F   F   F
  0.1660559599480962  0.4376604044393986  0.0424156771225839   F   F   F
  0.2502327017382058  0.0002164962773534  0.1130220722767348   F   F   F
  0.0828707196508915  0.4377156099338606  0.1186668391713255   F   F   F
  0.4176643738564039  0.4377089816271393  0.1186614737223408   F   F   F
  0.0010549694139598  0.0002704328711508  0.1991651656925792   T   T   T
  0.3328897220894725  0.4376915544549111  0.1978244850467490   T   T   T
  0.1681357876268673  0.4377107025432894  0.1978480618326062   T   T   T
  0.2494047362826402  0.0001413966829039  0.2786698968293279   T   T   T
  0.0840528467770352  0.4377182338739610  0.2790812188572238   T   T   T
  0.4170955911194721  0.4377350620080278  0.2786777961407038   T   T   T
  0.0019278124648088 -0.0000208322217877  0.3595284753268733   T   T   T
  0.3337037181707979  0.4383760173668478  0.3595694452182130   T   T   T
  0.1663871929681733  0.4380029266519418  0.3607482502676647   T   T   T
  0.0002112439569970  0.5001379294448540  0.0373463921698374   F   F   F
  0.3342257926207992  0.5625994154237475  0.0423987318545187   F   F   F
  0.1660626269271432  0.5626581163633873  0.0424061668450690   F   F   F
  0.2502202084754828  0.6252178855354416  0.1130358333669221   F   F   F
  0.0828588434925734  0.5627073156657261  0.1186643004524512   F   F   F
  0.4176999472490408  0.5627059576615423  0.1186271515872050   F   F   F
  0.0009123171459393  0.6251533034805213  0.1991347591932421   T   T   T
  0.3328250204657027  0.5626470816121160  0.1977057667912284   T   T   T
  0.1681352377810870  0.5626637761195504  0.1977501970255999   T   T   T
  0.2494068279731114  0.6251420043797462  0.2786552101459858   T   T   T
  0.0841638070607209  0.5626987144849345  0.2788488606529531   T   T   T
  0.4173352251524742  0.5625695646208988  0.2782732144927793   T   T   T
  0.0027647896459944  0.6251112526677827  0.3595349957975222   T   T   T
  0.3336917860288848  0.5629503809538519  0.3585666800308477   T   T   T
  0.1659815825804118  0.5629728630496188  0.3606437471401421   T   T   T
  0.0001993579241457  0.6251124241418680  0.0373673238785415   F   F   F
  0.3342248374093941  0.6876083518869507  0.0424180467130881   F   F   F
  0.1660568042752573  0.6876606967941967  0.0424146876443743   F   F   F
  0.2502332970886698  0.7502158349488468  0.1130222857832806   F   F   F
  0.0828712378028129  0.6877169521294704  0.1186661494224168   F   F   F
  0.4176644359050954  0.6877065482458136  0.1186607550294028   F   F   F
  0.0009574772298289  0.7502465968679939  0.1991308296759097   T   T   T
  0.3327755619447351  0.6876649462016560  0.1975981350995781   T   T   T
  0.1680883174155952  0.6876973370454833  0.1976651711015694   T   T   T
  0.2491677488648200  0.7502234533199310  0.2785252975961266   T   T   T
  0.0841080379207366  0.6877474715847707  0.2787529772661447   T   T   T
  0.4175833384423531  0.6875850981951956  0.2777073932041568   T   T   T
  0.0029987453260460  0.7502878421113649  0.3595830206060870   T   T   T
  0.3335506007220068  0.6880053533821489  0.3566863311517685   T   T   T
  0.1655880560762718  0.6875597447389704  0.3606066148464636   T   T   T
  0.0002122078768210  0.7501392066830732  0.0373456541597363   F   F   F
  0.3342232035055162  0.8125992309382539  0.0423967923009556   F   F   F
  0.1660586660861370  0.8126582257413517  0.0424062846115874   F   F   F
  0.2502173161139041  0.8752178897059935  0.1130360339591618   F   F   F
  0.0828568376004242  0.8127060748111887  0.1186645141734175   F   F   F
  0.4176984722473520  0.8127078846600213  0.1186298408889357   F   F   F
  0.0010436099690945  0.8752092974287349  0.1991490421632304   T   T   T
  0.3327672046527183  0.8127544038422900  0.1975910174619782   T   T   T
  0.1680938049550478  0.8127429405967562  0.1976590632302640   T   T   T
  0.2493574935875112  0.8752494680875690  0.2786064415055924   T   T   T
  0.0843007505667101  0.8127413942442601  0.2789391813746728   T   T   T
  0.4176291736659362  0.8127236574950512  0.2776441202868422   T   T   T
  0.0031594934241327  0.8754014216089382  0.3597101295906596   T   T   T
  0.3335805194913826  0.8128629289388772  0.3572700281008714   T   T   T
  0.1657289405951705  0.8129065554929761  0.3616269848188585   T   T   T
  0.0001993469486266  0.8751125453592721  0.0373668329409540   F   F   F
  0.3342265491584655  0.9376091382735510  0.0424193945147948   F   F   F
  0.1660559599480962  0.9376604044393915  0.0424156771225839   F   F   F
  0.2502327017382058  0.5002164962773534  0.1130220722767348   F   F   F
  0.0828707196508915  0.9377156099338535  0.1186668391713255   F   F   F
  0.4176643738564039  0.9377089816271322  0.1186614737223408   F   F   F
  0.0009396795513112  0.5001947465732348  0.1991727927385790   T   T   T
  0.3327325947928421  0.9377540615932500  0.1975945425017578   T   T   T
  0.1680857929682282  0.9377486435781963  0.1976682673572678   T   T   T
  0.2498146534289371  0.5002475679787408  0.2790737159024732   T   T   T
  0.0844446045463254  0.9377068480536795  0.2789826229464709   T   T   T
  0.4176348532461812  0.9377364518815001  0.2778563160912063   T   T   T
  0.0028336867358631  0.5004641946060266  0.3600310197343666   T   T   T
  0.3339129414216817  0.9376408397975866  0.3573155665523917   T   T   T
  0.1664015882268903  0.9376645173121547  0.3606016468322791   T   T   T
  0.5002112439569970  0.0001379294448540  0.0373463921698374   F   F   F
  0.8342257926207992  0.0625994154237475  0.0423987318545187   F   F   F
  0.6660626269271432  0.0626581163633873  0.0424061668450690   F   F   F
  0.7502202084754828  0.1252178855354416  0.1130358333669221   F   F   F
  0.5828588434925734  0.0627073156657261  0.1186643004524512   F   F   F
  0.9176999472490408  0.0627059576615423  0.1186271515872050   F   F   F
  0.5010803682995123  0.1252822811632738  0.1991464844867361   T   T   T
  0.8330308049564574  0.0627858345563473  0.1977478726704401   T   T   T
  0.6683446147148843  0.0627665328612632  0.1977174480563644   T   T   T
  0.7500535122110618  0.1251436992926930  0.2788899796983226   T   T   T
  0.5843252071445717  0.0627032155368373  0.2787765190907945   T   T   T
  0.9174989917071562  0.0626886177704901  0.2783533171592615   T   T   T
  0.5035300913429405  0.1248493821311633  0.3595572035971359   T   T   T
  0.8340990117328553  0.0624613362581649  0.3587292503772915   T   T   T
  0.6669291338979279  0.0624697103989445  0.3604460992026977   T   T   T
  0.5001993579241457  0.1251124241418680  0.0373673238785415   F   F   F
  0.8342248374093941  0.1876083518869578  0.0424180467130881   F   F   F
  0.6660568042752573  0.1876606967942038  0.0424146876443743   F   F   F
  0.7502332970886698  0.2502158349488468  0.1130222857832806   F   F   F
  0.5828712378028129  0.1877169521294775  0.1186661494224168   F   F   F
  0.9176644359050954  0.1877065482458207  0.1186607550294028   F   F   F
  0.5009362040992140  0.2502801333783450  0.1991994500908555   T   T   T
  0.8329599274475422  0.1877655447875922  0.1977792040737428   T   T   T
  0.6683283353923666  0.1877349546986293  0.1976718499071198   T   T   T
  0.7499122459697763  0.2501461503702613  0.2789678652815417   T   T   T
  0.5845138144920349  0.1876945267116501  0.2788525205682980   T   T   T
  0.9173269537214119  0.1877637280570179  0.2784633120401561   T   T   T
  0.5013040634725286  0.2496691489952526  0.3592748640922356   T   T   T
  0.8345143482825759  0.1878758965609429  0.3587338610225311   T   T   T
  0.6668750265210919  0.1874091578022725  0.3606218768760017   T   T   T
  0.5002122078768210  0.2501392066830732  0.0373456541597363   F   F   F
  0.8342232035055162  0.3125992309382539  0.0423967923009556   F   F   F
  0.6660586660861370  0.3126582257413517  0.0424062846115874   F   F   F
  0.7502173161139041  0.3752178897059935  0.1130360339591618   F   F   F
  0.5828568376004242  0.3127060748111887  0.1186645141734175   F   F   F
  0.9176984722473520  0.3127078846600213  0.1186298408889357   F   F   F
  0.5007180480085885  0.3751898539922006  0.1992342011453589   T   T   T
  0.8329049585275442  0.3127308326665477  0.1978345411613777   T   T   T
  0.6682060541343581  0.3127001306664728  0.1976937859284796   T   T   T
  0.7495196910314056  0.3752218688013705  0.2788039359940045   T   T   T
  0.5844049138492323  0.3125792714469178  0.2788537870240665   T   T   T
  0.9171247962372057  0.3128230334756378  0.2785162964106749   T   T   T
  0.5004531181793951  0.3750205792525605  0.3599128187548802   T   T   T
  0.8329564081363274  0.3127734945753259  0.3586336396039317   T   T   T
  0.6660288331383901  0.3121139780015786  0.3617078611890322   T   T   T
  0.5001993469486266  0.3751125453592721  0.0373668329409540   F   F   F
  0.8342265491584655  0.4376091382735581  0.0424193945147948   F   F   F
  0.6660559599480962  0.4376604044393986  0.0424156771225839   F   F   F
  0.7502327017382058  0.0002164962773534  0.1130220722767348   F   F   F
  0.5828707196508915  0.4377156099338606  0.1186668391713255   F   F   F
  0.9176643738564039  0.4377089816271393  0.1186614737223408   F   F   F
  0.5011348618588125  0.0002500833179333  0.1990713389052647   T   T   T
  0.8328668876851428  0.4377172864873378  0.1977515061228378   T   T   T
  0.6681538877400681  0.4376897237676444  0.1976917760698187   T   T   T
  0.7499773668793003  0.0001298947656388  0.2787267004019701   T   T   T
  0.5839397295956777  0.4375510610595040  0.2788491152003680   T   T   T
  0.9172635304767812  0.4377326662415121  0.2783079667329126   T   T   T
  0.5037360497592986 -0.0000679615898742  0.3596525931262189   T   T   T
  0.8329210578305976  0.4381252186701058  0.3579161954879043   T   T   T
  0.6654440805264001  0.4372654879134194  0.3599820990102830   T   T   T
  0.5002112439569970  0.5001379294448540  0.0373463921698374   F   F   F
  0.8342257926207992  0.5625994154237475  0.0423987318545187   F   F   F
  0.6660626269271432  0.5626581163633873  0.0424061668450690   F   F   F
  0.7502202084754828  0.6252178855354416  0.1130358333669221   F   F   F
  0.5828588434925734  0.5627073156657261  0.1186643004524512   F   F   F
  0.9176999472490408  0.5627059576615423  0.1186271515872050   F   F   F
  0.5010458099505217  0.6250223857017436  0.1990974052858919   T   T   T
  0.8328813151201211  0.5627056434522117  0.1977156599816825   T   T   T
  0.6681049347971639  0.5626501187853347  0.1977686522142137   T   T   T
  0.7497238458074110  0.6251742546358843  0.2787397846299053   T   T   T
  0.5842196166048602  0.5624322008753868  0.2789159436062843   T   T   T
  0.9173274042616920  0.5626976795912078  0.2782949983350789   T   T   T
  0.5038640440390469  0.6248333034929545  0.3594165598144953   T   T   T
  0.8338442941974368  0.5629569709806262  0.3587583350485886   T   T   T
  0.6665918731232569  0.5627857169992329  0.3605674993870412   T   T   T
  0.5001993579241457  0.6251124241418680  0.0373673238785415   F   F   F
  0.8342248374093941  0.6876083518869507  0.0424180467130881   F   F   F
  0.6660568042752573  0.6876606967941967  0.0424146876443743   F   F   F
  0.7502332970886698  0.7502158349488468  0.1130222857832806   F   F   F
  0.5828712378028129  0.6877169521294704  0.1186661494224168   F   F   F
  0.9176644359050954  0.6877065482458136  0.1186607550294028   F   F   F
  0.5012158578390591  0.7501635142682537  0.1990269201442028   T   T   T
  0.8329346215334590  0.6877279765772381  0.1976557306078392   T   T   T
  0.6682429944441972  0.6876658322574403  0.1976868426593892   T   T   T
  0.7498585514985201  0.7502054448451019  0.2787114396925476   T   T   T
  0.5844033754437800  0.6875762236926622  0.2786944613417969   T   T   T
  0.9172846953431329  0.6877027305257527  0.2782490800438150   T   T   T
  0.5040086733569522  0.7500879265144728  0.3593900061092409   T   T   T
  0.8342460748098176  0.6878668907603825  0.3580542264364152   T   T   T
  0.6670257956470610  0.6878806393650957  0.3601931369315623   T   T   T
  0.5002122078768210  0.7501392066830732  0.0373456541597363   F   F   F
  0.8342232035055162  0.8125992309382539  0.0423967923009556   F   F   F
  0.6660586660861370  0.8126582257413517  0.0424062846115874   F   F   F
  0.7502173161139041  0.8752178897059935  0.1130360339591618   F   F   F
  0.5828568376004242  0.8127060748111887  0.1186645141734175   F   F   F
  0.9176984722473520  0.8127078846600213  0.1186298408889357   F   F   F
  0.5012072924742325  0.8752577694329811  0.1990474314170517   T   T   T
  0.8329750184609381  0.8127415006684133  0.1976897279560781   T   T   T
  0.6683852896382759  0.8127155081730861  0.1976808926031717   T   T   T
  0.7498995919472218  0.8751758024701117  0.2787026968131620   T   T   T
  0.5843264257203828  0.8126415106991742  0.2786490089867680   T   T   T
  0.9174400394428108  0.8127105605974031  0.2782107723499534   T   T   T
  0.5040864658648450  0.8751002430041028  0.3594418406770468   T   T   T
  0.8341752414253593  0.8126838262330033  0.3586254475550877   T   T   T
  0.6670212153636214  0.8127396130500960  0.3603959690347577   T   T   T
  0.5001993469486266  0.8751125453592721  0.0373668329409540   F   F   F
  0.8342265491584655  0.9376091382735510  0.0424193945147948   F   F   F
  0.6660559599480962  0.9376604044393915  0.0424156771225839   F   F   F
  0.7502327017382058  0.5002164962773534  0.1130220722767348   F   F   F
  0.5828707196508915  0.9377156099338535  0.1186668391713255   F   F   F
  0.9176643738564039  0.9377089816271322  0.1186614737223408   F   F   F
  0.5007692302879742  0.5001033304475141  0.1991776733648611   T   T   T
  0.8330811648246592  0.9377739941559862  0.1977098870022572   T   T   T
  0.6683416567534325  0.9377555441524584  0.1976841707805891   T   T   T
  0.7496683233982473  0.5001295785517140  0.2787614066324171   T   T   T
  0.5843263094277151  0.9377044356820893  0.2786460730741390   T   T   T
  0.9174879834565810  0.9376571298198195  0.2783197131242309   T   T   T
  0.5004689244255401  0.4995171039551333  0.3605361705571035   T   T   T
  0.8341763782711157  0.9376584280486860  0.3582406358010055   T   T   T
  0.6669730155983068  0.9375728823061091  0.3600144250523634   T   T   T
  0.4059663601692378  0.0001462046730154  0.0700885167279779   F   F   F
  0.2501335306342440  0.0001313415364734  0.0393543396202674   F   F   F
  0.0944334762619548  0.0001738881651363  0.0701382961740649   F   F   F
  0.1549947328934422  0.1252546000618224  0.1485264565477067   F   F   F
  0.0003044512358912  0.1252329358346600  0.1366467142038701   F   F   F
  0.3454752489896649  0.1252525403775380  0.1484231789215542   F   F   F
  0.4016918584417123  0.1252927526110325  0.2292815654706193   T   T   T
  0.2503581611974594  0.1253237488708701  0.2154109878530616   T   T   T
  0.1000455294482250  0.1252465137879644  0.2298658505685636   T   T   T
  0.1516923475862169  0.1249630973973929  0.3110606524927741   T   T   T
  0.0009451933634999  0.1251955280751461  0.2955540107199385   T   T   T
  0.3483820604664979  0.1251015217192267  0.3088883177508290   T   T   T
  0.4032764366422612  0.1240168109391149  0.3859288976700087   T   T   T
  0.2518654069197011  0.1254292440197405  0.3761911333804560   T   T   T
  0.0995881747861632  0.1256805103018073  0.3903606522593169   T   T   T
  0.4059504510021199  0.1251528418496832  0.0701137697057277   F   F   F
  0.2501484584581348  0.1251294756807368  0.0393952583647277   F   F   F
  0.0944439778587522  0.1251741239827453  0.0701534912843229   F   F   F
  0.1549877250862224  0.2502614546838657  0.1485179043880294   F   F   F
  0.0002974674814880  0.2502100279361912  0.1366324893501272   F   F   F
  0.3454803331882346  0.2503006024972620  0.1484139149937889   F   F   F
  0.4015717893971066  0.2503336506147448  0.2294702460273736   T   T   T
  0.2504207585126854  0.2503119971511400  0.2155304694000690   T   T   T
  0.0999322541347919  0.2503522188013051  0.2298909540711827   T   T   T
  0.1516266876787849  0.2503827597962799  0.3109591018661564   T   T   T
  0.0006779195396848  0.2503899871819320  0.2957931932537826   T   T   T
  0.3484948226644900  0.2505557823129490  0.3093956740421703   T   T   T
  0.4021945566405169  0.2487143917598625  0.3872794801856123   T   T   T
  0.2519902241340098  0.2507307779373997  0.3762844465439287   T   T   T
  0.1008303948312235  0.2496358892543472  0.3917853862784970   T   T   T
  0.4059628358367533  0.2501443164155361  0.0700852243531500   F   F   F
  0.2501309939231433  0.2501318371526651  0.0393519425499136   F   F   F
  0.0944333317481849  0.2501740935465691  0.0701386596889861   F   F   F
  0.1549942609652177  0.3752545226085218  0.1485264414225469   F   F   F
  0.0003019335461047  0.3752315664304433  0.1366474736751755   F   F   F
  0.3454762333887373  0.3752493953370220  0.1484229723695165   F   F   F
  0.4014279290383962  0.3752276212272554  0.2296617236728204   T   T   T
  0.2504411181552590  0.3752868418115560  0.2156968088130097   T   T   T