Ta  N Cu                                
   1.00000000000000     
    18.1096308199999996    0.0000000000000000    0.0000000000000000
     0.0000000000000000   23.3551997799999995    0.0000000000000000
     0.0000000000000000    0.0000000000000000   30.4818170799999990
   Ta   N    Cu
   240   240    29
Direct
  0.9965297190432398  0.9992239370153133  0.1949660564148867
  0.3276575655779978  0.0581105702448114  0.2013769800835791
  0.1683724670079772  0.0580318982295703  0.2013846182004273
  0.2478559617874984  0.1239596650035588  0.2800338733493699
  0.0807092071289118  0.0616415523587559  0.2828870974013244
  0.4150974954325403  0.0616640687893208  0.2828976905666503
  0.9978461321474159  0.1239114336267653  0.3687222314693198
  0.3304601020819776  0.0615066422246662  0.3678983906425366
  0.1654402721154299  0.0614730848088793  0.3678906008490129
  0.2479487029225726  0.1239710627754839  0.4552824450519191
  0.0817181424241866  0.0613998583019667  0.4539153007834825
  0.4141933929997540  0.0614564026308998  0.4539441692163654
  0.9981926418564367  0.1239541606237687  0.5403646614154757
  0.3332471543314315  0.0613862943512194  0.5422146365943241
  0.1630312693574455  0.0614385407826763  0.5420511035785505
  0.9997289313624356  0.1240106293685584  0.1949596429243349
  0.3276241547851087  0.1899829634116587  0.2013760450568716
  0.1683612797613874  0.1900246313220021  0.2014777385297419
  0.2477454295618776  0.2488412305401572  0.2806961728784800
  0.0805849056943114  0.1862680642532943  0.2829396232395624
  0.4150549025910150  0.1862842403137209  0.2828917863679530
  0.9976805421727757  0.2488734563892029  0.3689200968954133
  0.3303478132062364  0.1863650272890564  0.3679116768999779
  0.1653035278017706  0.1863870894191285  0.3679347787765593
  0.2475866673253101  0.2486947324620110  0.4552260191351971
  0.0814601944894467  0.1862594100575993  0.4539153120657581
  0.4142128795789888  0.1862596960976060  0.4540280658672475
  0.9974242007666371  0.2490862710428773  0.5403941188095325
  0.3320313854819693  0.1852033659398598  0.5422522871701485
  0.1621321363207097  0.1863152763655194  0.5419149356908424
  0.9964410052609435  0.2488042911177156  0.1950967762706184
  0.3277044010708747  0.3080480864841895  0.2013556783033821
  0.1682924500747398  0.3079141051704721  0.2014538711810487
  0.2476864323907780  0.3738679702291915  0.2800391353465773
  0.0805471175635364  0.3114455585378200  0.2829429673626507
  0.4150303822880474  0.3114699076180641  0.2828838636718846
  0.9978795300338900  0.3738552366659795  0.3689638227281424
  0.3303607422856038  0.3113313164131498  0.3678167418896939
  0.1651322374394251  0.3113839206708331  0.3678850231862159
  0.2470188458971115  0.3738205515145234  0.4547901317072903
  0.0810862513122469  0.3113187396602050  0.4540531361815415
  0.4141201342529832  0.3112171685944654  0.4536815822303891
  0.9961272797090053  0.3743662708913264  0.5410847833583323
  0.3282125131968315  0.3098915567468357  0.5399903630276461
  0.1606021223058652  0.3108266932964865  0.5417956567113107
  0.9999742838993264  0.3735719399845309  0.1951421259219552
  0.3274681062337726  0.4398604178692916  0.2013047571849307
  0.1684388910735498  0.4399420843813877  0.2014319425110542
  0.2479529548604509  0.9990880532945495  0.2806428228036050
  0.0804600356751262  0.4361783320518381  0.2829284774112136
  0.4150467506274071  0.4362045941448141  0.2827923839300633
  0.9980402159433307  0.9990303889592926  0.3686571163208432
  0.3303617727722277  0.4363872244048885  0.3676786066382234
  0.1649927540207419  0.4364124331684318  0.3678005774058911
  0.2481544596499912  0.9990390462924885  0.4553413561343861
  0.0815237485111473  0.4364544085150270  0.4544327274736279
  0.4138383382719830  0.4363415699871978  0.4532912075620641
  0.9981591420853618  0.9990594679377663  0.5403319375118505
  0.3289715644649479  0.4354132384400412  0.5394801069296328
  0.1604302573023667  0.4352553213517200  0.5418779740789119
  0.9973874463316178  0.4987710190770940  0.1947320112413859
  0.3275947579462256  0.5580481927047427  0.2013085116605597
  0.1684901306898523  0.5578912341399296  0.2014257618200938
  0.2478008449461744  0.6240097674205020  0.2798818209570318
  0.0804374009136903  0.5615476503986540  0.2828104170617585
  0.4151729602148675  0.5615788447120413  0.2827191384413226
  0.9984416567851874  0.6240661329635551  0.3688216814063021
  0.3304984532670586  0.5615701319129761  0.3676692997347675
  0.1652520864328600  0.5615016892704695  0.3677279206404551
  0.2476903558057005  0.6241148155524915  0.4546304742533365
  0.0824955126586800  0.5615478925900376  0.4545823089950302
  0.4136893638896734  0.5617058181844146  0.4534246562577301
  0.9981436147157290  0.6240386935879034  0.5400338906015969
  0.3308544092971554  0.5613455512887737  0.5395961372659777
  0.1600135039011369  0.5612117813840137  0.5429347417791333
  0.0007025090709529  0.6240550838850047  0.1950159847051940
  0.3276678882227504  0.6900040192429221  0.2012867593028486
  0.1685079775505890  0.6900610630521056  0.2013883993284560
  0.2479033293980696  0.7491026003386112  0.2804688931755536
  0.0805643378681684  0.6864728155108810  0.2827810909279580
  0.4151949177499231  0.6864838238693700  0.2827480361646747
  0.9983065081569901  0.7491823052335421  0.3686225597956838
  0.3305149388817318  0.6866063625941051  0.3677276330409008
  0.1653844114217469  0.6865353153230186  0.3677300767777443
  0.2480513459069759  0.7490821694560472  0.4552067679337839
  0.0823209711807496  0.6866049447663094  0.4541911905275965
  0.4139147114475353  0.6868172562604828  0.4538034055764038
  0.9981866461630599  0.7491237950130482  0.5398982450613460
  0.3305134855967477  0.6881270348573281  0.5408173525461573
  0.1610134673711140  0.6872610188610269  0.5425047782714362
  0.9975016463079783  0.7492677629185162  0.1946013192802696
  0.3276452579826538  0.8081567383006742  0.2012242712584725
  0.1685743226545002  0.8080788282981821  0.2012857417120557
  0.2479789962192684  0.8741492298290159  0.2799870655725116
  0.0807412644235557  0.8117807968324817  0.2828019040125935
  0.4151356726698196  0.8118075902691958  0.2828012822841717
  0.9981973529350299  0.8741382895735058  0.3685804074847537
  0.3304803247978219  0.8115930256741668  0.3678149295585786
  0.1655129103549035  0.8115587328183229  0.3677937561597583
  0.2480758803756800  0.8741467759625227  0.4551288012868017
  0.0819743328349808  0.8117107043602657  0.4538394421936697
  0.4141505464812985  0.8118587915940405  0.4538499225746673
  0.9982948076634993  0.8741129908864007  0.5402030683929456
  0.3317622625280134  0.8132843596481708  0.5419142791361770
  0.1627073696483591  0.8118570204474587  0.5419802236722415
  0.0000862035364494  0.8744589979061864  0.1949679401963173
  0.3277748964603943  0.9401030014680586  0.2012937368614240
  0.1683399953812057  0.9400706334299782  0.2013484730237491
  0.2476232989160454  0.4989433457792676  0.2804974905012509
  0.0807935761696894  0.9364753653733838  0.2828595391290407
  0.4150966899072784  0.9364992267480697  0.2828595042158182
  0.9981773864260050  0.4989091975918701  0.3689733118830781
  0.3304738991312898  0.9365715038174749  0.3678532483963489
  0.1655325563386664  0.9365438288294798  0.3678369582364426
  0.2472481844319564  0.4989327902775378  0.4544595114579008
  0.0818381217791440  0.9365819696091946  0.4538741273113685
  0.4142300469808629  0.9366736954903174  0.4538882034336993
  0.9986177734470255  0.4989176039817014  0.5405374755763241
  0.3333627871332170  0.9370614621842348  0.5422014623148252
  0.1630955623744083  0.9367436013014813  0.5420429732173890
  0.4993742561552757  0.9992254997961365  0.1949139968081515
  0.8277377321069338  0.0649781818620456  0.2014510001218004
  0.6680837471212160  0.0648875205256533  0.2014459558581299
  0.7479650682855904  0.1239652056113456  0.2805916423767085
  0.5804844582555305  0.0613638899280638  0.2828905862232928
  0.9153584697070168  0.0613794812774794  0.2828607287935462
  0.4979039808283230  0.1239476995286117  0.3687184690633183
  0.8304699382766193  0.0614745501812535  0.3678295799034763
  0.6653634221927336  0.0614795663981883  0.3678366144328366
  0.7479941488719091  0.1239091062561637  0.4552326217735594
  0.5817980139324295  0.0613713549550893  0.4539201197710369
  0.9141693440360440  0.0613651195194666  0.4539148039352138
  0.4976210298118319  0.1243735968199861  0.5401893524904633
  0.8328729608229852  0.0610199533265457  0.5420178330263963
  0.6629150595306013  0.0607583444439527  0.5421593253496024
  0.4961035766475972  0.1239855670051815  0.1949264346979485
  0.8277043588288832  0.1831635565633115  0.2015204088183876
  0.6680571399001685  0.1831619228903952  0.2014603275082117
  0.7478961583387184  0.2487864821870648  0.2802293665231263
  0.5804566810436250  0.1865512490704234  0.2829175412716428
  0.9152866757495604  0.1865891173689566  0.2829250265540598
  0.4978835325806474  0.2487780717648968  0.3688063686608700
  0.8305213031428137  0.1863902083318346  0.3679139609318091
  0.6653661054200055  0.1863891948047861  0.3679392471235498
  0.7477716569197967  0.2487611528701670  0.4550121526935705
  0.5819227000916904  0.1862134193037301  0.4540879233716867
  0.9138082161079136  0.1862003389132298  0.4541516210277367
  0.4973159252043790  0.2500391544786209  0.5400942045449550
  0.8345330632224321  0.1852024991574060  0.5423783607058592
  0.6629231414702407  0.1841376577855266  0.5422362786697639
  0.4993602734114460  0.2487950255503719  0.1949755334754488
  0.8275262377941984  0.3144206555907968  0.2014915519663821
  0.6681363229591761  0.3143454964488280  0.2014124742642937
  0.7480048139132226  0.3736761737506832  0.2804944420309965
  0.5804362578542634  0.3110775676056869  0.2828855478655093
  0.9152803581300946  0.3111024275989643  0.2829055685236364
  0.4979013892796632  0.3738133990553691  0.3686457934409758
  0.8306406960014850  0.3113459508720636  0.3679808381414875
  0.6652171514067655  0.3113392498698447  0.3679330925178501
  0.7482045347922965  0.3739557295953437  0.4547883961020175
  0.5817954927943306  0.3112397879201705  0.4539762786463969
  0.9138697339873737  0.3113002253172731  0.4542955787901533
  0.4972613536013679  0.3737084136426762  0.5392507760248794
  0.8347985740318634  0.3104935074961322  0.5416490677009430
  0.6632512039246726  0.3106627029039399  0.5402898830637783
  0.4959239963388631  0.3735860223244769  0.1950267862273963
  0.8276099767293977  0.4321904876525534  0.2010858614527323
  0.6683322750008481  0.4321985597993340  0.2010153172623772
  0.7479279658315396  0.9991563403055874  0.2801595160407097
  0.5806446664573733  0.4363190696051063  0.2828299558276559
  0.9151682837464012  0.4363410057307339  0.2829143911709138
  0.4979210580271898  0.9990431182222875  0.3686648516714721
  0.8309271952232881  0.4363837535843625  0.3678789222366502
  0.6653716178300527  0.4364052698524761  0.3676912054558853
  0.7480194337970040  0.9989887449584823  0.4551252050600527
  0.5815096392902052  0.4367018366781281  0.4534264556920551
  0.9143637398533534  0.4366137568098989  0.4542433243518883
  0.4980368964340681  0.9990564878114502  0.5403542517478496
  0.8340606956240418  0.4369481145039303  0.5402855888972039
  0.6654074540896568  0.4376406205950055  0.5389403794072795
  0.4986541389717332  0.4987896480668121  0.1946069814701603
  0.8321550490706805  0.5619487638776670  0.2024291505303301
  0.6639459388895061  0.5618624295946996  0.2023636521801369
  0.7480145114968795  0.6240416286011875  0.2774216021371250
  0.5805204056103627  0.5612784602374277  0.2828258224061912
  0.9154165510579502  0.5612857854335541  0.2828867822690294
  0.4978829553075850  0.6241756641827761  0.3685316114859130
  0.8307815420116120  0.5615714028337573  0.3674974227094808
  0.6657220879140744  0.5615922771254999  0.3673910415244220
  0.7487343467022983  0.6244083584923371  0.4544295426804325
  0.5816798899909402  0.5619483662239328  0.4532607301193136
  0.9147616356759376  0.5618522155336190  0.4537336659812219
  0.5001757802535159  0.6246705011833106  0.5393012480820557
  0.8352275069845142  0.5639390930536101  0.5414377479191282
  0.6671392137811799  0.5634832058316845  0.5397094520082786
  0.4954029562735169  0.6240224556712084  0.1949620112064819
  0.8321151841598680  0.6860443642082856  0.2023580795734432
  0.6638711691086577  0.6860901171027948  0.2023046596854761
  0.7479449233283240  0.7502181625854997  0.2783747470465235
  0.5805547682870322  0.6867753403843422  0.2828140583106405
  0.9154074355361402  0.6868061768233771  0.2828083263025164
  0.4979093765765733  0.7492567232439608  0.3685666959492293
  0.8305792251676796  0.6867068479950940  0.3673204417940619
  0.6655894816381316  0.6867342788221019  0.3674334100889810
  0.7482788872962296  0.7493600140517280  0.4547709176574671
  0.5817574023555995  0.6869268006834675  0.4535305976515323
  0.9147918496844641  0.6868668835600619  0.4534731351726397
  0.4981507779890554  0.7486411434703468  0.5395283400767795
  0.8351909959729816  0.6876784537873802  0.5414464503701332
  0.6673664632658080  0.6880984725667770  0.5401300178315430
  0.4986236668903988  0.7492135031541715  0.1945332181194268
  0.8276357261165399  0.8158506693114070  0.2009147552228381
  0.6683275139538871  0.8158087954463092  0.2008649418253912
  0.7479596358189905  0.8743107196041455  0.2803986465993366
  0.5807212698099661  0.8116704448412698  0.2827763705458484
  0.9152192436646016  0.8117019517982683  0.2827510174989719
  0.4978928218788588  0.8741225442287227  0.3685988991980549
  0.8305083894591425  0.8117360419687661  0.3675906488029392
  0.6655474243772341  0.8117200024985303  0.3676855912763100
  0.7482243573992529  0.8740965990471606  0.4550040446961751
  0.5818453031455550  0.8118515323431856  0.4537219721648130
  0.9144987276155206  0.8117951274726604  0.4534934601687604
  0.4979868931243187  0.8738021874069980  0.5401568671041478
  0.8338846773727731  0.8121043561906484  0.5416492891272957
  0.6640791784365014  0.8131806687872513  0.5418464185948544
  0.4959214715550547  0.8744631829637816  0.1949622333893622
  0.8276884834454740  0.9336503495475901  0.2013221061435766
  0.6682430761961214  0.9336750492164348  0.2012975497990380
  0.7480481586170027  0.4978969750767232  0.2785078942864679
  0.5805247048230165  0.9368454075534562  0.2827847094228661
  0.9153807215611799  0.9368952322989242  0.2827726272343737
  0.4978978026201481  0.4989385543761316  0.3685393822367984
  0.8305045078418400  0.9366373264242779  0.3677344228474417
  0.6654132136968904  0.9366092093131333  0.3677845941967251
  0.7490279194404090  0.4995221356523003  0.4542937277642866
  0.5818647410956517  0.9366165312923135  0.4538482593399752
  0.9143268406886779  0.9365842111718421  0.4537405138595537
  0.4992275709090931  0.4992388069136890  0.5387903115446505
  0.8332675152057354  0.9366605777851942  0.5419436880848630
  0.6628043880319685  0.9367359075587030  0.5420180055091952
  0.4046385842696250  0.9991313691172500  0.2312096348421027
  0.2480666667955190  0.9990826499353411  0.1761195012123271
  0.0913857788035687  0.9991104495431564  0.2312035561677934
  0.1508284648957142  0.1239518698104840  0.3155255080760199
  0.9978695663790450  0.1239716480171447  0.3016293233496218
  0.3449007133654100  0.1239877100796424  0.3155049027300343
  0.3992550493380952  0.1239826550508095  0.4017086813284990
  0.2479165195661896  0.1239248333956296  0.3871594200023525
  0.0965062433612197  0.1239210126335302  0.4016541214871543
  0.1494541811774520  0.1238140464263395  0.4873026275424039
  0.9978541601274187  0.1238848617964419  0.4723627953879102
  0.3465561964654365  0.1239356424715494  0.4874337999817727
  0.4009790417384266  0.1245031029646666  0.5702701426643400
  0.2481505047239008  0.1244448116358237  0.5573931628971934
  0.0948813856089663  0.1237421665325111  0.5699620500759048
  0.4032142194108737  0.1240064482382299  0.2308340626050944
  0.2479793939942224  0.1240269548339307  0.2098620306249735
  0.0927039417732208  0.1240148314005356  0.2308317415688989
  0.1504261688617069  0.2488621412822085  0.3158202243156127
  0.9979854441280054  0.2488816272940359  0.3017822839264223
  0.3451793424474948  0.2488845181846871  0.3157513730151513
  0.3991645643806873  0.2487510186016663  0.4016956294492565
  0.2478585287472337  0.2489112684199787  0.3871799914344856
  0.0963365540738777  0.2488877164512673  0.4017590986591809
  0.1489809069131729  0.2486442776861681  0.4872997695337911
  0.9974903721354844  0.2488514068002694  0.4724325549892301
  0.3464675844168786  0.2483116330350644  0.4876040587297130
  0.3996425787529787  0.2503300320054550  0.5715789485986871
  0.2466030037099004  0.2489760423975849  0.5575872925921278
  0.0939157116784409  0.2486378865281335  0.5701435822484173
  0.4046115135986020  0.2488964822031549  0.2312286423482497
  0.2480659032564408  0.2490149692450725  0.1762087447158539
  0.0912294512741699  0.2488618475960177  0.2313070061526987
  0.1506503413827442  0.3738561780782858  0.3155372671462842
  0.9977541096076996  0.3738158189346512  0.3017939854941201
  0.3447770614584095  0.3738457827855522  0.3154205494616683
  0.3990350793054060  0.3738163081965820  0.4013519371628128
  0.2476571235308561  0.3738971990305500  0.3868960598584616
  0.0964323112101619  0.3739367317990266  0.4018520530374498
  0.1487033519717217  0.3735724696684579  0.4873864980546109
  0.9974993010261766  0.3739465656712505  0.4729478190222691
  0.3458973919279070  0.3734742351105221  0.4865526678280160
  0.3967218044747829  0.3730847143906519  0.5682360158100154
  0.2457262799075327  0.3735557827705338  0.5572732264823221
  0.0927526934121845  0.3739252365786693  0.5700748192273922
  0.4031727859135208  0.3738441835691833  0.2308910453721111
  0.2479179631551297  0.3738282926794083  0.2100041435685423
  0.0927426295649874  0.3738300780411118  0.2309759602106342
  0.1505832278067271  0.9990513724523612  0.3157452999181609
  0.9981362367420443  0.9990586674657416  0.3015729759362323
  0.3452966688676589  0.9990657583817689  0.3157476111234798
  0.3993175964668516  0.9990547487845222  0.4017223319831766
  0.2479926549709114  0.9990223171009081  0.3872392226709644
  0.0966420689025196  0.9989995209121225  0.4016796265192237
  0.1495753686024685  0.9990112881267671  0.4872921430432890
  0.9979708352995290  0.9989667342176795  0.4722864064866275
  0.3467736822580697  0.9990963837795652  0.4874042586742431
  0.4011765180882524  0.9991651504829753  0.5701229397067071
  0.2482527289274950  0.9991019875796885  0.5574800119734604
  0.0951679636598653  0.9990214625928594  0.5698203951296799
  0.4044245879476865  0.4985822726848327  0.2311506552621502
  0.2480912908725542  0.4989160924442753  0.1760910415404452
  0.0914792484258168  0.4985680247584582  0.2313075203196081
  0.1506943115899475  0.6240236359473212  0.3153924779334239
  0.9977706970565960  0.6240308049887876  0.3017463789517382
  0.3449951073998206  0.6240549963886012  0.3153072386890187
  0.3990693837202118  0.6242234671150209  0.4014363157833258
  0.2478952232813322  0.6240692885864710  0.3867183929944886
  0.0971316074537505  0.6239387223639071  0.4018571915994702
  0.1503823323297209  0.6241997525559302  0.4882661644303196
  0.9984407045220640  0.6241569006429897  0.4719912239333913
  0.3456755531846252  0.6244224781786051  0.4872709738664817
  0.4003082638324921  0.6236882638359709  0.5677313007044099
  0.2480995685485515  0.6231986312071418  0.5622499724129210
  0.0942889413086575  0.6239740947395588  0.5706401092401676
  0.4027606266530953  0.6240237673002178  0.2308215080422866
  0.2480147585561812  0.6240206657403031  0.2096335484097581
  0.0932993433275299  0.6239775739132594  0.2308774897458211
  0.1505490767930988  0.7489988718250098  0.3156637471605609
  0.9979504382300879  0.7491530378176589  0.3015774832439085
  0.3453069088770055  0.7490226665076003  0.3156408430260211
  0.3992221077711399  0.7491568495295550  0.4016242195184231
  0.2480479867149474  0.7490384409581748  0.3871136039276738
  0.0968878610896800  0.7490340836273101  0.4016839152688997
  0.1496813676224998  0.7493051707991233  0.4874270644404100
  0.9982510963412062  0.7491725624699196  0.4718754144063902
  0.3467492975327188  0.7496344395539895  0.4877258066414275
  0.3999114272901936  0.7492921514793693  0.5711514408548349
  0.2474897851742180  0.7487613391567470  0.5579294734777163
  0.0948187336538845  0.7491099340042976  0.5700472531800339
  0.4044614504484552  0.7494360082897541  0.2311466541584005
  0.2481684262334085  0.7490820589150414  0.1760722398962424
  0.0916110414980462  0.7494207603597917  0.2312027058058361
  0.1509186790085188  0.8740872968197260  0.3154495519873257
  0.9979376082109543  0.8741374862537915  0.3014953574628962
  0.3450247267505836  0.8740825291655038  0.3154569684731314
  0.3992421218650737  0.8741180557053696  0.4015900853473121
  0.2480311315935440  0.8740492879531573  0.3870609904926774
  0.0968304160713327  0.8740824144715270  0.4015735924675235
  0.1496543002303711  0.8741830291351461  0.4872453018195019
  0.9981026293631048  0.8740865643585946  0.4721258629135198
  0.3466271326232905  0.8743259127462326  0.4873035964274287
  0.4009851133769407  0.8738723710821599  0.5700780551076075
  0.2481737267653058  0.8738350455067888  0.5573276873344783
  0.0951511275718352  0.8741861769135002  0.5698687668792036
  0.4031657813941860  0.8741740980940711  0.2308511545425700
  0.2480908674231055  0.8742033333377112  0.2099210872738589
  0.0928941212114375  0.8741520918416323  0.2308325232789368
  0.1503217638933034  0.4989875365475671  0.3157267970627021
  0.9978717745407339  0.4988886430641790  0.3018651914415881
  0.3451540099470067  0.4990180711749766  0.3155253154328370
  0.3990044021050649  0.4990092614568797  0.4013153555049029
  0.2477377935048748  0.4989525768852359  0.3866117228855041
  0.0968511224255036  0.4990363098124019  0.4019957623713356
  0.1500231400028674  0.4988214125152656  0.4882325243327066
  0.9981552109824066  0.4992282961327423  0.4724756978501612
  0.3454044533794838  0.4987470090452341  0.4866669250541233
  0.3997473169603443  0.4986710067403806  0.5673895680927002
  0.2478858116222896  0.4981869893821080  0.5618107666693604
  0.0939589833152559  0.4986058225002620  0.5707648770143552
  0.9035709808016473  0.9991991504049790  0.2308143014626642
  0.7479690002580621  0.9992764457960959  0.2102224461989480
  0.5923111238341794  0.9991707520902283  0.2308342366889018
  0.6505150148511447  0.1239885147521838  0.3157140781144254
  0.4978769514949205  0.1239877885384965  0.3016283127276078
  0.8453289125152298  0.1239707966660594  0.3157243005776586
  0.8991991046193947  0.1239059396689855  0.4017646386649075
  0.7479306865226526  0.1239122400642665  0.3871403647785847
  0.5965509044189305  0.1239569851442759  0.4017511886399389
  0.6495248613396978  0.1236175289849906  0.4874130901764325
  0.4979784780312583  0.1239277110520305  0.4723255405059367
  0.8463281594210241  0.1235589473247426  0.4874478856417441
  0.9010562298734490  0.1234049156366203  0.5700862806486742
  0.7477925267457229  0.1242455229732801  0.5578013528431377
  0.5947870167092746  0.1238318450565535  0.5701340893252621
  0.9049158038590157  0.1240179856053917  0.2311979132714698
  0.7478830355431686  0.1240580444241145  0.1767268236940277
  0.5909620227777589  0.1239948814629296  0.2311924107853360
  0.6507125947773155  0.2489312137305955  0.3155627804733279
  0.4976299289434957  0.2488823723901636  0.3017242151238509
  0.8450477344586745  0.2489673767006461  0.3156015136599041
  0.8989240498389729  0.2488903331465110  0.4018712014194988
  0.7478785623133332  0.2489561221974562  0.3870351253493059
  0.5966895635606491  0.2488264910331323  0.4017950788544545
  0.6495589251550224  0.2482920411335092  0.4881408290448272
  0.4979732822133795  0.2489456248015810  0.4723880031230531
  0.8456875108660714  0.2483498364139732  0.4878204983853397
  0.9009884275352437  0.2483430874116249  0.5707145409833032
  0.7479235518218643  0.2491387862450544  0.5609857206759381
  0.5955047958765002  0.2484091994881469  0.5717217706024924
  0.9035030968244443  0.2488525755975614  0.2309464110367092
  0.7478713437674084  0.2487769311947042  0.2102677977587851
  0.5922265123109044  0.2488335907308100  0.2309286146921538
  0.6505610137572244  0.3738499017761286  0.3156520892077820
  0.4978786385312207  0.3738506179393542  0.3016089051155201
  0.8453350999310321  0.3738400466708959  0.3157602211584930
  0.8991848698058593  0.3739291649830471  0.4018834086918880
  0.7480031804616657  0.3739957721828426  0.3869986165087919
  0.5966194051034002  0.3739355479268228  0.4015302506988522
  0.6493119240377783  0.3740392381049557  0.4871067492856943
  0.4978185386635449  0.3741704963872840  0.4717668778499066
  0.8465386644782115  0.3738519807179000  0.4876280631738778
  0.8981179488496538  0.3741518542823679  0.5729773409059692
  0.7486455823464635  0.3748888079516387  0.5571552575353093
  0.5963839914507808  0.3759834028782395  0.5705176188344901
  0.9048814648008340  0.3736213977036354  0.2311344270364899
  0.7479055556502121  0.3730105807383027  0.1758174354076661
  0.5909718716569747  0.3736214169345864  0.2310856534610781
  0.6507067580385700  0.9990254322806894  0.3154427489985285
  0.4976995599003718  0.9990629831621697  0.3015928152265784
  0.8451626793186738  0.9990473912575972  0.3154334753347121
  0.8992960355807114  0.9990395714647242  0.4015792635496597
  0.7479731896776157  0.9990240398596359  0.3870413806958209
  0.5966228871946679  0.9990321506918231  0.4016262765612528
  0.6494626146051730  0.9989613225089780  0.4872920960638130
  0.4980424647551345  0.9990150717931541  0.4723250441855782
  0.8464857935396343  0.9988601026161671  0.4872325219978743
  0.9010502184830755  0.9989269302562317  0.5697890122459285
  0.7479215987875319  0.9988504135769779  0.5574329472776649
  0.5949295278667869  0.9988658013299742  0.5700796452756296
  0.9045227905640786  0.4983048833006365  0.2311031294716472
  0.7480286295132876  0.4980278553515435  0.2056695402689753
  0.5914471218229969  0.4982974841582351  0.2310350940665621
  0.6524930551667105  0.6240904581429657  0.3148085207133099
  0.4980806405714570  0.6240104018901280  0.3015789594969021
  0.8435010374110152  0.6240708473701950  0.3148278087257432
  0.8994150802474616  0.6242251217119771  0.4012107303234939
  0.7481673277414654  0.6242175874400085  0.3864658117744260
  0.5968421144055113  0.6242155863276604  0.4010800499341945
  0.6498309412315705  0.6246641488938278  0.4868269037392190
  0.4979557129405615  0.6241431138834658  0.4717864627428955
  0.8472863524738053  0.6246787162965375  0.4868357957147631
  0.9016102423267494  0.6249083797911801  0.5701885803802366
  0.7501210275552153  0.6245427593730773  0.5566898123843710
  0.5998486856771458  0.6250519177663940  0.5706481558197988
  0.9062393944758075  0.6240274447222475  0.2307953554589650
  0.7480067290922188  0.6239733774537014  0.1967572733985418
  0.5898721019243448  0.6239788221999560  0.2307587481611685
  0.6518222733815078  0.7492341029876083  0.3150513191306403
  0.4979111493897926  0.7491372445814677  0.3015568383680062
  0.8440832113142029  0.7492549607692764  0.3150021311582762
  0.8993568532948608  0.7491369938922776  0.4011873157059124
  0.7480619387884017  0.7490246617086063  0.3866940348388714
  0.5967656497862006  0.7492226638147532  0.4013133430305490
  0.6494245660674939  0.7497235438659224  0.4872860504764994
  0.4979436275415268  0.7491339635145638  0.4719075514268938
  0.8469451315033431  0.7495584995197819  0.4868201494931385
  0.9018227177787523  0.7497840602165793  0.5697448699637004
  0.7491165591315945  0.7490625710405431  0.5571905493797343
  0.5963595008333439  0.7490673219457354  0.5709237394791009
  0.9045274502183592  0.7497312485466635  0.2309376568964935
  0.7480124140142089  0.7499780226968163  0.2054075387687134
  0.5914953348139177  0.7497078626840087  0.2309526461583188
  0.6504847150218092  0.8741536756784944  0.3155579531004153
  0.4979487463005492  0.8741326473378559  0.3015123127717587
  0.8454525620869533  0.8742017633573332  0.3154932418588893
  0.8993943301766543  0.8741324288089150  0.4014244764309487
  0.7480295722161037  0.8740975593489810  0.3869507583826873
  0.5966174509939618  0.8740987860910184  0.4015356127021174
  0.6495921251056469  0.8741660673735623  0.4871575971198767
  0.4979995980743954  0.8740691119060489  0.4721860730611589
  0.8467316641740561  0.8741685711766939  0.4870588951983065
  0.9012630393158210  0.8743012713095374  0.5696891102111906
  0.7480212558257795  0.8736546264617520  0.5571109512825924
  0.5950881607095533  0.8737707147175534  0.5699422908861764
  0.9049458494766526  0.8743968431866052  0.2309453652465520
  0.7479842164644427  0.8750546136664370  0.1756658378837390
  0.5910896805450445  0.8743654278192788  0.2309558879467033
  0.6519262353152679  0.4988251732754697  0.3150816614287043
  0.4978725850956607  0.4988903856282097  0.3015882803726154
  0.8441378734089544  0.4988273957510687  0.3152037929944480
  0.8992268463644063  0.4991264249629677  0.4015942819537761
  0.7482117036230655  0.4991201143963564  0.3865090318916056
  0.5968202687395263  0.4992541175563477  0.4010991240791896
  0.6503192577273248  0.4999577680200689  0.4864543967230342
  0.4978864363088569  0.4992569240880541  0.4713342621577384
  0.8470593856694778  0.5001135926131475  0.4879368607064221
  0.9022953349558500  0.5008562408888683  0.5728160604975230
  0.7485667886758023  0.5002646817701858  0.5593091481324549
  0.5987278026947547  0.5000468716666483  0.5684800942129656
  0.4416611012768014  0.4923957063045550  0.6268665384266292
  0.5190473420060664  0.4489668328923051  0.6970900188018823
  0.5010188140655544  0.5517755525644459  0.6861945131671592
  0.5879469030191082  0.3519839450165593  0.6918124256848056
  0.6607370235633032  0.3779864430187310  0.6231346263317916
  0.3566244765432340  0.5518024211905345  0.6831668358913059