Ta  N Ru                                
   1.00000000000000     
    11.9754398999999996    0.0000000000000000    0.0000000000000000
    -1.7175315499999999   11.8516346499999994    0.0000000000000000
     0.0000000000000000    0.0000000000000000   22.7106327899999982
   Ta   N    Ru
    72    72     2
Selective dynamics
Direct
  0.9955339587019623  0.9955339540487174  0.2712224588739929   F   F   F
  0.2699333485827822  0.1030132974397020  0.3100259080635226   F   F   F
  0.1030132717436416  0.2699333822854797  0.3100259080635226   F   F   F
  0.3596205863249367  0.3596206399952564  0.3447007771003783   F   F   F
  0.1253409742651783  0.4593656738838163  0.3919418349552828   F   F   F
  0.4593656603424634  0.1253409739335112  0.3919418349552828   F   F   F
  0.2214301602999289  0.2211590845474825  0.4357825148039701   T   T   T
  0.4866758615384055  0.3197838767939963  0.4782368617108042   T   T   T
  0.3200747553685557  0.4861791191212054  0.4784077068149366   T   T   T
  0.0844847346784101  0.0838597446198798  0.5208208396436682   T   T   T
  0.3480079262400538  0.1810059421151533  0.5640121147114940   T   T   T
  0.1819723979572300  0.3471820039813143  0.5644631999029772   T   T   T
  0.4463186014025499  0.4450099285072088  0.6063615224959511   T   T   T
  0.2076142014698022  0.0404830192597856  0.6492308124645779   T   T   T
  0.0417415695611404  0.2067281161052217  0.6494550895162795   T   T   T
  0.3128123927542156  0.3060073379142455  0.6973988191839404   T   T   T
  0.0654215215911254  0.3970191101769507  0.7342622501748156   T   T   T
  0.3998514623328060  0.0694407950550653  0.7299122890713735   T   T   T
  0.9955339590589745  0.4955339536268326  0.2712224588739929   F   F   F
  0.2699333482257629  0.6030132978615868  0.3100259080635226   F   F   F
  0.1030132722216663  0.7699333827073573  0.3100259080635226   F   F   F
  0.3596205866819489  0.8596206395733716  0.3447007771003783   F   F   F
  0.1253409746221976  0.9593656734619316  0.3919418349552828   F   F   F
  0.4593656608204952  0.6253409743553888  0.3919418349552828   F   F   F
  0.2214461065121003  0.7208500142053512  0.4358601939882603   T   T   T
  0.4865025914047689  0.8197260394012780  0.4785219374020431   T   T   T
  0.3203410638888023  0.9858885787773377  0.4783306354607162   T   T   T
  0.0848148342400863  0.5837178674736467  0.5211031065724396   T   T   T
  0.3470203691829512  0.6806398476651458  0.5646451498216755   T   T   T
  0.1815214695828893  0.8458928331292092  0.5642191304743031   T   T   T
  0.4440281929436016  0.9433102592958647  0.6079801999630599   T   T   T
  0.2064428681923828  0.5405614931639321  0.6511835308633880   T   T   T
  0.0431502088109882  0.7062905323811624  0.6511759755969152   T   T   T
  0.3143802167308125  0.8110822714881315  0.6946052004220612   T   T   T
  0.0669055145511241  0.9040858285862378  0.7295550253772256   T   T   T
  0.4078411176756759  0.5687903625161407  0.7298657585195051   T   T   T
  0.4955339587019623  0.9955339540487174  0.2712224588739929   F   F   F
  0.7699333485827822  0.1030132974397020  0.3100259080635226   F   F   F
  0.6030132717436416  0.2699333822854797  0.3100259080635226   F   F   F
  0.8596205863249367  0.3596206399952564  0.3447007771003783   F   F   F
  0.6253409742651783  0.4593656738838163  0.3919418349552828   F   F   F
  0.9593656603424634  0.1253409739335112  0.3919418349552828   F   F   F
  0.7214456453494759  0.2212583740328347  0.4356938265387080   T   T   T
  0.9866892551935006  0.3200335519175785  0.4783335058631054   T   T   T
  0.8203104708566563  0.4864064717022956  0.4783127863477795   T   T   T
  0.5844554577122434  0.0840736809096281  0.5208662550080448   T   T   T
  0.8470920939037875  0.1810436559793131  0.5639789384298322   T   T   T
  0.6820100444971192  0.3471008742163244  0.5639896920463308   T   T   T
  0.9438570004944096  0.4430533451793362  0.6078010141286692   T   T   T
  0.7078998462000717  0.0422999627184380  0.6506664935448410   T   T   T
  0.5434088815834107  0.2073192211284407  0.6501645154673960   T   T   T
  0.8108339702342141  0.3148549429579008  0.6935826073352587   T   T   T
  0.5675100470860641  0.4045023691278437  0.7281319863361891   T   T   T
  0.9042893365858767  0.0644515152579209  0.7295059051956680   T   T   T
  0.4955339590589745  0.4955339536268326  0.2712224588739929   F   F   F
  0.7699333482257629  0.6030132978615868  0.3100259080635226   F   F   F
  0.6030132722216663  0.7699333827073573  0.3100259080635226   F   F   F
  0.8596205866819489  0.8596206395733716  0.3447007771003783   F   F   F
  0.6253409746221976  0.9593656734619316  0.3919418349552828   F   F   F
  0.9593656608204952  0.6253409743553888  0.3919418349552828   F   F   F
  0.7214825539319017  0.7212764255142740  0.4357573041248282   T   T   T
  0.9868252395108804  0.8198343148503832  0.4785151269239751   T   T   T
  0.8202333305478663  0.9864068650518963  0.4784224722052735   T   T   T
  0.5844334030441298  0.5841721057392291  0.5209972639991144   T   T   T
  0.8473201162737186  0.6810690753636185  0.5641543122788167   T   T   T
  0.6814737634095288  0.8467455864101341  0.5640946315699039   T   T   T
  0.9439847630652681  0.9431049972892327  0.6073211232765865   T   T   T
  0.7085295999982498  0.5433212015458974  0.6504647166919840   T   T   T
  0.5433444297292295  0.7077168884998486  0.6505782045082085   T   T   T
  0.8137491534769852  0.8126463869533291  0.6948754002538561   T   T   T
  0.5662674957687647  0.9062667028294085  0.7287699890529720   T   T   T
  0.9048622719311106  0.5658760404161048  0.7290254065488079   T   T   T
  0.4506180773709048  0.1400782132052782  0.2976725581183857   F   F   F
  0.2642075833142314  0.2642075209653356  0.2836189927733201   F   F   F
  0.1400781798198807  0.4506180903161052  0.2976725581183857   F   F   F
  0.3074132852265237  0.9999309000767909  0.3839488749030693   F   F   F
  0.1352939988863540  0.1352940283866033  0.3689431455789318   F   F   F
  0.9999308780646601  0.3074132624267207  0.3839488749030693   F   F   F
  0.1683523251999964  0.3641002235436976  0.4692506770094615   T   T   T
  0.4969958032035364  0.4968420635530933  0.4537656188517560   T   T   T
  0.3643651348555376  0.1679916892317436  0.4691152544560095   T   T   T
  0.0294214446898399  0.2248669464358876  0.5546740461199535   T   T   T
  0.3579502234732039  0.3571751683169815  0.5398158099277173   T   T   T
  0.2255141059016487  0.0285062628413299  0.5545388045127156   T   T   T
  0.3889640822549541  0.0866188591656672  0.6403802769079170   T   T   T
  0.2217944121706718  0.2201821086883311  0.6260913100389837   T   T   T
  0.0868573281018282  0.3874805409225249  0.6407677979383748   T   T   T
  0.2578956666395650  0.4533788970740898  0.7255895120282220   T   T   T
  0.0774440346119417  0.0767176914859082  0.7059400833727431   T   T   T
  0.4574229275018426  0.2516460945907587  0.7293123183889881   T   T   T
  0.4506180777279170  0.6400782127833935  0.2976725581183857   F   F   F
  0.2642075828362067  0.7642075205434509  0.2836189927733201   F   F   F
  0.1400781801769000  0.9506180898942276  0.2976725581183857   F   F   F
  0.3074132857045484  0.4999309004986756  0.3839488749030693   F   F   F
  0.1352939993643858  0.6352940288084810  0.3689431455789318   F   F   F
  0.9999308775866353  0.8074132620048431  0.3839488749030693   F   F   F
  0.1683137433899440  0.8636799473262988  0.4692498040714573   T   T   T
  0.4969941062863383  0.9967429269813987  0.4537678599242157   T   T   T
  0.3643306600179529  0.6678419932741476  0.4695049937421734   T   T   T
  0.0296352939646130  0.7242931737632229  0.5552961063668000   T   T   T
  0.3572364891406219  0.8565283086019143  0.5400384107196377   T   T   T
  0.2254497891631426  0.5291485921745398  0.5552185531259534   T   T   T
  0.3899820201102419  0.5862902742299523  0.6398095976176027   T   T   T
  0.2212962846854032  0.7200983408985121  0.6283207855411523   T   T   T
  0.0871310646667307  0.8885149574918462  0.6395611249897221   T   T   T
  0.2510446890956942  0.9477314534549292  0.7276214040991970   T   T   T
  0.0737409364319740  0.5717692358645975  0.7101816963916953   T   T   T
  0.4536641852104398  0.7516534105489331  0.7301744523116891   T   T   T
  0.9506180773709048  0.1400782132052782  0.2976725581183857   F   F   F
  0.7642075824791874  0.2642075209653356  0.2836189927733201   F   F   F
  0.6400781798198807  0.4506180903161052  0.2976725581183857   F   F   F
  0.8074132852265237  0.9999309000767909  0.3839488749030693   F   F   F
  0.6352939988863540  0.1352940283866033  0.3689431455789318   F   F   F
  0.4999308780646601  0.3074132624267207  0.3839488749030693   F   F   F
  0.6683834467231197  0.3642000410618736  0.4691647498360002   T   T   T
  0.9971188808018399  0.4969104838541825  0.4538303625835853   T   T   T
  0.8642727762310055  0.1680461953967653  0.4691736003198999   T   T   T
  0.5302166093742667  0.2250434955247904  0.5545886033885276   T   T   T
  0.8575598056064555  0.3570435270975706  0.5396825501616335   T   T   T
  0.7251323473268683  0.0290433086386510  0.5550374928362574   T   T   T
  0.8899022879088123  0.0864482457293332  0.6394480076857346   T   T   T
  0.7209699572263356  0.2204012031659377  0.6276643550855769   T   T   T
  0.5885870015782753  0.3901618239114787  0.6390508622922504   T   T   T
  0.7499151402924298  0.4521877769984798  0.7299985640625601   T   T   T
  0.5745012822563447  0.0754520973898704  0.7093195065826549   T   T   T
  0.9446767240681114  0.2485907339552165  0.7270297830549348   T   T   T
  0.9506180777279170  0.6400782127833935  0.2976725581183857   F   F   F
  0.7642075828362067  0.7642075205434509  0.2836189927733201   F   F   F
  0.6400781801769000  0.9506180898942276  0.2976725581183857   F   F   F
  0.8074132857045484  0.4999309004986756  0.3839488749030693   F   F   F
  0.6352939993643858  0.6352940288084810  0.3689431455789318   F   F   F
  0.4999308775866353  0.8074132620048431  0.3839488749030693   F   F   F
  0.6682750330717959  0.8641546293617864  0.4692231389950848   T   T   T
  0.9969539586676037  0.9967219451254381  0.4537672791760156   T   T   T
  0.8644599025374505  0.6681299457666531  0.4692503809940493   T   T   T
  0.5295185364788300  0.7247369804892186  0.5552182470506896   T   T   T
  0.8569154846759163  0.8565000980920262  0.5397134078163041   T   T   T
  0.7254460742488824  0.5293847149665862  0.5549262413178634   T   T   T
  0.8902102790542711  0.5871005474470384  0.6395417164488331   T   T   T
  0.7222018285754586  0.7217974716074534  0.6281306431299117   T   T   T
  0.5878303739833082  0.8895249029841442  0.6397251303354953   T   T   T
  0.7513062507153357  0.9510881685415421  0.7301220398340602   T   T   T
  0.5775245967502873  0.5770393451083697  0.7093555190201047   T   T   T
  0.9516745360017470  0.7510431495502734  0.7297764493065171   T   T   T
  0.1670501368157820  0.1880435294256290  0.7611667256692057   T   T   T
  0.2249868851408514  0.3753578117656866  0.8027999939104278   T   T   T
 
  0.00000000E+00  0.00000000E+00  0.00000000E+00
  0.00000000E+00  0.00000000E+00  0.00000000E+00
  0.00000000E+00  0.00000000E+00  0.00000000E+00
  0.00000000E+00  0.00000000E+00  0.00000000E+00
  0.00000000E+00  0.00000000E+00  0.00000000E+00
  0.00000000E+00  0.00000000E+00  0.00000000E+00
  0.00000000E+00  0.00000000E+00  0.00000000E+00
  0.00000000E+00  0.00000000E+00  0.00000000E+00
  0.00000000E+00  0.00000000E+00  0.00000000E+00
  0.00000000E+00  0.00000000E+00  0.00000000E+00
  0.00000000E+00  0.00000000E+00  0.00000000E+00
  0.00000000E+00  0.00000000E+00  0.00000000E+00
  0.00000000E+00  0.00000000E+00  0.00000000E+00
  0.00000000E+00  0.00000000E+00  0.00000000E+00
  0.00000000E+00  0.00000000E+00  0.00000000E+00
  0.00000000E+00  0.00000000E+00  0.00000000E+00
  0.00000000E+00  0.00000000E+00  0.00000000E+00
  0.00000000E+00  0.00000000E+00  0.00000000E+00
  0.00000000E+00  0.00000000E+00  0.00000000E+00
  0.00000000E+00  0.00000000E+00  0.00000000E+00
  0.00000000E+00  0.00000000E+00  0.00000000E+00
  0.00000000E+00  0.00000000E+00  0.00000000E+00
  0.00000000E+00  0.00000000E+00  0.00000000E+00
  0.00000000E+00  0.00000000E+00  0.00000000E+00
  0.00000000E+00  0.00000000E+00  0.00000000E+00
  0.00000000E+00  0.00000000E+00  0.00000000E+00
  0.00000000E+00  0.00000000E+00  0.00000000E+00
  0.00000000E+00  0.00000000E+00  0.00000000E+00
  0.00000000E+00  0.00000000E+00  0.00000000E+00
  0.00000000E+00  0.00000000E+00  0.00000000E+00
  0.00000000E+00  0.00000000E+00  0.00000000E+00
  0.00000000E+00  0.00000000E+00  0.00000000E+00
  0.00000000E+00  0.00000000E+00  0.00000000E+00
  0.00000000E+00  0.00000000E+00  0.00000000E+00
  0.00000000E+00  0.00000000E+00  0.00000000E+00
  0.00000000E+00  0.00000000E+00  0.00000000E+00
  0.00000000E+00  0.00000000E+00  0.00000000E+00
  0.00000000E+00  0.00000000E+00  0.00000000E+00
  0.00000000E+00  0.00000000E+00  0.00000000E+00
  0.00000000E+00  0.00000000E+00  0.00000000E+00
  0.00000000E+00  0.00000000E+00  0.00000000E+00
  0.00000000E+00  0.00000000E+00  0.00000000E+00
  0.00000000E+00  0.00000000E+00  0.00000000E+00
  0.00000000E+00  0.00000000E+00  0.00000000E+00
  0.00000000E+00  0.00000000E+00  0.00000000E+00
  0.00000000E+00  0.00000000E+00  0.00000000E+00
  0.00000000E+00  0.00000000E+00  0.00000000E+00
  0.00000000E+00  0.00000000E+00  0.00000000E+00
  0.00000000E+00  0.00000000E+00  0.00000000E+00
  0.00000000E+00  0.00000000E+00  0.00000000E+00
  0.00000000E+00  0.00000000E+00  0.00000000E+00
  0.00000000E+00  0.00000000E+00  0.00000000E+00
  0.00000000E+00  0.00000000E+00  0.00000000E+00
  0.00000000E+00  0.00000000E+00  0.00000000E+00
  0.00000000E+00  0.00000000E+00  0.00000000E+00
  0.00000000E+00  0.00000000E+00  0.00000000E+00
  0.00000000E+00  0.00000000E+00  0.00000000E+00
  0.00000000E+00  0.00000000E+00  0.00000000E+00
  0.00000000E+00  0.00000000E+00  0.00000000E+00
  0.00000000E+00  0.00000000E+00  0.00000000E+00
  0.00000000E+00  0.00000000E+00  0.00000000E+00
  0.00000000E+00  0.00000000E+00  0.00000000E+00
  0.00000000E+00  0.00000000E+00  0.00000000E+00
  0.00000000E+00  0.00000000E+00  0.00000000E+00
  0.00000000E+00  0.00000000E+00  0.00000000E+00
  0.00000000E+00  0.00000000E+00  0.00000000E+00
  0.00000000E+00  0.00000000E+00  0.00000000E+00
  0.00000000E+00  0.00000000E+00  0.00000000E+00
  0.00000000E+00  0.00000000E+00  0.00000000E+00
  0.00000000E+00  0.00000000E+00  0.00000000E+00
  0.00000000E+00  0.00000000E+00  0.00000000E+00
  0.00000000E+00  0.00000000E+00  0.00000000E+00
  0.00000000E+00  0.00000000E+00  0.00000000E+00
  0.00000000E+00  0.00000000E+00  0.00000000E+00
  0.00000000E+00  0.00000000E+00  0.00000000E+00
  0.00000000E+00  0.00000000E+00  0.00000000E+00
  0.00000000E+00  0.00000000E+00  0.00000000E+00
  0.00000000E+00  0.00000000E+00  0.00000000E+00
  0.00000000E+00  0.00000000E+00  0.00000000E+00
  0.00000000E+00  0.00000000E+00  0.00000000E+00
  0.00000000E+00  0.00000000E+00  0.00000000E+00
  0.00000000E+00  0.00000000E+00  0.00000000E+00
  0.00000000E+00  0.00000000E+00  0.00000000E+00
  0.00000000E+00  0.00000000E+00  0.00000000E+00
  0.00000000E+00  0.00000000E+00  0.00000000E+00
  0.00000000E+00  0.00000000E+00  0.00000000E+00
  0.00000000E+00  0.00000000E+00  0.00000000E+00
  0.00000000E+00  0.00000000E+00  0.00000000E+00
  0.00000000E+00  0.00000000E+00  0.00000000E+00
  0.00000000E+00  0.00000000E+00  0.00000000E+00
  0.00000000E+00  0.00000000E+00  0.00000000E+00
  0.00000000E+00  0.00000000E+00  0.00000000E+00
  0.00000000E+00  0.00000000E+00  0.00000000E+00
  0.00000000E+00  0.00000000E+00  0.00000000E+00
  0.00000000E+00  0.00000000E+00  0.00000000E+00
  0.00000000E+00  0.00000000E+00  0.00000000E+00
  0.00000000E+00  0.00000000E+00  0.00000000E+00
  0.00000000E+00  0.00000000E+00  0.00000000E+00
  0.00000000E+00  0.00000000E+00  0.00000000E+00
  0.00000000E+00  0.00000000E+00  0.00000000E+00
  0.00000000E+00  0.00000000E+00  0.00000000E+00
  0.00000000E+00  0.00000000E+00  0.00000000E+00
  0.00000000E+00  0.00000000E+00  0.00000000E+00
  0.00000000E+00  0.00000000E+00  0.00000000E+00
  0.00000000E+00  0.00000000E+00  0.00000000E+00
  0.00000000E+00  0.00000000E+00  0.00000000E+00
  0.00000000E+00  0.00000000E+00  0.00000000E+00
  0.00000000E+00  0.00000000E+00  0.00000000E+00
  0.00000000E+00  0.00000000E+00  0.00000000E+00
  0.00000000E+00  0.00000000E+00  0.00000000E+00
  0.00000000E+00  0.00000000E+00  0.00000000E+00
  0.00000000E+00  0.00000000E+00  0.00000000E+00
  0.00000000E+00  0.00000000E+00  0.00000000E+00
  0.00000000E+00  0.00000000E+00  0.00000000E+00
  0.00000000E+00  0.00000000E+00  0.00000000E+00
  0.00000000E+00  0.00000000E+00  0.00000000E+00
  0.00000000E+00  0.00000000E+00  0.00000000E+00
  0.00000000E+00  0.00000000E+00  0.00000000E+00
  0.00000000E+00  0.00000000E+00  0.00000000E+00
  0.00000000E+00  0.00000000E+00  0.00000000E+00
  0.00000000E+00  0.00000000E+00  0.00000000E+00
  0.00000000E+00  0.00000000E+00  0.00000000E+00
  0.00000000E+00  0.00000000E+00  0.00000000E+00
  0.00000000E+00  0.00000000E+00  0.00000000E+00
  0.00000000E+00  0.00000000E+00  0.00000000E+00
  0.00000000E+00  0.00000000E+00  0.00000000E+00
  0.00000000E+00  0.00000000E+00  0.00000000E+00
  0.00000000E+00  0.00000000E+00  0.00000000E+00
  0.00000000E+00  0.00000000E+00  0.00000000E+00
  0.00000000E+00  0.00000000E+00  0.00000000E+00
  0.00000000E+00  0.00000000E+00  0.00000000E+00
  0.00000000E+00  0.00000000E+00  0.00000000E+00
  0.00000000E+00  0.00000000E+00  0.00000000E+00
  0.00000000E+00  0.00000000E+00  0.00000000E+00
  0.00000000E+00  0.00000000E+00  0.00000000E+00
  0.00000000E+00  0.00000000E+00  0.00000000E+00
  0.00000000E+00  0.00000000E+00  0.00000000E+00
  0.00000000E+00  0.00000000E+00  0.00000000E+00
  0.00000000E+00  0.00000000E+00  0.00000000E+00
  0.00000000E+00  0.00000000E+00  0.00000000E+00
  0.00000000E+00  0.00000000E+00  0.00000000E+00
  0.00000000E+00  0.00000000E+00  0.00000000E+00
  0.00000000E+00  0.00000000E+00  0.00000000E+00
  0.00000000E+00  0.00000000E+00  0.00000000E+00
  0.00000000E+00  0.00000000E+00  0.00000000E+00
  0.00000000E+00  0.00000000E+00  0.00000000E+00
