generated by phonopy                    
   1.00000000000000     
     5.3579079521186417   -0.0000000296718080    0.0000000000000000
    -2.6789546196585268    4.6400840261348550    0.0000000000000000
     0.0000000000000000    0.0000000000000000   25.0000000000000000
   B    N    Al
     3     4     1
Direct
 -0.0037308501251949  0.0037308501251938  0.0062484135097695
 -0.0037308501452074  0.4925382997295988  0.0062484135097695
  0.5074617002704023  0.0037308501452074  0.0062484135097695
  0.1315370505865141  0.3157685248179045  0.0062511614466500
  0.6842314752313940  0.3157685247686035  0.0062511614466500
  0.1666666670000012  0.8333333329999988  0.0062431076433863
  0.6842314751820957  0.8684629494134884  0.0062511614466500
  0.5000000000000000  0.5000000000000000  0.0062581674873525
 
  0.00000000E+00  0.00000000E+00  0.00000000E+00
  0.00000000E+00  0.00000000E+00  0.00000000E+00
  0.00000000E+00  0.00000000E+00  0.00000000E+00
  0.00000000E+00  0.00000000E+00  0.00000000E+00
  0.00000000E+00  0.00000000E+00  0.00000000E+00
  0.00000000E+00  0.00000000E+00  0.00000000E+00
  0.00000000E+00  0.00000000E+00  0.00000000E+00
  0.00000000E+00  0.00000000E+00  0.00000000E+00
