Ta  N Ru                                
   1.00000000000000     
     9.0548154099999998    0.0000000000000000    0.0000000000000000
     0.0000000000000000   11.6775998899999998    0.0000000000000000
     0.0000000000000000    0.0000000000000000   23.4818170799999990
   Ta   N    Ru
    60    60     1
Selective dynamics
Direct
  0.0000000000000000  0.0000000000000000  0.2546926809530987   F   F   F
  0.6670845899906297  0.1250000003211298  0.2638822399803757   F   F   F
  0.3329153514769843  0.1250000003211298  0.2638822399803757   F   F   F
  0.4999999994478088  0.2499999997859135  0.3618861993156202   F   F   F
  0.1650707596845180  0.1250000003211298  0.3684425577811794   F   F   F
  0.8349292403154820  0.1250000003211298  0.3684425577811794   F   F   F
  0.0000661753224062  0.2496695991111091  0.4797925153641324   T   T   T
  0.6648585508639193  0.1249445374150440  0.4780299396270546   T   T   T
  0.3351703208992090  0.1249518188592900  0.4780343035755387   T   T   T
  0.5000423978338104  0.2492788876255064  0.5907614114557409   T   T   T
  0.1679370716325626  0.1248488117726018  0.5900310479729984   T   T   T
  0.8321697948257029  0.1248385680304325  0.5900000880679190   T   T   T
  0.0001846935093614  0.2498658336570764  0.7015974734655755   T   T   T
  0.6736277768281065  0.1229247897694906  0.7045926916685671   T   T   T
  0.3264645424098011  0.1229118247340825  0.7046305244936780   T   T   T
  0.0000000000000000  0.2499999997859135  0.2546926809530987   F   F   F
  0.6670845899906297  0.3750000001070433  0.2638822399803757   F   F   F
  0.3329153514769843  0.3750000001070433  0.2638822399803757   F   F   F
  0.4999999994478088  0.5000000004281731  0.3618861993156202   F   F   F
  0.1650707596845180  0.3750000001070433  0.3684425577811794   F   F   F
  0.8349292403154820  0.3750000001070433  0.3684425577811794   F   F   F
  0.0000671272016230  0.5003333855725899  0.4797932954442651   T   T   T
  0.6648361391435392  0.3750009621426731  0.4781299909980757   T   T   T
  0.3352103906662047  0.3750010547645788  0.4781340354864010   T   T   T
  0.5000420202527973  0.5007107123278428  0.5907626467559575   T   T   T
  0.1677786807861924  0.3749944718940018  0.5895423121127360   T   T   T
  0.8324161494741326  0.3749956673662904  0.5894846311030372   T   T   T
  0.0001973499789418  0.5000888228981629  0.7015982591772734   T   T   T
  0.6798397008066186  0.3749789660537934  0.7049198459492476   T   T   T
  0.3205602180263984  0.3749697779561502  0.7050581591418106   T   T   T
  0.0000000000000000  0.5000000004281731  0.2546926809530987   F   F   F
  0.6670845899906297  0.6249999998929567  0.2638822399803757   F   F   F
  0.3329153514769843  0.6249999998929567  0.2638822399803757   F   F   F
  0.4999999994478088  0.7500000002140865  0.3618861993156202   F   F   F
  0.1650707596845180  0.6249999998929567  0.3684425577811794   F   F   F
  0.8349292403154820  0.6249999998929567  0.3684425577811794   F   F   F
  0.0000355353212329  0.7498072270205604  0.4797716849556088   T   T   T
  0.6648596749006201  0.6250528090534935  0.4780282999634469   T   T   T
  0.3351706215837957  0.6250491710610094  0.4780353086917958   T   T   T
  0.5000220163953958  0.7490951577697365  0.5907538238122568   T   T   T
  0.1679405688569662  0.6251383186126694  0.5900355040222037   T   T   T
  0.8321675519443568  0.6251610577019640  0.5900019422729765   T   T   T
  0.0000339025525626  0.7502471366454293  0.7018157883550180   T   T   T
  0.6736368687599859  0.6270049816484468  0.7046089925584135   T   T   T
  0.3264607377347517  0.6270220356196874  0.7046440380996057   T   T   T
  0.0000000000000000  0.7500000002140865  0.2546926809530987   F   F   F
  0.6670845899906297  0.8750000005352163  0.2638822399803757   F   F   F
  0.3329153514769843  0.8750000005352163  0.2638822399803757   F   F   F
  0.4999999994478088  0.0000000000000000  0.3618861993156202   F   F   F
  0.1650707596845180  0.8750000005352163  0.3684425577811794   F   F   F
  0.8349292403154820  0.8750000005352163  0.3684425577811794   F   F   F
  0.0000353452547687  0.0001908197734897  0.4797707131641072   T   T   T
  0.6649197473754459  0.8749999938726613  0.4781300648727409   T   T   T
  0.3350919072107140  0.8749997301010651  0.4781378507935195   T   T   T
  0.5000193364953396  0.0008905037999685  0.5907514099938977   T   T   T
  0.1678946927642875  0.8749919480090298  0.5898562277042758   T   T   T
  0.8321766236215882  0.8749928317678137  0.5898388107334804   T   T   T
  0.0000330947382929  0.9997062091338099  0.7018166573808544   T   T   T
  0.6697438322966451  0.8749730406963837  0.7041044241419269   T   T   T
  0.3302911625345423  0.8749815748909104  0.7041122605077819   T   T   T
  0.8141011533980276  0.0000000000000000  0.3013105672926031   F   F   F
  0.4999999994478088  0.0000000000000000  0.2564174481620327   F   F   F
  0.1858988466019724  0.0000000000000000  0.3013105672926031   F   F   F
  0.3088456122590841  0.2499999997859135  0.4099867722441957   F   F   F
  0.0000000000000000  0.2499999997859135  0.3930971035158137   F   F   F
  0.6911543877409159  0.2499999997859135  0.4099867722441957   F   F   F
  0.8018873746212872  0.2496705033001716  0.5219218081888194   T   T   T
  0.5000256430801393  0.2497255452659724  0.5028557489465917   T   T   T
  0.1982253478407865  0.2496867057339557  0.5219541186977378   T   T   T
  0.3042405469647373  0.2493163251294525  0.6336623179127744   T   T   T
  0.0000710535637527  0.2498559066563023  0.6129001920517564   T   T   T
  0.6959258198351667  0.2492870308319398  0.6335890372248824   T   T   T
  0.8093064357690495  0.2462072226397740  0.7413743818258519   T   T   T
  0.5002232102054049  0.2535115795909317  0.7283195415053956   T   T   T
  0.1910008998559005  0.2462586536120240  0.7414698585623807   T   T   T
  0.8141011533980276  0.2499999997859135  0.3013105672926031   F   F   F
  0.4999999994478088  0.2499999997859135  0.2564174481620327   F   F   F
  0.1858988466019724  0.2499999997859135  0.3013105672926031   F   F   F
  0.3088456122590841  0.5000000004281731  0.4099867722441957   F   F   F
  0.0000000000000000  0.5000000004281731  0.3930971035158137   F   F   F
  0.6911543877409159  0.5000000004281731  0.4099867722441957   F   F   F
  0.8018858563445541  0.5003292048791320  0.5219231272624247   T   T   T
  0.5000258988744071  0.5002764626249703  0.5028562688026047   T   T   T
  0.1982273630754192  0.5003137868656158  0.5219559529671314   T   T   T
  0.3042526643280548  0.5006650323336228  0.6336704167284016   T   T   T
  0.0000708931431750  0.5001336633299106  0.6129016355646442   T   T   T
  0.6959163604115468  0.5006978755049060  0.6335967159656909   T   T   T
  0.8093182319374802  0.5037323510003371  0.7413794285327535   T   T   T
  0.5002283997740573  0.4963082608435517  0.7283804260880492   T   T   T
  0.1909973367479538  0.5036781204986447  0.7414748658237473   T   T   T
  0.8141011533980276  0.5000000004281731  0.3013105672926031   F   F   F
  0.4999999994478088  0.5000000004281731  0.2564174481620327   F   F   F
  0.1858988466019724  0.5000000004281731  0.3013105672926031   F   F   F
  0.3088456122590841  0.7500000002140865  0.4099867722441957   F   F   F
  0.0000000000000000  0.7500000002140865  0.3930971035158137   F   F   F
  0.6911543877409159  0.7500000002140865  0.4099867722441957   F   F   F
  0.8021034397170308  0.7499731092555736  0.5219917424564904   T   T   T
  0.5000115359623463  0.7499020129830180  0.5028541542910517   T   T   T
  0.1979467099009398  0.7499651725338331  0.5220080109632574   T   T   T
  0.3040436690164971  0.7503515599521335  0.6332439706489283   T   T   T
  0.0000297127364054  0.7498741882220148  0.6132995403723072   T   T   T
  0.6960157438312983  0.7503544693319846  0.6332228800523049   T   T   T
  0.8065814530551986  0.7510668209820435  0.7405266315188089   T   T   T
  0.5000268408136912  0.7494293760504578  0.7242795529250077   T   T   T
  0.1934551450443068  0.7510646359088944  0.7405440598054055   T   T   T
  0.8141011533980276  0.7500000002140865  0.3013105672926031   F   F   F
  0.4999999994478088  0.7500000002140865  0.2564174481620327   F   F   F
  0.1858988466019724  0.7500000002140865  0.3013105672926031   F   F   F
  0.3088456122590841  0.0000000000000000  0.4099867722441957   F   F   F
  0.0000000000000000  0.0000000000000000  0.3930971035158137   F   F   F
  0.6911543877409159  0.0000000000000000  0.4099867722441957   F   F   F
  0.8021054578568023  0.0000226789300804  0.5219908114864756   T   T   T
  0.5000113188906515  0.0000984614418041  0.5028531071222747   T   T   T
  0.1979462119842062  0.0000289248933600  0.5220064317634382   T   T   T
  0.3040403535103875  0.9996227187175347  0.6332391396230490   T   T   T
  0.0000292498607434  0.0001105002646400  0.6132988819749325   T   T   T
  0.6960189260534353  0.9996182003549735  0.6332180911506979   T   T   T
  0.8065753581360264  0.9988757874957102  0.7405263138304445   T   T   T
  0.5000245404224207  0.0005009445191673  0.7242697703521194   T   T   T
  0.1934507496961599  0.9988757046447675  0.7405413575393044   T   T   T
  0.5006691247557122  0.3748112137422667  0.7897757799798193   T   T   T
 
  0.00000000E+00  0.00000000E+00  0.00000000E+00
  0.00000000E+00  0.00000000E+00  0.00000000E+00
  0.00000000E+00  0.00000000E+00  0.00000000E+00
  0.00000000E+00  0.00000000E+00  0.00000000E+00
  0.00000000E+00  0.00000000E+00  0.00000000E+00
  0.00000000E+00  0.00000000E+00  0.00000000E+00
  0.00000000E+00  0.00000000E+00  0.00000000E+00
  0.00000000E+00  0.00000000E+00  0.00000000E+00
  0.00000000E+00  0.00000000E+00  0.00000000E+00
  0.00000000E+00  0.00000000E+00  0.00000000E+00
  0.00000000E+00  0.00000000E+00  0.00000000E+00
  0.00000000E+00  0.00000000E+00  0.00000000E+00
  0.00000000E+00  0.00000000E+00  0.00000000E+00
  0.00000000E+00  0.00000000E+00  0.00000000E+00
  0.00000000E+00  0.00000000E+00  0.00000000E+00
  0.00000000E+00  0.00000000E+00  0.00000000E+00
  0.00000000E+00  0.00000000E+00  0.00000000E+00
  0.00000000E+00  0.00000000E+00  0.00000000E+00
  0.00000000E+00  0.00000000E+00  0.00000000E+00
  0.00000000E+00  0.00000000E+00  0.00000000E+00
  0.00000000E+00  0.00000000E+00  0.00000000E+00
  0.00000000E+00  0.00000000E+00  0.00000000E+00
  0.00000000E+00  0.00000000E+00  0.00000000E+00
  0.00000000E+00  0.00000000E+00  0.00000000E+00
  0.00000000E+00  0.00000000E+00  0.00000000E+00
  0.00000000E+00  0.00000000E+00  0.00000000E+00
  0.00000000E+00  0.00000000E+00  0.00000000E+00
  0.00000000E+00  0.00000000E+00  0.00000000E+00
  0.00000000E+00  0.00000000E+00  0.00000000E+00
  0.00000000E+00  0.00000000E+00  0.00000000E+00
  0.00000000E+00  0.00000000E+00  0.00000000E+00
  0.00000000E+00  0.00000000E+00  0.00000000E+00
  0.00000000E+00  0.00000000E+00  0.00000000E+00
  0.00000000E+00  0.00000000E+00  0.00000000E+00
  0.00000000E+00  0.00000000E+00  0.00000000E+00
  0.00000000E+00  0.00000000E+00  0.00000000E+00
  0.00000000E+00  0.00000000E+00  0.00000000E+00
  0.00000000E+00  0.00000000E+00  0.00000000E+00
  0.00000000E+00  0.00000000E+00  0.00000000E+00
  0.00000000E+00  0.00000000E+00  0.00000000E+00
  0.00000000E+00  0.00000000E+00  0.00000000E+00
  0.00000000E+00  0.00000000E+00  0.00000000E+00
  0.00000000E+00  0.00000000E+00  0.00000000E+00
  0.00000000E+00  0.00000000E+00  0.00000000E+00
  0.00000000E+00  0.00000000E+00  0.00000000E+00
  0.00000000E+00  0.00000000E+00  0.00000000E+00
  0.00000000E+00  0.00000000E+00  0.00000000E+00
  0.00000000E+00  0.00000000E+00  0.00000000E+00
  0.00000000E+00  0.00000000E+00  0.00000000E+00
  0.00000000E+00  0.00000000E+00  0.00000000E+00
  0.00000000E+00  0.00000000E+00  0.00000000E+00
  0.00000000E+00  0.00000000E+00  0.00000000E+00
  0.00000000E+00  0.00000000E+00  0.00000000E+00
  0.00000000E+00  0.00000000E+00  0.00000000E+00
  0.00000000E+00  0.00000000E+00  0.00000000E+00
  0.00000000E+00  0.00000000E+00  0.00000000E+00
  0.00000000E+00  0.00000000E+00  0.00000000E+00
  0.00000000E+00  0.00000000E+00  0.00000000E+00
  0.00000000E+00  0.00000000E+00  0.00000000E+00
  0.00000000E+00  0.00000000E+00  0.00000000E+00
  0.00000000E+00  0.00000000E+00  0.00000000E+00
  0.00000000E+00  0.00000000E+00  0.00000000E+00
  0.00000000E+00  0.00000000E+00  0.00000000E+00
  0.00000000E+00  0.00000000E+00  0.00000000E+00
  0.00000000E+00  0.00000000E+00  0.00000000E+00
  0.00000000E+00  0.00000000E+00  0.00000000E+00
  0.00000000E+00  0.00000000E+00  0.00000000E+00
  0.00000000E+00  0.00000000E+00  0.00000000E+00
  0.00000000E+00  0.00000000E+00  0.00000000E+00
  0.00000000E+00  0.00000000E+00  0.00000000E+00
  0.00000000E+00  0.00000000E+00  0.00000000E+00
  0.00000000E+00  0.00000000E+00  0.00000000E+00
  0.00000000E+00  0.00000000E+00  0.00000000E+00
  0.00000000E+00  0.00000000E+00  0.00000000E+00
  0.00000000E+00  0.00000000E+00  0.00000000E+00
  0.00000000E+00  0.00000000E+00  0.00000000E+00
  0.00000000E+00  0.00000000E+00  0.00000000E+00
  0.00000000E+00  0.00000000E+00  0.00000000E+00
  0.00000000E+00  0.00000000E+00  0.00000000E+00
  0.00000000E+00  0.00000000E+00  0.00000000E+00
  0.00000000E+00  0.00000000E+00  0.00000000E+00
  0.00000000E+00  0.00000000E+00  0.00000000E+00
  0.00000000E+00  0.00000000E+00  0.00000000E+00
  0.00000000E+00  0.00000000E+00  0.00000000E+00
  0.00000000E+00  0.00000000E+00  0.00000000E+00
  0.00000000E+00  0.00000000E+00  0.00000000E+00
  0.00000000E+00  0.00000000E+00  0.00000000E+00
  0.00000000E+00  0.00000000E+00  0.00000000E+00
  0.00000000E+00  0.00000000E+00  0.00000000E+00
  0.00000000E+00  0.00000000E+00  0.00000000E+00
  0.00000000E+00  0.00000000E+00  0.00000000E+00
  0.00000000E+00  0.00000000E+00  0.00000000E+00
  0.00000000E+00  0.00000000E+00  0.00000000E+00
  0.00000000E+00  0.00000000E+00  0.00000000E+00
  0.00000000E+00  0.00000000E+00  0.00000000E+00
  0.00000000E+00  0.00000000E+00  0.00000000E+00
  0.00000000E+00  0.00000000E+00  0.00000000E+00
  0.00000000E+00  0.00000000E+00  0.00000000E+00
  0.00000000E+00  0.00000000E+00  0.00000000E+00
  0.00000000E+00  0.00000000E+00  0.00000000E+00
  0.00000000E+00  0.00000000E+00  0.00000000E+00
  0.00000000E+00  0.00000000E+00  0.00000000E+00
  0.00000000E+00  0.00000000E+00  0.00000000E+00
  0.00000000E+00  0.00000000E+00  0.00000000E+00
  0.00000000E+00  0.00000000E+00  0.00000000E+00
  0.00000000E+00  0.00000000E+00  0.00000000E+00
  0.00000000E+00  0.00000000E+00  0.00000000E+00
  0.00000000E+00  0.00000000E+00  0.00000000E+00
  0.00000000E+00  0.00000000E+00  0.00000000E+00
  0.00000000E+00  0.00000000E+00  0.00000000E+00
  0.00000000E+00  0.00000000E+00  0.00000000E+00
  0.00000000E+00  0.00000000E+00  0.00000000E+00
  0.00000000E+00  0.00000000E+00  0.00000000E+00
  0.00000000E+00  0.00000000E+00  0.00000000E+00
  0.00000000E+00  0.00000000E+00  0.00000000E+00
  0.00000000E+00  0.00000000E+00  0.00000000E+00
  0.00000000E+00  0.00000000E+00  0.00000000E+00
  0.00000000E+00  0.00000000E+00  0.00000000E+00
  0.00000000E+00  0.00000000E+00  0.00000000E+00
  0.00000000E+00  0.00000000E+00  0.00000000E+00
  0.00000000E+00  0.00000000E+00  0.00000000E+00
