Ta  N Co Cu                             
   1.00000000000000     
    18.1096310000000003    0.0000000000000000    0.0000000000000000
     0.0000000000000000   23.3552000000000000    0.0000000000000000
     0.0000000000000000    0.0000000000000000   30.4818169999999995
   Ta   N    Co   Cu
   192   240    48     1
Direct
  0.9983078100000000  0.0020367300000004  0.1975721399999983
  0.3336631399999987  0.0644328500000029  0.2027761699999999
  0.1646156500000018  0.0643367999999995  0.2026274899999976
  0.2491192600000005  0.1269786399999973  0.2779805099999990
  0.0811929199999994  0.0643564800000007  0.2840204099999966
  0.4163332800000035  0.0645444800000021  0.2844382500000009
  0.9988468000000026  0.1264997500000007  0.3702197699999985
  0.3314804099999975  0.0648211900000035  0.3686113400000011
  0.1662169399999982  0.0645300300000002  0.3684482800000026
  0.2502952899999968  0.1251012199999977  0.4550511600000036
  0.0845268400000023  0.0646173100000027  0.4561757199999974
  0.4149930399999988  0.0636876800000010  0.4551996300000027
  0.9982967199999990  0.1267601899999988  0.1975093200000018
  0.3337589799999989  0.1892044700000000  0.2028699099999969
  0.1647659799999985  0.1891011900000024  0.2024203200000017
  0.2494007700000012  0.2516524400000009  0.2778411700000021
  0.0812677899999983  0.1892891600000013  0.2835256799999968
  0.4164562300000014  0.1894511799999989  0.2845404500000015
  0.9987803799999995  0.2519163600000027  0.3695166299999997
  0.3317463200000006  0.1895337699999970  0.3689630200000025
  0.1661433200000033  0.1892166299999971  0.3675264100000035
  0.2473229399999965  0.2520573799999966  0.4538515899999993
  0.0844013700000019  0.1899567299999987  0.4543766999999974
  0.4133343399999987  0.1896716800000036  0.4571269599999965
  0.9982827700000030  0.2516844700000007  0.1973689200000024
  0.3336540700000015  0.3141139499999994  0.2026599000000004
  0.1649132900000012  0.3141076100000006  0.2022340099999980
  0.2492253200000007  0.3767387700000029  0.2774221100000034
  0.0813495200000034  0.3143088200000008  0.2833089100000024
  0.4164426399999996  0.3143411699999987  0.2844190900000001
  0.0000103300000021  0.3767814599999966  0.3690367199999969
  0.3312439199999986  0.3144911699999966  0.3686443799999992
  0.1665420499999968  0.3143920500000021  0.3673196000000019
  0.2526353000000015  0.3768025600000016  0.4550590200000002
  0.0861456000000018  0.3134966100000014  0.4539938200000009
  0.4143365500000016  0.3162260000000003  0.4565643500000007
  0.9980810699999978  0.3767511599999978  0.1972302300000024
  0.3332626999999988  0.4391386499999967  0.2024492600000016
  0.1648026900000019  0.4392652299999966  0.2020887500000015
  0.2486495899999994  0.0019404800000018  0.2777509499999979
  0.0813904399999998  0.4394421100000017  0.2832010899999986
  0.4159920999999969  0.4393446999999995  0.2839244999999977
  0.9992643100000009  0.0019795099999982  0.3703885199999988
  0.3312482999999986  0.4396114800000035  0.3681666399999983
  0.1666703799999993  0.4394453100000035  0.3673892899999984
  0.2494325099999983  0.0030183699999995  0.4545676799999967
  0.0850478199999998  0.4392309400000016  0.4533922600000011
  0.4134480499999995  0.4402704199999974  0.4553597800000020
  0.9980633500000025  0.5018095000000002  0.1972469700000019
  0.3329715100000001  0.5643255000000025  0.2022693899999979
  0.1644436600000034  0.5643416699999975  0.2020940399999986
  0.2485945900000033  0.6270063099999987  0.2773803099999981
  0.0810413900000029  0.5644918300000015  0.2833332399999975
  0.4157941200000010  0.5645175499999979  0.2835465499999970
  0.9986017299999972  0.6268724600000013  0.3698339900000036
  0.3309643799999975  0.5647289899999990  0.3681325299999969
  0.1661602599999981  0.5646359799999985  0.3676175000000015
  0.2460505000000026  0.6284439300000031  0.4547983200000019
  0.0863368199999996  0.5644364600000031  0.4554670500000029
  0.4090778999999998  0.5645672300000015  0.4571583000000032
  0.9979129000000029  0.6268943199999981  0.1973226799999992
  0.3330323599999971  0.6895265400000028  0.2022339299999985
  0.1643121600000015  0.6894410700000009  0.2021934500000029
  0.2484242399999985  0.7520831200000018  0.2774623099999971
  0.0808878200000009  0.6894816000000006  0.2834453299999993
  0.4158005199999977  0.6895785800000027  0.2838176799999985
  0.9990726099999989  0.7519548599999979  0.3694942899999987
  0.3307564899999988  0.6894514600000008  0.3683509800000024
  0.1660839299999992  0.6895594900000006  0.3675028600000019
  0.2489967500000034  0.7543417400000010  0.4554799900000006
  0.0836829499999965  0.6901307600000024  0.4535031699999976
  0.4097718700000001  0.6907894900000002  0.4571687700000027
  0.9979067800000010  0.7519832500000021  0.1973658300000025
  0.3330649299999990  0.8145291800000010  0.2024108999999967
  0.1643399299999970  0.8145157599999990  0.2023697200000001
  0.2484218000000027  0.8769932299999965  0.2776627000000005
  0.0810464400000015  0.8145289799999986  0.2836815400000035
  0.4158147200000002  0.8145982400000022  0.2838535300000018
  0.9989085799999984  0.8772624799999988  0.3702317600000029
  0.3304906099999982  0.8144287200000022  0.3678372600000017
  0.1661496199999988  0.8146440299999966  0.3681071099999969
  0.2476471100000026  0.8760387000000023  0.4548130299999968
  0.0826918500000033  0.8150767099999996  0.4541066999999970
  0.4131275700000003  0.8150031500000026  0.4529807799999972
  0.9980333900000034  0.8769127899999987  0.1975406800000030
  0.3332598200000021  0.9396077000000034  0.2026311699999965
  0.1645035499999992  0.9395159399999997  0.2026233699999977
  0.2487830399999993  0.5019363700000028  0.2772444800000002
  0.0810572700000023  0.9394515700000028  0.2839192799999992
  0.4162803999999980  0.9396038599999983  0.2841381799999994
  0.9994814900000009  0.5022122199999970  0.3693882600000009
  0.3307701700000010  0.9396795999999981  0.3678543199999993
  0.1660850299999979  0.9396236099999982  0.3682067499999988
  0.2493332600000002  0.5024407900000014  0.4540436799999981
  0.0844004799999993  0.9397920800000037  0.4561123300000034
  0.4102414500000009  0.9393679800000001  0.4545777299999969
  0.4992922599999972  0.0020800100000002  0.1977882400000013
  0.8327451800000034  0.0641430800000009  0.2029326299999994
  0.6640719700000020  0.0643750099999991  0.2030924700000014
  0.7485840900000014  0.1267614100000003  0.2784267799999967
  0.5815773300000018  0.0644545899999969  0.2847554800000012
  0.9158396899999985  0.0643879499999969  0.2843257800000032
  0.4988692499999985  0.1271145799999971  0.3709401899999989
  0.8315579400000033  0.0642432699999986  0.3686320999999992
  0.6657922600000035  0.0644855800000030  0.3691760600000009
  0.7505513300000004  0.1279252499999970  0.4541200399999994
  0.5832726699999995  0.0648292600000033  0.4568236799999994
  0.9141209499999974  0.0646172699999994  0.4556578400000006
  0.4992697899999996  0.1267580600000002  0.1978240600000021
  0.8327156599999981  0.1891650399999989  0.2027933600000011
  0.6641388600000013  0.1893729000000022  0.2031532800000022
  0.7486515200000028  0.2517688399999969  0.2783110399999984
  0.5817314499999995  0.1894523599999971  0.2848582299999975
  0.9156953199999975  0.1893289699999983  0.2841728300000028
  0.4984322299999988  0.2520767800000030  0.3712447600000033
  0.8317318900000004  0.1894715299999987  0.3691157800000013
  0.6659523100000015  0.1897251500000010  0.3694110799999990
  0.7492189999999965  0.2515157799999983  0.4561357500000014
  0.5832484000000022  0.1909178900000015  0.4563983700000023
  0.9160874100000029  0.1901810499999996  0.4555416500000007
  0.4992326100000000  0.2516817300000014  0.1978106299999993
  0.8327051799999978  0.3140884700000015  0.2025821200000024
  0.6640282600000020  0.3141092999999984  0.2029719399999976
  0.7486809199999982  0.3767252199999973  0.2780424800000034
  0.5815710299999992  0.3144036200000002  0.2847492200000019
  0.9156089499999993  0.3143607000000017  0.2839132900000010
  0.4977663100000029  0.3769796300000010  0.3708856900000015
  0.8315219200000001  0.3144989899999970  0.3688280399999968
  0.6663852499999976  0.3146242700000030  0.3690349900000029
  0.7477810199999979  0.3771934099999967  0.4583694700000009
  0.5842315100000022  0.3167179800000000  0.4561171300000026
  0.9168139300000036  0.3141199000000015  0.4549804999999978
  0.4990610999999987  0.3764637499999992  0.1976378700000012
  0.8326739600000010  0.4393075199999998  0.2024760400000005
  0.6640780000000035  0.4391649299999969  0.2026688500000020
  0.7483743399999980  0.0020030399999982  0.2783545899999993
  0.5813868799999966  0.4393018700000013  0.2840770999999975
  0.9155940200000003  0.4394069499999986  0.2839172700000034
  0.4992330500000008  0.0021490299999982  0.3705803000000003
  0.8313076700000011  0.4393754900000033  0.3685054899999969
  0.6668671600000025  0.4392441399999996  0.3683096199999980
  0.7461281000000000  0.0012724999999989  0.4558737199999996
  0.5838086600000025  0.4384197500000013  0.4550076499999989
  0.9181771200000028  0.4404998099999986  0.4521475199999969
  0.4987743200000025  0.5017027499999998  0.1973186399999989
  0.8325776300000030  0.5642538600000009  0.2024130900000003
  0.6641951300000031  0.5643020899999982  0.2024717299999992
  0.7485594899999981  0.6268566000000035  0.2778445200000021
  0.5812157299999967  0.5643865300000002  0.2836409000000017
  0.9154787900000017  0.5644365500000035  0.2840347500000036
  0.4960030000000017  0.6269851899999992  0.3697660500000026
  0.8309027499999999  0.5644511200000011  0.3690104800000000
  0.6660961099999980  0.5643206399999983  0.3677110699999986
  0.7469570700000006  0.6267831099999981  0.4569429299999967
  0.5790281199999967  0.5630751200000006  0.4517657099999965
  0.9167128899999994  0.5647714199999996  0.4560516900000025
  0.4985986900000015  0.6270595299999968  0.1972369000000000
  0.8326706599999980  0.6894133199999999  0.2024638999999979
  0.6640745199999998  0.6893796199999969  0.2025939899999969
  0.7483479400000022  0.7518708599999968  0.2781144400000031
  0.5812696400000021  0.6894503600000021  0.2839924299999979
  0.9153336400000001  0.6894295099999965  0.2839320300000026
  0.4974656400000015  0.7516833899999966  0.3698729899999975
  0.8307015999999976  0.6892975399999983  0.3687263200000004
  0.6658575900000017  0.6893100599999968  0.3684858399999982
  0.7486991299999985  0.7477228099999991  0.4587550600000014
  0.5787606499999995  0.6880466300000023  0.4535116400000021
  0.9141727800000012  0.6905567299999973  0.4546717400000020
  0.4988888900000035  0.7520741800000010  0.1974107799999985
  0.8326443999999995  0.8143996800000011  0.2026976200000021
  0.6639398200000031  0.8144779900000003  0.2027367800000022
  0.7481949499999985  0.8768825699999994  0.2783836699999966
  0.5814381699999984  0.8144203499999989  0.2842863999999992
  0.9153834600000010  0.8144566400000031  0.2840024699999972
  0.4990927999999997  0.8769947500000015  0.3702995200000032
  0.8308728399999978  0.8141609500000015  0.3685077299999975
  0.6657344899999984  0.8139428799999990  0.3693823400000014
  0.7460488500000011  0.8775940700000007  0.4557636400000007
  0.5801647999999986  0.8142474699999980  0.4556672699999993
  0.9131691400000008  0.8136928200000000  0.4545854400000024
  0.4992199699999986  0.8770461699999998  0.1976614299999966
  0.8327261700000008  0.9393762300000006  0.2028825800000007
  0.6640552699999986  0.9394744200000034  0.2030028900000005
  0.7486983800000004  0.5017256400000036  0.2777517800000027
  0.5817693500000019  0.9394097500000029  0.2847638000000003
  0.9156365099999988  0.9394532000000027  0.2842766400000016
  0.4975072200000028  0.5019404700000010  0.3695123700000025
  0.8310174699999990  0.9392971500000016  0.3688894399999967
  0.6658824800000005  0.9392927900000032  0.3696004500000001
  0.7498060200000012  0.5008178300000026  0.4564585500000007
  0.5825636000000003  0.9392602699999983  0.4562673000000004
  0.9142935100000003  0.9395680900000016  0.4551455200000021
  0.4048581300000009  0.0020513799999975  0.2325184600000014
  0.2490317700000020  0.0020047000000005  0.1995109100000008
  0.0928581900000012  0.0019599299999982  0.2322435499999997
  0.1535112500000011  0.1267245399999979  0.3154180800000006
  0.9985980000000012  0.1268912499999999  0.3033338600000022
  0.3443158500000010  0.1270310199999969  0.3160587300000017
  0.3998807600000021  0.1271997899999988  0.4033233500000009
  0.2488969699999970  0.1272662100000019  0.3869948099999974
  0.0978599900000034  0.1267448700000031  0.4021931600000030
  0.1505500399999988  0.1293819799999980  0.4846360900000022
  0.9990929599999987  0.1263292900000010  0.4757287999999988
  0.3483822000000032  0.1241734899999969  0.4878787900000034
  0.4602824600000019  0.1709967899999967  0.5712397400000029
  0.2249724600000036  0.0824497099999988  0.5497000000000014
  0.0741609600000004  0.1074276200000028  0.5654610300000016
  0.4049770900000027  0.1269299000000004  0.2327504599999983
  0.2492139599999987  0.1267755800000003  0.1997128799999999
  0.0929877900000022  0.1266986500000016  0.2320709899999969
  0.1536364800000030  0.2517586900000026  0.3149361400000004
  0.9985769299999987  0.2518124999999998  0.3027906299999970
  0.3443275300000010  0.2518771499999986  0.3160493900000034
  0.3990204500000019  0.2523726499999981  0.4034729500000012
  0.2484960000000029  0.2517173199999974  0.3864207399999984
  0.0978970399999994  0.2517406899999983  0.4008463999999989
  0.1508654399999969  0.2497112100000010  0.4837610499999982
  0.0007629699999967  0.2528190399999986  0.4742119400000036
  0.3442224100000004  0.2541725499999998  0.4847660100000013
  0.4009763299999989  0.2796981899999977  0.5606719700000014
  0.2877690999999984  0.1857729899999967  0.5564160999999999
  0.0803955299999970  0.2789452999999966  0.5617787400000012
  0.4049374499999985  0.2517703199999985  0.2327357799999987
  0.2492316700000003  0.2515982899999969  0.1997662200000008
  0.0930998799999969  0.2517001100000016  0.2316817499999999
  0.1538194299999986  0.3769123599999986  0.3148116500000029
  0.9987924899999996  0.3769117399999971  0.3024380299999976
  0.3438902799999966  0.3768193900000014  0.3157829199999966
  0.3977377000000004  0.3771132099999974  0.4028495800000016
  0.2491394099999980  0.3770396399999996  0.3870685300000005
  0.0992246300000019  0.3764979999999980  0.4009998599999989
  0.1545867999999970  0.3764846999999989  0.4845685299999971
  0.0018448200000023  0.3776868100000002  0.4712417699999989
  0.3503177699999966  0.3795998900000015  0.4901469200000008
  0.4857318800000030  0.3807454499999992  0.5686682899999980
  0.2427235500000009  0.3097772200000009  0.5472559800000028
  0.0926474799999966  0.3883946699999967  0.5653996100000001
  0.4047070399999981  0.3765760900000004  0.2324678399999982
  0.2490986999999976  0.3765781399999995  0.1990706400000022
  0.0931315600000033  0.3767544800000024  0.2314694100000025
  0.1533924800000008  0.0020143699999977  0.3156616200000002
  0.9985655899999983  0.0018910699999992  0.3034855000000007
  0.3438268000000022  0.0022389700000005  0.3156233500000027
  0.3996703700000026  0.0022811700000034  0.4017461400000002
  0.2486961800000032  0.0020714600000034  0.3867285600000017
  0.0984956200000013  0.0021022399999993  0.4027748399999993
  0.1533716200000015  0.0033784199999971  0.4875191200000017
  0.0001584899999969  0.0007248499999974  0.4729996399999976
  0.3474195900000012  0.0031571999999969  0.4850249300000016
  0.4401999299999986  0.9035956399999989  0.5714127700000020
  0.3214193900000026  0.0039327499999970  0.5701540299999976
  0.0883426500000013  0.9895067499999968  0.5666899200000017
  0.4043193299999999  0.5017791200000019  0.2319949299999990
  0.2489302099999975  0.5017981499999991  0.1987439099999975
  0.0929646900000023  0.5018997299999981  0.2315313499999974
  0.1532258000000013  0.6270438499999997  0.3149233800000033
  0.9982789600000004  0.6269688000000002  0.3029164599999987
  0.3436187000000004  0.6271292200000005  0.3154894700000028
  0.3972644799999969  0.6272703599999971  0.4033455000000004
  0.2481035699999978  0.6272285100000019  0.3866392500000018
  0.0983319500000022  0.6267986800000003  0.4013242500000018
  0.1482337200000003  0.6298499800000030  0.4855215799999968
  0.0005234400000020  0.6263356999999985  0.4721044500000033
  0.3418659800000015  0.6292334800000035  0.4880209000000022
  0.4345892899999981  0.6198222700000002  0.5735450199999974
  0.2881862500000025  0.5633875999999987  0.5715981700000015
  0.0788731700000014  0.6301017199999990  0.5653924000000004
  0.4042000800000025  0.6271160300000034  0.2320003399999990
  0.2487576700000034  0.6269875799999980  0.1992136499999972
  0.0927936699999989  0.6269518200000022  0.2316717599999976
  0.1532174499999996  0.7521240900000024  0.3151695500000002
  0.9983846200000031  0.7520089400000032  0.3027735200000023
  0.3434679300000028  0.7519244900000004  0.3154144299999970
  0.3982559600000002  0.7513033800000031  0.4020193899999995
  0.2484582700000004  0.7520990900000015  0.3873581599999980
  0.0983538300000006  0.7522685799999991  0.4014572500000000
  0.1511564899999982  0.7539166700000024  0.4862715599999987
  0.9992257999999978  0.7515206500000033  0.4724248300000014
  0.3459505599999986  0.7567750400000008  0.4876435299999997
  0.4487684899999991  0.7865027300000023  0.5545260999999968
  0.2221211600000004  0.6761304600000031  0.5495673300000021
  0.0774871500000032  0.7480636299999972  0.5588031099999995
  0.4043575199999978  0.7520552499999980  0.2320864900000004
  0.2486657600000015  0.7520485300000033  0.1992085099999983
  0.0927800899999980  0.7520092800000029  0.2317734299999969
  0.1531697699999981  0.8770367999999991  0.3155293599999993
  0.9983679999999993  0.8769286200000010  0.3033342100000027
  0.3435692099999983  0.8770890500000021  0.3153219699999994
  0.3991445300000009  0.8774421000000032  0.4010413099999965
  0.2485152300000024  0.8771315400000006  0.3869886600000001
  0.0983740599999976  0.8777587300000036  0.4024358100000001
  0.1510841500000026  0.8760059399999989  0.4885520899999989
  0.9988113400000032  0.8767153000000008  0.4741258999999971
  0.3446773200000024  0.8750213499999973  0.4850270199999969
  0.3754597900000007  0.8867080999999999  0.5687943799999999
  0.2131898299999975  0.9190048000000033  0.5739917399999968
  0.0801285499999977  0.8670663999999988  0.5644155700000013
  0.4045350800000023  0.8771353099999999  0.2321752799999999
  0.2488324099999986  0.8770265200000011  0.1993710100000001
  0.0928057799999991  0.8770395199999967  0.2320341100000007
  0.1534936199999990  0.5020107200000012  0.3148526000000018
  0.9985580600000006  0.5019513700000005  0.3026579200000015
  0.3437532399999981  0.5020912299999978  0.3153264000000036
  0.3988526600000029  0.5028386199999986  0.4018278499999965
  0.2487257399999976  0.5021487699999980  0.3863682699999984
  0.0988679800000014  0.5023146500000024  0.4012085399999989
  0.1516670399999995  0.4995146600000027  0.4848316200000014
  0.0015888599999982  0.5025547299999999  0.4724898699999969
  0.3440459799999971  0.5018876700000021  0.4844966400000033
  0.4223069600000002  0.4890794800000009  0.5633074300000018
  0.2309395999999992  0.4534257800000034  0.5615130899999983
  0.1058864299999982  0.5131451999999967  0.5681421800000024
  0.9041434900000027  0.0019025100000007  0.2326171200000005
  0.7483717699999985  0.0018559000000025  0.1997766300000023
  0.5932513099999994  0.0019592000000017  0.2330741600000010
  0.6537318800000023  0.1269687200000007  0.3165320600000001
  0.4989673600000017  0.1270613800000007  0.3040759200000025
  0.8438873699999974  0.1269170500000030  0.3161266700000027
  0.9000049500000031  0.1263820499999966  0.4028094499999995
  0.7489881500000024  0.1267603300000033  0.3870644200000015
  0.5976709500000013  0.1271514199999970  0.4031667200000015
  0.6534463799999983  0.1280602200000018  0.4835841200000033
  0.5002377499999966  0.1271351099999976  0.4745642500000002
  0.8479213199999975  0.1278558799999985  0.4849638999999968
  0.9191080299999967  0.1532042899999979  0.5596718299999992
  0.7586581600000031  0.0970440099999976  0.5515417700000000
  0.5912578599999989  0.0872964899999999  0.5534750599999967
  0.9040925600000023  0.1267463499999977  0.2325496799999982
  0.7484498299999984  0.1267704799999976  0.2002811999999992
  0.5931157300000010  0.1269184000000010  0.2331235999999990
  0.6539801600000033  0.2519440299999971  0.3164715899999990
  0.4989619099999985  0.2519466399999999  0.3042237000000014
  0.8437442299999987  0.2519262400000031  0.3161929899999976
  0.9004069400000034  0.2521294900000015  0.4025528700000010
  0.7490899599999992  0.2523144199999976  0.3884168000000017
  0.5976538500000004  0.2525998099999995  0.4033726400000006
  0.6512734800000004  0.2535163900000015  0.4869527000000033
  0.4960530299999988  0.2532902499999992  0.4763404899999983
  0.8467342400000035  0.2514370299999982  0.4868108300000031
  0.9177320499999979  0.2748756000000014  0.5686518999999990
  0.6724794300000028  0.1930686199999982  0.5759645899999981
  0.5544931499999990  0.2791145799999981  0.5659922999999978
  0.9039578399999968  0.2517096899999984  0.2323491399999966
  0.7484954399999992  0.2516629300000019  0.1995908999999969
  0.5930837100000019  0.2517630999999980  0.2331157300000015
  0.6540328000000031  0.3769227800000010  0.3160254100000017
  0.4986650399999988  0.3769499100000004  0.3038856800000005
  0.8436073700000009  0.3768663600000011  0.3158844800000011
  0.9014797099999967  0.3767284300000000  0.4007339300000012
  0.7491041299999992  0.3767713100000023  0.3892300999999989
  0.5980253700000020  0.3772254399999966  0.4012656399999983
  0.6470633200000009  0.3785265200000012  0.4847221599999969
  0.4989514199999974  0.3772536000000031  0.4694690399999999
  0.8532797700000003  0.3793646499999994  0.4801458700000012
  0.9253317300000035  0.4038842699999989  0.5551233899999986
  0.7799011800000031  0.3613142999999965  0.5422328599999986
  0.6475190199999972  0.3877655599999983  0.5873454500000008
  0.9038821199999987  0.3768326200000018  0.2321938999999986
  0.7484636399999971  0.3766262800000035  0.1999343100000033
  0.5931028899999973  0.3766094599999974  0.2327501299999994
  0.6536042999999978  0.0018855699999989  0.3166633499999989
  0.4989333199999990  0.0019827599999971  0.3037788800000030
  0.8435068300000026  0.0018097299999980  0.3161661099999975
  0.9001834099999968  0.0020619300000035  0.4025706899999975
  0.7486310900000035  0.0019692500000019  0.3881920099999974
  0.5978919200000021  0.0023961500000027  0.4036703800000012
  0.6488812199999998  0.0033819699999995  0.4875649100000032
  0.4967436499999991  0.9989416000000020  0.4748899100000017
  0.8442259999999990  0.0007441600000035  0.4848955900000007
  0.9290785199999974  0.0405825799999988  0.5543117400000028
  0.6982221000000024  0.9605352299999979  0.5619682499999996
  0.5531577900000002  0.9819322600000007  0.5606609199999966
  0.9037989400000015  0.5018791299999990  0.2322464399999973
  0.7483287200000035  0.5016907700000033  0.1990502499999991
  0.5929956499999989  0.5017187199999995  0.2321401000000023
  0.6535627299999973  0.6269291199999998  0.3154366699999969
  0.4983158699999990  0.6269318900000016  0.3029336499999999
  0.8433307999999968  0.6268133700000007  0.3159379200000032
  0.8997868000000011  0.6265458900000027  0.4022294099999968
  0.7478690299999968  0.6270516499999985  0.3880605800000012
  0.5956117100000000  0.6267722799999973  0.4003938600000012
  0.6452139499999987  0.6227777699999990  0.4829674200000014
  0.4946972400000007  0.6266894600000015  0.4732596400000020
  0.8490730299999996  0.6270156599999979  0.4832767099999984
  0.9281541000000004  0.6788844200000028  0.5469318900000033
  0.8189882200000014  0.5985045099999979  0.5664529200000032
  0.5950285099999988  0.6199455300000025  0.5606745400000008
  0.9036327999999969  0.6267868899999982  0.2322760599999967
  0.7484212700000015  0.6268774300000004  0.1993499499999984
  0.5928666399999969  0.6269818900000033  0.2321096699999998
  0.6533847099999974  0.7519394199999994  0.3160843599999978
  0.4983919000000014  0.7520231499999994  0.3031124600000012
  0.8431630899999973  0.7517696299999983  0.3159062200000022
  0.9003397800000030  0.7521674300000001  0.4009799600000008
  0.7483750299999983  0.7511709400000015  0.3892581599999971
  0.5963587099999970  0.7515100299999986  0.4019123799999988
  0.6458778499999980  0.7508840100000000  0.4845527200000035
  0.4958644900000024  0.7497023000000027  0.4731676099999973
  0.8493617600000007  0.7527205199999969  0.4822622000000010
  0.9362540099999990  0.8075731400000024  0.5496321899999970
  0.7442594899999975  0.6848981899999984  0.5126258000000021
  0.5961201699999990  0.7342172500000004  0.5648147100000003
  0.9037384700000004  0.7519439599999984  0.2323578399999988
  0.7483346200000014  0.7519646599999987  0.1997097599999975
  0.5930428400000025  0.7520059200000020  0.2324802500000018
  0.6534956400000027  0.8766414299999994  0.3166052999999991
  0.4986729399999987  0.8769085699999977  0.3035088800000025
  0.8431520099999972  0.8769572300000021  0.3160137300000017
  0.8996798900000016  0.8769450699999979  0.4019878699999992
  0.7484630000000010  0.8765489900000034  0.3882555599999975
  0.5979824799999989  0.8767761100000016  0.4034871599999974
  0.6497634600000026  0.8756217299999989  0.4884485299999994
  0.4965599299999965  0.8793920999999969  0.4758489700000013
  0.8455646299999984  0.8764941800000017  0.4834296300000034
  0.9169596099999993  0.9151416400000016  0.5606029699999979
  0.7650152200000022  0.8515456100000023  0.5571377699999971
  0.5970997000000011  0.8552784600000010  0.5671527599999990
  0.9039108999999996  0.8769736899999998  0.2325418400000032
  0.7483443100000002  0.8769605100000035  0.2002877400000003
  0.5931406500000023  0.8770187000000007  0.2329105800000022
  0.6537877100000031  0.5017689200000035  0.3154599699999991
  0.4985000900000003  0.5019299599999982  0.3028126600000007
  0.8433979899999997  0.5018952400000032  0.3159481000000000
  0.9003767900000028  0.5027205800000019  0.4021358299999989
  0.7487823299999974  0.5016190099999989  0.3885087900000030
  0.5971874299999982  0.5010712400000017  0.4004722299999983
  0.6504252200000025  0.5034124700000007  0.4833555700000005
  0.4973670800000036  0.5018869900000027  0.4721167599999987
  0.8496026099999980  0.5008507599999987  0.4875956500000029
  0.9497520099999974  0.5567423899999966  0.5474830499999968
  0.7851464100000030  0.4771396399999972  0.5662851700000004
  0.5837636899999978  0.5063272699999999  0.5609668199999973
  0.9912120700000031  0.1055442799999966  0.5406713799999991
  0.3101515899999967  0.0539744399999975  0.5312282299999964
  0.1292401600000019  0.0546507000000034  0.5438992200000001
  0.9999176399999996  0.2772414800000007  0.5359305200000009
  0.3781409400000015  0.1570617400000032  0.5431303100000022
  0.2067110500000027  0.1530277900000030  0.5359874399999995
  0.0114768600000019  0.3865652499999968  0.5334609499999985
  0.3144733299999984  0.2582905300000036  0.5451091300000002
  0.1413045199999985  0.3269883399999998  0.5403329900000031
  0.0096258100000028  0.9973030199999968  0.5359442199999975
  0.4169839500000023  0.4181886699999993  0.5469239000000030
  0.1357865900000021  0.4486870400000029  0.5396184399999981
  0.9979838499999971  0.6240144699999988  0.5381347900000009
  0.3881068199999973  0.5602865299999991  0.5575661399999987
  0.2084078399999996  0.5224947499999999  0.5726486599999987
  0.9845584700000032  0.7438299599999993  0.5370326600000013
  0.2846423599999994  0.6262040100000021  0.5409886200000003
  0.1250059400000012  0.6832488200000029  0.5391558099999969
  0.9928328900000025  0.8704144299999967  0.5400574900000024
  0.3694828599999980  0.8197816599999967  0.5316063900000003
  0.1181486999999990  0.8083700899999968  0.5359810100000004
  0.0273930299999989  0.5135580500000003  0.5346201400000012
  0.2988326999999984  0.9376380900000001  0.5818530100000032
  0.1321536299999977  0.9271250500000008  0.5443591800000007
  0.5216495499999994  0.1336945099999980  0.5367720899999995
  0.8525498400000018  0.1000382499999972  0.5435562799999971
  0.6337427400000024  0.0137037900000010  0.5508102900000011
  0.4753303399999993  0.2395936899999995  0.5449743400000031
  0.8808258500000008  0.2154065699999990  0.5407091499999979
  0.6735041000000024  0.1311675299999990  0.5459047100000021
  0.5666991699999997  0.3514446000000007  0.5803250000000020
  0.8809457999999992  0.3380639599999995  0.5461262600000012
  0.6220037599999984  0.2349026799999976  0.5442504999999969
  0.4961555000000004  0.9492919999999998  0.5276981800000016
  0.8334194500000009  0.4302235199999984  0.5279161300000013
  0.7276906000000025  0.4142303699999985  0.5693272800000031
  0.5047753200000002  0.6216346100000010  0.5370126400000004
  0.8507278700000001  0.5334856799999983  0.5511750200000023
  0.6273169099999976  0.5579307900000003  0.5317238700000004
  0.5115392200000031  0.7356664400000028  0.5361045599999983
  0.8325920500000024  0.6593441300000009  0.5389843700000014
  0.6366578200000035  0.6792188699999997  0.5326739300000014
  0.5055664899999996  0.8498222200000001  0.5490274699999986
  0.8559869899999981  0.8569147999999984  0.5441199200000000
  0.6263829600000008  0.7961289400000027  0.5372749100000007
  0.5021305499999968  0.5094682900000009  0.5354686200000032
  0.8791424100000000  0.9775492300000010  0.5402875600000030
  0.6854032999999973  0.8905123600000024  0.5510456900000023
  0.2797809999999998  0.3873871799999975  0.5465648200000004
 
  0.00000000E+00  0.00000000E+00  0.00000000E+00
  0.00000000E+00  0.00000000E+00  0.00000000E+00
  0.00000000E+00  0.00000000E+00  0.00000000E+00
  0.00000000E+00  0.00000000E+00  0.00000000E+00
  0.00000000E+00  0.00000000E+00  0.00000000E+00
  0.00000000E+00  0.00000000E+00  0.00000000E+00