Ta  N Ru                                
   1.00000000000000     
    10.4555999800000006    0.0000000000000000    0.0000000000000000
     0.0000000000000000   11.6775998899999998    0.0000000000000000
     0.0000000000000000    0.0000000000000000   24.0732377500000005
   Ta   N    Ru
    64    64     1
Selective dynamics
Direct
  0.4991785186325330  0.1250000003211298  0.3753726828051569   F   F   F
  0.2600588226580172  0.1250000003211298  0.3190980514078845   F   F   F
  0.2470962603561304  0.0000000000000000  0.4358978840493251   F   F   F
  0.2478118259433209  0.1249970086730178  0.5616908211198312   T   T   T
  0.9983470207752934  0.1248733820694355  0.5005411119903312   T   T   T
  0.9959119347990163  0.9999919796219027  0.6267663728035457   T   T   T
  0.5104571248429056  0.1264966042755502  0.7423001533645472   T   T   T
  0.2487793796105575  0.1244254669244085  0.6865539930152501   T   T   T
  0.4991785186325330  0.3750000001070433  0.3753726828051569   F   F   F
  0.2600588226580172  0.3750000001070433  0.3190980514078845   F   F   F
  0.2470962603561304  0.2499999997859135  0.4358978840493251   F   F   F
  0.2472157480150879  0.3748137845688559  0.5620186642696363   T   T   T
  0.9987594705315824  0.3749965213130692  0.5005680831582056   T   T   T
  0.9960425822171521  0.2496908703885454  0.6268862066496697   T   T   T
  0.4992769362041177  0.3798938946983751  0.7440232405144228   T   T   T
  0.2527251319278957  0.3756281676901113  0.6872732537602507   T   T   T
  0.4991785186325330  0.6249999998929567  0.3753726828051569   F   F   F
  0.2600588226580172  0.6249999998929567  0.3190980514078845   F   F   F
  0.2470962603561304  0.5000000004281731  0.4358978840493251   F   F   F
  0.2472110445711255  0.6251806912941968  0.5620199621328396   T   T   T
  0.9987605873533735  0.6249934102508214  0.5005672613462198   T   T   T
  0.9958761071617096  0.4999924553954562  0.6278047938362800   T   T   T
  0.4992779299088752  0.6201002324602773  0.7440195028936090   T   T   T
  0.2527251598684788  0.6243635569152902  0.6872743414307976   T   T   T
  0.4991785186325330  0.8750000005352163  0.3753726828051569   F   F   F
  0.2600588226580172  0.8750000005352163  0.3190980514078845   F   F   F
  0.2470962603561304  0.7500000002140865  0.4358978840493251   F   F   F
  0.2478038969276304  0.8750072579038918  0.5616961030395223   T   T   T
  0.9983469319728152  0.8751178048983486  0.5005406940456161   T   T   T
  0.9960425385580991  0.7502956810475258  0.6268879408645388   T   T   T
  0.5104506184090510  0.8734948948110419  0.7422982734473893   T   T   T
  0.2487804353258893  0.8755591838931113  0.6865526379805272   T   T   T
  0.9991784928090510  0.1250000003211298  0.3753726828051569   F   F   F
  0.7600587968345351  0.1250000003211298  0.3190980514078845   F   F   F
  0.7470962345326484  0.0000000000000000  0.4358978840493251   F   F   F
  0.7486858611342360  0.1250812161495322  0.5619652093428592   T   T   T
  0.4983837604486128  0.1249901991822075  0.5004838774486824   T   T   T
  0.4973638582148108  0.9999939301624607  0.6258728794044158   T   T   T
  0.0100740223945134  0.1258525392682509  0.7436248874699578   T   T   T
  0.7482160741916548  0.1256099790271460  0.6876542945342414   T   T   T
  0.9991784928090510  0.3750000001070433  0.3753726828051569   F   F   F
  0.7600587968345351  0.3750000001070433  0.3190980514078845   F   F   F
  0.7470962345326484  0.2499999997859135  0.4358978840493251   F   F   F
  0.7497905045567778  0.3750517324857187  0.5619096698717871   T   T   T
  0.4985788028387734  0.3747981909672571  0.5000190693043047   T   T   T
  0.4982824612933308  0.2490821032291879  0.6249174017097209   T   T   T
  0.0139117655879670  0.3731691370805584  0.7438427656027053   T   T   T
  0.7471657837881753  0.3746633665829363  0.6882337754631713   T   T   T
  0.9991784928090510  0.6249999998929567  0.3753726828051569   F   F   F
  0.7600587968345351  0.6249999998929567  0.3190980514078845   F   F   F
  0.7470962345326484  0.5000000004281731  0.4358978840493251   F   F   F
  0.7497924372404495  0.6249426183813870  0.5619047138518012   T   T   T
  0.4985793975956309  0.6251950383295631  0.5000192596193320   T   T   T
  0.5026954659688707  0.4999903798477366  0.6211782446738030   T   T   T
  0.0139049544866490  0.6268230513374754  0.7438468096811253   T   T   T
  0.7471706770960085  0.6253316250318390  0.6882370494624462   T   T   T
  0.9991784928090439  0.8750000005352163  0.3753726828051569   F   F   F
  0.7600587968345351  0.8750000005352163  0.3190980514078845   F   F   F
  0.7470962345326484  0.7500000002140865  0.4358978840493251   F   F   F
  0.7486864999556073  0.8749039616892135  0.5619651724611249   T   T   T
  0.4983834395099372  0.8750010447801241  0.5004839240209259   T   T   T
  0.4982863564081425  0.7509012342858877  0.6249143541838340   T   T   T
  0.0100732271967170  0.8741284937931881  0.7436224043101591   T   T   T
  0.7482149939247144  0.8743800405367423  0.6876494026085060   T   T   T
  0.1472195596423447  0.0000000000000000  0.3601606351366584   F   F   F
  0.4003222342624682  0.0000000000000000  0.3237632067519129   F   F   F
  0.4439214822817661  0.0000000000000000  0.4377276028165085   F   F   F
  0.4001107821697258  0.9999952609147318  0.5517661391728573   T   T   T
  0.1503815246877597  0.9999959083651379  0.5101835003450116   T   T   T
  0.1928207684083638  0.9999933826754409  0.6242725790027221   T   T   T
  0.1487517653674151  0.9999904321844022  0.7379283444580476   T   T   T
  0.3974909680113192  0.9999955754300772  0.7014961656569914   T   T   T
  0.1472195596423447  0.2499999997859135  0.3601606351366584   F   F   F
  0.4003222342624682  0.2499999997859135  0.3237632067519129   F   F   F
  0.4439214822817661  0.2499999997859135  0.4377276028165085   F   F   F
  0.3998202738223096  0.2501376245616556  0.5512703064504624   T   T   T
  0.1503189162261576  0.2497889278421973  0.5102069237794240   T   T   T
  0.1928955710038684  0.2497065160533372  0.6244858734424513   T   T   T
  0.1521404823008666  0.2490873429030818  0.7381766950316802   T   T   T
  0.3985862103608750  0.2500997258324894  0.7000397021918866   T   T   T
  0.1472195596423447  0.5000000004281731  0.3601606351366584   F   F   F
  0.4003222342624682  0.5000000004281731  0.3237632067519129   F   F   F
  0.4439214822817661  0.5000000004281731  0.4377276028165085   F   F   F
  0.3985517934790715  0.4999950561134179  0.5497440126715836   T   T   T
  0.1502443034563416  0.4999948648659194  0.5102880759103623   T   T   T
  0.1924223880426727  0.4999944610746322  0.6248763714941589   T   T   T
  0.1639698261878198  0.4999974678472842  0.7428252766947512   T   T   T
  0.4039700920409530  0.4999926871942892  0.6913849758882108   T   T   T
  0.1472195596423447  0.7500000002140865  0.3601606351366584   F   F   F
  0.4003222342624682  0.7500000002140865  0.3237632067519129   F   F   F
  0.4439214822817661  0.7500000002140865  0.4377276028165085   F   F   F
  0.3998195539638697  0.7498517823561685  0.5512696912844303   T   T   T
  0.1503173045107250  0.7502020186494971  0.5102063868015450   T   T   T
  0.1928929150627593  0.7502805820200315  0.6244849190427283   T   T   T
  0.1521411270913552  0.7508970143180491  0.7381748573338959   T   T   T
  0.3985882355063190  0.7498898097043027  0.7000345556310519   T   T   T
  0.6472195338188556  0.0000000000000000  0.3601606351366584   F   F   F
  0.9003222591295312  0.0000000000000000  0.3237632067519129   F   F   F
  0.9439215071488221  0.0000000000000000  0.4377276028165085   F   F   F
  0.9004103971757826  0.9999933533636005  0.5521563876096083   T   T   T
  0.6507259966626352  0.9999946233343580  0.5104449603258395   T   T   T
  0.6947594584148289  0.9999915666069448  0.6249112571533271   T   T   T
  0.6496359859712881  0.9999945230324381  0.7388285388936947   T   T   T
  0.8965228964752735 -0.0000077276117640  0.7029814918094642   T   T   T
  0.6472195338188556  0.2499999997859135  0.3601606351366584   F   F   F
  0.9003222591295312  0.2499999997859135  0.3237632067519129   F   F   F
  0.9439215071488221  0.2499999997859135  0.4377276028165085   F   F   F
  0.9010326250657146  0.2498293237168013  0.5520529757509278   T   T   T
  0.6509448864656348  0.2499828910527658  0.5104264277260457   T   T   T
  0.6950291214778558  0.2503951463443839  0.6248108553672049   T   T   T
  0.6482072996953404  0.2511263333547946  0.7397667106604564   T   T   T
  0.8963492197138668  0.2506429598051733  0.7030929205210670   T   T   T
  0.6472195338188556  0.5000000004281731  0.3601606351366584   F   F   F
  0.9003222591295312  0.5000000004281731  0.3237632067519129   F   F   F
  0.9439215071488221  0.5000000004281731  0.4377276028165085   F   F   F
  0.9018402029429343  0.4999929968330625  0.5522131452193586   T   T   T
  0.6509652018012124  0.4999962147068854  0.5104679553583147   T   T   T
  0.6987422675599475  0.4999939923039162  0.6247170986223713   T   T   T
  0.6455712677723584  0.4999943356666002  0.7381699554479226   T   T   T
  0.8969258092821661  0.4999939152809310  0.7043212497854762   T   T   T
  0.6472195338188556  0.7500000002140865  0.3601606351366584   F   F   F
  0.9003222591295312  0.7500000002140865  0.3237632067519129   F   F   F
  0.9439215071488221  0.7500000002140865  0.4377276028165085   F   F   F
  0.9010353458816380  0.7501586499597033  0.5520527022470597   T   T   T
  0.6509456260696014  0.7500070587455984  0.5104264450805888   T   T   T
  0.6950327820850610  0.7495892170038286  0.6248113551557531   T   T   T
  0.6482044157943627  0.7488666174756466  0.7397660905407596   T   T   T
  0.8963440939728787  0.7493414469213447  0.7030936653435040   T   T   T
  0.3226546300815399  0.4999923466999966  0.7944563870051895   T   T   T
 
  0.00000000E+00  0.00000000E+00  0.00000000E+00
  0.00000000E+00  0.00000000E+00  0.00000000E+00
  0.00000000E+00  0.00000000E+00  0.00000000E+00
  0.00000000E+00  0.00000000E+00  0.00000000E+00
  0.00000000E+00  0.00000000E+00  0.00000000E+00
  0.00000000E+00  0.00000000E+00  0.00000000E+00
  0.00000000E+00  0.00000000E+00  0.00000000E+00
  0.00000000E+00  0.00000000E+00  0.00000000E+00
  0.00000000E+00  0.00000000E+00  0.00000000E+00
  0.00000000E+00  0.00000000E+00  0.00000000E+00
  0.00000000E+00  0.00000000E+00  0.00000000E+00
  0.00000000E+00  0.00000000E+00  0.00000000E+00
  0.00000000E+00  0.00000000E+00  0.00000000E+00
  0.00000000E+00  0.00000000E+00  0.00000000E+00
  0.00000000E+00  0.00000000E+00  0.00000000E+00
  0.00000000E+00  0.00000000E+00  0.00000000E+00
  0.00000000E+00  0.00000000E+00  0.00000000E+00
  0.00000000E+00  0.00000000E+00  0.00000000E+00
  0.00000000E+00  0.00000000E+00  0.00000000E+00
  0.00000000E+00  0.00000000E+00  0.00000000E+00
  0.00000000E+00  0.00000000E+00  0.00000000E+00
  0.00000000E+00  0.00000000E+00  0.00000000E+00
  0.00000000E+00  0.00000000E+00  0.00000000E+00
  0.00000000E+00  0.00000000E+00  0.00000000E+00
  0.00000000E+00  0.00000000E+00  0.00000000E+00
  0.00000000E+00  0.00000000E+00  0.00000000E+00
  0.00000000E+00  0.00000000E+00  0.00000000E+00
  0.00000000E+00  0.00000000E+00  0.00000000E+00
  0.00000000E+00  0.00000000E+00  0.00000000E+00
  0.00000000E+00  0.00000000E+00  0.00000000E+00
  0.00000000E+00  0.00000000E+00  0.00000000E+00
  0.00000000E+00  0.00000000E+00  0.00000000E+00
  0.00000000E+00  0.00000000E+00  0.00000000E+00
  0.00000000E+00  0.00000000E+00  0.00000000E+00
  0.00000000E+00  0.00000000E+00  0.00000000E+00
  0.00000000E+00  0.00000000E+00  0.00000000E+00
  0.00000000E+00  0.00000000E+00  0.00000000E+00
  0.00000000E+00  0.00000000E+00  0.00000000E+00
  0.00000000E+00  0.00000000E+00  0.00000000E+00
  0.00000000E+00  0.00000000E+00  0.00000000E+00
  0.00000000E+00  0.00000000E+00  0.00000000E+00
  0.00000000E+00  0.00000000E+00  0.00000000E+00
  0.00000000E+00  0.00000000E+00  0.00000000E+00
  0.00000000E+00  0.00000000E+00  0.00000000E+00
  0.00000000E+00  0.00000000E+00  0.00000000E+00
  0.00000000E+00  0.00000000E+00  0.00000000E+00
  0.00000000E+00  0.00000000E+00  0.00000000E+00
  0.00000000E+00  0.00000000E+00  0.00000000E+00
  0.00000000E+00  0.00000000E+00  0.00000000E+00
  0.00000000E+00  0.00000000E+00  0.00000000E+00
  0.00000000E+00  0.00000000E+00  0.00000000E+00
  0.00000000E+00  0.00000000E+00  0.00000000E+00
  0.00000000E+00  0.00000000E+00  0.00000000E+00
  0.00000000E+00  0.00000000E+00  0.00000000E+00
  0.00000000E+00  0.00000000E+00  0.00000000E+00
  0.00000000E+00  0.00000000E+00  0.00000000E+00
  0.00000000E+00  0.00000000E+00  0.00000000E+00
  0.00000000E+00  0.00000000E+00  0.00000000E+00
  0.00000000E+00  0.00000000E+00  0.00000000E+00
  0.00000000E+00  0.00000000E+00  0.00000000E+00
  0.00000000E+00  0.00000000E+00  0.00000000E+00
  0.00000000E+00  0.00000000E+00  0.00000000E+00
  0.00000000E+00  0.00000000E+00  0.00000000E+00
  0.00000000E+00  0.00000000E+00  0.00000000E+00
  0.00000000E+00  0.00000000E+00  0.00000000E+00
  0.00000000E+00  0.00000000E+00  0.00000000E+00
  0.00000000E+00  0.00000000E+00  0.00000000E+00
  0.00000000E+00  0.00000000E+00  0.00000000E+00
  0.00000000E+00  0.00000000E+00  0.00000000E+00
  0.00000000E+00  0.00000000E+00  0.00000000E+00
  0.00000000E+00  0.00000000E+00  0.00000000E+00
  0.00000000E+00  0.00000000E+00  0.00000000E+00
  0.00000000E+00  0.00000000E+00  0.00000000E+00
  0.00000000E+00  0.00000000E+00  0.00000000E+00
  0.00000000E+00  0.00000000E+00  0.00000000E+00
  0.00000000E+00  0.00000000E+00  0.00000000E+00
  0.00000000E+00  0.00000000E+00  0.00000000E+00
  0.00000000E+00  0.00000000E+00  0.00000000E+00
  0.00000000E+00  0.00000000E+00  0.00000000E+00
  0.00000000E+00  0.00000000E+00  0.00000000E+00
  0.00000000E+00  0.00000000E+00  0.00000000E+00
  0.00000000E+00  0.00000000E+00  0.00000000E+00
  0.00000000E+00  0.00000000E+00  0.00000000E+00
  0.00000000E+00  0.00000000E+00  0.00000000E+00
  0.00000000E+00  0.00000000E+00  0.00000000E+00
  0.00000000E+00  0.00000000E+00  0.00000000E+00
  0.00000000E+00  0.00000000E+00  0.00000000E+00
  0.00000000E+00  0.00000000E+00  0.00000000E+00
  0.00000000E+00  0.00000000E+00  0.00000000E+00
  0.00000000E+00  0.00000000E+00  0.00000000E+00
  0.00000000E+00  0.00000000E+00  0.00000000E+00
  0.00000000E+00  0.00000000E+00  0.00000000E+00
  0.00000000E+00  0.00000000E+00  0.00000000E+00
  0.00000000E+00  0.00000000E+00  0.00000000E+00
  0.00000000E+00  0.00000000E+00  0.00000000E+00
  0.00000000E+00  0.00000000E+00  0.00000000E+00
  0.00000000E+00  0.00000000E+00  0.00000000E+00
  0.00000000E+00  0.00000000E+00  0.00000000E+00
  0.00000000E+00  0.00000000E+00  0.00000000E+00
  0.00000000E+00  0.00000000E+00  0.00000000E+00
  0.00000000E+00  0.00000000E+00  0.00000000E+00
  0.00000000E+00  0.00000000E+00  0.00000000E+00
  0.00000000E+00  0.00000000E+00  0.00000000E+00
  0.00000000E+00  0.00000000E+00  0.00000000E+00
  0.00000000E+00  0.00000000E+00  0.00000000E+00
  0.00000000E+00  0.00000000E+00  0.00000000E+00
  0.00000000E+00  0.00000000E+00  0.00000000E+00
  0.00000000E+00  0.00000000E+00  0.00000000E+00
  0.00000000E+00  0.00000000E+00  0.00000000E+00
  0.00000000E+00  0.00000000E+00  0.00000000E+00
  0.00000000E+00  0.00000000E+00  0.00000000E+00
  0.00000000E+00  0.00000000E+00  0.00000000E+00
  0.00000000E+00  0.00000000E+00  0.00000000E+00
  0.00000000E+00  0.00000000E+00  0.00000000E+00
  0.00000000E+00  0.00000000E+00  0.00000000E+00
  0.00000000E+00  0.00000000E+00  0.00000000E+00
  0.00000000E+00  0.00000000E+00  0.00000000E+00
  0.00000000E+00  0.00000000E+00  0.00000000E+00
  0.00000000E+00  0.00000000E+00  0.00000000E+00
  0.00000000E+00  0.00000000E+00  0.00000000E+00
  0.00000000E+00  0.00000000E+00  0.00000000E+00
  0.00000000E+00  0.00000000E+00  0.00000000E+00
  0.00000000E+00  0.00000000E+00  0.00000000E+00
  0.00000000E+00  0.00000000E+00  0.00000000E+00
  0.00000000E+00  0.00000000E+00  0.00000000E+00
  0.00000000E+00  0.00000000E+00  0.00000000E+00
  0.00000000E+00  0.00000000E+00  0.00000000E+00
  0.00000000E+00  0.00000000E+00  0.00000000E+00
  0.00000000E+00  0.00000000E+00  0.00000000E+00
