Ta  N Ru                                
   1.00000000000000     
    18.1096308199999996    0.0000000000000000    0.0000000000000000
     0.0000000000000000   23.3551997799999995    0.0000000000000000
     0.0000000000000000    0.0000000000000000   30.4818171199999988
   Ta   N    Ru
   216   240    24
Direct
 -0.0000857054620722 -0.0000384233860621  0.1958373529929409
  0.3337873207689747  0.0624976195166127  0.2019640775642276
  0.1662510186047454  0.0625621103128325  0.2019355756344995
  0.2501316062137423  0.1250868950486961  0.2773984468985812
  0.0825165878200173  0.0625690166670431  0.2828979056258989
  0.4174987667046930  0.0625008788895518  0.2830283276867737
  0.9997966105957208  0.1251472420006003  0.3687624985901775
  0.3324972071459606  0.0625291109343171  0.3675857988255204
  0.1682052343007921  0.0626475183880787  0.3672498196080158
  0.2499276741561873  0.1235988611951728  0.4542897442418482
  0.0832936893653745  0.0624292880018999  0.4524159595083317
  0.4163218549933346  0.0624620947044513  0.4534419410271216
 -0.0000192154802267  0.1250713097791007  0.1959481545568334
  0.3338834796488656  0.1874829338519699  0.2018986746095279
  0.1661235503324640  0.1874712693063761  0.2019794080341063
  0.2501026661199260  0.2499939716693491  0.2774461832127875
  0.0826243742595075  0.1875090264833913  0.2830320065761314
  0.4175552106674528  0.1875025478722305  0.2829048573363862
  0.9996108925959870  0.2500603225890276  0.3687890128694535
  0.3323819601461480  0.1875951183251599  0.3674470936410796
  0.1678077937641165  0.1875823164880332  0.3676310279918860
  0.2488540527494623  0.2506014147631987  0.4547312488433753
  0.0852941041770379  0.1874294067375320  0.4535685344163182
  0.4163197756025829  0.1874587362315336  0.4541045940647092
  0.3414187786012289  0.1849327102579243  0.5440994011318865
  0.0000366362639172  0.2499229282500418  0.1959117614284899
  0.3338892089622520  0.3125528113843791  0.2018717449759620
  0.1661468477070275  0.3125252205994313  0.2018581795312921
  0.2501268624443763  0.3749064345390380  0.2771478085744041
  0.0824846943300860  0.3124907448603081  0.2828798040187719
  0.4174508532853818  0.3125146362399746  0.2828687311994543
  0.0000140733936959  0.3748231214574589  0.3683274646661758
  0.3324452094034085  0.3124467107201645  0.3671944538752241
  0.1678561141207548  0.3124727520575766  0.3671043640309139
  0.2497054783079057  0.3759311142665647  0.4538225309138692
  0.0841668176344134  0.3129276766033869  0.4534176818647800
  0.4159615385780023  0.3126095389764135  0.4536935362033164
 -0.0000308944385373  0.3749783573687581  0.1957482034554148
  0.3336841405367409  0.4375831426723911  0.2018749950497211
  0.1664100535179410  0.4375065798634467  0.2018084384962060
  0.2501548591520039  0.0000652320502235  0.2773107995569969
  0.0823575185039008  0.4375175854719150  0.2826481949379581
  0.4175191646527336  0.4375494667849064  0.2828417186363895
  0.9998135422728209  0.0001176970954187  0.3685414215372833
  0.3318943738621191  0.4375920422376978  0.3674078747768733
  0.1679350357080151  0.4376295762727721  0.3667557878594031
  0.2502265899113297  0.0004044428120192  0.4541278349622574
  0.0831690447405239  0.4379023629345445  0.4516674236477857
  0.4163656508250742  0.4376530664310897  0.4527908652110620
  0.3315542211883483  0.4377198326862607  0.5412545675465977
 -0.0001777708672991  0.5000271771530531  0.1957068622226207
  0.3338519805253490  0.5625591723213250  0.2019088698070851
  0.1661877343422313  0.5625539382026087  0.2017604859717589
  0.2500927895434872  0.6250504070664812  0.2772267654093904
  0.0823198795561521  0.5625940656150157  0.2826188903876457
  0.4172871717448322  0.5625597642125287  0.2829822822286622
  0.9995130045022728  0.6249229674016248  0.3684593367602695
  0.3322803028301289  0.5626375496264291  0.3671895765254381
  0.1676459896201255  0.5626817337347291  0.3665556545525819
  0.2484188382335171  0.6257847803267019  0.4545165062330677
  0.0847319103533348  0.5628018105639460  0.4530913672919882
  0.4163622442428620  0.5625666998126738  0.4535553620822411
 -0.0002967379947424  0.6250959646606081  0.1957763489964106
  0.3338218427420557  0.6875858000894169  0.2019514107652205
  0.1662486360975098  0.6876123460159239  0.2018644613608114
  0.2500887651696674  0.7500205936350645  0.2772471779585974
  0.0822332184931034  0.6875819658486886  0.2827197526872671
  0.4173777821816344  0.6875536576958208  0.2830702120382281
  0.9996342820096070  0.7501866067354740  0.3685840044593672
  0.3315260571186480  0.6875436808128642  0.3675915149899379
  0.1675618134292456  0.6876118021248278  0.3670199288911612
  0.2484389351423847  0.7498150048501792  0.4541640059182421
  0.0826237703087218  0.6877752097690001  0.4524600977422534
  0.4154503793511947  0.6877097026529472  0.4537740440903545
  0.3258790949083660  0.6888337161420861  0.5433320625598211
 -0.0003157396983759  0.7500578851187948  0.1958111826812188
  0.3339241741863516  0.8125274915969718  0.2019587971929511
  0.1660832748602484  0.8125181391684979  0.2018954225664163
  0.2502604072595195  0.8751082355779262  0.2772296004094637
  0.0822612877642398  0.8125534412164864  0.2827834867514152
  0.4173287672536362  0.8125155920029983  0.2830333816813162
  0.9995196654391231  0.8748373755860230  0.3685407791271931
  0.3323794025970909  0.8125570824569772  0.3674389146871430
  0.1675739944075630  0.8126932955420496  0.3667330968884699
  0.2504441942531961  0.8764399908951963  0.4541565279292892
  0.0845545096559981  0.8130034715783948  0.4529490559032460
  0.4157115135260376  0.8120435089849041  0.4537404237943355
  0.0031224648559924  0.8668678291031828  0.5408902962810084
 -0.0001606554668969  0.8750949416296372  0.1958161956916258
  0.3339956285235279  0.9375296197395367  0.2019234627869037
  0.1660883114858604  0.9375875463113371  0.2018814625654443
  0.2501635050485987  0.5001456920133529  0.2770739106613458
  0.0825066429902618  0.9375779443175659  0.2827910387083521
  0.4175559392405525  0.9374982274560056  0.2829899404830712
  0.9998136806483484  0.5003175539808781  0.3681553431267250
  0.3324272288367638  0.9375059525266373  0.3675309532519075
  0.1676262149948203  0.9375807258270574  0.3669848360089111
  0.2492261092112066  0.4992273336365837  0.4541607514400828
  0.0831726795972145  0.9380904100604811  0.4528886736904659
  0.4168573201414635  0.9372308623785303  0.4538454047841181
  0.3375212376151544  0.9375485326892306  0.5414914064074196
  0.1645626384182315  0.9359321605252535  0.5414221239430885
  0.5000024580834086 -0.0000854883371815  0.1959186952367992
  0.8336976753330875  0.0625035310621536  0.2019517659911257
  0.6661698991376918  0.0624856946991862  0.2020162358871494
  0.7501023591520032  0.1250664085572371  0.2773825325944804
  0.5825271190982906  0.0625163935558749  0.2830018868445347
  0.9175271992639509  0.0625291648770662  0.2829526755558269
  0.4997103511320209  0.1250681689367210  0.3687796848814304
  0.8323808794024944  0.0625750531486982  0.3674746961488687
  0.6681961922216009  0.0625459902449700  0.3672799277958240
  0.7498576057410421  0.1235086325566215  0.4542319793548594
  0.5832515746154733  0.0623067148403133  0.4524338376085386
  0.9164493068600053  0.0626832766121546  0.4533343297968330
  0.4999632436725047  0.1250569904861700  0.1959554541906639
  0.8338663880380565  0.1874867136603788  0.2018620873435376
  0.6660063762501756  0.1874553455039142  0.2019758188109684
  0.7500477964721222  0.2499550197162533  0.2774346146030874
  0.5825519941045926  0.1874720554785327  0.2830711460195895
  0.9176023387125621  0.1875023047907671  0.2828596422495241
  0.4994502168865315  0.2500261975691345  0.3688147404267162
  0.8323563443912818  0.1875686218493860  0.3673509945443637
  0.6677530040842964  0.1875275432147930  0.3676312545976385
  0.7485764211637639  0.2504683043716132  0.4547197489116280
  0.5851583503564433  0.1873364733995810  0.4535337116978575
  0.9162422406404475  0.1874626030223366  0.4540477730283439
  0.8409680558983470  0.1848410349629590  0.5439475491285142
  0.4999972028488573  0.2499151180499589  0.1959264103722778
  0.8337013651189344  0.3125272456291319  0.2018487783643089
  0.6660108559899471  0.3124810956930705  0.2018827617768980
  0.7500865902397071  0.3749141650927639  0.2771584223484415
  0.5825034277797080  0.3124401152911138  0.2829448335320006
  0.9174789743115624  0.3124807363314324  0.2827545449944091
  0.4998411879945830  0.3746887381702750  0.3683695732430038
  0.8324897670824868  0.3123811254774866  0.3670972462891270
  0.6678324578058572  0.3123405143275167  0.3671449244109819
  0.7500118860855293  0.3757319968897968  0.4538937476338762
  0.5841067038523103  0.3127283815984376  0.4534939626470672
  0.9161862244238754  0.3124510630698686  0.4535344282099643
  0.4999660136854250  0.3750289559064243  0.1957869684798782
  0.8333569468004322  0.4374558912902744  0.2018469461948691
  0.6661412737600250  0.4374481011802248  0.2019234383169300
  0.7501125463021298 -0.0000110710181159  0.2773181859596298
  0.5824312071576396  0.4375007261914614  0.2828805951227533
  0.9174777985185588  0.4375000788132452  0.2827140273432418
  0.4998790471117498 -0.0000034005238514  0.3686057877714213
  0.8320479885832942  0.4374295069095551  0.3673014799838810
  0.6681190559262025  0.4374526233369181  0.3669514006279401
  0.7503628869512532  0.0005620644012430  0.4542388620588117
  0.5829301315571201  0.4373711165363148  0.4515112805665439
  0.9167077769691313  0.4372567820096429  0.4527500046759705
  0.8340075634085934  0.4358170152335046  0.5426284888111137
  0.5000210902262449  0.5000531228938605  0.1958355214311039
  0.8333647338633928  0.5625519322274116  0.2019008829235695
  0.6658577051873881  0.5625733500523759  0.2019416952384468
  0.7496241093799273  0.6251548620006643  0.2775943297890360
  0.5824226161162001  0.5625815171323056  0.2830993606701435
  0.9172391219313378  0.5625474679571411  0.2826953488977859
  0.4994857711479470  0.6249458188980018  0.3689413401671446
  0.8320725005106895  0.5625840702928188  0.3670636652624092
  0.6676032978454106  0.5625943365662158  0.3675651778128574
  0.7479838709375111  0.6240885149799926  0.4552060214738950
  0.5846929076674698  0.5620373380331360  0.4543603423582094
  0.9163089207901305  0.5624859010757988  0.4530293258375190
  0.5000113783323227  0.6251609778759125  0.1959992165244116
  0.8334180792853814  0.6875493280081693  0.2019261134963967
  0.6657521389561352  0.6875201527903527  0.2019877934428922
  0.7496293169301316  0.7498498217502932  0.2775868480943816
  0.5823858366428689  0.6875161105679232  0.2832863303346818
  0.9171678412382550  0.6875614586393232  0.2827932825421387
  0.4995064111757300  0.7500438063732753  0.3689635390286383
  0.8314997688192429  0.6874345675378134  0.3674727752487760
  0.6674182122350896  0.6874039678090116  0.3680889311648429
  0.7479897842676284  0.7503591063607555  0.4550758912372451
  0.5824731937515701  0.6870304089812052  0.4537263239071633
  0.9151267166534112  0.6875413464052004  0.4533826742492991
  0.8443200240977015  0.6875488297069150  0.5421968292018254
  0.5000918699720959  0.7499136863970842  0.1959956846322981
  0.8335968942040136  0.8125649511914680  0.2019688828678914
  0.6658566707910659  0.8125145814195001  0.2020620918432828
  0.7500149223646173  0.8749532577421318  0.2773447141785894
  0.5823802168527814  0.8124640083849477  0.2832252031388758
  0.9172926786382585  0.8125238706064476  0.2829309375260713
  0.4997217211731339  0.8748369340456896  0.3688977780618129
  0.8320747735061740  0.8124049660421196  0.3673990864422799
  0.6677170293282330  0.8123882182718767  0.3675962496585541
  0.7509514991218094  0.8761525242199477  0.4541676692265579
  0.5854133377625043  0.8126191680234252  0.4536650375875230
  0.9155175692986646  0.8122964856346755  0.4534471827485279
  0.5007864970265508  0.8643348003752265  0.5419531652825825
  0.5000466478038966  0.8750936658133803  0.1959539736029746
  0.8336825646076593  0.9375241620257416  0.2019350818642004
  0.6659528564879605  0.9375048397898987  0.2020122895366285
  0.7498835537855673  0.5001429722002935  0.2771806591114191
  0.5824972481578298  0.9374771415469688  0.2830271509697265
  0.9174510259091549  0.9375270010828869  0.2829333117108872
  0.4998702728152422  0.5002596861367984  0.3684925934440761
  0.8324908520949905  0.9374953991450459  0.3674774307903353
  0.6678655457719490  0.9374333413869048  0.3671022027489649
  0.7502272116290155  0.4989054484108690  0.4540370047255859
  0.5831457586643252  0.9380371274508844  0.4528324472378161
  0.9169165127712294  0.9376788805584271  0.4537330574738034
  0.8388270301026203  0.9380378366858445  0.5416804550614466
  0.6649091721864092  0.9355185238453003  0.5424741869150537
  0.3349444546652853  0.0610047141133479  0.5410412337903341
  0.1676456449542454  0.0628100070414526  0.5412161508572612
  0.3420772091401471  0.3126287862093269  0.5422350591219013
  0.9992853931017195  0.0039956156027244  0.5411455238894759
  0.3377375584485274  0.5636557081740938  0.5416375298536518
  0.3315855418376489  0.8138790082190318  0.5419223028138669
  0.8351820467132970  0.0612735273993529  0.5411527748967053
  0.6679792822055494  0.0632196404941033  0.5411770634086059
  0.8413378375550005  0.3119880991829937  0.5419246570065155
  0.4990559932278919  0.0046475703206585  0.5415330634647124
  0.8443953803755473  0.5606549889989365  0.5415187484279361
  0.8392202048291613  0.8149972116840313  0.5423422188594876
  0.4062279992396422  0.0000184131742710  0.2311547446383062
  0.2500070409689394 -0.0000100201664235  0.1983879724099760
  0.0937288904571707  0.0000947409711000  0.2310276334287439
  0.1546369648077913  0.1250968612428717  0.3148270760661479
  0.0000140753548091  0.1250818797530818  0.3020278105831382
  0.3455707560984528  0.1250577755523521  0.3149026725532657
  0.4008965227289407  0.1252120812055613  0.4015774603311981
  0.2503429864020671  0.1252211667283160  0.3863710653290052
  0.0989773414336229  0.1254102557011373  0.4010512430760246
  0.1516317698294030  0.1217846873125345  0.4857982854317307
  0.0007190397572384  0.1247254694245143  0.4723679522089435
  0.3490963933452340  0.1245148925844521  0.4873760451410017
  0.4038046195719034  0.1208017111581986  0.5697537426823346
  0.2523698465068757  0.1226938687739558  0.5587984547025333
  0.0818059165478270  0.1168474020676065  0.5669082816333414
  0.4062210877979588  0.1249769206402943  0.2311377533246848
  0.2500401833474454  0.1250648250194658  0.1983277954906885
  0.0937902442661719  0.1250549358700548  0.2311415230168634
  0.1546225061916385  0.2499847247938696  0.3148231726522868
 -0.0000210824735693  0.2500217194021926  0.3020288642670110
  0.3455716127033689  0.2499681967727921  0.3148387538890238
  0.4005225833207476  0.2498872987934025  0.4015655501648511
  0.2502123784543922  0.2501207628517878  0.3867008775715185
  0.0985864577513097  0.2499744315025308  0.4011350017928288
  0.1499757123842102  0.2514604417570002  0.4848730963446890
  0.0007760597127298  0.2497754612031898  0.4720427453739733
  0.3493135010735928  0.2497339279835973  0.4874103470541327
  0.3990282789029051  0.2491273640988902  0.5724897086985778
  0.2468220126759899  0.2545942085165154  0.5535875263682433
  0.0697351528758306  0.2390391728625925  0.5679555150964607
  0.4062053042043366  0.2499914197182688  0.2310593183195271
  0.2500244505225304  0.2499902801407952  0.1985718842096998
  0.0938188453043214  0.2499999332866169  0.2311227376378159
  0.1545495688489669  0.3749681506542368  0.3144681900606560
 -0.0000727839805335  0.3749791204003075  0.3017340135939237
  0.3455266661179736  0.3750543114801723  0.3147168520789868
  0.4006755112733261  0.3750755177217333  0.4011095372247429
  0.2500337027925680  0.3747740797345643  0.3859641473097943
  0.0992543531432118  0.3746715356316018  0.4004964277120206
  0.1518216985974513  0.3778273359629767  0.4844988333640771
  0.0004686652082188  0.3742365705336592  0.4710622900584026
  0.3484106963838388  0.3767220204943454  0.4866248701265812
  0.4079149779591025  0.3768871550596490  0.5678909101209415
  0.2613292030420999  0.3719935955698891  0.5593406679148797
  0.0930090263984397  0.3619704563532580  0.5635219093430262
  0.4062437458185720  0.3750502335551527  0.2310147971801958
  0.2500255812539820  0.3749191136742699  0.1980776069750414
  0.0937380475055731  0.3749623482692145  0.2309129130815825
  0.1545882825720644  0.0001287834945376  0.3146300885778631
 -0.0000220922138623  0.0000474964801501  0.3018754292499449
  0.3455669527759894 -0.0000117326806239  0.3148969885927225
  0.4011979896765106  0.9997087757059854  0.4014984623486126
  0.2500871230473791  0.9999499098060083  0.3862274997553503
  0.0989583490938338  0.0001034323623925  0.4007812143801708
  0.1512967407754356  0.0005703523148072  0.4862484538321796
  0.0002167228929717  0.0008546602730710  0.4727034302068697
  0.3487208174494578  0.9999147826927868  0.4868758317930933
  0.4030822941998792  0.9989628339419800  0.5705611510378165
  0.2494310354211522  0.0000972023342463  0.5559482142742667
  0.0983643207410876  0.0004422701325831  0.5687825161914760
  0.4062883424838284  0.5000573812773663  0.2310543161575978
  0.2499848356434662  0.5001204651509313  0.1978923180623881
  0.0936719062739762  0.5000460254265064  0.2308112928368593
  0.1542999542671135  0.6252198055564244  0.3143977466341755
 -0.0003140387269416  0.6250924565993613  0.3017804284954243
  0.3453589451809707  0.6252060284464841  0.3148865417544218
  0.4003717489253631  0.6252908070559856  0.4014994198174887
  0.2495776571088349  0.6247381913175434  0.3864084871780251
  0.0988270867008574  0.6248376556574146  0.4006281778246013
  0.1507682940091191  0.6254781763285806  0.4849688621698872
  0.9997958215059678  0.6246618907763863  0.4713707149124131
  0.3474022708035552  0.6259451282736141  0.4869223613473224
  0.3925739588957741  0.6278891732549365  0.5718691938321770
  0.2494121309280802  0.6196005020281043  0.5549602083946066
  0.0900399793818086  0.6181181106662902  0.5658806329532933
  0.4061981438609218  0.6251186627296547  0.2311370796286599
  0.2499847190746291  0.6250744551846718  0.1980933164135083
  0.0936433105671104  0.6250818483783902  0.2308090312738355
  0.1543806435423820  0.7500539957572371  0.3144495981643162
 -0.0002743782149625  0.7500087958953837  0.3018897688429941
  0.3453527268902856  0.7500188047819359  0.3149639993749849
  0.4002311807470530  0.7496071088273345  0.4015169002488059
  0.2494768760945012  0.7504517357399676  0.3862138000037086
  0.0989666304554491  0.7506066222239657  0.4006402379401066
  0.1511358833245718  0.7511156051704942  0.4852091370860640
  0.9996538916698693  0.7506339898105031  0.4707899670090551
  0.3461801016685212  0.7497748079123226  0.4872793005267912
  0.3907588182213681  0.7505996466396798  0.5716790033798382
  0.2471940999059390  0.7556405023209481  0.5562302599013326
  0.0888778600869836  0.7567992805256251  0.5661165687625218
  0.4063015664038002  0.7500253398788231  0.2311756214352445
  0.2500003913598011  0.7501080721835195  0.1980673788162612
  0.0935581878899296  0.7500765671881016  0.2308978294734193
  0.1545786498803860  0.8750793002295136  0.3144849720626283
 -0.0001511342164327  0.8750159942512588  0.3018690009810318
  0.3455427202607548  0.8750722847261032  0.3149169716882924
  0.4009944508824276  0.8749854580688645  0.4015384257429191
  0.2499358717619083  0.8749831437761063  0.3863037420450548
  0.0987999300602483  0.8750408251909726  0.4007580701880179
  0.1520576928763279  0.8773255816172429  0.4850044872077428
  0.0007143479421315  0.8739659936339321  0.4727362333244884
  0.3484545619300645  0.8755086450901961  0.4869079075236002
  0.4047316409008896  0.8758256695371740  0.5697962956039767
  0.2512346641259040  0.8776258545000021  0.5579172510159188
  0.1015494997068854  0.8729567252545114  0.5685956023964076
  0.4063252086904252  0.8750047885674003  0.2311460211714030
  0.2500004734046805  0.8750397912227491  0.1985279946392424
  0.0936816735225348  0.8750493852300909  0.2309793400262019
  0.1545125244741006  0.5001107309435660  0.3143223624660622
 -0.0001831402558324  0.5001031622125039  0.3016101190204186
  0.3454732440041532  0.4999923667483643  0.3147596631960800
  0.4006909769021594  0.5000506968130022  0.4010887110371343
  0.2497664251591200  0.5006550561768821  0.3862067344810496
  0.0990608031023888  0.5007386768199634  0.4003343287951589
  0.1510123584853959  0.4996195994595800  0.4845317747675020
  0.0002597658764649  0.5004249598999927  0.4713936065137165
  0.3483598944795630  0.4990388696597728  0.4860272398649049
  0.4042122487914440  0.4988248189011447  0.5681015981909751
  0.2535320392467459  0.5038309811225604  0.5546752593396681
  0.0920256630874565  0.5033151520425551  0.5659407785634393
  0.9061552388466959  0.0000496439324984  0.2310681562251653
  0.7498535942922041 -0.0000098643515374  0.1982625189780572
  0.5937181172198250  0.0000112901509826  0.2311833480888019
  0.6545848109321152  0.1250373105532496  0.3148292286750141
  0.4999426636429173  0.1250507188417770  0.3020574076061051
  0.8455831633923052  0.1250480459724553  0.3148478545409953
  0.9008521109072949  0.1252941882285286  0.4014560617685883
  0.7502940794777931  0.1251691364091960  0.3863038369617023
  0.5988541176132800  0.1253275591693525  0.4010452168514470
  0.6514798583123508  0.1214089014419559  0.4856362292016726
  0.5007275462664272  0.1245168646294905  0.4726626678348571
  0.8490582589419093  0.1245470473853019  0.4872851493886399
  0.9036720632891534  0.1210216471445555  0.5697939241240272
  0.7525652445039263  0.1227282190488617  0.5590292683832935
  0.5829180231498579  0.1174279020835771  0.5668937683773071
  0.9061967732227829  0.1250050822751431  0.2310869833301925
  0.7499363820223641  0.1250678880532325  0.1984612571267629
  0.5937168626996577  0.1250122848992707  0.2311813884484049
  0.6545764203904837  0.2498723962668602  0.3148079657811285
  0.4999105232794885  0.2499944986588343  0.3020558193737054
  0.8456157213958336  0.2499209571983286  0.3147590032832220
  0.9006265835471436  0.2497932532482834  0.4014573266954719
  0.7502119988936971  0.2500487148935979  0.3866786517312343
  0.5983978023911165  0.2498690260979399  0.4011041907420973
  0.6496048608379407  0.2513680593292104  0.4848232478245918
  0.5005987238422304  0.2498514775620003  0.4720596481963578
  0.8491453135956689  0.2496697855154302  0.4872811326632512
  0.8987454814718716  0.2488614964376555  0.5724702569488730
  0.7460519778602480  0.2543449530308490  0.5532191842267075
  0.5701899512624734  0.2406943760971567  0.5677885457880543
  0.9062039346452254  0.2499450169970271  0.2309901077218704
  0.7499086310800807  0.2499386919450818  0.1985672390247596
  0.5937161885357285  0.2499330864834161  0.2311651585761149
  0.6545721608877341  0.3749101859341317  0.3145576029275408
  0.4999118707475513  0.3749636694047639  0.3018108412841173
  0.8455846689391893  0.3749917880254995  0.3146343300471471
  0.9008815293566882  0.3749471295404851  0.4010482747497798
  0.7501962536344465  0.3745170878078466  0.3860465960658882
  0.5991122476752989  0.3743454600931606  0.4004201851583837
  0.6519195066053038  0.3774208738096487  0.4841692452965145
  0.5000758456814426  0.3742999831930464  0.4711108877094357
  0.8491993992167881  0.3762457038336523  0.4866727289209214
  0.9098351244555949  0.3756453026089578  0.5680328837137110
  0.7618265221301858  0.3725710542770492  0.5590435404646831
  0.5928828250917164  0.3649221631974230  0.5632068069120332
  0.9061966948510580  0.3750225132905338  0.2309125658017557
  0.7497687042762977  0.3748777150306006  0.1979383525741889
  0.5936514342367734  0.3749393975576111  0.2310397057947506
  0.6546370738169567  0.0000201071031592  0.3147657645664158
  0.4999906682122898  0.0000197477717113  0.3019572718926141
  0.8455504262918793  0.0000130667180045  0.3148319724518667
  0.9010727731488861  0.0000220751211614  0.4013334851758101
  0.7501265382064739  0.9999481242762002  0.3863003248424422
  0.5989564790273679  0.9999269546154332  0.4009439599175371
  0.6514195898448009  0.0006188820075790  0.4861928423874940
  0.5001788171115480  0.0002100326754217  0.4731520844244470
  0.8490690541565536  0.0001452368389335  0.4869752370011122
  0.9034524254337420  0.9994273326607950  0.5708189320484345
  0.7499147174389118  0.0003063821813188  0.5560020709724206
  0.5985007315141159  0.0000414473102796  0.5685911303122597
  0.9060574882204718  0.4999772250111398  0.2308619836268007
  0.7496585426518544  0.5000993815051336  0.1981000768290239
  0.5936766882381608  0.5001005643501792  0.2311274436083694
  0.6542571514614330  0.6251062208865217  0.3151483352932595
  0.4997551140313859  0.6250488553522916  0.3021861973428927
  0.8452716206174424  0.6250932079613245  0.3147854467932657
  0.9003508659563141  0.6250747331380084  0.4011036839954411
  0.7498007570112923  0.6248729873305588  0.3869988760791476
  0.5982451879399731  0.6246698020245034  0.4016955614376727
  0.6491001088574246  0.6244472821338236  0.4859867383949502
  0.4994314476860470  0.6247520494757295  0.4726714115083685
  0.8490993814470801  0.6241703173845458  0.4869519418835316
  0.9076203408492537  0.6246491161631850  0.5699437169255949
  0.7496982388388389  0.6197790097755989  0.5531752332002327
  0.5634704268604296  0.6279939636981779  0.5703727880781991
  0.9059567109752890  0.6250843786415392  0.2309499767472450
  0.7496279046862201  0.6250960315424141  0.1984764224685979
  0.5936288651348980  0.6251092696861352  0.2313494588248930
  0.6542930731976369  0.7498873315242591  0.3151690222512859
  0.4997609233514866  0.7499710012258087  0.3022358374901951
  0.8452368654421489  0.7499569694925853  0.3148943240440212
  0.9002601653743150  0.7498613487556658  0.4011811766513360
  0.7497075525638885  0.7499276006366125  0.3869403842991885
  0.5982459310879117  0.7499461669633195  0.4015161037205671
  0.6488684913440346  0.7498853577023190  0.4855080175186042
  0.4994249908807712  0.7496566493872052  0.4723528195400510
  0.8482164092406328  0.7503208043151003  0.4873999222018618
  0.9035468974813693  0.7514164712084589  0.5697868593694277
  0.7473838254167576  0.7560019466174616  0.5537494273449229
  0.5611523476274070  0.7441802508656075  0.5700722545474731
  0.9059445163526435  0.7500673080618289  0.2310586924348540
  0.7496628012522646  0.7500119309821557  0.1987520439683548
  0.5936178910526677  0.7499785629310686  0.2314124454186275
  0.6545819201399334  0.8748601767253981  0.3148907238378878
  0.4999114721142894  0.8749473251152946  0.3021575471496118
  0.8454665358270305  0.8749576646674309  0.3148358886242434
  0.9008657753455102  0.8748373775138940  0.4014806104260459
  0.7501653622653118  0.8750301370526727  0.3863182989733588
  0.5988163776402751  0.8748269576774680  0.4011412554613287
  0.6531543699724480  0.8790936133443364  0.4846441170972814
  0.5009800680987709  0.8733584407625145  0.4739857348104901
  0.8496041462163361  0.8753828802689155  0.4873914831371344
  0.9070407636232466  0.8756943719670552  0.5702897965787792
  0.7541628021556678  0.8784409913923026  0.5589037931813555
  0.6002792689881935  0.8722069169381307  0.5672509889147679
  0.9060820915293373  0.8750143577724254  0.2310680297367473
  0.7497714941619997  0.8749937368368967  0.1984398905389657
  0.5936895337546561  0.8749129543225037  0.2313101428487276
  0.6544872388064570  0.5001582411790437  0.3147391063309806
  0.4999118226029570  0.5000745770325462  0.3019125001135595
  0.8454237362142804  0.5000271653505085  0.3145942380977251
  0.9008158881130146  0.4999055666731131  0.4010109135095936
  0.7501455304030415  0.5003004991458555  0.3861626005318040
  0.5990155820227628  0.5006334329810991  0.4007326213311636
  0.6525579962176306  0.4967326926736563  0.4846578869988075
  0.4997936952680357  0.5003052285468941  0.4714399651610693
  0.8499778601791370  0.4984954122848093  0.4868857345700406
  0.9122416928928201  0.4969894273922585  0.5694345473499508
  0.7644146494591934  0.5029990213098443  0.5595678323487057
  0.5903485087872242  0.5091154133315806  0.5628512649300684
  0.9971361732282813  0.1156958982925365  0.5392260177664342
  0.1947115454688436  0.1883104651409004  0.5275730849377942
  0.9971990730195689  0.3651083220476535  0.5372070223602373
  0.1139975809251741  0.4332989475049396  0.5381338293804721
  0.9978853259620711  0.6180819520989005  0.5377058361646712
  0.1147140001901756  0.6877072929289751  0.5395188357672057
  0.4975739190390821  0.1151949003846585  0.5395534532394191
  0.6942005492133673  0.1877627744842906  0.5271660850933079
  0.4964640620817486  0.3678668664868294  0.5375596863168358
  0.6113330625296393  0.4372914820687904  0.5377680210252328
  0.4875874071857745  0.6258793536493140  0.5407328092432341
  0.6996423613173326  0.6869202979605817  0.5298777886140986
  0.9925832539665992  0.2485003814312028  0.5399232122858343
  0.1868739946043857  0.3189802125092288  0.5351987280015391
  0.1785508978090160  0.5610851318610197  0.5367755642797550
  0.9952109600991261  0.7566247772733242  0.5371946101972734
  0.1717650720377600  0.8125977461990151  0.5365879995998188
  0.9986251215341621  0.5054073817177087  0.5384503776046041
  0.4929870494956114  0.2496868405458575  0.5398418582427313
  0.6871047973741671  0.3194357308265356  0.5350681654426135
  0.6893195509834220  0.5555164199427699  0.5342405095142524
  0.4847823484096535  0.7510808472603726  0.5400086107464127
  0.6834992419151877  0.8167010403982562  0.5325497137213984
  0.4942642694409219  0.5043925431677402  0.5379095595724609
 
  0.00000000E+00  0.00000000E+00  0.00000000E+00
  0.00000000E+00  0.00000000E+00  0.00000000E+00
  0.00000000E+00  0.00000000E+00  0.00000000E+00
  0.00000000E+00  0.00000000E+00  0.00000000E+00
  0.00000000E+00  0.00000000E+00  0.00000000E+00
  0.00000000E+00  0.00000000E+00  0.00000000E+00
  0.00000000E+00  0.00000000E+00  0.00000000E+00
  0.00000000E+00  0.00000000E+00  0.00000000E+00