generated by phonopy                    
   1.00000000000000     
     5.1934722928063533    0.0000000000000000   -0.0000000000000000
    -2.5967361464031766    4.4976789394209158    0.0000000000000000
     0.0000000000000000    0.0000000000000000    8.5826603597188971
   B    N    Ga
    15    16     1
Direct
  0.1669611467773682  0.3330388532226319  0.0072882289007688
  0.6660777064452780  0.3330388532226319  0.0072882289007688
  0.1669611467773682  0.8339222935547220  0.0072882289007688
  0.6666666666666714  0.8333333333333286  0.0088957986083704
  0.1628561984695982  0.3371438015304017  0.5008416018468652
  0.6742876030608176  0.3371438015304017  0.5008416018468652
  0.1628561984695982  0.8257123969391824  0.5008416018468652
  0.3333333333333286  0.1666666666666714  0.2539614353746062
  0.8364727068550605  0.1729454137101352  0.2519752756727322
  0.3270545862898649  0.6635272931449395  0.2519752756727322
  0.8364727068550605  0.6635272931449395  0.2519752756727322
  0.3333333333333286  0.1666666666666714  0.7547355159724684
  0.8349388324226549  0.1698776648453239  0.7646925040426485
  0.3301223351546763  0.6650611675773451  0.7646925040426485
  0.8349388324226549  0.6650611675773451  0.7646925040426485
  0.3333333333333286  0.1666666666666714  0.9420389948325619
  0.8353191105166019  0.1706382210332180  0.9480346794847394
  0.3293617789667820  0.6646808894833981  0.9480346794847394
  0.8353191105166019  0.6646808894833981  0.9480346794847394
  0.3333333333333286  0.1666666666666714  0.4409235518249550
  0.8511537562696366  0.2023075125392877  0.4318972167671704
  0.2976924874607121  0.6488462437303634  0.4318972167671704
  0.8511537562696366  0.6488462437303634  0.4318972167671704
  0.1676489451250369  0.3323510548749631  0.1901175149178615
  0.6647021097499405  0.3323510548749631  0.1901175149178615
  0.1676489451250369  0.8352978902500595  0.1901175149178615
  0.6666666666666714  0.8333333333333286  0.1943252660728560
  0.1660074881837802  0.3339925118162196  0.6937313400043585
  0.6679850236324535  0.3339925118162196  0.6937313400043585
  0.1660074881837802  0.8320149763675465  0.6937313400043585
  0.6666666666666714  0.8333333333333286  0.7255046525847981
  0.6666666666666714  0.8333333333333286  0.5138796998179956
 
  0.00000000E+00  0.00000000E+00  0.00000000E+00
  0.00000000E+00  0.00000000E+00  0.00000000E+00
  0.00000000E+00  0.00000000E+00  0.00000000E+00
  0.00000000E+00  0.00000000E+00  0.00000000E+00
  0.00000000E+00  0.00000000E+00  0.00000000E+00
  0.00000000E+00  0.00000000E+00  0.00000000E+00
  0.00000000E+00  0.00000000E+00  0.00000000E+00
  0.00000000E+00  0.00000000E+00  0.00000000E+00
  0.00000000E+00  0.00000000E+00  0.00000000E+00
  0.00000000E+00  0.00000000E+00  0.00000000E+00
  0.00000000E+00  0.00000000E+00  0.00000000E+00
  0.00000000E+00  0.00000000E+00  0.00000000E+00
  0.00000000E+00  0.00000000E+00  0.00000000E+00
  0.00000000E+00  0.00000000E+00  0.00000000E+00
  0.00000000E+00  0.00000000E+00  0.00000000E+00
  0.00000000E+00  0.00000000E+00  0.00000000E+00
  0.00000000E+00  0.00000000E+00  0.00000000E+00
  0.00000000E+00  0.00000000E+00  0.00000000E+00
  0.00000000E+00  0.00000000E+00  0.00000000E+00
  0.00000000E+00  0.00000000E+00  0.00000000E+00
  0.00000000E+00  0.00000000E+00  0.00000000E+00
  0.00000000E+00  0.00000000E+00  0.00000000E+00
  0.00000000E+00  0.00000000E+00  0.00000000E+00
  0.00000000E+00  0.00000000E+00  0.00000000E+00
  0.00000000E+00  0.00000000E+00  0.00000000E+00
  0.00000000E+00  0.00000000E+00  0.00000000E+00
  0.00000000E+00  0.00000000E+00  0.00000000E+00
  0.00000000E+00  0.00000000E+00  0.00000000E+00
  0.00000000E+00  0.00000000E+00  0.00000000E+00
  0.00000000E+00  0.00000000E+00  0.00000000E+00
  0.00000000E+00  0.00000000E+00  0.00000000E+00
  0.00000000E+00  0.00000000E+00  0.00000000E+00
