generated by phonopy
1.0000000000000
     5.1091071242756270    0.0000000000000000    0.0000000000000000
    -2.5545535621378135    4.4246165602787520    0.0000000000000000
     0.0000000000000000    0.0000000000000000    8.0072801800324335
B    N    Ga
15   16   1
Direct
  0.1666666666666679  0.3333333333333321  0.0000000000000000
  0.6666666666666679  0.3333333333333321  0.0000000000000000
  0.1666666666666679  0.8333333333333321  0.0000000000000000
  0.6666666666666679  0.8333333333333321  0.0000000000000000
  0.1666666666666679  0.3333333333333321  0.5000000000000000
  0.6666666666666679  0.3333333333333321  0.5000000000000000
  0.1666666666666679  0.8333333333333321  0.5000000000000000
  0.3333333333333321  0.1666666666666679  0.2500000000000000
  0.8333333333333321  0.1666666666666679  0.2500000000000000
  0.3333333333333321  0.6666666666666679  0.2500000000000000
  0.8333333333333321  0.6666666666666679  0.2500000000000000
  0.3333333333333321  0.1666666666666679  0.7500000000000000
  0.8333333333333321  0.1666666666666679  0.7500000000000000
  0.3333333333333321  0.6666666666666679  0.7500000000000000
  0.8333333333333321  0.6666666666666679  0.7500000000000000
  0.3333333333333321  0.1666666666666679  0.9500000000000000
  0.8333333333333321  0.1666666666666679  0.9500000000000000
  0.3333333333333321  0.6666666666666679  0.9500000000000000
  0.8333333333333321  0.6666666666666679  0.9500000000000000
  0.3333333333333321  0.1666666666666679  0.4500000000000000
  0.8333333333333321  0.1666666666666679  0.4500000000000000
  0.3333333333333321  0.6666666666666679  0.4500000000000000
  0.8333333333333321  0.6666666666666679  0.4500000000000000
  0.1666666666666679  0.3333333333333321  0.2000000000000000
  0.6666666666666679  0.3333333333333321  0.2000000000000000
  0.1666666666666679  0.8333333333333321  0.2000000000000000
  0.6666666666666679  0.8333333333333321  0.2000000000000000
  0.1666666666666679  0.3333333333333321  0.7000000000000000
  0.6666666666666679  0.3333333333333321  0.7000000000000000
  0.1666666666666679  0.8333333333333321  0.7000000000000000
  0.6666666666666679  0.8333333333333321  0.7000000000000000
  0.6666666666666679  0.8333333333333321  0.5000000000000000
