Ta  N Ru Cu                             
   1.00000000000000     
    18.1096308199999996    0.0000000000000000    0.0000000000000000
     0.0000000000000000   23.3551997799999995    0.0000000000000000
     0.0000000000000000    0.0000000000000000   30.4818171199999988
   Ta   N    Ru   Cu
   216   240    24    29
Selective dynamics
Direct
  0.0000000000000000  0.9999830748208893  0.1973415401966889   F   F   F
  0.3340836453085174  0.0625456427909796  0.2025671507649847   F   F   F
  0.1659163254252860  0.0625456427909796  0.2025671507649847   F   F   F
  0.2499999997239044  0.1249264343318970  0.2780286427457455   F   F   F
  0.0827651805981162  0.0624885323955127  0.2838652795942167   F   F   F
  0.4172348194018838  0.0624885323955127  0.2838652795942167   F   F   F
  0.0015670549023782  0.1270750472021906  0.3695025837584590   T   T   T
  0.3351025198732643  0.0635468145704140  0.3701279629327369   T   T   T
  0.1717890350645602  0.0624068828461846  0.3685603279261606   T   T   T
  0.2547404084888488  0.1262139455457686  0.4612714127978420   T   T   T
  0.0871618618582338  0.0623706473551223  0.4535175877143794   T   T   T
  0.4178886021651614  0.0635835708617411  0.4588583768051357   T   T   T
  0.0093463389261363  0.1293013809215927  0.5458109794762662   T   T   T
  0.0000000000000000  0.1250597901973052  0.1972695212644311   F   F   F
  0.3340101687179526  0.1875125968246536  0.2025194439736353   F   F   F
  0.1659898020158508  0.1875125968246536  0.2025194439736353   F   F   F
  0.2499999997239044  0.2501643478293474  0.2779548773134195   F   F   F
  0.0824959421597526  0.1874754613012257  0.2839355728384874   F   F   F
  0.4175040578402474  0.1874754613012257  0.2839355728384874   F   F   F
  0.0062161025343768  0.2463869667096943  0.3703417336096874   T   T   T
  0.3343689591705680  0.1883721841311523  0.3686606573596161   T   T   T
  0.1710405155695542  0.1864456393334065  0.3689140667422878   T   T   T
  0.2484416583844298  0.2486283256758930  0.4567168410019574   T   T   T
  0.0898156385363847  0.1889176230831243  0.4541412556649858   T   T   T
  0.4127872080126455  0.1910250990015302  0.4537469862386441   T   T   T
  0.3474324674091203  0.1945700605637345  0.5474155623788691   T   T   T
  0.1658530228387936  0.1868562781767101  0.5447433462790131   T   T   T
  0.0000000000000000  0.2499830750349759  0.1973415401966889   F   F   F
  0.3340836453085174  0.3125456425769002  0.2025671507649847   F   F   F
  0.1659163254252860  0.3125456425769002  0.2025671507649847   F   F   F
  0.2499999997239044  0.3749264345459835  0.2780286427457455   F   F   F
  0.0827651805981162  0.3124885321814332  0.2838652795942167   F   F   F
  0.4172348194018838  0.3124885321814332  0.2838652795942167   F   F   F
  0.0030721098788377  0.3734878536347319  0.3679136467732110   T   T   T
  0.3352489850942019  0.3134380343894034  0.3684217147197142   T   T   T
  0.1706075446647006  0.3091680505033232  0.3659060277337925   T   T   T
  0.2490732892615730  0.3777468143941594  0.4567095814900300   T   T   T
  0.0900434888680542  0.3150976346415611  0.4576566216386048   T   T   T
  0.4183657103475830  0.3151310850185954  0.4552594872404501   T   T   T
  0.9934021228874533  0.3833641976198048  0.5437122938389604   T   T   T
  0.0000000000000000  0.3750597904113917  0.1972695212644311   F   F   F
  0.3340101687179526  0.4375125970387401  0.2025194439736353   F   F   F
  0.1659898020158508  0.4375125970387401  0.2025194439736353   F   F   F
  0.2499999997239044  0.0001643476152609  0.2779548773134195   F   F   F
  0.0824959421597526  0.4374754615153122  0.2839355728384874   F   F   F
  0.4175040578402474  0.4374754615153122  0.2839355728384874   F   F   F
  0.9978195249058522  0.9975499636371840  0.3705162589515221   T   T   T
  0.3334444984775190  0.4384647413485083  0.3663765294219296   T   T   T
  0.1681164358068637  0.4345593891142335  0.3675515335535336   T   T   T
  0.2538147079804857  0.9994592528257422  0.4608509359202687   T   T   T
  0.0882310683963667  0.4383193920644411  0.4556640322777523   T   T   T
  0.4211026453903103  0.4387332057180524  0.4527742097230501   T   T   T
  0.3318121691048440  0.4443477953854823  0.5442167368974204   T   T   T
  0.1627413243048521  0.4441443955883471  0.5418719267631140   T   T   T
  0.0000000000000000  0.4999830748208893  0.1973415401966889   F   F   F
  0.3340836453085174  0.5625456427909796  0.2025671507649847   F   F   F
  0.1659163254252860  0.5625456427909796  0.2025671507649847   F   F   F
  0.2499999997239044  0.6249264343318970  0.2780286427457455   F   F   F
  0.0827651805981162  0.5624885323955127  0.2838652795942167   F   F   F
  0.4172348194018838  0.5624885323955127  0.2838652795942167   F   F   F
  0.0033638226014704  0.6239762604040210  0.3687852245072998   T   T   T
  0.3342191737594596  0.5618344876237433  0.3677326756811355   T   T   T
  0.1674372296578539  0.5577813237831101  0.3671924415408684   T   T   T
  0.2503789685645040  0.6284738795440967  0.4516124705546416   T   T   T
  0.0885893862790463  0.5612943294575975  0.4540563644558522   T   T   T
  0.4169800110416739  0.5614448360063337  0.4558028460552401   T   T   T
  0.0090659353224189  0.6283138842311450  0.5435294455656038   T   T   T
  0.0000000000000000  0.6250597901973052  0.1972695212644311   F   F   F
  0.3340101687179526  0.6875125968246536  0.2025194439736353   F   F   F
  0.1659898020158508  0.6875125968246536  0.2025194439736353   F   F   F
  0.2499999997239044  0.7501643478293474  0.2779548773134195   F   F   F
  0.0824959421597526  0.6874754613012257  0.2839355728384874   F   F   F
  0.4175040578402474  0.6874754613012257  0.2839355728384874   F   F   F
  0.9977683777237926  0.7523531334719072  0.3677917844572105   T   T   T
  0.3325809082547073  0.6858846268541304  0.3676541092321715   T   T   T
  0.1681372380766793  0.6866107350892853  0.3690358037425307   T   T   T
  0.2502520943950967  0.7478444766323821  0.4551280530120463   T   T   T
  0.0798196406047990  0.6834820623651020  0.4542319635179852   T   T   T
  0.4181944464838125  0.6872529978952440  0.4528972897403510   T   T   T
  0.3292391509838612  0.6813700680845056  0.5415845262793412   T   T   T
  0.1662933398783857  0.6772790714012001  0.5403298722728501   T   T   T
  0.0000000000000000  0.7499830750349759  0.1973415401966889   F   F   F
  0.3340836453085174  0.8125456425769002  0.2025671507649847   F   F   F
  0.1659163254252860  0.8125456425769002  0.2025671507649847   F   F   F
  0.2499999997239044  0.8749264345459835  0.2780286427457455   F   F   F
  0.0827651805981162  0.8124885321814332  0.2838652795942167   F   F   F
  0.4172348194018838  0.8124885321814332  0.2838652795942167   F   F   F
  0.9997523361905870  0.8750697711260215  0.3687665971714978   T   T   T
  0.3383902813083369  0.8140045480563188  0.3690305485364432   T   T   T
  0.1734204605581227  0.8150769614928941  0.3670860385626240   T   T   T
  0.2589958369304919  0.8786133626199132  0.4581342654914557   T   T   T
  0.0908031081902830  0.8093738356551722  0.4520805837801575   T   T   T
  0.4233133672111312  0.8105027018702678  0.4572249995556776   T   T   T
  0.9959291497653090  0.8780163710570015  0.5457825103283037   T   T   T
  0.0000000000000000  0.8750597904113917  0.1972695212644311   F   F   F
  0.3340101687179526  0.9375125970387401  0.2025194439736353   F   F   F
  0.1659898020158508  0.9375125970387401  0.2025194439736353   F   F   F
  0.2499999997239044  0.5001643476152609  0.2779548773134195   F   F   F
  0.0824959421597526  0.9374754615153122  0.2839355728384874   F   F   F
  0.4175040578402474  0.9374754615153122  0.2839355728384874   F   F   F
  0.9990533667454898  0.5000158113693794  0.3712683308042779   T   T   T
  0.3358879799971394  0.9385533630462036  0.3687462854839366   T   T   T
  0.1695448254238799  0.9391845058867621  0.3699338490418890   T   T   T
  0.2528806377667604  0.4989212766291132  0.4526350348408115   T   T   T
  0.0800175943661820  0.9367600619941939  0.4502316110366108   T   T   T
  0.4159664880775160  0.9378009501956026  0.4521801674866714   T   T   T
  0.3486806636148250  0.9289909723800354  0.5440600211420994   T   T   T
  0.1690258107650928  0.9273336359999148  0.5445604110764309   T   T   T
  0.5000000000000000  0.9999830748208893  0.1973415401966889   F   F   F
  0.8340836447563262  0.0625456427909796  0.2025671507649847   F   F   F
  0.6659163254252860  0.0625456427909796  0.2025671507649847   F   F   F
  0.7499999997239044  0.1249264343318970  0.2780286427457455   F   F   F
  0.5827651805981162  0.0624885323955127  0.2838652795942167   F   F   F
  0.9172348194018838  0.0624885323955127  0.2838652795942167   F   F   F
  0.4978227194562135  0.1271647015477649  0.3726815053384641   T   T   T
  0.8312330998565411  0.0647787428393706  0.3699353050784316   T   T   T
  0.6638246729957534  0.0611233040242625  0.3696749201628266   T   T   T
  0.7580384954882173  0.1317545885582565  0.4612714460146661   T   T   T
  0.5799759041784602  0.0650353435230937  0.4553744240697619   T   T   T
  0.9227025190694773  0.0630898428922814  0.4559289009746341   T   T   T
  0.5015036630823178  0.1302188917357939  0.5422857286157596   T   T   T
  0.5000000000000000  0.1250597901973052  0.1972695212644311   F   F   F
  0.8340101681657615  0.1875125968246536  0.2025194439736353   F   F   F
  0.6659898020158508  0.1875125968246536  0.2025194439736353   F   F   F
  0.7499999997239044  0.2501643478293474  0.2779548773134195   F   F   F
  0.5824959421597526  0.1874754613012257  0.2839355728384874   F   F   F
  0.9175040578402474  0.1874754613012257  0.2839355728384874   F   F   F
  0.5034816773705406  0.2513535904131723  0.3685207565087331   T   T   T
  0.8309095260893588  0.1899668513110649  0.3719934627336657   T   T   T
  0.6719771961578253  0.1904558628125556  0.3682425555997593   T   T   T
  0.7548471941665067  0.2581267551714339  0.4594219275315373   T   T   T
  0.5830925580494462  0.1909946845533550  0.4534044651385413   T   T   T
  0.9258635717147420  0.1870695404178721  0.4527624593882661   T   T   T
  0.8540133147873828  0.1835458460415767  0.5484644203265662   T   T   T
  0.6579803039959954  0.1913220068892295  0.5436551142999438   T   T   T
  0.5000000000000000  0.2499830750349759  0.1973415401966889   F   F   F
  0.8340836447563262  0.3125456425769002  0.2025671507649847   F   F   F
  0.6659163254252860  0.3125456425769002  0.2025671507649847   F   F   F
  0.7499999997239044  0.3749264345459835  0.2780286427457455   F   F   F
  0.5827651805981162  0.3124885321814332  0.2838652795942167   F   F   F
  0.9172348194018838  0.3124885321814332  0.2838652795942167   F   F   F
  0.4972373243306784  0.3735869950751159  0.3717253325976442   T   T   T
  0.8350176460061419  0.3136359478278860  0.3683744754836168   T   T   T
  0.6665762450825619  0.3133934155586472  0.3668197334745956   T   T   T
  0.7535831296067219  0.3791815908108602  0.4607049932858927   T   T   T
  0.5884823368529235  0.3147204583694522  0.4521898296628106   T   T   T
  0.9222386412814024  0.3115518339570101  0.4573552029330433   T   T   T
  0.4978234092632196  0.3814389052533846  0.5400085400614293   T   T   T
  0.5000000000000000  0.3750597904113917  0.1972695212644311   F   F   F
  0.8340101681657615  0.4375125970387401  0.2025194439736353   F   F   F
  0.6659898020158508  0.4375125970387401  0.2025194439736353   F   F   F
  0.7499999997239044  0.0001643476152609  0.2779548773134195   F   F   F
  0.5824959421597526  0.4374754615153122  0.2839355728384874   F   F   F
  0.9175040578402474  0.4374754615153122  0.2839355728384874   F   F   F
  0.4982323304547526  0.9998770397655132  0.3730994301048939   T   T   T
  0.8328362408478877  0.4390500496503609  0.3692853131760489   T   T   T
  0.6654261344121447  0.4367950890413703  0.3675473063647940   T   T   T
  0.7508205926895850  0.0075796321281189  0.4581258136666547   T   T   T
  0.5862361489796437  0.4391248132982843  0.4524100731095219   T   T   T
  0.9214658765341177  0.4412194086092188  0.4538222953354130   T   T   T
  0.8385388398036052  0.4443343216377407  0.5409530497925544   T   T   T
  0.6566277994648004  0.4441480878376808  0.5425996485001154   T   T   T
  0.5000000000000000  0.4999830748208893  0.1973415401966889   F   F   F
  0.8340836447563262  0.5625456427909796  0.2025671507649847   F   F   F
  0.6659163254252860  0.5625456427909796  0.2025671507649847   F   F   F
  0.7499999997239044  0.6249264343318970  0.2780286427457455   F   F   F
  0.5827651805981162  0.5624885323955127  0.2838652795942167   F   F   F
  0.9172348194018838  0.5624885323955127  0.2838652795942167   F   F   F
  0.4998421403675300  0.6247837674375313  0.3699249483728113   T   T   T
  0.8339241696709965  0.5605488821487790  0.3702476464935520   T   T   T
  0.6671399804145489  0.5643716374531582  0.3690950493653731   T   T   T
  0.7561071995079764  0.6285945995069088  0.4564174617750696   T   T   T
  0.5857729692181348  0.5609637516996389  0.4543794936133869   T   T   T
  0.9211731764107635  0.5648860145188582  0.4539414626253423   T   T   T
  0.4951028247219020  0.6273086283069490  0.5406260302904545   T   T   T
  0.5000000000000000  0.6250597901973052  0.1972695212644311   F   F   F
  0.8340101681657615  0.6875125968246536  0.2025194439736353   F   F   F
  0.6659898020158508  0.6875125968246536  0.2025194439736353   F   F   F
  0.7499999997239044  0.7501643478293474  0.2779548773134195   F   F   F
  0.5824959421597526  0.6874754613012257  0.2839355728384874   F   F   F
  0.9175040578402474  0.6874754613012257  0.2839355728384874   F   F   F
  0.4941380565431452  0.7499302465795495  0.3680998263830627   T   T   T
  0.8334055817907871  0.6899186676650390  0.3680404735491407   T   T   T
  0.6691426003218693  0.6862363507903668  0.3679416197276976   T   T   T
  0.7452722306354401  0.7492490647103337  0.4551831677611458   T   T   T
  0.5836039938773877  0.6869781551155244  0.4528911381328148   T   T   T
  0.9173453782149075  0.6901685781167042  0.4547001549871729   T   T   T
  0.8337807306595150  0.6830302034258828  0.5395332877353083   T   T   T
  0.6666589842099701  0.6735050732055263  0.5413601176457042   T   T   T
  0.5000000000000000  0.7499830750349759  0.1973415401966889   F   F   F
  0.8340836447563262  0.8125456425769002  0.2025671507649847   F   F   F
  0.6659163254252860  0.8125456425769002  0.2025671507649847   F   F   F
  0.7499999997239044  0.8749264345459835  0.2780286427457455   F   F   F
  0.5827651805981162  0.8124885321814332  0.2838652795942167   F   F   F
  0.9172348194018838  0.8124885321814332  0.2838652795942167   F   F   F
  0.4978032037629240  0.8764173643864454  0.3710447988764119   T   T   T
  0.8305384539941866  0.8139561643787155  0.3679219938882300   T   T   T
  0.6623242733873754  0.8136853908801338  0.3687672717338326   T   T   T
  0.7533181320317569  0.8765712473617759  0.4559191996787010   T   T   T
  0.5900933290324256  0.8083606293777003  0.4555576193994299   T   T   T
  0.9125067189097849  0.8143709876955058  0.4561836279381161   T   T   T
  0.5199143235958128  0.8571915542382841  0.5481092383316641   T   T   T
  0.5000000000000000  0.8750597904113917  0.1972695212644311   F   F   F
  0.8340101681657615  0.9375125970387401  0.2025194439736353   F   F   F
  0.6659898020158508  0.9375125970387401  0.2025194439736353   F   F   F
  0.7499999997239044  0.5001643476152609  0.2779548773134195   F   F   F
  0.5824959421597526  0.9374754615153122  0.2839355728384874   F   F   F
  0.9175040578402474  0.9374754615153122  0.2839355728384874   F   F   F
  0.4977636740721641  0.5008592702634788  0.3712854408215415   T   T   T
  0.8280305702806142  0.9381144865771132  0.3692543707405227   T   T   T
  0.6686789291213124  0.9395116297393586  0.3696062054365197   T   T   T
  0.7575567151491858  0.4958709833796420  0.4580619652058522   T   T   T
  0.5828772909872847  0.9365228306639400  0.4536504764137635   T   T   T
  0.9197477524993980  0.9383249827067603  0.4534976383920393   T   T   T
  0.8330299398798444  0.9340888922052258  0.5436774090523073   T   T   T
  0.6569469853828617  0.9475957099118487  0.5418684760816607   T   T   T
  0.4056069474266053  0.9999373616505167  0.2321734907340058   F   F   F
  0.2499999997239044  0.0000513587277524  0.1992858819354737   F   F   F
  0.0943930525733947  0.9999373616505167  0.2321734907340058   F   F   F
  0.1547082680068357  0.1251230653872994  0.3157550047969764   F   F   F
  0.0000000000000000  0.1248851797808541  0.3029475127512455   F   F   F
  0.3452917319931643  0.1251230653872994  0.3157550047969764   F   F   F
  0.3993272909252495  0.1264618963110717  0.4064764399801348   T   T   T
  0.2526026775105299  0.1226351122461939  0.3880198789485889   T   T   T
  0.0974525179546118  0.1252335806534415  0.4033887444602837   T   T   T
  0.1582517497012964  0.1231353182909353  0.4901087493704588   T   T   T
  0.0054787104616419  0.1232572446089060  0.4740305494109653   T   T   T
  0.3566564032888307  0.1316602683111421  0.4890811930561674   T   T   T
  0.4093687110792214  0.1360461003457998  0.5708317710592440   T   T   T
  0.2525472581519054  0.0568045141039510  0.5152939944745638   T   T   T
  0.0989815578944477  0.1284604117410195  0.5762275237149423   T   T   T
  0.4056495225775905  0.1250779796458588  0.2321437934505610   F   F   F
  0.2499999997239044  0.1250070554064280  0.1993925282839726   F   F   F
  0.0943504774224095  0.1250779796458588  0.2321437934505610   F   F   F
  0.1547523877655834  0.2498547720176418  0.3156484410005831   F   F   F
  0.0000000000000000  0.2500770228524942  0.3028264942509225   F   F   F
  0.3452476122344166  0.2498547720176418  0.3156484410005831   F   F   F
  0.4004971445229637  0.2482447208886448  0.4008138828966193   T   T   T
  0.2524800549615583  0.2492245190061127  0.3898948408663301   T   T   T
  0.1051438236217102  0.2513927879718185  0.4039687333648205   T   T   T
  0.1572368264342969  0.2473346102604552  0.4918688325558361   T   T   T
  0.0024304874574699  0.2503888034872417  0.4730994780680897   T   T   T
  0.3507993014462074  0.2539534351108531  0.4892713208086713   T   T   T
  0.4216407596904168  0.2541701983481698  0.5764271535976689   T   T   T
  0.2558270382157476  0.2167716507317836  0.5796682229912139   T   T   T
  0.0958215472132095  0.2426051808981455  0.5717782847247006   T   T   T
  0.4056069474266053  0.2499373618646032  0.2321734907340058   F   F   F
  0.2499999997239044  0.2500513589418389  0.1992858819354737   F   F   F
  0.0943930525733947  0.2499373618646032  0.2321734907340058   F   F   F
  0.1547082680068357  0.3751230656013860  0.3157550047969764   F   F   F
  0.0000000000000000  0.3748851799949406  0.3029475127512455   F   F   F
  0.3452917319931643  0.3751230656013860  0.3157550047969764   F   F   F
  0.3964435065829239  0.3785859973023744  0.4045038220428886   T   T   T
  0.2528373943556166  0.3725219495380141  0.3854189845716174   T   T   T
  0.1015343812045988  0.3714470028618705  0.4012854170185504   T   T   T
  0.1524340261384532  0.3748760204518241  0.4893272946645122   T   T   T
  0.0067151302068958  0.3735814171334705  0.4720813600427711   T   T   T
  0.3470160138716750  0.3795184317388637  0.4908322608422622   T   T   T
  0.4069052985416263  0.3786450418391604  0.5757317199829510   T   T   T
  0.2495861550899249  0.3831305055150858  0.5719445655998898   T   T   T
  0.0837810124511560  0.3846850959741542  0.5773858324488881   T   T   T
  0.4056495225775905  0.3750779798599453  0.2321437934505610   F   F   F
  0.2499999997239044  0.3750070556205145  0.1993925282839726   F   F   F
  0.0943504774224095  0.3750779798599453  0.2321437934505610   F   F   F
  0.1547523877655834  0.9998547718035553  0.3156484410005831   F   F   F
  0.0000000000000000  0.0000770226384077  0.3028264942509225   F   F   F
  0.3452476122344166  0.9998547718035553  0.3156484410005831   F   F   F
  0.4004109406136344  0.0024474859412212  0.4040000599797952   T   T   T
  0.2565628078740637  0.9993589169658893  0.3895458426562650   T   T   T
  0.0973089763777878  0.9984065735837430  0.4006653321142393   T   T   T
  0.1483333873053523  0.9902162820344403  0.4869606867948282   T   T   T
  0.0009721990600193  0.9971472528705884  0.4711141764703724   T   T   T
  0.3544470434475161  0.9960119009700433  0.4923660940164358   T   T   T
  0.4101946653268791  0.9956680339413381  0.5703846749352172   T   T   T
  0.2617703314874497  0.9328258575475168  0.5730703674801424   T   T   T
  0.1008456806579347  0.9976701639054398  0.5691676307845638   T   T   T
  0.4056069474266053  0.4999373616505167  0.2321734907340058   F   F   F
  0.2499999997239044  0.5000513587277524  0.1992858819354737   F   F   F
  0.0943930525733947  0.4999373616505167  0.2321734907340058   F   F   F
  0.1547082680068357  0.6251230653872994  0.3157550047969764   F   F   F
  0.0000000000000000  0.6248851797808541  0.3029475127512455   F   F   F
  0.3452917319931643  0.6251230653872994  0.3157550047969764   F   F   F
  0.4007607629183119  0.6214741993355164  0.4019525919771529   T   T   T
  0.2483209375988429  0.6194942594039451  0.3847892957260125   T   T   T
  0.0987882578224330  0.6237423429503092  0.4036993777146650   T   T   T
  0.1502102455682545  0.6234673516462074  0.4829080301846618   T   T   T
  0.9997216548499899  0.6279336110397971  0.4760986006724517   T   T   T
  0.3439836568687335  0.6292894448040730  0.4842365870430990   T   T   T
  0.3994123920165855  0.6205922150010659  0.5742060972731227   T   T   T
  0.2524428434816758  0.6113035530726942  0.5561764539383389   T   T   T
  0.1002238459918477  0.6239293482227302  0.5796183068809296   T   T   T
  0.4056495225775905  0.6250779796458588  0.2321437934505610   F   F   F
  0.2499999997239044  0.6250070554064280  0.1993925282839726   F   F   F
  0.0943504774224095  0.6250779796458588  0.2321437934505610   F   F   F
  0.1547523877655834  0.7498547720176418  0.3156484410005831   F   F   F
  0.0000000000000000  0.7500770228524942  0.3028264942509225   F   F   F
  0.3452476122344166  0.7498547720176418  0.3156484410005831   F   F   F
  0.4030636729535296  0.7501450097389621  0.4020674781149902   T   T   T
  0.2515797527453932  0.7518040722416167  0.3861821497185423   T   T   T
  0.1034728604760625  0.7506659605478165  0.4023028463959527   T   T   T
  0.1493134415621488  0.7448089011394665  0.4851763114706324   T   T   T
  0.9990724183342815  0.7500469444043641  0.4730991607147073   T   T   T
  0.3487510156368389  0.7446915170370364  0.4882241580512476   T   T   T
  0.3929897420075771  0.7404806649469281  0.5736989723468169   T   T   T
  0.2450465843221278  0.7219040033545240  0.5633548999041575   T   T   T
  0.0952972940758986  0.7487605697620607  0.5641409097692504   T   T   T
  0.4056069474266053  0.7499373618646032  0.2321734907340058   F   F   F
  0.2499999997239044  0.7500513589418389  0.1992858819354737   F   F   F
  0.0943930525733947  0.7499373618646032  0.2321734907340058   F   F   F
  0.1547082680068357  0.8751230656013860  0.3157550047969764   F   F   F
  0.0000000000000000  0.8748851799949406  0.3029475127512455   F   F   F
  0.3452917319931643  0.8751230656013860  0.3157550047969764   F   F   F
  0.4053363235984926  0.8721008618954867  0.4040259837767908   T   T   T
  0.2539936782441655  0.8769195039182195  0.3885828880563529   T   T   T
  0.1025077320207637  0.8714834436052843  0.4005781344755926   T   T   T
  0.1550678490703921  0.8820672712041333  0.4857918931927803   T   T   T
  0.9977820754574122  0.8708286014772924  0.4724885903995745   T   T   T
  0.3585917346572650  0.8754144529616847  0.4880518410760988   T   T   T
  0.4210615946966298  0.8721801420316465  0.5687116582913679   T   T   T
  0.2515572727637579  0.8282579536100099  0.5269988809290866   T   T   T
  0.0971828878951433  0.8676330437217751  0.5714756663447850   T   T   T
  0.4056495225775905  0.8750779798599453  0.2321437934505610   F   F   F
  0.2499999997239044  0.8750070556205145  0.1993925282839726   F   F   F
  0.0943504774224095  0.8750779798599453  0.2321437934505610   F   F   F
  0.1547523877655834  0.4998547718035553  0.3156484410005831   F   F   F
  0.0000000000000000  0.5000770226384077  0.3028264942509225   F   F   F
  0.3452476122344166  0.4998547718035553  0.3156484410005831   F   F   F
  0.3993950981437864  0.5043126056554553  0.4003640138274978   T   T   T
  0.2531633661531005  0.4998809897434684  0.3863123239559765   T   T   T
  0.0992329257802966  0.4955788299311852  0.4003646146135882   T   T   T
  0.1549979763879585  0.4929198313244263  0.4828698379992483   T   T   T
  0.0036210709446917  0.5001377257423876  0.4716452307888112   T   T   T
  0.3495043721019455  0.4947776737522205  0.4824593776947124   T   T   T
  0.3984170446189775  0.5007536633918712  0.5682213761888004   T   T   T
  0.2431773004028610  0.4894223126266376  0.5699279206295982   T   T   T
  0.0866307850618359  0.5114063984180115  0.5749518615947717   T   T   T
  0.9056069474266053  0.9999373616505167  0.2321734907340058   F   F   F
  0.7499999997239044  0.0000513587277524  0.1992858819354737   F   F   F
  0.5943930525733947  0.9999373616505167  0.2321734907340058   F   F   F
  0.6547082680068357  0.1251230653872994  0.3157550047969764   F   F   F
  0.5000000000000000  0.1248851797808541  0.3029475127512455   F   F   F
  0.8452917319931643  0.1251230653872994  0.3157550047969764   F   F   F
  0.9011517786777375  0.1256338547316916  0.4027199667408864   T   T   T
  0.7504303134008672  0.1292462026708644  0.3926848613284842   T   T   T
  0.5970580292504818  0.1258857662884602  0.4043811310227579   T   T   T
  0.6547730430449967  0.1354428397423293  0.4880448333102791   T   T   T
  0.5034774225881254  0.1252867261745000  0.4736020906250414   T   T   T
  0.8600129399986864  0.1307620769853605  0.4876412695079409   T   T   T
  0.9219718013553244  0.1230010632609085  0.5781839338108791   T   T   T
  0.7547177943851157  0.0652818968900876  0.5146504667965063   T   T   T
  0.5948379540094176  0.1330834762661281  0.5713498194253498   T   T   T
  0.9056495225775905  0.1250779796458588  0.2321437934505610   F   F   F
  0.7499999997239044  0.1250070554064280  0.1993925282839726   F   F   F
  0.5943504774224095  0.1250779796458588  0.2321437934505610   F   F   F
  0.6547523877655834  0.2498547720176418  0.3156484410005831   F   F   F
  0.5000000000000000  0.2500770228524942  0.3028264942509225   F   F   F
  0.8452476122344166  0.2498547720176418  0.3156484410005831   F   F   F
  0.9043888435980332  0.2483889120846006  0.4019904464831655   T   T   T
  0.7475120667133230  0.2527961812708437  0.3911477040829450   T   T   T
  0.6015013898753250  0.2509923900175806  0.4008557437901125   T   T   T
  0.6484973335233427  0.2500348014541706  0.4868524801674458   T   T   T
  0.5034492597356953  0.2539836157822579  0.4674295990107567   T   T   T
  0.8581712427930406  0.2469617531384187  0.4903350370374078   T   T   T
  0.9068216588804171  0.2519442967271798  0.5725952002894764   T   T   T
  0.7563240317190715  0.1976640094420958  0.5759782795745045   T   T   T
  0.6000182520742645  0.2541846994963040  0.5788840446749225   T   T   T
  0.9056069474266053  0.2499373618646032  0.2321734907340058   F   F   F
  0.7499999997239044  0.2500513589418389  0.1992858819354737   F   F   F
  0.5943930525733947  0.2499373618646032  0.2321734907340058   F   F   F
  0.6547082680068357  0.3751230656013860  0.3157550047969764   F   F   F
  0.5000000000000000  0.3748851799949406  0.3029475127512455   F   F   F
  0.8452917319931643  0.3751230656013860  0.3157550047969764   F   F   F
  0.9007625130838002  0.3741351573203617  0.4020377045350115   T   T   T
  0.7510768635897874  0.3748025769074764  0.3867936605575180   T   T   T
  0.5975004637401347  0.3759922226614959  0.4001034540695815   T   T   T
  0.6506361304047924  0.3776620484147110  0.4889411133519221   T   T   T
  0.5014425493358766  0.3782017079426390  0.4718894462272203   T   T   T
  0.8571179936897882  0.3787288553452542  0.4888601288100696   T   T   T
  0.8974524305262926  0.3793266142951469  0.5736836114637498   T   T   T
  0.7507123098918248  0.3173627224321259  0.5127088026038655   T   T   T
  0.5873894627032394  0.3874545955837100  0.5739296851669512   T   T   T
  0.9056495225775905  0.3750779798599453  0.2321437934505610   F   F   F
  0.7499999997239044  0.3750070556205145  0.1993925282839726   F   F   F
  0.5943504774224095  0.3750779798599453  0.2321437934505610   F   F   F
  0.6547523877655834  0.9998547718035553  0.3156484410005831   F   F   F
  0.5000000000000000  0.0000770226384077  0.3028264942509225   F   F   F
  0.8452476122344166  0.9998547718035553  0.3156484410005831   F   F   F
  0.9039817326640576  0.0013560119548142  0.4043756301071802   T   T   T
  0.7465875337753151  0.0033847330728081  0.3893152981950678   T   T   T
  0.5962359808817077  0.9957997055914377  0.4026122637457069   T   T   T
  0.6511800727629616  0.9973902700614828  0.4842842081945325   T   T   T
  0.5042342095374868  0.9958330760017020  0.4785286764973611   T   T   T
  0.8573689034831645  0.9990909666719512  0.4883743800126398   T   T   T
  0.9148785803637191  0.9919719095719940  0.5706457791279353   T   T   T
  0.7459397304552566  0.9550624388244423  0.5771379410985507   T   T   T
  0.5945763678521888  0.0161550695118119  0.5717906547254389   T   T   T
  0.9056069474266053  0.4999373616505167  0.2321734907340058   F   F   F
  0.7499999997239044  0.5000513587277524  0.1992858819354737   F   F   F
  0.5943930525733947  0.4999373616505167  0.2321734907340058   F   F   F
  0.6547082680068357  0.6251230653872994  0.3157550047969764   F   F   F
  0.5000000000000000  0.6248851797808541  0.3029475127512455   F   F   F
  0.8452917319931643  0.6251230653872994  0.3157550047969764   F   F   F
  0.9031153047939596  0.6207857151251707  0.4005534449496220   T   T   T
  0.7492108448538187  0.6245918725319105  0.3897995990749480   T   T   T
  0.5969216255748846  0.6253975990122895  0.4002801429593149   T   T   T
  0.6536762644821367  0.6283433373001894  0.4822921282925056   T   T   T