Mo  S Co                                
   1.00000000000000     
    15.9214998300000001    0.0000000000000000    0.0000000000000000
    -7.9622501300000001   13.7910221699999997    0.0000000000000000
     0.0000000000000000    0.0000000000000000   13.5821998300000004
   Mo   S    Co
    25    49     4
Direct
  0.1323025776699254  0.0686367549703206  0.6793865069076048
  0.1363150572476499  0.2692947953364637  0.6765940462945323
  0.1334829764395025  0.4651495022015126  0.6782566842995408
  0.1323489410014744  0.6657753465666048  0.6802322404456120
  0.1321832953598232  0.8661440279534673  0.6804466042472512
  0.3313388266638242  0.0654469019624457  0.6811612579366795
  0.3325022525656252  0.2652715631641485  0.6794515316919600
  0.3299533030688266  0.4634118569438783  0.6744238483759872
  0.3321376129475198  0.6649500482738731  0.6793008272723284
  0.3321869445062617  0.8655060534654169  0.6808324278872249
  0.5336154626848355  0.0663823018182370  0.6821014843666688
  0.5316628392422302  0.2656087798944426  0.6804539366284317
  0.5317349849715782  0.4697264557266436  0.6749518241951407
  0.5317937150125971  0.6665986421609276  0.6780979475146225
  0.5325068941993791  0.8661433738121858  0.6805686364246242
  0.7330810413997355  0.0666987923906603  0.6826191895685341
  0.7320283896355235  0.2655878157776357  0.6843256923356975
  0.7313228438468613  0.4666221363991383  0.6823987453887383
  0.7328987595942849  0.6673954491118579  0.6790613739089295
  0.7329715320092021  0.8669130021815548  0.6804534813193044
  0.9336869085326640  0.0676325188874287  0.6814239845138914
  0.9340136893469975  0.2667131362641015  0.6821723261066452
  0.9321936479903954  0.4658896402755559  0.6819725497730929
  0.9322742881227342  0.6664106400805281  0.6805526766891603
  0.9325768890223074  0.8668322297454836  0.6801241169906973
  0.0660655225396525  0.1347486815936350  0.5642314591527651
  0.0708326667708121  0.1388297711688438  0.7948831692986786
  0.0654940559697934  0.3311531954553359  0.5635489541244922
  0.0722495527125417  0.3344741555003949  0.7948603807847263
  0.0646819557622322  0.5321165875788907  0.5654686269216143
  0.0672323199980980  0.5321508208192540  0.7947649300335229
  0.0655019176198692  0.7326726155604320  0.5653760360898090
  0.0657033558896032  0.7326716622701923  0.7953565303566847
  0.0660593820917299  0.9338218900708100  0.5653026494399285
  0.0657698805669540  0.9341037584096625  0.7945559244485452
  0.2664436653778068  0.1330610667443324  0.5651656863732768
  0.2636364801979667  0.1320872105390052  0.7983194856831801
  0.2675849680150719  0.3303914409826518  0.5631950368570173
  0.2664024648612724  0.5326068005170299  0.5617499824081875
  0.2655377585108383  0.5277123545960478  0.7930935685527771
  0.2656119728910795  0.7325813755758972  0.5651394564697370
  0.2656205221597787  0.7311774583994293  0.7952108400132261
  0.2655698579190044  0.9323622782291423  0.5656096585622237
  0.2646185699182197  0.9312963076268801  0.7957416887737310
  0.4654418253646710  0.1323857518905740  0.5670102098120964
  0.4638014626852609  0.1296499141216501  0.7988187471923425
  0.4651770087645630  0.3317538609508759  0.5643213102108504
  0.4659214364966218  0.3437183924778751  0.7950320646475220
  0.4639319340352230  0.5343799607709414  0.5602115241078920
  0.4612067313179651  0.5306973385351128  0.7913388336102756
  0.4655370881828489  0.7338278947093286  0.5643373053012439
  0.4652619468687149  0.7318552347300198  0.7945523640477177
  0.4661007164027779  0.9334818564704790  0.5662130599834825
  0.4655638020509585  0.9317272837513784  0.7960476065066189
  0.6667037788743500  0.1338791262006467  0.5677892427983977
  0.6658808974152066  0.1320788724685045  0.7986196056253263
  0.6658973623035820  0.3325152464276471  0.5685197419632502
  0.6637401440957049  0.3331262566340456  0.8014607677005259
  0.6677140471044609  0.5339823058892321  0.5636796352700273
  0.6637208905329999  0.5346963354841918  0.7935348663104094
  0.6663802972129034  0.7343514093148116  0.5641327788297588
  0.6648190451477660  0.7325237977684793  0.7941707151826591
  0.6665204764899144  0.9342936823596233  0.5662339434622368
  0.6657529284400212  0.9321898271835494  0.7962348827069974
  0.8662565953811026  0.1336655564466938  0.5673661815632727
  0.8672115901469652  0.1335019162282833  0.7973369637172780
  0.8649865982509937  0.3320217242676264  0.5682191218837076
  0.8674158442354241  0.3332643088709020  0.7978653355792318
  0.8648202401045566  0.5319497629358452  0.5669362392450736
  0.8658003606423534  0.5337205655856749  0.7963403036898882
  0.8666586480620779  0.7337173745195358  0.5646852581861026
  0.8655581941248798  0.7334699097500774  0.7950301535223474
  0.8666188165618109  0.9345683629754333  0.5656908879956433
  0.8665791328517827  0.9336066433859855  0.7958229389455767
  0.3535587748445934  0.2504728782130456  0.8860310101662137
  0.5185978779026996  0.2650691339259765  0.8790915664564167
  0.5049351163725788  0.2591601697629713  0.0361147768355892
  0.3521332143046365  0.2288211248197953  0.0489941768065094
 
  0.00000000E+00  0.00000000E+00  0.00000000E+00
  0.00000000E+00  0.00000000E+00  0.00000000E+00
  0.00000000E+00  0.00000000E+00  0.00000000E+00
  0.00000000E+00  0.00000000E+00  0.00000000E+00
  0.00000000E+00  0.00000000E+00  0.00000000E+00
  0.00000000E+00  0.00000000E+00  0.00000000E+00
  0.00000000E+00  0.00000000E+00  0.00000000E+00
  0.00000000E+00  0.00000000E+00  0.00000000E+00
  0.00000000E+00  0.00000000E+00  0.00000000E+00
  0.00000000E+00  0.00000000E+00  0.00000000E+00
  0.00000000E+00  0.00000000E+00  0.00000000E+00
  0.00000000E+00  0.00000000E+00  0.00000000E+00
  0.00000000E+00  0.00000000E+00  0.00000000E+00
  0.00000000E+00  0.00000000E+00  0.00000000E+00
  0.00000000E+00  0.00000000E+00  0.00000000E+00
  0.00000000E+00  0.00000000E+00  0.00000000E+00
  0.00000000E+00  0.00000000E+00  0.00000000E+00
  0.00000000E+00  0.00000000E+00  0.00000000E+00
  0.00000000E+00  0.00000000E+00  0.00000000E+00
  0.00000000E+00  0.00000000E+00  0.00000000E+00
  0.00000000E+00  0.00000000E+00  0.00000000E+00
  0.00000000E+00  0.00000000E+00  0.00000000E+00
  0.00000000E+00  0.00000000E+00  0.00000000E+00
  0.00000000E+00  0.00000000E+00  0.00000000E+00
  0.00000000E+00  0.00000000E+00  0.00000000E+00
  0.00000000E+00  0.00000000E+00  0.00000000E+00
  0.00000000E+00  0.00000000E+00  0.00000000E+00
  0.00000000E+00  0.00000000E+00  0.00000000E+00
  0.00000000E+00  0.00000000E+00  0.00000000E+00
  0.00000000E+00  0.00000000E+00  0.00000000E+00
  0.00000000E+00  0.00000000E+00  0.00000000E+00
  0.00000000E+00  0.00000000E+00  0.00000000E+00
  0.00000000E+00  0.00000000E+00  0.00000000E+00
  0.00000000E+00  0.00000000E+00  0.00000000E+00
  0.00000000E+00  0.00000000E+00  0.00000000E+00
  0.00000000E+00  0.00000000E+00  0.00000000E+00
  0.00000000E+00  0.00000000E+00  0.00000000E+00
  0.00000000E+00  0.00000000E+00  0.00000000E+00
  0.00000000E+00  0.00000000E+00  0.00000000E+00
  0.00000000E+00  0.00000000E+00  0.00000000E+00
  0.00000000E+00  0.00000000E+00  0.00000000E+00
  0.00000000E+00  0.00000000E+00  0.00000000E+00
  0.00000000E+00  0.00000000E+00  0.00000000E+00
  0.00000000E+00  0.00000000E+00  0.00000000E+00
  0.00000000E+00  0.00000000E+00  0.00000000E+00
  0.00000000E+00  0.00000000E+00  0.00000000E+00
  0.00000000E+00  0.00000000E+00  0.00000000E+00
  0.00000000E+00  0.00000000E+00  0.00000000E+00
  0.00000000E+00  0.00000000E+00  0.00000000E+00
  0.00000000E+00  0.00000000E+00  0.00000000E+00
  0.00000000E+00  0.00000000E+00  0.00000000E+00
  0.00000000E+00  0.00000000E+00  0.00000000E+00
  0.00000000E+00  0.00000000E+00  0.00000000E+00
  0.00000000E+00  0.00000000E+00  0.00000000E+00
  0.00000000E+00  0.00000000E+00  0.00000000E+00
  0.00000000E+00  0.00000000E+00  0.00000000E+00
  0.00000000E+00  0.00000000E+00  0.00000000E+00
  0.00000000E+00  0.00000000E+00  0.00000000E+00
  0.00000000E+00  0.00000000E+00  0.00000000E+00
  0.00000000E+00  0.00000000E+00  0.00000000E+00
  0.00000000E+00  0.00000000E+00  0.00000000E+00
  0.00000000E+00  0.00000000E+00  0.00000000E+00
  0.00000000E+00  0.00000000E+00  0.00000000E+00
  0.00000000E+00  0.00000000E+00  0.00000000E+00
  0.00000000E+00  0.00000000E+00  0.00000000E+00
  0.00000000E+00  0.00000000E+00  0.00000000E+00
  0.00000000E+00  0.00000000E+00  0.00000000E+00
  0.00000000E+00  0.00000000E+00  0.00000000E+00
  0.00000000E+00  0.00000000E+00  0.00000000E+00
  0.00000000E+00  0.00000000E+00  0.00000000E+00
  0.00000000E+00  0.00000000E+00  0.00000000E+00
  0.00000000E+00  0.00000000E+00  0.00000000E+00
  0.00000000E+00  0.00000000E+00  0.00000000E+00
  0.00000000E+00  0.00000000E+00  0.00000000E+00
  0.00000000E+00  0.00000000E+00  0.00000000E+00
  0.00000000E+00  0.00000000E+00  0.00000000E+00
  0.00000000E+00  0.00000000E+00  0.00000000E+00
  0.00000000E+00  0.00000000E+00  0.00000000E+00
