Ta  N Ru                                
   1.00000000000000     
    18.1096308199999996    0.0000000000000000    0.0000000000000000
     0.0000000000000000   23.3551997799999995    0.0000000000000000
     0.0000000000000000    0.0000000000000000   30.4818171199999988
   Ta   N    Ru
   216   240    24
Direct
 -0.0000000000000000  0.0001540493431988  0.1952048772750489
  0.3335911226994333  0.0626178990550376  0.2011666574476984
  0.1661313464181225  0.0626435039054905  0.2013756225831194
  0.2497136469180568  0.1249913080150062  0.2769716716429640
  0.0824132892486975  0.0625280043020920  0.2823539174859164
  0.4173080235982911  0.0622158469098066  0.2818060632728852
 -0.0000000000000000  0.1254794601746987  0.3685224289001537
  0.3316822143332238  0.0617104010581374  0.3658239236762791
  0.1674375165996116  0.0622958536407964  0.3665357285466707
  0.2500520573926871  0.1224278522708819  0.4531121733302799
  0.0832583192009928  0.0623003783264781  0.4522985779211467
  0.4176666415814699  0.0596354078012274  0.4505353527061340
 -0.0000000000000000  0.1296580182104314  0.5404671132542029
 -0.0000000000000000  0.1252934673573254  0.1957184605568121
  0.3338815497781373  0.1878831457175457  0.2019461464240635
  0.1661948949258306  0.1878540692822344  0.2019564242544487
  0.2502115669416769  0.2500369944875219  0.2777639619025232
  0.0824374490347321  0.1875904829007086  0.2829684025212970
  0.4174192825879816  0.1874333417367474  0.2829715540753679
 -0.0000000000000000  0.2501439049183840  0.3695812227462735
  0.3318935339879714  0.1870758883521143  0.3670086729177299
  0.1674420421424019  0.1875298557498961  0.3672089293799375
  0.2495041689887866  0.2471786943912029  0.4551288391544302
  0.0856878066192645  0.1870504932785894  0.4549762916091045
  0.4151770870058190  0.1843810524709745  0.4516531414131500
 -0.0000000000000000  0.2502681216697268  0.1962263215238942
  0.3344987696923766  0.3125187466315582  0.2026668881404035
  0.1661942511615433  0.3125671912316139  0.2024404242882321
  0.2506210431627141  0.3749227899199949  0.2783919089997160
  0.0823618586752220  0.3124866975306050  0.2834913249867372
  0.4175905476312696  0.3123986209820306  0.2843182411077964
 -0.0000000000000000  0.3750387802781085  0.3694522414811988
  0.3330081548208271  0.3120986101255954  0.3693799955377379
  0.1675998008782116  0.3124962813405762  0.3678334585849631
  0.2508508755494726  0.3746010536146284  0.4557153601905657
  0.0846455938490474  0.3128204214658840  0.4545391943376152
  0.4147524501741235  0.3119716515236390  0.4591082642253135
 -0.0000000000000000  0.3811633854208275  0.5404689268966286
 -0.0000000000000000  0.3748427101281658  0.1963807855582313
  0.3345163880268465  0.4372854327724420  0.2027504300156812
  0.1664683163950514  0.4373113135708517  0.2024835848108747
  0.2496514720479350  0.0000136476026492  0.2762899058119671
  0.0825727467587450  0.4373792291061931  0.2832358711618467
  0.4174986217674442  0.4370699171736284  0.2843873273286125
 -0.0000000000000000 -0.0000293039496749  0.3677468993858949
  0.3327578766975070  0.4369446143217760  0.3691285574563384
  0.1678988772140693  0.4374186823846736  0.3674649763777412
  0.2501092230768450  0.9990287919448453  0.4541359294780356
  0.0850320564321777  0.4383019242305286  0.4540381000650019
  0.4150558560910880  0.4373397783539380  0.4565476824018980
 -0.0000000000000000  0.4996600384981810  0.1960122970312375
  0.3340351755459380  0.5619131390770418  0.2021890025370647
  0.1665722925482253  0.5620352928756748  0.2019996637769905
  0.2501429157372088  0.6247388243367412  0.2770555720987536
  0.0823139344992269  0.5624071479513683  0.2827242320219169
  0.4177054922447014  0.5620703723524826  0.2835027055422703
 -0.0000000000000000  0.6253586061136521  0.3683212957279974
  0.3326986408781250  0.5622158263656064  0.3673667074047680
  0.1674185678327704  0.5625451487717076  0.3667703186626953
  0.2491463000914123  0.6251476691750580  0.4531428283767580
  0.0846836803308702  0.5637960054614902  0.4530436704976656
  0.4140682128256605  0.5627857767074969  0.4534762244209412
 -0.0000000000000000  0.6286818349124058  0.5407032570768558
 -0.0000000000000000  0.6245357501514954  0.1955793289240908
  0.3339923607873998  0.6869740216822118  0.2015918950363488
  0.1663048432324199  0.6871515664123250  0.2015456485425885
  0.2499896679286906  0.7496463705244543  0.2766638540929536
  0.0824660912763732  0.6874672270731985  0.2824343777610975
  0.4174829552423436  0.6871308384112812  0.2826795856657664
 -0.0000000000000000  0.7503030704029930  0.3683729199844052
  0.3322128248762372  0.6873308878989924  0.3668053823943487
  0.1675191437121569  0.6877243613726783  0.3666003225515100
  0.2498039588948533  0.7498565203650821  0.4537661155254651
  0.0849030010157647  0.6886001257242430  0.4531498383285176
  0.4147136457938945  0.6876329317871489  0.4531920811940315
 -0.0000000000000000  0.7496781775342212  0.1953645300692336
  0.3337937128121957  0.8120159814150892  0.2012723865559291
  0.1661863262123726  0.8121765886067943  0.2013174620412850
  0.2497655804101015  0.8747514740683429  0.2763088131779119
  0.0825580188978999  0.8124898946519934  0.2823318451015723
  0.4173866347344358  0.8121155721843459  0.2822419416884362
 -0.0000000000000000  0.8751666170197879  0.3682965655399710
  0.3322722326165428  0.8122353396427038  0.3666075217305937
  0.1674580059566640  0.8126843354792974  0.3667385336179547
  0.2493706435847912  0.8763088642335846  0.4548076722474116
  0.0852553702611152  0.8137434633518790  0.4536333434930120
  0.4145434110466750  0.8122746605389801  0.4535280889658438
 -0.0000000000000000  0.8795071920354073  0.5409763876865991
 -0.0000000000000000  0.8749709405038281  0.1952216004293267
  0.3336027360284510  0.9373254077095290  0.2010339935283399
  0.1660935290752160  0.9375055884914059  0.2011735569652188
  0.2504830212189058  0.4996808151450312  0.2776753851277878
  0.0824372547392485  0.9374188030533649  0.2822023922818485
  0.4174708236543927  0.9370820673138671  0.2818462101306265
 -0.0000000000000000  0.5003188943826729  0.3688082785283907
  0.3319020130174278  0.9368157461165099  0.3662318286048147
  0.1676957261390301  0.9374062148603127  0.3666866444941783
  0.2498365630771825  0.5010688774519053  0.4543916666063892
  0.0834118647077847  0.9385318850056726  0.4525433534717482
  0.4164854984058211  0.9364971224489246  0.4517764270036049
  0.3359406093268869  0.9382015099682141  0.5408394364350259
  0.1640037272989261  0.9422639720387130  0.5416031932877862
  0.5000000000000000 -0.0000801303993366  0.1948903532541324
  0.8338686237634901  0.0626435039054905  0.2013756225831194
  0.6664088480343702  0.0626178990550376  0.2011666574476984
  0.7502863525297521  0.1249913080150062  0.2769716716429640
  0.5826919764017087  0.0622158469098066  0.2818060632728852
  0.9175867107513024  0.0625280043020920  0.2823539174859164
  0.5000000000000000  0.1240563084585788  0.3672604906283385
  0.8325624541341914  0.0622958536407964  0.3665357285466707
  0.6683177564005798  0.0617104010581374  0.3658239236762791
  0.7499479420551221  0.1224278522708819  0.4531121733302799
  0.5823333584185305  0.0596354078012274  0.4505353527061340
  0.9167416807990072  0.0623003783264781  0.4522985779211467
  0.5000000000000000  0.1246798479019192  0.5378988708145793
  0.5000000000000000  0.1254990580004907  0.1954646149468969
  0.8338050752557812  0.1878540692822344  0.2019564242544487
  0.6661184209556659  0.1878831457175457  0.2019461464240635
  0.7497884325061324  0.2500369944875219  0.2777639619025232
  0.5825807174120188  0.1874333417367474  0.2829715540753679
  0.9175625509652680  0.1875904829007086  0.2829684025212970
  0.5000000000000000  0.2498221985290027  0.3695449189136367
  0.8325579285914086  0.1875298557498961  0.3672089293799375
  0.6681064367458390  0.1870758883521143  0.3670086729177299
  0.7504958304590221  0.2471786943912029  0.4551288391544302
  0.5848229129941811  0.1843810524709745  0.4516531414131500
  0.9143121933807428  0.1870504932785894  0.4549762916091045
  0.5000000000000000  0.2505013661093057  0.1964427338884699
  0.8338057190200689  0.3125671912316139  0.2024404242882321
  0.6655012010414268  0.3125187466315582  0.2026668881404035
  0.7493789562850950  0.3749227899199949  0.2783919089997160
  0.5824094523687305  0.3123986209820306  0.2843182411077964
  0.9176381413247776  0.3124866975306050  0.2834913249867372
  0.5000000000000000  0.3743072095016859  0.3715979442307284
  0.8324001698555920  0.3124962813405762  0.3678334585849631
  0.6669918159129761  0.3120986101255954  0.3693799955377379
  0.7491491238983365  0.3746010536146284  0.4557153601905657
  0.5852475498258763  0.3119716515236390  0.4591082642253135
  0.9153544061509526  0.3128204214658840  0.4545391943376152
  0.5000000000000000  0.3697213233608622  0.5490285125358508
  0.5000000000000000  0.3748991137487089  0.1971899805056996
  0.8335316537865610  0.4373113135708517  0.2024835848108747
  0.6654835827069570  0.4372854327724420  0.2027504300156812
  0.7503485273998738  0.0000136476026492  0.2762899058119671
  0.5825013782325561  0.4370699171736284  0.2843873273286125
  0.9174272532412550  0.4373792291061931  0.2832358711618467
  0.5000000000000000  0.9988219251681163  0.3670108342290135
  0.8321010935197413  0.4374186823846736  0.3674649763777412
  0.6672420940363040  0.4369446143217760  0.3691285574563384
  0.7498907763709640  0.9990287919448453  0.4541359294780356
  0.5849441439089121  0.4373397783539380  0.4565476824018980
  0.9149679435678223  0.4383019242305286  0.4540381000650019
  0.5000000000000000  0.4994643024967797  0.1967282283003182
  0.8334276776333872  0.5620352928756748  0.2019996637769905
  0.6659647951878653  0.5619131390770418  0.2021890025370647
  0.7498570837105998  0.6247388243367412  0.2770555720987536
  0.5822945077552990  0.5620703723524826  0.2835027055422703
  0.9176860655007730  0.5624071479513683  0.2827242320219169
  0.5000000000000000  0.6248074362974156  0.3687993006753234
  0.8325814029010328  0.5625451487717076  0.3667703186626953
  0.6673013298556784  0.5622158263656064  0.3673667074047680
  0.7508536993563966  0.6251476691750580  0.4531428283767580
  0.5859317871743397  0.5627857767074969  0.4534762244209412
  0.9153163196691300  0.5637960054614902  0.4530436704976656
  0.5000000000000000  0.6276950934271011  0.5399710095223592
  0.5000000000000000  0.6241464195896792  0.1959625473447448
  0.8336951269491925  0.6871515664123250  0.2015456485425885
  0.6660076099464036  0.6869740216822118  0.2015918950363488
  0.7500103315191179  0.7496463705244543  0.2766638540929536
  0.5825170447576562  0.6871308384112812  0.2826795856657664
  0.9175339087236269  0.6874672270731985  0.2824343777610975
  0.5000000000000000  0.7496924259708875  0.3684390720311766
  0.8324808270216537  0.6877243613726783  0.3666003225515100
  0.6677871458575739  0.6873308878989924  0.3668053823943487
  0.7501960405529555  0.7498565203650821  0.4537661155254651
  0.5852863542061055  0.6876329317871489  0.4531920811940315
  0.9150969989842356  0.6886001257242430  0.4531498383285176
  0.5000000000000000  0.7492608262324931  0.1954491219570286
  0.8338136439692394  0.8121765886067943  0.2013174620412850
  0.6662062579216074  0.8120159814150892  0.2012723865559291
  0.7502344190377073  0.8747514740683429  0.2763088131779119
  0.5826133652655647  0.8121155721843459  0.2822419416884362
  0.9174419811021001  0.8124898946519934  0.2823318451015723
  0.5000000000000000  0.8742723260883757  0.3678778449277892
  0.8325419647771395  0.8126843354792974  0.3667385336179547
  0.6677277381172605  0.8122353396427038  0.3666075217305937
  0.7506293558630176  0.8763088642335846  0.4548076722474116
  0.5854565889533249  0.8122746605389801  0.4535280889658438
  0.9147446297388848  0.8137434633518790  0.4536333434930120
  0.5000000000000000  0.8767498492727034  0.5403230856570933
  0.5000000000000000  0.8746701782158033  0.1950268913488924
  0.8339064411063966  0.9375055884914059  0.2011735569652188
  0.6663972347053528  0.9373254077095290  0.2010339935283399
  0.7495169782289032  0.4996808151450312  0.2776753851277878
  0.5825291763456073  0.9370820673138671  0.2818462101306265
  0.9175627452607517  0.9374188030533649  0.2822023922818485
  0.5000000000000000  0.4995322709705522  0.3700321053373214
  0.8323042445947805  0.9374062148603127  0.3666866444941783
  0.6680979577163827  0.9368157461165099  0.3662318286048147
  0.7501634363706261  0.5010688774519053  0.4543916666063892
  0.5835145015941789  0.9364971224489246  0.4517764270036049
  0.9165881352922154  0.9385318850056726  0.4525433534717482
  0.8359962428826863  0.9422639720387130  0.5416031932877862
  0.6640593608547255  0.9382015099682141  0.5408394364350259
  0.3382268718308846  0.0638655641500814  0.5408415955093860
  0.1671606229834463  0.0687322466347620  0.5401076228840459
 -0.0000000000000000  0.2571476785004800  0.5419939168937541
 -0.0000000000000000  0.0049336417731927  0.5410664487790200
 -0.0000000000000000  0.7601054135617370  0.5402510245847932
 -0.0000000000000000  0.5077404832102416  0.5402694591087017
  0.8328393477503571  0.0687322466347620  0.5401076228840459
  0.6617730989029189  0.0638655641500814  0.5408415955093860
  0.5000000000000000  0.2462226096869247  0.5372260835624607
  0.5000000000000000  0.0003429747382593  0.5400520275178425
  0.5000000000000000  0.7571236715575341  0.5403344110371415
  0.5000000000000000  0.5054733064013540  0.5410604286688111
  0.4061289664388522 -0.0002597926211907  0.2299469413761950
  0.2499243442227687  0.0000438992941163  0.1972592478097239
  0.0937634807389736  0.0000060933876756  0.2303819593707924
  0.1543157078586609  0.1250764905392481  0.3144006291067812
 -0.0000000000000000  0.1251032437903074  0.3017457848904005
  0.3452685446959312  0.1247294648472137  0.3139779832144748
  0.4008780768122346  0.1236355558379130  0.3990598744683501
  0.2497498256078745  0.1243212560374740  0.3855488986165518
  0.0990276528616751  0.1253787604849813  0.4008095158971747
  0.1521669688814674  0.1212502671452646  0.4841688544544834
 -0.0000000000000000  0.1261643797640173  0.4729368099160439
  0.3497313818663710  0.1187537618240192  0.4828105637830332
  0.4045137905986327  0.1268784879315782  0.5676560552703179
  0.2544849845622990  0.1169432510269983  0.5582733795809487
  0.0984638525782154  0.1347941344458770  0.5688394402208561
  0.4060922726490967  0.1252483525494602  0.2305072749907393
  0.2499853373031038  0.1253680865118558  0.1980301026484886
  0.0938705441988874  0.1252872407861320  0.2308075844758466
  0.1545811603609662  0.2502172040039936  0.3150875426512609
 -0.0000000000000000  0.2500118363359613  0.3026576964997975
  0.3454213900442479  0.2501666210715474  0.3155411423685769
  0.4014515328320589  0.2499865336644674  0.4021564717406395
  0.2498537179012374  0.2498044234986390  0.3870635258429595
  0.0993677185913615  0.2500288105274925  0.4021361152265644
  0.1500090979462889  0.2497060273009734  0.4868478939093313
 -0.0000000000000000  0.2507972604991283  0.4732652902991683
  0.3483842418684204  0.2433278144140915  0.4836456359730689
  0.4229197640472275  0.3007683542037454  0.5405809400353947
  0.2514189616591753  0.2321968984083785  0.5495845925666214
  0.0933124731638816  0.2671996655394072  0.5747625937300713
  0.4063537820414031  0.2503554436372769  0.2318217329215269
  0.2501513892027459  0.2503837172861593  0.1987743679215923
  0.0937459477286700  0.2502472980689345  0.2314396456129872
  0.1547329312016964  0.3748240360379673  0.3152648351295902
 -0.0000000000000000  0.3750074687728596  0.3026805859104468
  0.3457516654221564  0.3744942564091514  0.3165611258293491
  0.4007308027971710  0.3737478854716161  0.4047713433455060
  0.2499557334665332  0.3745661642207251  0.3876026873846587
  0.0992192494234281  0.3754334804664103  0.4017981627181925
  0.1528455326754113  0.3761965669633944  0.4857046043867396
 -0.0000000000000000  0.3772999086251811  0.4732113137889416
  0.3453524231791052  0.3784224118429566  0.4908188630273341
  0.4128920110686655  0.3924148935602960  0.5872066041684609
  0.2405486915374543  0.3514426018616617  0.5675312623184369
  0.0967349020469611  0.3901423570633965  0.5714237683766002
  0.4063450296950578  0.3748105982353512  0.2326129276752007
  0.2503815799939773  0.3748833278233952  0.1999379082155110
  0.0937603312984523  0.3748447341583677  0.2316121428621168
  0.1544387718848386 -0.0003170014957312  0.3140614921184640
 -0.0000000000000000 -0.0000413529984999  0.3011413469011002
  0.3452207830953668 -0.0006749421797034  0.3135800436600842
  0.4007045323431664  0.9984036110641891  0.3991990614050230
  0.2499209156478828  0.9993578720219697  0.3858622276462655
  0.0988664432655860 -0.0000793594165480  0.4001593665124493
  0.1507441085590095  0.0009566384466193  0.4854892552119736
 -0.0000000000000000  0.0005261541046776  0.4726545839905087
  0.3501083048659042  0.9984391369071496  0.4849945508330823
  0.4030532162945748  0.0003675784921617  0.5695942613670282
  0.2506264941669509  0.0022012417220128  0.5529890589363895
  0.0986184182752629  0.0069065865859312  0.5693332460784095
  0.4063919750489278  0.4994383192689181  0.2320699339374273
  0.2503562457577365  0.4994733889603739  0.1984713927521740
  0.0937692161019717  0.4997186735604622  0.2311634630953948
  0.1544189180639500  0.6249313455917361  0.3142752564094315
 -0.0000000000000000  0.6250871852705763  0.3016444522084031
  0.3455048527126337  0.6246178489899576  0.3146330939141216
  0.4007890641863935  0.6249655678937477  0.4010040835898846
  0.2497798614578559  0.6248505142715012  0.3855148232259604
  0.0990557906860887  0.6255233704429923  0.4006368183503405
  0.1521795224518215  0.6259943357009886  0.4847581597351013
 -0.0000000000000000  0.6266009968150148  0.4732953665056773
  0.3456310263498379  0.6252366601439932  0.4845938220017154
  0.3991325179804420  0.6235974906059849  0.5675387680672627
  0.2533784867995607  0.6178300428680079  0.5625697830775120
  0.0997509673508034  0.6304204965487127  0.5699175444005168
  0.4062813521908831  0.6243967556400153  0.2312165259231474
  0.2502036679887942  0.6245155546987686  0.1983452378000574
  0.0937766661575208  0.6247540281504659  0.2307495947632790
  0.1546033435283240  0.7500785159681660  0.3141978718615559
 -0.0000000000000000  0.7500305717557616  0.3016383232735004
  0.3453015051544431  0.7497428282577064  0.3142525964722249
  0.4006697259795128  0.7500947527246248  0.4007992211840341
  0.2499063356753624  0.7502305706608338  0.3860681060593201
  0.0992116898148447  0.7508593905246622  0.4007859190994957
  0.1526397254508171  0.7490699359620756  0.4846106941775183
 -0.0000000000000000  0.7529888731041815  0.4722652844019324
  0.3467340063697102  0.7482043424101462  0.4847100109895413
  0.4018500343689583  0.7607004394895729  0.5712766311340850
  0.2487288720070747  0.7796577318421678  0.5653192120482065
  0.0963543372231446  0.7657219081401424  0.5732707847399747
  0.4062711913523254  0.7494715794673252  0.2306001329891096
  0.2500741286340954  0.7495298625147893  0.1975175958228208
  0.0937118033124417  0.7498015672246710  0.2305201988047345
  0.1546291005700504  0.8749761849418942  0.3141837548196195
 -0.0000000000000000  0.8748932220635748  0.3014812161455406
  0.3451245848043158  0.8746053037018066  0.3138810939481557
  0.4007975241380749  0.8740364507773758  0.4003111210884094
  0.2498266321982609  0.8747269412225160  0.3864655572188684
  0.0990732067737851  0.8752701354915197  0.4008322289491404
  0.1511314425943011  0.8771956594022199  0.4868937426015126
 -0.0000000000000000  0.8766512826634396  0.4720944240793113
  0.3481378977046817  0.8756851083668025  0.4861179152637232
  0.4035849585269296  0.8782583898036277  0.5706914452208184
  0.2488888122359934  0.8868172525933631  0.5596469084781264
  0.0959293010644454  0.8834215773703856  0.5715767207171142
  0.4061874568895675  0.8745829884845263  0.2301668008934283
  0.2499290053865873  0.8746976559329391  0.1974476691903968
  0.0937950848089263  0.8748753778232765  0.2304039901560611
  0.1546720275628238  0.4999270048239576  0.3147507493888105
 -0.0000000000000000  0.4998372765106784  0.3021481560570423
  0.3456001409594555  0.4994987117009844  0.3156404985996329
  0.4010282892439276  0.4994443657871163  0.4023833744657590
  0.2499894824677465  0.5001001352833946  0.3866482451041162
  0.0991204944872493  0.5004155077632295  0.4010645191290359
  0.1511596750678036  0.5011651359987285  0.4846162587696916
 -0.0000000000000000  0.5022405788492000  0.4726097752552335
  0.3466361245166530  0.5020143452777237  0.4852036211850252
  0.3991022974184597  0.5126615213584240  0.5678508628290539
  0.2406783778125265  0.5143841968165122  0.5622488506819704
  0.0963905366302299  0.5196216535183861  0.5722100180821609
  0.9062365192610262  0.0000060933876756  0.2303819593707924
  0.7500756552250403  0.0000438992941163  0.1972592478097239
  0.5938710335611477 -0.0002597926211907  0.2299469413761950
  0.6547314553040690  0.1247294648472137  0.3139779832144748
  0.5000000000000000  0.1246461532123135  0.3009409192362526
  0.8456842921413390  0.1250764905392481  0.3144006291067812
  0.9009723471383319  0.1253787604849813  0.4008095158971747
  0.7502501738399344  0.1243212560374740  0.3855488986165518
  0.5991219231877657  0.1236355558379130  0.3990598744683501
  0.6502686181336296  0.1187537618240192  0.4828105637830332
  0.5000000000000000  0.1222006653095832  0.4695516396689148
  0.8478330311185324  0.1212502671452646  0.4841688544544834
  0.9015361474217847  0.1347941344458770  0.5688394402208561
  0.7455150148855099  0.1169432510269983  0.5582733795809487
  0.5954862094013674  0.1268784879315782  0.5676560552703179
  0.9061294558011123  0.1252872407861320  0.2308075844758466
  0.7500146621447051  0.1253680865118558  0.1980301026484886
  0.5939077273509030  0.1252483525494602  0.2305072749907393
  0.6545786099557520  0.2501666210715474  0.3155411423685769
  0.5000000000000000  0.2498087327690235  0.3027998836310030
  0.8454188396390339  0.2502172040039936  0.3150875426512609
  0.9006322814086382  0.2500288105274925  0.4021361152265644
  0.7501462815465639  0.2498044234986390  0.3870635258429595
  0.5985484671679413  0.2499865336644674  0.4021564717406395
  0.6516157581315795  0.2433278144140915  0.4836456359730689
  0.5000000000000000  0.2470593042575623  0.4715715555252338
  0.8499909020537039  0.2497060273009734  0.4868478939093313
  0.9066875268361184  0.2671996655394072  0.5747625937300713
  0.7485810377886334  0.2321968984083785  0.5495845925666214
  0.5770802354005815  0.3007683542037454  0.5405809400353947
  0.9062540522713299  0.2502472980689345  0.2314396456129872
  0.7498486102450627  0.2503837172861593  0.1987743679215923
  0.5936462179585966  0.2503554436372769  0.2318217329215269
  0.6542483345778433  0.3744942564091514  0.3165611258293491
  0.5000000000000000  0.3746674438902400  0.3043243890304729
  0.8452670687983035  0.3748240360379673  0.3152648351295902
  0.9007807505765720  0.3754334804664103  0.4017981627181925
  0.7500442659812757  0.3745661642207251  0.3876026873846587
  0.5992691972028291  0.3737478854716161  0.4047713433455060
  0.6546475768208947  0.3784224118429566  0.4908188630273341
  0.5000000000000000  0.3750114496932285  0.4774150783353878
  0.8471544673245889  0.3761965669633944  0.4857046043867396
  0.9032650979530384  0.3901423570633965  0.5714237683766002
  0.7594513079103544  0.3514426018616617  0.5675312623184369
  0.5871079889313343  0.3924148935602960  0.5872066041684609
  0.9062396687015477  0.3748447341583677  0.2316121428621168
  0.7496184194538312  0.3748833278233952  0.1999379082155110
  0.5936549703049422  0.3748105982353512  0.2326129276752007
  0.6547792169046331 -0.0006749421797034  0.3135800436600842
  0.5000000000000000 -0.0004538112500873  0.3005273028076439
  0.8455612281151612 -0.0003170014957312  0.3140614921184640
  0.9011335567344212 -0.0000793594165480  0.4001593665124493
  0.7500790837999263  0.9993578720219697  0.3858622276462655
  0.5992954676568331  0.9984036110641891  0.3991990614050230
  0.6498916951340957  0.9984391369071496  0.4849945508330823
  0.5000000000000000  0.9979985998357661  0.4713681784903062
  0.8492558914409833  0.0009566384466193  0.4854892552119736
  0.9013815817247373  0.0069065865859312  0.5693332460784095
  0.7493735052808581  0.0022012417220128  0.5529890589363895
  0.5969467831532341  0.0003675784921617  0.5695942613670282
  0.9062307838980279  0.4997186735604622  0.2311634630953948
  0.7496437536900724  0.4994733889603739  0.1984713927521740
  0.5936080249510720  0.4994383192689181  0.2320699339374273
  0.6544951472873664  0.6246178489899576  0.3146330939141216
  0.5000000000000000  0.6248457726619154  0.3021681632881061
  0.8455810819360497  0.6249313455917361  0.3142752564094315
  0.9009442093139112  0.6255233704429923  0.4006368183503405
  0.7502201379899529  0.6248505142715012  0.3855148232259604
  0.5992109358136067  0.6249655678937477  0.4010040835898846
  0.6543689736501621  0.6252366601439932  0.4845938220017154
  0.5000000000000000  0.6250750936225385  0.4733311223557790
  0.8478204775481787  0.6259943357009886  0.4847581597351013
  0.9002490326491968  0.6304204965487127  0.5699175444005168
  0.7466215126482482  0.6178300428680079  0.5625697830775120
  0.6008674820195579  0.6235974906059849  0.5675387680672627
  0.9062233338424791  0.6247540281504659  0.2307495947632790
  0.7497963314590147  0.6245155546987686  0.1983452378000574
  0.5937186478091169  0.6243967556400153  0.2312165259231474
  0.6546984948455572  0.7497428282577064  0.3142525964722249
  0.5000000000000000  0.7496873927869416  0.3017017414602792
  0.8453966564716761  0.7500785159681660  0.3141978718615559
  0.9007883101851551  0.7508593905246622  0.4007859190994957
  0.7500936637724466  0.7502305706608338  0.3860681060593201
  0.5993302740204948  0.7500947527246248  0.4007992211840341
  0.6532659936302901  0.7482043424101462  0.4847100109895413
  0.5000000000000000  0.7513872041653733  0.4724377958545156
  0.8473602745491832  0.7490699359620756  0.4846106941775183
  0.9036456627768553  0.7657219081401424  0.5732707847399747
  0.7512711274407343  0.7796577318421678  0.5653192120482065
  0.5981499650788504  0.7607004394895729  0.5712766311340850
  0.9062881966875581  0.7498015672246710  0.2305201988047345
  0.7499258708137134  0.7495298625147893  0.1975175958228208
  0.5937288086476747  0.7494715794673252  0.2306001329891096
  0.6548754151956843  0.8746053037018066  0.3138810939481557
  0.5000000000000000  0.8745163924611883  0.3011315288511091
  0.8453708994299494  0.8749761849418942  0.3141837548196195
  0.9009267932262152  0.8752701354915197  0.4008322289491404
  0.7501733672495476  0.8747269412225160  0.3864655572188684
  0.5992024758619253  0.8740364507773758  0.4003111210884094
  0.6518621022953183  0.8756851083668025  0.4861179152637232
  0.5000000000000000  0.8745913049083220  0.4716345023690121
  0.8488685574056989  0.8771956594022199  0.4868937426015126
  0.9040706989355546  0.8834215773703856  0.5715767207171142
  0.7511111872118157  0.8868172525933631  0.5596469084781264
  0.5964150414730705  0.8782583898036277  0.5706914452208184
  0.9062049151910737  0.8748753778232765  0.2304039901560611
  0.7500709940612218  0.8746976559329391  0.1974476691903968
  0.5938125431104323  0.8745829884845263  0.2301668008934283
  0.6543998590405447  0.4994987117009844  0.3156404985996329
  0.5000000000000000  0.4994496774210677  0.3032555593628301
  0.8453279724371765  0.4999270048239576  0.3147507493888105
  0.9008795055127508  0.5004155077632295  0.4010645191290359
  0.7500105169800623  0.5001001352833946  0.3866482451041162
  0.5989717107560725  0.4994443657871163  0.4023833744657590
  0.6533638754833470  0.5020143452777237  0.4852036211850252
  0.5000000000000000  0.5018644207658255  0.4745231194572215
  0.8488403249321965  0.5011651359987285  0.4846162587696916
  0.9036094633697700  0.5196216535183861  0.5722100180821609
  0.7593216216352824  0.5143841968165122  0.5622488506819704
  0.6008977020293491  0.5126615213584240  0.5678508628290539
  0.3219874685700504  0.1787145008047688  0.5312371778568773
  0.1448005555117189  0.2034370176397897  0.5462200141335432
  0.3757761769165033  0.4374388306888358  0.5460949229339886
  0.1378217751135024  0.4546430764862238  0.5440101766273318
  0.3719837466047364  0.6934169075468445  0.5413245437547943
  0.1253285370576644  0.6993608756167536  0.5422119539413254
  0.8551994146698934  0.2034370176397897  0.5462200141335432
  0.6780125016115618  0.1787145008047688  0.5312371778568773
  0.8621781950681099  0.4546430764862238  0.5440101766273318
  0.6242237932651091  0.4374388306888358  0.5460949229339886
  0.8746714331239480  0.6993608756167536  0.5422119539413254
  0.6280162235768759  0.6934169075468445  0.5413245437547943
  0.2928395864098836  0.3072261843554321  0.5313608462394084
  0.1477661437457025  0.3242824400442874  0.5426492531691453
  0.3239856387123501  0.5657552798277580  0.5396843227729394
  0.1724455410887701  0.5712094941179040  0.5434551751581442
  0.3327038947573018  0.8187962855266705  0.5456352349682769
  0.1664525973758958  0.8222184587106734  0.5459242584385545
  0.8522338269881009  0.3242824400442874  0.5426492531691453
  0.7071603843239197  0.3072261843554321  0.5313608462394084
  0.8275544296450333  0.5712094941179040  0.5434551751581442
  0.6760143320214533  0.5657552798277580  0.5396843227729394
  0.8335473733579076  0.8222184587106734  0.5459242584385545
  0.6672960759765015  0.8187962855266705  0.5456352349682769
 
  0.00000000E+00  0.00000000E+00  0.00000000E+00
  0.00000000E+00  0.00000000E+00  0.00000000E+00
  0.00000000E+00  0.00000000E+00  0.00000000E+00
  0.00000000E+00  0.00000000E+00  0.00000000E+00
  0.00000000E+00  0.00000000E+00  0.00000000E+00
  0.00000000E+00  0.00000000E+00  0.00000000E+00
  0.00000000E+00  0.00000000E+00  0.00000000E+00
  0.00000000E+00  0.00000000E+00  0.00000000E+00