Ta  N Co Cu 
 1.0000000000000000
    18.1096310000000003    0.0000000000000000    0.0000000000000000
     0.0000000000000000   23.3552000000000000    0.0000000000000000
     0.0000000000000000    0.0000000000000000   30.4818169999999995
 216 240  24   4
Cartesian
 18.0827829287535700 23.3000889681120000  5.9746016482663098
  6.2006949156708400  1.5045263360159999  6.1740063794442293
  3.2783528160163402  1.3961065930240000  6.2931028010994394
  4.5679499620160096  2.8287963042239999  8.5997938797570495
  1.4972160971770301  1.4678292444640002  8.6034894952501304
  7.5894183866825902  1.4230897897920001  8.7281860363245798
 18.0752831872675408  2.9599852652479997 11.2774736663946005
  6.0804842716707004  1.5089245872800001 11.2350112760409200
  3.0092467779936101  1.4732836178719999 11.2526270229033898
  4.5641460340244606  2.9349008462399997 13.8127506340987409
  1.4143292215715801  1.4397165902239999 13.8121861108479003
  7.5299307841959306  1.5121676903519998 13.7568683189926393
  6.0985797771585206  1.5094292931519999 16.3629329054977113
  2.8343477648181197  1.4206043294080000 16.5724115723759589
 18.0715158407306085  2.8106469783039998  5.9962989104250797
  6.0713722297367401  4.4787587403679998  6.2126585426729095
  3.2237769076495000  4.5222314089919999  6.2912296934447900
  4.4338745845222700  5.8646637820319993  8.6112577863125797
  1.4515785593828601  4.3475335787840006  8.5816291553704094
  7.5409937766775199  4.3004959724319995  8.7643002834698400
  0.0217851617077600  5.8349115927520003 11.3147892019478284
  5.9736834472334399  4.3396152317759995 11.3047439191554808
  3.0480752756280900  4.4111400646719998 11.2587684993925503
  4.4360042771278696  5.8579036193920002 13.9682624632511700
  1.4148154651639300  4.3649525876000004 13.9346007831017307
  7.5077229437006299  4.3751543725120001 13.8477236420155201
  6.1798172275724905  4.3497635332800000 16.5707731747122082
  3.1255772524556900  4.2998882701280001 16.5408720363260606
  0.0043291072905500  5.8556054677120004  5.9295495227403103
  6.0108610709059596  7.4567756213279992  6.2207334808143795
  3.1468258257969199  7.1381119008320004  6.3209708022916899
  4.4291141058212995  8.7541161097280007  8.6277764925812193
  1.4391734621478600  7.2659183282399997  8.6983147701190902
  7.4829074974376404  7.3862368449759996  8.8437474816622998
 18.1017482398183205  8.8303656995840001 11.3658102768787703
  5.9443608760071704  7.2690925334720005 11.3768145176339406
  2.9733026012885002  7.2641040963040009 11.2917483012956996
  4.4937368752743199  8.6819279891519994 13.9932505423732607
  1.4583052007215001  7.3486907919039997 14.0349338174844185
  7.4595687104863897  7.3074004331679996 13.9847540407026809
  6.1346387689241704  7.1240488007040010 16.9026082935738202
  0.1146182088510300  8.6520552870399996  6.0114459349287195
  5.9147623140044603 10.3082864924160003  6.2744881650938797
  3.0608152199402801 10.2809471288480001  6.1820142575882997
  4.5569572349027005 23.2387864727039997  8.4632932550493489
  1.4955148784408900 10.1887751313920010  8.7836199639026091
  7.5728603888666699 10.2403357057760012  8.8185307889127102
  0.0300982067220000 23.3182137710719992 11.1281837857282095
  5.9203924171860498 10.1984890261760004 11.3217728910407001
  3.0236321633784602 10.2188547605760007 11.4305201261880693
  4.5401266871402299 23.3028210594080001 13.8922005756547300
  1.4049942500800101 10.2328863311839999 13.9017069399225193
  7.4772607333955294 10.1237421098880009 13.9041774911903708
  5.9586872239949606  9.9444682953439987 16.8154217620450588
 18.0104671880517486 11.7009666440480000  6.0737547315129303
  6.0164123971926999 13.1222003960959999  6.2610795186137498
  3.1849994791744396 13.0504525210400004  6.2154333024744197
  4.5795868487039897 14.5406009288319993  8.5736785830422999
  1.4390182626101899 13.0598235614879989  8.6843995158404201
  7.6310361296836895 13.1135281432319992  8.7908164160781403
 18.0053325643743207 14.5496975456799991 11.1714399225965710
  5.9975669718851705 13.0978586724480017 11.2740155042559493
  2.9947335386139002 13.1809856680479989 11.1816458445645086
  4.6145960251605702 14.6821215296799998 14.2243371596864705
  1.5380120251233500 13.1921629996639993 13.6916433269760400
  7.6023751032778506 13.1103443623680000 13.8609222687765197
  5.9917742442172006 13.4193135728959998 16.8423356823652099
  0.0832729729383700 14.5117238588959996  6.0411056573242305
  6.0531820108787899 16.0534865580319988  6.1464998926016001
  3.2056214592830701 16.2011533133119983  6.1577394529840097
  4.5279483224853498 17.4642718942560009  8.5187585788988898
  1.6090769336120001 16.0441991291999990  8.5128740641270397
  7.5196113731632002 15.9987060022240009  8.7356821247612189
  0.0615070074394700 17.4474029004000002 11.3372040060787800
  6.0340499101125307 15.9349946514879992 11.3759302401227700
  2.9744413348857801 16.0227228550400014 11.2223067595334900
  4.5792529071083496 17.5453711913920003 14.0044126789404899
  1.4855480619237300 16.0218538080480002 13.8798917131319595
  7.5755398898694297 16.0957954370399996 13.8793902872423089
  5.8340475075411504 16.5121920281120005 17.1324741141161816
  0.1079826589563200 17.5426316264320015  6.0068209288353103
  6.1620160035884197 18.8862063023040001  6.1101567270106703
  3.1155423437259704 18.8916130311040007  6.1763693298980700
  4.5452042654800104 20.3273368163360004  8.4895856511208709
  1.5451524715303402 18.9175464116319993  8.7027178685847399
  7.5836209505105598 18.9167651801919980  8.6672501407780498
  0.0459133474743000 20.3413088311839978 11.1885798482956691
  6.0855692749591910 18.8158676800159981 11.2719150022464802
  3.1487434546235100 18.9138046750399980 11.2972743498996291
  4.5017049318180105 20.4500300898079992 13.8644855931838205
  1.4885209389486900 19.0396672491520000 13.8082445070916293
  7.5506994523156603 19.0189154532959996 13.9085549849297401
  6.1256051416924402 19.2550631502240002 16.4678464425209867
  3.0440688819619597 18.9812825188800005 16.4754796991341301
  0.0425675931470500 20.3576929710879995  6.0668435891445194
  6.1054172494388803 21.9507331795839988  6.1882904637085998
  3.2383082566602099 21.9928348979679988  6.0838332394858101
  4.4393616216189598 11.6795370802880001  8.6595860975297398
  1.5394108130217901 21.9152414499039985  8.6139770692071487
  7.5509357830002104 21.8004069676800007  8.7064101310779485
 18.0152970266394483 11.6440820182720000 11.2217102303748000
  6.0687476009159100 21.8551858886239998 11.2988594043836290
  3.0742949426788200 21.8952512671199990 11.2571127270931104
  4.6522425071796798 11.7097668834079993 14.1994146164709285
  1.5093754467193601 21.9090151871360028 13.8392628040708292
  7.5304213740997206 21.9179270643519999 13.8495629148532995
  6.1402518490526203 22.0173917230080001 16.5011258806852510
  2.8555610243789005 21.8480756315360019 16.4272852030936001
  9.1648651922386595  0.0189373303680000  6.0010354799687100
 14.9800120400977299  1.4961616711360000  6.1620834167246805
 12.1571720402985601  1.2789195415040000  6.1074712789329695
 13.6046020454119407  2.9718457364640001  8.3930241319555883
 10.6401324166436897  1.4205330960480000  8.6449469000973203
 16.6034676585311090  1.4237164098080000  8.6068866937547810
  9.0833716716423503  2.8606717147360001 11.2276953351427498
 15.0843517656820900  1.4807972192640000 11.0853595762067396
 12.0728889121430107  1.5105842077920000 11.1348269929251913
 13.6161206762094906  2.9224604654079998 13.7879981794220594
 10.5333808504027502  1.4200708966400000 13.7518345517332605
 16.6336576810822798  1.3389370338080000 13.7347391294869805
 15.1760020728247493  1.4146828520000001 16.3715202429829496
 12.0005038115544593  1.4902864370239999 16.4336302981203204
  8.9945374121201898  2.8808844725760001  6.0785281840551306
 15.0551869293418292  4.5143055883200001  6.1130296382629199
 12.1308735963529788  4.3733443445120006  6.1788414052567697
 13.6378737838703810  5.8518749416159999  8.4661070315766196
 10.5530261781115495  4.4137455707840001  8.7465744972480000
 16.5768039433282617  4.3351354708640004  8.6324152154922800
  9.0424071430314203  5.8232816373600000 11.3093152772509704
 15.0956027361334613  4.3235293377759998 11.2077157233719298
 12.0773873444834106  4.4225147477280000 11.2724398991352199
 13.5249772576385201  5.7781252923680002 13.9455544240406795
 10.5044822256381885  4.3641979810880001 13.8493733179515601
 16.5678820525197992  4.3928994199200000 13.7297300524993684
 15.1935968470154208  4.2215563306400004 16.4625596761805078
 12.0584258364411703  4.6181920869919999 16.4890983653333905
  8.9531844319243099  6.0220084650880006  6.1388919358965692
 15.0122460966998705  7.2927431767520003  6.0944463985288699
 11.8756915103172194  7.3241533516799997  5.9167313090554696
 13.5531295845095698  8.7019300830879995  8.5388732251190209
 10.6006967030817787  7.2163202913119999  8.7665379536558099
 16.6079510598777809  7.3195619529120002  8.6862979234031794
  9.0185368384103199  8.6893150053599992 11.2802020938342693
 15.0488597864630496  7.2956651458239996 11.2517211033021507
 12.0537274737745310  7.2571255625439992 11.2139763837655604
 13.5580476170002395  8.6608833190879988 14.1802820943945402
 10.4867681089792306  7.3544350033440002 13.9700105954561202
 16.6405270263132010  7.3336937173279999 14.0366325691458300
 15.1145475833151792  7.0457026145440000 16.6285883418342806
  8.9248892200646708  8.7706072164479991  6.0115477441974994
 14.8660336445099297 10.2991527408000003  6.0878809199652393
 11.9224406172621684 10.1803354963199997  6.0440977524809503
 13.6441219687580002  0.0251554188160000  8.5492727066249099
 10.5884868276689605 10.1528926692160013  8.5462342791063506
 16.5584474780577295 10.1370305180320006  8.7173686491076197
  9.0427227938997490  0.0780591507520000 11.1683618687159090
 15.1057553574646803 10.2300559144959990 11.2795199107698103
 12.1026214854151206 10.1548771605599999 11.2065750937797901
 13.5203277909755801  0.0198206240320000 13.8177511761775893
 10.5746344087244388 10.2313124242560001 13.8972986595479799
 16.5823358923098318 10.1965423702559992 13.9239159917887196
 15.6038252632429195 10.2498604234400013 16.8576470038624819
  8.9130775754375406 11.6666543519679990  6.0547179223419194
 14.9476092017346698 13.0123380023999999  6.1056935793655294
 12.0224582983120687 13.0962270781759997  6.1570978107361602
 13.5874996720881587 14.4281454072800006  8.6258576622010690
 10.5193926092257311 13.0471666779519992  8.7493736425031088
 16.5231049032944384 13.1363144105600007  8.6299059523168395
  9.1676732716215188 14.5418317478719992 11.4477813695188289
 15.1135044685695803 13.1228062299840005 11.1412607900393805
 12.1182144209950504 12.9738446624160009 11.2626915092404492
 13.6533383221665190 14.5515869813599998 13.8779747116608299
 10.6842588868272195 13.1222158105280009 14.0132737431423884
 16.5706767307757197 13.1072584397920000 13.7994943967036097
 15.4562328571707788 13.0900631737920001 16.7011375048396395
  9.0143243571434102 14.7032582192319996  6.0947804792431901
 14.9642620940170303 16.0718449129919989  6.2945418476800095
 11.9644413789589183 16.0134998865600018  6.1596985193625997
 13.5616005455061313 17.3362179017279985  8.5323476777356593
 10.5527918394864102 15.9221317750880011  8.7847642513127902
 16.6872435359223488 16.0042133919359983  8.6184069916717601
  9.0337994543208104 17.4180732066879997 11.3191880329591008
 15.0577193801408686 16.0398681409120023 11.3182275509054300
 12.1498008771926305 16.0211386718240014 11.1944786895215085
 13.5058877145051088 17.6434779787200000 13.8336376895616500
 10.6620126539142017 16.1305012642399994 13.8565606255819898
 16.6707663070606884 15.9798462111200017 13.8233101451438785
 15.6654510698617511 15.9407633858879993 16.6357366327389506
  9.2905549050978511 17.4358715039520007  6.0459044097745398
 15.1251661654520309 18.8378388508639993  6.1434190953574097
 12.1733834197771404 18.8168140327200000  6.1274243715230003
 13.6152776728864389 20.4598539875840011  8.3704739885571602
 10.5600561557694395 18.9040823723839999  8.6563583779276101
 16.5796598321369615 18.9449095975040009  8.6417941657650097
  9.0893458578129405 20.4133937217760000 11.1802805639810803
 15.2163963291554900 19.0421793344640022 11.1368951842086403
 12.1867776650573614 18.9466089218559972 11.2873601389203806
 13.6184981085671701 20.4282992439679987 13.8500152650175803
 10.5816240019051993 19.0541946506560009 13.7997205717857483
 16.6414929940307381 18.8440382551520003 13.9020370580006301
 15.2358623715173902 19.0177750188800019 16.5255518751018577
 12.0862360723826292 19.0602567263679994 16.6449674413810591
  9.0626576946082409 20.3438339954080014  6.0233536567397694
 14.9950812451491409 22.1278800360639991  5.9780442646782896
 12.1630698038263301 21.9059528533120016  6.0810773784108401
 13.5843955002384504 11.5461865955039986  8.5225346663888502
 10.6331281546618204 21.7996479236799985  8.6846433703764188
 16.6000588826879785 21.9112698981439991  8.5743949057417996
  9.0534281211690910 11.5978732879679995 11.3515953863389907
 15.1073305331690602 21.8990441516000018 11.1510052172979393
 12.1133938183191603 21.8469732660960005 11.1820512527306111
 13.6452652297630319 11.6881343629599996 13.9609739559883010
 10.4628344206496298 21.9087767305440018 13.6824509254233497
 16.5985541534481911 21.8847998151199974 13.7103990937943099
 15.2135788327645116 21.9009095314239985 16.4320492062725307
 11.9970852565105908 21.8913941558400005 16.4522513353074515
  7.4561184635882709  0.0237536397120000  7.0852310361149096
  4.7930242432253403  0.0595746777120000  5.3889883330621799
  1.7527348412530799  0.0305212760160000  7.0284162822267797
  2.7582503709708801  2.8859712351360001  9.6479139006655803
 18.0787039154671305  2.8639767090880000  9.1952668434879996
  6.2940207258736196  2.9057591618880001  9.6997177486570809
  7.3108127606224995  2.8738321363840003 12.1372093522433904
  4.5198000751132099  2.9327643125440002 11.7051436179042092
  1.7830655756371199  2.7748488284000001 12.1961462502310596
  2.6931732308760701  2.8607945630880001 14.7709093636769992
 18.0528926205954505  2.8727008104959997 14.3459519890622200
  6.3539250309695898  2.8722236637599998 14.7841777937989303
  7.3980511994609399  2.9580283330399997 17.2267220633711595
  4.5772085108647600  2.8524140166719998 16.9480710091748108
  1.6236781857983700  3.2357249307680003 17.2221936846376380
  7.3173675415629500  2.9426624798560002  7.1745494659246498
  4.7147812202972199  2.9978734720000002  6.5860056288341404
  1.7901308670754601  2.9473101646560003  7.0417060496206094
  2.6480826039381000  5.8183322033760003  9.6162926733461198
 18.0898395275690298  5.8657479304160010  9.2681979436603701
  6.2342357632459402  5.8652222048639997  9.7768013867593595
  7.3392082998378800  5.8740161383199991 12.3290189290794192
  4.4837794757652807  5.8115671361439993 11.9006847787773804
  1.7629966636592300  5.8229053850880002 12.3606782586701289
  2.6603466271476104  5.8301497010240002 15.0166921794204189
 18.0943252831677306  5.8232732294880005 14.4439318271725092
  6.2965053672468203  5.8304645291200003 14.9960812892195303
  7.4643779040947500  5.7883420246080002 17.4172291521667795
  4.5232901631995297  5.8579624744960004 17.2527450001804006
  0.8885188019312300  6.8123365219359995 17.3900244353124478
  7.3287876559678606  5.8720202029279998  7.2021409970367092
  4.6455423059023007  5.9492726650719998  5.6306283650571300
  1.6623435156575401  5.8667045594080003  7.0640342853912799
  2.6875782603786202  8.7796825800639997  9.8677231601432993
 18.0671240741168013  8.6856750974400008  9.2979951390505491
  6.1286140568830900  8.8288877825280014  9.6418272914470204
  7.2309512799719107  8.7775476812320008 12.3132768995079402
  4.4526738302707498  8.7616033197440011 11.9981884909061307
  1.6868405946075500  8.7525057686879997 12.4985667205058402
  2.6700579167713601  8.7571170193760004 15.0586985617917790
 18.0692959621626308  8.7652558394720010 14.4811092800947296
  6.2646220941971498  8.8222754583040004 14.9774785411226006
  7.2680455993418303  8.6708833150720004 17.5661840376643390
  4.3382551895533403  8.8259718858080003 16.9106161717178907
  1.0850852642129800  9.4089081021759995 17.4278112197564994
  7.2802197987815802  8.8047469136000007  7.1315957086809298
  4.4686193603662501  8.7812740033919994  6.3266065854368199
  1.7074104189789001  8.7153845467039996  7.1133672772967600
  2.8268286460269203  0.0250391099200000  9.7237733889971398
  0.0527318046421100  0.0083798457600000  9.1629399621049892
  6.2645168772410393 23.2324434339360018  9.6137855438978708
  7.2758005055286494 23.3352200935039988 12.1924289926479101
  4.5686171208220507  0.0373115668640000 11.8930929774353586
  1.7400262266025202  0.0057780764800000 12.1871483226708293
  2.6767441736328701  0.0547595361280000 14.7642420758445887
  0.0028861318924700 23.3046067979999982 14.4822480807778486
  6.3919728224116605  0.0115654950400000 14.7653564910741100
  7.4836268119809608  0.0450937530560000 17.1681018714621203
  4.3762245662931800 23.3186554179040009 16.7734422036726620
  1.6216430254665901  0.0185120321760000 17.2364003450868282
  7.2760739609567500 11.6674463268000004  7.3052597646750304
  4.5976023096227898 11.6830384918720007  5.5452756196390904
  1.6878125385033200 11.6340308743999987  7.0886142129837397
  2.7713912625134101 14.5432557144160004  9.6173753874859607
  0.0335002820016600 14.4782502520479994  9.1395634566476911
  6.3037193387556698 14.5474192459199987  9.7636051985437184
  7.3154107959334000 14.4677443824320004 12.2552358621219000
  4.5789207764758109 14.5443984843519996 12.0621125189731693
  1.7138867852171200 14.6817564879039999 12.1249169499018006
  2.5848479377012299 14.6056876672960012 14.6456644547147192
  0.0784114424964200 14.5462311668960016 14.3378502269217911
  6.6056009113474401 14.5653144672640007 15.0272044436492092
  5.7549627489641502 14.7812580477759994 18.0471276703811903
  4.4431121261990603 16.1166740516319997 15.6217690492335599
  1.9166851337185902 14.6962871591360003 16.9617795967342211
  7.2542341081633701 14.6037657678879995  7.1698555709248195
  4.6279174697241707 14.5814564137440001  6.6047394487441702
  1.7881424295916599 14.4653955499679991  7.0729944154984299
  2.9216233284001101 17.4706128310560018  9.6860420814600303
  0.0484474281401300 17.5709220137439992  9.2919630922844210
  6.3288692699032296 17.3939678376640003  9.7190584615435789
  7.3367692947348004 17.4393986062560025 12.2702588256303500
  4.5180771248198699 17.3854067555520011 11.8814032006158588
  1.8220260924815899 17.4876214890079993 12.2098066765196105
  2.6020269147641404 17.6043991238719997 14.8212165544537999
  0.0542981066273000 17.5089335761119997 14.4538685946963383
  6.3455754045007309 17.6406569041119994 14.9651388919646600
  7.3803153512447803 17.7423884184800009 17.2806044664638918
  4.5654256605509200 17.9597893634719981 17.4206098904902511
  1.4744890535609601 17.6383839760480008 17.1095298408239387
  7.3877770625057106 17.4967725234720000  6.9663345751792205
  4.7317455982327798 17.5082866370720005  5.3437572792703900
  1.8468141932017699 17.4613669744800006  7.0445734741457997
  2.8720931254224902 20.4303542680160000  9.6299802284518012
  0.0258828279141300 20.4233960532800012  9.1393473405651591
  6.2506242549156994 20.2930859484320010  9.6909755635414783
  7.3480189975119998 20.4912389388960001 12.2603894229220884
  4.5844175927732405 20.4442085726559988 11.8292305226386603
  1.7352302530247898 20.5291733889439989 12.2475501767835198
  2.5987823932741798 20.4154202524800006 14.7824165544126700
 18.0546617504478384 20.4734847829600000 14.4569615846673294
  6.3571851267422099 20.5424811819039981 14.8188536039999601
  7.4254579528237201 20.7362275132320022 17.2947800354597412
  4.5246242997152999 20.6409815043520020 16.8904990869523992
  1.6358096465089602 20.3589686321119991 17.2426838668432119
  7.3892026526580299 20.4001373102559995  7.1608055194575195
  4.6506631662601698 20.4483258608639993  6.2085136251972504
  1.7756667047957602 20.4250358218719974  7.1183364231040995
  2.7204999396698302 11.5804610521600004  9.8275283121562502
 18.0120429070450605 11.5471285107200003  9.0730298802272795
  6.3038030052508898 11.7070249829280009  9.6679700217970694
  7.2512134217125706 11.5761027382880002 12.3215807560950790
  4.6360762206822894 11.6984181246239984 12.0630388613918011
  1.7775195011433700 11.6007975925599993 12.2431400674999598
  2.7474314963151700 11.8410784592319995 14.6023659481207293
 18.0813481026894394 11.6716502628000001 14.4770326418891493
  6.5786633785238706 11.6329584036159996 14.9981339347763090
  6.3652210944021501 11.6730779661760007 17.7075846144547882
  4.3148006820600004 13.2246103790239999 15.7059058749714708
  2.0651194565359199 11.4818593681439989 17.0367075607382610
 16.3717580085233791 23.3532327915039986  7.0166762104092300
 13.5333084122837590  0.0388060661120000  5.2692661197039596
 10.8387112211221606 23.2068164736319993  7.1592866105164097
 11.9044177313946609  3.0286722077919999  9.6270436102020192
  9.0091910011401506  2.8976457989600002  9.2745796168674897
 15.3561709886212405  2.8551057034720002  9.5657931423040505
 16.2856595709563905  2.7959616956479998 12.1210738024144398
 13.6232299740511600  2.9229955330400004 11.8029710469294997
 10.8925986013183813  2.8582096095520000 12.1755298733031090
 11.7923801449611290  2.9765188784319996 14.7446392193318889
  9.0416823955987997  2.8985940200800000 14.5102279502384892
 15.3295069112257707  2.7780263033600003 14.6910966884987104
 16.4190618134658592  2.8288488534239997 17.1852579525242284
 13.6498000624617397  2.9269187395360001 16.8145277303524523
 10.7453260113296984  3.1950352677759999 17.1733868088935786
 16.2777451189204605  2.9220748710560001  7.1343844901182596
 13.5718515021336810  2.9295686205280003  6.0951544911377793
 10.8280245467727507  2.9466354329280002  7.0593172242105302
 11.8598080962560513  5.8145811247040005  9.6353267391535997
  9.0190129406093096  5.8781131075040003  9.1402697203475789
 15.2400507669750702  5.9458831248960005  9.6134017778218404
 16.3095007190715791  5.8740329540639999 12.1949580690044002
 13.5916302978229506  5.8042100145919999 11.8006071820211496
 10.8459514515959619  5.8049849401280005 12.3096827884654694
 11.6714025580881415  5.7402116284479998 14.7512437146212800
  8.9185195195530405  5.7573741971679997 14.4082543844648594
 15.3819165455323894  5.7048196254720001 14.7571715135732706
 16.4034475085213494  5.6252269722879999 17.3390356711075313
 13.7135640732127388  5.5445681542239997 17.0730909623276297
 10.6517024787932790  6.3669752789279999 17.0994879110314599
 16.4225531692263509  5.8066106955999999  7.0702214846059395
 13.3295714416075590  5.9323039445120003  5.4346625924731500
 10.6834754641901597  5.9133154662560008  7.0401947611337494
 11.8524568537442203  8.6323049621600010  9.5634155605780489
  9.0745946578818906  8.7638876918560005  9.2948792877168103
 15.3551322201870803  8.7320143833120003  9.6336295115830399
 16.3775386027385821  8.6878097627199988 12.3603368623197305
 13.5933827668148197  8.6505035675519988 12.0281536411079806
 10.8410888345761496  8.6577726399999992 12.1593251297495684
 11.6526960336503791  8.6434652444799998 14.8440227451150299
  8.9529761711678102  8.6555805209279999 14.4672260317239090
 15.4351251767587296  8.7509545163039988 14.9504792717148494
 16.0934616949607694  8.3812454371360001 17.7102383614428085
 13.3913662110836214  8.1683427036640008 16.5299647277489505
 10.2990654055904312  9.3705121533759996 17.2209338711410282
 16.3680522347318522  8.7303895620479999  7.0109593456308801
 13.3503176537848507  8.7164990568480007  6.4126210911019292
 10.6810614503778591  8.6362755797120005  7.1046354559989400
 11.8723142452320314 23.3478678685120009  9.5909461280561086
  9.1185606767347593 23.3490410002080004  9.1702409669128286
 15.3893586983918400 23.2834093849279995  9.5196202003669601
 16.3319530395853825 23.3395795751359998 12.0215467072732309
 13.5639417586018105 23.3449449652319991 11.7736749726108005
 10.8207365068731107  0.0030728436640000 12.0812819240481293
 11.7102156625362692 23.3328838728479973 14.7774288146969592
  8.9704097696425791  0.0740378524160000 14.4162238555195099
 15.3553602204413693  0.0318882558720000 14.6781245416380202
 16.4074508235502101  0.0119928952000000 17.2261307161213608
 13.5910835680630608  0.0527771467520000 16.6785888855320614
 10.7743486870666096  0.1703371808160000 17.2898767303771166
 16.2536127679387903 11.6253637596800008  7.1421082777278899
 13.4071081889266797 11.6456064121760008  5.5180885822386205
 10.7889211449396907 11.5560992430400002  7.1346134085639301
 11.8360335915829396 14.4020838067039989  9.7439822240318001
  9.1065672114123899 14.5827801864800009  9.3940058517826390
 15.3781010273770011 14.5441639981440005  9.6785392870236500
 16.2778353048828386 14.6129994797599991 12.2477989084102408
 13.6226562609410795 14.6006784440000015 11.8036373794491194
 10.9386379918244394 14.5433563753280009 12.4125644075675314
 11.8721795095773892 14.7393557828000006 14.8463683209331787
  9.1017315777427701 14.5471574341280014 14.4143568442282586
 15.3412910292137799 14.4689707639840002 15.0061503478291396
 16.8875746282963810 14.4877277922080001 17.1281901995550001
 14.2616913533270093 14.7260965686559988 17.5726891622303079
  9.8651532139411309 15.1332575794400004 17.1706949596343108
 16.3999068945645412 14.5095763482559992  7.0496669857664997
 13.4878854736169398 14.5714580526240010  6.3237864077279804
 10.7106821061303901 14.4567279681439995  7.1529933345785901
 11.8914119376993899 17.5085269620800013  9.6672783893693399
  9.0973926912514784 17.4159850182560021  9.2039383107881605
 15.3192318687889912 17.4620709002080012  9.6348713408076190
 16.3571946054658000 17.3393014887839989 12.2066902155495303
 13.7542451860985189 17.5427287840639998 11.8505863884470291
 10.9018147736305906 17.5038423760640001 12.3104673904350488
 11.7319023078513904 17.8153645435039998 14.9696456286081094
  9.0402582542169601 17.6051261712479992 14.4763413142795905
 15.2878362881021506 17.4705740614239993 14.8728411693613385
 16.6340780056177913 17.6801486788959998 17.1938166371014880
 13.5171937382347203 18.1178447452640015 17.5856808174538770
 10.4040750064254794 17.7954603078560005 17.2515501129539999
 16.4884586438430993 17.4798666283999999  7.1390969790264593
 13.5478127779442818 17.4251367533759982  5.4316759840434905
 10.8895090982697802 17.4476852647679976  7.1907871298405501
 11.9184554118643096 20.3022762196319988  9.5739869595318208
  9.1211166700541000 20.3842099980640015  9.2187037029429604
 15.2752238355922003 20.5053263284319982  9.5825569223813698
 16.4494590101956710 20.4036247087199989 12.2070102746280309
 13.5861706062690697 20.4907505816639990 11.7824708057243193
 10.9027046808979300 20.4363070413919985 12.1685406974831789
 11.7153013902099996 20.5253419683840015 14.8087092553023609
  9.0857353406804702 20.4496788275999997 14.5485603592068387
 15.4718381072997904 20.2922647796000000 14.8158676052066394
 16.4903031097604504 20.3020870425119995 17.2690314350034981
 13.6159192971127698 20.6074226510239988 16.9120369292082593
 10.8271688667079999 20.4487768497759994 17.3658746061578597
 16.4278692514063991 20.3549319193440006  7.0272399889087493
 13.6698841865296714 20.3888345612160009  6.3269263396971498
 10.8982866553191702 20.3858948421919983  7.1225874173029196
 11.7797329219596598 11.5788686946239991  9.6644310828433699
  9.0903357302433996 11.6679225393279999  9.2685558001919492
 15.3258761113065809 11.6078375504959990  9.6620065591191899
 16.3433217226382510 11.6252792138560004 12.2748884039963109
 13.6231417801481900 11.7098511956800007 11.8586287110443109
 10.8759004349585204 11.6808365636159994 12.3547818559896498
 11.8738720356906491 11.5321410117759999 15.1163512608292390
  9.0678671110617000 11.6144010623520000 14.5346146231111693
 15.4218892096534503 11.6137195576159993 14.9727755015776705
 16.9984097352315082 11.6180897826400003 17.2687845322857996
 14.2938488061900202 11.5113095746880010 17.6368652749239381
  9.3322267958956413 12.0517893071840003 17.4273210721391401
 18.0904949151149204  3.2989346118080003 16.3301183150427001
 17.9129328807008825  5.7888107634720001 16.3877374840814589
 18.0201753990382301  8.1595335893279994 17.5139814875064808
  3.5982223228877896  7.2385088990719995 16.1310412633975275
 18.0013064312103985 23.0261467187840019 16.4417567505325195
  2.5347197547079898  9.8136322313919990 16.6192718792864014
  0.3384016355626800 14.7617039065760007 16.2998084154905811
  2.4213574487668099 13.1291427292960012 16.0459302387882978
  0.0179118738294800 17.4270215180160015 16.2742335613912381
  2.3022755780669000 16.3572772200640024 16.4163044333375190
 18.0787432133664012 20.4595447647359983 16.4053712152159612
  0.4753303665167800 10.9452587008159998 16.6513335688615101
  9.0893237640631206  3.1073729258879998 16.5068881633709310
  9.0864977561455706  6.0666638410400004 16.3601136422433804
  8.7149100406790811  8.9978717630559988 16.3874866187275501
 11.3079491455779202  7.9573118894719999 16.6828292110949299
  9.1301320065585188  0.1775499672320000 16.3896352820078803
 10.6461446330393787 10.9700689297759997 16.6509687015120207
  8.4195673125524806 14.6537407577440018 16.1464229978920706
 10.2019392893223007 13.4500310325919994 17.5215056192147607
  8.9722792268507110 17.9419614051039993 16.4187338341524196
 10.7745515149338100 16.3331846964000000 16.4186704319730588
  9.0566460215014803 20.3500121464639996 16.5067400217403097
  7.9976925926288800 11.6329189333279999 16.3798564102961102
 12.7426681817887104 14.4056968561440009 16.6609389990345491
 12.6026885213000401 12.1523205978239996 17.4796293942019894
 13.1797999036371891 16.2824525309600006 18.0300224939534708
 12.9082890877139711  9.7834206453280004 17.3332697306038099
