Ta N                                    
   1.00000000000000     
    15.6834007599999996    0.0000000000000000    0.0000000000000000
    -7.8417003799999998   13.5822231099999993    0.0000000000000000
     0.0000000000000000    0.0000000000000000   22.2178999799999985
   Ta   N 
   108   108
Direct
  0.0000002713822127  0.0000002724149013  0.2779679664404683
  0.2222219987225102  0.1111111367982858  0.3310943897554179
  0.1111111357655972  0.2222220011816631  0.3310943897554179
  0.9999996558024975  0.9999996495419055  0.4045897142809779
  0.2222220489558779  0.1111106302538118  0.4656534734503553
  0.1111106347257476  0.2222220792248493  0.4656534734503553
  0.9999995108095447  0.9999994934555332  0.5334915639653243
  0.2222221750756503  0.1111107473185982  0.5969200236727753
  0.1111107608455200  0.2222221962896356  0.5969200236727753
  0.0000001794242621  0.0000001560863794  0.6644405974805374
  0.2222225432558886  0.1111119555155042  0.7254843479956643
  0.1111119479724465  0.2222225467477230  0.7254843479956643
  0.0000002714150966  0.3333336062390728  0.2779679664404683
  0.2222219993930068  0.4444444706224502  0.3310943897554179
  0.1111111357984740  0.5555553350058346  0.3310943897554179
  0.9999996561048690  0.3333329826298197  0.4045897142809779
  0.2222220496263745  0.4444439640779834  0.4656534734503553
  0.1111106347586315  0.5555554130490208  0.4656534734503553
  0.9999995108424216  0.3333328272797047  0.5334915639653243
  0.2222221757461469  0.4444440811427697  0.5969200236727753
  0.1111107605102717  0.5555555293775498  0.5969200236727753
  0.0000001790890138  0.3333334891742936  0.6644405974805374
  0.2222225429206404  0.4444452886034185  0.7254843479956643
  0.1111119486429430  0.5555558805718945  0.7254843479956643
  0.0000002710798483  0.6666669393269871  0.2779679664404683
  0.2222219990577585  0.7777778037103644  0.3310943897554179
  0.1111111354632257  0.8888886680937489  0.3310943897554179
  0.9999996561377458  0.6666663164539912  0.4045897142809779
  0.2222220492911262  0.7777772971658976  0.4656534734503553
  0.1111106350609958  0.8888887461369350  0.4656534734503553
  0.9999995105071733  0.6666661603676189  0.5334915639653243
  0.2222221754108986  0.7777774142306839  0.5969200236727753
  0.1111107611807682  0.8888888632017213  0.5969200236727753
  0.0000001797595104  0.6666668229984651  0.6644405974805374
  0.2222225435911369  0.7777786224275900  0.7254843479956643
  0.1111119483076948  0.8888892136598088  0.7254843479956643
  0.3333336045030109  0.0000002724149013  0.2779679664404683
  0.5555553318433013  0.1111111367982858  0.3310943897554179
  0.4444444688863882  0.2222220011816631  0.3310943897554179
  0.3333329895609083  0.9999996495419055  0.4045897142809779
  0.5555553827142887  0.1111106302538118  0.4656534734503553
  0.4444439678465457  0.2222220792248493  0.4656534734503553
  0.3333328439303358  0.9999994934555332  0.5334915639653243
  0.5555555088340611  0.1111107473185982  0.5969200236727753
  0.4444440939663181  0.2222221962896356  0.5969200236727753
  0.3333335125450532  0.0000001560863794  0.6644405974805374
  0.5555558763766797  0.1111119555155042  0.7254843479956643
  0.4444452817308644  0.2222225467477230  0.7254843479956643
  0.3333336045358877  0.3333336062390728  0.2779679664404683
  0.5555553325137979  0.4444444706224502  0.3310943897554179
  0.4444444689192721  0.5555553350058346  0.3310943897554179
  0.3333329892256600  0.3333329826298197  0.4045897142809779
  0.5555553827471655  0.4444439640779834  0.4656534734503553
  0.4444439685170423  0.5555554130490208  0.4656534734503553
  0.3333328439632197  0.3333328272797047  0.5334915639653243
  0.5555555088669450  0.4444440811427697  0.5969200236727753
  0.4444440936310698  0.5555555293775498  0.5969200236727753
  0.3333335122098049  0.3333334891742936  0.6644405974805374
  0.5555558760414314  0.4444452886034185  0.7254843479956643
  0.4444452817637412  0.5555558805718945  0.7254843479956643
  0.3333336048382591  0.6666669393269871  0.2779679664404683
  0.5555553321785496  0.7777778037103644  0.3310943897554179
  0.4444444692216365  0.8888886680937489  0.3310943897554179
  0.3333329892585439  0.6666663164539912  0.4045897142809779
  0.5555553824119173  0.7777772971658976  0.4656534734503553
  0.4444439681817940  0.8888887461369350  0.4656534734503553
  0.3333328442655841  0.6666661603676189  0.5334915639653243
  0.5555555085316968  0.7777774142306839  0.5969200236727753
  0.4444440943015664  0.8888888632017213  0.5969200236727753
  0.3333335128803014  0.6666668229984651  0.6644405974805374
  0.5555558767119280  0.7777786224275900  0.7254843479956643
  0.4444452814284929  0.8888892136598088  0.7254843479956643
  0.6666669376238019  0.0000002724149013  0.2779679664404683
  0.8888886656017121  0.1111111367982858  0.3310943897554179
  0.7777778020071864  0.2222220011816631  0.3310943897554179
  0.6666663226817064  0.9999996495419055  0.4045897142809779
  0.8888887158350798  0.1111106302538118  0.4656534734503553
  0.7777773009673368  0.2222220792248493  0.4656534734503553
  0.6666661770511340  0.9999994934555332  0.5334915639653243
  0.8888888419548593  0.1111107473185982  0.5969200236727753
  0.7777774270871092  0.2222221962896356  0.5969200236727753
  0.6666668456658513  0.0000001560863794  0.6644405974805374
  0.8888892094974779  0.1111119555155042  0.7254843479956643
  0.7777786148516554  0.2222225467477230  0.7254843479956643
  0.6666669382942985  0.3333336062390728  0.2779679664404683
  0.8888886656345960  0.4444444706224502  0.3310943897554179
  0.7777778026776829  0.5555553350058346  0.3310943897554179
  0.6666663223464582  0.3333329826298197  0.4045897142809779
  0.8888887158679637  0.4444439640779834  0.4656534734503553
  0.7777773016378333  0.5555554130490208  0.4656534734503553
  0.6666661770840108  0.3333328272797047  0.5334915639653243
  0.8888888419877361  0.4444440811427697  0.5969200236727753
  0.7777774273894806  0.5555555293775498  0.5969200236727753
  0.6666668459682157  0.3333334891742936  0.6644405974805374
  0.8888892097998422  0.4444452886034185  0.7254843479956643
  0.7777786148845323  0.5555558805718945  0.7254843479956643
  0.6666669379590502  0.6666669393269871  0.2779679664404683
  0.8888886652993477  0.7777778037103644  0.3310943897554179
  0.7777778023424347  0.8888886680937489  0.3310943897554179
  0.6666663230169547  0.6666663164539912  0.4045897142809779
  0.8888887161703281  0.7777772971658976  0.4656534734503553
  0.7777773013025850  0.8888887461369350  0.4656534734503553
  0.6666661773863822  0.6666661603676189  0.5334915639653243
  0.8888888422901076  0.7777774142306839  0.5969200236727753
  0.7777774274223574  0.8888888632017213  0.5969200236727753
  0.6666668460010996  0.6666668229984651  0.6644405974805374
  0.8888892098327261  0.7777786224275900  0.7254843479956643
  0.7777786151869037  0.8888892136598088  0.7254843479956643
  0.9999998350968227  0.1242215192338142  0.2772809501595323
  0.2091120893673513  0.2091120870052586  0.2772808551910619
  0.1242214811366515  0.9999998048920276  0.2772809501595323
  0.9999997303201482  0.1304092999657669  0.4017606494237717
  0.2029245031691105  0.2029245006450211  0.4017606494237717
  0.1304092650752693  0.9999997275850987  0.4017606494237717
  0.9999995308553693  0.1306438356508706  0.5319979681286930
  0.2026892102087048  0.2026891860005422  0.5319980635472497
  0.1306438317864134  0.9999995324771263  0.5319979681286930
  0.0000001423162672  0.1309168183754505  0.6617634729598793
  0.2024173364345035  0.2024173334296893  0.6617629967672615
  0.1309167943998344  0.0000001170647863  0.6617634729598793
  0.9999998357673192  0.4575548530579858  0.2772809501595323
  0.2091120896697228  0.5424454200931729  0.2772808551910619
  0.1242214811695354  0.3333331387161991  0.2772809501595323
  0.9999997303530250  0.4637426337899385  0.4017606494237717
  0.2029245028338622  0.5362578337329355  0.4017606494237717
  0.1304092647400210  0.3333330606730129  0.4017606494237717
  0.9999995305201210  0.4639771687387849  0.5319979681286930
  0.2026892102415887  0.5360225198247138  0.5319980635472497
  0.1306438314511651  0.3333328655650405  0.5319979681286930
  0.0000001426186387  0.4642501514633648  0.6617634729598793
  0.2024173371050000  0.5357506672538608  0.6617629967672615
  0.1309167940645861  0.3333334501527006  0.6617634729598793
  0.9999998354320709  0.7908881861459000  0.2772809501595323
  0.2091120893344745  0.8757787531810871  0.2772808551910619
  0.1242214814718997  0.6666664718041133  0.2772809501595323
  0.9999997300177768  0.7970759668778525  0.4017606494237717
  0.2029245035043588  0.8695911675571070  0.4017606494237717
  0.1304092644047727  0.6666663937609272  0.4017606494237717
  0.9999995311906176  0.7973105025629562  0.5319979681286930
  0.2026892099063404  0.8693558529126281  0.5319980635472497
  0.1306438321216616  0.6666661993892120  0.5319979681286930
  0.0000001422833904  0.7975834845512790  0.6617634729598793
  0.2024173367697517  0.8690840003417750  0.6617629967672615
  0.1309167940974629  0.6666667839768650  0.6617634729598793
  0.3333331688552335  0.1242215192338142  0.2772809501595323
  0.5424454231257622  0.2091120870052586  0.2772808551910619
  0.4575548142574496  0.9999998048920276  0.2772809501595323
  0.3333330634409393  0.1304092999657669  0.4017606494237717
  0.5362578362899088  0.2029245006450211  0.4017606494237717
  0.4637425981960675  0.9999997275850987  0.4017606494237717
  0.3333328639761675  0.1306438356508706  0.5319979681286930
  0.5360225433295031  0.2026891860005422  0.5319980635472497
  0.4639771649072045  0.9999995324771263  0.5319979681286930
  0.3333334760746780  0.1309168183754505  0.6617634729598793
  0.5357506701929142  0.2024173334296893  0.6617629967672615
  0.4642501275206325  0.0000001170647863  0.6617634729598793
  0.3333331688881174  0.4575548530579858  0.2772809501595323
  0.5424454227905139  0.5424454200931729  0.2772808551910619
  0.4575548142903265  0.3333331387161991  0.2772809501595323
  0.3333330634738232  0.4637426337899385  0.4017606494237717
  0.5362578365922731  0.5362578337329355  0.4017606494237717
  0.4637425978608192  0.3333330606730129  0.4017606494237717
  0.3333328642785318  0.4639771687387849  0.5319979681286930
  0.5360225433623799  0.5360225198247138  0.5319980635472497
  0.4639771652095759  0.3333328655650405  0.5319979681286930
  0.3333334757394297  0.4642501514633648  0.6617634729598793
  0.5357506702257981  0.5357506672538608  0.6617629967672615
  0.4642501271853772  0.3333334501527006  0.6617634729598793
  0.3333331685528691  0.7908881861459000  0.2772809501595323
  0.5424454224552656  0.8757787531810871  0.2772808551910619
  0.4575548145926979  0.6666664718041133  0.2772809501595323
  0.3333330637761875  0.7970759668778525  0.4017606494237717
  0.5362578366251570  0.8695911675571070  0.4017606494237717
  0.4637425981631836  0.6666663937609272  0.4017606494237717
  0.3333328643114157  0.7973105025629562  0.5319979681286930
  0.5360225436647513  0.8693558529126281  0.5319980635472497
  0.4639771652424527  0.6666661993892120  0.5319979681286930
  0.3333334754041815  0.7975834845512790  0.6617634729598793
  0.5357506698905499  0.8690840003417750  0.6617629967672615
  0.4642501278558808  0.6666667839768650  0.6617634729598793
  0.6666665019760316  0.1242215192338142  0.2772809501595323
  0.8757787562465603  0.2091120870052586  0.2772808551910619
  0.7908881473782406  0.9999998048920276  0.2772809501595323
  0.6666663965617374  0.1304092999657669  0.4017606494237717
  0.8695911700483195  0.2029245006450211  0.4017606494237717
  0.7970759313168584  0.9999997275850987  0.4017606494237717
  0.6666661970969585  0.1306438356508706  0.5319979681286930
  0.8693558764502941  0.2026891860005422  0.5319980635472497
  0.7973104980280025  0.9999995324771263  0.5319979681286930
  0.6666668091954762  0.1309168183754505  0.6617634729598793
  0.8690840033137124  0.2024173334296893  0.6617629967672615
  0.7975834606414236  0.0000001170647863  0.6617634729598793
  0.6666665020089084  0.4575548530579858  0.2772809501595323
  0.8757787559113120  0.5424454200931729  0.2772808551910619
  0.7908881480487372  0.3333331387161991  0.2772809501595323
  0.6666663972322340  0.4637426337899385  0.4017606494237717
  0.8695911697130713  0.5362578337329355  0.4017606494237717
  0.7970759316192298  0.3333330606730129  0.4017606494237717
  0.6666661973993300  0.4639771687387849  0.5319979681286930
  0.8693558771207907  0.5360225198247138  0.5319980635472497
  0.7973104983303668  0.3333328655650405  0.5319979681286930
  0.6666668088602279  0.4642501514633648  0.6617634729598793
  0.8690840033465892  0.5357506672538608  0.6617629967672615
  0.7975834603061753  0.3333334501527006  0.6617634729598793
  0.6666665023112799  0.7908881861459000  0.2772809501595323
  0.8757787562136835  0.8757787531810871  0.2772808551910619
  0.7908881477134889  0.6666664718041133  0.2772809501595323
  0.6666663968969857  0.7970759668778525  0.4017606494237717
  0.8695911697459481  0.8695911675571070  0.4017606494237717
  0.7970759312839816  0.6666663937609272  0.4017606494237717
  0.6666661974322068  0.7973105025629562  0.5319979681286930
  0.8693558767855424  0.8693558529126281  0.5319980635472497
  0.7973104983632507  0.6666661993892120  0.5319979681286930
  0.6666668091625922  0.7975834845512790  0.6617634729598793
  0.8690840036489607  0.8690840003417750  0.6617629967672615
  0.7975834609766719  0.6666667839768650  0.6617634729598793
 
  0.00000000E+00  0.00000000E+00  0.00000000E+00
  0.00000000E+00  0.00000000E+00  0.00000000E+00
  0.00000000E+00  0.00000000E+00  0.00000000E+00
  0.00000000E+00  0.00000000E+00  0.00000000E+00
  0.00000000E+00  0.00000000E+00  0.00000000E+00
  0.00000000E+00  0.00000000E+00  0.00000000E+00
  0.00000000E+00  0.00000000E+00  0.00000000E+00
  0.00000000E+00  0.00000000E+00  0.00000000E+00
  0.00000000E+00  0.00000000E+00  0.00000000E+00
  0.00000000E+00  0.00000000E+00  0.00000000E+00
  0.00000000E+00  0.00000000E+00  0.00000000E+00
  0.00000000E+00  0.00000000E+00  0.00000000E+00
  0.00000000E+00  0.00000000E+00  0.00000000E+00
  0.00000000E+00  0.00000000E+00  0.00000000E+00
  0.00000000E+00  0.00000000E+00  0.00000000E+00
  0.00000000E+00  0.00000000E+00  0.00000000E+00
  0.00000000E+00  0.00000000E+00  0.00000000E+00
  0.00000000E+00  0.00000000E+00  0.00000000E+00
  0.00000000E+00  0.00000000E+00  0.00000000E+00
  0.00000000E+00  0.00000000E+00  0.00000000E+00
  0.00000000E+00  0.00000000E+00  0.00000000E+00
  0.00000000E+00  0.00000000E+00  0.00000000E+00
  0.00000000E+00  0.00000000E+00  0.00000000E+00
  0.00000000E+00  0.00000000E+00  0.00000000E+00
  0.00000000E+00  0.00000000E+00  0.00000000E+00
  0.00000000E+00  0.00000000E+00  0.00000000E+00
  0.00000000E+00  0.00000000E+00  0.00000000E+00
  0.00000000E+00  0.00000000E+00  0.00000000E+00
  0.00000000E+00  0.00000000E+00  0.00000000E+00
  0.00000000E+00  0.00000000E+00  0.00000000E+00
  0.00000000E+00  0.00000000E+00  0.00000000E+00
  0.00000000E+00  0.00000000E+00  0.00000000E+00
  0.00000000E+00  0.00000000E+00  0.00000000E+00
  0.00000000E+00  0.00000000E+00  0.00000000E+00
  0.00000000E+00  0.00000000E+00  0.00000000E+00
  0.00000000E+00  0.00000000E+00  0.00000000E+00
  0.00000000E+00  0.00000000E+00  0.00000000E+00
  0.00000000E+00  0.00000000E+00  0.00000000E+00
  0.00000000E+00  0.00000000E+00  0.00000000E+00
  0.00000000E+00  0.00000000E+00  0.00000000E+00
  0.00000000E+00  0.00000000E+00  0.00000000E+00
  0.00000000E+00  0.00000000E+00  0.00000000E+00
  0.00000000E+00  0.00000000E+00  0.00000000E+00
  0.00000000E+00  0.00000000E+00  0.00000000E+00
  0.00000000E+00  0.00000000E+00  0.00000000E+00
  0.00000000E+00  0.00000000E+00  0.00000000E+00
  0.00000000E+00  0.00000000E+00  0.00000000E+00
  0.00000000E+00  0.00000000E+00  0.00000000E+00
  0.00000000E+00  0.00000000E+00  0.00000000E+00
  0.00000000E+00  0.00000000E+00  0.00000000E+00
  0.00000000E+00  0.00000000E+00  0.00000000E+00
  0.00000000E+00  0.00000000E+00  0.00000000E+00
  0.00000000E+00  0.00000000E+00  0.00000000E+00
  0.00000000E+00  0.00000000E+00  0.00000000E+00
  0.00000000E+00  0.00000000E+00  0.00000000E+00
  0.00000000E+00  0.00000000E+00  0.00000000E+00
  0.00000000E+00  0.00000000E+00  0.00000000E+00
  0.00000000E+00  0.00000000E+00  0.00000000E+00
  0.00000000E+00  0.00000000E+00  0.00000000E+00
  0.00000000E+00  0.00000000E+00  0.00000000E+00
  0.00000000E+00  0.00000000E+00  0.00000000E+00
  0.00000000E+00  0.00000000E+00  0.00000000E+00
  0.00000000E+00  0.00000000E+00  0.00000000E+00
  0.00000000E+00  0.00000000E+00  0.00000000E+00
  0.00000000E+00  0.00000000E+00  0.00000000E+00
  0.00000000E+00  0.00000000E+00  0.00000000E+00
  0.00000000E+00  0.00000000E+00  0.00000000E+00
  0.00000000E+00  0.00000000E+00  0.00000000E+00
  0.00000000E+00  0.00000000E+00  0.00000000E+00
  0.00000000E+00  0.00000000E+00  0.00000000E+00
  0.00000000E+00  0.00000000E+00  0.00000000E+00
  0.00000000E+00  0.00000000E+00  0.00000000E+00
  0.00000000E+00  0.00000000E+00  0.00000000E+00
  0.00000000E+00  0.00000000E+00  0.00000000E+00
  0.00000000E+00  0.00000000E+00  0.00000000E+00
  0.00000000E+00  0.00000000E+00  0.00000000E+00
  0.00000000E+00  0.00000000E+00  0.00000000E+00
  0.00000000E+00  0.00000000E+00  0.00000000E+00
  0.00000000E+00  0.00000000E+00  0.00000000E+00
  0.00000000E+00  0.00000000E+00  0.00000000E+00
  0.00000000E+00  0.00000000E+00  0.00000000E+00
  0.00000000E+00  0.00000000E+00  0.00000000E+00
  0.00000000E+00  0.00000000E+00  0.00000000E+00
  0.00000000E+00  0.00000000E+00  0.00000000E+00
  0.00000000E+00  0.00000000E+00  0.00000000E+00
  0.00000000E+00  0.00000000E+00  0.00000000E+00
  0.00000000E+00  0.00000000E+00  0.00000000E+00
  0.00000000E+00  0.00000000E+00  0.00000000E+00
  0.00000000E+00  0.00000000E+00  0.00000000E+00
  0.00000000E+00  0.00000000E+00  0.00000000E+00
  0.00000000E+00  0.00000000E+00  0.00000000E+00
  0.00000000E+00  0.00000000E+00  0.00000000E+00
  0.00000000E+00  0.00000000E+00  0.00000000E+00
  0.00000000E+00  0.00000000E+00  0.00000000E+00
  0.00000000E+00  0.00000000E+00  0.00000000E+00
  0.00000000E+00  0.00000000E+00  0.00000000E+00
  0.00000000E+00  0.00000000E+00  0.00000000E+00
  0.00000000E+00  0.00000000E+00  0.00000000E+00
  0.00000000E+00  0.00000000E+00  0.00000000E+00
  0.00000000E+00  0.00000000E+00  0.00000000E+00
  0.00000000E+00  0.00000000E+00  0.00000000E+00
  0.00000000E+00  0.00000000E+00  0.00000000E+00
  0.00000000E+00  0.00000000E+00  0.00000000E+00
  0.00000000E+00  0.00000000E+00  0.00000000E+00
  0.00000000E+00  0.00000000E+00  0.00000000E+00
  0.00000000E+00  0.00000000E+00  0.00000000E+00
  0.00000000E+00  0.00000000E+00  0.00000000E+00
  0.00000000E+00  0.00000000E+00  0.00000000E+00
  0.00000000E+00  0.00000000E+00  0.00000000E+00
  0.00000000E+00  0.00000000E+00  0.00000000E+00
  0.00000000E+00  0.00000000E+00  0.00000000E+00
  0.00000000E+00  0.00000000E+00  0.00000000E+00
  0.00000000E+00  0.00000000E+00  0.00000000E+00
  0.00000000E+00  0.00000000E+00  0.00000000E+00
  0.00000000E+00  0.00000000E+00  0.00000000E+00
  0.00000000E+00  0.00000000E+00  0.00000000E+00
  0.00000000E+00  0.00000000E+00  0.00000000E+00
  0.00000000E+00  0.00000000E+00  0.00000000E+00
  0.00000000E+00  0.00000000E+00  0.00000000E+00
  0.00000000E+00  0.00000000E+00  0.00000000E+00
  0.00000000E+00  0.00000000E+00  0.00000000E+00
  0.00000000E+00  0.00000000E+00  0.00000000E+00
  0.00000000E+00  0.00000000E+00  0.00000000E+00
  0.00000000E+00  0.00000000E+00  0.00000000E+00
  0.00000000E+00  0.00000000E+00  0.00000000E+00
  0.00000000E+00  0.00000000E+00  0.00000000E+00
  0.00000000E+00  0.00000000E+00  0.00000000E+00
  0.00000000E+00  0.00000000E+00  0.00000000E+00
  0.00000000E+00  0.00000000E+00  0.00000000E+00
  0.00000000E+00  0.00000000E+00  0.00000000E+00
  0.00000000E+00  0.00000000E+00  0.00000000E+00
  0.00000000E+00  0.00000000E+00  0.00000000E+00
  0.00000000E+00  0.00000000E+00  0.00000000E+00
  0.00000000E+00  0.00000000E+00  0.00000000E+00
  0.00000000E+00  0.00000000E+00  0.00000000E+00
  0.00000000E+00  0.00000000E+00  0.00000000E+00
  0.00000000E+00  0.00000000E+00  0.00000000E+00
  0.00000000E+00  0.00000000E+00  0.00000000E+00
  0.00000000E+00  0.00000000E+00  0.00000000E+00
  0.00000000E+00  0.00000000E+00  0.00000000E+00
  0.00000000E+00  0.00000000E+00  0.00000000E+00
  0.00000000E+00  0.00000000E+00  0.00000000E+00
  0.00000000E+00  0.00000000E+00  0.00000000E+00
  0.00000000E+00  0.00000000E+00  0.00000000E+00
  0.00000000E+00  0.00000000E+00  0.00000000E+00
  0.00000000E+00  0.00000000E+00  0.00000000E+00
  0.00000000E+00  0.00000000E+00  0.00000000E+00
  0.00000000E+00  0.00000000E+00  0.00000000E+00
  0.00000000E+00  0.00000000E+00  0.00000000E+00
  0.00000000E+00  0.00000000E+00  0.00000000E+00
  0.00000000E+00  0.00000000E+00  0.00000000E+00
  0.00000000E+00  0.00000000E+00  0.00000000E+00
  0.00000000E+00  0.00000000E+00  0.00000000E+00
  0.00000000E+00  0.00000000E+00  0.00000000E+00
  0.00000000E+00  0.00000000E+00  0.00000000E+00
  0.00000000E+00  0.00000000E+00  0.00000000E+00
  0.00000000E+00  0.00000000E+00  0.00000000E+00
  0.00000000E+00  0.00000000E+00  0.00000000E+00
  0.00000000E+00  0.00000000E+00  0.00000000E+00
  0.00000000E+00  0.00000000E+00  0.00000000E+00
  0.00000000E+00  0.00000000E+00  0.00000000E+00
  0.00000000E+00  0.00000000E+00  0.00000000E+00
  0.00000000E+00  0.00000000E+00  0.00000000E+00
  0.00000000E+00  0.00000000E+00  0.00000000E+00
  0.00000000E+00  0.00000000E+00  0.00000000E+00
  0.00000000E+00  0.00000000E+00  0.00000000E+00
  0.00000000E+00  0.00000000E+00  0.00000000E+00
  0.00000000E+00  0.00000000E+00  0.00000000E+00
  0.00000000E+00  0.00000000E+00  0.00000000E+00
  0.00000000E+00  0.00000000E+00  0.00000000E+00
  0.00000000E+00  0.00000000E+00  0.00000000E+00
  0.00000000E+00  0.00000000E+00  0.00000000E+00
  0.00000000E+00  0.00000000E+00  0.00000000E+00
  0.00000000E+00  0.00000000E+00  0.00000000E+00
  0.00000000E+00  0.00000000E+00  0.00000000E+00
  0.00000000E+00  0.00000000E+00  0.00000000E+00
  0.00000000E+00  0.00000000E+00  0.00000000E+00
  0.00000000E+00  0.00000000E+00  0.00000000E+00
  0.00000000E+00  0.00000000E+00  0.00000000E+00
  0.00000000E+00  0.00000000E+00  0.00000000E+00
  0.00000000E+00  0.00000000E+00  0.00000000E+00
  0.00000000E+00  0.00000000E+00  0.00000000E+00
  0.00000000E+00  0.00000000E+00  0.00000000E+00
  0.00000000E+00  0.00000000E+00  0.00000000E+00
  0.00000000E+00  0.00000000E+00  0.00000000E+00
  0.00000000E+00  0.00000000E+00  0.00000000E+00
  0.00000000E+00  0.00000000E+00  0.00000000E+00
  0.00000000E+00  0.00000000E+00  0.00000000E+00
  0.00000000E+00  0.00000000E+00  0.00000000E+00
  0.00000000E+00  0.00000000E+00  0.00000000E+00
  0.00000000E+00  0.00000000E+00  0.00000000E+00
  0.00000000E+00  0.00000000E+00  0.00000000E+00
  0.00000000E+00  0.00000000E+00  0.00000000E+00
  0.00000000E+00  0.00000000E+00  0.00000000E+00
  0.00000000E+00  0.00000000E+00  0.00000000E+00
  0.00000000E+00  0.00000000E+00  0.00000000E+00
  0.00000000E+00  0.00000000E+00  0.00000000E+00
  0.00000000E+00  0.00000000E+00  0.00000000E+00
  0.00000000E+00  0.00000000E+00  0.00000000E+00
  0.00000000E+00  0.00000000E+00  0.00000000E+00
  0.00000000E+00  0.00000000E+00  0.00000000E+00
  0.00000000E+00  0.00000000E+00  0.00000000E+00
  0.00000000E+00  0.00000000E+00  0.00000000E+00
  0.00000000E+00  0.00000000E+00  0.00000000E+00
  0.00000000E+00  0.00000000E+00  0.00000000E+00
  0.00000000E+00  0.00000000E+00  0.00000000E+00
  0.00000000E+00  0.00000000E+00  0.00000000E+00
  0.00000000E+00  0.00000000E+00  0.00000000E+00
  0.00000000E+00  0.00000000E+00  0.00000000E+00
  0.00000000E+00  0.00000000E+00  0.00000000E+00
  0.00000000E+00  0.00000000E+00  0.00000000E+00
  0.00000000E+00  0.00000000E+00  0.00000000E+00
  0.00000000E+00  0.00000000E+00  0.00000000E+00
  0.00000000E+00  0.00000000E+00  0.00000000E+00
  0.00000000E+00  0.00000000E+00  0.00000000E+00
  0.00000000E+00  0.00000000E+00  0.00000000E+00
