Ru Cu                                   
   1.00000000000000     
    10.8623999999999992    0.0000000000000000    0.0000000000000000
    -5.4311999999999969    9.4071143460680844    0.0000000000000000
     0.0000000000000000    0.0000000000000000   22.7112499999999962
   Ru   Cu
    96     2
Direct
  0.0832240247312084  0.1665736821398829  0.3581694543026716
  0.1666272738743525  0.0833107267261880  0.2674981163814900
  0.0833353628607589  0.1666083911813506  0.5478417198246354
  0.1666628011463837  0.0833597445976215  0.4518515028156734
  0.0829191917425933  0.1664699752098972  0.7324521587360789
  0.1663942956525966  0.0831175449982023  0.6419897962489810
  0.0831229360949613  0.4166259758057499  0.3580979468310045
  0.1669272520263441  0.3336681603581023  0.2677183631171859
  0.0832307787466034  0.4169287107064364  0.5480100089677273
  0.1669226183557184  0.3338486401193481  0.4519555289057679
  0.0815015780531861  0.4160207693754732  0.7327038098081208
  0.1648055788717236  0.3323729466153430  0.6415933670808672
  0.0832440088633569  0.6665928931213705  0.3580975653526845
  0.1666613454251213  0.5831658958024231  0.2676052095197445
  0.0833023049356079  0.6667930139362079  0.5479358467695694
  0.1668879458932855  0.5833318602249394  0.4520396732242556
  0.0836138521324500  0.6668370837111628  0.7324465549750098
  0.1664885604243253  0.5835500452305716  0.6417327255114029
  0.0832079302126295  0.9166004106663227  0.3580505465197433
  0.1668868131765948  0.8335411018560586  0.2675771881212185
  0.0833241012017344  0.9167390427956602  0.5478323934188354
  0.1665268778800108  0.8332547018338210  0.4517112401042022
  0.0829842824819208  0.9162476791380718  0.7321622543031778
  0.1664650958937738  0.8334358084927364  0.6418230049997745
  0.3333360681795434  0.1666296239191931  0.3582015502069543
  0.4166221257286504  0.0832946452510852  0.2675050633927885
  0.3328897328112859  0.1664890915545608  0.5479736722453091
  0.4165960875651822  0.0834436393877494  0.4520437700070933
  0.3332477806214932  0.1663816530159730  0.7323964725810870
  0.4166453729654090  0.0833468034846745  0.6421519757434415
  0.3333796015490075  0.4167367488353469  0.3580402377681276
  0.4166083268636925  0.3334514190851374  0.2676507559303942
  0.3331827405933891  0.4166436375811542  0.5486259058467418
  0.4166614721105450  0.3336003325274106  0.4520773836567583
  0.3317641250140739  0.4139404186327136  0.7324369939571721
  0.4172594879448322  0.3326438611843213  0.6415981984117921
  0.3333835750502766  0.6666893855005050  0.3582107208726031
  0.4164715063998263  0.5830902622617044  0.2676160012142635
  0.3332347992319203  0.6667132753270594  0.5485298564526973
  0.4165822162444093  0.5832514805245816  0.4521591533326867
  0.3332331093603778  0.6690212212713390  0.7326908900753024
  0.4169385131858199  0.5840265738237427  0.6415128377907833
  0.3334117639031337  0.9168037409354658  0.3580722214996149
  0.4166554217534503  0.8332161780667816  0.2676060825451549
  0.3331093852096015  0.9167336558824658  0.5477645524647273
  0.4164712857922541  0.8331892450939911  0.4520427860049115
  0.3330441864808200  0.9163963756364926  0.7322330403368882
  0.4171647310823009  0.8345155379329456  0.6416181718834439
  0.5833111111729822  0.1665777533808787  0.3580410077560505
  0.6666449831988523  0.0832467463788084  0.2675815360619689
  0.5832806626265211  0.1667088370614858  0.5477555339249952
  0.6666424805223025  0.0833896968124591  0.4521156775553050
  0.5832117944667669  0.1667640295254944  0.7324727235522701
  0.6666131206348054  0.0834151641026642  0.6424121646500901
  0.5832887603009824  0.4165919730420747  0.3580590474607234
  0.6667324615466240  0.3333910444944086  0.2676561521862862
  0.5834130739159076  0.4168262005868717  0.5479920590304529
  0.6664690884386479  0.3333745451174013  0.4519147134434742
  0.5839700889608203  0.4165322907028695  0.7328481007190706
  0.6668750389874790  0.3328716814900952  0.6419034563366290
  0.5832207854578790  0.6665978580509738  0.3581271447799751
  0.6665406510781277  0.5832080038910261  0.2676014532379010
  0.5833075685881406  0.6667495107156368  0.5482454372133080
  0.6663467768712329  0.5832702543303341  0.4520184054436966
  0.5852515783464622  0.6685297621120900  0.7326135722558712
  0.6666459685535250  0.5834626377901380  0.6416803262956893
  0.5833171760344825  0.9168446517859342  0.3581038867049882
  0.6665725488210212  0.8332545049722808  0.2676467425430407
  0.5833700846929859  0.9168385327571933  0.5476454368022955
  0.6666435752049423  0.8332142961397232  0.4518510852256054
  0.5832513005347059  0.9168604795588098  0.7322215943930532
  0.6671607295009500  0.8345619648605495  0.6416706008805442
  0.8331586382138541  0.1665646276478830  0.3581750369826169
  0.9166252760338242  0.0832722707452036  0.2675332176433116
  0.8332241548696279  0.1666617736470745  0.5476920997613706
  0.9166947063602110  0.0834050361752854  0.4520223476411224
  0.8334869067409674  0.1669774443693139  0.7324026338133088
  0.9166399459023379  0.0833577790064630  0.6421201100847633
  0.8333738227628464  0.4167417516703985  0.3580529438270335
  0.9165879841001143  0.3332787160412986  0.2676310966354484
  0.8332053884941919  0.4167636986030773  0.5477602152783008
  0.9166903955088769  0.3334036320810229  0.4520626087778227
  0.8330652079751600  0.4164817864493588  0.7322232859700807
  0.9156197046354446  0.3329773259148089  0.6418438526774852
  0.8333202155683646  0.6666895936564505  0.3582068517236758
  0.9165317758820611  0.5831763879792687  0.2674794418812434
  0.8332073493782466  0.6667421442966950  0.5480876462691157
  0.9166299927830296  0.5834606476505322  0.4519902338501060
  0.8329348667123641  0.6669835817998891  0.7323655926830400
  0.9166276306292822  0.5833725972533521  0.6419529903438009
  0.8334731329385633  0.9167647727866044  0.3580836710678881
  0.9165761246644336  0.8334070428048779  0.2675322300450532
  0.8333780265176998  0.9167496897908619  0.5477909802277127
  0.9165714408476946  0.8332463697723258  0.4519702047400646
  0.8331426812830379  0.9163868022670091  0.7322321365894852
  0.9167698798166483  0.8335438604226555  0.6418653126765862
  0.4911478370780171  0.5012589788807222  0.8219982806967535
  0.2552857851796876  0.4996419540389309  0.8218284504743081
 
  0.00000000E+00  0.00000000E+00  0.00000000E+00
  0.00000000E+00  0.00000000E+00  0.00000000E+00
  0.00000000E+00  0.00000000E+00  0.00000000E+00
  0.00000000E+00  0.00000000E+00  0.00000000E+00
  0.00000000E+00  0.00000000E+00  0.00000000E+00
  0.00000000E+00  0.00000000E+00  0.00000000E+00
  0.00000000E+00  0.00000000E+00  0.00000000E+00
  0.00000000E+00  0.00000000E+00  0.00000000E+00
  0.00000000E+00  0.00000000E+00  0.00000000E+00
  0.00000000E+00  0.00000000E+00  0.00000000E+00
  0.00000000E+00  0.00000000E+00  0.00000000E+00
  0.00000000E+00  0.00000000E+00  0.00000000E+00
  0.00000000E+00  0.00000000E+00  0.00000000E+00
  0.00000000E+00  0.00000000E+00  0.00000000E+00
  0.00000000E+00  0.00000000E+00  0.00000000E+00
  0.00000000E+00  0.00000000E+00  0.00000000E+00
  0.00000000E+00  0.00000000E+00  0.00000000E+00
  0.00000000E+00  0.00000000E+00  0.00000000E+00
  0.00000000E+00  0.00000000E+00  0.00000000E+00
  0.00000000E+00  0.00000000E+00  0.00000000E+00
  0.00000000E+00  0.00000000E+00  0.00000000E+00
  0.00000000E+00  0.00000000E+00  0.00000000E+00
  0.00000000E+00  0.00000000E+00  0.00000000E+00
  0.00000000E+00  0.00000000E+00  0.00000000E+00
  0.00000000E+00  0.00000000E+00  0.00000000E+00
  0.00000000E+00  0.00000000E+00  0.00000000E+00
  0.00000000E+00  0.00000000E+00  0.00000000E+00
  0.00000000E+00  0.00000000E+00  0.00000000E+00
  0.00000000E+00  0.00000000E+00  0.00000000E+00
  0.00000000E+00  0.00000000E+00  0.00000000E+00
  0.00000000E+00  0.00000000E+00  0.00000000E+00
  0.00000000E+00  0.00000000E+00  0.00000000E+00
  0.00000000E+00  0.00000000E+00  0.00000000E+00
  0.00000000E+00  0.00000000E+00  0.00000000E+00
  0.00000000E+00  0.00000000E+00  0.00000000E+00
  0.00000000E+00  0.00000000E+00  0.00000000E+00
  0.00000000E+00  0.00000000E+00  0.00000000E+00
  0.00000000E+00  0.00000000E+00  0.00000000E+00
  0.00000000E+00  0.00000000E+00  0.00000000E+00
  0.00000000E+00  0.00000000E+00  0.00000000E+00
  0.00000000E+00  0.00000000E+00  0.00000000E+00
  0.00000000E+00  0.00000000E+00  0.00000000E+00
  0.00000000E+00  0.00000000E+00  0.00000000E+00
  0.00000000E+00  0.00000000E+00  0.00000000E+00
  0.00000000E+00  0.00000000E+00  0.00000000E+00
  0.00000000E+00  0.00000000E+00  0.00000000E+00
  0.00000000E+00  0.00000000E+00  0.00000000E+00
  0.00000000E+00  0.00000000E+00  0.00000000E+00
  0.00000000E+00  0.00000000E+00  0.00000000E+00
  0.00000000E+00  0.00000000E+00  0.00000000E+00
  0.00000000E+00  0.00000000E+00  0.00000000E+00
  0.00000000E+00  0.00000000E+00  0.00000000E+00
  0.00000000E+00  0.00000000E+00  0.00000000E+00
  0.00000000E+00  0.00000000E+00  0.00000000E+00
  0.00000000E+00  0.00000000E+00  0.00000000E+00
  0.00000000E+00  0.00000000E+00  0.00000000E+00
  0.00000000E+00  0.00000000E+00  0.00000000E+00
  0.00000000E+00  0.00000000E+00  0.00000000E+00
  0.00000000E+00  0.00000000E+00  0.00000000E+00
  0.00000000E+00  0.00000000E+00  0.00000000E+00
  0.00000000E+00  0.00000000E+00  0.00000000E+00
  0.00000000E+00  0.00000000E+00  0.00000000E+00
  0.00000000E+00  0.00000000E+00  0.00000000E+00
  0.00000000E+00  0.00000000E+00  0.00000000E+00
  0.00000000E+00  0.00000000E+00  0.00000000E+00
  0.00000000E+00  0.00000000E+00  0.00000000E+00
  0.00000000E+00  0.00000000E+00  0.00000000E+00
  0.00000000E+00  0.00000000E+00  0.00000000E+00
  0.00000000E+00  0.00000000E+00  0.00000000E+00
  0.00000000E+00  0.00000000E+00  0.00000000E+00
  0.00000000E+00  0.00000000E+00  0.00000000E+00
  0.00000000E+00  0.00000000E+00  0.00000000E+00
  0.00000000E+00  0.00000000E+00  0.00000000E+00
  0.00000000E+00  0.00000000E+00  0.00000000E+00
  0.00000000E+00  0.00000000E+00  0.00000000E+00
  0.00000000E+00  0.00000000E+00  0.00000000E+00
  0.00000000E+00  0.00000000E+00  0.00000000E+00
  0.00000000E+00  0.00000000E+00  0.00000000E+00
  0.00000000E+00  0.00000000E+00  0.00000000E+00
  0.00000000E+00  0.00000000E+00  0.00000000E+00
  0.00000000E+00  0.00000000E+00  0.00000000E+00
  0.00000000E+00  0.00000000E+00  0.00000000E+00
  0.00000000E+00  0.00000000E+00  0.00000000E+00
  0.00000000E+00  0.00000000E+00  0.00000000E+00
  0.00000000E+00  0.00000000E+00  0.00000000E+00
  0.00000000E+00  0.00000000E+00  0.00000000E+00
  0.00000000E+00  0.00000000E+00  0.00000000E+00
  0.00000000E+00  0.00000000E+00  0.00000000E+00
  0.00000000E+00  0.00000000E+00  0.00000000E+00
  0.00000000E+00  0.00000000E+00  0.00000000E+00
  0.00000000E+00  0.00000000E+00  0.00000000E+00
  0.00000000E+00  0.00000000E+00  0.00000000E+00
  0.00000000E+00  0.00000000E+00  0.00000000E+00
  0.00000000E+00  0.00000000E+00  0.00000000E+00
  0.00000000E+00  0.00000000E+00  0.00000000E+00
  0.00000000E+00  0.00000000E+00  0.00000000E+00
  0.00000000E+00  0.00000000E+00  0.00000000E+00
  0.00000000E+00  0.00000000E+00  0.00000000E+00
