Ta  N Co Cu                             
   1.00000000000000     
    18.1096308199999996    0.0000000000000000    0.0000000000000000
     0.0000000000000000   23.3551997799999995    0.0000000000000000
     0.0000000000000000    0.0000000000000000   30.4818171199999988
   Ta   N    Co   Cu
   216   240    24     1
Direct
  0.9979293418081809  0.0005927539895723  0.1982526668680507
  0.3319764531862006  0.0628537750939202  0.2033527520942542
  0.1643416507243316  0.0629510614957027  0.2033213310160846
  0.2479085937474110  0.1254191439910670  0.2788912395637198
  0.0808813894445350  0.0630709378773417  0.2845734877141126
  0.4148719543412369  0.0630112048694258  0.2847362988341828
  0.9978744907367769  0.1256187713994450  0.3702283115433218
  0.3291544109326523  0.0627100582191531  0.3694169053682899
  0.1666933509247599  0.0627584094087723  0.3692465655458435
  0.2482631055842646  0.1269236769956521  0.4600585251533502
  0.0811206461586806  0.0622485611820736  0.4537145594859524
  0.4151828530548158  0.0621791217298409  0.4536225064912642
  0.9994477966118041  0.1303204611693829  0.5421656303842681
  0.3376547789459892  0.0652795371585242  0.5469646555182806
  0.1595373626867342  0.0658925438805085  0.5472819397686806
  0.9979567657469346  0.1259055074470439  0.1984120820184501
  0.3325549256670470  0.1880462411560941  0.2032831263454256
  0.1636806251127467  0.1881726799527641  0.2032545726937585
  0.2478558851932178  0.2504044231574909  0.2787914528660025
  0.0807002487095758  0.1879610606903910  0.2847757845027701
  0.4148755699114020  0.1879237759354382  0.2849698213404395
  0.9973117941209324  0.2503393605574615  0.3700825433660455
  0.3293888050950002  0.1878560388339210  0.3697026653848425
  0.1662029042530833  0.1879150497012674  0.3694809429898953
  0.2483268040032343  0.2491251212487882  0.4607132731833303
  0.0820671087455409  0.1877334916393281  0.4548556242504560
  0.4138358500990762  0.1875786047445018  0.4550635374033760
  0.0022958384808121  0.2521401383156174  0.5416174005542373
  0.9976848550695507  0.2503042172457626  0.1985136928877793
  0.3318983260630617  0.3128513527447083  0.2034223032517275
  0.1644145980298717  0.3129198574616652  0.2033978242572587
  0.2479762856065975  0.3754418362053826  0.2788623522684901
  0.0806238054197763  0.3129898751183262  0.2845674719709450
  0.4146092838859801  0.3129580806347292  0.2849007177438310
  0.9967883680193310  0.3758012725842121  0.3700197365671158
  0.3290730956785382  0.3130246970398858  0.3697087683361886
  0.1659424669555492  0.3130020885442093  0.3690144553881680
  0.2481175716808863  0.3763530382763989  0.4613501741588450
  0.0803589518436212  0.3132177660370488  0.4528136784410250
  0.4138790120300442  0.3130476930908017  0.4539093049672189
  0.0095548770375515  0.3873125285362562  0.5470330897387328
  0.9977439294838675  0.3756833150357792  0.1984930008347376
  0.3322470731338925  0.4378251041231991  0.2033034165410683
  0.1639854586971836  0.4378797711003770  0.2031200252044840
  0.2479534675078767  0.0004726673090971  0.2786921450406652
  0.0804268906279972  0.4380042118722614  0.2844927713872067
  0.4146831150747730  0.4380006841733604  0.2851047004848510
  0.9981668098950394  0.0006139002126204  0.3695065092088541
  0.3290670837670575  0.4381423933677198  0.3701486423998404
  0.1661887201960681  0.4380806958191954  0.3688863889998188
  0.2484228747166100  0.0000797323803994  0.4628045037021309
  0.0810314305991255  0.4381285911870236  0.4533165614450638
  0.4105368824061983  0.4375509401039608  0.4563447108869170
  0.9995394930521684  0.9995170088817176  0.5438171054287864
  0.9974372717053228  0.5002835505794607  0.1983140723027219
  0.3323321796521697  0.5627781926483593  0.2031801125270505
  0.1640876620542784  0.5628571933203474  0.2029185533541096
  0.2484831209235310  0.6254283073793516  0.2785315689153478
  0.0805505974328327  0.5630069987512272  0.2841785592145669
  0.4147428421525561  0.5628979252004740  0.2850412714953663
  0.9963695678033773  0.6256899380408285  0.3690070954026865
  0.3291895882056437  0.5628387305244402  0.3702076112512955
  0.1666178916689702  0.5631590954524412  0.3681971720120032
  0.2488317073492325  0.6231539036408265  0.4616560309444040
  0.0805190324988558  0.5646911225487301  0.4505530974953160
  0.4119391107373005  0.5631956624473915  0.4572845174935196
  0.9980398180365597  0.6253115583830891  0.5400656722504920
  0.9977209501059932  0.6251192888273991  0.1981030881076720
  0.3318583432932698  0.6879280414057618  0.2031767723692397
  0.1647087510101528  0.6880534874099666  0.2029671956809125
  0.2482504931363323  0.7506159708235600  0.2784695448791155
  0.0808266104103978  0.6881338684340434  0.2839591490638256
  0.4146108864652334  0.6879440727755437  0.2847821871694691
  0.9975786962989446  0.7512100040051095  0.3693884153710201
  0.3293662827818267  0.6878629728338552  0.3698461888160338
  0.1665432669821669  0.6884317056202676  0.3682062779303763
  0.2492372380424683  0.7507412478938846  0.4611260921731173
  0.0806350608962347  0.6883265711262467  0.4514401172623792
  0.4143274026748571  0.6875637903323408  0.4537222103160801
  0.9984043203816384  0.7477070682737761  0.5404469119943442
  0.9977546115775198  0.7508265338929760  0.1980328412563637
  0.3325616995568836  0.8128029125443845  0.2030451660374908
  0.1638473609952626  0.8129220263965138  0.2029072150835418
  0.2480356337991196  0.8755314586247636  0.2787759724985648
  0.0808001794344335  0.8131969694346637  0.2843962948212848
  0.4148417267741351  0.8130365808171547  0.2848128002333681
  0.9981703471544492  0.8755953840543853  0.3699636659929766
  0.3296347855631865  0.8129646864438698  0.3696916471714715
  0.1666019923654432  0.8131964306401400  0.3692307380163413
  0.2487258543124895  0.8728715997329459  0.4604994146926060
  0.0825823639221426  0.8129816183802419  0.4549966331515591
  0.4140520769867067  0.8129454483328828  0.4552362164972337
  0.9992089598464204  0.8717703609596796  0.5414532075452598
  0.9980817041465286  0.8753230194767667  0.1981478359961812
  0.3320754122691838  0.9381778080311989  0.2032486720528297
  0.1642869030286249  0.9382219838943868  0.2032041436407184
  0.2482511264132512  0.5004226505510800  0.2786855378433444
  0.0809066863604215  0.9380497978668672  0.2844731902166089
  0.4148580780325375  0.9379786680454885  0.2846775882764021
  0.9964465270432612  0.5005490016130665  0.3699386388464703
  0.3292467949269309  0.9380328587904785  0.3694958167492928
  0.1667345321848472  0.9381607252267443  0.3692683433524877
  0.2429234456233900  0.5004223638234890  0.4616448453333604
  0.0813259982792616  0.9386108975078784  0.4537826640976874
  0.4151267934150979  0.9384904555201103  0.4539110670073825
  0.0676431355820384  0.5161413753893598  0.5400007263277828
  0.3382605266692948  0.9326159165530896  0.5480480520110333
  0.1595353894912961  0.9327054013740650  0.5477900497972925
  0.4979377751520175  0.0005604074578329  0.1982590223353426
  0.8318809799844118  0.0630999092848867  0.2032923824418660
  0.6641950074119265  0.0631314584693925  0.2033048744339254
  0.7479495250833423  0.1256487357324119  0.2788234344606693
  0.5807859894349292  0.0631259231986760  0.2845987884040184
  0.9149535712107806  0.0631405066569286  0.2846532792400112
  0.4978103721712870  0.1255073630266992  0.3702198046159921
  0.8292884216027545  0.0630637771181526  0.3693792969867005
  0.6666950623998602  0.0630939705383895  0.3692673653207734
  0.7484993559286082  0.1276534051555345  0.4603162467960686
  0.5810857790553712  0.0624930987429977  0.4538606621917438
  0.9152561784040216  0.0624912443051286  0.4537387026000914
  0.4994195055797093  0.1295583795109110  0.5420759777032558
  0.8383303775637572  0.0671499723772015  0.5475743996949092
  0.6597555949055902  0.0678215314839079  0.5476183246488802
  0.4978402405386646  0.1258655501856936  0.1983957802589842
  0.8325329002105732  0.1880728213101577  0.2033195888820458
  0.6635308410884804  0.1880665627830922  0.2032757835080119
  0.7479766378159596  0.2505211924301918  0.2789782475957807
  0.5806606885648407  0.1880120483600081  0.2848304206336891
  0.9148879692655854  0.1880434041501147  0.2850121262602698
  0.4971951540709441  0.2501888881750105  0.3700517601524140
  0.8296345368177924  0.1882033186833922  0.3698083415166167
  0.6663272118215531  0.1880606692545044  0.3695240766295669
  0.7482017473023319  0.2498879272234547  0.4608840796923772
  0.5818593558154888  0.1878930028883445  0.4550232695089775
  0.9139447394475155  0.1879540222179443  0.4552303827895230
  0.5002084111477956  0.2515554775146001  0.5416850693329565
  0.4979605778090530  0.2502101834149428  0.1984667166903975
  0.8316277479313783  0.3130546585161085  0.2034364327325022
  0.6644644563569528  0.3131852079620003  0.2034213411263295
  0.7480557516571551  0.3755648744332092  0.2789088663616681
  0.5806817828575106  0.3129984115510922  0.2845607670591193
  0.9147056537000822  0.3130516555629370  0.2849292124239753
  0.4964784426640421  0.3755558262756864  0.3698698583895137
  0.8293303972849984  0.3132271736841474  0.3698716620933169
  0.6660895759082095  0.3129919296638803  0.3689926325773527
  0.7466264877428586  0.3769893008302958  0.4613302457821149
  0.5797834938873478  0.3130140696203583  0.4523396548137981
  0.9152138970516219  0.3135075096956683  0.4543184731090406
  0.5031979679302552  0.3846432942966160  0.5444564868435577
  0.4975868375999895  0.3756419089610787  0.1984860046511159
  0.8320207300948184  0.4376656584631604  0.2033016255695301
  0.6638646454527972  0.4377649385496269  0.2033071024154651
  0.7478991932378420  0.0006923351765096  0.2785931479247310
  0.5804648153855183  0.4380525053345110  0.2847363814100916
  0.9145263567279187  0.4380484935014977  0.2850325629148216
  0.4978914201558950  0.0005616471328977  0.3695573553639520
  0.8290045440407496  0.4383383286198921  0.3704733790072865
  0.6664195084457489  0.4381663037676873  0.3691026749100601
  0.7486368565872041  0.0008270959446151  0.4626215995283616
  0.5798335241885582  0.4374555460398568  0.4529670940320756
  0.9138339327204719  0.4384437605658107  0.4561376307204483
  0.4991295951587844  0.0003798977851019  0.5438848020755529
  0.4977572799311361  0.5003807256639448  0.1985051213087061
  0.8319046607301459  0.5630474832076899  0.2030304260950189
  0.6637960416715387  0.5630733515680220  0.2031212471194550
  0.7480082678059716  0.6255340607635560  0.2783112405626795
  0.5805261923977199  0.5629898548529937  0.2845852201749963
  0.9144706076946250  0.5629307402435160  0.2846536895495149
  0.4967067423251095  0.6254973434857973  0.3697698642921949
  0.8287773735685562  0.5628535670163402  0.3700719671507926
  0.6666231613097153  0.5630114504487196  0.3688191175726487
  0.7452521491508008  0.6244734674926846  0.4611430599497695
  0.5804783127234217  0.5637025612263500  0.4521224687634628
  0.9129187876067419  0.5634770730715957  0.4555156705061663
  0.5298239530892488  0.6206607442282888  0.5391168658738508
  0.4974375444460293  0.6250889180960115  0.1983401271881391
  0.8314857815126473  0.6879199500138995  0.2028826872583593
  0.6643760315454799  0.6878726052339417  0.2030047522529514
  0.7478589967652667  0.7507265784302817  0.2782333783437991
  0.5806911079160031  0.6881022410361126  0.2841839590816875
  0.9146546739513823  0.6880964251375872  0.2841961346478712
  0.4972303323221254  0.7510566959258824  0.3696997822391666
  0.8291215881969691  0.6882022446239091  0.3687708998090287
  0.6664841938991515  0.6883811882587310  0.3683230350620619
  0.7483289793413448  0.7520744592906610  0.4596915473691467
  0.5810070003624688  0.6890225498985600  0.4515879415853732
  0.9139641619685861  0.6887556411389895  0.4524621845114325
  0.5051228810589734  0.7485198613832864  0.5408272801149892
  0.4976648085483291  0.7507588787727002  0.1981968943498558
  0.8323786007909746  0.8131293176349175  0.2027873722535389
  0.6635055441987134  0.8131207266594487  0.2028654786451085
  0.7478895676760544  0.8757762707073482  0.2783330501339023
  0.5805383440197573  0.8131949466142885  0.2843949967620460
  0.9149592190030589  0.8131972321445105  0.2844180639660294
  0.4975982923175124  0.8756264245425811  0.3700270288184697
  0.8295923598465222  0.8133935370264780  0.3689744618725115
  0.6664280429960954  0.8135112360852830  0.3687665073490791
  0.7488586844147278  0.8743978117679561  0.4595321342128216
  0.5821631719293592  0.8140728131999495  0.4542388015643652
  0.9139048824228624  0.8136162156301339  0.4544993748900126
  0.4991913360068523  0.8712738276059042  0.5418397641905770
  0.4976094454233504  0.8752710855550916  0.1981808848683571
  0.8319276431655283  0.9382187414559269  0.2030891194447335
  0.6640730434179716  0.9382467415660187  0.2030953086316742
  0.7480952056687684  0.5004317934854612  0.2790560219502396
  0.5807196407425650  0.9381314120669657  0.2844104679213189
  0.9149934218950833  0.9381405375052623  0.2844616100660176
  0.4963054075968856  0.5005347230336383  0.3705061821970119
  0.8293140523635643  0.9384966139417585  0.3690815776238168
  0.6667205326121177  0.9384977084127968  0.3689732910213550
  0.7446432499628770  0.5005330053417865  0.4646458270892708
  0.5810132769804852  0.9390679007946687  0.4534487436184023
  0.9154290482270113  0.9388729541184588  0.4533990896679612
  0.5687146249595898  0.5000631629753940  0.5394404998867302
  0.8385483145686194  0.9343455115969235  0.5469904329477799
  0.6599428995619689  0.9355044977020270  0.5465876417468181
  0.4034300801121375  0.0005083246423609  0.2329533859024551
  0.2481707948515890  0.0005215349157055  0.1987093249148728
  0.0926420990773025  0.0005818819617218  0.2327270874372971
  0.1531620045008069  0.1253952191222822  0.3166826421988347
  0.9978695485416935  0.1254998450804408  0.3036003023135052
  0.3424870265831501  0.1253466020352647  0.3168445286993062
  0.3986035470175864  0.1252888499640363  0.4024207008678644
  0.2477953531132826  0.1253827835336381  0.3901899955596377
  0.0971376917844609  0.1253910435368653  0.4022834535919770
  0.1466956968394655  0.1216627237469368  0.4885828767116962
  0.9982638066785583  0.1251018276893916  0.4737980600748699
  0.3497615519334190  0.1214151085950377  0.4888355037916057
  0.4038615269958399  0.1268929221096258  0.5710626468474018
  0.2488419094445717  0.0888263380165100  0.5767375188013801
  0.0950028051387619  0.1288266011060202  0.5712499286264432
  0.4033327770934392  0.1255100389473682  0.2332054193396260
  0.2481601143851009  0.1256848949126379  0.2008260841022178
  0.0926767748439801  0.1255684021773433  0.2330096182798087
  0.1531140045080690  0.2502757744099213  0.3164802082327540
  0.9977535392590084  0.2504377081530720  0.3035352933719651
  0.3423540182087521  0.2503006821573450  0.3168216732580760
  0.3984525141716091  0.2496959535362393  0.4024176230123970
  0.2475591481996418  0.2503084599607774  0.3906180511982882
  0.0964915172643259  0.2497774269224919  0.4017751534759668
  0.1455131587990977  0.2525736626291035  0.4863324279005923
  0.9984281861916458  0.2500767357687863  0.4741069676248060
  0.3505555396918041  0.2518813658950734  0.4877617226636772
  0.3981192322027454  0.2461250320189308  0.5658162578186392
  0.2482432240139261  0.1885352825070115  0.5121084306973387
  0.1045184476138772  0.2514986316729519  0.5652032173461734
  0.4033122068419672  0.2504182691461807  0.2332009678303208
  0.2481708233636226  0.2502360613325152  0.1997271110589551
  0.0924980488231313  0.2504622654583599  0.2329514991473545
  0.1531204711013032  0.3755200065246740  0.3162444470040313
  0.9975599611124650  0.3755392995636626  0.3034022910873375
  0.3423330830135569  0.3755730583153678  0.3169921805485316
  0.3978257879447611  0.3758555623033644  0.4026974255675597
  0.2473938149278041  0.3757512990462288  0.3912623306310152
  0.0962162078198290  0.3758258644488208  0.4010196785910551
  0.1435648891308361  0.3719588830088654  0.4849489945409857
  0.9982835984159451  0.3791572403544663  0.4771231095065787
  0.3508655648762016  0.3720538881341824  0.4884060838606459
  0.4090502053688283  0.3615757677600371  0.5739731042271785
  0.2412638438721260  0.4384204746060334  0.5122856981307535
  0.1224144099066606  0.3772984120370353  0.5693104052480322
  0.4030634736594720  0.3754417304827484  0.2332521943248125
  0.2481565428187267  0.3754718056154900  0.1997345458601885
  0.0925601943416012  0.3754671695469582  0.2327955415811331
  0.1531196094705081  0.0004847955502854  0.3164433383064775
  0.9979595593904804  0.0005951702120299  0.3030461203039181
  0.3426496690903207  0.0004162388425186  0.3166066572806443
  0.3991885664604737  0.0003421139488111  0.4020208669290781
  0.2479371205512564  0.0003449602747807  0.3905121605735431
  0.0968524437104037  0.0004604345297849  0.4019078615019893
  0.1429292270609537  0.0005476217795390  0.4875548265972753
  0.9982513236616057  0.0005549070101125  0.4745758510452873
  0.3536803988897930  0.0004389149831496  0.4877059238902746
  0.4024702334404537  0.9995371507997817  0.5733380895871463
  0.2483930758279271  0.9987702438359136  0.5350283742665027
  0.0958799932256156  0.9996446674135200  0.5737399386988358
  0.4031360119331708  0.5003753348237154  0.2333372695518605
  0.2481752481377839  0.5003239342710089  0.2000965432113304
  0.0924176614669605  0.5003736396593013  0.2325575272669909
  0.1535763862724053  0.6256510156675503  0.3156024543585545
  0.9975788762570801  0.6256001744801978  0.3026269809907660
  0.3424841373977188  0.6253094382296069  0.3170069134629472
  0.3981390391504505  0.6246638690232942  0.4027742320886389
  0.2476881220263962  0.6252358772135267  0.3915911601597486
  0.0964458859884516  0.6263937376573452  0.3991751076575412
  0.1444911452725108  0.6287186097277342  0.4827971740301749
  0.9964823111824899  0.6257322345820882  0.4726579442979926
  0.3514246119930746  0.6281384274231314  0.4887012696193409
  0.4331838587780439  0.6244094513150813  0.5651213378457243
  0.2472291113606602  0.5601865423455976  0.5199970502686355
  0.0977999735796118  0.6038416924069878  0.5624370892764432
  0.4029542605306347  0.6253229640371458  0.2331628239342010
  0.2482171657170653  0.6252215081436674  0.1993149984789895
  0.0926840514559260  0.6254257990248462  0.2322808319843972
  0.1533861597349855  0.7509195248865339  0.3159724968916677
  0.9978366422620155  0.7507306743866380  0.3028773217957479
  0.3425226736786300  0.7505905373199155  0.3167868170706285
  0.3986883939500885  0.7512771323162752  0.4024720454024902
  0.2477824007573659  0.7505508225119115  0.3907023736920365
  0.0969385603399431  0.7518117659172958  0.4012131412668438
  0.1463045728652901  0.7465953431604291  0.4870067171634318
  0.9978138892698993  0.7513505504299332  0.4726982827452559
  0.3514374820872064  0.7477679407538389  0.4885152581046270
  0.4046494597711359  0.7485004206961250  0.5652765435187064
  0.2485943869863689  0.8108858058837285  0.5123754810006460
  0.1006813887888356  0.7447062029692546  0.5644793185679546
  0.4031558586509689  0.7504623008276639  0.2330669352508963
  0.2482552068653305  0.7507106540459390  0.1990569512948142
  0.0926431868460114  0.7506707818627234  0.2324259511382252
  0.1532546619790267  0.8756312451325172  0.3165224570750667
  0.9979184871571931  0.8756598623033085  0.3033114910942558
  0.3425614006176616  0.8755267501097634  0.3168286685251331
  0.3986236569219841  0.8755145918218830  0.4025993176508464
  0.2479696964923619  0.8753774692640093  0.3904205272148857
  0.0973716440943235  0.8755019071933035  0.4022792219624876
  0.1469391844237364  0.8787715112016556  0.4886942187527481
  0.9984350485659590  0.8758332956613941  0.4732197206224100
  0.3502875336024971  0.8783085330315288  0.4894119895635285
  0.4046188508016684  0.8715027951258421  0.5720191710919735
  0.2487684557825816  0.9095772620181961  0.5773684272447639
  0.0942432937919833  0.8697789767982869  0.5714014571899355
  0.4031907001197723  0.8754791075512500  0.2331013296297471
  0.2482470906599019  0.8754050523860073  0.2009140434002958
  0.0927791164063336  0.8755900686427793  0.2327745307780518
  0.1531970474671311  0.5004563631993761  0.3158206402977513
  0.9975526292112278  0.5005376284683649  0.3032978591194748
  0.3424727724091028  0.5004676496892770  0.3171559448659096
  0.3972298514171086  0.5006702250517989  0.4034852866529093
  0.2469990584559199  0.5005507160431790  0.3905329938220987
  0.0964404397150531  0.5006015112357431  0.4000068773324799
  0.1371286299744767  0.5026653881025780  0.4851797457499032
  0.0011138950483769  0.5025310478231262  0.4744388872213818
  0.3523163767474031  0.5004143547628956  0.4882315595598570
  0.4769532444652995  0.4658353339748089  0.5665528696503372
  0.2943969725608682  0.4459391284461844  0.5897864834219817
  0.1556626590261061  0.4933058489520619  0.5753662595065947
  0.9033703884398676  0.0006534951822346  0.2328208605813984
  0.7480411060571299  0.0006666207516872  0.1991072594160457
  0.5925371090649847  0.0006499700798628  0.2327592481067953
  0.6532228815859540  0.1255598085514933  0.3166892501909899
  0.4978269288342645  0.1254680428697341  0.3036262851990728
  0.8425518304164754  0.1255933703388976  0.3168460506127602
  0.8987104889630260  0.1255826391399779  0.4025520344695650
  0.7479515503981773  0.1257310957052198  0.3903598380043860
  0.5970866658642748  0.1255296016030130  0.4023565603402304
  0.6467062018286569  0.1222371410925120  0.4887434663435712
  0.4981248521782078  0.1251011428429294  0.4736225345562985
  0.8500711588786700  0.1222954869944246  0.4891378876024888
  0.9043354861330499  0.1287759174195315  0.5715918839546887
  0.7492421561792781  0.0907139855706589  0.5770847022865198
  0.5946222899061979  0.1299861915169203  0.5717108416731023
  0.9033376162113953  0.1256482685559988  0.2331506972207649
  0.7480733591260318  0.1258165579536907  0.2002372554382603
  0.5925322169364620  0.1256165860896701  0.2330322832712497
  0.6531134761237070  0.2503404171176058  0.3165087767665398
  0.4977019470571236  0.2504152619924582  0.3035144005108421
  0.8425233781354677  0.2505756873448632  0.3169983564199796
  0.8987931155417925  0.2501402449158903  0.4026638420789297
  0.7477283030639867  0.2505442229782773  0.3907163199559136
  0.5964134407802248  0.2495205098132374  0.4017785476541889
  0.6452188205074521  0.2532403181642948  0.4866809516557495
  0.4977116383251214  0.2496956459806796  0.4740084891476357
  0.8507605570521264  0.2523390806447452  0.4875183664193017
  0.9008916908990727  0.2505520868649285  0.5658134672759800
  0.7481175662262203  0.1895443775897405  0.5121937368710903
  0.6018957982167166  0.2528835576765189  0.5651434505646478
  0.9031719799637941  0.2505089998958994  0.2332921551039107
  0.7479963732182000  0.2502724908612706  0.2006704942857667
  0.5925721821436838  0.2504547021736272  0.2330237268072253
  0.6532684318114264  0.3755636006365961  0.3162643982711799
  0.4975665484926779  0.3754467014408007  0.3033508447691489
  0.8423569757863376  0.3757007936544312  0.3171684357628592
  0.8984407095404379  0.3762114411509216  0.4030426057196479
  0.7474109604102281  0.3759229153948809  0.3914072302473528
  0.5961212870092680  0.3754364242020358  0.4005811554348142
  0.6429513807226641  0.3718718851976845  0.4843139132612961
  0.4963383858661317  0.3774020902136357  0.4753891121869742
  0.8496592194865329  0.3721934488075433  0.4873203387688889
  0.9041224558599836  0.3778219893905970  0.5645493832686554
  0.7468208615504253  0.4372289705360544  0.5172389165695819
  0.6066135575443354  0.3801081578809260  0.5676247337426901
  0.9030294838267778  0.3754745563505963  0.2331972271249114
  0.7479879939108613  0.3755545330783647  0.1985197380661674
  0.5923820970344025  0.3755315352078483  0.2328603833479477
  0.6530776870480040  0.0007423448038679  0.3163564831500381
  0.4978572006361119  0.0005613226560683  0.3031036321536504
  0.8426827995393609  0.0007629887661267  0.3164300436335026
  0.8993663088909329  0.0007540309562870  0.4018424479319691
  0.7479973853817370  0.0008163965886041  0.3903398049776641
  0.5967378736458357  0.0008296283884803  0.4018195668347815
  0.6431254323595326  0.0006724854953148  0.4874886171996451
  0.4981065801658531  0.0005303105307917  0.4746591549112580
  0.8538895636021522  0.0006035555577455  0.4875601994560625
  0.9028247617292919  0.0007084224219582  0.5731933170905776
  0.7489246956846927  0.0012607776737852  0.5350198815706975
  0.5958390270134259  0.0011606093338159  0.5735117376151635
  0.9028130832231653  0.5003527160925358  0.2331756466574220
  0.7479411278949470  0.5003652096924611  0.2015288896319092
  0.5924706165714042  0.5004356258711056  0.2329723288994003
  0.6534853613749902  0.6255582729472593  0.3158566726437684
  0.4976449241144749  0.6255548144359508  0.3032366230293846
  0.8421868442326854  0.6253762312739042  0.3164514248563108
  0.8978834585906981  0.6252717940018258  0.4016844409019953
  0.7474393496574194  0.6254607282128362  0.3911305256375002
  0.5968446172527564  0.6260957623473544  0.3999622609416775
  0.6413197138716384  0.6295925727251728  0.4850090111706109
  0.4989307447893694  0.6250132957409207  0.4724527790496964
  0.8482224430592638  0.6299334242208090  0.4854447644533550
  0.8971727302152885  0.6205438379915407  0.5643824358247329
  0.7482069583594111  0.5631367392614450  0.5175803429322272
  0.6287273965137388  0.6289739710243509  0.5709099992704409
  0.9029192696051496  0.6254170184798440  0.2326457481408255
  0.7479095862349183  0.6252900797631185  0.1981803872362775
  0.5923881809797749  0.6254398791789697  0.2325626726444838
  0.6531465562651562  0.7509417805568006  0.3158657454836273
  0.4977482192431637  0.7506223960357303  0.3031911996976646
  0.8424767779423590  0.7507972669193066  0.3161091561950187
  0.8985435533023036  0.7517456677459293  0.4015022015013869
  0.7478615125424568  0.7510316274414706  0.3897132719911269
  0.5967986663671851  0.7521002522279616  0.4009018775549791
  0.6458791558861421  0.7500332750250394  0.4853450694672361
  0.4989218013828491  0.7512974011600377  0.4732792348228614
  0.8503710633490016  0.7493014975573331  0.4867952753367675
  0.8970270340994517  0.7499156450762143  0.5654814732063542
  0.7485911730609871  0.8124265025256605  0.5113631169153550
  0.6077934456879888  0.7518418767255213  0.5653041508507854
  0.9030779930350974  0.7506598963287558  0.2326037070836335
  0.7479209811471961  0.7508232866308191  0.1998498298749567
  0.5924615727371290  0.7506452436441577  0.2325504967289262
  0.6531902815033419  0.8758946992782697  0.3162206926775397
  0.4977917773975662  0.8756442854859330  0.3034062985610220
  0.8425381264930820  0.8758707953233298  0.3163185711196448
  0.8987817549549248  0.8759183578800247  0.4019775154002829
  0.7480002229534577  0.8758844954389673  0.3897265058642461
  0.5971508020376532  0.8760656737514765  0.4018114484368311
  0.6472027587010132  0.8798537810259290  0.4880203683006030
  0.4982885659362779  0.8760648642709512  0.4734682719602219
  0.8501879875359535  0.8793398119700555  0.4885517515839481
  0.9041525174458798  0.8722102932903582  0.5710568669407650
  0.7490320501647645  0.9115043804015244  0.5761984415262376
  0.5949953921988254  0.8726900289775870  0.5706998951099536
  0.9033158548866922  0.8756484049823285  0.2327466271834666
  0.7479863989324826  0.8755211420296831  0.1998992276952762
  0.5924355544754292  0.8756455480715317  0.2326816758944261
  0.6532301734204680  0.5005141557719242  0.3162473794598242
  0.4975794377367677  0.5005199158336495  0.3037721640439983
  0.8425831801380355  0.5004674552964516  0.3172096381199765
  0.8981118640454184  0.5006565341545297  0.4033087567423479
  0.7471787062203745  0.5005467657136720  0.3918940319151076
  0.5965189744369681  0.5004428581104392  0.4004260024208506
  0.6379485982747184  0.5005344067199573  0.4855184463946500
  0.4994120154787680  0.5002835886834163  0.4725491729394093
  0.8521003646492247  0.5002761240296181  0.4880592826364918
  0.0091758897894678  0.4622267356514058  0.5706305407784527
  0.8534896259172768  0.4994797117737093  0.5699781451900563
  0.6596361169595397  0.4992301607874410  0.5781365294943868
  0.3604593391072015  0.1887300393464599  0.5332930432657577
  0.1383050738208809  0.1908766728384208  0.5329112337976554
  0.3731209472160231  0.3112527488975800  0.5358348584468686
  0.1309881427315247  0.3164417611882087  0.5335598170603717
  0.3855783299093289  0.4341076932605361  0.5834290524349939
  0.1992068244455254  0.4266616874811007  0.5668715449347417
  0.2965961798440659  0.4935313635703835  0.5416684827750160
  0.1878301311282442  0.5638265047214404  0.5651645104587573
  0.3823256567218323  0.6821336633102746  0.5352577788989521
  0.1261626997445049  0.6825642619387011  0.5312272951521138
  0.3639606027049354  0.8080142077909898  0.5338249710462861
  0.1351369502350153  0.8075639995209940  0.5333690908050102
  0.8618310328567418  0.1917103702854916  0.5337004941951804
  0.6367626215427791  0.1918054121052037  0.5330089489646284
  0.8762592757306606  0.3150633210530671  0.5347354816965080
  0.6273495714198418  0.3173231628380933  0.5323154559431913
  0.8499599047180624  0.4396433446097916  0.5373786732359704
  0.6829389928314598  0.4286907259965957  0.5625895234675511
  0.8508850492849191  0.5592298715985322  0.5374768426855212
  0.6886537263141648  0.5699517892758337  0.5651476288991191
  0.8704308018264300  0.6864252737141001  0.5333324754362607
  0.6389445931055633  0.6902367204932887  0.5333768663849980
  0.8611776795221076  0.8099761203394138  0.5330614922876578
  0.6384164587948646  0.8123902862999302  0.5324767527484582
  0.4308136658301507  0.5421043199499209  0.5659256157774735
 
  0.00000000E+00  0.00000000E+00  0.00000000E+00
  0.00000000E+00  0.00000000E+00  0.00000000E+00
  0.00000000E+00  0.00000000E+00  0.00000000E+00
  0.00000000E+00  0.00000000E+00  0.00000000E+00
  0.00000000E+00  0.00000000E+00  0.00000000E+00
  0.00000000E+00  0.00000000E+00  0.00000000E+00