Ta  N Ru                                
   1.00000000000000     
    10.4555999800000006    0.0000000000000000    0.0000000000000000
     0.0000000000000000   11.6775998899999998    0.0000000000000000
     0.0000000000000000    0.0000000000000000   24.0732377500000005
   Ta   N    Ru
    64    64     2
Selective dynamics
Direct
  0.4991785186325330  0.1250000003211298  0.3753726828051569   F   F   F
  0.2600588226580172  0.1250000003211298  0.3190980514078845   F   F   F
  0.2470962603561304  0.0000000000000000  0.4358978840493251   F   F   F
  0.2479596925729357  0.1249109857050191  0.5614556336282933   T   T   T
 -0.0012238465049143  0.1249926488240355  0.5006110178958192   T   T   T
  0.9960102452932010 -0.0001978591944917  0.6271162905694830   T   T   T
  0.5002822723449609  0.1307108234740545  0.7493012655225948   T   T   T
  0.2525570247342555  0.1236741399058632  0.6859364035331540   T   T   T
  0.4991785186325330  0.3750000001070433  0.3753726828051569   F   F   F
  0.2600588226580172  0.3750000001070433  0.3190980514078845   F   F   F
  0.2470962603561304  0.2499999997859135  0.4358978840493251   F   F   F
  0.2479621291362299  0.3750820511589874  0.5614569251847984   T   T   T
 -0.0012215507211345  0.3749964011520419  0.5006150058445392   T   T   T
 -0.0045893987454975  0.2499959101889106  0.6279758426013262   T   T   T
  0.5002892278681250  0.3693613778094224  0.7492659888914724   T   T   T
  0.2525676593084161  0.3763214708914543  0.6859303458154207   T   T   T
  0.4991785186325330  0.6249999998929567  0.3753726828051569   F   F   F
  0.2600588226580172  0.6249999998929567  0.3190980514078845   F   F   F
  0.2470962603561304  0.5000000004281731  0.4358978840493251   F   F   F
  0.2484209493399688  0.6251350219645511  0.5615612320298207   T   T   T
  0.9984074988367199  0.6250639069059613  0.5005924386625582   T   T   T
  0.9960142155556589  0.5002012422779590  0.6271201319404370   T   T   T
  0.5104961284904826  0.6236065624886487  0.7429300078276111   T   T   T
  0.2492708183389130  0.6255491780114758  0.6864010016538099   T   T   T
  0.4991785186325330  0.8750000005352163  0.3753726828051569   F   F   F
  0.2600588226580172  0.8750000005352163  0.3190980514078845   F   F   F
  0.2470962603561304  0.7500000002140865  0.4358978840493251   F   F   F
  0.2484276933008573  0.8748566493223185  0.5615624591899644   T   T   T
  0.9984036679844348  0.8749280930086352  0.5005910149757484   T   T   T
  0.9962220012952067  0.7500033562474130  0.6267944725497256   T   T   T
  0.5104954542845160  0.8764360937448226  0.7429386721243330   T   T   T
  0.2492741745172572  0.8744624680384147  0.6864095125306948   T   T   T
  0.9991784928090510  0.1250000003211298  0.3753726828051569   F   F   F
  0.7600587968345351  0.1250000003211298  0.3190980514078845   F   F   F
  0.7470962345326484  0.0000000000000000  0.4358978840493251   F   F   F
  0.7496210080375962  0.1250276286359555  0.5619234985488785   T   T   T
  0.4988388426605321  0.1249290500555364  0.5003604919080900   T   T   T
  0.4970367855098325  0.9995030425568925  0.6259767198659626   T   T   T
  0.0146388868729002  0.1226747432813530  0.7435434352012015   T   T   T
  0.7456146192853288  0.1246466787984627  0.6880363854939539   T   T   T
  0.9991784928090510  0.3750000001070433  0.3753726828051569   F   F   F
  0.7600587968345351  0.3750000001070433  0.3190980514078845   F   F   F
  0.7470962345326484  0.2499999997859135  0.4358978840493251   F   F   F
  0.7496248569561417  0.3749677531573976  0.5619210804156951   T   T   T
  0.4988447091602704  0.3750600844311959  0.5003581507785440   T   T   T
  0.5002327083707143  0.2499918379146992  0.6241101197428832   T   T   T
  0.0146450850456667  0.3773048540169249  0.7435399490599442   T   T   T
  0.7456197635947204  0.3753614705108054  0.6880335786939392   T   T   T
  0.9991784928090510  0.6249999998929567  0.3753726828051569   F   F   F
  0.7600587968345351  0.6249999998929567  0.3190980514078845   F   F   F
  0.7470962345326484  0.5000000004281731  0.4358978840493251   F   F   F
  0.7487570792978769  0.6248521397972168  0.5619974351564347   T   T   T
  0.4987136907012004  0.6249385344396950  0.5005589712475117   T   T   T
  0.4970400636903408  0.5004973562779563  0.6259724667178750   T   T   T
  0.0104272753866462  0.6244426039512092  0.7426121697877524   T   T   T
  0.7468111765718972  0.6240285724791340  0.6878616031081702   T   T   T
  0.9991784928090439  0.8750000005352163  0.3753726828051569   F   F   F
  0.7600587968345351  0.8750000005352163  0.3190980514078845   F   F   F
  0.7470962345326484  0.7500000002140865  0.4358978840493251   F   F   F
  0.7487533701189216  0.8751419062195538  0.5619967049602299   T   T   T
  0.4987126048624580  0.8750525082903832  0.5005582629563941   T   T   T
  0.4969041654070192  0.7499990452531273  0.6263573855703605   T   T   T
  0.0104362848227932  0.8755784358624050  0.7426213511964306   T   T   T
  0.7468089381084818  0.8759977839538459  0.6878620825825216   T   T   T
  0.1472195596423447  0.0000000000000000  0.3601606351366584   F   F   F
  0.4003222342624682  0.0000000000000000  0.3237632067519129   F   F   F
  0.4439214822817661  0.0000000000000000  0.4377276028165085   F   F   F
  0.4005843831823338  0.0000730823686727  0.5516821420772128   T   T   T
  0.1505226068053437 -0.0002477921177429  0.5101756410220774   T   T   T
  0.1935876957637201 -0.0006063229248810  0.6239855547321739   T   T   T
  0.1512571389185254  0.9975744966792314  0.7366914783213293   T   T   T
  0.3980242448044981  0.0001597645291662  0.7024737040197542   T   T   T
  0.1472195596423447  0.2499999997859135  0.3601606351366584   F   F   F
  0.4003222342624682  0.2499999997859135  0.3237632067519129   F   F   F
  0.4439214822817661  0.2499999997859135  0.4377276028165085   F   F   F
  0.4000717602385483  0.2499917102480942  0.5507872668836646   T   T   T
  0.1504510152572179  0.2499955406385458  0.5100695509160226   T   T   T
  0.1931747363434627  0.2499988342680298  0.6233433950558801   T   T   T
  0.1507610116687130  0.2499907070976060  0.7307088824861614   T   T   T
  0.4017242614493735  0.2499935427366868  0.6965552042902294   T   T   T
  0.1472195596423447  0.5000000004281731  0.3601606351366584   F   F   F
  0.4003222342624682  0.5000000004281731  0.3237632067519129   F   F   F
  0.4439214822817661  0.5000000004281731  0.4377276028165085   F   F   F
  0.4005879225730900  0.4999138364693003  0.5516787810856173   T   T   T
  0.1505297702130915  0.5002406915367018  0.5101753872744178   T   T   T
  0.1935829108485518  0.5006021277849403  0.6239806065550096   T   T   T
  0.1512416915316941  0.5024439566021209  0.7366736803728915   T   T   T
  0.3980026724701396  0.4998758128354450  0.7024630386680581   T   T   T
  0.1472195596423447  0.7500000002140865  0.3601606351366584   F   F   F
  0.4003222342624682  0.7500000002140865  0.3237632067519129   F   F   F
  0.4439214822817661  0.7500000002140865  0.4377276028165085   F   F   F
  0.4008318088505223  0.7499982476988279  0.5518713107423613   T   T   T
  0.1505145526618686  0.7500006686476504  0.5102190589923743   T   T   T
  0.1936085087097960  0.7500037046818114  0.6241184162237473   T   T   T
  0.1485274222158711  0.7500053465547329  0.7373800960571724   T   T   T
  0.3975145733277574  0.7500112994548339  0.7025471194662227   T   T   T
  0.6472195338188556  0.0000000000000000  0.3601606351366584   F   F   F
  0.9003222591295312  0.0000000000000000  0.3237632067519129   F   F   F
  0.9439215071488221  0.0000000000000000  0.4377276028165085   F   F   F
  0.9011677030600652 -0.0000249542349294  0.5522196201911012   T   T   T
  0.6510881983076133 -0.0000646212941248  0.5104369631093305   T   T   T
  0.6935845181565338  0.0002150394448444  0.6248125227917762   T   T   T
  0.6478237697875716  0.0022775058535226  0.7400481017143480   T   T   T
  0.8942473429416375 -0.0003241480926819  0.7034600416101713   T   T   T
  0.6472195338188556  0.2499999997859135  0.3601606351366584   F   F   F
  0.9003222591295312  0.2499999997859135  0.3237632067519129   F   F   F
  0.9439215071488221  0.2499999997859135  0.4377276028165085   F   F   F
  0.9017703667612418  0.2499994649958611  0.5524756211915721   T   T   T
  0.6512863936522145  0.2499961439596033  0.5104144634417739   T   T   T
  0.6966530236090680  0.2499984669015399  0.6244180921339580   T   T   T
  0.6469562132559605  0.2500050179093725  0.7362952527603793   T   T   T
  0.8950945269222933  0.2500019544897856  0.7049576755685624   T   T   T
  0.6472195338188556  0.5000000004281731  0.3601606351366584   F   F   F
  0.9003222591295312  0.5000000004281731  0.3237632067519129   F   F   F
  0.9439215071488221  0.5000000004281731  0.4377276028165085   F   F   F
  0.9011678394132174  0.5000185269953590  0.5522207653318267   T   T   T
  0.6510902490239214  0.5000640691945328  0.5104379021146451   T   T   T
  0.6935870634931727  0.4997857596558756  0.6248096736462270   T   T   T
  0.6478327552334427  0.4977679300923193  0.7400283282983702   T   T   T
  0.8942421115934850  0.5003261793121795  0.7034687996894776   T   T   T
  0.6472195338188556  0.7500000002140865  0.3601606351366584   F   F   F
  0.9003222591295312  0.7500000002140865  0.3237632067519129   F   F   F
  0.9439215071488221  0.7500000002140865  0.4377276028165085   F   F   F
  0.9005316555613395  0.7499996733213816  0.5522447004194250   T   T   T
  0.6509623999385372  0.7499957553707693  0.5104630866420666   T   T   T
  0.6940147832803867  0.7500036967321289  0.6248234821059779   T   T   T
  0.6496118994625902  0.7500079866418163  0.7390727393613362   T   T   T
  0.8953357990530815  0.7500147358426125  0.7028187472177171   T   T   T
  0.2339433410742631  0.2501491643065977  0.7998934845927760   T   T   T
  0.4539119214917346  0.2503404323915736  0.8314065648988558   T   T   T
 
  0.00000000E+00  0.00000000E+00  0.00000000E+00
  0.00000000E+00  0.00000000E+00  0.00000000E+00
  0.00000000E+00  0.00000000E+00  0.00000000E+00
  0.00000000E+00  0.00000000E+00  0.00000000E+00
  0.00000000E+00  0.00000000E+00  0.00000000E+00
  0.00000000E+00  0.00000000E+00  0.00000000E+00
  0.00000000E+00  0.00000000E+00  0.00000000E+00
  0.00000000E+00  0.00000000E+00  0.00000000E+00
  0.00000000E+00  0.00000000E+00  0.00000000E+00
  0.00000000E+00  0.00000000E+00  0.00000000E+00
  0.00000000E+00  0.00000000E+00  0.00000000E+00
  0.00000000E+00  0.00000000E+00  0.00000000E+00
  0.00000000E+00  0.00000000E+00  0.00000000E+00
  0.00000000E+00  0.00000000E+00  0.00000000E+00
  0.00000000E+00  0.00000000E+00  0.00000000E+00
  0.00000000E+00  0.00000000E+00  0.00000000E+00
  0.00000000E+00  0.00000000E+00  0.00000000E+00
  0.00000000E+00  0.00000000E+00  0.00000000E+00
  0.00000000E+00  0.00000000E+00  0.00000000E+00
  0.00000000E+00  0.00000000E+00  0.00000000E+00
  0.00000000E+00  0.00000000E+00  0.00000000E+00
  0.00000000E+00  0.00000000E+00  0.00000000E+00
  0.00000000E+00  0.00000000E+00  0.00000000E+00
  0.00000000E+00  0.00000000E+00  0.00000000E+00
  0.00000000E+00  0.00000000E+00  0.00000000E+00
  0.00000000E+00  0.00000000E+00  0.00000000E+00
  0.00000000E+00  0.00000000E+00  0.00000000E+00
  0.00000000E+00  0.00000000E+00  0.00000000E+00
  0.00000000E+00  0.00000000E+00  0.00000000E+00
  0.00000000E+00  0.00000000E+00  0.00000000E+00
  0.00000000E+00  0.00000000E+00  0.00000000E+00
  0.00000000E+00  0.00000000E+00  0.00000000E+00
  0.00000000E+00  0.00000000E+00  0.00000000E+00
  0.00000000E+00  0.00000000E+00  0.00000000E+00
  0.00000000E+00  0.00000000E+00  0.00000000E+00
  0.00000000E+00  0.00000000E+00  0.00000000E+00
  0.00000000E+00  0.00000000E+00  0.00000000E+00
  0.00000000E+00  0.00000000E+00  0.00000000E+00
  0.00000000E+00  0.00000000E+00  0.00000000E+00
  0.00000000E+00  0.00000000E+00  0.00000000E+00
  0.00000000E+00  0.00000000E+00  0.00000000E+00
  0.00000000E+00  0.00000000E+00  0.00000000E+00
  0.00000000E+00  0.00000000E+00  0.00000000E+00
  0.00000000E+00  0.00000000E+00  0.00000000E+00
  0.00000000E+00  0.00000000E+00  0.00000000E+00
  0.00000000E+00  0.00000000E+00  0.00000000E+00
  0.00000000E+00  0.00000000E+00  0.00000000E+00
  0.00000000E+00  0.00000000E+00  0.00000000E+00
  0.00000000E+00  0.00000000E+00  0.00000000E+00
  0.00000000E+00  0.00000000E+00  0.00000000E+00
  0.00000000E+00  0.00000000E+00  0.00000000E+00
  0.00000000E+00  0.00000000E+00  0.00000000E+00
  0.00000000E+00  0.00000000E+00  0.00000000E+00
  0.00000000E+00  0.00000000E+00  0.00000000E+00
  0.00000000E+00  0.00000000E+00  0.00000000E+00
  0.00000000E+00  0.00000000E+00  0.00000000E+00
  0.00000000E+00  0.00000000E+00  0.00000000E+00
  0.00000000E+00  0.00000000E+00  0.00000000E+00
  0.00000000E+00  0.00000000E+00  0.00000000E+00
  0.00000000E+00  0.00000000E+00  0.00000000E+00
  0.00000000E+00  0.00000000E+00  0.00000000E+00
  0.00000000E+00  0.00000000E+00  0.00000000E+00
  0.00000000E+00  0.00000000E+00  0.00000000E+00
  0.00000000E+00  0.00000000E+00  0.00000000E+00
  0.00000000E+00  0.00000000E+00  0.00000000E+00
  0.00000000E+00  0.00000000E+00  0.00000000E+00
  0.00000000E+00  0.00000000E+00  0.00000000E+00
  0.00000000E+00  0.00000000E+00  0.00000000E+00
  0.00000000E+00  0.00000000E+00  0.00000000E+00
  0.00000000E+00  0.00000000E+00  0.00000000E+00
  0.00000000E+00  0.00000000E+00  0.00000000E+00
  0.00000000E+00  0.00000000E+00  0.00000000E+00
  0.00000000E+00  0.00000000E+00  0.00000000E+00
  0.00000000E+00  0.00000000E+00  0.00000000E+00
  0.00000000E+00  0.00000000E+00  0.00000000E+00
  0.00000000E+00  0.00000000E+00  0.00000000E+00
  0.00000000E+00  0.00000000E+00  0.00000000E+00
  0.00000000E+00  0.00000000E+00  0.00000000E+00
  0.00000000E+00  0.00000000E+00  0.00000000E+00
  0.00000000E+00  0.00000000E+00  0.00000000E+00
  0.00000000E+00  0.00000000E+00  0.00000000E+00
  0.00000000E+00  0.00000000E+00  0.00000000E+00
  0.00000000E+00  0.00000000E+00  0.00000000E+00
  0.00000000E+00  0.00000000E+00  0.00000000E+00
  0.00000000E+00  0.00000000E+00  0.00000000E+00
  0.00000000E+00  0.00000000E+00  0.00000000E+00
  0.00000000E+00  0.00000000E+00  0.00000000E+00
  0.00000000E+00  0.00000000E+00  0.00000000E+00
  0.00000000E+00  0.00000000E+00  0.00000000E+00
  0.00000000E+00  0.00000000E+00  0.00000000E+00
  0.00000000E+00  0.00000000E+00  0.00000000E+00
  0.00000000E+00  0.00000000E+00  0.00000000E+00
  0.00000000E+00  0.00000000E+00  0.00000000E+00
  0.00000000E+00  0.00000000E+00  0.00000000E+00
  0.00000000E+00  0.00000000E+00  0.00000000E+00
  0.00000000E+00  0.00000000E+00  0.00000000E+00
  0.00000000E+00  0.00000000E+00  0.00000000E+00
  0.00000000E+00  0.00000000E+00  0.00000000E+00
  0.00000000E+00  0.00000000E+00  0.00000000E+00
  0.00000000E+00  0.00000000E+00  0.00000000E+00
  0.00000000E+00  0.00000000E+00  0.00000000E+00
  0.00000000E+00  0.00000000E+00  0.00000000E+00
  0.00000000E+00  0.00000000E+00  0.00000000E+00
  0.00000000E+00  0.00000000E+00  0.00000000E+00
  0.00000000E+00  0.00000000E+00  0.00000000E+00
  0.00000000E+00  0.00000000E+00  0.00000000E+00
  0.00000000E+00  0.00000000E+00  0.00000000E+00
  0.00000000E+00  0.00000000E+00  0.00000000E+00
  0.00000000E+00  0.00000000E+00  0.00000000E+00
  0.00000000E+00  0.00000000E+00  0.00000000E+00
  0.00000000E+00  0.00000000E+00  0.00000000E+00
  0.00000000E+00  0.00000000E+00  0.00000000E+00
  0.00000000E+00  0.00000000E+00  0.00000000E+00
  0.00000000E+00  0.00000000E+00  0.00000000E+00
  0.00000000E+00  0.00000000E+00  0.00000000E+00
  0.00000000E+00  0.00000000E+00  0.00000000E+00
  0.00000000E+00  0.00000000E+00  0.00000000E+00
  0.00000000E+00  0.00000000E+00  0.00000000E+00
  0.00000000E+00  0.00000000E+00  0.00000000E+00
  0.00000000E+00  0.00000000E+00  0.00000000E+00
  0.00000000E+00  0.00000000E+00  0.00000000E+00
  0.00000000E+00  0.00000000E+00  0.00000000E+00
  0.00000000E+00  0.00000000E+00  0.00000000E+00
  0.00000000E+00  0.00000000E+00  0.00000000E+00
  0.00000000E+00  0.00000000E+00  0.00000000E+00
  0.00000000E+00  0.00000000E+00  0.00000000E+00
  0.00000000E+00  0.00000000E+00  0.00000000E+00
  0.00000000E+00  0.00000000E+00  0.00000000E+00
  0.00000000E+00  0.00000000E+00  0.00000000E+00
  0.00000000E+00  0.00000000E+00  0.00000000E+00
