Ru Ta  N  Cu                            
   1.00000000000000     
    18.1096308199999996    0.0000000000000000    0.0000000000000000
     0.0000000000000000   23.3551997799999995    0.0000000000000000
     0.0000000000000000    0.0000000000000000   32.4818170799999990
   Ru   Ta   N    Cu
   128   240   240     4
Selective dynamics
Direct
  0.0463087409770800  0.0061297767640582  0.4484422914028100   T   T   T
  0.2845659117280518  0.4960173156854286  0.4344452593507106   T   T   T
  0.4255263484720819  0.0663519687241665  0.4331083613876477   T   T   T
  0.0479983322128592  0.2567592240287179  0.4488404963638604   T   T   T
  0.2834056625682613  0.2501397307448771  0.4360666883454163   T   T   T
  0.4274604927738362  0.3180988592523571  0.4303902111614923   T   T   T
  0.0528576524217108  0.1230888770630211  0.4494853018274481   T   T   T
  0.2774027863477991  0.1320079274274313  0.4396880582368096   T   T   T
  0.4262357128765914  0.1858572776782538  0.4323446579609011   T   T   T
  0.0564010908964890  0.3748250413613367  0.4496288029392244   T   T   T
  0.2832754393780052  0.3754817040640993  0.4348718228866922   T   T   T
  0.4285615360196812  0.4336516932547763  0.4321122501127828   T   T   T
  0.1792921507096872  0.4368257740588346  0.4652704945558473   T   T   T
  0.1779224402882499  0.3124873044323018  0.4626388368093499   T   T   T
  0.1642928549224047  0.1974937155459139  0.4543470442636278   T   T   T
  0.1736394321191237  0.0580881384665451  0.4584761196144921   T   T   T
  0.0665674138423963  0.4373880075507685  0.5127329244582165   T   T   T
  0.3236422547144781  0.4357468644295108  0.4968420339178810   T   T   T
  0.4465085213838826  0.0101141802019207  0.5011691529688639   T   T   T
  0.0683354512125968  0.1924254972052547  0.5093976845645498   T   T   T
  0.3276327682796167  0.1963447380716134  0.4995563483532715   T   T   T
  0.4433706475131608  0.2575238994231484  0.4994782705502410   T   T   T
  0.0710936721216237  0.0616701494668309  0.5124794244580083   T   T   T
  0.3186299142529680  0.0576540212081047  0.4958782110947950   T   T   T
  0.4443950559836728  0.1217611698821973  0.4995519955681808   T   T   T
  0.0726607101119839  0.3155184339471145  0.5138228868781893   T   T   T
  0.3107578122788703  0.3141157159879419  0.4988298511611599   T   T   T
  0.4454467148846996  0.3677505199027606  0.4984198983283958   T   T   T
  0.1926209688899203  0.3753242542042008  0.5281227934429801   T   T   T
  0.1991587683536878  0.2414799962039142  0.5215712699949434   T   T   T
  0.2113749080961356  0.1331308838542078  0.5103022826827870   T   T   T
  0.1937815332545123  0.4919440937288443  0.5298453272828230   T   T   T
  0.0546205274206829  0.4974094740033874  0.4488399419052083   T   T   T
  0.2844569222327706  0.9960049200375684  0.4348679656893161   T   T   T
  0.4276546532689710  0.5666881766934446  0.4310978019488867   T   T   T
  0.0478900561787357  0.7546235162276039  0.4476022337401659   T   T   T
  0.2836227131905139  0.7386699463952056  0.4350764043826108   T   T   T
  0.4247995876055077  0.8172486742428698  0.4332347661472759   T   T   T
  0.0560513219738227  0.6167781016237897  0.4506521385211933   T   T   T
  0.2763933418987233  0.6238102675632713  0.4403498738894360   T   T   T
  0.4260954797578775  0.6832488750843598  0.4334699233178896   T   T   T
  0.0529221993389639  0.8710208964124492  0.4491670154546041   T   T   T
  0.2770498938508146  0.8812340196326168  0.4392556572673902   T   T   T
  0.4256125161741334  0.9345694548188617  0.4335700667474509   T   T   T
  0.1626774125807187  0.9458042516676886  0.4527794569849312   T   T   T
  0.1756164580752115  0.8064769309576846  0.4584202328382758   T   T   T
  0.1633553022503375  0.6927952922201908  0.4531536879891538   T   T   T
  0.1763938980312190  0.5519478812542277  0.4632136404369071   T   T   T
  0.0700131032669716  0.9396361173793341  0.5091222982272141   T   T   T
  0.3297064034251477  0.9431548474701299  0.4993127724862247   T   T   T
  0.4439728174102425  0.5055386596465968  0.4973061612502092   T   T   T
  0.0694200848224073  0.6893351401880689  0.5089031917409156   T   T   T
  0.3301691943246711  0.6876469034264964  0.5003800628613613   T   T   T
  0.4452063676215828  0.7557876260860406  0.4994623023085925   T   T   T
  0.0687397140522367  0.5528764557183263  0.5140353275442278   T   T   T
  0.3135678543389831  0.5528523402035149  0.4988649126302724   T   T   T
  0.4435571070622724  0.6186242991058042  0.4988322411020946   T   T   T
  0.0729329784021803  0.8093469858594380  0.5121082190236765   T   T   T
  0.3168012627512771  0.8060890130731151  0.4948223178463973   T   T   T
  0.4445526275538145  0.8691392436334235  0.4998905624708853   T   T   T
  0.2101753425678808  0.8837770414940510  0.5099244218872805   T   T   T
  0.1992869898976283  0.7390320175645151  0.5188763890702851   T   T   T
  0.2084436218112938  0.6325236713279009  0.5115088182761027   T   T   T
  0.1989864794855799  0.9914589140417197  0.5188724021765756   T   T   T
  0.5474856984417883  0.0070424867709754  0.4483098598491747   T   T   T
  0.7831462415734439  0.4952642797208369  0.4342359776402258   T   T   T
  0.9237105251749351  0.0650421478353452  0.4332936522115039   T   T   T
  0.5478999849752223  0.2569500762642208  0.4489220689981849   T   T   T
  0.7846252913182312  0.2503450507463510  0.4357694931297583   T   T   T
  0.9266920852805467  0.3184130828870844  0.4320999826531691   T   T   T
  0.5540779125024665  0.1228054264863522  0.4495304318723761   T   T   T
  0.7777882897945252  0.1332731661408941  0.4402662068884849   T   T   T
  0.9251898121610730  0.1860209956508934  0.4321948115562508   T   T   T
  0.5569396156433500  0.3748085112271786  0.4495127304353969   T   T   T
  0.7817095350696449  0.3765948176433848  0.4346715967545133   T   T   T
  0.9283660061140699  0.4338842922440501  0.4320311659076896   T   T   T
  0.6787745999022563  0.4376226379425655  0.4674800761762421   T   T   T
  0.6775859843481395  0.3121747539207491  0.4619265845478106   T   T   T
  0.6647302396418924  0.1983751741474903  0.4543900115237925   T   T   T
  0.6756158743621122  0.0584516266625827  0.4591472406109310   T   T   T
  0.5582678440759634  0.4370374877652600  0.5133177863503203   T   T   T
  0.8227574387982851  0.4357401128608989  0.4972687857930908   T   T   T
  0.9456233791160799  0.0098658402395233  0.5013387490961740   T   T   T
  0.5690165481817619  0.1920666681806448  0.5094921401273729   T   T   T
  0.8286896558866684  0.1977288423429877  0.4997983048311528   T   T   T
  0.9443849302902257  0.2595957986903299  0.5000474642376201   T   T   T
  0.5723286384867374  0.0620376300666208  0.5127225156130290   T   T   T
  0.8174502166903368  0.0575332049678510  0.4958373382506471   T   T   T
  0.9430395201175580  0.1216001868440694  0.4995222297707749   T   T   T
  0.5719336501332895  0.3159866508917632  0.5141714874617068   T   T   T
  0.8111061971944720  0.3154509624673291  0.4981280693747400   T   T   T
  0.9445332475403194  0.3718486098505820  0.4991177771238031   T   T   T
  0.6956409765931257  0.3707180038935603  0.5278418610974673   T   T   T
  0.7003214058925993  0.2437581092472679  0.5212227898004688   T   T   T
  0.7116617040828295  0.1347193924867256  0.5106526583730515   T   T   T
  0.6972100767402147  0.5003303484946594  0.5292328803505134   T   T   T
  0.5546755354820924  0.4979867409133980  0.4485958359673028   T   T   T
  0.7845701611918439  0.9944749916235708  0.4351413280125126   T   T   T
  0.9281489758334247  0.5653554829408846  0.4322586534639475   T   T   T
  0.5485509922045932  0.7529148311879571  0.4477071230668134   T   T   T
  0.7840100391136332  0.7379244220665504  0.4351642266400452   T   T   T
  0.9236091384696474  0.8176890911484929  0.4333237435787646   T   T   T
  0.5548251789752043  0.6173537275225591  0.4502125784467594   T   T   T
  0.7777724183855753  0.6236004561526010  0.4401861729733025   T   T   T
  0.9269297048806673  0.6826053119895873  0.4338386109403799   T   T   T
  0.5538210684781756  0.8693111610973343  0.4494464890372875   T   T   T
  0.7765613824280702  0.8804521433236219  0.4393270713449398   T   T   T
  0.9233549114908883  0.9357406311730694  0.4334037214453266   T   T   T
  0.6623104473892296  0.9456051418332015  0.4524130470141630   T   T   T
  0.6761427013927034  0.8046163117411705  0.4584933079454362   T   T   T
  0.6641921307693205  0.6910534421413428  0.4540466361546213   T   T   T
  0.6753852268059387  0.5530811098472546  0.4618619769650585   T   T   T
  0.5696589294882070  0.9399016072737377  0.5086838289009936   T   T   T
  0.8296909838624247  0.9410526413524400  0.4996865271782531   T   T   T
  0.9436763118108544  0.5018432871112849  0.4981380965428583   T   T   T
  0.5692396936228682  0.6880551269167982  0.5094289837503863   T   T   T
  0.8313023909667773  0.6873238455660543  0.5007174790113083   T   T   T
  0.9449991517310573  0.7561969073971121  0.4995096738898213   T   T   T
  0.5697066361307583  0.5546243509826172  0.5138292752223619   T   T   T
  0.8149313580652278  0.5508144378423568  0.4982952395717103   T   T   T
  0.9449020613254737  0.6178124711066667  0.4993572547683682   T   T   T
  0.5734632669730402  0.8068560208062057  0.5123742418211944   T   T   T
  0.8160399419372522  0.8055553950400781  0.4949877658619348   T   T   T
  0.9443054876258823  0.8692949080915180  0.4998537073799361   T   T   T
  0.7090356730845644  0.8826746080817063  0.5095179813399185   T   T   T
  0.6997387722844070  0.7373586376667201  0.5196586017299515   T   T   T
  0.7109488794565285  0.6305564392593821  0.5121059026709904   T   T   T
  0.7000747474274709  0.9895019658653991  0.5187643720906491   T   T   T
  0.0002112439569970  0.0001379294448540  0.0373463921698374   F   F   F
  0.3342257926207992  0.0625994154237475  0.0423987318545187   F   F   F
  0.1660626269271432  0.0626581163633873  0.0424061668450690   F   F   F
  0.2502202084754828  0.1252178855354416  0.1130358333669221   F   F   F
  0.0828588434925734  0.0627073156657261  0.1186643004524512   F   F   F
  0.4176999472490408  0.0627059576615423  0.1186271515872050   F   F   F
  0.0009687406119276  0.1252112537003415  0.1992242085974063   T   T   T
  0.3327771502691795  0.0627633395717774  0.1977546428613429   T   T   T
  0.1679984048268403  0.0627445860251977  0.1977966418152246   T   T   T
  0.2493735874933273  0.1252557430650191  0.2788387477242001   T   T   T
  0.0843458015313638  0.0626867115697021  0.2791242514948901   T   T   T
  0.4175791748991817  0.0627718348081868  0.2783162591166553   T   T   T
  0.0028332092771864  0.1254870311868585  0.3596848598151957   T   T   T
  0.3333041608075564  0.0629999411480392  0.3584086051777520   T   T   T
  0.1654293088409004  0.0629143648145576  0.3618492359095131   T   T   T
  0.0001993579241457  0.1251124241418680  0.0373673238785415   F   F   F
  0.3342248374093941  0.1876083518869578  0.0424180467130881   F   F   F
  0.1660568042752573  0.1876606967942038  0.0424146876443743   F   F   F
  0.2502332970886698  0.2502158349488468  0.1130222857832806   F   F   F
  0.0828712378028129  0.1877169521294775  0.1186661494224168   F   F   F
  0.4176644359050954  0.1877065482458207  0.1186607550294028   F   F   F
  0.0009468104742416  0.2501575583676774  0.1991932327995154   T   T   T
  0.3327748981708432  0.1877195254409495  0.1976844621986918   T   T   T
  0.1679251043467601  0.1877130871348110  0.1977587563544786   T   T   T
  0.2492413303074729  0.2501869648239650  0.2786637533051329   T   T   T
  0.0842094364922167  0.1877256249334237  0.2791368882739009   T   T   T
  0.4176744906084553  0.1876893289911186  0.2782847052943831   T   T   T
  0.0015178789294704  0.2501632707637785  0.3602510691677783   T   T   T
  0.3335534699935878  0.1881131294688139  0.3580478826908673   T   T   T
  0.1656395307597074  0.1877338708668191  0.3608662973268063   T   T   T
  0.0002122078768210  0.2501392066830732  0.0373456541597363   F   F   F
  0.3342232035055162  0.3125992309382539  0.0423967923009556   F   F   F
  0.1660586660861370  0.3126582257413517  0.0424062846115874   F   F   F
  0.2502173161139041  0.3752178897059935  0.1130360339591618   F   F   F
  0.0828568376004242  0.3127060748111887  0.1186645141734175   F   F   F
  0.4176984722473520  0.3127078846600213  0.1186298408889357   F   F   F
  0.0009654255869109  0.3752266261533411  0.1991383083426586   T   T   T
  0.3326814142299890  0.3127306185997566  0.1976683007809102   T   T   T
  0.1678160135793328  0.3127049963528842  0.1977452532569408   T   T   T
  0.2490189292590277  0.3752427952958283  0.2785031774428313   T   T   T
  0.0840182637178368  0.3126645547588456  0.2790544490260733   T   T   T
  0.4176218909258209  0.3126432842798961  0.2779986665739044   T   T   T
  0.0023938172350824  0.3753890144244721  0.3592019865320307   T   T   T
  0.3325309557101464  0.3128963350879599  0.3572866729086295   T   T   T
  0.1647418965507340  0.3126292157722835  0.3614554215225489   T   T   T
  0.0001993469486266  0.3751125453592721  0.0373668329409540   F   F   F
  0.3342265491584655  0.4376091382735581  0.0424193945147948   F   F   F
  0.1660559599480962  0.4376604044393986  0.0424156771225839   F   F   F
  0.2502327017382058  0.0002164962773534  0.1130220722767348   F   F   F
  0.0828707196508915  0.4377156099338606  0.1186668391713255   F   F   F
  0.4176643738564039  0.4377089816271393  0.1186614737223408   F   F   F
  0.0009533544890336  0.0002673267902263  0.1992022072169903   T   T   T
  0.3326354929740317  0.4377579652696073  0.1976508555877340   T   T   T
  0.1678292266009878  0.4377452954501435  0.1977010390401344   T   T   T
  0.2495066672347956  0.0002717891449150  0.2788461873807435   T   T   T
  0.0838438593697295  0.4377588602884702  0.2789448129750495   T   T   T
  0.4175119110164509  0.4378445689055709  0.2779114964937739   T   T   T
  0.0023114041560581  0.0001495174801467  0.3599317523808857   T   T   T
  0.3323301119339052  0.4380071160226473  0.3569889301760348   T   T   T
  0.1644513592191385  0.4375808761374314  0.3609701420373484   T   T   T
  0.0002112439569970  0.5001379294448540  0.0373463921698374   F   F   F
  0.3342257926207992  0.5625994154237475  0.0423987318545187   F   F   F
  0.1660626269271432  0.5626581163633873  0.0424061668450690   F   F   F
  0.2502202084754828  0.6252178855354416  0.1130358333669221   F   F   F
  0.0828588434925734  0.5627073156657261  0.1186643004524512   F   F   F
  0.4176999472490408  0.5627059576615423  0.1186271515872050   F   F   F
  0.0008187061348280  0.6252602507524820  0.1992175321559800   T   T   T
  0.3325908880224395  0.5627983351786301  0.1976927535613592   T   T   T
  0.1677756475336071  0.5627722187271098  0.1977675664274085   T   T   T
  0.2490981978594198  0.6252044692858024  0.2787625198301596   T   T   T
  0.0840640905350514  0.5626720121132539  0.2791365472407480   T   T   T
  0.4173829470228906  0.5628617571999245  0.2782078511672522   T   T   T
  0.0028074093828742  0.6252466090683548  0.3596724194270047   T   T   T
  0.3325232788066711  0.5628667812258390  0.3580458920959916   T   T   T
  0.1644210329579488  0.5625810044462937  0.3617395752574096   T   T   T
  0.0001993579241457  0.6251124241418680  0.0373673238785415   F   F   F
  0.3342248374093941  0.6876083518869507  0.0424180467130881   F   F   F
  0.1660568042752573  0.6876606967941967  0.0424146876443743   F   F   F
  0.2502332970886698  0.7502158349488468  0.1130222857832806   F   F   F
  0.0828712378028129  0.6877169521294704  0.1186661494224168   F   F   F
  0.4176644359050954  0.6877065482458136  0.1186607550294028   F   F   F
  0.0007734394405015  0.7502645284930785  0.1992293164078760   T   T   T
  0.3326638615066647  0.6877854617331602  0.1976980727528711   T   T   T
  0.1678613364414512  0.6877549903710318  0.1977608039034726   T   T   T
  0.2493171315471899  0.7502265638833546  0.2788384393284817   T   T   T
  0.0839834725533877  0.6877074140164791  0.2790886190868244   T   T   T
  0.4174069877153450  0.6878253277676991  0.2782441453209157   T   T   T
  0.0003280082699928  0.7500790285030794  0.3603220375844404   T   T   T
  0.3328854434210693  0.6882374253115023  0.3578606120400603   T   T   T
  0.1654543331954401  0.6873522127302243  0.3607903013691675   T   T   T
  0.0002122078768210  0.7501392066830732  0.0373456541597363   F   F   F
  0.3342232035055162  0.8125992309382539  0.0423967923009556   F   F   F
  0.1660586660861370  0.8126582257413517  0.0424062846115874   F   F   F
  0.2502173161139041  0.8752178897059935  0.1130360339591618   F   F   F
  0.0828568376004242  0.8127060748111887  0.1186645141734175   F   F   F
  0.4176984722473520  0.8127078846600213  0.1186298408889357   F   F   F
  0.0008855521342780  0.8751958847725680  0.1992012383643602   T   T   T
  0.3326963323332700  0.8127894885471380  0.1977436969609354   T   T   T
  0.1679013723532375  0.8127376129521063  0.1977947169987752   T   T   T
  0.2494906738601910  0.8752148367071483  0.2788379882506486   T   T   T
  0.0842485134846661  0.8126487381989357  0.2790633675719868   T   T   T
  0.4174416363940209  0.8127759817377843  0.2783247676972424   T   T   T
  0.0031196119462662  0.8754760866654344  0.3593735704461929   T   T   T
  0.3331490039121012  0.8129404715303831  0.3585549581938314   T   T   T
  0.1652686553447907  0.8125691844643103  0.3615941563318578   T   T   T
  0.0001993469486266  0.8751125453592721  0.0373668329409540   F   F   F
  0.3342265491584655  0.9376091382735510  0.0424193945147948   F   F   F
  0.1660559599480962  0.9376604044393915  0.0424156771225839   F   F   F
  0.2502327017382058  0.5002164962773534  0.1130220722767348   F   F   F
  0.0828707196508915  0.9377156099338535  0.1186668391713255   F   F   F
  0.4176643738564039  0.9377089816271322  0.1186614737223408   F   F   F
  0.0008724551301550  0.5002861513241268  0.1991681498984932   T   T   T
  0.3328178431654574  0.9377600147284426  0.1977130028523969   T   T   T
  0.1679951860429936  0.9377367410490592  0.1977541877398881   T   T   T
  0.2490419852538835  0.5002880338429205  0.2786151796608352   T   T   T
  0.0842327925957201  0.9377322069208989  0.2789963726807854   T   T   T
  0.4176124498587873  0.9377872481024312  0.2782444473694116   T   T   T
  0.0001711750718616  0.4999960890628241  0.3601152250275582   T   T   T
  0.3335968164472163  0.9381048813244904  0.3577689148157651   T   T   T
  0.1660254197258094  0.9374590080001941  0.3605818413436093   T   T   T
  0.5002112439569970  0.0001379294448540  0.0373463921698374   F   F   F
  0.8342257926207992  0.0625994154237475  0.0423987318545187   F   F   F
  0.6660626269271432  0.0626581163633873  0.0424061668450690   F   F   F
  0.7502202084754828  0.1252178855354416  0.1130358333669221   F   F   F
  0.5828588434925734  0.0627073156657261  0.1186643004524512   F   F   F
  0.9176999472490408  0.0627059576615423  0.1186271515872050   F   F   F
  0.5010240446590946  0.1251940812247009  0.1992207565879506   T   T   T
  0.8327643879348854  0.0627498681237827  0.1977611790565799   T   T   T
  0.6679829221936046  0.0627431083714915  0.1978133297891083   T   T   T
  0.7494199177765057  0.1252448368047018  0.2788801664602886   T   T   T
  0.5844535050495557  0.0626666751174137  0.2791873250528437   T   T   T
  0.9175007506994384  0.0627722693335070  0.2783196627697893   T   T   T
  0.5027901935023450  0.1254872138283506  0.3595856224523196   T   T   T
  0.8333652189621266  0.0629805899249876  0.3585251907248203   T   T   T
  0.6654623480405092  0.0628935244712318  0.3620394784113515   T   T   T
  0.5001993579241457  0.1251124241418680  0.0373673238785415   F   F   F
  0.8342248374093941  0.1876083518869578  0.0424180467130881   F   F   F
  0.6660568042752573  0.1876606967942038  0.0424146876443743   F   F   F
  0.7502332970886698  0.2502158349488468  0.1130222857832806   F   F   F
  0.5828712378028129  0.1877169521294775  0.1186661494224168   F   F   F
  0.9176644359050954  0.1877065482458207  0.1186607550294028   F   F   F
  0.5009575154214105  0.2501581734244275  0.1991889502337965   T   T   T
  0.8327969901139348  0.1877225894181348  0.1976997905721818   T   T   T
  0.6679694795238368  0.1877080804975158  0.1977539602555718   T   T   T
  0.7493195730397042  0.2501861036927104  0.2787005854244999   T   T   T
  0.5843093500937148  0.1876963434414594  0.2791063842078760   T   T   T
  0.9176270162230937  0.1876817277120530  0.2783440985211905   T   T   T
  0.5017994783666400  0.2501067353233684  0.3601507772398087   T   T   T
  0.8337928774460982  0.1881500473796636  0.3581958849655464   T   T   T
  0.6656902847718267  0.1877330364234418  0.3608769129133514   T   T   T
  0.5002122078768210  0.2501392066830732  0.0373456541597363   F   F   F
  0.8342232035055162  0.3125992309382539  0.0423967923009556   F   F   F
  0.6660586660861370  0.3126582257413517  0.0424062846115874   F   F   F
  0.7502173161139041  0.3752178897059935  0.1130360339591618   F   F   F
  0.5828568376004242  0.3127060748111887  0.1186645141734175   F   F   F
  0.9176984722473520  0.3127078846600213  0.1186298408889357   F   F   F
  0.5009139867065371  0.3752245479403769  0.1991323165940167   T   T   T
  0.8327080473072538  0.3127193883248625  0.1976652012360090   T   T   T
  0.6678939886119506  0.3126973037195141  0.1977194253896935   T   T   T
  0.7490785578778547  0.3752140425685998  0.2784794530696407   T   T   T
  0.5840248373587292  0.3126653963518689  0.2789566994995095   T   T   T
  0.9176485301325766  0.3126359805201321  0.2780065991104280   T   T   T
  0.5027050097546024  0.3754282269634145  0.3589563684817104   T   T   T
  0.8325423731092179  0.3128755932063260  0.3573548476204633   T   T   T
  0.6648340991731490  0.3126905962589045  0.3613200882699070   T   T   T
  0.5001993469486266  0.3751125453592721  0.0373668329409540   F   F   F
  0.8342265491584655  0.4376091382735581  0.0424193945147948   F   F   F
  0.6660559599480962  0.4376604044393986  0.0424156771225839   F   F   F
  0.7502327017382058  0.0002164962773534  0.1130220722767348   F   F   F
  0.5828707196508915  0.4377156099338606  0.1186668391713255   F   F   F
  0.9176643738564039  0.4377089816271393  0.1186614737223408   F   F   F
  0.5010014279011985  0.0002625169072861  0.1992069432318987   T   T   T
  0.8327169918646757  0.4377579710612885  0.1976530059084404   T   T   T
  0.6678879414983954  0.4377473979991527  0.1976845544173893   T   T   T
  0.7494656492210340  0.0002303656910545  0.2788410483354016   T   T   T
  0.5838470056254931  0.4377806934973624  0.2788475840243845   T   T   T
  0.9175952554695174  0.4377898427368637  0.2779152278096286   T   T   T
  0.5016755562610550  0.0001305142418508  0.3602038044611166   T   T   T
  0.8325668400009993  0.4378913539106142  0.3570003431696254   T   T   T
  0.6644225779345950  0.4376610851548896  0.3609279729366202   T   T   T
  0.5002112439569970  0.5001379294448540  0.0373463921698374   F   F   F
  0.8342257926207992  0.5625994154237475  0.0423987318545187   F   F   F
  0.6660626269271432  0.5626581163633873  0.0424061668450690   F   F   F
  0.7502202084754828  0.6252178855354416  0.1130358333669221   F   F   F
  0.5828588434925734  0.5627073156657261  0.1186643004524512   F   F   F
  0.9176999472490408  0.5627059576615423  0.1186271515872050   F   F   F
  0.5008230060669869  0.6252675857232903  0.1992056637741900   T   T   T
  0.8326610379337833  0.5627936565452620  0.1976932930386274   T   T   T
  0.6678638755348939  0.5627746165615650  0.1977332671092224   T   T   T
  0.7493440581965126  0.6251697862820544  0.2788076041177909   T   T   T
  0.5840282195908800  0.5627088421098877  0.2790287652544161   T   T   T
  0.9174673310905742  0.5627855791498376  0.2782402061578522   T   T   T
  0.5027779440453878  0.6254669235792182  0.3594710036262966   T   T   T
  0.8325961142331043  0.5626428108447381  0.3581392901762792   T   T   T
  0.6644575852376960  0.5624997805738379  0.3613982620116427   T   T   T
  0.5001993579241457  0.6251124241418680  0.0373673238785415   F   F   F
  0.8342248374093941  0.6876083518869507  0.0424180467130881   F   F   F
  0.6660568042752573  0.6876606967941967  0.0424146876443743   F   F   F
  0.7502332970886698  0.7502158349488468  0.1130222857832806   F   F   F
  0.5828712378028129  0.6877169521294704  0.1186661494224168   F   F   F
  0.9176644359050954  0.6877065482458136  0.1186607550294028   F   F   F
  0.5008216099263247  0.7502963834539883  0.1992147957493035   T   T   T
  0.8327080155513387  0.6877707454302855  0.1977384365710662   T   T   T
  0.6678854048012387  0.6877536087308025  0.1977736408324277   T   T   T
  0.7494453970685169  0.7501543248138772  0.2789170498494146   T   T   T
  0.5841146426139798  0.6877438487054230  0.2790522824084483   T   T   T
  0.9174370932171279  0.6877561942466671  0.2783674579051687   T   T   T
  0.5004708123352972  0.7502359744945525  0.3601586262438463   T   T   T
  0.8333401632280902  0.6878898318629806  0.3581957884496275   T   T   T
  0.6655697633925044  0.6872735827338876  0.3608787596784682   T   T   T
  0.5002122078768210  0.7501392066830732  0.0373456541597363   F   F   F
  0.8342232035055162  0.8125992309382539  0.0423967923009556   F   F   F
  0.6660586660861370  0.8126582257413517  0.0424062846115874   F   F   F
  0.7502173161139041  0.8752178897059935  0.1130360339591618   F   F   F
  0.5828568376004242  0.8127060748111887  0.1186645141734175   F   F   F
  0.9176984722473520  0.8127078846600213  0.1186298408889357   F   F   F
  0.5009501533069375  0.8752204189122197  0.1992042944970299   T   T   T
  0.8327101933746699  0.8127563118837730  0.1977640503050121   T   T   T
  0.6679096539837597  0.8127498235717042  0.1978070246159454   T   T   T
  0.7494890203976676  0.8751919248621659  0.2788599164727789   T   T   T
  0.5843433816196494  0.8126730297362318  0.2790895424767679   T   T   T
  0.9173888907946794  0.8126939756685222  0.2783871348446390   T   T   T
  0.5031843966808213  0.8755254640815416  0.3594008585140573   T   T   T
  0.8332748543891746  0.8127428562759137  0.3586858779594935   T   T   T
  0.6653246505421696  0.8124990323611474  0.3616763281264839   T   T   T
  0.5001993469486266  0.8751125453592721  0.0373668329409540   F   F   F
  0.8342265491584655  0.9376091382735510  0.0424193945147948   F   F   F
  0.6660559599480962  0.9376604044393915  0.0424156771225839   F   F   F
  0.7502327017382058  0.5002164962773534  0.1130220722767348   F   F   F
  0.5828707196508915  0.9377156099338535  0.1186668391713255   F   F   F
  0.9176643738564039  0.9377089816271322  0.1186614737223408   F   F   F
  0.5008291929059177  0.5003122848517088  0.1991568055999502   T   T   T
  0.8327561598453739  0.9377443800930829  0.1976919687632090   T   T   T
  0.6680011321658049  0.9377239133057350  0.1977690905584941   T   T   T
  0.7491934888048158  0.5002574042939624  0.2785898596434817   T   T   T
  0.5842592009850842  0.9377400953041505  0.2790654825023227   T   T   T
  0.9175454383536606  0.9377368181289283  0.2781876132209018   T   T   T
  0.5000868411518887  0.5002318803146329  0.3600297052323631   T   T   T
  0.8335398559689052  0.9380560188252370  0.3576391282561829   T   T   T
  0.6660567978255825  0.9374349368990887  0.3605968924306184   T   T   T
  0.4059663601692378  0.0001462046730154  0.0700885167279779   F   F   F
  0.2501335306342440  0.0001313415364734  0.0393543396202674   F   F   F
  0.0944334762619548  0.0001738881651363  0.0701382961740649   F   F   F
  0.1549947328934422  0.1252546000618224  0.1485264565477067   F   F   F
  0.0003044512358912  0.1252329358346600  0.1366467142038701   F   F   F
  0.3454752489896649  0.1252525403775380  0.1484231789215542   F   F   F
  0.4016742822353874  0.1252202215952142  0.2293452025757282   T   T   T
  0.2503043146595911  0.1252621177095194  0.2154470796268067   T   T   T
  0.1000696746592501  0.1252075431158526  0.2300111842600597   T   T   T
  0.1517961098098964  0.1250348337128556  0.3114197545300553   T   T   T
  0.0008936148861132  0.1251656994122470  0.2956043671951514   T   T   T
  0.3482847908649435  0.1252545548890912  0.3090137076809903   T   T   T
  0.4030402600090632  0.1256193820362660  0.3861127132761313   T   T   T
  0.2519319001321961  0.1258008955976809  0.3769042267332079   T   T   T
  0.0996103632584495  0.1257221401766327  0.3908048119121263   T   T   T
  0.4059504510021199  0.1251528418496832  0.0701137697057277   F   F   F
  0.2501484584581348  0.1251294756807368  0.0393952583647277   F   F   F
  0.0944439778587522  0.1251741239827453  0.0701534912843229   F   F   F
  0.1549877250862224  0.2502614546838657  0.1485179043880294   F   F   F
  0.0002974674814880  0.2502100279361912  0.1366324893501272   F   F   F
  0.3454803331882346  0.2503006024972620  0.1484139149937889   F   F   F
  0.4016232785503826  0.2501275487788786  0.2292082930283181   T   T   T
  0.2502488776953850  0.2501834429787743  0.2153497773253815   T   T   T
  0.0999886607285282  0.2501534987478629  0.2299693361716695   T   T   T
  0.1514661826950196  0.2503738718985844  0.3111507938061238   T   T   T
  0.0006124163282390  0.2501507561189498  0.2958929428911963   T   T   T
  0.3483972773779229  0.2501669093134534  0.3086933823723158   T   T   T
  0.4020027280376844  0.2508228548540913  0.3876187015612457   T   T   T
  0.2512060594245800  0.2503142538159511  0.3746808025584591   T   T   T
  0.0999384387406622  0.2498824356027549  0.3909217243722122   T   T   T
  0.4059628358367533  0.2501443164155361  0.0700852243531500   F   F   F
  0.2501309939231433  0.2501318371526651  0.0393519425499136   F   F   F
  0.0944333317481849  0.2501740935465691  0.0701386596889861   F   F   F
  0.1549942609652177  0.3752545226085218  0.1485264414225469   F   F   F
  0.0003019335461047  0.3752315664304433  0.1366474736751755   F   F   F
  0.3454762333887373  0.3752493953370220  0.1484229723695165   F   F   F
  0.4015839748206546  0.3752154439614173  0.2290753426402753   T   T   T
  0.2501531307941470  0.3752462238553236  0.2152419825168240   T   T   T