Ta  N Ru Cu                             
   1.00000000000000     
    18.1096308199999996    0.0000000000000000    0.0000000000000000
     0.0000000000000000   23.3551997799999995    0.0000000000000000
     0.0000000000000000    0.0000000000000000   30.4818171199999988
   Ta   N    Ru   Cu
   216   240    24    29
Selective dynamics
Direct
  0.0000000000000000  0.9999830748208893  0.1973415401966889   F   F   F
  0.3340836453085174  0.0625456427909796  0.2025671507649847   F   F   F
  0.1659163254252860  0.0625456427909796  0.2025671507649847   F   F   F
  0.2499999997239044  0.1249264343318970  0.2780286427457455   F   F   F
  0.0827651805981162  0.0624885323955127  0.2838652795942167   F   F   F
  0.4172348194018838  0.0624885323955127  0.2838652795942167   F   F   F
  0.9966719272090140  0.1246122282071843  0.3707841509928168   T   T   T
  0.3338931090908394  0.0628810064667776  0.3677359405166970   T   T   T
  0.1690647509409668  0.0620047472307451  0.3665984292385330   T   T   T
  0.2500555167266942  0.1292302727457116  0.4562458638159365   T   T   T
  0.0860011281214862  0.0623564938434464  0.4527045244832358   T   T   T
  0.4196590296159347  0.0618300186096320  0.4575086528737521   T   T   T
  0.9979413240701256  0.1317238423888769  0.5377754952409445   T   T   T
  0.0000000000000000  0.1250597901973052  0.1972695212644311   F   F   F
  0.3340101687179526  0.1875125968246536  0.2025194439736353   F   F   F
  0.1659898020158508  0.1875125968246536  0.2025194439736353   F   F   F
  0.2499999997239044  0.2501643478293474  0.2779548773134195   F   F   F
  0.0824959421597526  0.1874754613012257  0.2839355728384874   F   F   F
  0.4175040578402474  0.1874754613012257  0.2839355728384874   F   F   F
  0.9979199950119507  0.2488099386630028  0.3693278914033364   T   T   T
  0.3334537779726934  0.1880809708806578  0.3652214341215789   T   T   T
  0.1671082837084005  0.1861213093103815  0.3667302184285543   T   T   T
  0.2498607322886728  0.2494083721859739  0.4543074186912346   T   T   T
  0.0809417080458079  0.1873692812559211  0.4497101394930509   T   T   T
  0.4202983484213496  0.1895086617750716  0.4524901008639922   T   T   T
  0.3410052027415413  0.1797680371545793  0.5411881623142841   T   T   T
  0.1606105624655870  0.1836186135984842  0.5399091245130698   T   T   T
  0.0000000000000000  0.2499830750349759  0.1973415401966889   F   F   F
  0.3340836453085174  0.3125456425769002  0.2025671507649847   F   F   F
  0.1659163254252860  0.3125456425769002  0.2025671507649847   F   F   F
  0.2499999997239044  0.3749264345459835  0.2780286427457455   F   F   F
  0.0827651805981162  0.3124885321814332  0.2838652795942167   F   F   F
  0.4172348194018838  0.3124885321814332  0.2838652795942167   F   F   F
  0.9950234545524256  0.3761965428133764  0.3693586527588225   T   T   T
  0.3327060539075309  0.3129717106231684  0.3685105041666387   T   T   T
  0.1660538779402624  0.3146479194958943  0.3685638206409599   T   T   T
  0.2494728935739809  0.3775771299324215  0.4551364985900038   T   T   T
  0.0825037830141332  0.3134911241096107  0.4544651184803317   T   T   T
  0.4184885161462144  0.3163011187852862  0.4540786373338676   T   T   T
  0.9942358056864475  0.3764987890894710  0.5471138803812789   T   T   T
  0.0000000000000000  0.3750597904113917  0.1972695212644311   F   F   F
  0.3340101687179526  0.4375125970387401  0.2025194439736353   F   F   F
  0.1659898020158508  0.4375125970387401  0.2025194439736353   F   F   F
  0.2499999997239044  0.0001643476152609  0.2779548773134195   F   F   F
  0.0824959421597526  0.4374754615153122  0.2839355728384874   F   F   F
  0.4175040578402474  0.4374754615153122  0.2839355728384874   F   F   F
  0.9994242509208314  0.9953933064275817  0.3671730463799243   T   T   T
  0.3345835553276992  0.4376450338406389  0.3646369652902565   T   T   T
  0.1697520194977290  0.4366020303522753  0.3688748231272206   T   T   T
  0.2566279306155731  0.0016536167137645  0.4526209495549693   T   T   T
  0.0761115295492199  0.4376424684236686  0.4532787292019264   T   T   T
  0.4114399208690591  0.4388793720908950  0.4534951327751376   T   T   T
  0.3233651502202798  0.4278749443352488  0.5422283693392527   T   T   T
  0.1536069666117637  0.4347289773437378  0.5424595135848919   T   T   T
  0.0000000000000000  0.4999830748208893  0.1973415401966889   F   F   F
  0.3340836453085174  0.5625456427909796  0.2025671507649847   F   F   F
  0.1659163254252860  0.5625456427909796  0.2025671507649847   F   F   F
  0.2499999997239044  0.6249264343318970  0.2780286427457455   F   F   F
  0.0827651805981162  0.5624885323955127  0.2838652795942167   F   F   F
  0.4172348194018838  0.5624885323955127  0.2838652795942167   F   F   F
  0.9962938758261202  0.6245184531819296  0.3714812653321731   T   T   T
  0.3323066011029531  0.5619005998155613  0.3667250820582255   T   T   T
  0.1665671939620486  0.5618220973038912  0.3700722072359567   T   T   T
  0.2453487322421226  0.6257184324859851  0.4567381046216257   T   T   T
  0.0793079651658654  0.5616348319123026  0.4552499520461704   T   T   T
  0.4088074333432948  0.5626587349489990  0.4516406933949452   T   T   T
  0.9925028426438036  0.6306456729867980  0.5441229304380364   T   T   T
  0.0000000000000000  0.6250597901973052  0.1972695212644311   F   F   F
  0.3340101687179526  0.6875125968246536  0.2025194439736353   F   F   F
  0.1659898020158508  0.6875125968246536  0.2025194439736353   F   F   F
  0.2499999997239044  0.7501643478293474  0.2779548773134195   F   F   F
  0.0824959421597526  0.6874754613012257  0.2839355728384874   F   F   F
  0.4175040578402474  0.6874754613012257  0.2839355728384874   F   F   F
  0.9980842848775648  0.7504888243504453  0.3719337410084720   T   T   T
  0.3279082885465243  0.6868913350638021  0.3684449722683746   T   T   T
  0.1652393961156320  0.6871298611704750  0.3697205743559810   T   T   T
  0.2498951700777435  0.7490947093727649  0.4545850594121860   T   T   T
  0.0791497324741808  0.6873065008064437  0.4541347878313625   T   T   T
  0.4164272650775774  0.6877048177185193  0.4552584944040726   T   T   T
  0.3339054777473647  0.6793474361948327  0.5456187289129812   T   T   T
  0.1626116748093763  0.6836114638652334  0.5441221047904066   T   T   T
  0.0000000000000000  0.7499830750349759  0.1973415401966889   F   F   F
  0.3340836453085174  0.8125456425769002  0.2025671507649847   F   F   F
  0.1659163254252860  0.8125456425769002  0.2025671507649847   F   F   F
  0.2499999997239044  0.8749264345459835  0.2780286427457455   F   F   F
  0.0827651805981162  0.8124885321814332  0.2838652795942167   F   F   F
  0.4172348194018838  0.8124885321814332  0.2838652795942167   F   F   F
  0.9997167475721958  0.8753964254750136  0.3694477023958587   T   T   T
  0.3299941209026783  0.8108721424593255  0.3681305942702724   T   T   T
  0.1666273358753703  0.8141248121159049  0.3673837173541687   T   T   T
  0.2525818584806223  0.8792724598840218  0.4551851817072777   T   T   T
  0.0879192447719976  0.8153115649568332  0.4547136669089910   T   T   T
  0.4149632893463861  0.8119825842918635  0.4565368335015387   T   T   T
  0.0085884919074709  0.8859956232422204  0.5420215186674437   T   T   T
  0.0000000000000000  0.8750597904113917  0.1972695212644311   F   F   F
  0.3340101687179526  0.9375125970387401  0.2025194439736353   F   F   F
  0.1659898020158508  0.9375125970387401  0.2025194439736353   F   F   F
  0.2499999997239044  0.5001643476152609  0.2779548773134195   F   F   F
  0.0824959421597526  0.9374754615153122  0.2839355728384874   F   F   F
  0.4175040578402474  0.9374754615153122  0.2839355728384874   F   F   F
  0.9967256180940230  0.4996312920180250  0.3688237951624878   T   T   T
  0.3344749578526096  0.9372701940554894  0.3691458120245440   T   T   T
  0.1728791073615775  0.9374644728406959  0.3693849011857156   T   T   T
  0.2448503881081771  0.4989755582993375  0.4539700461705973   T   T   T
  0.0876257337975899  0.9386018023755599  0.4513573317728341   T   T   T
  0.4237519167989223  0.9360898534702513  0.4574731283144573   T   T   T
  0.3481047053449236  0.9299935042492320  0.5471352385258309   T   T   T
  0.1791244525125304  0.9371096233637006  0.5430477086373690   T   T   T
  0.5000000000000000  0.9999830748208893  0.1973415401966889   F   F   F
  0.8340836447563262  0.0625456427909796  0.2025671507649847   F   F   F
  0.6659163254252860  0.0625456427909796  0.2025671507649847   F   F   F
  0.7499999997239044  0.1249264343318970  0.2780286427457455   F   F   F
  0.5827651805981162  0.0624885323955127  0.2838652795942167   F   F   F
  0.9172348194018838  0.0624885323955127  0.2838652795942167   F   F   F
  0.5032116588410093  0.1247077147743084  0.3714645116151979   T   T   T
  0.8306973365149281  0.0621360431837939  0.3685654589847971   T   T   T
  0.6650177226884831  0.0617111239042006  0.3704536240712185   T   T   T
  0.7519339973655074  0.1273231173519655  0.4550103742212884   T   T   T
  0.5841281497873683  0.0610465990640969  0.4561407465136545   T   T   T
  0.9165049055035728  0.0592940741749492  0.4538983044769066   T   T   T
  0.4998076366375893  0.1189536455875725  0.5451645196592390   T   T   T
  0.5000000000000000  0.1250597901973052  0.1972695212644311   F   F   F
  0.8340101681657615  0.1875125968246536  0.2025194439736353   F   F   F
  0.6659898020158508  0.1875125968246536  0.2025194439736353   F   F   F
  0.7499999997239044  0.2501643478293474  0.2779548773134195   F   F   F
  0.5824959421597526  0.1874754613012257  0.2839355728384874   F   F   F
  0.9175040578402474  0.1874754613012257  0.2839355728384874   F   F   F
  0.5000373473401748  0.2535376244491973  0.3698355489570819   T   T   T
  0.8317447155264091  0.1870287854592306  0.3681498211885289   T   T   T
  0.6666289564537031  0.1885910841650254  0.3690061497465340   T   T   T
  0.7505659798620318  0.2486670408594256  0.4556868548377157   T   T   T
  0.5835455106260790  0.1903588693178171  0.4549428154490527   T   T   T
  0.9162898333839605  0.1879757563827794  0.4512844320291755   T   T   T
  0.8390533286309356  0.1882809459066833  0.5407320457651116   T   T   T
  0.6560069866831899  0.1957444201740775  0.5453602271650687   T   T   T
  0.5000000000000000  0.2499830750349759  0.1973415401966889   F   F   F
  0.8340836447563262  0.3125456425769002  0.2025671507649847   F   F   F
  0.6659163254252860  0.3125456425769002  0.2025671507649847   F   F   F
  0.7499999997239044  0.3749264345459835  0.2780286427457455   F   F   F
  0.5827651805981162  0.3124885321814332  0.2838652795942167   F   F   F
  0.9172348194018838  0.3124885321814332  0.2838652795942167   F   F   F
  0.5050929433911531  0.3739340079266278  0.3688930375941222   T   T   T
  0.8295221705317481  0.3139598389139940  0.3660846653703704   T   T   T
  0.6686916436546078  0.3143669987617941  0.3671081462643928   T   T   T
  0.7475424991535436  0.3788418246509640  0.4578003518862287   T   T   T
  0.5859724102961852  0.3154774781076041  0.4532241581346169   T   T   T
  0.9155447929727871  0.3149983734942408  0.4533138726810910   T   T   T
  0.4948192187324447  0.3804766264130711  0.5400456502993323   T   T   T
  0.5000000000000000  0.3750597904113917  0.1972695212644311   F   F   F
  0.8340101681657615  0.4375125970387401  0.2025194439736353   F   F   F
  0.6659898020158508  0.4375125970387401  0.2025194439736353   F   F   F
  0.7499999997239044  0.0001643476152609  0.2779548773134195   F   F   F
  0.5824959421597526  0.4374754615153122  0.2839355728384874   F   F   F
  0.9175040578402474  0.4374754615153122  0.2839355728384874   F   F   F
  0.5032506612594657  0.9985141586899522  0.3701848289380893   T   T   T
  0.8286444837841656  0.4389804758296617  0.3670489499146899   T   T   T
  0.6662465199906854  0.4394236720679348  0.3690048888902354   T   T   T
  0.7536162439000109  0.0029778602722154  0.4572604436049131   T   T   T
  0.5784076903950162  0.4392195795576718  0.4499401128621291   T   T   T
  0.9119804783273726  0.4381113830356415  0.4532474349446391   T   T   T
  0.8300834285667498  0.4369633247136270  0.5451648220203255   T   T   T
  0.6610560183336792  0.4360442606759941  0.5402908603937668   T   T   T
  0.5000000000000000  0.4999830748208893  0.1973415401966889   F   F   F
  0.8340836447563262  0.5625456427909796  0.2025671507649847   F   F   F
  0.6659163254252860  0.5625456427909796  0.2025671507649847   F   F   F
  0.7499999997239044  0.6249264343318970  0.2780286427457455   F   F   F
  0.5827651805981162  0.5624885323955127  0.2838652795942167   F   F   F
  0.9172348194018838  0.5624885323955127  0.2838652795942167   F   F   F
  0.4967769242690925  0.6276555716226372  0.3714125748374643   T   T   T
  0.8312752957586845  0.5631836509662150  0.3672566222793898   T   T   T
  0.6686874390604487  0.5654735289183334  0.3675620361520582   T   T   T
  0.7478878124110273  0.6268332127668848  0.4537392977058552   T   T   T
  0.5818265813630537  0.5609207098118866  0.4531311754148553   T   T   T
  0.9111715705458173  0.5630128778340597  0.4566466995274787   T   T   T
  0.5073955124799109  0.6283187979787072  0.5451304300813782   T   T   T
  0.5000000000000000  0.6250597901973052  0.1972695212644311   F   F   F
  0.8340101681657615  0.6875125968246536  0.2025194439736353   F   F   F
  0.6659898020158508  0.6875125968246536  0.2025194439736353   F   F   F
  0.7499999997239044  0.7501643478293474  0.2779548773134195   F   F   F
  0.5824959421597526  0.6874754613012257  0.2839355728384874   F   F   F
  0.9175040578402474  0.6874754613012257  0.2839355728384874   F   F   F
  0.4980045629720549  0.7487458750658744  0.3705419763453505   T   T   T
  0.8293003677170696  0.6886245557331188  0.3671710270679642   T   T   T
  0.6642502042684761  0.6875492211934392  0.3676464264844473   T   T   T
  0.7488132743704607  0.7492253573367672  0.4546023746070287   T   T   T
  0.5824230024389502  0.6862685605933981  0.4563340050683860   T   T   T
  0.9115901717756507  0.6867676328298913  0.4568518566057851   T   T   T
  0.8364880730252710  0.6911913223518753  0.5494233792820059   T   T   T
  0.6799352519176195  0.6557556825918595  0.5475021833582101   T   T   T
  0.5000000000000000  0.7499830750349759  0.1973415401966889   F   F   F
  0.8340836447563262  0.8125456425769002  0.2025671507649847   F   F   F
  0.6659163254252860  0.8125456425769002  0.2025671507649847   F   F   F
  0.7499999997239044  0.8749264345459835  0.2780286427457455   F   F   F
  0.5827651805981162  0.8124885321814332  0.2838652795942167   F   F   F
  0.9172348194018838  0.8124885321814332  0.2838652795942167   F   F   F
  0.4979264387781997  0.8749559395102642  0.3701917376692940   T   T   T
  0.8326581946000788  0.8099145613225021  0.3700289176272155   T   T   T
  0.6654661477287526  0.8135672499650991  0.3677357152099596   T   T   T
  0.7511009251533808  0.8771824692114513  0.4537724074712417   T   T   T
  0.5846740552476307  0.8092794476630704  0.4573635535230094   T   T   T
  0.9187297549459373  0.8126492984061090  0.4553041873919081   T   T   T
  0.5213376080249151  0.8530859272665410  0.5594293286798714   T   T   T
  0.5000000000000000  0.8750597904113917  0.1972695212644311   F   F   F
  0.8340101681657615  0.9375125970387401  0.2025194439736353   F   F   F
  0.6659898020158508  0.9375125970387401  0.2025194439736353   F   F   F
  0.7499999997239044  0.5001643476152609  0.2779548773134195   F   F   F
  0.5824959421597526  0.9374754615153122  0.2839355728384874   F   F   F
  0.9175040578402474  0.9374754615153122  0.2839355728384874   F   F   F
  0.4999617228090260  0.5003192365968397  0.3689251462093002   T   T   T
  0.8330694714707225  0.9371067652285390  0.3670672598572833   T   T   T
  0.6686371222502012  0.9355218868828559  0.3678764225933145   T   T   T
  0.7476411325331989  0.4986373244596761  0.4559361962292087   T   T   T
  0.5884012629995975  0.9364484502081919  0.4529603812412675   T   T   T
  0.9223179059149319  0.9378322442170127  0.4516423126295593   T   T   T
  0.8457600998771690  0.9328240734730465  0.5431929983306127   T   T   T
  0.6627771452080361  0.9447454279758137  0.5453827662940481   T   T   T
  0.4056069474266053  0.9999373616505167  0.2321734907340058   F   F   F
  0.2499999997239044  0.0000513587277524  0.1992858819354737   F   F   F
  0.0943930525733947  0.9999373616505167  0.2321734907340058   F   F   F
  0.1547082680068357  0.1251230653872994  0.3157550047969764   F   F   F
  0.0000000000000000  0.1248851797808541  0.3029475127512455   F   F   F
  0.3452917319931643  0.1251230653872994  0.3157550047969764   F   F   F
  0.4058478798612625  0.1231561544442878  0.4016096977883700   T   T   T
  0.2512928081023200  0.1254647209442069  0.3865867483656825   T   T   T
  0.0999858125093697  0.1223899001457619  0.4007174933562830   T   T   T
  0.1454725244538464  0.1283387979253496  0.4847895775375610   T   T   T
  0.9997527305570890  0.1211017192706858  0.4709165480841833   T   T   T
  0.3552915098959130  0.1319164555943026  0.4817223732759798   T   T   T
  0.3975160749207225  0.1167055007884971  0.5725541767964850   T   T   T
  0.2512352103945202  0.0903274185193530  0.5237705543828556   T   T   T
  0.0908359747895277  0.1276183043543050  0.5689197160058300   T   T   T
  0.4056495225775905  0.1250779796458588  0.2321437934505610   F   F   F
  0.2499999997239044  0.1250070554064280  0.1993925282839726   F   F   F
  0.0943504774224095  0.1250779796458588  0.2321437934505610   F   F   F
  0.1547523877655834  0.2498547720176418  0.3156484410005831   F   F   F
  0.0000000000000000  0.2500770228524942  0.3028264942509225   F   F   F
  0.3452476122344166  0.2498547720176418  0.3156484410005831   F   F   F
  0.4010419474210884  0.2501841879257605  0.4008611273119640   T   T   T
  0.2458290093263288  0.2493972394064857  0.3863297028987067   T   T   T
  0.0994371933145402  0.2503187606008663  0.4016254386297887   T   T   T
  0.1532864852028000  0.2515623468171080  0.4858337998437902   T   T   T
  0.9986018577047766  0.2498156699127969  0.4685894967942785   T   T   T
  0.3510100064666782  0.2479545345942297  0.4840535324658624   T   T   T
  0.4026239525504798  0.2441922977363455  0.5724670256887755   T   T   T
  0.2513172001913661  0.2009045041805767  0.5741379024618238   T   T   T
  0.0894533678016125  0.2450595496150921  0.5685749845158196   T   T   T
  0.4056069474266053  0.2499373618646032  0.2321734907340058   F   F   F
  0.2499999997239044  0.2500513589418389  0.1992858819354737   F   F   F
  0.0943930525733947  0.2499373618646032  0.2321734907340058   F   F   F
  0.1547082680068357  0.3751230656013860  0.3157550047969764   F   F   F
  0.0000000000000000  0.3748851799949406  0.3029475127512455   F   F   F
  0.3452917319931643  0.3751230656013860  0.3157550047969764   F   F   F
  0.4029210192339081  0.3805613346757272  0.4002224145058141   T   T   T
  0.2518009272900367  0.3761690863796734  0.3867310480097794   T   T   T
  0.0936609633443652  0.3776795784690760  0.4028890228228669   T   T   T
  0.1512222618598766  0.3799901685590407  0.4847631384849225   T   T   T
  0.9990968666688397  0.3744734470189339  0.4759140590986537   T   T   T
  0.3524422763141197  0.3783094489995781  0.4847053759305417   T   T   T
  0.4020366361286553  0.3725479056049026  0.5748343806999145   T   T   T
  0.2351466592234988  0.3713293616339141  0.5605121165542910   T   T   T
  0.0885619426261192  0.3768605991241720  0.5838853047130965   T   T   T
  0.4056495225775905  0.3750779798599453  0.2321437934505610   F   F   F
  0.2499999997239044  0.3750070556205145  0.1993925282839726   F   F   F
  0.0943504774224095  0.3750779798599453  0.2321437934505610   F   F   F
  0.1547523877655834  0.9998547718035553  0.3156484410005831   F   F   F
  0.0000000000000000  0.0000770226384077  0.3028264942509225   F   F   F
  0.3452476122344166  0.9998547718035553  0.3156484410005831   F   F   F
  0.4050725688625261  0.9977664290502384  0.4050565349610561   T   T   T
  0.2539592745491849  0.0035997885712950  0.3869660480495978   T   T   T
  0.0985192997566753  0.9990390162550520  0.3998022113657365   T   T   T
  0.1617262722206009  0.9984602057714878  0.4853188528865157   T   T   T
  0.0072952081475951  0.9981792524588683  0.4698474337246238   T   T   T
  0.3518432390088629  0.9953278970425663  0.4904067290937897   T   T   T
  0.4233394871490513  0.9976237278796154  0.5717041188698122   T   T   T
  0.2665442742443145  0.9888696335214456  0.5686811695464278   T   T   T
  0.1060932490640244  0.0000073612249260  0.5679870011423509   T   T   T
  0.4056069474266053  0.4999373616505167  0.2321734907340058   F   F   F
  0.2499999997239044  0.5000513587277524  0.1992858819354737   F   F   F
  0.0943930525733947  0.4999373616505167  0.2321734907340058   F   F   F
  0.1547082680068357  0.6251230653872994  0.3157550047969764   F   F   F
  0.0000000000000000  0.6248851797808541  0.3029475127512455   F   F   F
  0.3452917319931643  0.6251230653872994  0.3157550047969764   F   F   F
  0.3986515820223214  0.6271459428060879  0.4022941057754121   T   T   T
  0.2496978266786423  0.6231764272193563  0.3876433882297198   T   T   T
  0.0973392271654411  0.6241062328064541  0.4039184781374537   T   T   T
  0.1464476329071791  0.6264358035942881  0.4895060369127502   T   T   T
  0.9937639720879502  0.6228508533188606  0.4729769011646195   T   T   T
  0.3456903597929378  0.6245265444212474  0.4873621640747036   T   T   T
  0.4103262418133619  0.6164205702311277  0.5768076305925256   T   T   T
  0.2450464506438069  0.6377834994209861  0.5736190576061181   T   T   T
  0.0901844645538594  0.6291613207822204  0.5739199943171625   T   T   T
  0.4056495225775905  0.6250779796458588  0.2321437934505610   F   F   F
  0.2499999997239044  0.6250070554064280  0.1993925282839726   F   F   F
  0.0943504774224095  0.6250779796458588  0.2321437934505610   F   F   F
  0.1547523877655834  0.7498547720176418  0.3156484410005831   F   F   F
  0.0000000000000000  0.7500770228524942  0.3028264942509225   F   F   F
  0.3452476122344166  0.7498547720176418  0.3156484410005831   F   F   F
  0.4001098746757987  0.7486898369551703  0.4031044176728752   T   T   T
  0.2471995847564900  0.7481717196447608  0.3858687434709713   T   T   T
  0.1000797605398869  0.7490559252285044  0.4025319525385066   T   T   T
  0.1510809547370880  0.7465375230642571  0.4857092527248899   T   T   T
  0.9990194191411077  0.7513044769975535  0.4691241584611134   T   T   T
  0.3462514611786291  0.7476301777778832  0.4910944281753178   T   T   T
  0.4024228686810050  0.7324554183486673  0.5825602085271714   T   T   T
  0.2452214535845879  0.7485255915143458  0.5563434333703871   T   T   T
  0.0852435027656183  0.7450596940410712  0.5693136721061406   T   T   T
  0.4056069474266053  0.7499373618646032  0.2321734907340058   F   F   F
  0.2499999997239044  0.7500513589418389  0.1992858819354737   F   F   F
  0.0943930525733947  0.7499373618646032  0.2321734907340058   F   F   F
  0.1547082680068357  0.8751230656013860  0.3157550047969764   F   F   F
  0.0000000000000000  0.8748851799949406  0.3029475127512455   F   F   F
  0.3452917319931643  0.8751230656013860  0.3157550047969764   F   F   F
  0.3959281142135215  0.8709898985410011  0.4045936472781974   T   T   T
  0.2511408009296215  0.8726848808017669  0.3868141736342814   T   T   T
  0.1023989337575338  0.8774822730745198  0.4031855051197032   T   T   T
  0.1537479578849431  0.8785956213042435  0.4860891510028858   T   T   T
  0.0023373594227972  0.8784483464220382  0.4753022448221634   T   T   T
  0.3541410115978740  0.8751760177967256  0.4888428957767246   T   T   T
  0.4255571744154930  0.8827230151437742  0.5777939895146703   T   T   T
  0.2581684793178315  0.8830499352996576  0.5664038400133768   T   T   T
  0.1070300017771684  0.8805877376961665  0.5701153711821653   T   T   T
  0.4056495225775905  0.8750779798599453  0.2321437934505610   F   F   F
  0.2499999997239044  0.8750070556205145  0.1993925282839726   F   F   F
  0.0943504774224095  0.8750779798599453  0.2321437934505610   F   F   F
  0.1547523877655834  0.4998547718035553  0.3156484410005831   F   F   F
  0.0000000000000000  0.5000770226384077  0.3028264942509225   F   F   F
  0.3452476122344166  0.4998547718035553  0.3156484410005831   F   F   F
  0.3995952923395488  0.4974568146340889  0.3988694175847844   T   T   T
  0.2489536499905136  0.4983674748794393  0.3854767991293581   T   T   T
  0.0974772860620920  0.4993726760736518  0.4021667398869789   T   T   T
  0.1424652875743963  0.4987151476493067  0.4892259174492289   T   T   T
  0.9937838807433742  0.5023620965153637  0.4720091411006423   T   T   T
  0.3385163051083236  0.4957804664762686  0.4865035560311010   T   T   T
  0.4051321335588748  0.4872341844106704  0.5708351284933402   T   T   T
  0.2404425426011279  0.4803351145049675  0.5722190417580867   T   T   T
  0.0783596430353567  0.4903016256171874  0.5743297099229612   T   T   T
  0.9056069474266053  0.9999373616505167  0.2321734907340058   F   F   F
  0.7499999997239044  0.0000513587277524  0.1992858819354737   F   F   F
  0.5943930525733947  0.9999373616505167  0.2321734907340058   F   F   F
  0.6547082680068357  0.1251230653872994  0.3157550047969764   F   F   F
  0.5000000000000000  0.1248851797808541  0.3029475127512455   F   F   F
  0.8452917319931643  0.1251230653872994  0.3157550047969764   F   F   F
  0.8982393557241570  0.1230005685810848  0.4003635196815386   T   T   T
  0.7450175061343430  0.1227074735833835  0.3839996425003621   T   T   T
  0.5967784691324065  0.1269953673947108  0.4051772466439097   T   T   T
  0.6519700241825359  0.1336717032289869  0.4904832780029316   T   T   T
  0.5021690814259649  0.1214671361823571  0.4735265452848365   T   T   T
  0.8527396216447457  0.1270004704073224  0.4846854079067913   T   T   T
  0.9022224984016469  0.1237620700722288  0.5676340907373942   T   T   T
  0.7555999320073857  0.0703518305916776  0.5083810681514730   T   T   T
  0.5967493580228408  0.1300829728023761  0.5728144093618124   T   T   T
  0.9056495225775905  0.1250779796458588  0.2321437934505610   F   F   F
  0.7499999997239044  0.1250070554064280  0.1993925282839726   F   F   F
  0.5943504774224095  0.1250779796458588  0.2321437934505610   F   F   F
  0.6547523877655834  0.2498547720176418  0.3156484410005831   F   F   F
  0.5000000000000000  0.2500770228524942  0.3028264942509225   F   F   F
  0.8452476122344166  0.2498547720176418  0.3156484410005831   F   F   F
  0.8993106407591993  0.2515212770340073  0.4006150446102628   T   T   T
  0.7474365107273880  0.2509387603105322  0.3871402067547448   T   T   T
  0.5992140223931276  0.2537852752123682  0.4007126950452855   T   T   T
  0.6513910367743670  0.2540530915997435  0.4904256591790502   T   T   T
  0.5008553565876799  0.2554461197930926  0.4689375252266515   T   T   T
  0.8518221014743770  0.2463161882019051  0.4876542521304122   T   T   T
  0.9136682251452501  0.2425519067565754  0.5694432542814353   T   T   T
  0.7517117482511633  0.2043509518963133  0.5775568557837196   T   T   T
  0.5845660958539184  0.2492729737259199  0.5787961742849372   T   T   T
  0.9056069474266053  0.2499373618646032  0.2321734907340058   F   F   F
  0.7499999997239044  0.2500513589418389  0.1992858819354737   F   F   F
  0.5943930525733947  0.2499373618646032  0.2321734907340058   F   F   F
  0.6547082680068357  0.3751230656013860  0.3157550047969764   F   F   F
  0.5000000000000000  0.3748851799949406  0.3029475127512455   F   F   F
  0.8452917319931643  0.3751230656013860  0.3157550047969764   F   F   F
  0.8927287243885156  0.3782771818821588  0.4027541810233368   T   T   T
  0.7507083850980772  0.3750446373700994  0.3870767468060051   T   T   T
  0.6028070844576496  0.3762571388185219  0.4004791602582277   T   T   T
  0.6436399288418898  0.3786402999959538  0.4875176674165929   T   T   T
  0.4976241223396267  0.3798671460914181  0.4712747015851686   T   T   T
  0.8453948774379604  0.3776037246677122  0.4884500230561490   T   T   T
  0.9016507740774565  0.3803367910268852  0.5799845481864786   T   T   T
  0.7435043343986694  0.3677452585190235  0.5574952286124567   T   T   T
  0.5905252488806291  0.3766570075210713  0.5775980211605296   T   T   T
  0.9056495225775905  0.3750779798599453  0.2321437934505610   F   F   F
  0.7499999997239044  0.3750070556205145  0.1993925282839726   F   F   F
  0.5943504774224095  0.3750779798599453  0.2321437934505610   F   F   F
  0.6547523877655834  0.9998547718035553  0.3156484410005831   F   F   F
  0.5000000000000000  0.0000770226384077  0.3028264942509225   F   F   F
  0.8452476122344166  0.9998547718035553  0.3156484410005831   F   F   F
  0.9000559587342705  0.9978459827923220  0.4003455529686760   T   T   T
  0.7500053196120934  0.0002946855117865  0.3884784915968487   T   T   T
  0.5992502927510246  0.9980968851908102  0.4039804998229701   T   T   T
  0.6516985688651203  0.9970771395782145  0.4880509248587215   T   T   T
  0.5026170563688401  0.9969241581776335  0.4751835565412955   T   T   T
  0.8523827782076316  0.9922763085489783  0.4848665542496091   T   T   T
  0.9163009681665726  0.0028295342327975  0.5661661350844385   T   T   T
  0.7550091170298340  0.9630288510369105  0.5676225781150900   T   T   T
  0.5989712880031535  0.0072465386259616  0.5721067903999442   T   T   T
  0.9056069474266053  0.4999373616505167  0.2321734907340058   F   F   F
  0.7499999997239044  0.5000513587277524  0.1992858819354737   F   F   F
  0.5943930525733947  0.4999373616505167  0.2321734907340058   F   F   F
  0.6547082680068357  0.6251230653872994  0.3157550047969764   F   F   F
  0.5000000000000000  0.6248851797808541  0.3029475127512455   F   F   F
  0.8452917319931643  0.6251230653872994  0.3157550047969764   F   F   F
  0.8959607901533295  0.6286572273673161  0.4038953634089105   T   T   T
  0.7482222782526291  0.6295530949888625  0.3877266602621836   T   T   T
  0.5988436804084705  0.6213005307534368  0.4028411663042337   T   T   T
  0.6448345330181589  0.6238794687214362  0.4821423606454868   T   T   T