Ru Cu                                   
   1.00000000000000     
    10.8623999999999992    0.0000000000000000    0.0000000000000000
    -5.4311999999999969    9.4071143460680844    0.0000000000000000
     0.0000000000000000    0.0000000000000000   22.7112499999999962
   Ru   Cu
    96     1
Direct
  0.0832284330186690  0.1665184265579409  0.3581746761612164
  0.1665886488341531  0.0833567481518546  0.2675460729390475
  0.0832609051395811  0.1665406850465503  0.5477963509441414
  0.1668490901126626  0.0834632280976688  0.4520775603306874
  0.0833875698025420  0.1667920918105039  0.7323654881278382
  0.1665737831302688  0.0832553696760522  0.6419412705878995
  0.0832180167061035  0.4167190187893366  0.3581669563191368
  0.1666734752789241  0.3333320535165874  0.2676994841366300
  0.0832546489009672  0.4167328977462843  0.5477996467901250
  0.1668275100422714  0.3334422293502992  0.4519472735787411
  0.0832805152230175  0.4166408858073356  0.7323705381870512
  0.1652600615404021  0.3326568231322561  0.6415866931319675
  0.0832533500414295  0.6665491908249404  0.3581848237672775
  0.1666032982763330  0.5832408345417515  0.2675522711358728
  0.0833073512324911  0.6666676954320224  0.5478384654648674
  0.1668263987344876  0.5834094078034961  0.4520817232519834
  0.0834246033273537  0.6668914921693446  0.7322898837279582
  0.1665899406955418  0.5833767554361238  0.6419489604868120
  0.0832712950431205  0.9167327232184808  0.3581849284528240
  0.1666754476937298  0.8333292916786725  0.2677457434052706
  0.0833182004753397  0.9166834154427360  0.5478446893534966
  0.1666608460049472  0.8333583999438433  0.4519690524036664
  0.0834516382579142  0.9165608832777257  0.7322807625535178
  0.1666667215306517  0.8333330474315898  0.6417518277761041
  0.3333238216878941  0.1666583676647121  0.3582035291092308
  0.4167690603140400  0.0833771945761873  0.2675430977435400
  0.3333280977385348  0.1667233600870477  0.5483046795046350
  0.4165807804300670  0.0834468725315827  0.4520895934908158
  0.3333889605076972  0.1668001437587433  0.7324945681832924
  0.4166419230945599  0.0832536628687036  0.6419529032825048
  0.3333809287625726  0.4166998969153287  0.3580495682814020
  0.4167233294101020  0.3334539539996978  0.2676151046761714
  0.3333246843285054  0.4166647754824811  0.5482162184010303
  0.4167352206281276  0.3335090020130348  0.4521310292009826
  0.3310535994338652  0.4155169859545285  0.7326332484481342
  0.4166270663652211  0.3332302415398335  0.6417545095612989
  0.3333246282338712  0.6666713595871696  0.3582062479220238
  0.4167298487802839  0.5832783102048412  0.2676173887368496
  0.3332921966539106  0.6667135919043478  0.5482851466302973
  0.4167335014845185  0.5832719906687563  0.4521352967023516
  0.3335223448941871  0.6664685087850115  0.7325223655968093
  0.4166119574289348  0.5834135676955409  0.6416752050760368
  0.3334489098941278  0.9167462721006371  0.3581825156800308
  0.4167647238059101  0.8333982310721818  0.2675475402982027
  0.3333432669450189  0.9166954551690633  0.5478455579174840
  0.4165997073676501  0.8331872891088896  0.4520811980425196
  0.3331044504405664  0.9165711746057702  0.7322897413283245
  0.4166238428676343  0.8334041577027486  0.6419485951083267
  0.5832805131505235  0.1665136721208257  0.3581717314412379
  0.6666303010057152  0.0833407360826580  0.2676152847013520
  0.5832633192507189  0.1666074406913007  0.5478223720190920
  0.6666748070887412  0.0833406777042951  0.4521371864761206
  0.5833044885883761  0.1667952354094933  0.7323946451706418
  0.6666322418289840  0.0833571090650864  0.6422179576111765
  0.5833018214602425  0.4166995167950054  0.3580478420746711
  0.6666660229330882  0.3333294895656186  0.2677001599317340
  0.5833327736355997  0.4166718857891668  0.5482185565269125
  0.6665644485594332  0.3334405431613954  0.4519510503770847
  0.5841947115786353  0.4158075029765168  0.7328478123859025
  0.6671804073822998  0.3328197798688622  0.6416748347662349
  0.5833033963837029  0.6666183962412809  0.3580515486430732
  0.6665490453050659  0.5832795000289515  0.2676223259873321
  0.5833364783068811  0.6666762913164466  0.5482127985204823
  0.6664987179447771  0.5832646080896162  0.4521315047545222
  0.5845091884777446  0.6690056751207910  0.7326257061918249
  0.6667784651964835  0.5833904404961325  0.6417548833356725
  0.5832752602392360  0.9167774742096153  0.3581591933034819
  0.6666620497330558  0.8333327831103774  0.2677033232847637
  0.5832501830761601  0.9167191089411361  0.5478018944833778
  0.6665605204123839  0.8331768343081650  0.4519469599935575
  0.5833568480188989  0.9167253767113135  0.7323760588354533
  0.6673528248877271  0.8347628300139153  0.6415889465970086
  0.8333286524596757  0.1666759641803100  0.3581874301839699
  0.9166990854770954  0.0832962448899434  0.2676251504733036
  0.8333078859962452  0.1666961838102086  0.5478513774632139
  0.9166483961472405  0.0833756348306973  0.4521320244043864
  0.8333266454301357  0.1666734107672486  0.7325284800838571
  0.9166515674005664  0.0833155354333970  0.6421893866543794
  0.8334950820628840  0.4167206977745721  0.3581715913137721
  0.9166649965286241  0.3333746524643157  0.2676173733207338
  0.8333990752099648  0.4167395779681566  0.5478251051028759
  0.9166663239999231  0.3333334038179687  0.4521375392639623
  0.8332151778119478  0.4166912705731162  0.7323934951439771
  0.9166370955177203  0.3333588825188167  0.6422161384869493
  0.8333518758276938  0.6666866550551365  0.3582068524497266
  0.9166408959902063  0.5832579818485556  0.2675467248019228
  0.8332907424186704  0.6666824107454065  0.5483036811710342
  0.9165426768198486  0.5834142130450324  0.4520916218829499
  0.8331877087833952  0.6666118025173182  0.7324964955791317
  0.9167433385415374  0.5833625590812105  0.6419503996732383
  0.8334829355984383  0.9167750516799956  0.3581751065852980
  0.9166534239526888  0.8334166624250122  0.2675452122859530
  0.8334590595184236  0.9167254790687828  0.5477897198706012
  0.9165434223581134  0.8331603130751014  0.4520836876452401
  0.8331931005242049  0.9166143635156676  0.7323726835355023
  0.9167500617571637  0.8334278685202641  0.6419394135520121
  0.4982445784306211  0.5020215033973884  0.8207468685698223
 
  0.00000000E+00  0.00000000E+00  0.00000000E+00
  0.00000000E+00  0.00000000E+00  0.00000000E+00
  0.00000000E+00  0.00000000E+00  0.00000000E+00
  0.00000000E+00  0.00000000E+00  0.00000000E+00
  0.00000000E+00  0.00000000E+00  0.00000000E+00
  0.00000000E+00  0.00000000E+00  0.00000000E+00
  0.00000000E+00  0.00000000E+00  0.00000000E+00
  0.00000000E+00  0.00000000E+00  0.00000000E+00
  0.00000000E+00  0.00000000E+00  0.00000000E+00
  0.00000000E+00  0.00000000E+00  0.00000000E+00
  0.00000000E+00  0.00000000E+00  0.00000000E+00
  0.00000000E+00  0.00000000E+00  0.00000000E+00
  0.00000000E+00  0.00000000E+00  0.00000000E+00
  0.00000000E+00  0.00000000E+00  0.00000000E+00
  0.00000000E+00  0.00000000E+00  0.00000000E+00
  0.00000000E+00  0.00000000E+00  0.00000000E+00
  0.00000000E+00  0.00000000E+00  0.00000000E+00
  0.00000000E+00  0.00000000E+00  0.00000000E+00
  0.00000000E+00  0.00000000E+00  0.00000000E+00
  0.00000000E+00  0.00000000E+00  0.00000000E+00
  0.00000000E+00  0.00000000E+00  0.00000000E+00
  0.00000000E+00  0.00000000E+00  0.00000000E+00
  0.00000000E+00  0.00000000E+00  0.00000000E+00
  0.00000000E+00  0.00000000E+00  0.00000000E+00
  0.00000000E+00  0.00000000E+00  0.00000000E+00
  0.00000000E+00  0.00000000E+00  0.00000000E+00
  0.00000000E+00  0.00000000E+00  0.00000000E+00
  0.00000000E+00  0.00000000E+00  0.00000000E+00
  0.00000000E+00  0.00000000E+00  0.00000000E+00
  0.00000000E+00  0.00000000E+00  0.00000000E+00
  0.00000000E+00  0.00000000E+00  0.00000000E+00
  0.00000000E+00  0.00000000E+00  0.00000000E+00
  0.00000000E+00  0.00000000E+00  0.00000000E+00
  0.00000000E+00  0.00000000E+00  0.00000000E+00
  0.00000000E+00  0.00000000E+00  0.00000000E+00
  0.00000000E+00  0.00000000E+00  0.00000000E+00
  0.00000000E+00  0.00000000E+00  0.00000000E+00
  0.00000000E+00  0.00000000E+00  0.00000000E+00
  0.00000000E+00  0.00000000E+00  0.00000000E+00
  0.00000000E+00  0.00000000E+00  0.00000000E+00
  0.00000000E+00  0.00000000E+00  0.00000000E+00
  0.00000000E+00  0.00000000E+00  0.00000000E+00
  0.00000000E+00  0.00000000E+00  0.00000000E+00
  0.00000000E+00  0.00000000E+00  0.00000000E+00
  0.00000000E+00  0.00000000E+00  0.00000000E+00
  0.00000000E+00  0.00000000E+00  0.00000000E+00
  0.00000000E+00  0.00000000E+00  0.00000000E+00
  0.00000000E+00  0.00000000E+00  0.00000000E+00
  0.00000000E+00  0.00000000E+00  0.00000000E+00
  0.00000000E+00  0.00000000E+00  0.00000000E+00
  0.00000000E+00  0.00000000E+00  0.00000000E+00
  0.00000000E+00  0.00000000E+00  0.00000000E+00
  0.00000000E+00  0.00000000E+00  0.00000000E+00
  0.00000000E+00  0.00000000E+00  0.00000000E+00
  0.00000000E+00  0.00000000E+00  0.00000000E+00
  0.00000000E+00  0.00000000E+00  0.00000000E+00
  0.00000000E+00  0.00000000E+00  0.00000000E+00
  0.00000000E+00  0.00000000E+00  0.00000000E+00
  0.00000000E+00  0.00000000E+00  0.00000000E+00
  0.00000000E+00  0.00000000E+00  0.00000000E+00
  0.00000000E+00  0.00000000E+00  0.00000000E+00
  0.00000000E+00  0.00000000E+00  0.00000000E+00
  0.00000000E+00  0.00000000E+00  0.00000000E+00
  0.00000000E+00  0.00000000E+00  0.00000000E+00
  0.00000000E+00  0.00000000E+00  0.00000000E+00
  0.00000000E+00  0.00000000E+00  0.00000000E+00
  0.00000000E+00  0.00000000E+00  0.00000000E+00
  0.00000000E+00  0.00000000E+00  0.00000000E+00
  0.00000000E+00  0.00000000E+00  0.00000000E+00
  0.00000000E+00  0.00000000E+00  0.00000000E+00
  0.00000000E+00  0.00000000E+00  0.00000000E+00
  0.00000000E+00  0.00000000E+00  0.00000000E+00
  0.00000000E+00  0.00000000E+00  0.00000000E+00
  0.00000000E+00  0.00000000E+00  0.00000000E+00
  0.00000000E+00  0.00000000E+00  0.00000000E+00
  0.00000000E+00  0.00000000E+00  0.00000000E+00
  0.00000000E+00  0.00000000E+00  0.00000000E+00
  0.00000000E+00  0.00000000E+00  0.00000000E+00
  0.00000000E+00  0.00000000E+00  0.00000000E+00
  0.00000000E+00  0.00000000E+00  0.00000000E+00
  0.00000000E+00  0.00000000E+00  0.00000000E+00
  0.00000000E+00  0.00000000E+00  0.00000000E+00
  0.00000000E+00  0.00000000E+00  0.00000000E+00
  0.00000000E+00  0.00000000E+00  0.00000000E+00
  0.00000000E+00  0.00000000E+00  0.00000000E+00
  0.00000000E+00  0.00000000E+00  0.00000000E+00
  0.00000000E+00  0.00000000E+00  0.00000000E+00
  0.00000000E+00  0.00000000E+00  0.00000000E+00
  0.00000000E+00  0.00000000E+00  0.00000000E+00
  0.00000000E+00  0.00000000E+00  0.00000000E+00
  0.00000000E+00  0.00000000E+00  0.00000000E+00
  0.00000000E+00  0.00000000E+00  0.00000000E+00
  0.00000000E+00  0.00000000E+00  0.00000000E+00
  0.00000000E+00  0.00000000E+00  0.00000000E+00
  0.00000000E+00  0.00000000E+00  0.00000000E+00
  0.00000000E+00  0.00000000E+00  0.00000000E+00
  0.00000000E+00  0.00000000E+00  0.00000000E+00
