Ta  N Ru Cu 
 1.0000000000000000
    18.1096308199999996    0.0000000000000000    0.0000000000000000
     0.0000000000000000   23.3551997799999995    0.0000000000000000
     0.0000000000000000    0.0000000000000000   30.4818171199999988
 216 240  24  29
Selective dynamics
Cartesian
  18.097670    0.015284   5.929804  F  F  F
   5.944609    1.409060   6.128759  F  F  F
   3.072426    1.410614   6.128326  F  F  F
   4.508047    2.916857   8.513966  F  F  F
   1.483474    1.475267   8.618976  F  F  F
   7.533511    1.472929   8.616511  F  F  F
  18.091810    2.927658  11.241152  F  F  F
   6.004574    1.469330  11.209073  F  F  F
   3.008561    1.469251  11.211109  F  F  F
   4.519895    2.913451  13.851128  F  F  F
   1.488072    1.458656  13.823825  F  F  F
   7.522953    1.462280  13.818502  F  F  F
  18.078095    2.943308   5.975566  F  F  F
   6.078445    4.397719   6.166252  F  F  F
   2.938841    4.401004   6.168753  F  F  F
   4.506630    5.865049   8.515019  F  F  F
   1.477757    4.389621   8.649223  F  F  F
   7.544084    4.386992   8.641855  F  F  F
  18.088438    5.851008  11.271163  F  F  F
   6.004852    4.388873  11.224484  F  F  F
   3.014294    4.390524  11.233563  F  F  F
   4.524012    5.787041  13.871580  F  F  F
   1.490298    4.370766  13.838934  F  F  F
   7.530358    4.372533  13.840476  F  F  F
   6.073389    4.309349  16.509224  F  F  F
   0.006434    5.836994   5.974882  F  F  F
   5.939129    7.384073   6.145015  F  F  F
   3.075219    7.386949   6.153156  F  F  F
   4.503062    8.762971   8.590964  F  F  F
   1.485736    7.307561   8.661926  F  F  F
   7.533939    7.304796   8.644964  F  F  F
  18.086347    8.767266  11.290025  F  F  F
   6.013831    7.308008  11.241977  F  F  F
   3.000296    7.308190  11.268115  F  F  F
   4.512151    8.745735  13.874719  F  F  F
   1.506659    7.300011  13.912901  F  F  F
   7.541080    7.299176  13.894136  F  F  F
  18.085985    8.777844   5.989725  F  F  F
   5.945765   10.156152   6.156987  F  F  F
   3.060454   10.156635   6.165310  F  F  F
   4.507156    0.019169   8.536566  F  F  F
   1.479766   10.230416   8.663893  F  F  F
   7.536910   10.230665   8.639047  F  F  F
  18.088497    0.008315  11.220183  F  F  F
   6.011832   10.226637  11.243499  F  F  F
   3.001355   10.224133  11.270210  F  F  F
   4.506198    0.002697  13.840864  F  F  F
   1.518106   10.237848  13.928109  F  F  F
   7.532963   10.225333  13.887459  F  F  F
   6.182290   10.249747  16.543183  F  F  F
   0.028498   11.677656   5.995754  F  F  F
   5.946866   13.207947   6.151898  F  F  F
   3.064006   13.208779   6.157971  F  F  F
   4.508148   14.606927   8.565568  F  F  F
   1.480178   13.138509   8.650596  F  F  F
   7.536117   13.140521   8.635100  F  F  F
  18.083194   14.615299  11.256948  F  F  F
   6.008896   13.148179  11.239319  F  F  F
   3.006920   13.148368  11.250062  F  F  F
   4.511737   14.615737  13.851310  F  F  F
   1.494248   13.148475  13.860753  F  F  F
   7.538351   13.154555  13.857524  F  F  F
  18.083644   14.585658   5.969039  F  F  F
   5.939171   15.984194   6.129909  F  F  F
   3.075479   15.981080   6.136753  F  F  F
   4.507117   17.510717   8.489368  F  F  F
   1.484123   16.065544   8.635826  F  F  F
   7.531040   16.067050   8.629402  F  F  F
  18.079663   17.523864  11.238454  F  F  F
   6.012394   16.071838  11.224174  F  F  F
   3.003573   16.071680  11.224011  F  F  F
   4.489508   17.580046  13.860899  F  F  F
   1.510164   16.083286  13.856911  F  F  F
   7.532179   16.086631  13.857177  F  F  F
   6.039318   16.146744  16.506078  F  F  F
   0.004449   17.541314   5.953665  F  F  F
   6.074335   18.978684   6.152110  F  F  F
   2.936863   18.977488   6.153539  F  F  F
   4.506040   20.462340   8.495150  F  F  F
   1.477549   18.986970   8.627779  F  F  F
   7.534876   18.986788   8.629205  F  F  F
  18.084311   20.449379  11.223232  F  F  F
   5.999346   18.988868  11.214445  F  F  F
   3.009339   18.987730  11.210687  F  F  F
   4.500042   20.455241  13.838179  F  F  F
   1.464421   19.005972  13.808077  F  F  F
   7.513465   19.002757  13.840163  F  F  F
  18.077440   20.435899   5.964032  F  F  F
   5.946959   21.968343   6.115815  F  F  F
   3.066137   21.970265   6.116263  F  F  F
   4.505465   11.679770   8.577136  F  F  F
   1.480766   21.902438   8.611936  F  F  F
   7.531318   21.901676   8.613230  F  F  F
  18.091074   11.685285  11.282766  F  F  F
   6.003242   21.907747  11.205476  F  F  F
   3.007205   21.907770  11.202051  F  F  F
   4.496595   11.732679  13.875707  F  F  F
   1.486206   21.908142  13.801788  F  F  F
   7.513367   21.914344  13.809336  F  F  F
   6.018966   21.918048  16.450210  F  F  F
   2.933839   21.887544  16.445099  F  F  F
   9.029377    0.012316   5.930197  F  F  F
  15.002571    1.396810   6.141240  F  F  F
  12.128897    1.397495   6.140320  F  F  F
  13.567494    2.930252   8.547048  F  F  F
  10.532681    1.474542   8.611739  F  F  F
  16.595322    1.474589   8.614215  F  F  F
   9.033569    2.927989  11.234967  F  F  F
  15.063574    1.468637  11.205649  F  F  F
  12.059434    1.469790  11.204205  F  F  F
  13.566464    2.912851  13.840988  F  F  F
  10.537984    1.462916  13.821282  F  F  F
  16.580077    1.457090  13.818717  F  F  F
   9.052688    2.940691   5.972260  F  F  F
  15.015542    4.465928   6.155557  F  F  F
  12.116538    4.462413   6.145607  F  F  F
  13.572347    5.855030   8.575704  F  F  F
  10.531028    4.385514   8.628599  F  F  F
  16.602400    4.386189   8.636632  F  F  F
   9.031610    5.850377  11.257401  F  F  F
  15.068381    4.387356  11.230332  F  F  F
  12.067070    4.386017  11.225249  F  F  F
  13.579048    5.788736  13.869106  F  F  F
  10.538467    4.368390  13.826183  F  F  F
  16.585754    4.377465  13.840517  F  F  F
  15.112600    4.289793  16.478290  F  F  F
   9.014290    5.832544   5.970515  F  F  F
  15.001753    7.226071   6.148734  F  F  F
  12.135078    7.228191   6.142096  F  F  F
  13.573126    8.743693   8.525078  F  F  F
  10.537692    7.306883   8.640018  F  F  F
  16.597647    7.308831   8.651181  F  F  F
   9.025748    8.760766  11.261449  F  F  F
  15.074549    7.303909  11.244904  F  F  F
  12.070988    7.299706  11.229788  F  F  F
  13.577676    8.784973  13.874170  F  F  F
  10.591814    7.301306  13.878365  F  F  F
  16.605724    7.307839  13.916870  F  F  F
   9.044571    8.776191   5.978839  F  F  F
  15.117833   10.244904   6.182352  F  F  F
  12.023399   10.243847   6.175186  F  F  F
  13.563076    0.014475   8.539371  F  F  F
  10.528258   10.222426   8.646425  F  F  F
  16.605080   10.222757   8.664919  F  F  F
   9.032410    0.009405  11.220492  F  F  F
  15.073158   10.224195  11.245007  F  F  F
  12.082743   10.223520  11.212388  F  F  F
  13.554238    0.003918  13.836303  F  F  F
  10.554542   10.226861  13.774921  F  F  F
  16.594668   10.223613  13.898254  F  F  F
  15.066253   10.269694  16.572475  F  F  F
   8.990350   11.679484   5.984085  F  F  F
  15.112676   13.118937   6.176679  F  F  F
  12.026359   13.119428   6.170259  F  F  F
  13.569557   14.624665   8.499930  F  F  F
  10.527999   13.147247   8.634433  F  F  F
  16.602986   13.145650   8.646702  F  F  F
   9.023343   14.615673  11.238323  F  F  F
  15.069159   13.150700  11.215594  F  F  F
  12.071889   13.154436  11.192044  F  F  F
  13.574157   14.610633  13.826790  F  F  F
  10.559214   13.149132  13.807012  F  F  F
  16.575398   13.150420  13.870653  F  F  F
   9.044268   14.588295   5.963525  F  F  F
  14.998549   16.148314   6.127029  F  F  F
  12.131531   16.144577   6.127136  F  F  F
  13.563972   17.525420   8.552391  F  F  F
  10.533615   16.066360   8.620943  F  F  F
  16.593309   16.064219   8.625132  F  F  F
   9.026004   17.526293  11.237160  F  F  F
  15.066248   16.073558  11.212241  F  F  F
  12.058408   16.075244  11.211761  F  F  F
  13.544191   17.576240  13.847666  F  F  F
  10.565795   16.084770  13.848402  F  F  F
  16.570948   16.079734  13.864552  F  F  F
  15.138043   16.138222  16.554534  F  F  F
   9.009765   17.541839   5.954000  F  F  F
  15.009587   18.911036   6.138769  F  F  F
  12.112916   18.912863   6.134519  F  F  F
  13.560793   20.446111   8.532027  F  F  F
  10.526342   18.990263   8.615789  F  F  F
  16.596534   18.990499   8.615252  F  F  F
   9.028068   20.450939  11.226133  F  F  F
  15.056446   18.990251  11.209314  F  F  F
  12.055872   18.992122  11.213243  F  F  F
  13.548130   20.460362  13.833405  F  F  F
  10.517368   19.007899  13.814863  F  F  F
  16.564612   18.999217  13.824810  F  F  F
   9.046038   20.433716   5.964059  F  F  F
  15.000950   21.983156   6.134348  F  F  F
  12.121175   21.981825   6.130233  F  F  F
  13.572877   11.686820   8.484140  F  F  F
  10.529245   21.901431   8.607925  F  F  F
  16.593955   21.901733   8.608393  F  F  F
   9.023060   11.690465  11.251093  F  F  F
  15.059125   21.908020  11.198988  F  F  F
  12.057011   21.909408  11.199514  F  F  F
  13.594573   11.682952  13.830376  F  F  F
  10.537911   21.913818  13.810465  F  F  F
  16.567537   21.907624  13.802985  F  F  F
  15.089246   21.913060  16.453230  F  F  F
  12.012903   21.897103  16.447901  F  F  F
   6.064535    1.430858  16.488139  F  F  F
   2.954783    1.425343  16.467944  F  F  F
   6.124075    7.235162  16.583590  F  F  F
   5.968955   13.241431  16.522097  F  F  F
   6.036852   19.036339  16.517579  F  F  F
  15.110996    1.418418  16.479332  F  F  F
  12.003627    1.443968  16.473356  F  F  F
  15.233640    7.275293  16.577139  F  F  F
  15.215441   13.196680  16.577760  F  F  F
  15.100519   19.041673  16.494781  F  F  F
   3.022796    4.356770  16.488429  F  F  F
  12.049884    4.352409  16.463997  F  F  F
   2.965801   18.953450  16.477642  F  F  F
  11.991151   18.964194  16.500738  F  F  F
   7.324329    0.008863   7.040908  F  F  F
   4.507827    0.010795   5.366581  F  F  F
   1.691639    0.012722   7.041889  F  F  F
   2.763814    2.930447   9.622360  F  F  F
  18.094670    2.928356   9.204349  F  F  F
   6.254684    2.927959   9.617668  F  F  F
   7.251579    2.927637  12.247878  F  F  F
   4.508511    2.924688  11.784957  F  F  F
   1.764325    2.925478  12.251788  F  F  F
   2.731075    2.913616  14.850830  F  F  F
  18.088253    2.915602  14.431224  F  F  F
   6.302403    2.899909  14.851040  F  F  F
   7.329484    2.861814  17.313192  F  F  F
   4.516258    2.888780  16.987024  F  F  F
   1.645709    2.842532  17.284484  F  F  F
   7.333857    2.919659   7.046581  F  F  F
   4.508592    2.953210   6.316344  F  F  F
   1.686031    2.923448   7.050988  F  F  F
   2.769777    5.853804   9.644740  F  F  F
  18.093842    5.851225   9.227056  F  F  F
   6.250148    5.850701   9.632170  F  F  F
   7.251818    5.847634  12.277253  F  F  F
   4.514259    5.847166  11.806735  F  F  F
   1.756102    5.853705  12.284359  F  F  F
   2.743578    5.771799  14.845789  F  F  F
  18.106354    5.812735  14.487097  F  F  F
   6.326486    5.808297  14.909571  F  F  F
   7.289614    5.738310  17.482334  F  F  F
   4.562915    5.747836  17.046363  F  F  F
   1.546344    5.361466  17.486277  F  F  F
   7.330698    5.859663   7.071163  F  F  F
   4.508083    5.837106   6.274448  F  F  F
   1.687230    5.863946   7.080602  F  F  F
   2.743009    8.766653   9.672284  F  F  F
  18.094178    8.764809   9.241742  F  F  F
   6.271542    8.767198   9.653538  F  F  F
   7.247513    8.761110  12.289952  F  F  F
   4.515548    8.764419  11.814283  F  F  F
   1.745767    8.762599  12.311533  F  F  F
   2.735795    8.743032  14.809622  F  F  F
   0.002437    8.780728  14.581296  F  F  F
   6.308318    8.740283  14.915559  F  F  F
   7.282278    8.732184  17.447115  F  F  F
   4.610906    8.728155  17.221265  F  F  F
   1.049963    8.819923  18.179793  F  F  F
   7.325774    8.765293   7.072208  F  F  F
   4.505277    8.776513   5.381198  F  F  F
   1.690251    8.766727   7.090468  F  F  F
   2.745664    0.011488   9.615576  F  F  F
  18.092582    0.010180   9.178658  F  F  F
   6.268155    0.010745   9.614673  F  F  F
   7.250297    0.012798  12.235796  F  F  F
   4.506376    0.010346  11.776448  F  F  F
   1.760639    0.011992  12.231736  F  F  F
   2.717628   23.354875  14.831228  F  F  F
  18.086845   23.348626  14.403115  F  F  F
   6.288973    0.008436  14.839797  F  F  F
   7.330662   23.314307  17.297636  F  F  F
   4.485863   23.351674  16.981205  F  F  F
   1.650917   23.334113  17.278245  F  F  F
   7.297523   11.682634   7.054411  F  F  F
   4.505635   11.680217   6.462288  F  F  F
   1.718902   11.681355   7.073218  F  F  F
   2.748261   14.604659   9.644418  F  F  F
  18.092471   14.606656   9.214585  F  F  F
   6.269625   14.606507   9.638208  F  F  F
   7.249738   14.617414  12.264549  F  F  F
   4.511543   14.620984  11.794542  F  F  F
   1.755159   14.629769  12.257416  F  F  F
   2.729793   14.582852  14.777951  F  F  F
  18.088310   14.641666  14.392144  F  F  F
   6.315163   14.634284  14.868374  F  F  F
   7.204168   14.705515  17.458100  F  F  F
   4.602517   14.701041  16.968660  F  F  F
   1.525863   15.163660  17.076254  F  F  F
   7.326086   14.602986   7.058347  F  F  F
   4.506306   14.584454   5.370577  F  F  F
   1.688545   14.600604   7.069276  F  F  F
   2.769477   17.524269   9.616077  F  F  F
  18.089879   17.525418   9.198233  F  F  F
   6.245056   17.524862   9.616169  F  F  F
   7.247320   17.539004  12.259686  F  F  F
   4.506972   17.528381  11.793765  F  F  F
   1.752553   17.525623  12.246472  F  F  F
   2.697034   17.608208  14.826704  F  F  F
  18.076539   17.562282  14.438897  F  F  F
   6.286954   17.577072  14.868633  F  F  F
   7.220432   17.631500  17.464400  F  F  F
   4.486935   17.617505  17.022993  F  F  F
   1.327979   17.902309  17.366916  F  F  F
   7.326700   17.513350   7.055258  F  F  F
   4.506733   17.534838   6.245414  F  F  F
   1.686272   17.509838   7.057227  F  F  F
   2.764568   20.449851   9.606268  F  F  F
  18.091189   20.445404   9.187853  F  F  F
   6.246348   20.450282   9.609075  F  F  F
   7.245638   20.445933  12.239618  F  F  F
   4.504916   20.450516  11.773689  F  F  F
   1.759199   20.447731  12.227329  F  F  F
   2.710213   20.434904  14.829005  F  F  F
  18.078451   20.474542  14.391630  F  F  F
   6.286593   20.461269  14.841477  F  F  F
   7.310789   20.517273  17.323036  F  F  F
   4.470016   20.441641  16.964543  F  F  F
   1.617943   20.467680  17.257557  F  F  F
   7.328386   20.456592   7.040113  F  F  F
   4.505374   20.427720   6.290571  F  F  F
   1.685338   20.458235   7.039254  F  F  F
   2.745353   11.683913   9.659900  F  F  F
  18.090907   11.685933   9.240374  F  F  F
   6.270196   11.684850   9.644178  F  F  F
   7.244177   11.687802  12.279672  F  F  F
   4.510834   11.685221  11.809803  F  F  F
   1.761669   11.674057  12.293642  F  F  F
   2.740756   11.742680  14.880204  F  F  F
  18.098392   11.689626  14.478836  F  F  F
   6.301175   11.733448  14.900610  F  F  F
   7.267032   11.799024  17.482662  F  F  F
   4.673454   11.628339  17.083854  F  F  F
   1.281884   12.193164  17.764298  F  F  F
  16.390061    0.011790   7.036335  F  F  F
  13.563513    0.011985   5.370947  F  F  F
  10.738110    0.010954   7.035605  F  F  F
  11.802658    2.933087   9.618314  F  F  F
   9.034757    2.927788   9.198336  F  F  F
  15.328674    2.933264   9.622692  F  F  F
  16.308317    2.923032  12.249794  F  F  F
  13.565100    2.922929  11.779240  F  F  F
  10.816165    2.922608  12.243228  F  F  F
  11.780921    2.912168  14.837299  F  F  F
   9.033058    2.919598  14.419759  F  F  F
  15.352039    2.893459  14.840680  F  F  F
  16.367607    2.849030  17.318704  F  F  F
  13.554555    2.890267  16.980093  F  F  F
  10.720194    2.940723  17.270075  F  F  F
  16.371707    2.937888   7.040691  F  F  F
  13.566920    2.937300   6.418212  F  F  F
  10.761485    2.935546   7.036127  F  F  F
  11.801274    5.842088   9.635536  F  F  F
   9.036423    5.850083   9.213346  F  F  F
  15.336842    5.846669   9.648459  F  F  F
  16.311249    5.855226  12.289582  F  F  F
  13.573204    5.846858  11.802107  F  F  F
  10.815610    5.852881  12.259920  F  F  F
  11.789071    5.752169  14.824454  F  F  F
   9.053257    5.824626  14.459872  F  F  F
  15.374647    5.806730  14.901414  F  F  F
  16.397619    5.665198  17.449613  F  F  F
  13.609581    5.739347  17.089739  F  F  F
  10.607768    5.603193  17.386394  F  F  F
  16.394886    5.856425   7.064104  F  F  F
  13.566916    5.841982   5.377786  F  F  F
  10.742133    5.854257   7.053718  F  F  F
  11.822663    8.761818   9.624160  F  F  F
   9.033036    8.764810   9.219125  F  F  F
  15.318224    8.761939   9.644920  F  F  F
  16.310170    8.765331  12.313804  F  F  F
  13.575642    8.756950  11.804444  F  F  F
  10.821605    8.740739  12.242183  F  F  F
  11.798194    8.809688  14.821723  F  F  F
   9.059277    8.747520  14.414884  F  F  F
  15.366752    8.782983  14.934013  F  F  F
  16.235964    8.839953  17.555855  F  F  F
  13.715944    8.684087  17.064179  F  F  F
  10.588470    8.858683  17.454521  F  F  F
  16.394281    8.758004   7.079575  F  F  F
  13.568934    8.760511   6.328704  F  F  F
  10.738476    8.757395   7.064018  F  F  F
  11.795232    0.010725   9.611954  F  F  F
   9.032069    0.009992   9.178276  F  F  F
  15.328738    0.010905   9.611355  F  F  F
  16.305932    0.011170  12.231769  F  F  F
  13.559308    0.010274  11.771644  F  F  F
  10.812130    0.012947  12.235220  F  F  F
  11.769494    0.009490  14.837680  F  F  F
   9.029067   23.348041  14.426503  F  F  F
  15.341691    0.005718  14.828820  F  F  F
  16.386180   23.335409  17.293446  F  F  F
  13.544879    0.003934  16.978279  F  F  F
  10.717677   23.336650  17.289378  F  F  F
  16.422666   11.679226   7.072516  F  F  F
  13.568847   11.679197   6.058732  F  F  F
  10.712160   11.680833   7.055294  F  F  F
  11.821405   14.614921   9.605464  F  F  F
   9.031635   14.608370   9.198418  F  F  F
  15.312199   14.610637   9.616255  F  F  F
  16.294343   14.612873  12.262607  F  F  F
  13.569426   14.613225  11.769101  F  F  F
  10.812208   14.616063  12.223299  F  F  F
  11.793595   14.590071  14.708622  F  F  F
   9.054769   14.627009  14.376682  F  F  F
  15.352274   14.621710  14.869024  F  F  F
  16.287096   14.714581  17.413555  F  F  F
  13.536121   14.605886  16.944596  F  F  F
  10.654663   14.954497  16.975020  F  F  F
  16.394128   14.611358   7.057239  F  F  F
  13.568006   14.609724   6.292899  F  F  F
  10.737847   14.613100   7.049036  F  F  F
  11.794956   17.532072   9.620144  F  F  F
   9.031741   17.526155   9.196131  F  F  F
  15.328448   17.530324   9.621358  F  F  F
  16.297386   17.531364  12.254512  F  F  F
  13.559545   17.529975  11.784143  F  F  F
  10.806454   17.527311  12.248034  F  F  F
  11.756385   17.608733  14.814457  F  F  F
   9.031857   17.559420  14.463237  F  F  F
  15.336867   17.563129  14.858927  F  F  F
  16.258871   17.621292  17.395537  F  F  F
  13.523589   17.591473  16.997117  F  F  F
  10.510944   17.756556  17.432469  F  F  F
  16.391425   17.519384   7.040743  F  F  F
  13.562401   17.534836   5.362149  F  F  F
  10.737486   17.520280   7.037630  F  F  F
  11.798024   20.445708   9.609771  F  F  F
   9.029072   20.445541   9.189596  F  F  F
  15.321367   20.445518   9.608222  F  F  F
  16.299213   20.446931  12.231565  F  F  F
  13.556322   20.452575  11.768613  F  F  F
  10.810856   20.454863  12.234702  F  F  F
  11.760973   20.436984  14.834799  F  F  F
   9.023509   20.484142  14.423991  F  F  F
  15.335104   20.460622  14.829283  F  F  F
  16.344513   20.510225  17.316576  F  F  F
  13.527380   20.438322  16.968903  F  F  F
  10.716954   20.486558  17.286315  F  F  F
  16.368271   20.442874   7.026822  F  F  F
  13.561637   20.442818   6.402999  F  F  F
  10.755476   20.442206   7.027078  F  F  F
  11.835678   11.685698   9.604914  F  F  F
   9.034385   11.685329   9.215063  F  F  F
  15.303987   11.683661   9.626967  F  F  F
  16.304393   11.686608  12.288366  F  F  F
  13.573248   11.697614  11.768545  F  F  F
  10.823401   11.705333  12.211492  F  F  F
  11.817312   11.673789  14.718903  F  F  F
   9.052577   11.704842  14.390092  F  F  F
  15.352411   11.684247  14.906600  F  F  F
  16.325229   11.690864  17.435067  F  F  F
  13.710228   11.759940  17.185601  F  F  F
  10.766771   12.017447  17.052591  F  F  F
  18.035306   20.568917  16.414828  F  F  F
   9.001496   20.621237  16.464678  F  F  F
  18.075740   23.229671  16.424051  F  F  F
   9.025023   23.151721  16.458509  F  F  F
  18.080737    2.955493  16.467381  F  F  F
  17.965292    8.984488  16.716286  F  F  F
   3.543311   10.237542  16.061656  F  F  F
  17.922830   14.934882  16.386014  F  F  F
   3.349145   16.021845  16.142038  F  F  F
   9.024633    3.039640  16.442772  F  F  F
   8.973861    8.784817  16.451141  F  F  F
  11.210784   10.308567  16.322188  F  F  F
   8.930393   14.794011  16.392315  F  F  F
  12.397028   16.061225  16.151260  F  F  F
  18.052677    5.455444  16.505480  F  F  F
   3.503816    7.265346  16.129519  F  F  F
   1.950150   13.437538  16.532961  F  F  F
  17.974037   17.724481  16.490494  F  F  F
  17.974780   11.680879  16.536108  F  F  F
   9.020649    5.660623  16.512197  F  F  F
  12.608808    7.294582  16.066763  F  F  F
  12.516926   13.097794  16.204004  F  F  F
   8.947226   17.650805  16.497027  F  F  F
   8.945299   11.846723  16.422666  F  F  F
   7.911613    9.237525  19.192900  T  T  T
  10.145880   10.396284  18.688223  T  T  T
   9.084933   10.337981  21.054712  T  T  T
  10.648104    8.920787  22.425228  T  T  T
  14.806861    8.426923  19.011307  T  T  T
   2.983856    9.008081  18.389511  T  T  T
  10.580735   13.500515  18.281077  T  T  T
   1.053614   10.588356  18.675460  T  T  T
   9.480198    7.964579  20.562678  T  T  T
  10.564619    7.124133  18.496619  T  T  T
   8.068818    6.788168  18.892553  T  T  T
   8.173831   11.900660  19.292782  T  T  T
   6.553108   10.526959  20.763690  T  T  T
  15.595925    6.139417  19.111899  T  T  T
   1.416627    7.075457  17.977467  T  T  T
   3.158241   11.740505  18.282150  T  T  T
  12.437351    8.938385  18.561795  T  T  T
   3.971531   10.556485  20.291427  T  T  T
   5.404948    9.101311  19.055986  T  T  T
  13.172032    6.504663  18.854543  T  T  T
  11.917540    7.654170  20.623500  T  T  T
   5.613157   11.772763  18.971197  T  T  T
  12.557089   11.475153  18.730048  T  T  T
  11.640007   10.107119  20.619338  T  T  T
   6.820191   13.965157  19.221008  T  T  T
   9.118245   14.392617  19.962741  T  T  T
  10.459700   12.250096  20.310914  T  T  T
   7.857649   16.220921  18.706437  T  T  T
  10.336602   16.132767  18.473010  T  T  T
