Ta  N Ru                                
   1.00000000000000     
    18.1096308199999996    0.0000000000000000    0.0000000000000000
     0.0000000000000000   23.3551997799999995    0.0000000000000000
     0.0000000000000000    0.0000000000000000   30.4818171199999988
   Ta   N    Ru
   216   240    24
Direct
  0.0006690898068397 -0.0001946969033616  0.1954738345554896
  0.3334254327483075  0.0625298749354247  0.2015059800179397
  0.1658612046453094  0.0624956825305942  0.2018531374809089
  0.2497120318997685  0.1252345851237534  0.2770726130049804
  0.0823923209944303  0.0625533443125947  0.2829401597237846
  0.4171900759618317  0.0625904236861577  0.2823782779815092
  0.9993189894203091  0.1250153656422269  0.3685932333885497
  0.3320961571714990  0.0626042732459170  0.3667603133150888
  0.1673478468784591  0.0626356796560443  0.3670242423233170
  0.2496042891490912  0.1237169033701201  0.4545513093609767
  0.0839229759446777  0.0620832634596260  0.4532678762818187
  0.4180310473169858  0.0634343855794813  0.4518457728029057
  0.9958436689612614  0.1261379888657413  0.5399397787860682
  0.0008004840211151  0.1250734141309177  0.1954142879841872
  0.3334280156952589  0.1877096990895605  0.2016791888560958
  0.1658966770408886  0.1876903857073320  0.2019563996946620
  0.2498957089668189  0.2499906002024276  0.2776359764936133
  0.0826645547009510  0.1875735523051771  0.2831522585673545
  0.4170212275695439  0.1875782799491745  0.2826332633988246
  0.9991945246107532  0.2496410899709861  0.3684320457571071
  0.3317605433985688  0.1875683503196872  0.3673044854231116
  0.1677607110778152  0.1876355377579555  0.3676918560051316
  0.2493539654471112  0.2497444799124554  0.4593343668731679
  0.0815449243014939  0.1874809468484773  0.4535909630759000
  0.4180529253817650  0.1864534530598574  0.4522579854086695
  0.0009434157523944  0.2502121884600297  0.1956318502429543
  0.3335041898667183  0.3127250915505146  0.2020062660199696
  0.1659765520155561  0.3127229639514324  0.2022235615836834
  0.2500954505700694  0.3751151649321315  0.2779593832440463
  0.0829053316045406  0.3126022217899017  0.2834694472534559
  0.4171096259671204  0.3125700803264914  0.2830723651935324
  0.0003281811192879  0.3752539648217179  0.3688532472569643
  0.3318361186606070  0.3121342828881962  0.3681648375755378
  0.1682809540805522  0.3121835959613974  0.3683291349447428
  0.2516688009565889  0.3740083319419897  0.4569102387104680
  0.0805161633121859  0.3114536248870602  0.4521726870598983
  0.4193690511460962  0.3109971895825330  0.4518938583697084
  0.9971461561566514  0.3810545520428061  0.5419290291104641
  0.0012296412009469  0.3754592606330111  0.1961008885425391
  0.3336357096433975  0.4378654099284477  0.2022865486522561
  0.1659457054977092  0.4378213648733592  0.2025609621014731
  0.2497229894868737 -0.0000448606013916  0.2768919892651323
  0.0832521655013793  0.4376387814626818  0.2838577190559123
  0.4170176670150078  0.4375870543493198  0.2833072123947584
  0.9996661080567427  0.0003904080593956  0.3684912777792990
  0.3327977922494014  0.4374032349535273  0.3683081264695079
  0.1685036650592864  0.4374561439066257  0.3684008827342416
  0.2510263320107678  0.0005597369378587  0.4534418735547970
  0.0860740186740890  0.4376126492978054  0.4548000852464829
  0.4171804445248267  0.4371951789388054  0.4541354448122840
  0.0010207156376191  0.5004741204835768  0.1965725194731854
  0.3336938253645397  0.5626317391069187  0.2023919897573404
  0.1657759266082124  0.5626239350765789  0.2027011868613705
  0.2499523435085890  0.6252421614034304  0.2782800675705768
  0.0829606434384645  0.5626940190455816  0.2843028197472889
  0.4173556306086426  0.5626160467588418  0.2835524749009636
  0.9996388415102793  0.6253759891082639  0.3702058931190402
  0.3324640851913710  0.5626480466233404  0.3683611550578942
  0.1686095798773787  0.5626474245545799  0.3687336144561498
  0.2506387889256994  0.6247488480700413  0.4561918231450330
  0.0838958459957681  0.5628869577045255  0.4533243344762257
  0.4189712504649963  0.5632107642364617  0.4526152104294672
  0.9863366669556395  0.6171169000220172  0.5453255152570401
  0.0007866941385156  0.6250529901919125  0.1968835238664939
  0.3335624135570415  0.6875087779572282  0.2023719361763132
  0.1656259187002005  0.6875251261977104  0.2026935096155391
  0.2496170891008645  0.7498963866735299  0.2778159789300336
  0.0827857116671056  0.6875671294768899  0.2842933941872486
  0.4171241454002466  0.6875616462744683  0.2833939232667836
  0.9991620725992721  0.7500656459348785  0.3700218689489841
  0.3327231433766734  0.6878871266335282  0.3681395453143579
  0.1676951204004808  0.6877632526170759  0.3687622471565174
  0.2496776572774338  0.7524462020629386  0.4561703979286910
  0.0825659787734393  0.6881492450935539  0.4554771355291664
  0.4159208631252907  0.6885211125793729  0.4544331090771177
  0.0004747619492653  0.7496761610973569  0.1966149246930396
  0.3332909291641609  0.8122605375198875  0.2020689284882081
  0.1657247088334829  0.8123136832734066  0.2024136145924967
  0.2496239206718915  0.8750321260951577  0.2772868028818736
  0.0825233714482938  0.8124118002743764  0.2838262575541078
  0.4172365116141221  0.8124893389683845  0.2829386386502974
  0.9995488444803926  0.8752601367180594  0.3688907115197372
  0.3322110539845453  0.8128244505853333  0.3675493819563273
  0.1677665636692449  0.8126487253149526  0.3683732920717299
  0.2494326582574303  0.8741506109547470  0.4551813084479310
  0.0821705409354328  0.8132196608250678  0.4534650163272811
  0.4183296699585724  0.8136266102786723  0.4529193975142283
  0.0015739545314036  0.8730297356433599  0.5424000441264437
  0.0004518518022245  0.8746437895394981  0.1958935213418616
  0.3334108853330507  0.9374119923434309  0.2016147314895672
  0.1656516997749753  0.9373206046792060  0.2019179392394139
  0.2502585153787158  0.5000842941687801  0.2781866698859681
  0.0825375421383272  0.9374574610408606  0.2830202547848689
  0.4171400910730682  0.9375401681853218  0.2824239901682933
  0.0007127690457576  0.5001197085298305  0.3694555010858835
  0.3325038778744569  0.9376083121891192  0.3667440263717179
  0.1673612771880519  0.9375657504796281  0.3671725625572178
  0.2529333340272895  0.5013177458530063  0.4567410661492490
  0.0827987211973266  0.9377328749082714  0.4529735186086662
  0.4161698293811121  0.9381419240254162  0.4521028330292815
  0.1681559843808723  0.9413285401830929  0.5417974604041619
  0.4993409891429555 -0.0000949841839870  0.1951451835256883
  0.8341167452139051  0.0624152178204285  0.2011937132128400
  0.6664498631585278  0.0624215442623997  0.2009713369262203
  0.7501399207981279  0.1249683318275636  0.2759994230526297
  0.5823578678118617  0.0624879411277836  0.2817394773046883
  0.9177557924495517  0.0625014703733333  0.2821761938201515
  0.5009632880340464  0.1249002425961275  0.3678376552994573
  0.8325367091915372  0.0625068039522899  0.3663978106635694
  0.6679188823692712  0.0624592832700323  0.3660055471962576
  0.7504585817222390  0.1224947216566772  0.4521845344107144
  0.5851450557701240  0.0630366004939186  0.4522426983622422
  0.9144120419179461  0.0623979302611896  0.4531884882315353
  0.4992450454053967  0.1251375435177513  0.1952114587752143
  0.8340009456755481  0.1875929566761749  0.2012718972109154
  0.6664798298173613  0.1876165737780263  0.2009927800190932
  0.7501005039941913  0.2499972499995988  0.2759733385313459
  0.5823186348734536  0.1875253614801274  0.2816224574322020
  0.9176477626932192  0.1875334337202313  0.2821151204845747
  0.5008099922645609  0.2495513762712515  0.3679103291125692
  0.8323659939306960  0.1873894505241090  0.3659925083204147
  0.6673283065311212  0.1873177323127964  0.3657388769036948
  0.7485881320839132  0.2507715123006791  0.4516459535252016
  0.5869457774556893  0.1866192202660431  0.4539773923133310
  0.9128073067634260  0.1881733474534628  0.4534901838329952
  0.4991008429099691  0.2502486291632792  0.1954164380158411
  0.8341681835201685  0.3128311426398951  0.2014260035563388
  0.6665023027863846  0.3127730751508398  0.2011617801535633
  0.7504046579385736  0.3753939098879784  0.2765783863410017
  0.5822600510222109  0.3125862035678236  0.2818625814339161
  0.9179464715248178  0.3126303332276942  0.2823379865165653
  0.5001927563518014  0.3746803345173159  0.3681168042752692
  0.8324813051523574  0.3124909679780840  0.3663196107765105
  0.6673721548394167  0.3123894886225254  0.3660223457665156
  0.7495122970790041  0.3730493161554634  0.4517675224350134
  0.5855204148501043  0.3121436441593501  0.4519585085278899
  0.9145155893669171  0.3121386445575101  0.4526491457074450
  0.4990427379512238  0.3753677570066837  0.1958066031594346
  0.8345569397692829  0.4378038296004357  0.2018038047093268
  0.6663916644251084  0.4378525585207647  0.2014948548516333
  0.7502230048770360 -0.0001646068813717  0.2762257617618747
  0.5823534870420959  0.4376237612180880  0.2822697192553674
  0.9180130618317710  0.4377006876093600  0.2829100491767683
  0.5002685840038540  0.0001411715115963  0.3676568550210043
  0.8326967299902966  0.4376592085180662  0.3669054179779753
  0.6679185194850504  0.4376134811900023  0.3661495747230523
  0.7490837660579260  0.0002072743724609  0.4527558931844791
  0.5829815767579692  0.4373743746591539  0.4518163389135928
  0.9152355845659111  0.4373545040138731  0.4537713129162640
  0.4993025721276346  0.5003168973919336  0.1961105008617925
  0.8345549164196451  0.5626252074055298  0.2021551035258795
  0.6666037851177252  0.5627036032391960  0.2018447676993489
  0.7504993103194966  0.6251257372152008  0.2775596955788234
  0.5822369852826093  0.5625686308458590  0.2827617501547801
  0.9180490845144940  0.5626287370437318  0.2836338964360734
  0.5009483161289144  0.6252485580536243  0.3690134818149116
  0.8327879417091528  0.5624540774715886  0.3681430579631472
  0.6677122314810341  0.5624258398665454  0.3671480457068931
  0.7505027983637985  0.6225109720954594  0.4542122392950094
  0.5868361626171588  0.5615653994116510  0.4545599880257017
  0.9149723974509557  0.5633587052418366  0.4543363470112671
  0.5023641683040104  0.6233017371182306  0.5418411845472226
  0.4994132482999096  0.6249786478978538  0.1961695043418045
  0.8345547030119783  0.6874541367041586  0.2022732087583039
  0.6666105880197325  0.6873863510110818  0.2019423893865444
  0.7504295549631969  0.7497783329100319  0.2773943088190564
  0.5824483858690531  0.6874940176624666  0.2827185505716977
  0.9175806028929639  0.6874455125109599  0.2836952310710368
  0.5003991350630367  0.7502711086908233  0.3685916741345006
  0.8326981890476648  0.6875251825269386  0.3683070084908015
  0.6677962560169177  0.6874748821580392  0.3668882891458773
  0.7500977436868458  0.7511801116406014  0.4534321146118150
  0.5853350999298250  0.6876321970803624  0.4538598076256312
  0.9123923931865848  0.6881799683143500  0.4571701020129851
  0.4995240290995488  0.7497658215199717  0.1959361067956971
  0.8343729703707703  0.8123387965891382  0.2019621913613998
  0.6667744895305432  0.8123105322357054  0.2016286149464631
  0.7503110347284526  0.8750068968817498  0.2767108838587625
  0.5822471016572566  0.8124597245333315  0.2822493500788794
  0.9176566679574116  0.8123901509990415  0.2832576741491729
  0.5002248354775843  0.8753099310608263  0.3678727760196276
  0.8325466632398159  0.8125877558059230  0.3675412033634528
  0.6674678503009981  0.8125859406993523  0.3664325299109311
  0.7484108712506883  0.8759125117595702  0.4531364633583662
  0.5845883632940355  0.8129937128650593  0.4525491833982588
  0.9154543866431986  0.8136536452460859  0.4537016284854167
  0.4971717643185317  0.8770331039986028  0.5405702942748278
  0.4992893287110700  0.8748128159253704  0.1954335845251101
  0.8342332784627379  0.9373019899941355  0.2015480610487273
  0.6665307662126654  0.9373186127610165  0.2011771700372965
  0.7504965157058247  0.5000833495222632  0.2772834454042540
  0.5823895242996707  0.9374725293054077  0.2818589418514502
  0.9176316135043718  0.9374515314210951  0.2825478383880003
  0.5005651378196750  0.5002835704840989  0.3686509811696120
  0.8324791497951969  0.9376198364451919  0.3667083327269588
  0.6675715401450453  0.9376022073922774  0.3660833267274349
  0.7496413290083822  0.4972621448082896  0.4547034908355512
  0.5837235005984676  0.9384938164444708  0.4523059110104356
  0.9150269709012837  0.9383598459736417  0.4533846231804728
  0.8270441494416416  0.9444384442474201  0.5427165430278478
  0.3351185576156067  0.0591510554651556  0.5409518512851831
  0.9990174833027149  0.0041577627055457  0.5415426211023661
  0.6670590370410309  0.0572304014090680  0.5438686684014965
  0.4956236146216724  0.2546083651111152  0.5419280892481425
  0.4980083090636247  0.0050293272108695  0.5404492281289663
  0.5042818857085850  0.7553239524195463  0.5408370591042621
  0.3330785262003382  0.1849780528202137  0.5407597455543948
  0.6663175258125046  0.4301404788415473  0.5407558522139577
  0.3332455633914387  0.3132633868364845  0.5411933348381917
  0.1658868142694579  0.3134563892087692  0.5413429882274904
  0.3435502753691776  0.5657994554634767  0.5440801712847376
  0.1618042709353927  0.5653097621301499  0.5437964201024629
  0.3329319848186011  0.8118939753487805  0.5437650244002008
  0.1672622604544015  0.8121500144723066  0.5426208919214429
  0.8326396565855324  0.3313750486459335  0.5431749708263307
  0.8356689232258425  0.8208382234390122  0.5415903657061210
  0.4058480832428326  0.0000293680675958  0.2305905727838591
  0.2495816508721523 -0.0001051298706887  0.1981266774298227
  0.0937405961549493 -0.0000445986733221  0.2312281161917354
  0.1546335168588927  0.1252077598611672  0.3148779777793357
 -0.0001684061346880  0.1250827206372348  0.3018474718759508
  0.3451072844396632  0.1251519180489238  0.3145079423243909
  0.4015340090729740  0.1250867424413549  0.4000617949521182
  0.2496819034455931  0.1251400598365918  0.3866172664804832
  0.0983691927868647  0.1247837705296840  0.4011380410715727
  0.1510013268761376  0.1241771251023382  0.4846097805179363
  0.9975373529820970  0.1249510197342266  0.4722555686977348
  0.3489821550876109  0.1241072347318999  0.4855878792135420
  0.4039489009900400  0.1224735642241405  0.5676496578801611
  0.2544013029478820  0.1178442689288287  0.5547410853005157
  0.0956062453395127  0.1229992894809321  0.5679012115139989
  0.4057559890305405  0.1250886346003207  0.2306955868436881
  0.2496362944297430  0.1251420503945068  0.1981219797490807
  0.0938635654438693  0.1250781887521356  0.2312652043276952
  0.1547603200064151  0.2500411188503016  0.3153298624386820
 -0.0000723007717337  0.2500025347885278  0.3018144743455234
  0.3451710970788698  0.2500511479689514  0.3150839997580609
  0.4021085389521584  0.2489733017296709  0.4006677682367210
  0.2498760276551769  0.2492902417402621  0.3887946781249172
  0.0980982344253211  0.2495345244146340  0.4010952883224052
  0.1452025968342915  0.2510205455271676  0.4864419538233901
  0.9969287846093295  0.2500171491075293  0.4712739657304875
  0.3536348077528572  0.2487132108407239  0.4857746759131484
  0.3989623559980340  0.2482869400991771  0.5701284807269805
  0.2486564803857493  0.2436295634117748  0.5421111762460733
  0.0812784856278311  0.2610215817597525  0.5694549026878342
  0.4056471009939147  0.2502352745409215  0.2310465467088446
  0.2496844718105875  0.2502333879184141  0.1984735588722830
  0.0940298853765145  0.2502080470405499  0.2315340258068455
  0.1551617128487071  0.3748303283505935  0.3157163345188367
  0.0002648195754785  0.3751164421937283  0.3022163028967212
  0.3453504279243205  0.3747823719671236  0.3154668614030365
  0.4018640073602965  0.3747530355276836  0.4012220651984124
  0.2504682730915735  0.3745738426947246  0.3881722627224704
  0.0991668136179580  0.3751367386343976  0.4016224966445321
  0.1504309628265703  0.3685926233799728  0.4858087870563850
  0.9994846619045451  0.3756778111796137  0.4736761198753046
  0.3528436988125904  0.3691101953488857  0.4859784203126102
  0.4105453772657109  0.3759668396360767  0.5661341428242183
  0.2492343532986878  0.3501228862290297  0.5700119525706342
  0.0950087539801542  0.3772556657472749  0.5678086283855704
  0.4056242880801643  0.3751953887411784  0.2314091558519888
  0.2497677881898840  0.3753438008130996  0.1991060520745694
  0.0943083641881223  0.3752387409929390  0.2319573744464643
  0.1545546774874348  0.0000841013370741  0.3146783766899410
 -0.0001136165109207  0.0000273617546023  0.3018307069489181
  0.3451847735353158  0.0001728116418342  0.3142304340711639
  0.4012818950723001  0.0004993854654461  0.4001737587792961
  0.2499044669182098  0.9999709020120280  0.3859456017749092
  0.0986641008906143  0.0003054209153364  0.4009152829362254
  0.1535324622674207  0.9983147007779757  0.4847796262439846
  0.9992438264203144  0.0005367518518697  0.4733960920038490
  0.3495430267339353  0.0017172637020941  0.4846453468534934
  0.4030847704079422  0.9978166576151160  0.5699020722859902
  0.2564339200676815  0.9964500985911763  0.5579774162429773
  0.0994055691446933  0.0061400543136633  0.5670872079523628
  0.4058158951774901  0.5002586077880214  0.2316423081747484
  0.2497281792748999  0.5002823473630710  0.1991114306706935
  0.0942644830103607  0.5003597877254127  0.2323074253173211
  0.1549550597650813  0.6252040852561022  0.3161580542885413
  0.0001807523920536  0.6251556901574488  0.3033539918293610
  0.3453646602757335  0.6251392709197090  0.3155832803353695
  0.4017284249134824  0.6258698369987806  0.4014951219648571
  0.2504399775439768  0.6256906198054786  0.3882547130394678
  0.0989447554495150  0.6256222031447197  0.4025793379429516
  0.1510981206322387  0.6243766763278789  0.4884275832741506
  0.9970119815309384  0.6250114014336546  0.4754401335354265
  0.3499886152110089  0.6228616597048545  0.4874777916905283
  0.4087862153781834  0.6245802029747766  0.5729629464273752
  0.2518642989811455  0.5710263825193861  0.5749117838292216
  0.0862607614704991  0.6195831047636645  0.5711609508485981
  0.4058432727513220  0.6250242902488022  0.2316647737379609
  0.2496660214847506  0.6250601233885242  0.1995227081503116
  0.0941626253292807  0.6250874649191892  0.2325207207386799
  0.1547609227359233  0.7501651273811463  0.3159440047754189
 -0.0000677466404591  0.7499697150900910  0.3031750509122724
  0.3450859308303126  0.7502724475365438  0.3152709071373310
  0.4014601301663137  0.7506675228432085  0.4014327787653732
  0.2502782821504119  0.7504014980839943  0.3879687953852682
  0.0985687188465721  0.7503715460495736  0.4023856671518944
  0.1503738189461179  0.7525745361111817  0.4886308108673000
  0.9980507329218683  0.7516124875464322  0.4728781939749344
  0.3491985446157798  0.7550832564384465  0.4869116374191981
  0.4104594095374784  0.7567474251870002  0.5714363917297705
  0.2489403522606810  0.7684675527316126  0.5667346603502478
  0.0869848246008349  0.7562938802216004  0.5706834980405993
  0.4058621819109913  0.7498963585829402  0.2313158575031294
  0.2495677616688048  0.7497913693744278  0.1985760434244136
  0.0938382212079301  0.7498859856218796  0.2322477565931768
  0.1545823340346996  0.8748749064516752  0.3152225757692312
 -0.0000681697679290  0.8750232466533705  0.3022589141573528
  0.3451576024278153  0.8748853116406237  0.3146307959793730
  0.4013797093870236  0.8753811422641090  0.4005501010228694
  0.2499875681971394  0.8754135947014147  0.3870170083140363
  0.0984669570825420  0.8751280499254610  0.4014085399068142
  0.1502655990616113  0.8763493511743998  0.4865035073418958
  0.9990443715075722  0.8760775944581722  0.4739721148883603
  0.3495080409256843  0.8750327947786625  0.4847986232041815
  0.4008185445630723  0.8778327020396798  0.5689656540053593
  0.2521458923291994  0.8811218453935300  0.5539814259082876
  0.1003873916208933  0.8792566785867543  0.5700038296639406
  0.4057396066826477  0.8748792074276324  0.2308772225267408
  0.2495644910338474  0.8748387924516936  0.1984564228415342
  0.0936411996664572  0.8746883517640618  0.2316075565693218
  0.1552413892349098  0.5001346714302727  0.3159169027426499
  0.0004428150742505  0.5000477468882836  0.3027876057707834
  0.3456175260953265  0.5001222862350931  0.3156328537308878
  0.4019648130294448  0.4998016990968687  0.4015901682903582
  0.2508770096524757  0.4999801021527092  0.3879913097956132
  0.1001150058280538  0.4997742319548425  0.4019152370393975
  0.1525361630775343  0.5041467957066726  0.4871513782352952
  0.0023121816476677  0.4996513417348107  0.4707530209801686
  0.3541856699528859  0.5048392009958484  0.4867821699893054
  0.4093659628104216  0.5016504554173407  0.5690893657352722
  0.2557362225513627  0.4387779859153762  0.5086408341553298
  0.1079310846918892  0.4954666344539118  0.5717262405656492
  0.9067502793666199 -0.0000959948784681  0.2304714475706508
  0.7503215436544388 -0.0001520096928250  0.1974015959360269
  0.5935872980538990 -0.0000584008256526  0.2299141939151754
  0.6545065594984989  0.1248714752664105  0.3135023310738329
  0.5000426057693351  0.1250384213737169  0.3011821789103046
  0.8454364358930537  0.1249066329891780  0.3137679799535756
  0.8999029617507593  0.1253406723681293  0.4009265061539635
  0.7500006625781562  0.1249406086719058  0.3847694000613215
  0.6005120155802945  0.1251135849110149  0.4005905281042532
  0.6560510386214793  0.1216242608172428  0.4873051320177901
  0.5019967917549967  0.1248554462661632  0.4713422856074418
  0.8457152384602115  0.1240051990170141  0.4853518323924793
  0.8986682107893144  0.1360840199354774  0.5690696181476413
  0.7621696821396747  0.0872945520486812  0.5742102937305505
  0.5919944294546036  0.1226093676790908  0.5688270180111128
  0.9067414392872318  0.1249677619806597  0.2302736518352543
  0.7502597817049381  0.1249915834404771  0.1970610344486455
  0.5935817935073626  0.1249717719035763  0.2298306998724970
  0.6544537135752825  0.2499207997399194  0.3134351215862810
  0.5000067619243223  0.2499536639388189  0.3012614417861748
  0.8454228714180334  0.2499859376213031  0.3137034181847054
  0.8994701695717262  0.2498199798542501  0.4004663647681614
  0.7496493979907592  0.2496976301030609  0.3842359295830441
  0.5998711472770604  0.2491726702118520  0.4003730728650379
  0.6533713015872493  0.2503095481992147  0.4838572988542958
  0.5019597825410291  0.2485724442576677  0.4730440573031894
  0.8430776305026862  0.2538772548592205  0.4854628563821952
  0.8956351304764463  0.2636096516352240  0.5672187831566138
  0.7441340346528263  0.1951114654903947  0.5529645508817709
  0.5963678389244933  0.2523747296133907  0.5699600334087124
  0.9068160504987723  0.2502127835341535  0.2303589652691445
  0.7502953881300131  0.2502620609002297  0.1970177247748182
  0.5935308968823424  0.2501894795123321  0.2298663670991662
  0.6544816198089398  0.3750099817784111  0.3136678591804777
  0.5000028653229746  0.3750752984685048  0.3015397103326379
  0.8457976397744186  0.3751159349537981  0.3141084128863518
  0.9008708934877633  0.3750459820805638  0.4006667388665882
  0.7500089416085576  0.3749023857914597  0.3846863184231036
  0.5995468429760847  0.3748342142632098  0.4000216972284653
  0.6522903679513911  0.3770271598520246  0.4844730984594652
  0.5016166395111040  0.3733442240687950  0.4722757457031068
  0.8471278690336380  0.3722503143244196  0.4833008337235021
  0.8957350300115863  0.3893558274622271  0.5700123276461487
  0.7346942079302006  0.3613721825246841  0.5597572084241665
  0.5905395894290089  0.3721919981801747  0.5704556104457715
  0.9069676549106130  0.3753118099497949  0.2307228635630600
  0.7503645530662998  0.3754673432622249  0.1979218907391147
  0.5936627212135871  0.3752677375972603  0.2301922750111006
  0.6544931627315083  0.0000255359106536  0.3135666928917425
  0.4999601441347499  0.0000582729351405  0.3010719311164191
  0.8456020204367899 -0.0000005827285435  0.3140098088555362
  0.9005285120500460  0.0001661705334531  0.4008489515008107
  0.7500219070799221 -0.0000511937808200  0.3850790692318505
  0.5994935970242619  0.0005168645625030  0.4002443192449084
  0.6517255985114888  0.0024800204588892  0.4854910814123068
  0.5004837119409646  0.0011317635198834  0.4717721144147534
  0.8458040129208834  0.9997220743368554  0.4859096070566726
  0.8980301098371007  0.0043928848203410  0.5692142203769055
  0.7343112124246564  0.9871920023887719  0.5615927609565341
  0.5918504222321405  0.0052863760607641  0.5728160829856301
  0.9068547745937644  0.5003677145823595  0.2314075217616596
  0.7505261720791387  0.5002324404306405  0.1986749109454549
  0.5937707328338029  0.5002851669290068  0.2307080488241232
  0.6545849426629755  0.6248966423873440  0.3145467739985232
  0.5000282767456427  0.6251680152932348  0.3022797229383421
  0.8457921378877117  0.6249650075397362  0.3154989379043278
  0.9001814072254712  0.6256987041007108  0.4030886444722073
  0.7499786227275037  0.6246704728372027  0.3862151196882665
  0.6001291723479906  0.6249824114061958  0.4016779165256299
  0.6541655597873126  0.6252019633364095  0.4862972088643415
  0.5017906768322461  0.6249399213972765  0.4732367469272311
  0.8447259507505576  0.6221484919469309  0.4889573912679600
  0.9103725724315418  0.6506164070879012  0.5807254917949221
  0.7315947577428158  0.5834255889685062  0.5726683433825470
  0.5997577356139265  0.6358329694974266  0.5714381697871558
  0.9066565952646672  0.6250129957730012  0.2318550121521851
  0.7506159814813302  0.6250336304123313  0.1986450376635815
  0.5936859565756625  0.6249817540075762  0.2309111321821760
  0.6546016095300864  0.7500500182863148  0.3142959968414757
  0.4999704723785440  0.7500241521117417  0.3019149806727274
  0.8456462608362462  0.7500258992835298  0.3153258512978876
  0.8995981589522820  0.7502271439363609  0.4028999366158008
  0.7497527809359043  0.7502069591190910  0.3859613252585212
  0.5995762124608892  0.7500990706540942  0.4008557554112573
  0.6541390497648858  0.7515854677490893  0.4842084699678585
  0.5014067926449063  0.7511520596349789  0.4726819800986598
  0.8451562159193049  0.7549920792327635  0.4892204119917175
  0.9071034033422870  0.7663821013582831  0.5733573962403776
  0.7552159748363017  0.7038522057752609  0.5537095418479524
  0.6063619549955128  0.7604214461126405  0.5678917933799990
  0.9065946343337645  0.7498364721379298  0.2316688181588132
  0.7505438794579391  0.7497660207522808  0.1984586102845465
  0.5937630591471161  0.7498407478527390  0.2306636043884320
  0.6544849164557867  0.8749582303728370  0.3138204029687300
  0.4999257087122111  0.8750960408917114  0.3012832986549284
  0.8455395903901727  0.8749130786416189  0.3146167891902616
  0.9004188381973963  0.8755514771678801  0.4015394932369535
  0.7497206619048881  0.8751942850559954  0.3855260355345468
  0.5992031823415583  0.8755145878672728  0.4002028497645413
  0.6504996066172830  0.8769673182641899  0.4832994904924247
  0.5003288494755181  0.8769499973035326  0.4720419817328113
  0.8459267926983375  0.8783641421416454  0.4870827855749268
  0.9017678882992280  0.8833603164396653  0.5683767175121529
  0.7490980230273268  0.8640321031435473  0.5609508351054515
  0.5977328007053817  0.8833217134619022  0.5694895158627965
  0.9067158969760144  0.8747444026153560  0.2310957395086353
  0.7504180683862515  0.8747677836892647  0.1977124860636492
  0.5935770454493284  0.8748478845952300  0.2301434466995725
  0.6544654186635239  0.5002020577363645  0.3142450719172744
  0.4999965206530367  0.4999928520002928  0.3019695580516111
  0.8458975505098932  0.5003316343926031  0.3148719071687221
  0.9013411080154797  0.5003328169423850  0.4014479754540677
  0.7499820776871009  0.4998408185542774  0.3862383210936775
  0.5998640433637502  0.5000952821342797  0.4008623893293335
  0.6509824783283659  0.4953320760380340  0.4857228385036487
  0.5019880521690433  0.5005049937147837  0.4730466780210311
  0.8517923316029994  0.4996470568583214  0.4835509823938196
  0.9378127929936986  0.5392883988143824  0.5468531125052625
  0.7672861615325323  0.4706419724492872  0.5428724686366458
  0.5982943977011463  0.4949355072051603  0.5680238450900041
  0.3395771067699380  0.9381855678172946  0.5355156100716810
  0.4994473338722370  0.1209088641451721  0.5379550500754842
  0.5019232828664122  0.3635191387973540  0.5396544448139693
  0.6497197439907904  0.9417067000793649  0.5396199374954034
  0.1643915811615054  0.0676626713251018  0.5374468896206949
  0.9886226858313722  0.2594310049562564  0.5381564032795125
  0.9954122021708830  0.7614919862377137  0.5402257512316005
  0.0234176560835995  0.4925672757230659  0.5374687372512750
  0.8409133247425388  0.0695767402634994  0.5416634176213999
  0.5017068306788688  0.5047954206401916  0.5405877911745322
  0.1150734124760053  0.1950386458170284  0.5409086775239690
  0.3619643738946022  0.4390274173453668  0.5355355586090174
  0.1540938471616950  0.4358129518703689  0.5351202994427728
  0.3701400058509551  0.6909373916018020  0.5352173975832236
  0.1162467604491158  0.6901770568439920  0.5393888541416718
  0.8446471259423001  0.1969680258743003  0.5396079384460677
  0.6432789727666524  0.1864676903618529  0.5421758440005858
  0.8783572340129261  0.4702363248586795  0.5445813770966822
  0.8570571067290843  0.6997104432781603  0.5469343753962079
  0.6556473202897443  0.6937898921321666  0.5398236408025411
  0.6455930640238543  0.3134564189165329  0.5362545989318874
  0.7843442313659120  0.5534186449438686  0.5316195053162631
  0.6354448164615931  0.5630436386893302  0.5443403531012325
  0.6551694625266293  0.8217790803173254  0.5379840588002526
 
  0.00000000E+00  0.00000000E+00  0.00000000E+00
  0.00000000E+00  0.00000000E+00  0.00000000E+00
  0.00000000E+00  0.00000000E+00  0.00000000E+00
  0.00000000E+00  0.00000000E+00  0.00000000E+00
  0.00000000E+00  0.00000000E+00  0.00000000E+00
  0.00000000E+00  0.00000000E+00  0.00000000E+00
  0.00000000E+00  0.00000000E+00  0.00000000E+00
  0.00000000E+00  0.00000000E+00  0.00000000E+00