Ta N Cu                                 
   1.00000000000000     
    18.1096308199999996    0.0000000000000000    0.0000000000000000
     0.0000000000000000   11.6775998899999998    0.0000000000000000
     0.0000000000000000    0.0000000000000000   23.4818170799999990
   Ta   N    Cu
   120   120     1
Direct
  0.0000790356051933  0.0000895218906314  0.2548253200058443
  0.3334944176937860  0.1250069809138750  0.2637924344060649
  0.1663786839778591  0.1250194434457466  0.2638379882222951
  0.2498287154264000  0.2500388775183682  0.3614624725321103
  0.0825435924885707  0.1250252501324099  0.3685484789371561
  0.4173439411803335  0.1250228061293539  0.3683859517860738
 -0.0000224683021166  0.2501355170824068  0.4798823775863589
  0.3322573834365079  0.1250718051011309  0.4780784905797045
  0.1674211733367907  0.1250702794021402  0.4783969580514930
  0.2496890899805136  0.2502110828282482  0.5911056076172165
  0.0832955640998552  0.1251130597691552  0.5902567948607381
  0.4163553539275462  0.1250916044023349  0.5898496701116782
  0.9991725436824147  0.2494266284882085  0.7017899970383138
  0.3364427815065356  0.1251361705821017  0.7042607297492707
  0.1684857667185065  0.1251098979835504  0.7022403724285169
  0.0000823620085062  0.2499315397247536  0.2548239137835701
  0.3333449047018436  0.3749491476105715  0.2638394593336224
  0.1664697566162448  0.3750136966542017  0.2638661539657806
  0.2498855854683668  0.5000358319825539  0.3614553967588547
  0.0825083832821878  0.3750031229845099  0.3685068832064650
  0.4173530705691155  0.3750149767756598  0.3684020898962465
 -0.0000086633597411  0.5000482236598834  0.4798163656253507
  0.3322722836353071  0.3750468519596398  0.4781671989042885
  0.1675408771575317  0.3750362677169170  0.4783877438697965
  0.2498378914708302  0.5002032621994054  0.5908996890615874
  0.0834927919615883  0.3752730826978040  0.5900622496006340
  0.4162085602929238  0.3750691638806443  0.5897134812525070
  0.0000018504952244  0.5000170364554486  0.7021565971462634
  0.3357232467478237  0.3752621329945265  0.7040684775960864
  0.1654023221186499  0.3768507042440598  0.7048874319392803
  0.0000836173481923  0.4999623638925247  0.2547620654949876
  0.3333761834511166  0.6250086802263030  0.2637816223739258
  0.1664924195080674  0.6250177529146205  0.2638573204548911
  0.2498914659645251  0.7500483479710335  0.3614521192235643
  0.0825131522847322  0.6250242408991225  0.3684838628709700
  0.4173407926454928  0.6250212224236285  0.3683956721835609
  0.9999925977121459  0.7500553186811220  0.4798118188144451
  0.3322908070410018  0.6250694265074953  0.4780893150706368
  0.1675114276515641  0.6250699429833532  0.4782238347513029
  0.2498315057915803  0.7500287352444174  0.5909010960610589
  0.0835355026237117  0.6251142425836574  0.5899847823321858
  0.4163260099238745  0.6250981117861323  0.5898506174469527
  0.9999942597021428  0.7502154865877688  0.7021646682518082
  0.3353235096771233  0.6251093780023737  0.7040015450297550
  0.1642807175208632  0.6251844908255226  0.7043077691315308
  0.0000782086571377  0.7500620443805541  0.2547621700839483
  0.3333543631687721  0.8750663914648419  0.2638408727746445
  0.1664634909566412  0.8750089488922377  0.2638648245994282
  0.2498325802307288  0.0000474588284167  0.3614592940005988
  0.0825075036859951  0.8750318146256705  0.3684989328368345
  0.4173561952421525  0.8750283507566406  0.3684035627446435
  0.9999740728426609  0.9999704071780331  0.4798824355677474
  0.3322721203958125  0.8750874895443572  0.4781690850267147
  0.1675481260487098  0.8751054384480226  0.4783834158236883
  0.2496973501956231 -0.0000045052367525  0.5911040409316516
  0.0834797032790015  0.8749548948301639  0.5900560939804160
  0.4162184040851620  0.8750947751415078  0.5897127858274825
  0.9991896868980497  0.0007732835323259  0.7017947954556645
  0.3357209335508660  0.8750128955808172  0.7040593257816596
  0.1654024647885502  0.8734686258805817  0.7048678958267495
  0.4998627203199660  0.9999867338533029  0.2547163318525060
  0.8334967852330405  0.1250061428889763  0.2637070123138741
  0.6664469821509276  0.1250008317203920  0.2637648042564501
  0.7499183856925929  0.2500373562741250  0.3613397745109617
  0.5823995162985310  0.1250107494826350  0.3683112817402504
  0.9173719938954106  0.1250295285925007  0.3683634556977234
  0.4999086227196303  0.2499860437086742  0.4797973671193885
  0.8323262914666876  0.1250323841425804  0.4779856591668723
  0.6674967233583206  0.1250307243262685  0.4779641712732616
  0.7497963507822518  0.2502354932587342  0.5906465923612473
  0.5835031133735691  0.1250641091391904  0.5898284695398918
  0.9161239025140480  0.1250774754950256  0.5897514829744327
  0.5004403087454607  0.2500056169643440  0.7021912740574405
  0.8345474312081385  0.1250498663551067  0.7035331391446888
  0.6647516130664347  0.1250515709405664  0.7041977917798831
  0.4998623428403752  0.2500069722975434  0.2547145402265358
  0.8334102230938868  0.3750056398068616  0.2637696589179427
  0.6665343715819064  0.3749593907516549  0.2637975254647203
  0.7498875620368565  0.4999902587561613  0.3613633560664606
  0.5823922832567280  0.3750034993264956  0.3683222935311835
  0.9174322655070529  0.3750181393336002  0.3683396588571080
  0.4998989298057384  0.5000179841422411  0.4797772196562264
  0.8322973066714893  0.3750547102063391  0.4780002151800307
  0.6675196942169104  0.3750332344273282  0.4780264889086210
  0.7498546697672102  0.5000259710710988  0.5906557245574825
  0.5835354709565429  0.3750659252433364  0.5897930174357201
  0.9160907382508109  0.3751626253549376  0.5896075174140192
  0.5001560875960547  0.5002466220172732  0.7022240879093896
  0.8349994788631896  0.3749941313011129  0.7038756403527225
  0.6648861775450300  0.3753270344686739  0.7041658954124329
  0.4998712853334996  0.5000454966076184  0.2547212367373136
  0.8334182614601977  0.6250067158943837  0.2637573722012406
  0.6665051975640955  0.6250015832172378  0.2637488147398979
  0.7498860888953346  0.7500354856756537  0.3613626034742443
  0.5824002034465644  0.6250087103999633  0.3683370792841769
  0.9174600709138918  0.6250280942500582  0.3683224144008825
  0.4999039427227942  0.7500475340569999  0.4797754481224397
  0.8323155708859005  0.6250302878517386  0.4779683886448354
  0.6674655177674544  0.6250314127664520  0.4780324350705786
  0.7498587285850693  0.7500812836700641  0.5906565813352347
  0.5834907260315747  0.6250654351568927  0.5898780227140300
  0.9162316947926896  0.6250669500350937  0.5896874737526545
  0.5001423591926597  0.7499181218542899  0.7022329443504844
  0.8351216305396643  0.6250982408194077  0.7041764159049043
  0.6648595167860386  0.6250585064947503  0.7040642055025578
  0.4998728966605998  0.7499557459934436  0.2547217556009452
  0.8334125638520403  0.8750116200726663  0.2637691240137451
  0.6665272136886473  0.8750403293896556  0.2637983420744931
  0.7499134182874718  0.9999866184210328  0.3613393145532626
  0.5823919589221570  0.8750171607934754  0.3683248718009938
  0.9174377077092700  0.8750340775796942  0.3683370212394708
  0.4999116124285259  0.0000923947476926  0.4797969113548923
  0.8322987433766866  0.8750208986267052  0.4779943654741189
  0.6675220686590929  0.8750260333805850  0.4780302425917262
  0.7498009977393378  0.9998592977070823  0.5906465406973530
  0.5835417764155747  0.8750636270198237  0.5897968780127214
  0.9160918614339688  0.8749880614865347  0.5896014557061340
  0.5004425206449018  0.0001587769040683  0.7021993104774761
  0.8350016695876842  0.8751696451488228  0.7038766904725096
  0.6648765008163351  0.8747765438540859  0.7041674465872471
  0.4067888633998055  0.0000152691550462  0.3011910359188827
  0.2499068473680244  0.0000830748072588  0.2577736189511377
  0.0931457414785257  0.0000451685514944  0.3013067667920236
  0.1543506930835717  0.2500243820460739  0.4101277925526522
  0.9999456044724166  0.2500154597560864  0.3931860795400451
  0.3454150604937606  0.2500135688994756  0.4099467339252395
  0.4008732857996725  0.2499938727964244  0.5219598103020143
  0.2498946731498357  0.2498739672603627  0.5030276157167983
  0.0989519446326510  0.2501208765476354  0.5222689469721882
  0.1511630850992073  0.2509512655406877  0.6340648777882565
  0.9996161417773927  0.2504369827017985  0.6131409824845823
  0.3482690265425841  0.2502228849744997  0.6331270079859561
  0.4035046958696794  0.2504644965210169  0.7403889335753780
  0.2505064640299479  0.2496867365505128  0.7240156675308633
  0.0971048153080106  0.2516562842614868  0.7433631699685226
  0.4067896392357245  0.2500037333979277  0.3011881236462496
  0.2499065768542414  0.2499343699015318  0.2577602166321728
  0.0931464750963487  0.2499977009068045  0.3013093419403350
  0.1543478235727018  0.4999757697000467  0.4100653785596733
 -0.0000399992839275  0.5000201756277227  0.3931185403599983
  0.3454820756922740  0.5000320540974867  0.4099253759739601
  0.4008757870777588  0.5000498028209939  0.5219885503268931
  0.2499356293187160  0.5001457249323742  0.5028641961139918
  0.0989711017536685  0.5000531985606960  0.5221861982506339
  0.1515630311610103  0.5001285944567394  0.6334331107727150
  0.9997918402549010  0.5001239926102252  0.6133623225272810
  0.3481646091457864  0.5000398675562649  0.6331950417606115
  0.4030022118934806  0.5004357994679084  0.7402788506224556
  0.2497024732176077  0.4993690579038602  0.7238330515520804
  0.0969761290795429  0.5000934576393071  0.7407802453890725
  0.4067754513221538  0.5000029284067399  0.3011848365700316
  0.2499411789750493  0.5000071182637877  0.2576077539901503
  0.0931268886885466  0.5000056373515542  0.3012721088431679
  0.1543512181053613  0.7501205822246271  0.4100589037293594
  0.9999611964546309  0.7500425610823913  0.3931146652638878
  0.3454829163437692  0.7500616529222787  0.4099275270910707
  0.4008786939763856  0.7501017164367060  0.5219868145452852
  0.2499349295262594  0.7500044546165429  0.5028655224646387
  0.0989691446626352  0.7501238098117895  0.5221835148138840
  0.1515478602772771  0.7501325653089103  0.6334261271992787
  0.9997797521629082  0.7500704415981009  0.6133667553792089
  0.3481630209654372  0.7501765087422263  0.6331903830637806
  0.4029831446145458  0.7498240616080653  0.7402729497868807
  0.2497033424588725  0.7509651984588632  0.7238145429081789
  0.0969759248451430  0.7502653585024801  0.7407790499508436
  0.4067783863975557  0.7500198121691301  0.3011860657466352
  0.2499422734470624  0.7500203388023384  0.2576163562824573
  0.0931257269006645  0.7500283421782790  0.3012690042791297
  0.1543514306739521  0.0000627719700462  0.4101240360185750
  0.9999445213805166  0.0000463130401391  0.3931841226696636
  0.3454149890044012  0.0000749149728818  0.4099489086056347
  0.4008786496499241  0.0001537255668776  0.5219604528015144
  0.2498952713781721  0.0002650359302417  0.5030271333037906
  0.0989491432035560  0.0000510859975006  0.5222645928876852
  0.1511655229277003  0.9993012187593339  0.6340508056291048
  0.9996133899722592  0.9997681729571274  0.6131435075396301
  0.3482793527760846  0.9999749812874248  0.6331267353185211
  0.4034997792854549  0.9997738113395997  0.7403916484039285
  0.2505089479858014  0.0006356398977683  0.7240017371552472
  0.0971157314806021  0.9986004041609258  0.7433655989654311
  0.9068528893527330  0.0000303253505772  0.3011078262860941
  0.7499872865585446  0.0000603491378003  0.2575388064543566
  0.5930096815563087  0.9999971071182939  0.3010881271542584
  0.6543009653793977  0.2500499353735294  0.4098234618631677
  0.4998847593814652  0.2499982954376343  0.3930943567852844
  0.8455190745713174  0.2500658376170725  0.4098112383590705
  0.9007988206475060  0.2500881153096567  0.5218633864458068
  0.7498717731654564  0.2499590836596052  0.5026122594175185
  0.5989606364201250  0.2500688089482219  0.5219550128890978
  0.6515876605585333  0.2500661722493164  0.6331215950215177
  0.4999240545072199  0.2501167589230635  0.6133213860921225
  0.8480380030135101  0.2503575331274038  0.6330092337214236
  0.9031297164746034  0.2495357636749021  0.7400681717953326
  0.7499838319905726  0.2500368484779916  0.7237135589561605
  0.5970805041357271  0.2501459300785501  0.7404322699036819
  0.9068548019225964  0.2500052087300220  0.3011055244467025
  0.7499907076395448  0.2499433483190133  0.2575295278539340
  0.5930088266653281  0.2500105972095663  0.3010868321515950
  0.6542788239693609  0.5000090093555902  0.4098362153229055
  0.4998812677550448  0.5000043994104567  0.3930768616470462
  0.8455372367738798  0.5000114505908145  0.4097964330388429
  0.9008679042831739  0.5001138914747558  0.5218708461495567
  0.7499073768069948  0.5000915016234594  0.5026161092775913
  0.5989259625845306  0.4999993728428881  0.5219762688589085
  0.6516316948552544  0.5000041023863784  0.6331481049079950
  0.4998861138555973  0.4999870886234489  0.6133663489437341
  0.8481273006429551  0.5002627812906197  0.6330013460718139
  0.9031694134986541  0.4998917888404371  0.7401763475658769
  0.7500350501550032  0.5000269945486457  0.7237248500343660
  0.5968856691842317  0.5001623078061445  0.7403688261678133
  0.9068952716053164  0.5000102724907290  0.3010840917973674
  0.7499641085107038  0.5000214341278346  0.2574990088369092
  0.5930142658971922  0.5000130264965001  0.3010966977327562
  0.6542780571321435  0.7500204351079425  0.4098389948993641
  0.4998810725293458  0.7500240648887025  0.3930761308116927
  0.8455390562424648  0.7500422306677520  0.4097939702783328
  0.9008742749799812  0.7499933581903608  0.5218685110825926
  0.7499113436151491  0.7499785958826941  0.5026152664252325
  0.5989260809273561  0.7500852318011908  0.5219784976621702
  0.6516344121944724  0.7501061585065060  0.6331480618364580
  0.4998898891837046  0.7501658837443674  0.6133702378921562
  0.8481306666522370  0.7498857117199993  0.6329994110630901
  0.9031625964187123  0.7503048127054718  0.7401809458614241
  0.7500281267815322  0.7501051040120317  0.7237178695355152
  0.5968721440414297  0.7499512038640818  0.7403690976401553
  0.9068924241617518  0.7500234195531349  0.3010865840177198
  0.7499658848337486  0.7499884590813372  0.2575078397499793
  0.5930140742366146  0.7499903812499944  0.3010997593211495
  0.6543009258674951  0.9999839927402804  0.4098264115223977
  0.4998843662234265  0.0000347125456510  0.3930939519695608
  0.8455199487896808  0.9999852368615151  0.4098085648179232
  0.9007992855391899  0.0000195350751430  0.5218629939225511
  0.7498746888566816  0.0000930055626761  0.5026125705032014
  0.5989611345304101  0.0000152167610997  0.5219569413951219
  0.6515919584829988  0.0000452241968238  0.6331237663292083
  0.4999309449458034  0.0000312144184902  0.6133283559654498
  0.8480409171099550  0.9997850500926295  0.6330135766217935
  0.9031393614964549  0.0006388333408747  0.7400844528157636
  0.7499836213537155  0.0000746672347748  0.7237143994659870
  0.5970819910044350  0.9999700557983896  0.7404399067151977
  0.0705379634430385  0.1251582514391471  0.7918914529795970
 
  0.00000000E+00  0.00000000E+00  0.00000000E+00
  0.00000000E+00  0.00000000E+00  0.00000000E+00
  0.00000000E+00  0.00000000E+00  0.00000000E+00
  0.00000000E+00  0.00000000E+00  0.00000000E+00
  0.00000000E+00  0.00000000E+00  0.00000000E+00
  0.00000000E+00  0.00000000E+00  0.00000000E+00
  0.00000000E+00  0.00000000E+00  0.00000000E+00
  0.00000000E+00  0.00000000E+00  0.00000000E+00
  0.00000000E+00  0.00000000E+00  0.00000000E+00
  0.00000000E+00  0.00000000E+00  0.00000000E+00
  0.00000000E+00  0.00000000E+00  0.00000000E+00
  0.00000000E+00  0.00000000E+00  0.00000000E+00
  0.00000000E+00  0.00000000E+00  0.00000000E+00
  0.00000000E+00  0.00000000E+00  0.00000000E+00
  0.00000000E+00  0.00000000E+00  0.00000000E+00
  0.00000000E+00  0.00000000E+00  0.00000000E+00
  0.00000000E+00  0.00000000E+00  0.00000000E+00
  0.00000000E+00  0.00000000E+00  0.00000000E+00
  0.00000000E+00  0.00000000E+00  0.00000000E+00
  0.00000000E+00  0.00000000E+00  0.00000000E+00
  0.00000000E+00  0.00000000E+00  0.00000000E+00
  0.00000000E+00  0.00000000E+00  0.00000000E+00
  0.00000000E+00  0.00000000E+00  0.00000000E+00
  0.00000000E+00  0.00000000E+00  0.00000000E+00
  0.00000000E+00  0.00000000E+00  0.00000000E+00
  0.00000000E+00  0.00000000E+00  0.00000000E+00
  0.00000000E+00  0.00000000E+00  0.00000000E+00
  0.00000000E+00  0.00000000E+00  0.00000000E+00
  0.00000000E+00  0.00000000E+00  0.00000000E+00
  0.00000000E+00  0.00000000E+00  0.00000000E+00
  0.00000000E+00  0.00000000E+00  0.00000000E+00
  0.00000000E+00  0.00000000E+00  0.00000000E+00
  0.00000000E+00  0.00000000E+00  0.00000000E+00
  0.00000000E+00  0.00000000E+00  0.00000000E+00
  0.00000000E+00  0.00000000E+00  0.00000000E+00
  0.00000000E+00  0.00000000E+00  0.00000000E+00
  0.00000000E+00  0.00000000E+00  0.00000000E+00
  0.00000000E+00  0.00000000E+00  0.00000000E+00
  0.00000000E+00  0.00000000E+00  0.00000000E+00
  0.00000000E+00  0.00000000E+00  0.00000000E+00
  0.00000000E+00  0.00000000E+00  0.00000000E+00
  0.00000000E+00  0.00000000E+00  0.00000000E+00
  0.00000000E+00  0.00000000E+00  0.00000000E+00
  0.00000000E+00  0.00000000E+00  0.00000000E+00
  0.00000000E+00  0.00000000E+00  0.00000000E+00
  0.00000000E+00  0.00000000E+00  0.00000000E+00
  0.00000000E+00  0.00000000E+00  0.00000000E+00
  0.00000000E+00  0.00000000E+00  0.00000000E+00
  0.00000000E+00  0.00000000E+00  0.00000000E+00
  0.00000000E+00  0.00000000E+00  0.00000000E+00
  0.00000000E+00  0.00000000E+00  0.00000000E+00
  0.00000000E+00  0.00000000E+00  0.00000000E+00
  0.00000000E+00  0.00000000E+00  0.00000000E+00
  0.00000000E+00  0.00000000E+00  0.00000000E+00
  0.00000000E+00  0.00000000E+00  0.00000000E+00
  0.00000000E+00  0.00000000E+00  0.00000000E+00
  0.00000000E+00  0.00000000E+00  0.00000000E+00
  0.00000000E+00  0.00000000E+00  0.00000000E+00
  0.00000000E+00  0.00000000E+00  0.00000000E+00
  0.00000000E+00  0.00000000E+00  0.00000000E+00
  0.00000000E+00  0.00000000E+00  0.00000000E+00
  0.00000000E+00  0.00000000E+00  0.00000000E+00
  0.00000000E+00  0.00000000E+00  0.00000000E+00
  0.00000000E+00  0.00000000E+00  0.00000000E+00
  0.00000000E+00  0.00000000E+00  0.00000000E+00
  0.00000000E+00  0.00000000E+00  0.00000000E+00
  0.00000000E+00  0.00000000E+00  0.00000000E+00
  0.00000000E+00  0.00000000E+00  0.00000000E+00
  0.00000000E+00  0.00000000E+00  0.00000000E+00
  0.00000000E+00  0.00000000E+00  0.00000000E+00
  0.00000000E+00  0.00000000E+00  0.00000000E+00
  0.00000000E+00  0.00000000E+00  0.00000000E+00
  0.00000000E+00  0.00000000E+00  0.00000000E+00
  0.00000000E+00  0.00000000E+00  0.00000000E+00
  0.00000000E+00  0.00000000E+00  0.00000000E+00
  0.00000000E+00  0.00000000E+00  0.00000000E+00
  0.00000000E+00  0.00000000E+00  0.00000000E+00
  0.00000000E+00  0.00000000E+00  0.00000000E+00
  0.00000000E+00  0.00000000E+00  0.00000000E+00
  0.00000000E+00  0.00000000E+00  0.00000000E+00
  0.00000000E+00  0.00000000E+00  0.00000000E+00
  0.00000000E+00  0.00000000E+00  0.00000000E+00
  0.00000000E+00  0.00000000E+00  0.00000000E+00
  0.00000000E+00  0.00000000E+00  0.00000000E+00
  0.00000000E+00  0.00000000E+00  0.00000000E+00
  0.00000000E+00  0.00000000E+00  0.00000000E+00
  0.00000000E+00  0.00000000E+00  0.00000000E+00
  0.00000000E+00  0.00000000E+00  0.00000000E+00
  0.00000000E+00  0.00000000E+00  0.00000000E+00
  0.00000000E+00  0.00000000E+00  0.00000000E+00
  0.00000000E+00  0.00000000E+00  0.00000000E+00
  0.00000000E+00  0.00000000E+00  0.00000000E+00
  0.00000000E+00  0.00000000E+00  0.00000000E+00
  0.00000000E+00  0.00000000E+00  0.00000000E+00
  0.00000000E+00  0.00000000E+00  0.00000000E+00
  0.00000000E+00  0.00000000E+00  0.00000000E+00
  0.00000000E+00  0.00000000E+00  0.00000000E+00
  0.00000000E+00  0.00000000E+00  0.00000000E+00
  0.00000000E+00  0.00000000E+00  0.00000000E+00
  0.00000000E+00  0.00000000E+00  0.00000000E+00
  0.00000000E+00  0.00000000E+00  0.00000000E+00
  0.00000000E+00  0.00000000E+00  0.00000000E+00
  0.00000000E+00  0.00000000E+00  0.00000000E+00
  0.00000000E+00  0.00000000E+00  0.00000000E+00
  0.00000000E+00  0.00000000E+00  0.00000000E+00
  0.00000000E+00  0.00000000E+00  0.00000000E+00
  0.00000000E+00  0.00000000E+00  0.00000000E+00
  0.00000000E+00  0.00000000E+00  0.00000000E+00
  0.00000000E+00  0.00000000E+00  0.00000000E+00
  0.00000000E+00  0.00000000E+00  0.00000000E+00
  0.00000000E+00  0.00000000E+00  0.00000000E+00
  0.00000000E+00  0.00000000E+00  0.00000000E+00
  0.00000000E+00  0.00000000E+00  0.00000000E+00
  0.00000000E+00  0.00000000E+00  0.00000000E+00
  0.00000000E+00  0.00000000E+00  0.00000000E+00
  0.00000000E+00  0.00000000E+00  0.00000000E+00
  0.00000000E+00  0.00000000E+00  0.00000000E+00
  0.00000000E+00  0.00000000E+00  0.00000000E+00
  0.00000000E+00  0.00000000E+00  0.00000000E+00
  0.00000000E+00  0.00000000E+00  0.00000000E+00
  0.00000000E+00  0.00000000E+00  0.00000000E+00
  0.00000000E+00  0.00000000E+00  0.00000000E+00
  0.00000000E+00  0.00000000E+00  0.00000000E+00
  0.00000000E+00  0.00000000E+00  0.00000000E+00
  0.00000000E+00  0.00000000E+00  0.00000000E+00
  0.00000000E+00  0.00000000E+00  0.00000000E+00
  0.00000000E+00  0.00000000E+00  0.00000000E+00
  0.00000000E+00  0.00000000E+00  0.00000000E+00
  0.00000000E+00  0.00000000E+00  0.00000000E+00
  0.00000000E+00  0.00000000E+00  0.00000000E+00
  0.00000000E+00  0.00000000E+00  0.00000000E+00
  0.00000000E+00  0.00000000E+00  0.00000000E+00
  0.00000000E+00  0.00000000E+00  0.00000000E+00
  0.00000000E+00  0.00000000E+00  0.00000000E+00
  0.00000000E+00  0.00000000E+00  0.00000000E+00
  0.00000000E+00  0.00000000E+00  0.00000000E+00
  0.00000000E+00  0.00000000E+00  0.00000000E+00
  0.00000000E+00  0.00000000E+00  0.00000000E+00
  0.00000000E+00  0.00000000E+00  0.00000000E+00
  0.00000000E+00  0.00000000E+00  0.00000000E+00
  0.00000000E+00  0.00000000E+00  0.00000000E+00
  0.00000000E+00  0.00000000E+00  0.00000000E+00
  0.00000000E+00  0.00000000E+00  0.00000000E+00
  0.00000000E+00  0.00000000E+00  0.00000000E+00
  0.00000000E+00  0.00000000E+00  0.00000000E+00
  0.00000000E+00  0.00000000E+00  0.00000000E+00
  0.00000000E+00  0.00000000E+00  0.00000000E+00
  0.00000000E+00  0.00000000E+00  0.00000000E+00
  0.00000000E+00  0.00000000E+00  0.00000000E+00
  0.00000000E+00  0.00000000E+00  0.00000000E+00
  0.00000000E+00  0.00000000E+00  0.00000000E+00
  0.00000000E+00  0.00000000E+00  0.00000000E+00
  0.00000000E+00  0.00000000E+00  0.00000000E+00
  0.00000000E+00  0.00000000E+00  0.00000000E+00
  0.00000000E+00  0.00000000E+00  0.00000000E+00
  0.00000000E+00  0.00000000E+00  0.00000000E+00
  0.00000000E+00  0.00000000E+00  0.00000000E+00
  0.00000000E+00  0.00000000E+00  0.00000000E+00
  0.00000000E+00  0.00000000E+00  0.00000000E+00
  0.00000000E+00  0.00000000E+00  0.00000000E+00
  0.00000000E+00  0.00000000E+00  0.00000000E+00
  0.00000000E+00  0.00000000E+00  0.00000000E+00
  0.00000000E+00  0.00000000E+00  0.00000000E+00
  0.00000000E+00  0.00000000E+00  0.00000000E+00
  0.00000000E+00  0.00000000E+00  0.00000000E+00
  0.00000000E+00  0.00000000E+00  0.00000000E+00
  0.00000000E+00  0.00000000E+00  0.00000000E+00
  0.00000000E+00  0.00000000E+00  0.00000000E+00
  0.00000000E+00  0.00000000E+00  0.00000000E+00
  0.00000000E+00  0.00000000E+00  0.00000000E+00
  0.00000000E+00  0.00000000E+00  0.00000000E+00
  0.00000000E+00  0.00000000E+00  0.00000000E+00
  0.00000000E+00  0.00000000E+00  0.00000000E+00
  0.00000000E+00  0.00000000E+00  0.00000000E+00
  0.00000000E+00  0.00000000E+00  0.00000000E+00
  0.00000000E+00  0.00000000E+00  0.00000000E+00
  0.00000000E+00  0.00000000E+00  0.00000000E+00
  0.00000000E+00  0.00000000E+00  0.00000000E+00
  0.00000000E+00  0.00000000E+00  0.00000000E+00
  0.00000000E+00  0.00000000E+00  0.00000000E+00
  0.00000000E+00  0.00000000E+00  0.00000000E+00
  0.00000000E+00  0.00000000E+00  0.00000000E+00
  0.00000000E+00  0.00000000E+00  0.00000000E+00
  0.00000000E+00  0.00000000E+00  0.00000000E+00
  0.00000000E+00  0.00000000E+00  0.00000000E+00
  0.00000000E+00  0.00000000E+00  0.00000000E+00
  0.00000000E+00  0.00000000E+00  0.00000000E+00
  0.00000000E+00  0.00000000E+00  0.00000000E+00
  0.00000000E+00  0.00000000E+00  0.00000000E+00
  0.00000000E+00  0.00000000E+00  0.00000000E+00
  0.00000000E+00  0.00000000E+00  0.00000000E+00
  0.00000000E+00  0.00000000E+00  0.00000000E+00
  0.00000000E+00  0.00000000E+00  0.00000000E+00
  0.00000000E+00  0.00000000E+00  0.00000000E+00
  0.00000000E+00  0.00000000E+00  0.00000000E+00
  0.00000000E+00  0.00000000E+00  0.00000000E+00
  0.00000000E+00  0.00000000E+00  0.00000000E+00
  0.00000000E+00  0.00000000E+00  0.00000000E+00
  0.00000000E+00  0.00000000E+00  0.00000000E+00
  0.00000000E+00  0.00000000E+00  0.00000000E+00
  0.00000000E+00  0.00000000E+00  0.00000000E+00
  0.00000000E+00  0.00000000E+00  0.00000000E+00
  0.00000000E+00  0.00000000E+00  0.00000000E+00
  0.00000000E+00  0.00000000E+00  0.00000000E+00
  0.00000000E+00  0.00000000E+00  0.00000000E+00
  0.00000000E+00  0.00000000E+00  0.00000000E+00
  0.00000000E+00  0.00000000E+00  0.00000000E+00
  0.00000000E+00  0.00000000E+00  0.00000000E+00
  0.00000000E+00  0.00000000E+00  0.00000000E+00
  0.00000000E+00  0.00000000E+00  0.00000000E+00
  0.00000000E+00  0.00000000E+00  0.00000000E+00
  0.00000000E+00  0.00000000E+00  0.00000000E+00
  0.00000000E+00  0.00000000E+00  0.00000000E+00
  0.00000000E+00  0.00000000E+00  0.00000000E+00
  0.00000000E+00  0.00000000E+00  0.00000000E+00
  0.00000000E+00  0.00000000E+00  0.00000000E+00
  0.00000000E+00  0.00000000E+00  0.00000000E+00
  0.00000000E+00  0.00000000E+00  0.00000000E+00
  0.00000000E+00  0.00000000E+00  0.00000000E+00
  0.00000000E+00  0.00000000E+00  0.00000000E+00
  0.00000000E+00  0.00000000E+00  0.00000000E+00
  0.00000000E+00  0.00000000E+00  0.00000000E+00
  0.00000000E+00  0.00000000E+00  0.00000000E+00
  0.00000000E+00  0.00000000E+00  0.00000000E+00
  0.00000000E+00  0.00000000E+00  0.00000000E+00
  0.00000000E+00  0.00000000E+00  0.00000000E+00
  0.00000000E+00  0.00000000E+00  0.00000000E+00
  0.00000000E+00  0.00000000E+00  0.00000000E+00
  0.00000000E+00  0.00000000E+00  0.00000000E+00
  0.00000000E+00  0.00000000E+00  0.00000000E+00
  0.00000000E+00  0.00000000E+00  0.00000000E+00
  0.00000000E+00  0.00000000E+00  0.00000000E+00
  0.00000000E+00  0.00000000E+00  0.00000000E+00
  0.00000000E+00  0.00000000E+00  0.00000000E+00
  0.00000000E+00  0.00000000E+00  0.00000000E+00
  0.00000000E+00  0.00000000E+00  0.00000000E+00
  0.00000000E+00  0.00000000E+00  0.00000000E+00
  0.00000000E+00  0.00000000E+00  0.00000000E+00
  0.00000000E+00  0.00000000E+00  0.00000000E+00
  0.00000000E+00  0.00000000E+00  0.00000000E+00
  0.00000000E+00  0.00000000E+00  0.00000000E+00
