Ta  N Cu                                
   1.00000000000000     
    10.4555999800000006    0.0000000000000000    0.0000000000000000
     0.0000000000000000   11.6775998899999998    0.0000000000000000
     0.0000000000000000    0.0000000000000000   24.0732377500000005
   Ta   N    Cu
    64    64     2
Selective dynamics
Direct
  0.4991785186325330  0.1250000003211298  0.3753726828051569   F   F   F
  0.2600588226580172  0.1250000003211298  0.3190980514078845   F   F   F
  0.2470962603561304  0.0000000000000000  0.4358978840493251   F   F   F
  0.2478401259955121  0.1249464752532930  0.5618610953490785   T   T   T
  0.9983070899823088  0.1249908287507398  0.5004760397092229   T   T   T
  0.9971998715300857  0.9995006674933267  0.6262962906806205   T   T   T
  0.5062966319768262  0.1255894019470352  0.7453845135496443   T   T   T
  0.2515805361669625  0.1238342495780170  0.6870599637312398   T   T   T
  0.4991785186325330  0.3750000001070433  0.3753726828051569   F   F   F
  0.2600588226580172  0.3750000001070433  0.3190980514078845   F   F   F
  0.2470962603561304  0.2499999997859135  0.4358978840493251   F   F   F
  0.2478579285918207  0.3750346866687745  0.5618724569847642   T   T   T
  0.9983176241049364  0.3750142885454844  0.5004780435541384   T   T   T
  0.9970065620560503  0.2500175891847377  0.6266243821476949   T   T   T
  0.5062269560104899  0.3743842711875076  0.7453639824640541   T   T   T
  0.2515015996349436  0.3761895264280101  0.6870478644864764   T   T   T
  0.4991785186325330  0.6249999998929567  0.3753726828051569   F   F   F
  0.2600588226580172  0.6249999998929567  0.3190980514078845   F   F   F
  0.2470962603561304  0.5000000004281731  0.4358978840493251   F   F   F
  0.2483201152766573  0.6250448582813410  0.5615891339546327   T   T   T
  0.9982670018751004  0.6250178369967807  0.5005032743312132   T   T   T
  0.9971946560803157  0.5004994987500668  0.6262888079974138   T   T   T
  0.5108084697199223  0.6241066990411533  0.7435619335928793   T   T   T
  0.2495971993176556  0.6253860105072325  0.6867484620089404   T   T   T
  0.4991785186325330  0.8750000005352163  0.3753726828051569   F   F   F
  0.2600588226580172  0.8750000005352163  0.3190980514078845   F   F   F
  0.2470962603561304  0.7500000002140865  0.4358978840493251   F   F   F
  0.2483117447899713  0.8749667874544624  0.5615935411709029   T   T   T
  0.9982854326350170  0.8749848940388704  0.5005112388003574   T   T   T
  0.9971162671405160  0.7499988435039705  0.6264159581102866   T   T   T
  0.5106986970841007  0.8757538840074518  0.7434890471777116   T   T   T
  0.2495250810180367  0.8746284054085939  0.6867414576938237   T   T   T
  0.9991784928090510  0.1250000003211298  0.3753726828051569   F   F   F
  0.7600587968345351  0.1250000003211298  0.3190980514078845   F   F   F
  0.7470962345326484  0.0000000000000000  0.4358978840493251   F   F   F
  0.7487092683367592  0.1250863259243286  0.5617915007520224   T   T   T
  0.4984683220501647  0.1249309701670287  0.5004392156263716   T   T   T
  0.4977926240470290  0.9987725771979077  0.6257144182459717   T   T   T
  0.0095950039297442  0.1232279693222653  0.7432650386795234   T   T   T
  0.7485215841500630  0.1248761828981509  0.6871409227274766   T   T   T
  0.9991784928090510  0.3750000001070433  0.3753726828051569   F   F   F
  0.7600587968345351  0.3750000001070433  0.3190980514078845   F   F   F
  0.7470962345326484  0.2499999997859135  0.4358978840493251   F   F   F
  0.7486631110535455  0.3749042480562783  0.5618096814549401   T   T   T
  0.4984852062764511  0.3750621973611274  0.5004392543813380   T   T   T
  0.4984002038555679  0.2499774608483386  0.6247001110019533   T   T   T
  0.0095659982305858  0.3768229180597621  0.7432831716766221   T   T   T
  0.7485641987694316  0.3751084217785454  0.6871634262913056   T   T   T
  0.9991784928090510  0.6249999998929567  0.3753726828051569   F   F   F
  0.7600587968345351  0.6249999998929567  0.3190980514078845   F   F   F
  0.7470962345326484  0.5000000004281731  0.4358978840493251   F   F   F
  0.7484714547499141  0.6250110031509722  0.5617902730600458   T   T   T
  0.4985502889807196  0.6250486307729147  0.5004889023155814   T   T   T
  0.4977869014341129  0.5013158484508717  0.6256932850488722   T   T   T
  0.0105394176985793  0.6247932818215680  0.7433044449993603   T   T   T
  0.7486500634051529  0.6250197300636238  0.6868171066753235   T   T   T
  0.9991784928090439  0.8750000005352163  0.3753726828051569   F   F   F
  0.7600587968345351  0.8750000005352163  0.3190980514078845   F   F   F
  0.7470962345326484  0.7500000002140865  0.4358978840493251   F   F   F
  0.7484313669001684  0.8749871977833812  0.5617965255821213   T   T   T
  0.4985641462773080  0.8749867719642972  0.5004957490157255   T   T   T
  0.4974026977694083  0.7499336931848906  0.6260534915921214   T   T   T
  0.0104625833438596  0.8751654754931275  0.7432952753349320   T   T   T
  0.7487333538606593  0.8749972232065191  0.6868684283210824   T   T   T
  0.1472195596423447  0.0000000000000000  0.3601606351366584   F   F   F
  0.4003222342624682  0.0000000000000000  0.3237632067519129   F   F   F
  0.4439214822817661  0.0000000000000000  0.4377276028165085   F   F   F
  0.4002923136287453  0.0000460081958961  0.5516608879541112   T   T   T
  0.1504911830070378  0.9999345255680778  0.5102836857806848   T   T   T
  0.1943184724060146  0.9996436814598388  0.6246392067438203   T   T   T
  0.1507702265965503  0.9995694861490944  0.7384706586875548   T   T   T
  0.3991746263121961  0.9995256058896969  0.7010240601825338   T   T   T
  0.1472195596423447  0.2499999997859135  0.3601606351366584   F   F   F
  0.4003222342624682  0.2499999997859135  0.3237632067519129   F   F   F
  0.4439214822817661  0.2499999997859135  0.4377276028165085   F   F   F
  0.3995019146143720  0.2499649331762575  0.5512418174784939   T   T   T
  0.1504957086746211  0.2499902925715521  0.5102625044178746   T   T   T
  0.1936409927939661  0.2499752405285860  0.6249730145559393   T   T   T
  0.1535193650340134  0.2499952003797448  0.7410179240625790   T   T   T
  0.4002766488190808  0.2499943047566349  0.6973072401632180   T   T   T
  0.1472195596423447  0.5000000004281731  0.3601606351366584   F   F   F
  0.4003222342624682  0.5000000004281731  0.3237632067519129   F   F   F
  0.4439214822817661  0.5000000004281731  0.4377276028165085   F   F   F
  0.4002751576274000  0.4999718306772855  0.5516517524695829   T   T   T
  0.1504909326562117  0.5000704989405840  0.5102809214227272   T   T   T
  0.1943042724329098  0.5003843396362071  0.6246469742121209   T   T   T
  0.1508054587284854  0.5004658541892528  0.7384771825827595   T   T   T
  0.3992170592897165  0.5004624116190439  0.7010220726210711   T   T   T
  0.1472195596423447  0.7500000002140865  0.3601606351366584   F   F   F
  0.4003222342624682  0.7500000002140865  0.3237632067519129   F   F   F
  0.4439214822817661  0.7500000002140865  0.4377276028165085   F   F   F
  0.4003907152592034  0.7500120087840303  0.5517652604944987   T   T   T
  0.1504418068330570  0.7499983021037945  0.5102477491709482   T   T   T
  0.1941326653626212  0.7499914812828727  0.6244490963633827   T   T   T
  0.1504532441406870  0.7500166101389385  0.7380006291254064   T   T   T
  0.3989442826037084  0.7500112151138650  0.7019973290057906   T   T   T
  0.6472195338188556  0.0000000000000000  0.3601606351366584   F   F   F
  0.9003222591295312  0.0000000000000000  0.3237632067519129   F   F   F
  0.9439215071488221  0.0000000000000000  0.4377276028165085   F   F   F
  0.9006941088691267  0.9999549770857810  0.5519114191087026   T   T   T
  0.6506907289333634  0.0000115689743675  0.5103504560651184   T   T   T
  0.6944445782349015  0.0001262714492563  0.6244748497250671   T   T   T
  0.6500936869379781  0.0013382808987291  0.7388021945558435   T   T   T
  0.8969435925670870  0.9997340074925697  0.7016420574671866   T   T   T
  0.6472195338188556  0.2499999997859135  0.3601606351366584   F   F   F
  0.9003222591295312  0.2499999997859135  0.3237632067519129   F   F   F
  0.9439215071488221  0.2499999997859135  0.4377276028165085   F   F   F
  0.9008996650342236  0.2500107626853311  0.5519093153839988   T   T   T
  0.6505520570365405  0.2499899378946347  0.5103033052925612   T   T   T
  0.6952700026801789  0.2499881308388777  0.6243787263886899   T   T   T
  0.6494073877844984  0.2500028323107364  0.7380274913707752   T   T   T
  0.8971004023464463  0.2499714664005560  0.7019278195758663   T   T   T
  0.6472195338188556  0.5000000004281731  0.3601606351366584   F   F   F
  0.9003222591295312  0.5000000004281731  0.3237632067519129   F   F   F
  0.9439215071488221  0.5000000004281731  0.4377276028165085   F   F   F
  0.9006892504494322  0.5000291852796364  0.5519078423787549   T   T   T
  0.6506901128613981  0.4999926250665028  0.5103467029650820   T   T   T
  0.6944715406865648  0.4998589751876378  0.6244772499884625   T   T   T
  0.6500396698157586  0.4987629993705652  0.7387510147657439   T   T   T
  0.8969597473796023  0.5003205184069613  0.7016505243984255   T   T   T
  0.6472195338188556  0.7500000002140865  0.3601606351366584   F   F   F
  0.9003222591295312  0.7500000002140865  0.3237632067519129   F   F   F
  0.9439215071488221  0.7500000002140865  0.4377276028165085   F   F   F
  0.9006487969856394  0.7500131361596641  0.5519394221670765   T   T   T
  0.6506779034410718  0.7500131343593612  0.5103506369126659   T   T   T
  0.6943427884872189  0.7499962460524817  0.6246249006822927   T   T   T
  0.6504182244640262  0.7499527078150050  0.7386043310342189   T   T   T
  0.8972154807799022  0.7499844813979635  0.7021754873713558   T   T   T
  0.2926825835563259  0.2501389343586771  0.7929194845843909   T   T   T
  0.4867542921229162  0.2504036132806498  0.8384331426413610   T   T   T
 
  0.00000000E+00  0.00000000E+00  0.00000000E+00
  0.00000000E+00  0.00000000E+00  0.00000000E+00
  0.00000000E+00  0.00000000E+00  0.00000000E+00
  0.00000000E+00  0.00000000E+00  0.00000000E+00
  0.00000000E+00  0.00000000E+00  0.00000000E+00
  0.00000000E+00  0.00000000E+00  0.00000000E+00
  0.00000000E+00  0.00000000E+00  0.00000000E+00
  0.00000000E+00  0.00000000E+00  0.00000000E+00
  0.00000000E+00  0.00000000E+00  0.00000000E+00
  0.00000000E+00  0.00000000E+00  0.00000000E+00
  0.00000000E+00  0.00000000E+00  0.00000000E+00
  0.00000000E+00  0.00000000E+00  0.00000000E+00
  0.00000000E+00  0.00000000E+00  0.00000000E+00
  0.00000000E+00  0.00000000E+00  0.00000000E+00
  0.00000000E+00  0.00000000E+00  0.00000000E+00
  0.00000000E+00  0.00000000E+00  0.00000000E+00
  0.00000000E+00  0.00000000E+00  0.00000000E+00
  0.00000000E+00  0.00000000E+00  0.00000000E+00
  0.00000000E+00  0.00000000E+00  0.00000000E+00
  0.00000000E+00  0.00000000E+00  0.00000000E+00
  0.00000000E+00  0.00000000E+00  0.00000000E+00
  0.00000000E+00  0.00000000E+00  0.00000000E+00
  0.00000000E+00  0.00000000E+00  0.00000000E+00
  0.00000000E+00  0.00000000E+00  0.00000000E+00
  0.00000000E+00  0.00000000E+00  0.00000000E+00
  0.00000000E+00  0.00000000E+00  0.00000000E+00
  0.00000000E+00  0.00000000E+00  0.00000000E+00
  0.00000000E+00  0.00000000E+00  0.00000000E+00
  0.00000000E+00  0.00000000E+00  0.00000000E+00
  0.00000000E+00  0.00000000E+00  0.00000000E+00
  0.00000000E+00  0.00000000E+00  0.00000000E+00
  0.00000000E+00  0.00000000E+00  0.00000000E+00
  0.00000000E+00  0.00000000E+00  0.00000000E+00
  0.00000000E+00  0.00000000E+00  0.00000000E+00
  0.00000000E+00  0.00000000E+00  0.00000000E+00
  0.00000000E+00  0.00000000E+00  0.00000000E+00
  0.00000000E+00  0.00000000E+00  0.00000000E+00
  0.00000000E+00  0.00000000E+00  0.00000000E+00
  0.00000000E+00  0.00000000E+00  0.00000000E+00
  0.00000000E+00  0.00000000E+00  0.00000000E+00
  0.00000000E+00  0.00000000E+00  0.00000000E+00
  0.00000000E+00  0.00000000E+00  0.00000000E+00
  0.00000000E+00  0.00000000E+00  0.00000000E+00
  0.00000000E+00  0.00000000E+00  0.00000000E+00
  0.00000000E+00  0.00000000E+00  0.00000000E+00
  0.00000000E+00  0.00000000E+00  0.00000000E+00
  0.00000000E+00  0.00000000E+00  0.00000000E+00
  0.00000000E+00  0.00000000E+00  0.00000000E+00
  0.00000000E+00  0.00000000E+00  0.00000000E+00
  0.00000000E+00  0.00000000E+00  0.00000000E+00
  0.00000000E+00  0.00000000E+00  0.00000000E+00
  0.00000000E+00  0.00000000E+00  0.00000000E+00
  0.00000000E+00  0.00000000E+00  0.00000000E+00
  0.00000000E+00  0.00000000E+00  0.00000000E+00
  0.00000000E+00  0.00000000E+00  0.00000000E+00
  0.00000000E+00  0.00000000E+00  0.00000000E+00
  0.00000000E+00  0.00000000E+00  0.00000000E+00
  0.00000000E+00  0.00000000E+00  0.00000000E+00
  0.00000000E+00  0.00000000E+00  0.00000000E+00
  0.00000000E+00  0.00000000E+00  0.00000000E+00
  0.00000000E+00  0.00000000E+00  0.00000000E+00
  0.00000000E+00  0.00000000E+00  0.00000000E+00
  0.00000000E+00  0.00000000E+00  0.00000000E+00
  0.00000000E+00  0.00000000E+00  0.00000000E+00
  0.00000000E+00  0.00000000E+00  0.00000000E+00
  0.00000000E+00  0.00000000E+00  0.00000000E+00
  0.00000000E+00  0.00000000E+00  0.00000000E+00
  0.00000000E+00  0.00000000E+00  0.00000000E+00
  0.00000000E+00  0.00000000E+00  0.00000000E+00
  0.00000000E+00  0.00000000E+00  0.00000000E+00
  0.00000000E+00  0.00000000E+00  0.00000000E+00
  0.00000000E+00  0.00000000E+00  0.00000000E+00
  0.00000000E+00  0.00000000E+00  0.00000000E+00
  0.00000000E+00  0.00000000E+00  0.00000000E+00
  0.00000000E+00  0.00000000E+00  0.00000000E+00
  0.00000000E+00  0.00000000E+00  0.00000000E+00
  0.00000000E+00  0.00000000E+00  0.00000000E+00
  0.00000000E+00  0.00000000E+00  0.00000000E+00
  0.00000000E+00  0.00000000E+00  0.00000000E+00
  0.00000000E+00  0.00000000E+00  0.00000000E+00
  0.00000000E+00  0.00000000E+00  0.00000000E+00
  0.00000000E+00  0.00000000E+00  0.00000000E+00
  0.00000000E+00  0.00000000E+00  0.00000000E+00
  0.00000000E+00  0.00000000E+00  0.00000000E+00
  0.00000000E+00  0.00000000E+00  0.00000000E+00
  0.00000000E+00  0.00000000E+00  0.00000000E+00
  0.00000000E+00  0.00000000E+00  0.00000000E+00
  0.00000000E+00  0.00000000E+00  0.00000000E+00
  0.00000000E+00  0.00000000E+00  0.00000000E+00
  0.00000000E+00  0.00000000E+00  0.00000000E+00
  0.00000000E+00  0.00000000E+00  0.00000000E+00
  0.00000000E+00  0.00000000E+00  0.00000000E+00
  0.00000000E+00  0.00000000E+00  0.00000000E+00
  0.00000000E+00  0.00000000E+00  0.00000000E+00
  0.00000000E+00  0.00000000E+00  0.00000000E+00
  0.00000000E+00  0.00000000E+00  0.00000000E+00
  0.00000000E+00  0.00000000E+00  0.00000000E+00
  0.00000000E+00  0.00000000E+00  0.00000000E+00
  0.00000000E+00  0.00000000E+00  0.00000000E+00
  0.00000000E+00  0.00000000E+00  0.00000000E+00
  0.00000000E+00  0.00000000E+00  0.00000000E+00
  0.00000000E+00  0.00000000E+00  0.00000000E+00
  0.00000000E+00  0.00000000E+00  0.00000000E+00
  0.00000000E+00  0.00000000E+00  0.00000000E+00
  0.00000000E+00  0.00000000E+00  0.00000000E+00
  0.00000000E+00  0.00000000E+00  0.00000000E+00
  0.00000000E+00  0.00000000E+00  0.00000000E+00
  0.00000000E+00  0.00000000E+00  0.00000000E+00
  0.00000000E+00  0.00000000E+00  0.00000000E+00
  0.00000000E+00  0.00000000E+00  0.00000000E+00
  0.00000000E+00  0.00000000E+00  0.00000000E+00
  0.00000000E+00  0.00000000E+00  0.00000000E+00
  0.00000000E+00  0.00000000E+00  0.00000000E+00
  0.00000000E+00  0.00000000E+00  0.00000000E+00
  0.00000000E+00  0.00000000E+00  0.00000000E+00
  0.00000000E+00  0.00000000E+00  0.00000000E+00
  0.00000000E+00  0.00000000E+00  0.00000000E+00
  0.00000000E+00  0.00000000E+00  0.00000000E+00
  0.00000000E+00  0.00000000E+00  0.00000000E+00
  0.00000000E+00  0.00000000E+00  0.00000000E+00
  0.00000000E+00  0.00000000E+00  0.00000000E+00
  0.00000000E+00  0.00000000E+00  0.00000000E+00
  0.00000000E+00  0.00000000E+00  0.00000000E+00
  0.00000000E+00  0.00000000E+00  0.00000000E+00
  0.00000000E+00  0.00000000E+00  0.00000000E+00
  0.00000000E+00  0.00000000E+00  0.00000000E+00
  0.00000000E+00  0.00000000E+00  0.00000000E+00
  0.00000000E+00  0.00000000E+00  0.00000000E+00
  0.00000000E+00  0.00000000E+00  0.00000000E+00
  0.00000000E+00  0.00000000E+00  0.00000000E+00
