Ta  N Ru Cu                             
   1.00000000000000     
    18.1096308199999996    0.0000000000000000    0.0000000000000000
     0.0000000000000000   23.3551997799999995    0.0000000000000000
     0.0000000000000000    0.0000000000000000   30.4818171199999988
   Ta   N    Ru   Cu
   216   240    24    29
Selective dynamics
Direct
  0.0000000000000000  0.0001540493432017  0.1952048772750459   F   F   F
  0.3335911226994313  0.0626178990550343  0.2011666574477005   F   F   F
  0.1661313464181191  0.0626435039054911  0.2013756225831216   F   F   F
  0.2497136469180603  0.1249913080150051  0.2769716716429613   F   F   F
  0.0824132892486986  0.0625280043020950  0.2823539174859135   F   F   F
  0.4173080235982880  0.0622158469098082  0.2818060632728887   F   F   F
  0.9976652508113620  0.1273726864920132  0.3689445568557577   T   T   T
  0.3311175643550390  0.0625966608903804  0.3638143897497407   T   T   T
  0.1628116924286634  0.0626841820326880  0.3672092949970327   T   T   T
  0.2479861548536396  0.1232048421493124  0.4566138671837819   T   T   T
  0.0780240019690433  0.0600647850837393  0.4528976905587707   T   T   T
  0.4142679845861323  0.0618545628984788  0.4494215991232064   T   T   T
  0.9960316971321018  0.1356554976228298  0.5381166310181338   T   T   T
  0.0000000000000000  0.1252934673573236  0.1957184605568116   F   F   F
  0.3338815497781340  0.1878831457175423  0.2019461464240635   F   F   F
  0.1661948949258303  0.1878540692822313  0.2019564242544476   F   F   F
  0.2502115669416796  0.2500369944875231  0.2777639619025223   F   F   F
  0.0824374490347353  0.1875904829007098  0.2829684025212984   F   F   F
  0.4174192825879786  0.1874333417367495  0.2829715540753668   F   F   F
  0.9931824317983499  0.2463769867417389  0.3704782162337226   T   T   T
  0.3273861463657027  0.1857234152081903  0.3704339562289239   T   T   T
  0.1629871905923697  0.1878127894029226  0.3684995932848008   T   T   T
  0.2521614895226865  0.2508056652509414  0.4556292013431111   T   T   T
  0.0789059423819056  0.1906801688634657  0.4531719439921213   T   T   T
  0.4124652512108166  0.1839713507198035  0.4540723998884778   T   T   T
  0.0000000000000000  0.2502681216697269  0.1962263215238949   F   F   F
  0.3344987696923738  0.3125187466315609  0.2026668881404063   F   F   F
  0.1661942511615422  0.3125671912316150  0.2024404242882341   F   F   F
  0.2506210431627167  0.3749227899199923  0.2783919089997156   F   F   F
  0.0823618586752204  0.3124866975306020  0.2834913249867341   F   F   F
  0.4175905476312707  0.3123986209820302  0.2843182411077976   F   F   F
  0.9993917089964074  0.3737129398573938  0.3690344426212344   T   T   T
  0.3314336161894914  0.3075691980273209  0.3674568121243400   T   T   T
  0.1698427201260491  0.3112099605412315  0.3681830940743402   T   T   T
  0.2466017808249406  0.3718381156141660  0.4550401923797148   T   T   T
  0.0794270351433881  0.3151479073181728  0.4528967708916154   T   T   T
  0.4169617004091929  0.3084644784885501  0.4512305954277693   T   T   T
  0.0647576693248917  0.3732499895703688  0.5455155874555613   T   T   T
  0.0000000000000000  0.3748427101281635  0.1963807855582331   F   F   F
  0.3345163880268487  0.4372854327724411  0.2027504300156835   F   F   F
  0.1664683163950542  0.4373113135708522  0.2024835848108779   F   F   F
  0.2496514720479368  0.0000136476026498  0.2762899058119643   F   F   F
  0.0825727467587427  0.4373792291061918  0.2832358711618497   F   F   F
  0.4174986217674430  0.4370699171736305  0.2843873273286093   F   F   F
  0.9992869873652966  0.9976760010306508  0.3676372512235517   T   T   T
  0.3335923720985416  0.4363311908736432  0.3703852769094234   T   T   T
  0.1698930687834665  0.4377032531794438  0.3692339263558589   T   T   T
  0.2466031565256784  0.0027671945113135  0.4540896131893480   T   T   T
  0.0801654321484805  0.4366813339351344  0.4521189219781548   T   T   T
  0.4205430785846821  0.4319443485397239  0.4601500344961860   T   T   T
  0.0000000000000000  0.4996600384981846  0.1960122970312383   F   F   F
  0.3340351755459352  0.5619131390770420  0.2021890025370681   F   F   F
  0.1665722925482243  0.5620352928756773  0.2019996637769879   F   F   F
  0.2501429157372073  0.6247388243367382  0.2770555720987531   F   F   F
  0.0823139344992256  0.5624071479513688  0.2827242320219199   F   F   F
  0.4177054922446999  0.5620703723524798  0.2835027055422685   F   F   F
  0.9892064771523081  0.6249904819369767  0.3664670356327819   T   T   T
  0.3335658050443764  0.5620247885048729  0.3676719615558156   T   T   T
  0.1652816689058773  0.5609894788348025  0.3688014594100336   T   T   T
  0.2423566210141413  0.6228995271183132  0.4563518429087579   T   T   T
  0.0812094607940011  0.5604089215520042  0.4520916820114176   T   T   T
  0.4136262418009141  0.5586543917084005  0.4534321908167573   T   T   T
  0.9925230178842098  0.6334306478217404  0.5473411976695410   T   T   T
  0.0000000000000000  0.6245357501514945  0.1955793289240901   F   F   F
  0.3339923607873985  0.6869740216822109  0.2015918950363513   F   F   F
  0.1663048432324175  0.6871515664123251  0.2015456485425915   F   F   F
  0.2499896679286877  0.7496463705244523  0.2766638540929520   F   F   F
  0.0824660912763733  0.6874672270731992  0.2824343777610991   F   F   F
  0.4174829552423418  0.6871308384112780  0.2826795856657682   F   F   F
  0.9973590875762059  0.7475703144317754  0.3679389262881503   T   T   T
  0.3275684342088094  0.6839519147598589  0.3685978434248097   T   T   T
  0.1609398283547191  0.6861813294954696  0.3688892599161478   T   T   T
  0.2508561624066132  0.7483315134964086  0.4594795509433286   T   T   T
  0.0811709238568655  0.6906437085480477  0.4494256302866621   T   T   T
  0.4139221264742179  0.6825383158578522  0.4531356588428102   T   T   T
  0.0000000000000000  0.7496781775342214  0.1953645300692344   F   F   F
  0.3337937128121951  0.8120159814150867  0.2012723865559281   F   F   F
  0.1661863262123759  0.8121765886067962  0.2013174620412883   F   F   F
  0.2497655804100987  0.8747514740683400  0.2763088131779128   F   F   F
  0.0825580188978989  0.8124898946519963  0.2823318451015737   F   F   F
  0.4173866347344344  0.8121155721843465  0.2822419416884330   F   F   F
  0.9966300696823450  0.8723118121595372  0.3690297816474088   T   T   T
  0.3303754696927893  0.8094301856222621  0.3666590337611006   T   T   T
  0.1638702763855917  0.8114737935807027  0.3686367160131177   T   T   T
  0.2429149328909931  0.8791577718697358  0.4538601460923486   T   T   T
  0.0834524980893878  0.8141516175146795  0.4531210802679984   T   T   T
  0.4087093182531355  0.8135936923172095  0.4553605317204709   T   T   T
  0.9647755251968866  0.8806089921148886  0.5365280352940669   T   T   T
  0.0000000000000000  0.8749709405038288  0.1952216004293277   F   F   F
  0.3336027360284533  0.9373254077095297  0.2010339935283412   F   F   F
  0.1660935290752192  0.9375055884914048  0.2011735569652160   F   F   F
  0.2504830212189049  0.4996808151450338  0.2776753851277860   F   F   F
  0.0824372547392471  0.9374188030533617  0.2822023922818460   F   F   F
  0.4174708236543907  0.9370820673138667  0.2818462101306238   F   F   F
  0.9992721023124931  0.4971693177826683  0.3679840094512917   T   T   T
  0.3302323636928015  0.9371640025928795  0.3657455226520810   T   T   T
  0.1660354435061621  0.9387254212041658  0.3677533214053553   T   T   T
  0.2486202001327940  0.5000720374987392  0.4600408615843524   T   T   T
  0.0818764176476565  0.9372333111839622  0.4540013298145939   T   T   T
  0.4139318215848375  0.9372862524446147  0.4526962948416536   T   T   T
  0.3251420416205751  0.9379701497891233  0.5407023227746550   T   T   T
  0.1614692819760006  0.9551907396149864  0.5445755490696683   T   T   T
  0.5000000000000000  0.9999198696006601  0.1948903532541308   F   F   F
  0.8338686237634931  0.0626435039054911  0.2013756225831216   F   F   F
  0.6664088480343722  0.0626178990550343  0.2011666574477005   F   F   F
  0.7502863525297556  0.1249913080150051  0.2769716716429613   F   F   F
  0.5826919764017120  0.0622158469098082  0.2818060632728887   F   F   F
  0.9175867107513014  0.0625280043020950  0.2823539174859135   F   F   F
  0.4954485160493407  0.1216567271317316  0.3697236471158017   T   T   T
  0.8282508444349036  0.0617934297082540  0.3621802996266771   T   T   T
  0.6630931369436358  0.0606391918955501  0.3675224241304562   T   T   T
  0.7497828933692517  0.1199064977615391  0.4523817784449582   T   T   T
  0.5775561727767327  0.0610979194040705  0.4543442952944166   T   T   T
  0.9146234485187784  0.0599517810792292  0.4516255457604458   T   T   T
  0.4966267763975613  0.1176368007012470  0.5382741753908934   T   T   T
  0.5000000000000000  0.1254990580004929  0.1954646149468999   F   F   F
  0.8338050752557820  0.1878540692822313  0.2019564242544476   F   F   F
  0.6661184209556694  0.1878831457175423  0.2019461464240635   F   F   F
  0.7497884325061293  0.2500369944875231  0.2777639619025223   F   F   F
  0.5825807174120214  0.1874333417367495  0.2829715540753668   F   F   F
  0.9175625509652647  0.1875904829007098  0.2829684025212984   F   F   F
  0.4983857656889751  0.2442706459047325  0.3713800748175708   T   T   T
  0.8317874879575771  0.1836374045205592  0.3647931260856804   T   T   T
  0.6632010630386287  0.1853014298238668  0.3660192414556679   T   T   T
  0.7507107789372626  0.2516267075097410  0.4571370449290141   T   T   T
  0.5803126567968930  0.1862274936026540  0.4550779573477725   T   T   T
  0.9162353921067803  0.1844371831090580  0.4535803350781475   T   T   T
  0.5000000000000000  0.2505013661093045  0.1964427338884676   F   F   F
  0.8338057190200701  0.3125671912316150  0.2024404242882341   F   F   F
  0.6655012010414296  0.3125187466315609  0.2026668881404063   F   F   F
  0.7493789562850921  0.3749227899199923  0.2783919089997156   F   F   F
  0.5824094523687293  0.3123986209820302  0.2843182411077976   F   F   F
  0.9176381413247796  0.3124866975306020  0.2834913249867341   F   F   F
  0.4993745772056269  0.3723296655271788  0.3725222083532229   T   T   T
  0.8328983600970677  0.3126549314239917  0.3680694358411434   T   T   T
  0.6688308801887891  0.3083693281925259  0.3681309558247626   T   T   T
  0.7558111505920498  0.3788726920934190  0.4544858998604879   T   T   T
  0.5824138114571273  0.3140021509759635  0.4567079124866918   T   T   T
  0.9140440178289821  0.3115174224691191  0.4520029677907133   T   T   T
  0.4874871696555788  0.3683675818320763  0.5731602570704966   T   T   T
  0.5000000000000000  0.3748991137487110  0.1971899805056978   F   F   F
  0.8335316537865580  0.4373113135708522  0.2024835848108779   F   F   F
  0.6654835827069547  0.4372854327724411  0.2027504300156835   F   F   F
  0.7503485273998720  0.0000136476026498  0.2762899058119643   F   F   F
  0.5825013782325570  0.4370699171736305  0.2843873273286093   F   F   F
  0.9174272532412573  0.4373792291061918  0.2832358711618497   F   F   F
  0.4971907188796303  0.0002332108799464  0.3677595222875297   T   T   T
  0.8316833746765843  0.4361776099920746  0.3658788310686577   T   T   T
  0.6707736855624215  0.4365983788918072  0.3709248083640880   T   T   T
  0.7479273791185731  0.9907247116335186  0.4555279355276460   T   T   T
  0.5877751291074488  0.4380359245840351  0.4523964280076742   T   T   T
  0.9171621711473984  0.4379275550099138  0.4550589351729716   T   T   T
  0.5000000000000000  0.4994643024967829  0.1967282283003158   F   F   F
  0.8334276776333880  0.5620352928756773  0.2019996637769879   F   F   F
  0.6659647951878682  0.5619131390770420  0.2021890025370681   F   F   F
  0.7498570837106016  0.6247388243367382  0.2770555720987531   F   F   F
  0.5822945077553001  0.5620703723524798  0.2835027055422685   F   F   F
  0.9176860655007744  0.5624071479513688  0.2827242320219199   F   F   F
  0.5009768531670081  0.6242605920244088  0.3696649719598524   T   T   T
  0.8298792740517378  0.5609712709754753  0.3672596604401323   T   T   T
  0.6691755367171297  0.5593908267434299  0.3676888204427847   T   T   T
  0.7511694465198584  0.6259734323215935  0.4536885042500933   T   T   T
  0.5859789419628609  0.5636056582375074  0.4511317121640516   T   T   T
  0.9149614925111964  0.5621049584010996  0.4579310118880923   T   T   T
  0.5118116443521200  0.6201399289097869  0.5418658748955971   T   T   T
  0.5000000000000000  0.6241464195896782  0.1959625473447417   F   F   F
  0.8336951269491948  0.6871515664123251  0.2015456485425915   F   F   F
  0.6660076099464050  0.6869740216822109  0.2015918950363513   F   F   F
  0.7500103315191211  0.7496463705244523  0.2766638540929520   F   F   F
  0.5825170447576582  0.6871308384112780  0.2826795856657682   F   F   F
  0.9175339087236267  0.6874672270731992  0.2824343777610991   F   F   F
  0.5018186018568894  0.7515559381687937  0.3662125671497821   T   T   T
  0.8287848615603410  0.6851966394541645  0.3665420097000376   T   T   T
  0.6646337355303004  0.6851575719963267  0.3693134221038104   T   T   T
  0.7492311861614075  0.7443016270631579  0.4522847472889717   T   T   T
  0.5818690273980951  0.6875430152351037  0.4497099039185334   T   T   T
  0.9078403853723662  0.6887212368119813  0.4564539754060590   T   T   T
  0.5000000000000000  0.7492608262324936  0.1954491219570258   F   F   F
  0.8338136439692363  0.8121765886067962  0.2013174620412883   F   F   F
  0.6662062579216084  0.8120159814150867  0.2012723865559281   F   F   F
  0.7502344190377102  0.8747514740683400  0.2763088131779128   F   F   F
  0.5826133652655656  0.8121155721843465  0.2822419416884330   F   F   F
  0.9174419811021011  0.8124898946519963  0.2823318451015737   F   F   F
  0.5004589350403184  0.8739967279381812  0.3681785701502088   T   T   T
  0.8312022040594033  0.8107161199571854  0.3663579105635349   T   T   T
  0.6656149944767384  0.8117407667071657  0.3650831908744953   T   T   T
  0.7499845998336395  0.8713389809269649  0.4561897506203009   T   T   T
  0.5818960261963446  0.8135146447110108  0.4539656361145218   T   T   T
  0.9141694205107611  0.8095409070376361  0.4516241385716827   T   T   T
  0.4888736986546063  0.8700908746405500  0.5407954595089776   T   T   T
  0.5000000000000000  0.8746701782158013  0.1950268913488955   F   F   F
  0.8339064411064001  0.9375055884914048  0.2011735569652160   F   F   F
  0.6663972347053502  0.9373254077095297  0.2010339935283412   F   F   F
  0.7495169782289040  0.4996808151450338  0.2776753851277860   F   F   F
  0.5825291763456093  0.9370820673138667  0.2818462101306238   F   F   F
  0.9175627452607529  0.9374188030533617  0.2822023922818460   F   F   F
  0.5026918035408264  0.4989673968460855  0.3712074429011139   T   T   T
  0.8316285747001286  0.9332441580554646  0.3707713679281459   T   T   T
  0.6639857863435108  0.9368462651320456  0.3650357876982841   T   T   T
  0.7510927837057657  0.5006945965730978  0.4586786281432753   T   T   T
  0.5812121637553153  0.9358228304617787  0.4558988154869575   T   T   T
  0.9106547874040529  0.9386493662365729  0.4515285289236913   T   T   T
  0.8156908419863478  0.9456093301685716  0.5372476168164037   T   T   T
  0.6561941579920847  0.9321651456463222  0.5408721588458727   T   T   T
  0.3372415115720266  0.0701947082443808  0.5435337407337034   T   T   T
  0.1560429794578095  0.0774650618065177  0.5419297932656957   T   T   T
  0.9582509406363565  0.2530870445058641  0.5313945749344839   T   T   T
  0.0041537589128076  0.0024079793729330  0.5466978956838566   T   T   T
  0.0616786706324024  0.7631609507626279  0.5396912434925734   T   T   T
  0.0397208086187096  0.5046985724982073  0.5435571810242926   T   T   T
  0.8375787704481655  0.1229400931578793  0.5536849175851363   T   T   T
  0.6550013544894403  0.0578294953146966  0.5436410479425203   T   T   T
  0.5294063485110466  0.2520594867250815  0.5430447063062084   T   T   T
  0.4932489046374652  0.9933267540483517  0.5423161810562205   T   T   T
  0.5021786139203164  0.7404793562892625  0.5396165073957386   T   T   T
  0.5344360579197922  0.4865050580933317  0.5458775060821642   T   T   T
  0.4061289664388497  0.9997402073788066  0.2299469413761983   F   F   F
  0.2499243442227694  0.0000438992941199  0.1972592478097255   F   F   F
  0.0937634807389713  0.0000060933876753  0.2303819593707956   F   F   F
  0.1543157078586574  0.1250764905392501  0.3144006291067782   F   F   F
  0.0000000000000000  0.1251032437903064  0.3017457848904002   F   F   F
  0.3452685446959336  0.1247294648472135  0.3139779832144782   F   F   F
  0.3980795991259916  0.1208133972353276  0.3989072133426730   T   T   T
  0.2464221331903873  0.1240470858468321  0.3892940769021774   T   T   T
  0.0963690135105167  0.1326405624675497  0.4007060559144488   T   T   T
  0.1460913351318580  0.1196277602209197  0.4807273154125585   T   T   T
  0.9977573143677474  0.1246643908274888  0.4731596486057492   T   T   T
  0.3519947450722765  0.1165652847100404  0.4871958418853209   T   T   T
  0.4109693322782870  0.1171440235888096  0.5757808669376969   T   T   T
  0.2499903465381993  0.1340174080671815  0.5537345069802839   T   T   T
  0.0934752647874030  0.1486148690897333  0.5675961260901607   T   T   T
  0.4060922726490972  0.1252483525494625  0.2305072749907424   F   F   F
  0.2499853373031016  0.1253680865118554  0.1980301026484881   F   F   F
  0.0938705441988859  0.1252872407861290  0.2308075844758477   F   F   F
  0.1545811603609692  0.2502172040039952  0.3150875426512627   F   F   F
  0.0000000000000000  0.2500118363359647  0.3026576964998000   F   F   F
  0.3454213900442511  0.2501666210715499  0.3155411423685734   F   F   F
  0.4011087812057466  0.2414277831691027  0.4005831055522540   T   T   T
  0.2451028276060578  0.2453937222424734  0.3898827973170744   T   T   T
  0.0973720995065891  0.2565464557306067  0.4015068894000181   T   T   T
  0.1493350560709269  0.2530439941655891  0.4850681421887604   T   T   T
  0.9977501250599571  0.2519913813368979  0.4682905708983953   T   T   T
  0.3524181319248472  0.2439723660418819  0.4899295131124345   T   T   T
  0.4445908257826069  0.2727750469946782  0.5803567435665401   T   T   T
  0.2139046453790911  0.2571120007468061  0.5688014182517995   T   T   T
  0.0387756516123189  0.2958284569472138  0.5638960608482378   T   T   T
  0.4063537820413998  0.2503554436372752  0.2318217329215244   F   F   F
  0.2501513892027489  0.2503837172861623  0.1987743679215939   F   F   F
  0.0937459477286708  0.2502472980689348  0.2314396456129870   F   F   F
  0.1547329312016998  0.3748240360379640  0.3152648351295895   F   F   F
  0.0000000000000000  0.3750074687728571  0.3026805859104442   F   F   F
  0.3457516654221564  0.3744942564091502  0.3165611258293524   F   F   F
  0.4000888075327986  0.3767190843678405  0.4012027141295119   T   T   T
  0.2513380916610174  0.3756485853005108  0.3878036680563179   T   T   T
  0.1022817827784398  0.3743746200970850  0.4019217949254800   T   T   T
  0.1398405372817811  0.3748446406362657  0.4886716116105577   T   T   T
  0.9979917054147200  0.3763624838847030  0.4766616874704766   T   T   T
  0.3448782923587593  0.3676237021129923  0.4892052549715687   T   T   T
  0.4511901566077856  0.4252867450897684  0.5299854563744842   T   T   T
  0.3411051083871677  0.3553866336719390  0.5948983342091415   T   T   T
  0.1461456553182410  0.3860335136775880  0.5882412470560030   T   T   T
  0.4063450296950606  0.3748105982353493  0.2326129276751985   F   F   F
  0.2503815799939773  0.3748833278233974  0.1999379082155102   F   F   F
  0.0937603312984550  0.3748447341583656  0.2316121428621187   F   F   F
  0.1544387718848412  0.9996829985042694  0.3140614921184621   F   F   F
  0.0000000000000000  0.9999586470014989  0.3011413469010975   F   F   F
  0.3452207830953640  0.9993250578202932  0.3135800436600817   F   F   F
  0.3939014556750314  0.0028599605657876  0.3981611913865617   T   T   T
  0.2428787641669949  0.0013666222944400  0.3858744629886227   T   T   T
  0.0959227989361053  0.9969941066365663  0.4008097388904752   T   T   T
  0.1492317595198646  0.0003779393654650  0.4847207303058593   T   T   T
  0.9950109736087953  0.9986803972880630  0.4732848040603661   T   T   T
  0.3502430357060550  0.9983061386071187  0.4833792922872421   T   T   T
  0.3974688196333683  0.0016406858824363  0.5685637650281710   T   T   T
  0.2502756434703173  0.0115887930346967  0.5560211120628590   T   T   T
  0.0985300134429321  0.0231988565098532  0.5755135226080415   T   T   T
  0.4063919750489262  0.4994383192689185  0.2320699339374244   F   F   F
  0.2503562457577360  0.4994733889603751  0.1984713927521753   F   F   F
  0.0937692161019683  0.4997186735604657  0.2311634630953918   F   F   F
  0.1544189180639535  0.6249313455917331  0.3142752564094309   F   F   F
  0.0000000000000000  0.6250871852705728  0.3016444522084001   F   F   F
  0.3455048527126365  0.6246178489899563  0.3146330939141251   F   F   F
  0.4008260154147017  0.6253792899077959  0.4028990641280245   T   T   T
  0.2479490375415027  0.6213447640896468  0.3874628819898328   T   T   T
  0.0879245159267130  0.6239212172210323  0.3975840882502346   T   T   T
  0.1449875015733169  0.6226050024992651  0.4812635721961659   T   T   T
  0.9988072580392846  0.6246480951679180  0.4742781322504458   T   T   T
  0.3474688811207124  0.6262372856896081  0.4841247683217627   T   T   T
  0.4256889580210052  0.6753506132040361  0.5519114839161201   T   T   T
  0.2678572091413370  0.6855422023053575  0.5910694746383408   T   T   T
  0.0822212074809888  0.6794927967357633  0.5581560323770924   T   T   T
  0.4062813521908808  0.6243967556400136  0.2312165259231449   F   F   F
  0.2502036679887922  0.6245155546987675  0.1983452378000550   F   F   F
  0.0937766661575239  0.6247540281504627  0.2307495947632816   F   F   F
  0.1546033435283221  0.7500785159681627  0.3141978718615590   F   F   F
  0.0000000000000000  0.7500305717557652  0.3016383232735009   F   F   F
  0.3453015051544455  0.7497428282577090  0.3142525964722225   F   F   F
  0.4076457824135618  0.7482303475736127  0.3985756821932901   T   T   T
  0.2453222013984332  0.7480898671825393  0.3894309564508549   T   T   T
  0.0942488239692877  0.7509714529569882  0.3996277014089455   T   T   T
  0.1473820643336740  0.7472563240751475  0.4878105541827924   T   T   T
  0.0026195348631252  0.7508470154921243  0.4657216209158658   T   T   T
  0.3520674716192874  0.7444460926279061  0.4891455361288697   T   T   T
  0.4336099845892148  0.7988959617074476  0.5639621222963155   T   T   T
  0.2828154403370702  0.8103077086460921  0.6438347736435129   T   T   T
  0.1520123253095750  0.7912161423541082  0.5692088709090987   T   T   T
  0.4062711913523245  0.7494715794673255  0.2306001329891103   F   F   F
  0.2500741286340968  0.7495298625147910  0.1975175958228235   F   F   F
  0.0937118033124449  0.7498015672246723  0.2305201988047330   F   F   F
  0.1546291005700482  0.8749761849418931  0.3141837548196165   F   F   F
  0.0000000000000000  0.8748932220635766  0.3014812161455396   F   F   F
  0.3451245848043172  0.8746053037018058  0.3138810939481544   F   F   F
  0.4020859263628547  0.8736786531898406  0.3973737786744018   T   T   T
  0.2482750164486187  0.8765311157513080  0.3847121634344571   T   T   T
  0.0980566166285840  0.8753852458789733  0.4013961158993740   T   T   T
  0.1464018003096310  0.8796911712048189  0.4864062328356177   T   T   T
  0.9991834128520266  0.8769803384934570  0.4685522326959320   T   T   T
  0.3448706544958478  0.8807057554948710  0.4849099045673640   T   T   T
  0.4046645902738272  0.8936436389779432  0.5813225204509427   T   T   T
  0.2409031485427046  0.9006969690575578  0.5739702626120573   T   T   T
  0.0556570622352919  0.9242641039466996  0.5448286460859209   T   T   T
  0.4061874568895689  0.8745829884845264  0.2301668008934286   F   F   F
  0.2499290053865906  0.8746976559329411  0.1974476691903959   F   F   F
  0.0937950848089244  0.8748753778232796  0.2304039901560628   F   F   F
  0.1546720275628246  0.4999270048239595  0.3147507493888071   F   F   F
  0.0000000000000000  0.4998372765106751  0.3021481560570436   F   F   F
  0.3456001409594549  0.4994987117009870  0.3156404985996346   F   F   F
  0.4027770737184392  0.5019280648829154  0.4001551931820407   T   T   T
  0.2549670191842537  0.5005314972696880  0.3912249374383733   T   T   T
  0.0970785812007567  0.4985523467411955  0.4007031973644072   T   T   T
  0.1409544844031592  0.4907991003880741  0.4871896228578763   T   T   T
  0.9981288317575097  0.4964320629012769  0.4748195890246147   T   T   T
  0.3480300924145831  0.4991194753108255  0.4832710438831924   T   T   T
  0.4639390294073843  0.5500469509944288  0.5661995641102121   T   T   T
  0.2386327626360865  0.5679626898512751  0.5200528933965891   T   T   T
  0.0616733230572997  0.5732254456363822  0.5821181481915242   T   T   T
  0.9062365192610287  0.0000060933876753  0.2303819593707956   F   F   F
  0.7500756552250394  0.0000438992941199  0.1972592478097255   F   F   F
  0.5938710335611503  0.9997402073788066  0.2299469413761983   F   F   F
  0.6547314553040664  0.1247294648472135  0.3139779832144782   F   F   F
  0.5000000000000000  0.1246461532123107  0.3009409192362540   F   F   F
  0.8456842921413426  0.1250764905392501  0.3144006291067782   F   F   F
  0.8975219596409725  0.1197982395166453  0.3975728720130804   T   T   T
  0.7432062631712458  0.1288794028872360  0.3865011687163661   T   T   T
  0.5959545717832853  0.1231441736520412  0.3992683287345231   T   T   T
  0.6548623690385256  0.1159012374692553  0.4880615683188570   T   T   T
  0.4952919966279830  0.1221927569632946  0.4690342036874062   T   T   T
  0.8454787735624697  0.1225901990273067  0.4863915810340003   T   T   T
  0.9009749951073861  0.1908930319945013  0.5697772190990716   T   T   T
  0.7310910578502329  0.1169913999539406  0.5705569680843654   T   T   T
  0.5840055906437733  0.1139779744797910  0.5783186193982355   T   T   T
  0.9061294558011141  0.1252872407861290  0.2308075844758477   F   F   F
  0.7500146621447072  0.1253680865118554  0.1980301026484881   F   F   F
  0.5939077273509028  0.1252483525494625  0.2305072749907424   F   F   F
  0.6545786099557489  0.2501666210715499  0.3155411423685734   F   F   F
  0.5000000000000000  0.2498087327690257  0.3027998836310033   F   F   F
  0.8454188396390308  0.2502172040039952  0.3150875426512627   F   F   F
  0.8932090565084286  0.2460278297858054  0.4020186075400372   T   T   T
  0.7466964713606998  0.2502981593421098  0.3881768379861458   T   T   T
  0.6004224248689559  0.2441457242046235  0.4035188455224702   T   T   T
  0.6497073193698271  0.2482790940285162  0.4847680183555947   T   T   T
  0.5021411647758318  0.2475925255471029  0.4773654246732879   T   T   T
  0.8575619922398675  0.2470112941464244  0.4901169635154631   T   T   T
  0.8750667253815267  0.3092850909797040  0.5598443374539313   T   T   T
  0.7040930616247065  0.2508054788215140  0.5695475969690995   T   T   T
  0.5691175754291996  0.3285090718225550  0.5396638376180471   T   T   T
  0.9062540522713292  0.2502472980689348  0.2314396456129870   F   F   F
  0.7498486102450599  0.2503837172861623  0.1987743679215939   F   F   F
  0.5936462179585931  0.2503554436372752  0.2318217329215244   F   F   F
  0.6542483345778436  0.3744942564091502  0.3165611258293524   F   F   F
  0.5000000000000000  0.3746674438902389  0.3043243890304694   F   F   F
  0.8452670687983002  0.3748240360379640  0.3152648351295895   F   F   F
  0.8997156382407416  0.3778845480924249  0.4010166160593754   T   T   T
  0.7515681528491691  0.3762435724105282  0.3855578817987580   T   T   T
  0.5996175566795456  0.3757522720953509  0.4018745530321808   T   T   T
  0.6547562773515713  0.3816303708324124  0.4831584192465551   T   T   T
  0.4986777644421921  0.3712656667697493  0.4634118511194417   T   T   T
  0.8534723994083951  0.3685926591825739  0.4864387050989251   T   T   T
  0.9918527813854918  0.4338733026170383  0.5664939697356017   T   T   T
  0.7238939942754100  0.3872672958894228  0.5765221964453996   T   T   T
  0.5489805024770560  0.4264822298408373  0.5968866578010010   T   T   T
  0.9062396687015450  0.3748447341583656  0.2316121428621187   F   F   F
  0.7496184194538316  0.3748833278233974  0.1999379082155102   F   F   F
  0.5936549703049394  0.3748105982353493  0.2326129276751985   F   F   F
  0.6547792169046360  0.9993250578202932  0.3135800436600817   F   F   F
  0.5000000000000000  0.9995461887499104  0.3005273028076445   F   F   F
  0.8455612281151588  0.9996829985042694  0.3140614921184621   F   F   F
  0.8978559080359131  0.0023916073520752  0.3988619272276150   T   T   T
  0.7454014074983775  0.9964363116016685  0.3893425405402571   T   T   T
  0.5967962769982776  0.9994587346404510  0.4005374435445406   T   T   T
  0.6421764175796401  0.9977331699160252  0.4883903659387790   T   T   T
  0.4921806054566572  0.0015454935965605  0.4694930461685386   T   T   T
  0.8491789817114269  0.9973902619574695  0.4865410776027413   T   T   T
  0.9301402625311154  0.0668680466104768  0.5600834138231103   T   T   T
  0.7427060577104587  0.9974922212098564  0.5511291504059369   T   T   T
  0.5944507128919564  0.9929179448239238  0.5728518683460974   T   T   T
  0.9062307838980246  0.4997186735604657  0.2311634630953918   F   F   F
  0.7496437536900729  0.4994733889603751  0.1984713927521753   F   F   F
  0.5936080249510738  0.4994383192689185  0.2320699339374244   F   F   F
  0.6544951472873635  0.6246178489899563  0.3146330939141251   F   F   F
  0.5000000000000000  0.6248457726619137  0.3021681632881084   F   F   F
  0.8455810819360465  0.6249313455917331  0.3142752564094309   F   F   F
  0.8939986578800649  0.6240361350459093  0.4022163919131658   T   T   T
  0.7443124885183970  0.6228984101428817  0.3864024547307267   T   T   T
  0.5979196898409378  0.6264168407991501  0.4027789398370199   T   T   T
  0.6522268318811388  0.6297137211299346  0.4833260112972571   T   T   T