Ta  N Cu                                
   1.00000000000000     
     9.0548154099999998    0.0000000000000000    0.0000000000000000
     0.0000000000000000   11.6775998899999998    0.0000000000000000
     0.0000000000000000    0.0000000000000000   23.4818170799999990
   Ta   N    Cu
    60    60     2
Selective dynamics
Direct
  0.0000000000000000  0.0000000000000000  0.2546926809530987   F   F   F
  0.6670845899906297  0.1250000003211298  0.2638822399803757   F   F   F
  0.3329153514769843  0.1250000003211298  0.2638822399803757   F   F   F
  0.4999999994478088  0.2499999997859135  0.3618861993156202   F   F   F
  0.1650707596845180  0.1250000003211298  0.3684425577811794   F   F   F
  0.8349292403154820  0.1250000003211298  0.3684425577811794   F   F   F
  0.0001461815248980  0.2501566947156271  0.4798491997709539   T   T   T
  0.6654795082650948  0.1249829026632205  0.4782675993833403   T   T   T
  0.3347386583957714  0.1249726833790704  0.4782527109243050   T   T   T
  0.5003670669881302  0.2503225470528564  0.5911790931607868   T   T   T
  0.1678618802699509  0.1249666713553998  0.5903898341996824   T   T   T
  0.8328242686211559  0.1249945303614384  0.5903670968503294   T   T   T
  0.0008467204179816  0.2486498581749660  0.7024289304167141   T   T   T
  0.6668293252310008  0.1249976557610956  0.7021965684883074   T   T   T
  0.3347591969178171  0.1250240448788536  0.7022359848392645   T   T   T
  0.0000000000000000  0.2499999997859135  0.2546926809530987   F   F   F
  0.6670845899906297  0.3750000001070433  0.2638822399803757   F   F   F
  0.3329153514769843  0.3750000001070433  0.2638822399803757   F   F   F
  0.4999999994478088  0.5000000004281731  0.3618861993156202   F   F   F
  0.1650707596845180  0.3750000001070433  0.3684425577811794   F   F   F
  0.8349292403154820  0.3750000001070433  0.3684425577811794   F   F   F
  0.0001231347405230  0.4999825506962976  0.4798125609428895   T   T   T
  0.6652748450307512  0.3749602583405446  0.4782241634649342   T   T   T
  0.3349419240916170  0.3749390158534572  0.4782134722404432   T   T   T
  0.5003757469640360  0.5001043205908275  0.5908305485694004   T   T   T
  0.1680391475020586  0.3751618226882596  0.5901976991059428   T   T   T
  0.8325769369447726  0.3751634518451092  0.5902019150809320   T   T   T
  0.0006406270489183  0.5002958356698974  0.7022012425638517   T   T   T
  0.6709222187768114  0.3766285602650671  0.7043051597199311   T   T   T
  0.3304901852459436  0.3766327305813755  0.7042722575244902   T   T   T
  0.0000000000000000  0.5000000004281731  0.2546926809530987   F   F   F
  0.6670845899906297  0.6249999998929567  0.2638822399803757   F   F   F
  0.3329153514769843  0.6249999998929567  0.2638822399803757   F   F   F
  0.4999999994478088  0.7500000002140865  0.3618861993156202   F   F   F
  0.1650707596845180  0.6249999998929567  0.3684425577811794   F   F   F
  0.8349292403154820  0.6249999998929567  0.3684425577811794   F   F   F
  0.0001343858893350  0.7499980194070348  0.4798130890468181   T   T   T
  0.6650858320708113  0.6249932887851286  0.4781824959825523   T   T   T
  0.3351175530722094  0.6249781510387339  0.4781614003747738   T   T   T
  0.5003629604608854  0.7498673344129057  0.5908430484983695   T   T   T
  0.1680147093842856  0.6249763738474680  0.5901190498278234   T   T   T
  0.8325844048399184  0.6249991156847585  0.5901214588061281   T   T   T
  0.0005679880035537  0.7496681540370485  0.7022242070645165   T   T   T
  0.6718043123347949  0.6250022326901780  0.7042222294174473   T   T   T
  0.3292344033988495  0.6250162475007047  0.7041910265386604   T   T   T
  0.0000000000000000  0.7500000002140865  0.2546926809530987   F   F   F
  0.6670845899906297  0.8750000005352163  0.2638822399803757   F   F   F
  0.3329153514769843  0.8750000005352163  0.2638822399803757   F   F   F
  0.4999999994478088  0.0000000000000000  0.3618861993156202   F   F   F
  0.1650707596845180  0.8750000005352163  0.3684425577811794   F   F   F
  0.8349292403154820  0.8750000005352163  0.3684425577811794   F   F   F
  0.0001750653438403  0.9998083634101167  0.4798532636201499   T   T   T
  0.6652851939210924  0.8750351950151382  0.4782190040152451   T   T   T
  0.3349375574843443  0.8750232118349426  0.4782184343543113   T   T   T
  0.5003100526326508  0.9996568901639796  0.5911810969470334   T   T   T
  0.1680604810165508  0.8747864918466342  0.5902269701343534   T   T   T
  0.8325923566939428  0.8748155521130896  0.5901938042674395   T   T   T
  0.0009239022141510  0.0012860353215299  0.7024168464481505   T   T   T
  0.6707968408165593  0.8733619402269855  0.7042675619978818   T   T   T
  0.3303893110302437  0.8733771714180654  0.7043196552778856   T   T   T
  0.8141011533980276  0.0000000000000000  0.3013105672926031   F   F   F
  0.4999999994478088  0.0000000000000000  0.2564174481620327   F   F   F
  0.1858988466019724  0.0000000000000000  0.3013105672926031   F   F   F
  0.3088456122590841  0.2499999997859135  0.4099867722441957   F   F   F
  0.0000000000000000  0.2499999997859135  0.3930971035158137   F   F   F
  0.6911543877409159  0.2499999997859135  0.4099867722441957   F   F   F
  0.8026763337354786  0.2500749963551546  0.5222942281203974   T   T   T
  0.5001263792477412  0.2498485045133435  0.5031668753132063   T   T   T
  0.1976636720464380  0.2500378609005052  0.5222933997762679   T   T   T
  0.3033857928645290  0.2507937437143211  0.6336232668375782   T   T   T
  0.0003753707759108  0.2502189855512771  0.6142440141178930   T   T   T
  0.6974473377450486  0.2508041366613125  0.6336056824422787   T   T   T
  0.8026217040083071  0.2511798280578405  0.7425242188593265   T   T   T
  0.5007396565083582  0.2495254945003517  0.7240351816463981   T   T   T
  0.1990433907928593  0.2513032054691585  0.7426015411900078   T   T   T
  0.8141011533980276  0.2499999997859135  0.3013105672926031   F   F   F
  0.4999999994478088  0.2499999997859135  0.2564174481620327   F   F   F
  0.1858988466019724  0.2499999997859135  0.3013105672926031   F   F   F
  0.3088456122590841  0.5000000004281731  0.4099867722441957   F   F   F
  0.0000000000000000  0.5000000004281731  0.3930971035158137   F   F   F
  0.6911543877409159  0.5000000004281731  0.4099867722441957   F   F   F
  0.8025017167727233  0.4999025879697647  0.5221989530242489   T   T   T
  0.5001162195688400  0.4999755730294135  0.5028431206049737   T   T   T
  0.1977790749710582  0.4998756010100611  0.5221835867711182   T   T   T
  0.3044436028503893  0.5000737824970679  0.6333309427917757   T   T   T
  0.0003430785043073  0.5002263816023753  0.6137227267197199   T   T   T
  0.6963362127003675  0.5000829932497636  0.6333626467211980   T   T   T
  0.8067335496447753  0.5002138947848593  0.7408305034797583   T   T   T
  0.5005799818764620  0.4989333355275294  0.7239759177922738   T   T   T
  0.1945640551812791  0.5001749896270752  0.7408238118943402   T   T   T
  0.8141011533980276  0.5000000004281731  0.3013105672926031   F   F   F
  0.4999999994478088  0.5000000004281731  0.2564174481620327   F   F   F
  0.1858988466019724  0.5000000004281731  0.3013105672926031   F   F   F
  0.3088456122590841  0.7500000002140865  0.4099867722441957   F   F   F
  0.0000000000000000  0.7500000002140865  0.3930971035158137   F   F   F
  0.6911543877409159  0.7500000002140865  0.4099867722441957   F   F   F
  0.8025212501059391  0.7500952235259710  0.5221995104544066   T   T   T
  0.5001207244535114  0.7500001223601854  0.5028543556890825   T   T   T
  0.1977893557083699  0.7500750773696313  0.5221984011753612   T   T   T
  0.3044279960858524  0.7498783355403795  0.6333644757950950   T   T   T
  0.0003300272852562  0.7497392387003408  0.6137450861033560   T   T   T
  0.6963102290298970  0.7499043879429065  0.6333544064208239   T   T   T
  0.8066165390899054  0.7498427657633790  0.7408139713379890   T   T   T
  0.5005144123773789  0.7510820277354657  0.7240060540592664   T   T   T
  0.1945035215521816  0.7497969644962442  0.7408610982434248   T   T   T
  0.8141011533980276  0.7500000002140865  0.3013105672926031   F   F   F
  0.4999999994478088  0.7500000002140865  0.2564174481620327   F   F   F
  0.1858988466019724  0.7500000002140865  0.3013105672926031   F   F   F
  0.3088456122590841  0.0000000000000000  0.4099867722441957   F   F   F
  0.0000000000000000  0.0000000000000000  0.3930971035158137   F   F   F
  0.6911543877409159  0.0000000000000000  0.4099867722441957   F   F   F
  0.8026852100565323  0.9999151961440149  0.5222852096947870   T   T   T
  0.5001317064804092  0.0001077460255469  0.5031691250421959   T   T   T
  0.1976772917915729  0.9998895380764334  0.5223038790564394   T   T   T
  0.3033722053431757  0.9991892187589650  0.6336493796840711   T   T   T
  0.0003870425390424  0.9997324201140888  0.6142435258124779   T   T   T
  0.6974173433754898  0.9991980674726481  0.6335890303739502   T   T   T
  0.8026094806499272  0.9986296352985635  0.7424620733197713   T   T   T
  0.5007135589374677  0.0005359946619039  0.7240512755987821   T   T   T
  0.1990529273297576  0.9987811449049219  0.7426602322447540   T   T   T
  0.1352965222597727  0.1251402838243505  0.7916764767728354   T   T   T
  0.8667996483015347  0.1247167045762952  0.7914685487826554   T   T   T
 
  0.00000000E+00  0.00000000E+00  0.00000000E+00
  0.00000000E+00  0.00000000E+00  0.00000000E+00
  0.00000000E+00  0.00000000E+00  0.00000000E+00
  0.00000000E+00  0.00000000E+00  0.00000000E+00
  0.00000000E+00  0.00000000E+00  0.00000000E+00
  0.00000000E+00  0.00000000E+00  0.00000000E+00
  0.00000000E+00  0.00000000E+00  0.00000000E+00
  0.00000000E+00  0.00000000E+00  0.00000000E+00
  0.00000000E+00  0.00000000E+00  0.00000000E+00
  0.00000000E+00  0.00000000E+00  0.00000000E+00
  0.00000000E+00  0.00000000E+00  0.00000000E+00
  0.00000000E+00  0.00000000E+00  0.00000000E+00
  0.00000000E+00  0.00000000E+00  0.00000000E+00
  0.00000000E+00  0.00000000E+00  0.00000000E+00
  0.00000000E+00  0.00000000E+00  0.00000000E+00
  0.00000000E+00  0.00000000E+00  0.00000000E+00
  0.00000000E+00  0.00000000E+00  0.00000000E+00
  0.00000000E+00  0.00000000E+00  0.00000000E+00
  0.00000000E+00  0.00000000E+00  0.00000000E+00
  0.00000000E+00  0.00000000E+00  0.00000000E+00
  0.00000000E+00  0.00000000E+00  0.00000000E+00
  0.00000000E+00  0.00000000E+00  0.00000000E+00
  0.00000000E+00  0.00000000E+00  0.00000000E+00
  0.00000000E+00  0.00000000E+00  0.00000000E+00
  0.00000000E+00  0.00000000E+00  0.00000000E+00
  0.00000000E+00  0.00000000E+00  0.00000000E+00
  0.00000000E+00  0.00000000E+00  0.00000000E+00
  0.00000000E+00  0.00000000E+00  0.00000000E+00
  0.00000000E+00  0.00000000E+00  0.00000000E+00
  0.00000000E+00  0.00000000E+00  0.00000000E+00
  0.00000000E+00  0.00000000E+00  0.00000000E+00
  0.00000000E+00  0.00000000E+00  0.00000000E+00
  0.00000000E+00  0.00000000E+00  0.00000000E+00
  0.00000000E+00  0.00000000E+00  0.00000000E+00
  0.00000000E+00  0.00000000E+00  0.00000000E+00
  0.00000000E+00  0.00000000E+00  0.00000000E+00
  0.00000000E+00  0.00000000E+00  0.00000000E+00
  0.00000000E+00  0.00000000E+00  0.00000000E+00
  0.00000000E+00  0.00000000E+00  0.00000000E+00
  0.00000000E+00  0.00000000E+00  0.00000000E+00
  0.00000000E+00  0.00000000E+00  0.00000000E+00
  0.00000000E+00  0.00000000E+00  0.00000000E+00
  0.00000000E+00  0.00000000E+00  0.00000000E+00
  0.00000000E+00  0.00000000E+00  0.00000000E+00
  0.00000000E+00  0.00000000E+00  0.00000000E+00
  0.00000000E+00  0.00000000E+00  0.00000000E+00
  0.00000000E+00  0.00000000E+00  0.00000000E+00
  0.00000000E+00  0.00000000E+00  0.00000000E+00
  0.00000000E+00  0.00000000E+00  0.00000000E+00
  0.00000000E+00  0.00000000E+00  0.00000000E+00
  0.00000000E+00  0.00000000E+00  0.00000000E+00
  0.00000000E+00  0.00000000E+00  0.00000000E+00
  0.00000000E+00  0.00000000E+00  0.00000000E+00
  0.00000000E+00  0.00000000E+00  0.00000000E+00
  0.00000000E+00  0.00000000E+00  0.00000000E+00
  0.00000000E+00  0.00000000E+00  0.00000000E+00
  0.00000000E+00  0.00000000E+00  0.00000000E+00
  0.00000000E+00  0.00000000E+00  0.00000000E+00
  0.00000000E+00  0.00000000E+00  0.00000000E+00
  0.00000000E+00  0.00000000E+00  0.00000000E+00
  0.00000000E+00  0.00000000E+00  0.00000000E+00
  0.00000000E+00  0.00000000E+00  0.00000000E+00
  0.00000000E+00  0.00000000E+00  0.00000000E+00
  0.00000000E+00  0.00000000E+00  0.00000000E+00
  0.00000000E+00  0.00000000E+00  0.00000000E+00
  0.00000000E+00  0.00000000E+00  0.00000000E+00
  0.00000000E+00  0.00000000E+00  0.00000000E+00
  0.00000000E+00  0.00000000E+00  0.00000000E+00
  0.00000000E+00  0.00000000E+00  0.00000000E+00
  0.00000000E+00  0.00000000E+00  0.00000000E+00
  0.00000000E+00  0.00000000E+00  0.00000000E+00
  0.00000000E+00  0.00000000E+00  0.00000000E+00
  0.00000000E+00  0.00000000E+00  0.00000000E+00
  0.00000000E+00  0.00000000E+00  0.00000000E+00
  0.00000000E+00  0.00000000E+00  0.00000000E+00
  0.00000000E+00  0.00000000E+00  0.00000000E+00
  0.00000000E+00  0.00000000E+00  0.00000000E+00
  0.00000000E+00  0.00000000E+00  0.00000000E+00
  0.00000000E+00  0.00000000E+00  0.00000000E+00
  0.00000000E+00  0.00000000E+00  0.00000000E+00
  0.00000000E+00  0.00000000E+00  0.00000000E+00
  0.00000000E+00  0.00000000E+00  0.00000000E+00
  0.00000000E+00  0.00000000E+00  0.00000000E+00
  0.00000000E+00  0.00000000E+00  0.00000000E+00
  0.00000000E+00  0.00000000E+00  0.00000000E+00
  0.00000000E+00  0.00000000E+00  0.00000000E+00
  0.00000000E+00  0.00000000E+00  0.00000000E+00
  0.00000000E+00  0.00000000E+00  0.00000000E+00
  0.00000000E+00  0.00000000E+00  0.00000000E+00
  0.00000000E+00  0.00000000E+00  0.00000000E+00
  0.00000000E+00  0.00000000E+00  0.00000000E+00
  0.00000000E+00  0.00000000E+00  0.00000000E+00
  0.00000000E+00  0.00000000E+00  0.00000000E+00
  0.00000000E+00  0.00000000E+00  0.00000000E+00
  0.00000000E+00  0.00000000E+00  0.00000000E+00
  0.00000000E+00  0.00000000E+00  0.00000000E+00
  0.00000000E+00  0.00000000E+00  0.00000000E+00
  0.00000000E+00  0.00000000E+00  0.00000000E+00
  0.00000000E+00  0.00000000E+00  0.00000000E+00
  0.00000000E+00  0.00000000E+00  0.00000000E+00
  0.00000000E+00  0.00000000E+00  0.00000000E+00
  0.00000000E+00  0.00000000E+00  0.00000000E+00
  0.00000000E+00  0.00000000E+00  0.00000000E+00
  0.00000000E+00  0.00000000E+00  0.00000000E+00
  0.00000000E+00  0.00000000E+00  0.00000000E+00
  0.00000000E+00  0.00000000E+00  0.00000000E+00
  0.00000000E+00  0.00000000E+00  0.00000000E+00
  0.00000000E+00  0.00000000E+00  0.00000000E+00
  0.00000000E+00  0.00000000E+00  0.00000000E+00
  0.00000000E+00  0.00000000E+00  0.00000000E+00
  0.00000000E+00  0.00000000E+00  0.00000000E+00
  0.00000000E+00  0.00000000E+00  0.00000000E+00
  0.00000000E+00  0.00000000E+00  0.00000000E+00
  0.00000000E+00  0.00000000E+00  0.00000000E+00
  0.00000000E+00  0.00000000E+00  0.00000000E+00
  0.00000000E+00  0.00000000E+00  0.00000000E+00
  0.00000000E+00  0.00000000E+00  0.00000000E+00
  0.00000000E+00  0.00000000E+00  0.00000000E+00
  0.00000000E+00  0.00000000E+00  0.00000000E+00
  0.00000000E+00  0.00000000E+00  0.00000000E+00
  0.00000000E+00  0.00000000E+00  0.00000000E+00
  0.00000000E+00  0.00000000E+00  0.00000000E+00
