Ta N Cu Ru                              
   1.00000000000000     
    18.1096308199999996    0.0000000000000000    0.0000000000000000
     0.0000000000000000   11.6775998899999998    0.0000000000000000
     0.0000000000000000    0.0000000000000000   23.4818170799999990
   Ta   N    Cu   Ru
   119   120     1     1
Direct
  0.0000589106304834  0.9999815873454799  0.2548385716993757
  0.3333731049467168  0.1250912354117021  0.2637482305982209
  0.1664987057572255  0.1249139524291236  0.2637828355034074
  0.2500500834183635  0.2499534130743032  0.3612975550044598
  0.0825343047919408  0.1249673912710493  0.3684706956731315
  0.4175607105590172  0.1250254974811694  0.3682933694134893
  0.0000412528680329  0.2500078453021005  0.4794548326455864
  0.3319128488293319  0.1249954380450202  0.4778851918757863
  0.1675945618400944  0.1249224213065000  0.4782103715086551
  0.2498221070567794  0.2500241982475445  0.5911658351980078
  0.0837508635920342  0.1257453823309301  0.5891702428281036
  0.4163134167313092  0.1249718007459894  0.5897925278047615
  0.3357002493215743  0.1251211187184526  0.7040885488534656
  0.0000724072301701  0.2499855662559572  0.2548119341114586
  0.3333170267557483  0.3748884490170038  0.2637690273066571
  0.1665114951452026  0.3750964222272020  0.2637824558933800
  0.2499874592586308  0.4999977037294466  0.3613391283015905
  0.0825379384683521  0.3750260075208273  0.3684475781584772
  0.4175558372826097  0.3749636105005891  0.3682954924467773
  0.0000606382200918  0.5000983723253798  0.4797580808221250
  0.3319541450714770  0.3749954887583954  0.4779118808507028
  0.1676469674937638  0.3750938709457003  0.4781832349420780
  0.2495929695164723  0.4997684986659825  0.5911194604490134
  0.0838122218298974  0.3744289802047240  0.5892810893177783
  0.4162527240875993  0.3750542473271578  0.5897215666549580
  0.9999129993623155  0.4898557752726412  0.7033032008753539
  0.3352622629411494  0.3751566443734491  0.7039263589122816
  0.1651735305182580  0.3760391941007440  0.7041665772897789
  0.0000554728961403  0.5000355161645355  0.2548263921150770
  0.3334744683904942  0.6250028305543516  0.2637993205993122
  0.1664509632504736  0.6250504040880874  0.2638020205634051
  0.2498714995803321  0.7500017943549327  0.3613974851726601
  0.0825383867144185  0.6250503560201964  0.3685006040374345
  0.4174446762608247  0.6250054850519273  0.3684226316712562
  0.0000210500374341  0.7499792304061919  0.4800089983846142
  0.3322314273098625  0.6250092021615293  0.4781088459780078
  0.1674607232516934  0.6250834990682542  0.4783119919075758
  0.2494719696663206  0.7500971594689030  0.5912106031414910
  0.0834285162586928  0.6249107993559488  0.5902465710531143
  0.4161475395929637  0.6250450955094029  0.5898680937284946
  0.9998928220348917  0.7500598304522385  0.7026654249390878
  0.3349548875213176  0.6249979287215004  0.7039846238359087
  0.1637869419806459  0.6250531567985342  0.7045367792750177
  0.0000557410936756  0.7500102501122686  0.2548731263279187
  0.3334673436533819  0.8750341869857867  0.2638147933995518
  0.1664235621873443  0.8749490865289643  0.2637998518205553
  0.2499768789409712  0.0000656310017550  0.3613506629912616
  0.0825317426413931  0.8749649588438698  0.3685152258550033
  0.4174375914707956  0.8750135672207835  0.3684350365485119
  0.0000178623378022  0.9998144789004854  0.4797690028166875
  0.3322144097073821  0.8750478165314856  0.4781841367528560
  0.1675211706347984  0.8749879075379023  0.4783956677634837
  0.2492429882358800  0.0007127446689720  0.5914245232960320
  0.0833354145779153  0.8750564505156118  0.5902971152127829
  0.4160415284756039  0.8750280580320119  0.5898061453283570
  0.9986183360083933  0.0041551931068796  0.7019998471236777
  0.3351622739326306  0.8752463768983050  0.7039987973836318
  0.1647053275396846  0.8740287903792873  0.7052673068379697
  0.4999483024251832  0.9999914866365299  0.2548665720651948
  0.8334805370701514  0.1249418240264563  0.2637247797260957
  0.6666482848862088  0.1250780255259092  0.2637661479537890
  0.7498293884386394  0.2500169094523259  0.3612602310609357
  0.5823231518024099  0.1250340331984629  0.3683007995824017
  0.9174930099537808  0.1249525834654553  0.3683381501402955
  0.4999621427674765  0.2499733265985489  0.4799981274996136
  0.8322521191480345  0.1248540728173794  0.4778352820887616
  0.6679892751509804  0.1249829616418027  0.4778582515870652
  0.7499036844677280  0.2499965915131332  0.5908863812851088
  0.5836691165515621  0.1249639009447219  0.5897494113930215
  0.9156759790165538  0.1255165216152332  0.5886794533382674
  0.5004093765202063  0.2500746312429348  0.7022739329902470
  0.8355271153994449  0.1258391281417996  0.7031091703871855
  0.6652740160285264  0.1247936334352396  0.7041201467784927
  0.4999434586224906  0.2499748142392613  0.2548439773324772
  0.8334609297494674  0.3750750788609819  0.2637586219372775
  0.6666384074895196  0.3749140471862253  0.2637478954845711
  0.7499171414536904  0.4999393421320171  0.3613263808324653
  0.5823470592675847  0.3749654068783608  0.3682889181713392
  0.9175031409864449  0.3750362706688009  0.3683651462442695
  0.4999517068473435  0.5000155112173037  0.4798653389941611
  0.8322710137902961  0.3751011742504538  0.4779342834258233
  0.6679781589413459  0.3750339935399608  0.4778795971439107
  0.7502803184626331  0.4995926172829732  0.5910856979241198
  0.5836711862992875  0.3750662626513776  0.5897636999921320
  0.9159657177040648  0.3743548064245822  0.5889120132472377
  0.5001335581886553  0.5002796487640373  0.7022039992253374
  0.8353397038881042  0.3740541299763046  0.7035244126074678
  0.6652296487211459  0.3751546991006544  0.7040359554639026
  0.4999543074628138  0.5000860871626505  0.2548388420954538
  0.8335546561084455  0.6250356556637153  0.2637678820863356
  0.6664875186572619  0.6249926757077339  0.2638013997592299
  0.7500145885494184  0.7500078350779505  0.3613543845139365
  0.5824382945823058  0.6249922591512420  0.3684296744524285
  0.9175254075411415  0.6250526421432294  0.3684334544948837
  0.4999274172695952  0.7500149285090341  0.4798316261438523
  0.8324346771273626  0.6250318137877189  0.4781396684229448
  0.6676605687833451  0.6250135882242945  0.4781123814699385
  0.7502217911676546  0.7499323499788774  0.5910806370642495
  0.5837137145853206  0.6250064131517925  0.5898425587244482
  0.9164949132030091  0.6247796035426592  0.5900594709936209
  0.5000877826045259  0.7500478472621500  0.7021995337210972
  0.8357670132547991  0.6246134404846072  0.7045511577509485
  0.6651332846873378  0.6249202206053371  0.7040860302822940
  0.4999727716248281  0.7499779086673612  0.2548481257921936
  0.8335628985926855  0.8749501817791785  0.2637574477127859
  0.6664828267474313  0.8750409740191686  0.2638004232688769
  0.7499008982853127  0.0000392868979383  0.3612990237541689
  0.5824483266419936  0.8750260868617732  0.3684194922011813
  0.9175252326353006  0.8749301450926613  0.3684360731677223
  0.4999419457471523  0.0000182530593117  0.4798960937203525
  0.8323875492398186  0.8748828976839111  0.4780617183595434
  0.6676649791894950  0.8749771805140085  0.4781091144912187
  0.7502084791737827  0.0004037197525724  0.5910643824721391
  0.5837379540805623  0.8749774154742158  0.5898298772109649
  0.9163462533186738  0.8748809054661427  0.5899403778868495
  0.5002407675398879  0.9997676285872589  0.7022203566464749
  0.8355489242452427  0.8750690935923882  0.7042504332693715
  0.6651513505623607  0.8749755070740567  0.7040641238304338
  0.1674613159971853  0.1265221736655316  0.7022945397271040
  0.4067685313380363  0.0000796201993235  0.3011846092557528
  0.2499523120397207  0.9999429099889416  0.2577015508492635
  0.0931995290340956  0.9999337689613522  0.3012723264483551
  0.1544281616819972  0.2499757511059653  0.4099326698928856
  0.0000121028890454  0.2499905248513768  0.3929212594670440
  0.3455482047928729  0.2499532267285352  0.4099315289556105
  0.4009440133311001  0.2499126145605123  0.5219438367582051
  0.2500004450229094  0.2499329148031647  0.5028906759883577
  0.0991291490345013  0.2500695028666443  0.5218102674969511
  0.1513727391319420  0.2506761907757253  0.6336678402810348
  0.9997961179615344  0.2498418090182011  0.6125049696039389
  0.3481355554741002  0.2501380597870045  0.6332397623503583
  0.4036439943403134  0.2502691119970574  0.7402286767086017
  0.2500227077279025  0.2498136760795948  0.7246544849181115
  0.0965201214642561  0.2549566419175441  0.7413346315128170
  0.4068187273110807  0.2499883732136265  0.3011692601703810
  0.2498251680267306  0.2499823865435878  0.2576270054863783
  0.0932506298056686  0.2499809301239416  0.3012057084837658
  0.1544446534820565  0.5000485197302343  0.4100339478541939
  0.0000178342643192  0.5000762683429607  0.3931032227065013
  0.3455201221822012  0.4999879396801671  0.4099444023843872
  0.4009527630967379  0.4998255368463003  0.5219851015433227
  0.2499454710732178  0.5002595721800757  0.5029787818185673
  0.0989049524922733  0.5000749743286118  0.5222891521458618
  0.1510946533788201  0.4997914066212418  0.6335906993758487
  0.9998814671340700  0.4980752701011499  0.6145148595959956
  0.3479206678728355  0.5001626802523333  0.6331164006884342
  0.4030439121457297  0.4998951814431580  0.7400723008066642
  0.2495689003221782  0.4995759845097180  0.7241056638150630
  0.0965521842322997  0.4986691443575056  0.7410182137472665
  0.4067816392674819  0.4999289690168504  0.3011693204885486
  0.2499690543814345  0.5000691820066463  0.2576547642856917
  0.0931949459884323  0.5000862181991024  0.3012591016969227
  0.1544194799994943  0.7500546551155579  0.4101444767854622
  0.0000201961473546  0.7499957020249753  0.3932364823417070
  0.3454285418471003  0.7500234735223525  0.4099594871289163
  0.4009048871703779  0.7499966839079978  0.5220598948534740
  0.2498612096651842  0.7499782208622721  0.5030279604716746
  0.0988572433701773  0.7500668740614710  0.5223882068817445
  0.1513752034164493  0.7504951420802025  0.6337844179942465
  0.9998682069077174  0.7496629670942420  0.6139341282082196
  0.3477564999019439  0.7500640500797053  0.6331614143733708
  0.4028794144928803  0.7498859485483643  0.7401206819464148
  0.2490692317220863  0.7512255893377522  0.7240062754959539
  0.0967025073700724  0.7501129689326201  0.7412007697437072
  0.4067874074583314  0.7500149266936168  0.3011984308905389
  0.2500137760117312  0.7500168158583131  0.2577615857695701
  0.0931969966846704  0.7500136190700387  0.3013293987005727
  0.1544518597588212  0.9999598023954880  0.4100768453338767
  0.0000113290099744  0.9999138644115182  0.3931287714263069
  0.3454878611854775  0.0000612208907328  0.4099884188298350
  0.4009375928187068  0.0002973276967865  0.5219867738725100
  0.2498719192868989  0.9999484092563171  0.5032069640052956
  0.0988750687394501  0.9998459951812266  0.5222894944272185
  0.1504765293706748  0.0001928181924676  0.6343366091734592
  0.9996133808035920  0.0016189010558918  0.6137290375412487
  0.3478551061878310  0.9998916793859265  0.6331480421925146
  0.4033539624997383  0.0001337838718405  0.7402420988295885
  0.2498862472439368  0.0009599442087578  0.7244555050467347
  0.0956141079480512  0.0015353434290633  0.7434731357102607
  0.9068440443328140  0.9998876140788978  0.3011670040579142
  0.7500432197549401  0.9999227704320179  0.2576088405835140
  0.5931610612167458  0.0000815731892698  0.3011563410471177
  0.6542903366153895  0.2500171405104227  0.4098837489966579
  0.4999409883082657  0.2500059561304177  0.3932054468948988
  0.8455527780417018  0.2500103303204013  0.4097118315938814
  0.9007680386545970  0.2500634476867542  0.5214619813043252
  0.7499134028352837  0.2500098789879062  0.5026355594259473
  0.5989948042320971  0.2499828766427968  0.5219564194658768
  0.6518904618125508  0.2499861114204829  0.6333015608904464
  0.4999887790165794  0.2500203385148547  0.6135751215649584
  0.8482822319409868  0.2501545166180231  0.6328582045714601
  0.9045815249880962  0.2502936921250683  0.7384780900444109
  0.7508082767306827  0.2499342091274276  0.7244288401670173
  0.5969920166417401  0.2499366986221171  0.7403346238157484
  0.9068209488353974  0.2500116882040904  0.3010956100159085
  0.7501417434936162  0.2500053613447569  0.2575129040880297
  0.5931209068944822  0.2499983895841005  0.3011360894037525
  0.6543708753991297  0.4999918066804621  0.4099307066010689
  0.4999444427859367  0.4999937120307150  0.3931434033951001
  0.8455453007025020  0.5000812407614885  0.4098747415266753
  0.9010895145090916  0.5000789030712002  0.5220603577442731
  0.7500031680494627  0.5002174646497725  0.5029110978262883
  0.5989367284314866  0.4998625857436060  0.5219859097854359
  0.6519494863732527  0.5001663874672969  0.6331214371505277
  0.4999455304209799  0.4999905435524522  0.6135606100616009
  0.8488469719184877  0.4996369906635978  0.6333625264913907
  0.9034606045958135  0.4976123741813390  0.7408987214084231
  0.7502599811655002  0.4997967018032019  0.7239929901326645
  0.5969056903333090  0.4995933963502892  0.7401981548656082
  0.9068591334514376  0.5000880304548471  0.3011767453391661
  0.7500172862989801  0.5000813285128841  0.2576429425360308
  0.5931492808570860  0.4999414492404514  0.3011503226055274
  0.6544735870606134  0.7500050358999539  0.4099388738696657
  0.4999462553200164  0.7500174485803104  0.3931441119080950
  0.8455561729012372  0.7499581379873212  0.4099576723427976
  0.9010687850531606  0.7498771752742448  0.5221356709396142
  0.7500677827975039  0.7499701811752461  0.5028975904899726
  0.5989628556397114  0.7499782566336587  0.5220537959389068
  0.6520093525261236  0.7499207365972460  0.6331311554915563
  0.4999141151316679  0.7500812964833669  0.6134839345369625
  0.8483635725391722  0.7498572273594908  0.6334219406173707
  0.9032973279369518  0.7498742597254850  0.7407869219430664
  0.7506350915026578  0.7499538942325927  0.7238904188863772
  0.5969668845463026  0.7498959209610154  0.7402426214609427
  0.9068604538573242  0.7500030882265997  0.3012368093603951
  0.7499732013710780  0.7500067145784003  0.2577499342823693
  0.5931591182902767  0.7499999731210918  0.3011905470331677
  0.6543575912654158  0.0000003362425630  0.4099329015859915
  0.4999370263873366  0.9999867106073422  0.3931670007630941
  0.8455273041950568  0.9998838041257344  0.4098249867485460
  0.9009559979809993  0.9996824982147559  0.5218745302456729
  0.7499944670087548  0.9997478631368337  0.5028716681937700
  0.5989575786326791  0.0001940392675024  0.5219911846187113
  0.6519288363774177  0.9998882794506770  0.6331550842314586
  0.4999383289711444  0.9999643090498783  0.6135641580970562
  0.8487713290412288  0.0002051725475933  0.6332610846347750
  0.9034338186556015  0.0026730759215767  0.7407326123135829
  0.7503026641520709  0.0000947545566477  0.7239940989001967
  0.5970095534432326  0.0003553925422759  0.7402267541438586
  0.0636062900477706  0.1332527631488406  0.7877938603554052
  0.9984189910961834  0.2517182270177421  0.6982030747891919
 
  0.00000000E+00  0.00000000E+00  0.00000000E+00
  0.00000000E+00  0.00000000E+00  0.00000000E+00
  0.00000000E+00  0.00000000E+00  0.00000000E+00
  0.00000000E+00  0.00000000E+00  0.00000000E+00
  0.00000000E+00  0.00000000E+00  0.00000000E+00
  0.00000000E+00  0.00000000E+00  0.00000000E+00
  0.00000000E+00  0.00000000E+00  0.00000000E+00
  0.00000000E+00  0.00000000E+00  0.00000000E+00
  0.00000000E+00  0.00000000E+00  0.00000000E+00
  0.00000000E+00  0.00000000E+00  0.00000000E+00
  0.00000000E+00  0.00000000E+00  0.00000000E+00
  0.00000000E+00  0.00000000E+00  0.00000000E+00
  0.00000000E+00  0.00000000E+00  0.00000000E+00
  0.00000000E+00  0.00000000E+00  0.00000000E+00
  0.00000000E+00  0.00000000E+00  0.00000000E+00
  0.00000000E+00  0.00000000E+00  0.00000000E+00
  0.00000000E+00  0.00000000E+00  0.00000000E+00
  0.00000000E+00  0.00000000E+00  0.00000000E+00
  0.00000000E+00  0.00000000E+00  0.00000000E+00
  0.00000000E+00  0.00000000E+00  0.00000000E+00
  0.00000000E+00  0.00000000E+00  0.00000000E+00
  0.00000000E+00  0.00000000E+00  0.00000000E+00
  0.00000000E+00  0.00000000E+00  0.00000000E+00
  0.00000000E+00  0.00000000E+00  0.00000000E+00
  0.00000000E+00  0.00000000E+00  0.00000000E+00
  0.00000000E+00  0.00000000E+00  0.00000000E+00
  0.00000000E+00  0.00000000E+00  0.00000000E+00
  0.00000000E+00  0.00000000E+00  0.00000000E+00
  0.00000000E+00  0.00000000E+00  0.00000000E+00
  0.00000000E+00  0.00000000E+00  0.00000000E+00
  0.00000000E+00  0.00000000E+00  0.00000000E+00
  0.00000000E+00  0.00000000E+00  0.00000000E+00
  0.00000000E+00  0.00000000E+00  0.00000000E+00
  0.00000000E+00  0.00000000E+00  0.00000000E+00
  0.00000000E+00  0.00000000E+00  0.00000000E+00
  0.00000000E+00  0.00000000E+00  0.00000000E+00
  0.00000000E+00  0.00000000E+00  0.00000000E+00
  0.00000000E+00  0.00000000E+00  0.00000000E+00
  0.00000000E+00  0.00000000E+00  0.00000000E+00
  0.00000000E+00  0.00000000E+00  0.00000000E+00
  0.00000000E+00  0.00000000E+00  0.00000000E+00
  0.00000000E+00  0.00000000E+00  0.00000000E+00
  0.00000000E+00  0.00000000E+00  0.00000000E+00
  0.00000000E+00  0.00000000E+00  0.00000000E+00
  0.00000000E+00  0.00000000E+00  0.00000000E+00
  0.00000000E+00  0.00000000E+00  0.00000000E+00
  0.00000000E+00  0.00000000E+00  0.00000000E+00
  0.00000000E+00  0.00000000E+00  0.00000000E+00
  0.00000000E+00  0.00000000E+00  0.00000000E+00
  0.00000000E+00  0.00000000E+00  0.00000000E+00
  0.00000000E+00  0.00000000E+00  0.00000000E+00
  0.00000000E+00  0.00000000E+00  0.00000000E+00
  0.00000000E+00  0.00000000E+00  0.00000000E+00
  0.00000000E+00  0.00000000E+00  0.00000000E+00
  0.00000000E+00  0.00000000E+00  0.00000000E+00
  0.00000000E+00  0.00000000E+00  0.00000000E+00
  0.00000000E+00  0.00000000E+00  0.00000000E+00
  0.00000000E+00  0.00000000E+00  0.00000000E+00
  0.00000000E+00  0.00000000E+00  0.00000000E+00
  0.00000000E+00  0.00000000E+00  0.00000000E+00
  0.00000000E+00  0.00000000E+00  0.00000000E+00
  0.00000000E+00  0.00000000E+00  0.00000000E+00
  0.00000000E+00  0.00000000E+00  0.00000000E+00
  0.00000000E+00  0.00000000E+00  0.00000000E+00
  0.00000000E+00  0.00000000E+00  0.00000000E+00
  0.00000000E+00  0.00000000E+00  0.00000000E+00
  0.00000000E+00  0.00000000E+00  0.00000000E+00
  0.00000000E+00  0.00000000E+00  0.00000000E+00
  0.00000000E+00  0.00000000E+00  0.00000000E+00
  0.00000000E+00  0.00000000E+00  0.00000000E+00
  0.00000000E+00  0.00000000E+00  0.00000000E+00
  0.00000000E+00  0.00000000E+00  0.00000000E+00
  0.00000000E+00  0.00000000E+00  0.00000000E+00
  0.00000000E+00  0.00000000E+00  0.00000000E+00
  0.00000000E+00  0.00000000E+00  0.00000000E+00
  0.00000000E+00  0.00000000E+00  0.00000000E+00
  0.00000000E+00  0.00000000E+00  0.00000000E+00
  0.00000000E+00  0.00000000E+00  0.00000000E+00
  0.00000000E+00  0.00000000E+00  0.00000000E+00
  0.00000000E+00  0.00000000E+00  0.00000000E+00
  0.00000000E+00  0.00000000E+00  0.00000000E+00
  0.00000000E+00  0.00000000E+00  0.00000000E+00
  0.00000000E+00  0.00000000E+00  0.00000000E+00
  0.00000000E+00  0.00000000E+00  0.00000000E+00
  0.00000000E+00  0.00000000E+00  0.00000000E+00
  0.00000000E+00  0.00000000E+00  0.00000000E+00
  0.00000000E+00  0.00000000E+00  0.00000000E+00
  0.00000000E+00  0.00000000E+00  0.00000000E+00
  0.00000000E+00  0.00000000E+00  0.00000000E+00
  0.00000000E+00  0.00000000E+00  0.00000000E+00
  0.00000000E+00  0.00000000E+00  0.00000000E+00
  0.00000000E+00  0.00000000E+00  0.00000000E+00
  0.00000000E+00  0.00000000E+00  0.00000000E+00
  0.00000000E+00  0.00000000E+00  0.00000000E+00
  0.00000000E+00  0.00000000E+00  0.00000000E+00
  0.00000000E+00  0.00000000E+00  0.00000000E+00
  0.00000000E+00  0.00000000E+00  0.00000000E+00
  0.00000000E+00  0.00000000E+00  0.00000000E+00
  0.00000000E+00  0.00000000E+00  0.00000000E+00
  0.00000000E+00  0.00000000E+00  0.00000000E+00
  0.00000000E+00  0.00000000E+00  0.00000000E+00
  0.00000000E+00  0.00000000E+00  0.00000000E+00
  0.00000000E+00  0.00000000E+00  0.00000000E+00
  0.00000000E+00  0.00000000E+00  0.00000000E+00
  0.00000000E+00  0.00000000E+00  0.00000000E+00
  0.00000000E+00  0.00000000E+00  0.00000000E+00
  0.00000000E+00  0.00000000E+00  0.00000000E+00
  0.00000000E+00  0.00000000E+00  0.00000000E+00
  0.00000000E+00  0.00000000E+00  0.00000000E+00
  0.00000000E+00  0.00000000E+00  0.00000000E+00
  0.00000000E+00  0.00000000E+00  0.00000000E+00
  0.00000000E+00  0.00000000E+00  0.00000000E+00
  0.00000000E+00  0.00000000E+00  0.00000000E+00
  0.00000000E+00  0.00000000E+00  0.00000000E+00
  0.00000000E+00  0.00000000E+00  0.00000000E+00
  0.00000000E+00  0.00000000E+00  0.00000000E+00
  0.00000000E+00  0.00000000E+00  0.00000000E+00
  0.00000000E+00  0.00000000E+00  0.00000000E+00
  0.00000000E+00  0.00000000E+00  0.00000000E+00
  0.00000000E+00  0.00000000E+00  0.00000000E+00
  0.00000000E+00  0.00000000E+00  0.00000000E+00
  0.00000000E+00  0.00000000E+00  0.00000000E+00
  0.00000000E+00  0.00000000E+00  0.00000000E+00
  0.00000000E+00  0.00000000E+00  0.00000000E+00
  0.00000000E+00  0.00000000E+00  0.00000000E+00
  0.00000000E+00  0.00000000E+00  0.00000000E+00
  0.00000000E+00  0.00000000E+00  0.00000000E+00
  0.00000000E+00  0.00000000E+00  0.00000000E+00
  0.00000000E+00  0.00000000E+00  0.00000000E+00
  0.00000000E+00  0.00000000E+00  0.00000000E+00
  0.00000000E+00  0.00000000E+00  0.00000000E+00
  0.00000000E+00  0.00000000E+00  0.00000000E+00
  0.00000000E+00  0.00000000E+00  0.00000000E+00
  0.00000000E+00  0.00000000E+00  0.00000000E+00
  0.00000000E+00  0.00000000E+00  0.00000000E+00
  0.00000000E+00  0.00000000E+00  0.00000000E+00
  0.00000000E+00  0.00000000E+00  0.00000000E+00
  0.00000000E+00  0.00000000E+00  0.00000000E+00
  0.00000000E+00  0.00000000E+00  0.00000000E+00
  0.00000000E+00  0.00000000E+00  0.00000000E+00
  0.00000000E+00  0.00000000E+00  0.00000000E+00
  0.00000000E+00  0.00000000E+00  0.00000000E+00
  0.00000000E+00  0.00000000E+00  0.00000000E+00
  0.00000000E+00  0.00000000E+00  0.00000000E+00
  0.00000000E+00  0.00000000E+00  0.00000000E+00
  0.00000000E+00  0.00000000E+00  0.00000000E+00
  0.00000000E+00  0.00000000E+00  0.00000000E+00
  0.00000000E+00  0.00000000E+00  0.00000000E+00
  0.00000000E+00  0.00000000E+00  0.00000000E+00
  0.00000000E+00  0.00000000E+00  0.00000000E+00
  0.00000000E+00  0.00000000E+00  0.00000000E+00
  0.00000000E+00  0.00000000E+00  0.00000000E+00
  0.00000000E+00  0.00000000E+00  0.00000000E+00
  0.00000000E+00  0.00000000E+00  0.00000000E+00
  0.00000000E+00  0.00000000E+00  0.00000000E+00
  0.00000000E+00  0.00000000E+00  0.00000000E+00
  0.00000000E+00  0.00000000E+00  0.00000000E+00
  0.00000000E+00  0.00000000E+00  0.00000000E+00
  0.00000000E+00  0.00000000E+00  0.00000000E+00
  0.00000000E+00  0.00000000E+00  0.00000000E+00
  0.00000000E+00  0.00000000E+00  0.00000000E+00
  0.00000000E+00  0.00000000E+00  0.00000000E+00
  0.00000000E+00  0.00000000E+00  0.00000000E+00
  0.00000000E+00  0.00000000E+00  0.00000000E+00
  0.00000000E+00  0.00000000E+00  0.00000000E+00
  0.00000000E+00  0.00000000E+00  0.00000000E+00
  0.00000000E+00  0.00000000E+00  0.00000000E+00
  0.00000000E+00  0.00000000E+00  0.00000000E+00
  0.00000000E+00  0.00000000E+00  0.00000000E+00
  0.00000000E+00  0.00000000E+00  0.00000000E+00
  0.00000000E+00  0.00000000E+00  0.00000000E+00
  0.00000000E+00  0.00000000E+00  0.00000000E+00
  0.00000000E+00  0.00000000E+00  0.00000000E+00
  0.00000000E+00  0.00000000E+00  0.00000000E+00
  0.00000000E+00  0.00000000E+00  0.00000000E+00
  0.00000000E+00  0.00000000E+00  0.00000000E+00
  0.00000000E+00  0.00000000E+00  0.00000000E+00
  0.00000000E+00  0.00000000E+00  0.00000000E+00
  0.00000000E+00  0.00000000E+00  0.00000000E+00
  0.00000000E+00  0.00000000E+00  0.00000000E+00
  0.00000000E+00  0.00000000E+00  0.00000000E+00
  0.00000000E+00  0.00000000E+00  0.00000000E+00
  0.00000000E+00  0.00000000E+00  0.00000000E+00
  0.00000000E+00  0.00000000E+00  0.00000000E+00
  0.00000000E+00  0.00000000E+00  0.00000000E+00
  0.00000000E+00  0.00000000E+00  0.00000000E+00
  0.00000000E+00  0.00000000E+00  0.00000000E+00
  0.00000000E+00  0.00000000E+00  0.00000000E+00
  0.00000000E+00  0.00000000E+00  0.00000000E+00
  0.00000000E+00  0.00000000E+00  0.00000000E+00
  0.00000000E+00  0.00000000E+00  0.00000000E+00
  0.00000000E+00  0.00000000E+00  0.00000000E+00
  0.00000000E+00  0.00000000E+00  0.00000000E+00
  0.00000000E+00  0.00000000E+00  0.00000000E+00
  0.00000000E+00  0.00000000E+00  0.00000000E+00
  0.00000000E+00  0.00000000E+00  0.00000000E+00
  0.00000000E+00  0.00000000E+00  0.00000000E+00
  0.00000000E+00  0.00000000E+00  0.00000000E+00
  0.00000000E+00  0.00000000E+00  0.00000000E+00
  0.00000000E+00  0.00000000E+00  0.00000000E+00
  0.00000000E+00  0.00000000E+00  0.00000000E+00
  0.00000000E+00  0.00000000E+00  0.00000000E+00
  0.00000000E+00  0.00000000E+00  0.00000000E+00
  0.00000000E+00  0.00000000E+00  0.00000000E+00
  0.00000000E+00  0.00000000E+00  0.00000000E+00
  0.00000000E+00  0.00000000E+00  0.00000000E+00
  0.00000000E+00  0.00000000E+00  0.00000000E+00
  0.00000000E+00  0.00000000E+00  0.00000000E+00
  0.00000000E+00  0.00000000E+00  0.00000000E+00
  0.00000000E+00  0.00000000E+00  0.00000000E+00
  0.00000000E+00  0.00000000E+00  0.00000000E+00
  0.00000000E+00  0.00000000E+00  0.00000000E+00
  0.00000000E+00  0.00000000E+00  0.00000000E+00
  0.00000000E+00  0.00000000E+00  0.00000000E+00
  0.00000000E+00  0.00000000E+00  0.00000000E+00
  0.00000000E+00  0.00000000E+00  0.00000000E+00
  0.00000000E+00  0.00000000E+00  0.00000000E+00
  0.00000000E+00  0.00000000E+00  0.00000000E+00
  0.00000000E+00  0.00000000E+00  0.00000000E+00
  0.00000000E+00  0.00000000E+00  0.00000000E+00
  0.00000000E+00  0.00000000E+00  0.00000000E+00
  0.00000000E+00  0.00000000E+00  0.00000000E+00
  0.00000000E+00  0.00000000E+00  0.00000000E+00
  0.00000000E+00  0.00000000E+00  0.00000000E+00
  0.00000000E+00  0.00000000E+00  0.00000000E+00
  0.00000000E+00  0.00000000E+00  0.00000000E+00
  0.00000000E+00  0.00000000E+00  0.00000000E+00
  0.00000000E+00  0.00000000E+00  0.00000000E+00
  0.00000000E+00  0.00000000E+00  0.00000000E+00
  0.00000000E+00  0.00000000E+00  0.00000000E+00
  0.00000000E+00  0.00000000E+00  0.00000000E+00
  0.00000000E+00  0.00000000E+00  0.00000000E+00
  0.00000000E+00  0.00000000E+00  0.00000000E+00
  0.00000000E+00  0.00000000E+00  0.00000000E+00
  0.00000000E+00  0.00000000E+00  0.00000000E+00
  0.00000000E+00  0.00000000E+00  0.00000000E+00
  0.00000000E+00  0.00000000E+00  0.00000000E+00
  0.00000000E+00  0.00000000E+00  0.00000000E+00
  0.00000000E+00  0.00000000E+00  0.00000000E+00
  0.00000000E+00  0.00000000E+00  0.00000000E+00
  0.00000000E+00  0.00000000E+00  0.00000000E+00
