Ta  N  W Cu                             
   1.00000000000000     
    18.1096308199999996    0.0000000000000000    0.0000000000000000
     0.0000000000000000   23.3551997799999995    0.0000000000000000
     0.0000000000000000    0.0000000000000000   30.4818171199999988
   Ta   N    W    Cu
   216   240    24     4
Direct
  0.0000609088559926  0.0000158573546258  0.1978568727868790
  0.3344542082526729  0.0625026519714424  0.2033951692690152
  0.1656695601544129  0.0624486641196000  0.2033575397418375
  0.2501910543300241  0.1251437822716710  0.2784813865326541
  0.0827256218934096  0.0624735401046479  0.2846740425403382
  0.4173480966127698  0.0624828300070845  0.2847285665097203
  0.0000989913588256  0.1251800703072306  0.3703034022203795
  0.3327755555576246  0.0624893575172223  0.3691779434855746
  0.1675981886725069  0.0624910504908058  0.3690208806050066
  0.2500008042253441  0.1252396418971813  0.4553873584606833
  0.0836529586084538  0.0626391117400331  0.4552309068835427
  0.4165714152801883  0.0626285916950522  0.4554592552490959
  0.9998654065796586  0.1282292088857488  0.5414913592354225
  0.3351838844440138  0.0627809479373198  0.5426362219640453
  0.1643345936808984  0.0631506790611027  0.5427329083985626
  0.0000958643122217  0.1248689885711372  0.1977206373738127
  0.3342345548054624  0.1873287692163146  0.2031486466761550
  0.1660099544774098  0.1872598905264340  0.2030862114675429
  0.2502905002826523  0.2500863970547655  0.2782223295115571
  0.0827553873240987  0.1874378394572247  0.2842773947028974
  0.4173501468262373  0.1874735239163314  0.2844432320966206
  0.0001110209377373  0.2501905739996673  0.3696641436280004
  0.3329060863372746  0.1874589301902603  0.3688025991717154
  0.1675630381002833  0.1874635498097135  0.3685250389836625
  0.2501414619147155  0.2503516949424736  0.4543782389744209
  0.0839162320314557  0.1878226027525542  0.4546000188746220
  0.4165134926321343  0.1875689914844116  0.4551666914438144
  0.9995329002760940  0.2523999520342315  0.5407543583147358
  0.0001282453215765  0.2498551291061588  0.1973775288564568
  0.3341711313396445  0.3124178439620664  0.2027977186844225
  0.1662071278511306  0.3123491969854868  0.2027281135934302
  0.2503511461257659  0.3750418676620910  0.2779371954753600
  0.0826800265946588  0.3124137338907857  0.2838515340448353
  0.4174821958289670  0.3124850046958088  0.2840921336440445
  0.0001257132309291  0.3751328919195700  0.3692433037502099
  0.3328792158876865  0.3125308303930225  0.3684567979881379
  0.1676618452039804  0.3125393428083783  0.3680158824033910
  0.2501826871613488  0.3752407705356049  0.4540152609845194
  0.0837573628001351  0.3128546700533548  0.4539676409855602
  0.4168602752001647  0.3127197825657504  0.4547187284628009
  0.9993577627396846  0.3761091127809451  0.5405409930299783
  0.0001543123173846  0.3749117652675764  0.1970019972641737
  0.3343567366869138  0.4373942044799151  0.2026212818577235
  0.1660228399491501  0.4373406576605632  0.2025011963804459
  0.2501259358758716  0.0000222082831272  0.2786395689543824
  0.0826330821581323  0.4374756448193153  0.2836072050410863
  0.4175297626511139  0.4375082200734539  0.2839397797355758
  0.0000547896553584  0.0000160518027030  0.3706212554266770
  0.3328098405493449  0.4375777415249829  0.3682788068871119
  0.1677283879826206  0.4375489239088921  0.3677332759726113
  0.2499364327892906  0.0000373828111933  0.4559307366914567
  0.0837638028427250  0.4376490781136653  0.4537228339561921
  0.4170301022793197  0.4376252870500963  0.4545695134294476
  0.9998821291380935  0.0000277657055108  0.5413845756460276
  0.0001405730217954  0.4999748105381059  0.1969076283249080
  0.3343470128597517  0.5625790520734739  0.2025979750906259
  0.1660188789064634  0.5626288420288503  0.2024804252000152
  0.2503076864335583  0.6249697601468895  0.2778712628868405
  0.0826186274064113  0.5625119398621123  0.2835820860270388
  0.4175255669328095  0.5625250535170636  0.2839002725987001
  0.0000810135514726  0.6248667177135729  0.3692053958220640
  0.3327981978526608  0.5625592137949624  0.3682579554721599
  0.1677142443203152  0.5625003372274051  0.3677114881939048
  0.2502258208533377  0.6248612688973694  0.4540125316838726
  0.0837417022429179  0.5624020917966774  0.4536923644817179
  0.4170107120027069  0.5625706430986455  0.4545937765735459
  0.9992658800885081  0.6239463743636904  0.5405042390820327
  0.0001245952801909  0.6250576247072033  0.1969603062265293
  0.3341392393265679  0.6875765568942001  0.2027429626523798
  0.1661858758274519  0.6876413724683061  0.2026864310753993
  0.2502452701799953  0.7499402474517183  0.2781442424499758
  0.0826390752525512  0.6875811616576186  0.2837931845717421
  0.4174788613904212  0.6875537839204213  0.2840129986271052
  0.0000660524688243  0.7498179411385593  0.3696175363072669
  0.3328302697548153  0.6875618328019968  0.3683850954851948
  0.1676065891678036  0.6874989750505307  0.3679557545492855
  0.2500964135427495  0.7497230519445708  0.4543288744146281
  0.0837144670298713  0.6871865340944225  0.4539076224755476
  0.4168126535276286  0.6874431850985090  0.4547089873640431
  0.9994367329778555  0.7476506506839797  0.5407223131836645
  0.0000863854493431  0.7501402750853003  0.1973374775698957
  0.3342050389747016  0.8126832300412161  0.2030964446498942
  0.1659903640644558  0.8127370132118870  0.2030482984561957
  0.2501672614689454  0.8748938318182695  0.2784365384725760
  0.0827245625558177  0.8125844006389613  0.2842314892674480
  0.4173451460312805  0.8125658777334479  0.2843779655574608
  0.0000653974949358  0.8748486914175047  0.3702731444638516
  0.3328662968879144  0.8126192586529584  0.3687225857261183
  0.1675173976295383  0.8125799042167046  0.3684668053125790
  0.2499691546008336  0.8748438900375390  0.4553352785709919
  0.0838757660241001  0.8122195703951149  0.4545500813132648
  0.4164348301850254  0.8125425176977785  0.4551014901489623
  0.9997947324347152  0.8718257754625540  0.5414721692532751
  0.0000823791292817  0.8751549385336190  0.1976876011254163
  0.3344445250148311  0.9375210463266583  0.2033767422452044
  0.1656722155210346  0.9375839104120871  0.2033452920655776
  0.2503635916520111  0.5000019089320986  0.2779197572519507
  0.0827167819890349  0.9375554036981839  0.2846573390063156
  0.4173547813194745  0.9375486229981718  0.2847058416967769
  0.0000757183563778  0.4999958625464345  0.3690869685424545
  0.3327532389332930  0.9375862306072307  0.3691467374517359
  0.1675804422423397  0.9375599098251470  0.3690029335385958
  0.2502676927494960  0.5000584746386636  0.4539496287836116
  0.0836343479118753  0.9374096715341196  0.4552086175655887
  0.4165546156533040  0.9374791490208523  0.4554261974481406
  0.9993761978812117  0.5000368071990451  0.5406297676136873
  0.3351297907812594  0.9373315074535782  0.5426003729784910
  0.1643078330676602  0.9369235469672645  0.5427101952363671
  0.4999584733993814  0.0000184195126565  0.1978838748985794
  0.8343914914397601  0.0624576054436332  0.2033148121121968
  0.6655657361404081  0.0624797335202345  0.2033485713915795
  0.7499573040999223  0.1250606830266108  0.2783639990384827
  0.5826423653624744  0.0624905048232804  0.2846737409882323
  0.9173482521796004  0.0624643989997722  0.2846264102788609
  0.5000814316498179  0.1251627369417463  0.3704810117429886
  0.8326006084821813  0.0624983317473990  0.3690194240608164
  0.6674799519018038  0.0624779791379666  0.3690262643975402
  0.7502182400317849  0.1252786107164425  0.4552788729210917
  0.5838768181340370  0.0626569752597916  0.4553781814326427
  0.9164829723031076  0.0626574650186242  0.4552397943968387
  0.4999044141998539  0.1278607229414490  0.5423835445428935
  0.8355362380762443  0.0631450529994595  0.5427601488340557
  0.6648712821629843  0.0630944683252679  0.5426394832630876
  0.4999429595939020  0.1248794995589861  0.1977935442139724
  0.8340893375225917  0.1872561948302689  0.2030135896881475
  0.6658013138174823  0.1873124944082676  0.2030741049470137
  0.7498986351696360  0.2500352888567861  0.2779282250901716
  0.5826770596206075  0.1874634284387255  0.2843505324048152
  0.9173570749636681  0.1874285608776702  0.2841922566362811
  0.5000528478217632  0.2501855988136015  0.3699895941274747
  0.8327158684311300  0.1874852763969557  0.3684276818396839
  0.6673074186159624  0.1874517497268187  0.3685807394183556
  0.7502036516318924  0.2505766890725454  0.4540924805253894
  0.5841272539064732  0.1877192101753735  0.4548967100396411
  0.9162858944805308  0.1878875081725084  0.4546264168896812
  0.5011530501734569  0.2519499767998852  0.5412504906235682
  0.4998710062326026  0.2499169755626625  0.1974886706883652
  0.8339298437541345  0.3122960002190069  0.2026145743113119
  0.6658826141847172  0.3123729476203394  0.2026850929670161
  0.7498880733006175  0.3750330271524405  0.2776017309666230
  0.5825467123780257  0.3124612196608396  0.2839317709033153
  0.9174549021386440  0.3124194496901467  0.2837031153186160
  0.5000042681121215  0.3751972928243248  0.3696324770360278
  0.8327668951978353  0.3125539491383691  0.3678737816120190
  0.6673786910356228  0.3125389821254032  0.3681200315879281
  0.7502030143743710  0.3753404909898705  0.4536271021831126
  0.5838248107838098  0.3128806323740676  0.4543693863362179
  0.9164416143668035  0.3129174969292023  0.4540366421413324
  0.5018678277021564  0.3754668850464924  0.5420812208991919
  0.4998250341585901  0.3749145490269399  0.1971433579915072
  0.8340840523744717  0.4373269674674134  0.2023721020656311
  0.6656597281232948  0.4373836860915574  0.2024757718095813
  0.7500344101385181  0.0000181452164512  0.2786093535333194
  0.5825621026987591  0.4374948165172867  0.2836990251859817
  0.9174846441115463  0.4374671253511693  0.2834304845451072
  0.5000876906124105  0.0000356492724478  0.3706565291221082
  0.8327122989909768  0.4375529525361088  0.3675605005941236
  0.6673926456361770  0.4375630525305922  0.3678436708012498
  0.7502740840223296  0.0000330831847180  0.4558940548062296
  0.5838009931878503  0.4376763071178686  0.4541493778634873
  0.9164712365897358  0.4376737262546087  0.4537901914177809
  0.4999730356446719  0.0000549141373867  0.5415089744307906
  0.4998060370420490  0.4999778805984718  0.1970252590187798
  0.8340759832139995  0.5626384930730666  0.2023639388757630
  0.6656651086351957  0.5625966672449252  0.2024613644066022
  0.7498865148958984  0.6249666163411547  0.2775686068684138
  0.5825599365327250  0.5625264278034550  0.2836730993650391
  0.9174736923497804  0.5625086470904250  0.2834151249148178
  0.4999738504301874  0.6249275630747704  0.3695803084323899
  0.8327028843247675  0.5624667190826003  0.3675475353304734
  0.6673788814113664  0.5625236657603025  0.3678252543726614
  0.7501708499137862  0.6247500802671340  0.4536000075229012
  0.5837698095468227  0.5625122778588079  0.4541363826047160
  0.9164461635180885  0.5623427147675102  0.4537788691650206
  0.5016463557312534  0.6245741582967241  0.5421238822548915
  0.4998450368017444  0.6250736890907476  0.1970934199516066
  0.8339378403915632  0.6876855945546581  0.2025887314136341
  0.6659033180879064  0.6876320640926679  0.2026449776272159
  0.7499101034873519  0.7499847876540358  0.2778787326503576
  0.5825469404353072  0.6875692006023826  0.2838676498378945
  0.9174381072970377  0.6875743595275168  0.2836708419263800
  0.5000086075521395  0.7499039031642809  0.3699252030303057
  0.8327516537191286  0.6874685532742149  0.3678379822281741
  0.6673635817033627  0.6875376125130117  0.3680649475786737
  0.7501793098331433  0.7495029958107082  0.4540518665233932
  0.5837841695469947  0.6872919481300173  0.4543174545793036
  0.9163980438884352  0.6871082844216687  0.4540161793156869
  0.5010772509507788  0.7482394475857816  0.5411548519042952
  0.4998894223632178  0.7500965636998984  0.1974271061997044
  0.8340964569277531  0.8127430123995865  0.2029833830110306
  0.6658349365058029  0.8127025029081238  0.2030328797121754
  0.7499661314801571  0.8749693056459904  0.2783386481438868
  0.5826858928402885  0.8125709913142103  0.2842977167861420
  0.9173529626415728  0.8125885860862212  0.2841649206926036
  0.5000620265675408  0.8749150600209603  0.3704316812041100
  0.8327065072445237  0.8125429117751750  0.3684003412743166
  0.6673072274311096  0.8126107580914024  0.3685302358232292
  0.7502255158847149  0.8747876300860824  0.4552495002847294
  0.5840847632828314  0.8124058681724406  0.4548328576353242
  0.9162547716251481  0.8121361644906742  0.4546093373315259
  0.4998313766805964  0.8722600243835004  0.5423475131380542
  0.4999548204809514  0.8751516777573372  0.1977539865844378
  0.8343718274524576  0.9375526799032556  0.2033072099794566
  0.6655946985551964  0.9375187936401588  0.2033350837308632
  0.7498592074696120  0.4999960822464828  0.2775822681505602
  0.5826596857805271  0.9375318506446817  0.2846496352205108
  0.9173387116369796  0.9375571798306908  0.2846142927805104
  0.5000028426218037  0.5000689957233675  0.3695543141789202
  0.8325980953076311  0.9375304073621678  0.3690055664812633
  0.6674844134428142  0.9375740371648433  0.3690063438060420
  0.7501296562729749  0.5000459024560513  0.4535470908301420
  0.5838744845409565  0.9374527407739564  0.4553555613081812
  0.9164733892431514  0.9373711309106199  0.4552342531803859
  0.5019773302084758  0.4999851227808350  0.5419626278697862
  0.8355276189615850  0.9369068455058525  0.5427566674372954
  0.6648742474313494  0.9369925049085097  0.5426196778745691
  0.4059342372807038  0.0000158978462750  0.2330623011631587
  0.2500739772622111  0.0000103606675665  0.2009858316825088
  0.0940814794274587  0.0000133523029859  0.2330294088912126
  0.1550079013722794  0.1249493088455438  0.3162984599036491
  0.0000305701415897  0.1250266634187938  0.3036400363873355
  0.3452573381863573  0.1249693808522778  0.3164629723076473
  0.4012025563730077  0.1251344339366440  0.4031372656753405
  0.2501100290187210  0.1249853332495690  0.3878090363607072
  0.0991098764895497  0.1251139537579178  0.4028414277050771
  0.1521954072339256  0.1258808428369775  0.4882883074297126
  0.0000788163438372  0.1258707214794370  0.4737521431759006
  0.3475777502242607  0.1254195200722847  0.4884659192617420
  0.4000046808381086  0.1291191138858636  0.5705236630266342
  0.2494739163504107  0.1306528102155724  0.5581745421283486
  0.0991389844199233  0.1294133212171076  0.5701095489428880
  0.4058696207378034  0.1249371991534645  0.2329064557181724
  0.2500907141891417  0.1247928675020518  0.2001017109679069
  0.0941785452673756  0.1248750399590435  0.2328080896110123
  0.1549547120036152  0.2499655384405060  0.3158239494081130
  0.0000321036602813  0.2499891265289733  0.3031206786286802
  0.3454338484612265  0.2500364266738302  0.3161093819188991
  0.4011961915430504  0.2501846245797452  0.4027951879898950
  0.2501568151634572  0.2500331886095566  0.3871518077831695
  0.0991053833325211  0.2502557175928288  0.4022987594960767
  0.1527145236013183  0.2508408051525848  0.4873637568010878
  0.0000508308852432  0.2507813167703645  0.4732253639120643
  0.3472160277829133  0.2501349993066313  0.4878977162570379
  0.3970711246390763  0.2501942638749597  0.5704189967362367
  0.2486596586571324  0.2530152057270101  0.5579263210902710
  0.1005314842547165  0.2519308024509996  0.5689632639946680
  0.4058017958875269  0.2498884242289847  0.2325831326681040
  0.2501256980435258  0.2497918925435982  0.1998418928129766
  0.0942892978774594  0.2498238504264236  0.2323692743320152
  0.1548638566788156  0.3749846421217669  0.3154600952655073
  0.0000317429806458  0.3749665062777723  0.3027399675910658
  0.3455557167860093  0.3750287492022224  0.3158708115908340
  0.4012666057377174  0.3751567510468234  0.4026186063971693
  0.2501702729077024  0.3751050116387731  0.3868073964609238
  0.0991087097287533  0.3752008303798036  0.4019084581205448
  0.1526595264055501  0.3754731338862527  0.4868973110704431
  0.0000518500058035  0.3754311178401224  0.4728923055298822
  0.3471682567763139  0.3750951003362246  0.4877155080206705
  0.3938090457975960  0.3756083652919102  0.5706440512974851
  0.2480310038946669  0.3758208425257337  0.5577127371552209
  0.1005759309082137  0.3759764548053184  0.5687127925389959
  0.4058230093329342  0.3749292760988041  0.2323250118516142
  0.2501547083844642  0.3749352916418545  0.1993056597561562
  0.0943009641768100  0.3748467452440778  0.2320305036188586
  0.1550264929422269  0.0000206298656380  0.3165450008854194
  0.0000204134144823  0.0000127935110825  0.3039154699133775
  0.3451560440297072  0.0000284052101591  0.3166211643607824
  0.4011139092561393  0.0000443813052087  0.4031709405130144
  0.2500988470220804  0.0000325037718554  0.3881173658777683
  0.0991600310708236  0.0000265338137808  0.4030918906733447
  0.1515986599722510  0.0000284125603400  0.4885316852575841
  0.0000766385528905  0.0000206255862452  0.4734989616968903
  0.3480883602875622  0.0000498427409283  0.4884899711836255
  0.4022178973009858  0.0000306545467197  0.5706781973954662
  0.2495911114736202  0.0000452713436090  0.5583222048018044
  0.0972499815467032  0.0000405418602298  0.5707349046730528
  0.4058507786808718  0.4999916168514460  0.2322836851937140
  0.2501198820848529  0.4999812941176671  0.2002523129692548
  0.0943245841021252  0.4999844725903841  0.2319352273586972
  0.1548385045588248  0.6250231445356675  0.3154143697366791
  0.0000112105933283  0.6250172196965593  0.3027041565427524
  0.3455282419275960  0.6250355168454433  0.3158076483631618
  0.4012267030143661  0.6250088266735219  0.4026102621741288
  0.2501438374542175  0.6249826001231327  0.3867925671750285
  0.0990598037882506  0.6248279225017654  0.4018582033746227
  0.1526643071536355  0.6246088722801630  0.4868430296765922
  0.0000178506246158  0.6245987207913757  0.4728616254922926
  0.3471907371011724  0.6250678964865557  0.4877989460062295
  0.3938050776576674  0.6245065312184082  0.5708930575940911
  0.2479798312496158  0.6244166617907396  0.5577438849664702
  0.1004921287231042  0.6241217285383627  0.5686663440134438
  0.4058297074247292  0.6250708063815651  0.2322562537480763
  0.2501382370058920  0.6250425938894537  0.1992457349650607
  0.0942724111041073  0.6251288943317519  0.2319827521299160
  0.1549140030107452  0.7500508004769344  0.3157624468616831
  0.0000116161618209  0.7500146470446154  0.3030797437719812
  0.3454073814338159  0.7500118318226399  0.3160218391456837
  0.4011358747890483  0.7499119494518069  0.4027297731367057
  0.2501092455868701  0.7500255217136456  0.3870788403492966
  0.0990518672410730  0.7497768651729046  0.4022407870066971
  0.1526740575125416  0.7492156791565989  0.4872893457947782
  0.0000054211457083  0.7492453262705396  0.4731908719565681
  0.3471491636509612  0.7499820508720276  0.4878729082158770
  0.3969819508957926  0.7500699283179557  0.5703725646790758
  0.2485828573641840  0.7471101819334081  0.5578786979104677
  0.1004484652183422  0.7481410918012514  0.5689005018219149
  0.4058098040155542  0.7501287495211315  0.2325005870680599
  0.2501165176838569  0.7502152945748080  0.1997812710631734
  0.0942565462463207  0.7501800042775955  0.2323178358259241
  0.1549868453273078  0.8750888354310291  0.3162617744430207
  0.0000216652062619  0.8749957858819499  0.3036185526016482
  0.3452432648620061  0.8750833361874371  0.3164097150734619
  0.4011736865709068  0.8749567791474107  0.4030790356861402
  0.2500812973873110  0.8750698472422158  0.3877606713423916
  0.0990834527037023  0.8749285696270519  0.4028085902261935
  0.1521528799721992  0.8741813780077976  0.4882445399621176
  0.0000564300256372  0.8741666639649992  0.4737309668682954
  0.3475256674944092  0.8746922597215061  0.4884149779034033
  0.3999150529074527  0.8709963780197185  0.5704776871166004
  0.2493958312706042  0.8694413825082634  0.5581232340710756
  0.0990933755020791  0.8706605757770163  0.5700776863489594
  0.4058784909804345  0.8750931601622298  0.2328619800695364
  0.2500732943181205  0.8752237518337793  0.2000607615444991
  0.0941637482323756  0.8751480484798151  0.2327741493471365
  0.1547548940350154  0.5000053669257483  0.3153304466379012
  0.0000145423949363  0.4999876231301101  0.3026028756424068
  0.3457008962123567  0.5000409951845910  0.3158014427729299
  0.4012459671818291  0.5001063917897213  0.4025385867078839
  0.2501865595138568  0.5000551278107253  0.3867051195568934
  0.0991239714746257  0.5000132464020766  0.4017962743716836
  0.1526943185629293  0.5000640463070027  0.4868821169262603
  0.0000593427659581  0.5000183509560117  0.4729374640819017
  0.3472194731415925  0.5000665783793394  0.4875813403819507
  0.3939519046014155  0.4998118948723231  0.5708397206398175
  0.2482323447293240  0.5001313194507802  0.5578999787887327
  0.1005765663410330  0.5000676631141090  0.5687776889599547
  0.9059168127229285  0.0000140176204226  0.2329875118616087
  0.7499562615952300  0.0000187037984389  0.2009428742248360
  0.5940738371556478  0.0000206446828841  0.2330129644784336
  0.6548799675337520  0.1249398408465012  0.3163184767158214
  0.5000392784695435  0.1250322748117156  0.3037796326518247
  0.8451175939569637  0.1249462362440212  0.3162398682139482
  0.9010751630459026  0.1251792787639161  0.4028343851527012
  0.7501010352114932  0.1250293662760456  0.3877032744398790
  0.5990572289129403  0.1250925166152541  0.4029857219611301
  0.6527101866250362  0.1257055919894867  0.4883175826962827
  0.5002565608550640  0.1256406055638450  0.4744088343506050
  0.8479091318773513  0.1259234451225666  0.4882445173086580
  0.9006613962151349  0.1296158672664731  0.5700176487554032
  0.7504864245400498  0.1307220289366455  0.5581309849090417
  0.5999740785696375  0.1295345118535920  0.5702003859303915
  0.9059006436033954  0.1248681516828043  0.2327301975988973
  0.7499513549446988  0.1247664401322410  0.1999594319374296
  0.5940758634906160  0.1249266262808675  0.2328236658339051
  0.6547863177985036  0.2500168683238826  0.3158491113287099
  0.5000469193683514  0.2500109722007764  0.3034066819588119
  0.8451652310221078  0.2499773379089731  0.3156958467411499
  0.9011189352715476  0.2502915596071418  0.4022741333467081
  0.7501055313210898  0.2500696763402672  0.3868688088839178
  0.5990564523142723  0.2502466656965794  0.4025001444367717
  0.6533143890244872  0.2508418800723149  0.4873173727209874
  0.5003394244266417  0.2507523139844920  0.4735827696346533
  0.8472722081921731  0.2509359242738967  0.4873149882382890
  0.8986896046957398  0.2521859042023991  0.5688328094177706
  0.7506568751321794  0.2532950168447456  0.5576365337423468
  0.6028407524451751  0.2514356744876167  0.5686637385852862
  0.9058426306605298  0.2498037974269280  0.2322649436832691
  0.7499316947283390  0.2497626002804196  0.1995257517956190
  0.5940870815213444  0.2498680963642741  0.2324173227464854
  0.6547043984496597  0.3750083288087396  0.3155220152006066
  0.5000790293202115  0.3750082230715890  0.3030506717674726
  0.8452735886626783  0.3749925463160793  0.3153048184995484
  0.9011276191522626  0.3752153364111095  0.4018695755999673
  0.7501385344225824  0.3751224457215656  0.3864403874563678
  0.5990075311013925  0.3751942489866948  0.4022037694316865
  0.6534162689677743  0.3753828914972530  0.4869794408660226
  0.5003793049696057  0.3754451415890401  0.4738913931016100
  0.8472114315824584  0.3755411088569218  0.4868718570745116
  0.8983979252430458  0.3760848811377784  0.5685487800058127
  0.7510305396070081  0.3761961246945944  0.5572825668091070
  0.6045469619062942  0.3756039509885696  0.5684987192941406
  0.9058292420539402  0.3748422205910771  0.2318731910766516
  0.7499076901249779  0.3749274430657010  0.1990521025224581
  0.5940518235897088  0.3748892049132166  0.2320880367291025
  0.6549466437698328  0.0000227040081953  0.3165297130655347
  0.5000285192878806  0.0000184008967210  0.3039275306432074
  0.8451141077738598  0.0000148573367298  0.3165290873478668
  0.9009752931246595  0.0000154942797224  0.4030975802961265
  0.7500795628915142  0.0000222095082734  0.3880639325751503
  0.5991469759131007  0.0000428830224593  0.4031008394322271
  0.6522718961250717  0.0000508551919083  0.4884728188269278
  0.5002430560362967  0.0000520688420380  0.4735262266746290
  0.8485421468477554  0.0000221244017951  0.4885768991943280
  0.9026501545835330  0.0000267149545721  0.5707801387549694
  0.7503550819053686  0.0000363560210914  0.5583667863348296
  0.5976397951334107  0.0000333033086477  0.5704975343536631
  0.9057996255534491  0.4999808772344068  0.2317786354007225
  0.7499162139788424  0.4999788684847459  0.1999592924710214
  0.5939910796832422  0.4999933759687494  0.2320242732715414
  0.6546970688727143  0.6250332189055996  0.3154832612204785
  0.5000680323829059  0.6250360597125137  0.3030038585172647
  0.8452628300130627  0.6250025750626875  0.3152805837207993
  0.9010933600568123  0.6247926453729633  0.4018499286460511
  0.7501201574588450  0.6249328697191814  0.3864120297073441
  0.5989669473844614  0.6249406668787572  0.4021652484956348
  0.6533672414711091  0.6248063175452359  0.4869513638638097
  0.5003359620697623  0.6247332144210134  0.4739126097511175
  0.8471673740447798  0.6244852088732671  0.4868504862027763
  0.8983171386740025  0.6239594475308081  0.5685285502608295
  0.7509336441914627  0.6239347483019415  0.5572540565034814
  0.6043671186072004  0.6245586414824658  0.5684629280836688
  0.9058247659206060  0.6251284782235160  0.2318524538324880
  0.7499179170988768  0.6250512358570290  0.1990161049086652
  0.5940629582238373  0.6251074754174226  0.2320417233395915
  0.6547925463999462  0.7500248982212767  0.3157930052249256
  0.5000451609377166  0.7500254295614113  0.3033372522744386
  0.8451594832827425  0.7500352498311216  0.3156653730658334
  0.9010859340636159  0.7497205408433771  0.4022512787000565
  0.7500972914530166  0.7499763182887307  0.3868250915007465
  0.5990257624146480  0.7498643407897134  0.4024332778697399
  0.6532765085118868  0.7493039894399089  0.4872561971209421
  0.5002834934543827  0.7494045728872720  0.4734908929904691
  0.8472358934454576  0.7491004326270172  0.4872890910870069
  0.8985996692954785  0.7478412238077752  0.5688165411542840
  0.7505702694092093  0.7467991345892315  0.5575909502185326
  0.6027177960302126  0.7487180913137408  0.5685832602314704
  0.9058303442474198  0.7501976203111340  0.2322458389104085
  0.7499479077632358  0.7502448299922193  0.1994831435341879
  0.5941043856701995  0.7501531465935969  0.2323596650321917
  0.6548829021705771  0.8751043868903281  0.3162836910451503
  0.5000392852672633  0.8750019401109341  0.3037323193161825
  0.8451186353491096  0.8750789144683608  0.3162218099260130
  0.9010588455695228  0.8748474681742380  0.4028211855945401
  0.7500995565537991  0.8750129499252211  0.3876752189331185
  0.5990432937800776  0.8750033035036608  0.4029420463181381
  0.6526888578466696  0.8744061980530446  0.4882775583329249
  0.5002150783851818  0.8744778165734388  0.4743689693407660
  0.8478905298576436  0.8741185618250213  0.4882295914355979
  0.9006200476854147  0.8704183742576888  0.5700077763686835
  0.7504475591765853  0.8693528831150985  0.5581051931612606
  0.5999102312326983  0.8705798339882094  0.5701534128279135
  0.9059007326729827  0.8751544396968853  0.2327106344416592
  0.7499645951826253  0.8752531132373420  0.1999404581275925
  0.5940871238010530  0.8751098148717062  0.2327861005625849
  0.6545718708453165  0.5000214246969392  0.3154426914695065
  0.5000990397940868  0.5000253752046433  0.3029592856869954
  0.8453705082435903  0.4999951949507633  0.3151820606113773
  0.9010886332250436  0.5000022424657047  0.4017614162375196
  0.7501014584022698  0.5000295353133950  0.3863455654500569
  0.5990084308569834  0.5000779391338881  0.4020764542031188
  0.6533348256194813  0.5001044766358973  0.4868015919834079
  0.5003678037749140  0.5000913746576927  0.4738167908324087
  0.8471323169731164  0.5000113532765198  0.4868136121304119
  0.8982796812455689  0.5000303526730221  0.5685562851672543
  0.7509378981418706  0.5000766974620845  0.5573179018529117
  0.6046657617132496  0.5000811971716246  0.5683185240279158
  0.3338342683647753  0.1870119569429676  0.5403833035955330
  0.1642300528252676  0.1888840853242684  0.5401566959481983
  0.3301746188866730  0.3118457814504296  0.5387289205329111
  0.1635176383646169  0.3134771052058909  0.5393339695847743
  0.3291182106872981  0.4375826425547515  0.5384887415612525
  0.1631980196457192  0.4378740520856255  0.5391700064875522
  0.3291141855820854  0.5625070145560542  0.5385339312510098
  0.1631856233667648  0.5622691978238095  0.5391526075777762
  0.3301267524467022  0.6882868642550051  0.5387944834818299
  0.1634582765281607  0.6865995530471665  0.5392796193449598
  0.3337463339441982  0.8131215715759978  0.5403286225248820
  0.1641512956729798  0.8111921431066875  0.5400993367002940
  0.8348819865691439  0.1888053204407214  0.5400456290387510
  0.6656051388394530  0.1883126021720614  0.5399724448265388
  0.8348520297876192  0.3134083323182324  0.5392594493254634
  0.6662628210160193  0.3128838566939081  0.5394035039063212
  0.8347846327931876  0.4378661005892965  0.5390425628601605
  0.6664635268049253  0.4376796899617048  0.5390387152442031
  0.8347363123498468  0.5621755289503199  0.5390273502853304
  0.6663807238189250  0.5625004905796800  0.5390212734918549
  0.8347481278919631  0.6866397695666251  0.5392298169387217
  0.6661527255857465  0.6872530817279738  0.5393556334005183
  0.8348083051459625  0.8112573626195214  0.5400255147649276
  0.6655299342530157  0.8118219371866431  0.5399225165138617
  0.4342772725843673  0.6867672447612776  0.6074627901151288
  0.4381894120302832  0.5618141429554129  0.6080665112597217
  0.4336872147903605  0.3137556044104528  0.6076764055114268
  0.4390401501858392  0.4375879675154692  0.6082153978205724
 
  0.00000000E+00  0.00000000E+00  0.00000000E+00
  0.00000000E+00  0.00000000E+00  0.00000000E+00
  0.00000000E+00  0.00000000E+00  0.00000000E+00