Mo  S Cu                                
   1.00000000000000     
    15.9214998300000001    0.0000000000000000    0.0000000000000000
    -7.9622501300000001   13.7910221699999997    0.0000000000000000
     0.0000000000000000    0.0000000000000000   13.5821998300000004
    25    49     4
Direct
  0.1343018346612097  0.0681545676196161  0.6747660896282661
  0.1383478859786958  0.2699269713965947  0.6720948563339505
  0.1331211812429411  0.4657330899463559  0.6725481728642797
  0.1336252609173884  0.6664195603322555  0.6778212196949269
  0.1337065458787646  0.8669748772116862  0.6779954893862362
  0.3336520561493858  0.0672184887840432  0.6769067903989663
  0.3312703098657032  0.2658970590341284  0.6681639583510469
  0.3290009490729536  0.4635014725266318  0.6684478355213236
  0.3335315451587881  0.6662154836424263  0.6761502448321266
  0.3335690270866552  0.8665983138017960  0.6793221283231694
  0.5338664706923105  0.0670083860157949  0.6799838547887819
  0.5330635407284965  0.2662051194636707  0.6759231717446771
  0.5316926444943710  0.4647811491707551  0.6722669244104649
  0.5323189947027248  0.6659959278683218  0.6760115619373060
  0.5336712445308053  0.8665234898147678  0.6796133594268845
  0.7342703432058005  0.0669878050242257  0.6804701032568875
  0.7339090067563588  0.2668295494137947  0.6798241402829367
  0.7329898674402210  0.4662767074343496  0.6780053153776920
  0.7328764450904769  0.6661633714292974  0.6782384589848967
  0.7337005962800968  0.8665475785044028  0.6801694571276583
  0.9350064388544832  0.0678333477642832  0.6787494970013751
  0.9349911765129880  0.2668930654612245  0.6785167036461712
  0.9333878692694949  0.4667003415982802  0.6780851582354995
  0.9332325343919302  0.6664913555041226  0.6784538934332833
  0.9335792996324777  0.8668338777331154  0.6786238539459630
  0.0663543679564081  0.1343826744064800  0.5607673925659198
  0.0739808687110365  0.1396781089262117  0.7899593034676714
  0.0656251728069966  0.3311845485662003  0.5595508409471713
  0.0734641268755913  0.3350502277207533  0.7901168138261069
  0.0653735913198619  0.5338927627466945  0.5614515883693427
  0.0684334078472909  0.5322801614167318  0.7909110450720864
  0.0666470636685048  0.7333775338169306  0.5636227823693036
  0.0671043467596470  0.7334195854689145  0.7925781238567432
  0.0661176752114654  0.9325552162487581  0.5627092573475315
  0.0681921697783136  0.9356399374387596  0.7914576215659700
  0.2668325869479742  0.1314811380619583  0.5580357496999903
  0.2669574566105303  0.1388533965934408  0.7880327831236755
  0.2662341765249629  0.3324750478941980  0.5549956518048238
  0.2670401089720764  0.5349388431307710  0.5568705550488604
  0.2649430282532526  0.5270916385646222  0.7854525526384346
  0.2671721419524391  0.7343220442611741  0.5632884785657772
  0.2665639470457596  0.7310635220668716  0.7930559501465726
  0.2672930261306442  0.9328914462545929  0.5636309027544760
  0.2668222943724096  0.9345971797349681  0.7927428103024091
  0.4673462776321292  0.1322545808485235  0.5632518022354810
  0.4660918533567954  0.1347423832137417  0.7930518692592667
  0.4674499184835921  0.3317851892684823  0.5577185643118627
  0.4593264559385598  0.3319494768517333  0.7857944286477195
  0.4664381913215120  0.5337203445511229  0.5581316893344241
  0.4595879718361159  0.5266563626721812  0.7853492690461599
  0.4675913538600359  0.7347139438666098  0.5627636503425784
  0.4657763956624071  0.7313787466350857  0.7924654196926038
  0.4674814076494858  0.9337789812013575  0.5652839940321105
  0.4667563532706859  0.9332144120070822  0.7943255538543641
  0.6674652895269407  0.1332567543410243  0.5656855778649702
  0.6673711202982063  0.1338308908078915  0.7948920930100595
  0.6678615882940809  0.3328935564550184  0.5635078502802149
  0.6646192816621016  0.3332158883647272  0.7932659484229111
  0.6678759380969650  0.5337710302157740  0.5617025491539172
  0.6631346982650307  0.5312881215983507  0.7905030005568195
  0.6673739357107437  0.7342295882358421  0.5639625266063271
  0.6640480951552017  0.7303417703904752  0.7936836787551359
  0.6675928247086643  0.9338058235548399  0.5657558992160154
  0.6670660462434801  0.9331683055988752  0.7948558475137463
  0.8668830461732085  0.1331407717998649  0.5650214374761461
  0.8690275249559231  0.1344067888749749  0.7941515492238498
  0.8667345767643689  0.3326339925232117  0.5644563725686743
  0.8685251744240667  0.3339288166269036  0.7934883489726205
  0.8665042513719078  0.5332061658521560  0.5636163415040129
  0.8664087639472761  0.5331249198940665  0.7929560229290270
  0.8666457905228017  0.7334241283150125  0.5639592164237217
  0.8665294829086360  0.7331189662220530  0.7931231951483363
  0.8666729886124075  0.9337623491762115  0.5648607085582523
  0.8684503496483905  0.9343996861518916  0.7939808951599995
  0.1824488170721190  0.2577254838465128  0.0994781316820544
  0.4947929347375569  0.3090800945960127  0.9316490635274588
  0.5106973339928594  0.5766194277108361  0.9319267671946043
  0.2421763421443088  0.5594565587605145  0.9328316258038303
 
  0.00000000E+00  0.00000000E+00  0.00000000E+00
  0.00000000E+00  0.00000000E+00  0.00000000E+00
  0.00000000E+00  0.00000000E+00  0.00000000E+00
  0.00000000E+00  0.00000000E+00  0.00000000E+00
  0.00000000E+00  0.00000000E+00  0.00000000E+00
  0.00000000E+00  0.00000000E+00  0.00000000E+00
  0.00000000E+00  0.00000000E+00  0.00000000E+00
  0.00000000E+00  0.00000000E+00  0.00000000E+00
  0.00000000E+00  0.00000000E+00  0.00000000E+00
  0.00000000E+00  0.00000000E+00  0.00000000E+00
  0.00000000E+00  0.00000000E+00  0.00000000E+00
  0.00000000E+00  0.00000000E+00  0.00000000E+00
  0.00000000E+00  0.00000000E+00  0.00000000E+00
  0.00000000E+00  0.00000000E+00  0.00000000E+00
  0.00000000E+00  0.00000000E+00  0.00000000E+00
  0.00000000E+00  0.00000000E+00  0.00000000E+00
  0.00000000E+00  0.00000000E+00  0.00000000E+00
  0.00000000E+00  0.00000000E+00  0.00000000E+00
  0.00000000E+00  0.00000000E+00  0.00000000E+00
  0.00000000E+00  0.00000000E+00  0.00000000E+00
  0.00000000E+00  0.00000000E+00  0.00000000E+00
  0.00000000E+00  0.00000000E+00  0.00000000E+00
  0.00000000E+00  0.00000000E+00  0.00000000E+00
  0.00000000E+00  0.00000000E+00  0.00000000E+00
  0.00000000E+00  0.00000000E+00  0.00000000E+00
  0.00000000E+00  0.00000000E+00  0.00000000E+00
  0.00000000E+00  0.00000000E+00  0.00000000E+00
  0.00000000E+00  0.00000000E+00  0.00000000E+00
  0.00000000E+00  0.00000000E+00  0.00000000E+00
  0.00000000E+00  0.00000000E+00  0.00000000E+00
  0.00000000E+00  0.00000000E+00  0.00000000E+00
  0.00000000E+00  0.00000000E+00  0.00000000E+00
  0.00000000E+00  0.00000000E+00  0.00000000E+00
  0.00000000E+00  0.00000000E+00  0.00000000E+00
  0.00000000E+00  0.00000000E+00  0.00000000E+00
  0.00000000E+00  0.00000000E+00  0.00000000E+00
  0.00000000E+00  0.00000000E+00  0.00000000E+00
  0.00000000E+00  0.00000000E+00  0.00000000E+00
  0.00000000E+00  0.00000000E+00  0.00000000E+00
  0.00000000E+00  0.00000000E+00  0.00000000E+00
  0.00000000E+00  0.00000000E+00  0.00000000E+00
  0.00000000E+00  0.00000000E+00  0.00000000E+00
  0.00000000E+00  0.00000000E+00  0.00000000E+00
  0.00000000E+00  0.00000000E+00  0.00000000E+00
  0.00000000E+00  0.00000000E+00  0.00000000E+00
  0.00000000E+00  0.00000000E+00  0.00000000E+00
  0.00000000E+00  0.00000000E+00  0.00000000E+00
  0.00000000E+00  0.00000000E+00  0.00000000E+00
  0.00000000E+00  0.00000000E+00  0.00000000E+00
  0.00000000E+00  0.00000000E+00  0.00000000E+00
  0.00000000E+00  0.00000000E+00  0.00000000E+00
  0.00000000E+00  0.00000000E+00  0.00000000E+00
  0.00000000E+00  0.00000000E+00  0.00000000E+00
  0.00000000E+00  0.00000000E+00  0.00000000E+00
  0.00000000E+00  0.00000000E+00  0.00000000E+00
  0.00000000E+00  0.00000000E+00  0.00000000E+00
  0.00000000E+00  0.00000000E+00  0.00000000E+00
  0.00000000E+00  0.00000000E+00  0.00000000E+00
  0.00000000E+00  0.00000000E+00  0.00000000E+00
  0.00000000E+00  0.00000000E+00  0.00000000E+00
  0.00000000E+00  0.00000000E+00  0.00000000E+00
  0.00000000E+00  0.00000000E+00  0.00000000E+00
  0.00000000E+00  0.00000000E+00  0.00000000E+00
  0.00000000E+00  0.00000000E+00  0.00000000E+00
  0.00000000E+00  0.00000000E+00  0.00000000E+00
  0.00000000E+00  0.00000000E+00  0.00000000E+00
  0.00000000E+00  0.00000000E+00  0.00000000E+00
  0.00000000E+00  0.00000000E+00  0.00000000E+00
  0.00000000E+00  0.00000000E+00  0.00000000E+00
  0.00000000E+00  0.00000000E+00  0.00000000E+00
  0.00000000E+00  0.00000000E+00  0.00000000E+00
  0.00000000E+00  0.00000000E+00  0.00000000E+00
  0.00000000E+00  0.00000000E+00  0.00000000E+00
  0.00000000E+00  0.00000000E+00  0.00000000E+00
  0.00000000E+00  0.00000000E+00  0.00000000E+00
  0.00000000E+00  0.00000000E+00  0.00000000E+00
  0.00000000E+00  0.00000000E+00  0.00000000E+00
  0.00000000E+00  0.00000000E+00  0.00000000E+00
