Mo  S Co                                
   1.00000000000000     
    15.9215000000000000    0.0000000000000000    0.0000000000000000
    -7.9622500000000000   13.7910219999999999    0.0000000000000000
     0.0000000000000000    0.0000000000000000   13.5822000000000003
   Mo   S    Co
    25    50     2
Direct
  0.1320991574945367  0.0657320011769684  0.6775816675826007
  0.1272791201391357  0.2631968014166333  0.6766953763718107
  0.1320956437837495  0.4655254155009203  0.6775761038660235
  0.1334336553861490  0.6661035202537775  0.6769303694070530
  0.1333943010931264  0.8664411207025253  0.6769102647869190
  0.3328725495952725  0.0663312577892654  0.6799521060634390
  0.3304462169516995  0.2660908028498241  0.6850598319255639
  0.3303537118934869  0.4634353675552987  0.6850453241718313
  0.3328778948336719  0.6656457329648759  0.6799908331624351
  0.3328418563221476  0.8659588181126168  0.6780176002470739
  0.5323460251534087  0.0656619313919293  0.6781774543484573
  0.5339948459800041  0.2663064400802853  0.6817890137292579
  0.5356489920302536  0.4675112162148451  0.6854288149135712
  0.5339121792777419  0.6668174579248287  0.6817552747636455
  0.5323612368040855  0.8658164161060213  0.6782004907459864
  0.7316474578428824  0.0653619672642947  0.6761493487379013
  0.7324167449561969  0.2657226873404994  0.6771716496733262
  0.7353350248035682  0.4659172815304800  0.6776283368981026
  0.7353828413102761  0.6685552148066876  0.6775181201000251
  0.7323713427679124  0.8657403106054460  0.6771830571218445
  0.9308109723309244  0.0646859347113988  0.6750260177155525
  0.9308591157557231  0.2652891727520057  0.6750314206360102
  0.9335917280199908  0.4662285246206324  0.6755650088131091
  0.9341596209266854  0.6666319909015570  0.6759025781649513
  0.9335761801516043  0.8664994044181142  0.6755225674547560
  0.0649708405025535  0.1312480204133877  0.5607136902248442
  0.0614554071140674  0.1293751127742766  0.7913679431387877
  0.0650190008293450  0.3328920281119494  0.5607119867072612
  0.0615164252313747  0.3312627150338869  0.7913696949143088
  0.0675698484430711  0.5330697595318696  0.5612719452175838
  0.0657885323415357  0.5326524911018424  0.7918017173402134
  0.0678183134088997  0.7334602822216141  0.5613556630860259
  0.0667457509549081  0.7329392350522568  0.7916356598556291
  0.0675608073658012  0.9336800265658880  0.5612644653122771
  0.0657455926669996  0.9322794684019158  0.7917753994466139
  0.2682697029848597  0.1361247820314944  0.5662632246965629
  0.2636256146598441  0.1302988468876691  0.7956279054572875
  0.2660531583937740  0.3325500454949690  0.5685031938684517
  0.2491505961865030  0.3240783664382789  0.7994444879433829
  0.2682362360779678  0.5312734205361522  0.5662504175655698
  0.2635556524950715  0.5323996975066976  0.7956478449221152
  0.2675268706253107  0.7323132300547996  0.5631612385719080
  0.2656214416892908  0.7328126438314868  0.7934124756570711
  0.2674896208986297  0.9342574897306406  0.5631500303334604
  0.2655853627028009  0.9318843934235375  0.7933674754088571
  0.4658700012520285  0.1340493293295637  0.5649399475263479
  0.4663086740497349  0.1312287869227120  0.7948452164022797
  0.4658101776419485  0.3348388002745395  0.5722145372889216
  0.4727006293988865  0.3312546687111251  0.8114585193325681
  0.4656806216897778  0.5301636292989187  0.5721363499251879
  0.4722292824374250  0.5407069313489714  0.8115041975076522
  0.4658441655168772  0.7309885365807816  0.5649385248547532
  0.4663288978558029  0.7342546663316654  0.7948805000546102
  0.4658098206318613  0.9324500692576692  0.5628257909172163
  0.4658706078934998  0.9324998290660460  0.7932568471527475
  0.6645564143004492  0.1323084315646881  0.5618608203166673
  0.6662856075150003  0.1323538564479136  0.7921860367049973
  0.6643878016921008  0.3321942659030199  0.5636785398161166
  0.6691813008420411  0.3336464443157823  0.7940735174451987
  0.6644056123128905  0.5317548077254628  0.5664427245374100
  0.6792418265338753  0.5392770773866786  0.7975834686990382
  0.6643268087611176  0.7312671370031580  0.5636378263158619
  0.6691343306481272  0.7345148391236549  0.7940087901306541
  0.6645610237521851  0.9313102114677960  0.5618749602954338
  0.6663065079934398  0.9330092513774346  0.7922207458575770
  0.8640816041976223  0.1316274261552550  0.5599554043008936
  0.8648856981924524  0.1320230866572984  0.7902968694362400
  0.8646022675628444  0.3325393454776560  0.5604725872064051
  0.8661883277484748  0.3327618658797320  0.7908437367860515
  0.8669895872415196  0.5331125327383219  0.5606429187994024
  0.8693646987707808  0.5336635339905911  0.7914494093919018
  0.8670788750441574  0.7330229378457176  0.5605634926224141
  0.8693768566464186  0.7348403639982308  0.7913851297981935
  0.8645241089474069  0.9311717345919988  0.5604656243477208
  0.8661451506149405  0.9325264559009980  0.7908334915303428
  0.5493130997818199  0.4746328574505441  0.8762836611476885
  0.3859354280767988  0.3924981009469661  0.8613959457762874
 
  0.00000000E+00  0.00000000E+00  0.00000000E+00
  0.00000000E+00  0.00000000E+00  0.00000000E+00
  0.00000000E+00  0.00000000E+00  0.00000000E+00
  0.00000000E+00  0.00000000E+00  0.00000000E+00
  0.00000000E+00  0.00000000E+00  0.00000000E+00
  0.00000000E+00  0.00000000E+00  0.00000000E+00
  0.00000000E+00  0.00000000E+00  0.00000000E+00
  0.00000000E+00  0.00000000E+00  0.00000000E+00
  0.00000000E+00  0.00000000E+00  0.00000000E+00
  0.00000000E+00  0.00000000E+00  0.00000000E+00
  0.00000000E+00  0.00000000E+00  0.00000000E+00
  0.00000000E+00  0.00000000E+00  0.00000000E+00
  0.00000000E+00  0.00000000E+00  0.00000000E+00
  0.00000000E+00  0.00000000E+00  0.00000000E+00
  0.00000000E+00  0.00000000E+00  0.00000000E+00
  0.00000000E+00  0.00000000E+00  0.00000000E+00
  0.00000000E+00  0.00000000E+00  0.00000000E+00
  0.00000000E+00  0.00000000E+00  0.00000000E+00
  0.00000000E+00  0.00000000E+00  0.00000000E+00
  0.00000000E+00  0.00000000E+00  0.00000000E+00
  0.00000000E+00  0.00000000E+00  0.00000000E+00
  0.00000000E+00  0.00000000E+00  0.00000000E+00
  0.00000000E+00  0.00000000E+00  0.00000000E+00
  0.00000000E+00  0.00000000E+00  0.00000000E+00
  0.00000000E+00  0.00000000E+00  0.00000000E+00
  0.00000000E+00  0.00000000E+00  0.00000000E+00
  0.00000000E+00  0.00000000E+00  0.00000000E+00
  0.00000000E+00  0.00000000E+00  0.00000000E+00
  0.00000000E+00  0.00000000E+00  0.00000000E+00
  0.00000000E+00  0.00000000E+00  0.00000000E+00
  0.00000000E+00  0.00000000E+00  0.00000000E+00
  0.00000000E+00  0.00000000E+00  0.00000000E+00
  0.00000000E+00  0.00000000E+00  0.00000000E+00
  0.00000000E+00  0.00000000E+00  0.00000000E+00
  0.00000000E+00  0.00000000E+00  0.00000000E+00
  0.00000000E+00  0.00000000E+00  0.00000000E+00
  0.00000000E+00  0.00000000E+00  0.00000000E+00
  0.00000000E+00  0.00000000E+00  0.00000000E+00
  0.00000000E+00  0.00000000E+00  0.00000000E+00
  0.00000000E+00  0.00000000E+00  0.00000000E+00
  0.00000000E+00  0.00000000E+00  0.00000000E+00
  0.00000000E+00  0.00000000E+00  0.00000000E+00
  0.00000000E+00  0.00000000E+00  0.00000000E+00
  0.00000000E+00  0.00000000E+00  0.00000000E+00
  0.00000000E+00  0.00000000E+00  0.00000000E+00
  0.00000000E+00  0.00000000E+00  0.00000000E+00
  0.00000000E+00  0.00000000E+00  0.00000000E+00
  0.00000000E+00  0.00000000E+00  0.00000000E+00
  0.00000000E+00  0.00000000E+00  0.00000000E+00
  0.00000000E+00  0.00000000E+00  0.00000000E+00
  0.00000000E+00  0.00000000E+00  0.00000000E+00
  0.00000000E+00  0.00000000E+00  0.00000000E+00
  0.00000000E+00  0.00000000E+00  0.00000000E+00
  0.00000000E+00  0.00000000E+00  0.00000000E+00
  0.00000000E+00  0.00000000E+00  0.00000000E+00
  0.00000000E+00  0.00000000E+00  0.00000000E+00
  0.00000000E+00  0.00000000E+00  0.00000000E+00
  0.00000000E+00  0.00000000E+00  0.00000000E+00
  0.00000000E+00  0.00000000E+00  0.00000000E+00
  0.00000000E+00  0.00000000E+00  0.00000000E+00
  0.00000000E+00  0.00000000E+00  0.00000000E+00
  0.00000000E+00  0.00000000E+00  0.00000000E+00
  0.00000000E+00  0.00000000E+00  0.00000000E+00
  0.00000000E+00  0.00000000E+00  0.00000000E+00
  0.00000000E+00  0.00000000E+00  0.00000000E+00
  0.00000000E+00  0.00000000E+00  0.00000000E+00
  0.00000000E+00  0.00000000E+00  0.00000000E+00
  0.00000000E+00  0.00000000E+00  0.00000000E+00
  0.00000000E+00  0.00000000E+00  0.00000000E+00
  0.00000000E+00  0.00000000E+00  0.00000000E+00
  0.00000000E+00  0.00000000E+00  0.00000000E+00
  0.00000000E+00  0.00000000E+00  0.00000000E+00
  0.00000000E+00  0.00000000E+00  0.00000000E+00
  0.00000000E+00  0.00000000E+00  0.00000000E+00
  0.00000000E+00  0.00000000E+00  0.00000000E+00
  0.00000000E+00  0.00000000E+00  0.00000000E+00
  0.00000000E+00  0.00000000E+00  0.00000000E+00
