generated by phonopy                    
   1.00000000000000     
     7.6395709196157853   -0.0000000000000000    0.0000000000000000
    -3.8197854598078926    6.6160624904001164   -0.0000000000000000
     0.0000000000000000    0.0000000000000000   13.2267518327814226
   B    N    Al
    34    36     2
Direct
  0.1127402960221506  0.2299002877336695 -0.0000000000000000
  0.4504933250448546  0.2299002877336695 -0.0000000000000000
  0.7777777777777786  0.2222222222222214 -0.0000000000000000
  0.1127402960221506  0.5495066749551455 -0.0000000000000000
  0.4444444444444429  0.5555555555555571 -0.0000000000000000
  0.7700997122663304  0.5495066749551455 -0.0000000000000000
  0.4504933250448546  0.8872597039778496 -0.0000000000000000
  0.7700997122663304  0.8872597039778496 -0.0000000000000000
  0.1033892335222405  0.2161621819835695  0.5000000000000000
  0.4461062817946648  0.2161621819835695  0.5000000000000000
  0.7777777777777786  0.2222222222222214  0.5000000000000000
  0.1033892335222404  0.5538937182053354  0.5000000000000000
  0.7838378180164304  0.5538937182053354  0.5000000000000000
  0.1111111111111143  0.8888888888888857  0.5000000000000000
  0.4461062817946648  0.8966107664777597  0.5000000000000000
  0.7838378180164304  0.8966107664777597  0.5000000000000000
  0.2224933813233961  0.1116534293134636  0.2490185132825470
  0.5557258169131218  0.1111962417898966  0.2498589319245774
  0.8888037582101036  0.1111962417898966  0.2498589319245774
  0.2216756921490280  0.4441711794078461  0.2511259874341386
  0.5558288205921537  0.4441711794078461  0.2511259874341386
  0.8888037582101036  0.4442741830868783  0.2498589319245774
  0.2224933813233961  0.7775066186766040  0.2490185132825470
  0.5558288205921537  0.7783243078509721  0.2511259874341386
  0.8883465706865366  0.7775066186766040  0.2490185132825470
  0.2224933813233961  0.1116534293134636  0.7509814867174530
  0.5557258169131218  0.1111962417898966  0.7501410680754226
  0.8888037582101036  0.1111962417898966  0.7501410680754226
  0.2216756921490280  0.4441711794078461  0.7488740125658615
  0.5558288205921537  0.4441711794078461  0.7488740125658615
  0.8888037582101036  0.4442741830868783  0.7501410680754226
  0.2224933813233961  0.7775066186766040  0.7509814867174530
  0.5558288205921537  0.7783243078509721  0.7488740125658615
  0.8883465706865366  0.7775066186766040  0.7509814867174530
  0.2382339301390368  0.1431345269447448 -0.0000000000000000
  0.5559141208183537  0.1112903937425125 -0.0000000000000000
  0.8887096062574875  0.1112903937425125 -0.0000000000000000
  0.2231112235455219  0.4448889451060930 -0.0000000000000000
  0.5551110548939067  0.4448889451060930 -0.0000000000000000
  0.8887096062574875  0.4440858791816464 -0.0000000000000000
  0.2382339301390367  0.7617660698609636 -0.0000000000000000
  0.5551110548939067  0.7768887764544783 -0.0000000000000000
  0.8568654730552553  0.7617660698609637 -0.0000000000000000
  0.2220319678171326  0.1107306023009367  0.5000000000000000
  0.5564180672526770  0.1115423669596742  0.5000000000000000
  0.8884576330403257  0.1115423669596742  0.5000000000000000
  0.1902114294711889  0.4284390480689266  0.5000000000000000
  0.5715609519310733  0.4284390480689266  0.5000000000000000
  0.8884576330403257  0.4435819327473228  0.5000000000000000
  0.2220319678171326  0.7779680321828673  0.5000000000000000
  0.5715609519310734  0.8097885705288111  0.5000000000000000
  0.8892693976990631  0.7779680321828673  0.5000000000000000
  0.1110822763836625  0.2222277434227128  0.2500011751502464
  0.4444788003723860  0.2222277434227128  0.2500011751502464
  0.7777777777777786  0.2222222222222214  0.2500600262665735
  0.1110822763836625  0.5555211996276141  0.2500011751502464
  0.4444444444444429  0.5555555555555571  0.2536616963650196
  0.7777722565772871  0.5555211996276141  0.2500011751502464
  0.1111111111111143  0.8888888888888857  0.2462843594973728
  0.4444788003723860  0.8889177236163377  0.2500011751502464
  0.7777722565772871  0.8889177236163377  0.2500011751502464
  0.1110822763836625  0.2222277434227128  0.7499988248497537
  0.4444788003723860  0.2222277434227128  0.7499988248497537
  0.7777777777777786  0.2222222222222214  0.7499399737334264
  0.1110822763836625  0.5555211996276141  0.7499988248497537
  0.4444444444444429  0.5555555555555571  0.7463383036349803
  0.7777722565772871  0.5555211996276141  0.7499988248497537
  0.1111111111111143  0.8888888888888857  0.7537156405026272
  0.4444788003723860  0.8889177236163377  0.7499988248497537
  0.7777722565772871  0.8889177236163377  0.7499988248497537
  0.1111111111111143  0.8888888888888857 -0.0000000000000000
  0.4444444444444429  0.5555555555555571  0.5000000000000000
 
  0.00000000E+00  0.00000000E+00  0.00000000E+00
  0.00000000E+00  0.00000000E+00  0.00000000E+00
  0.00000000E+00  0.00000000E+00  0.00000000E+00
  0.00000000E+00  0.00000000E+00  0.00000000E+00
  0.00000000E+00  0.00000000E+00  0.00000000E+00
  0.00000000E+00  0.00000000E+00  0.00000000E+00
  0.00000000E+00  0.00000000E+00  0.00000000E+00
  0.00000000E+00  0.00000000E+00  0.00000000E+00
  0.00000000E+00  0.00000000E+00  0.00000000E+00
  0.00000000E+00  0.00000000E+00  0.00000000E+00
  0.00000000E+00  0.00000000E+00  0.00000000E+00
  0.00000000E+00  0.00000000E+00  0.00000000E+00
  0.00000000E+00  0.00000000E+00  0.00000000E+00
  0.00000000E+00  0.00000000E+00  0.00000000E+00
  0.00000000E+00  0.00000000E+00  0.00000000E+00
  0.00000000E+00  0.00000000E+00  0.00000000E+00
  0.00000000E+00  0.00000000E+00  0.00000000E+00
  0.00000000E+00  0.00000000E+00  0.00000000E+00
  0.00000000E+00  0.00000000E+00  0.00000000E+00
  0.00000000E+00  0.00000000E+00  0.00000000E+00
  0.00000000E+00  0.00000000E+00  0.00000000E+00
  0.00000000E+00  0.00000000E+00  0.00000000E+00
  0.00000000E+00  0.00000000E+00  0.00000000E+00
  0.00000000E+00  0.00000000E+00  0.00000000E+00
  0.00000000E+00  0.00000000E+00  0.00000000E+00
  0.00000000E+00  0.00000000E+00  0.00000000E+00
  0.00000000E+00  0.00000000E+00  0.00000000E+00
  0.00000000E+00  0.00000000E+00  0.00000000E+00
  0.00000000E+00  0.00000000E+00  0.00000000E+00
  0.00000000E+00  0.00000000E+00  0.00000000E+00
  0.00000000E+00  0.00000000E+00  0.00000000E+00
  0.00000000E+00  0.00000000E+00  0.00000000E+00
  0.00000000E+00  0.00000000E+00  0.00000000E+00
  0.00000000E+00  0.00000000E+00  0.00000000E+00
  0.00000000E+00  0.00000000E+00  0.00000000E+00
  0.00000000E+00  0.00000000E+00  0.00000000E+00
  0.00000000E+00  0.00000000E+00  0.00000000E+00
  0.00000000E+00  0.00000000E+00  0.00000000E+00
  0.00000000E+00  0.00000000E+00  0.00000000E+00
  0.00000000E+00  0.00000000E+00  0.00000000E+00
  0.00000000E+00  0.00000000E+00  0.00000000E+00
  0.00000000E+00  0.00000000E+00  0.00000000E+00
  0.00000000E+00  0.00000000E+00  0.00000000E+00
  0.00000000E+00  0.00000000E+00  0.00000000E+00
  0.00000000E+00  0.00000000E+00  0.00000000E+00
  0.00000000E+00  0.00000000E+00  0.00000000E+00
  0.00000000E+00  0.00000000E+00  0.00000000E+00
  0.00000000E+00  0.00000000E+00  0.00000000E+00
  0.00000000E+00  0.00000000E+00  0.00000000E+00
  0.00000000E+00  0.00000000E+00  0.00000000E+00
  0.00000000E+00  0.00000000E+00  0.00000000E+00
  0.00000000E+00  0.00000000E+00  0.00000000E+00
  0.00000000E+00  0.00000000E+00  0.00000000E+00
  0.00000000E+00  0.00000000E+00  0.00000000E+00
  0.00000000E+00  0.00000000E+00  0.00000000E+00
  0.00000000E+00  0.00000000E+00  0.00000000E+00
  0.00000000E+00  0.00000000E+00  0.00000000E+00
  0.00000000E+00  0.00000000E+00  0.00000000E+00
  0.00000000E+00  0.00000000E+00  0.00000000E+00
  0.00000000E+00  0.00000000E+00  0.00000000E+00
  0.00000000E+00  0.00000000E+00  0.00000000E+00
  0.00000000E+00  0.00000000E+00  0.00000000E+00
  0.00000000E+00  0.00000000E+00  0.00000000E+00
  0.00000000E+00  0.00000000E+00  0.00000000E+00
  0.00000000E+00  0.00000000E+00  0.00000000E+00
  0.00000000E+00  0.00000000E+00  0.00000000E+00
  0.00000000E+00  0.00000000E+00  0.00000000E+00
  0.00000000E+00  0.00000000E+00  0.00000000E+00
  0.00000000E+00  0.00000000E+00  0.00000000E+00
  0.00000000E+00  0.00000000E+00  0.00000000E+00
  0.00000000E+00  0.00000000E+00  0.00000000E+00
  0.00000000E+00  0.00000000E+00  0.00000000E+00
