Ta Ru N Cu                              
   1.00000000000000     
    18.1096308199999996    0.0000000000000000    0.0000000000000000
     0.0000000000000000   23.3551997799999995    0.0000000000000000
     0.0000000000000000    0.0000000000000000   28.4818170799999990
   Ta   Ru   N    Cu
   240    64   240    29
Direct
  0.9953091226915926  0.9927979469876478  0.2166167634121348
  0.3312492750084216  0.0582271067973133  0.2122035180291972
  0.1798154925723196  0.0541588428090721  0.2145189441523903
  0.2508247054250604  0.1254849692612297  0.2987244418733559
  0.0867293044730265  0.0574159902651143  0.3033743491521162
  0.4108913397679755  0.0592924815087610  0.3018008118571264
  0.9982822026240108  0.1267769383122119  0.3951257617305357
  0.3311222857055638  0.0589208821955967  0.3971308204150125
  0.1662175298102090  0.0616425767013196  0.3963669482699582
  0.2515136562590781  0.1263524691088317  0.4882794316037960
  0.0751320895571602  0.0613876571681169  0.4851141888227364
  0.4215676225449952  0.0595106644098257  0.4835594199697257
  0.4994907616815542  0.1215397703040300  0.5801529914492353
  0.3441698402915911  0.0634937639138108  0.5740360184513479
  0.1622392004417840  0.0608772901239265  0.5764253788242774
  0.0038046746067990  0.1280820401934140  0.2189076152862718
  0.3428152757211436  0.1918566874543105  0.2091048515325507
  0.1838244365706024  0.1890471889213060  0.2218368146648767
  0.2471842922029827  0.2504813988295639  0.2985071151333570
  0.0859305859271409  0.1819103392626145  0.3057928321100085
  0.4159356015098636  0.1885664558137600  0.3037460242277795
  0.9969157662105923  0.2442247037583994  0.3988201845271314
  0.3288034505759123  0.1904778198577320  0.3977058474483764
  0.1620778763104607  0.1867331709731078  0.4000658790493601
  0.2494572336679328  0.2516620276217186  0.4883179355849780
  0.0797236985781455  0.1873117416380834  0.4865747188290563
  0.4211221253270019  0.1864357254652568  0.4875201835471606
  0.5103262919171798  0.2541639698254954  0.5771281713955579
  0.3418454402896142  0.1882137504869489  0.5855716120402550
  0.1670515221205357  0.1819842370264924  0.5811345237591509
  0.0088475446825449  0.2512741581545122  0.2215767818323577
  0.3253141501084946  0.3151057207639935  0.2093243868242448
  0.1641870913528005  0.3149953863901769  0.2192081989824101
  0.2489072516164031  0.3801031848817004  0.2954582958242639
  0.0851115124071045  0.3134014635917252  0.3101899704867631
  0.4168306568399727  0.3111532790065880  0.3046743077205381
  0.0020069117594026  0.3713226950708938  0.4023971012567282
  0.3336325586976397  0.3150323142158826  0.3997419391372759
  0.1723428451459048  0.3155805419385017  0.4028148813747240
  0.2486106801545835  0.3723164553447869  0.4880402870167970
  0.0822945035426108  0.3087407770372144  0.4899407327718276
  0.4234634132438712  0.3152595596931271  0.4880807536433427
  0.5079213519390037  0.3742381845001961  0.5829313302456559
  0.3351557493912661  0.3141304019149060  0.5778520751738943
  0.1600607125162681  0.3081223206122123  0.5840049369766096
  0.0016266460994182  0.3711471619229228  0.2190001489893734
  0.3338869225094827  0.4419041712422200  0.2131736354431679
  0.1573180313587262  0.4320728680815835  0.2179368623338100
  0.2425420520941257  0.0006273186323341  0.2953372460565348
  0.0794462893103419  0.4377754857240809  0.3086030692681660
  0.4242555468790709  0.4392802156772906  0.3062250976389103
  0.4976571149397113  0.5022649379608781  0.3944977461639788
  0.3358996537250065  0.4389332004289307  0.3901478821391874
  0.1743439733844165  0.4395096704411143  0.3960658436659004
  0.2488397208252932  0.4945621007705108  0.4881685530545304
  0.0810921795487617  0.4357943759112879  0.4892810415335040
  0.4152455651004552  0.4383534625541290  0.4842704165604785
  0.5036156608252623  0.5089864148303972  0.5766981686418158
  0.3356635320582546  0.4392301897690019  0.5760309212267526
  0.1710558473204829  0.4360048742025155  0.5764731949607713
  0.9879672172630113  0.4908361289566313  0.2093287205736896
  0.3358827778510339  0.5620493416793969  0.2183436508403963
  0.1656118095227590  0.5529322030970252  0.2181215990438881
  0.2422033845035477  0.6277363163384220  0.2994737315775076
  0.0758612059672791  0.5593407630676823  0.3029380699853377
  0.4205858749269118  0.5630746567157145  0.3013884997686960
  0.9969653985242458  0.6198467737332637  0.3939517879824890
  0.3305044036162872  0.5616346498501941  0.3920303706689533
  0.1776857576778494  0.5623433247634726  0.3959320702925893
  0.2367773984698427  0.6256557323450659  0.4889824653767321
  0.0791067844002266  0.5594266884181075  0.4883144959660253
  0.4106011192972691  0.5630771038153142  0.4849205770198139
  0.4982865354701242  0.6271733704190557  0.5786857552677674
  0.3282763226289806  0.5599648535879089  0.5775395232262630
  0.1688263494327280  0.5599145527233935  0.5787244704838996
  0.9900881502943806  0.6181248823149819  0.1998978012701252
  0.3262124429138175  0.6879607796715304  0.2108573769681298
  0.1668285964986959  0.6811913584632039  0.2142848821091737
  0.2379987794928631  0.7472733829988011  0.2921812331932517
  0.0741183249457759  0.6826497600282838  0.2970620692887697
  0.4131072766988973  0.6899135879342505  0.2935433731267575
  0.9935296440371675  0.7491767188178846  0.3976907971016955
  0.3400721460508729  0.6839912559144031  0.3887024146798012
  0.1593011639272477  0.6847427361377372  0.3944614442722235
  0.2511396604643001  0.7513913368938844  0.4882515090931190
  0.0790744380994788  0.6871806737807877  0.4857203437924086
  0.4155682134890305  0.6800940384667823  0.4870578608242021
  0.4888483007010959  0.7473730902627364  0.5728154118596457
  0.3308541992155385  0.6849881165910566  0.5857988691251304
  0.1707301523417401  0.6831544672436590  0.5820656952733990
  0.9938238701248606  0.7512133783799188  0.2053699242595257
  0.3325634727646018  0.8105248337725450  0.2091995895536365
  0.1639440515764534  0.8137691946059505  0.2202158177561641
  0.2491951942369262  0.8735842640795416  0.2982781995996395
  0.0813132216459634  0.8093318424793539  0.3041692067883769
  0.4128704094541313  0.8119492750807322  0.2954388317338095
  0.9927071858351354  0.8733761060119632  0.3968314903388344
  0.3288944317382513  0.8136386951893666  0.3907220867139699
  0.1599125528522249  0.8108255158766871  0.3925866691354933
  0.2445930413126865  0.8723867106746428  0.4860728908412070
  0.0790146588242080  0.8080736385177192  0.4886679519326690
  0.4144586345504032  0.8062074992619925  0.4848668585633191
  0.4858054550420866  0.8745746959087206  0.5737134627157605
  0.3355620966883112  0.8127954062153232  0.5757745539901935
  0.1628454980729296  0.8129333227049330  0.5803761796942726
  0.0016772400655423  0.8771231462146941  0.2098135816542417
  0.3279917143911581  0.9403174285080876  0.2057640903247271
  0.1718339475550829  0.9408916167750435  0.2178642586040108
  0.2488622134057913  0.4947120405216637  0.3007899374829683
  0.0917331785641347  0.9362521505532014  0.3076284466560374
  0.4141912156220613  0.9364186018920155  0.3050922819305632
  0.5009700794836105  0.0015501144572973  0.3972110171406060
  0.3294095764319518  0.9369509513094796  0.3928708128106966
  0.1663661424044386  0.9376258615422937  0.3944365242593780
  0.2426553724931194  0.0029611996961017  0.4863327198700051
  0.0758207015428797  0.9360991409438304  0.4888994181471203
  0.4155097993576437  0.9354862526822820  0.4859332307329218
  0.4966050427706325  0.9999380737558478  0.5788553462949906
  0.3223679518122246  0.9324743200663482  0.5743729096821544
  0.1595387381367981  0.9411207004681950  0.5774848221490773
  0.4946049681577930  0.9973389688553805  0.2136382027048611
  0.8423812910872718  0.0577506555363698  0.2193596737986302
  0.6686789801141620  0.0584987427926710  0.2207210670407549
  0.7427404688295637  0.1114961678949937  0.3027435245383915
  0.5726913889077790  0.0602235771031715  0.3079862849402291
  0.9251768648670943  0.0574715037311539  0.3135819553128424
  0.4983998159594112  0.1174933423135014  0.3997078472673469
  0.8271156737783707  0.0637834735475009  0.3997393440767602
  0.6670806579137429  0.0575952426998235  0.3968209671103614
  0.7541271155815699  0.1279370196375183  0.4881078434224710
  0.5943404846863581  0.0615264447574132  0.4905570345244663
  0.9095411991823138  0.0604847385109148  0.4898969414562481
  0.9988832245465398  0.1150299509642826  0.5789756199063427
  0.8454129352165822  0.0585079447531477  0.5833814403956675
  0.6681735512809346  0.0608091980586913  0.5873810670491217
  0.4945073279842513  0.1217023051054832  0.2113014411399173
  0.8342367574470494  0.1877187324005203  0.2181653445815680
  0.6687403269452945  0.1887892153273398  0.2221527822222416
  0.7437957979758882  0.2464577117873804  0.3027137403304415
  0.5734499829100630  0.1826534260215489  0.3079483092911520
  0.9173113087095111  0.1857122708172197  0.3070070018448298
  0.5021662831181526  0.2475494468945784  0.3994237544463554
  0.8297412026288311  0.1851192516674806  0.3960653970860084
  0.6666189728884687  0.1866011126036392  0.3940702549227799
  0.7559934938096967  0.2526519897968298  0.4895318731897765
  0.5931920955298239  0.1855136600078891  0.4926435467581304
  0.9133894314799315  0.1854666063252765  0.4885308121198881
  0.9903503209842617  0.2448633979713830  0.5795301487185945
  0.8393188936176516  0.1865890836073476  0.5861156114599706
  0.6730859165140273  0.1850704992496576  0.5868704135957568
  0.4983869488382319  0.2460205027897810  0.2090219851596257
  0.8392319395603943  0.3119451052554607  0.2160760843866240
  0.6760163180006575  0.3078486090082702  0.2185828622407997
  0.7534603212315945  0.3682461783679855  0.3008533005015391
  0.5769451941275816  0.3118941078226258  0.3052408353937874
  0.9180150829884649  0.3104730599125667  0.3082611073088559
  0.5073652154296027  0.3753928502075762  0.3967087999844363
  0.8324595523905172  0.3125445661003887  0.3995452899279044
  0.6670369888669901  0.3082200494783072  0.3966441186457382
  0.7470522768253239  0.3729003922190369  0.4872419624808352
  0.5849934632329306  0.3132409236036516  0.4854917896634438
  0.9178018322869798  0.3119735527091479  0.4895642763369500
  0.9954891870529374  0.3709622784286796  0.5779019595786810
  0.8384651596302617  0.3103459826466420  0.5783347719796517
  0.6677158468745369  0.3135541271368222  0.5842390412750352
  0.4941854259836920  0.3814612975428667  0.2106938032827193
  0.8443898938773995  0.4400164546007211  0.2224151871164858
  0.6704813205119671  0.4335632027655661  0.2137601979279556
  0.7570215636630189  0.9944071418704297  0.3068245764851468
  0.5838505492755014  0.4360326959295925  0.2981715662650453
  0.9178196413029688  0.4378493927513244  0.3106841634711258
  0.0019373884345427  0.4922957847355481  0.3953851303037011
  0.8268944190809284  0.4367362480369922  0.3958922276991370
  0.6695867596800785  0.4349006311546752  0.3951039536576680
  0.7524443668863173  0.5000987353450146  0.4875385963527109
  0.5831624231506536  0.4393387189540362  0.4864557981217425
  0.9146735254255940  0.4345304417972179  0.4837838743734872
  0.9961140945427910  0.5014586014844827  0.5818139494068761
  0.8342000487215213  0.4381333938337375  0.5725589949949943
  0.6635625081766895  0.4384553174627212  0.5806038637946119
  0.5053154341986543  0.5019726251892670  0.2065929385334684
  0.8299932325876342  0.5597661698773455  0.2133107578247933
  0.6737950481942631  0.5550943463718676  0.2080920069803544
  0.7559545851655539  0.6230096462691774  0.2992781297217001
  0.5865487413615206  0.5582869528293876  0.2978466496659847
  0.9099236847668772  0.5541599244097681  0.2961772060270467
  0.4992631233334947  0.6263592954761883  0.3920057045726579
  0.8306007199319814  0.5577964675916114  0.3962741901504479
  0.6652603717424432  0.5624985058868804  0.3908091157757519
  0.7452323604843787  0.6276615481563150  0.4854579407387890
  0.5873243334895643  0.5687485114357701  0.4841570940535211
  0.9185360868835233  0.5631399687159603  0.4853547291446069
  0.9945913386932116  0.6261520965169529  0.5808953639249279
  0.8396191880830960  0.5614192366544031  0.5812759294746337
  0.6696732287121364  0.5629460446868714  0.5797515734886871
  0.5027257923271364  0.6287633901156902  0.1974581846522712
  0.8300370414960819  0.6902955616614940  0.2132332969241570
  0.6713445045739730  0.6903788835604456  0.2178568450510238
  0.7437948399215086  0.7491550200375757  0.2976818059154897
  0.5814930374053218  0.6839692450468934  0.2978085404525290
  0.9121580486905779  0.6855777949810180  0.3049036774269016
  0.4977808380702314  0.7473369903140182  0.3917732057264353
  0.8285764646713929  0.6863541949281828  0.3946560378744713
  0.6658317087114136  0.6844143378536328  0.3897552895962354
  0.7567987573716710  0.7443079633918246  0.4844181912027134
  0.5789828315180999  0.6892028592406638  0.4841060332898887
  0.9075394907603404  0.6820071159732252  0.4855723473901632
  0.9914706263139406  0.7490581481911216  0.5772435566395572
  0.8249980817763009  0.6845667787847968  0.5818107249319268
  0.6550538450343789  0.6943746874965959  0.5757228868957451
  0.5072880007838438  0.7533245202761661  0.2003944079356768
  0.8368513893297104  0.8133840208642393  0.2138361463504299
  0.6727426160266141  0.8140867098806506  0.2160199615471978
  0.7485039578144950  0.8733966801675563  0.2982977340438522
  0.5779045194730720  0.8163875878635735  0.3048110347457295
  0.9149893698322745  0.8114568036976391  0.3056028406561345
  0.4868954246909317  0.8729564324884894  0.3922873534007465
  0.8268365145989290  0.8082814051958491  0.3950412174231087
  0.6644017624207782  0.8098378314271335  0.3918775738214864
  0.7488439731762481  0.8771182008421953  0.4862861767384588
  0.5779572117303682  0.8117617167466884  0.4825679045757024
  0.9152671617102918  0.8066970705064732  0.4878634427906484
  0.9936923547487350  0.8705252742947086  0.5803144717974987
  0.8250120567435320  0.8083446848409422  0.5795151735844993
  0.6497984626969792  0.8183591719208962  0.5746895777765082
  0.5009219257445356  0.8872069007178496  0.2119610943470260
  0.8389440505843602  0.9410140907966045  0.2230502821367140
  0.6730114696411580  0.9364506611063933  0.2135682993983987
  0.7504118585810821  0.4950735938756554  0.3000875311023703
  0.5827810123495784  0.9387095270518958  0.3046004819564940
  0.9206942786045040  0.9351878444048745  0.3090134994883291
  0.0015191280571952  0.9957922742760108  0.4043957272924563
  0.8326300725143782  0.9312787877307246  0.3983474463704759
  0.6553154138833317  0.9398509538490579  0.3927288857355987
  0.7489155933215044  0.0033277509330438  0.4862882811387819
  0.5788837217373958  0.9380314030295619  0.4863563659978933
  0.9150047339939078  0.9265743546403409  0.4861729247825600
  0.9968742112823707  0.9882981259189302  0.5845616756709304
  0.8367694446897915  0.9340291783008821  0.5772572256652334
  0.6621333343178757  0.9333481939433885  0.5828191690960393
  0.0841925285528886  0.9859048111090372  0.6796364562526325
  0.2654036356540780  0.5028915506242909  0.6688902469664617
  0.4302284799400929  0.0499792032804698  0.6621443320610173
  0.0690481138125177  0.2386074782978674  0.6743668052780727
  0.2978930402710325  0.2400965257001012  0.6663751423517040
  0.4333893199547622  0.3207719670280435  0.6587812355895875
  0.0834928849810554  0.1294083600742180  0.6764225220384524
  0.2626008224845887  0.1063635687313084  0.6662977572912105
  0.4386637736615422  0.1876844200322102  0.6582889975131889
  0.0700020394074952  0.3712858337880821  0.6713224017167491
  0.2850973039071343  0.3811679215566343  0.6672523508279038
  0.4429477468863806  0.4391164075653609  0.6618316080050669
  0.1657852698070486  0.4331779254079554  0.6944149813007170
  0.1806535228998375  0.3143722927904594  0.6894810949207459
  0.2000743199809576  0.1921896741605281  0.7039577605152753
  0.1651916377202328  0.0598488193981321  0.7046002393862808
  0.0540547383707149  0.4930938094194827  0.6802964941805313
  0.2748414466307519  0.9992924637977667  0.6638784794418774
  0.4461526635733605  0.5692065436879516  0.6633188366592030
  0.0598804418982789  0.7483595366726203  0.6707226090964088
  0.2793989493982249  0.7628871995522145  0.6711616147485105
  0.4427886001814482  0.8028802390231563  0.6602603904464901
  0.0724279231114325  0.6321876789993341  0.6757684804061629
  0.2750672852389267  0.6293505513713716  0.6739671821394293
  0.4254312463755462  0.6860225579155446  0.6589476801296165
  0.0730819310814647  0.8680708189276478  0.6705790214698787
  0.2777709167178508  0.8718364126532261  0.6680666887762464
  0.4447235518492617  0.9400142770265290  0.6581833506472863
  0.1832034424191724  0.9374728331058371  0.7042994089405659
  0.1850905173939196  0.8204911997936272  0.7054503759677817
  0.1777813809744681  0.7005632369516998  0.7076339991574786
  0.1627917862797585  0.5476145056306195  0.7059144563629500
  0.5542119510473692  0.9969721093089748  0.6778412561078109
  0.8034667310611229  0.5065826117451588  0.6654918452711805
  0.9552212463832002  0.0502226808429603  0.6625260137473812
  0.6038740463580460  0.2815111645291082  0.6776478857340310
  0.7665630194326308  0.2642545461077751  0.6752594149966954
  0.9502300667663670  0.3080568775427424  0.6631797373139927
  0.5786482342632362  0.1208095085882192  0.6780439171503061
  0.7820558901665380  0.1230233041705207  0.6695271733055975
  0.9578929385619962  0.1824041265253478  0.6589995892757479
  0.5612017084653468  0.3836402286912795  0.6835476004367276
  0.7739395228484929  0.3796378904017969  0.6602642202981516
  0.9373425015190793  0.4320641777055762  0.6671006367401867
  0.6854890514170078  0.4388499980334519  0.7033156783218784
  0.6826592995560226  0.3386046466350951  0.7149335409674457
  0.6689450875484031  0.1874128697822383  0.6999683822111844
  0.6848432356864075  0.0489979539021850  0.6921777242311727
  0.5576033134203536  0.5025876187021445  0.6776693953328982
  0.7953248968648243  0.9945522471657743  0.6634429560035116
  0.9387180839763187  0.5677091908154768  0.6680429580095962
  0.5566328592758001  0.7553387698627555  0.6710652741646657
  0.7787258825734057  0.7432574478820912  0.6666633295986550
  0.9513189224487735  0.8123579487556380  0.6567132098388370
  0.5697074909191334  0.6162823630058281  0.6750750894873734
  0.7643198848734739  0.6315139155823595  0.6678369991230468
  0.9469350096819859  0.6865765265262342  0.6618981544485608
  0.5648422735933654  0.8860520658909647  0.6784153036354893
  0.7779493791258469  0.8726513505381742  0.6612800527796817
  0.9567816616186062  0.9262885380319398  0.6644494728360452
  0.6869656132044962  0.9366689929111581  0.6943555980022755
  0.6702884517546480  0.7978152623149608  0.6968049878011283
  0.6571844712947957  0.6927398727598648  0.7028663812117998
  0.6839619245000415  0.5607000741513742  0.7001958524341170
  0.4000316971576010  0.9962059898651219  0.2474205126565212
  0.2484285086831560  0.9943999465254989  0.1802845071679828
  0.0996566457858348  0.9951543559330115  0.2465720048260255
  0.1575373279179033  0.1292039756707014  0.3383323124668339
  0.9978331527623174  0.1215428361386226  0.3234885589007984
  0.3416478892382537  0.1265086372338985  0.3379320736336442
  0.4004403117204748  0.1236656314400221  0.4335526814727802
  0.2531006267731478  0.1233543558002191  0.4181361824326840
  0.0957001473653913  0.1255681869305849  0.4328380384335177
  0.1490091073134376  0.1263260488593227  0.5185250453203084
  0.5063961495403336  0.1250050744523742  0.5108883632856515
  0.3498129929086553  0.1256909030239795  0.5227149190314262
  0.4070285056504512  0.1179252512420799  0.6202774475533834
  0.2521438563522055  0.1224648128619636  0.6003919146710556
  0.0953727190337616  0.1193812882457362  0.6128201921933304
  0.4035060767302620  0.1281801086125798  0.2488810921357986
  0.2602424464182637  0.1258734820245339  0.2144030096161776
  0.1036551281908094  0.1274110724347335  0.2502301411708299
  0.1551046496265248  0.2544246863619857  0.3448334779708748
  0.0015671035669566  0.2446513434934939  0.3246776015249340
  0.3454604975417191  0.2537940276098939  0.3403148132831404
  0.4014179963663771  0.2538940682135165  0.4315270469180980
  0.2490368315058691  0.2500004686471176  0.4174455918202282
  0.0948128540442393  0.2525141565089660  0.4348960363043033
  0.1508896918276480  0.2480109435096355  0.5247524405305606
  0.5048883920307211  0.2524181190531343  0.5042311428057715
  0.3498913607903536  0.2503541443264056  0.5227864092753536
  0.4167491085946760  0.2538800723282753  0.6154515513515251
  0.2509460119733830  0.2465558484723135  0.6008419124083897
  0.0928097585731210  0.2404286345583811  0.6075787110269459
  0.4014426787490248  0.2494156091134571  0.2485473043907597
  0.2530104491332161  0.2548075691973364  0.1905647928557653
  0.1048267509087221  0.2469643053081728  0.2555724058585476
  0.1586087670815255  0.3748335021240898  0.3431210889820320
  0.9994517100744251  0.3713225483073854  0.3312462058865344
  0.3513469768426513  0.3717517872695650  0.3419445863060246
  0.4094975924343824  0.3775223735456103  0.4290476416597193
  0.2559344643521879  0.3804310670413652  0.4191976634179487
  0.1000839162487002  0.3763333570089821  0.4390913116525283
  0.1487840413124285  0.3701454106510914  0.5240208752357134
  0.5027975773486130  0.3777407888441264  0.5044768071797364
  0.3535760269286048  0.3741481912379275  0.5213630503304192
  0.4044168621121999  0.3832245515469463  0.6110251305844389
  0.2512783685575918  0.3734838228496337  0.5937006723397005
  0.0957436216897208  0.3742293146698614  0.6018837911495643
  0.4031056230403786  0.3721699403026078  0.2516026513353545
  0.2434264965744560  0.3774144138126227  0.2053698909047934
  0.0888022620516914  0.3780087934401877  0.2583188766601007
  0.1547164995891391  0.0004404474615366  0.3404901676377305
  0.0104138956051962  0.9968267539239644  0.3316074590105975
  0.3431096933282369  0.9985977924615790  0.3351550817463733
  0.3994916547043124  0.5008790053242371  0.4284928088426695
  0.2543967455112899  0.4974372158795293  0.4161670351020640
  0.0973624789951817  0.4990345874526637  0.4360119040814025
  0.1552354262261485  0.4943474637955944  0.5228683346241773
  0.5029604133228675  0.5075390391695995  0.5045720479863194
  0.3418006934214315  0.0018639471043478  0.5187623359656877
  0.4137488613720460  0.5014515271955026  0.6164536819225591
  0.2469270173123854  0.4979943682071594  0.5960125226340929
  0.0998783271676443  0.0022627036482279  0.6120597122171748
  0.4123914673924736  0.5017984020840730  0.2458140086070847
  0.2548949823858480  0.5029853645938234  0.1945578535154763
  0.0805234136659729  0.4982742526163516  0.2466673172183157
  0.1520245804608601  0.6208525263532836  0.3338025487635476
  0.9908718489202194  0.6188601474488925  0.3226256378304981
  0.3452932988432776  0.6227691670412725  0.3340214238552150
  0.3991534017728107  0.6251761675848505  0.4295434154099068
  0.2467494557400512  0.6296925047255891  0.4149764165058055
  0.0936322086157520  0.6258161847702178  0.4319943908169932
  0.1366589401461862  0.6231725105104772  0.5243017374848378
  0.4980247778057106  0.6246447003468298  0.5077823355271733
  0.3429488161033507  0.6224340521535340  0.5254431794830452
  0.4009942218749750  0.6177096205831142  0.6126258126480587
  0.2498567180129001  0.6240564213031262  0.6042697732656114
  0.0972467292726200  0.6270659944732202  0.6117469604737272
  0.4116467880001874  0.6247100982760470  0.2402997516088465
  0.2451421306260147  0.6235833993704484  0.2210687086316079
  0.0855961338541645  0.6181821702568999  0.2374007106277446
  0.1528514331334596  0.7462458273455153  0.3352413552504827
  0.9943498342614382  0.7464199567575812  0.3260343206329152
  0.3387132087669656  0.7485014148802746  0.3301759936975922
  0.4017798824409910  0.7444646957875023  0.4278328168919988
  0.2476318211391680  0.7437032444009459  0.4170481032099633
  0.0939402283973118  0.7462853479508916  0.4335376941665525
  0.1537895443494509  0.7493281313337783  0.5233518061881182
  0.4968417804368819  0.7463144500770227  0.5026408297997015
  0.3468091485767249  0.7412937160915472  0.5236540143203465
  0.4048378993046701  0.7448409829316966  0.6120857418622432
  0.2472091815342543  0.7528153205384724  0.6001629603143531
  0.0903549034516656  0.7412760349979908  0.6045848767267697
  0.4103991262708587  0.7527426782881050  0.2410792808878644
  0.2431058463678093  0.7495703191896822  0.2033578312035002
  0.0859676515747428  0.7536707987909272  0.2427990490749063
  0.1560114035698444  0.8727212476126681  0.3402080547534148
  0.9979990653358328  0.8697258453575686  0.3278528556822655
  0.3449822209072906  0.8758967714453617  0.3392169137240545
  0.3941116614935983  0.8716719799524358  0.4280027180607671
  0.2463964443053166  0.8756626825720436  0.4111173176884638
  0.0968902083474372  0.8709898907141150  0.4300786339788744
  0.1408084563245683  0.8790797239956992  0.5237141010890912
  0.4913488340091553  0.8696369433231357  0.5006302443735186
  0.3469210599279629  0.8715601164952451  0.5216729718980597
  0.3955302098529945  0.8757900190224340  0.6143521337854563
  0.2414259568736189  0.8741839834293347  0.6009249461676405
  0.1031753943315535  0.8766477711441604  0.6072487378968442
  0.3988219388123996  0.8788895168065277  0.2479339610303068
  0.2485228418403921  0.8760342748276465  0.2207915321000168
  0.0882119790554957  0.8746537652641455  0.2508771251641428
  0.1530207657965323  0.5023874940999249  0.3391729645322446
  0.9954642789431878  0.4986259390521401  0.3229168856307976
  0.3506542457462566  0.4977316474902007  0.3342895856387524
  0.3970183340758328  0.9927947557223969  0.4268319125421445
  0.2490225856858184  0.9998841180379580  0.4128175966967828
  0.0990589103694491  0.0006327973244025  0.4364154067152660
  0.1457763636137579  0.0021889495025657  0.5237583322941425
  0.5051866654368743  0.9967705954341186  0.5060957779613238
  0.3505149418475301  0.5019994081179244  0.5234888573288839
  0.3965209834429564  0.9964137890389414  0.6075385056363131
  0.2479350578874553  0.9985376881669554  0.5976564313025474
  0.0964718439803481  0.4999200132215224  0.6089074104214853
  0.9077592252880656  0.9996636325227443  0.2577475919707152
  0.7467963749458585  0.9975218913738302  0.2150829911922933
  0.6000949604856418  0.9959799256433772  0.2477789487991737
  0.6438998090511711  0.1168452395392841  0.3448053356347143
  0.4897316347995213  0.1206388057270580  0.3253614737472904
  0.8450166567458287  0.1284197926804124  0.3404927350067676
  0.8999381552505790  0.1210504658441263  0.4342424319644939
  0.7440803936791860  0.1278296986637979  0.4163601556609979
  0.5958127652863843  0.1205099713222625  0.4336129363571666
  0.6584431682450940  0.1248713268990469  0.5260862740962083
  0.9975850695378958  0.1244880464322193  0.5041676138928026
  0.8541755480178321  0.1250558392091686  0.5266539721944823
  0.9145369940886339  0.1227600376626118  0.6238977547859385
  0.7557170512808505  0.1183322091217354  0.5994592724812072
  0.5938808760420989  0.1196890523542738  0.6107435472380833
  0.9060598979571080  0.1180169387797777  0.2539766096603230
  0.7547966685500171  0.1222335511487946  0.2337126525708311
  0.5952832699979616  0.1219627588116171  0.2514923553443620
  0.6461984882567038  0.2498124468114744  0.3388824298622225
  0.4988505979706854  0.2500929027167580  0.3244937999694272
  0.8443699516361086  0.2487804931191355  0.3415115609609820
  0.8949433682839835  0.2474227693939554  0.4341753162367861
  0.7439473500182869  0.2485645486215778  0.4132804666162629
  0.6010551285620587  0.2456041997845423  0.4345710900352984
  0.6616322845916252  0.2511087089324944  0.5242586354568888
  0.9941641587236641  0.2476985348887882  0.5068318773175530
  0.8528751806555849  0.2490863060962064  0.5263297651337652
  0.9025912882016160  0.2450477956791198  0.6219751481528066
  0.7546373985421141  0.2504413015685855  0.5999711272390555
  0.6058537894151537  0.2485146632725235  0.6117657827027205
  0.9019322372151355  0.2488392342892622  0.2515282531715829
  0.7593567557475047  0.2483731570902252  0.1938764043097803
  0.5887686429054482  0.2479818322568563  0.2525572598447131
  0.6549079436119226  0.3729171028715885  0.3378391892603074
  0.5005199011640985  0.3778136140006882  0.3241983838796407
  0.8446006635996838  0.3713375931517001  0.3418381124119790
  0.8994620464199897  0.3776447274018837  0.4318568448227721
  0.7480200229631490  0.3732131254632559  0.4170093644364856
  0.6052459301952279  0.3708924008442948  0.4310214021422850
  0.6469056871371809  0.3750517065100785  0.5232506039419373
  0.9969876428496884  0.3749576570202360  0.5024115169308647
  0.8405696460491066  0.3763202453959679  0.5202934679767625
  0.8941983468396802  0.3844241735771099  0.6165495449974263
  0.7536998637030790  0.3799720029462311  0.5913258872968363
  0.6048490798581045  0.3798134539267143  0.6173041680219283
  0.9020665739009226  0.3761555345546158  0.2560324956609232
  0.7570855797791312  0.3745011799661813  0.2217934860065565
  0.5979150976340883  0.3673787596653311  0.2402102313586560
  0.6472575558483484  0.0009656031928023  0.3397358971518482
  0.4975245200818433  0.9969488541172360  0.3233518365232914
  0.8486235603991364  0.9986205317127350  0.3491500330831798
  0.9022154999792614  0.4970408251623069  0.4316587514749980
  0.7460549474510657  0.4984896789402596  0.4151071276759585
  0.5948784340267360  0.5055103039951110  0.4304267933540504
  0.6505111072753613  0.4982903603428508  0.5231263877457071
  0.0012098359797142  0.5016111670021498  0.5084139889438812
  0.8409509921526256  0.9968484074550643  0.5213603801058558
  0.8990141401062690  0.4925262311443097  0.6169055997002613
  0.7549347547303367  0.4999534150616363  0.5991828178047608
  0.5972827539150833  0.9967801276191647  0.6139556494747559
  0.9362221229031145  0.5516815398813554  0.1718181678933277
  0.7574408780236910  0.4935580405770860  0.2035979148815820