Cu	N	Ru	Ta                              
   1.00000000000000     
    18.1096308199999996    0.0000000000000000    0.0000000000000000
     0.0000000000000000   23.3551997799999995    0.0000000000000000
     0.0000000000000000    0.0000000000000000   30.4818171199999988
   Cu   N    Ru   Ta
     2   240    48   192
Selective dynamics
Direct
  0.6075015992944134  0.5539713157817605  0.5798803364918644   T   T   T
  0.6249136860134575  0.3973685752451401  0.5947383833947736   T   T   T
  0.0000000000000000  0.0000000000000000  0.3032267788896164   F   F   F
  0.0000000000000000  0.5000000000000000  0.3032267788896164   F   F   F
  0.0000000000000000  0.6249999998929567  0.3032267788896164   F   F   F
  0.0000000000000000  0.7500000002140865  0.3032267788896164   F   F   F
  0.0000000000000000  0.8750000001070433  0.3032267788896164   F   F   F
  0.0000000000000000  0.1249999998929567  0.3032267788896164   F   F   F
  0.0000000000000000  0.2500000002140865  0.3032267788896164   F   F   F
  0.0000000000000000  0.3750000001070433  0.3032267788896164   F   F   F
  0.9989252680227978  0.3743589803904530  0.4730921792231976   T   T   T
  0.9986271892310323  0.9984418450677437  0.4726885483195796   T   T   T
  0.9984508354176874  0.1242192113153397  0.4728453493330104   T   T   T
  0.0004640416375955  0.8743501349488906  0.4727616725105148   T   T   T
  0.0011554106815460  0.5013093937820088  0.4733558828671320   T   T   T
  0.0034533275741100  0.6266664078366363  0.4726576054423460   T   T   T
  0.0304888612525705  0.2508430576998376  0.5639888678226179   T   T   T
  0.0462704685350144  0.7391613609844111  0.5602276912028016   T   T   T
  0.0465431487636907  0.3884645591622098  0.5740952579979324   T   T   T
  0.5539697976549975  0.2277481150204827  0.5713964795111509   T   T   T
  0.5641556562661290  0.7423389642433493  0.5747301575133826   T   T   T
  0.5882090523403142  0.6309753126256877  0.5740099938022929   T   T   T
  0.5941133989389655  0.0000000000000000  0.2322132027803434   F   F   F
  0.5941133989389655  0.5000000000000000  0.2322132027803434   F   F   F
  0.5941133989389655  0.6249999998929567  0.2322132027803434   F   F   F
  0.5941133989389655  0.7500000002140865  0.2322132027803434   F   F   F
  0.5941133989389655  0.8750000001070433  0.2322132027803434   F   F   F
  0.5941133989389655  0.1249999998929567  0.2322132027803434   F   F   F
  0.5941133989389655  0.2500000002140865  0.2322132027803434   F   F   F
  0.5941133989389655  0.3750000001070433  0.2322132027803434   F   F   F
  0.5985777081918636  0.1176860413597299  0.5694932460811388   T   T   T
  0.5980837167197460  0.2509242615407744  0.4021051461665876   T   T   T
  0.5985139032464323  0.3754213439331305  0.4024414209054375   T   T   T
  0.5995143863615710  0.1248605118984739  0.4023744696920619   T   T   T
  0.5995051359805927  0.5006612094432130  0.4026998160000029   T   T   T
  0.5998174193017084  0.0007837944698313  0.4018572316700414   T   T   T
  0.5995702633101549  0.7504691865112776  0.4020794593136025   T   T   T
  0.6002301730071822  0.9928204920307964  0.5705310396272435   T   T   T
  0.6003204065156050  0.8746352667071785  0.4005172465960430   T   T   T
  0.6004408989637487  0.6247387432991894  0.4033948205739733   T   T   T
  0.6040424506000651  0.4741742166621805  0.5733499346593220   T   T   T
  0.6124883922366793  0.8723924935097678  0.5712700412216131   T   T   T
  0.6483818079437021  0.2519979589978847  0.4850833758197741   T   T   T
  0.6501714786139801  0.7512810877633499  0.4861112726768411   T   T   T
  0.6511492611745975  0.3770425385300952  0.4871327136073370   T   T   T
  0.6510425907846037  0.8750560852309587  0.4830949457090220   T   T   T
  0.6524447980627943  0.1275015123987094  0.4869676047246846   T   T   T
  0.6522501840596349  0.5009296310087882  0.4855118423918168   T   T   T
  0.6536623652947705  0.9998389306569371  0.4856862717862525   T   T   T
  0.6545990963497701  0.0000000000000000  0.3156671842141137   F   F   F
  0.6545990963497701  0.5000000000000000  0.3156671842141137   F   F   F
  0.6545990963497701  0.6249999998929567  0.3156671842141137   F   F   F
  0.6545990963497701  0.7500000002140865  0.3156671842141137   F   F   F
  0.6545990963497701  0.8750000001070433  0.3156671842141137   F   F   F
  0.6545990963497701  0.1249999998929567  0.3156671842141137   F   F   F
  0.6545990963497701  0.2500000002140865  0.3156671842141137   F   F   F
  0.6545990963497701  0.3750000001070433  0.3156671842141137   F   F   F
  0.6556369234465688  0.6277565207661424  0.4900053978422643   T   T   T
  0.6937422388321455  0.2493251885986586  0.5695035949589601   T   T   T
  0.7079995498881434  0.7630403225390467  0.5753979890201937   T   T   T
  0.7224160479144960  0.3782209184051513  0.5707489480937578   T   T   T
  0.7499999997239044  0.0000000000000000  0.1996562654398630   F   F   F
  0.7499999997239044  0.5000000000000000  0.1996562654398630   F   F   F
  0.7499999997239044  0.6249999998929567  0.1996562654398630   F   F   F
  0.7499999997239044  0.7500000002140865  0.1996562654398630   F   F   F
  0.7499999997239044  0.8750000001070433  0.1996562654398630   F   F   F
  0.7499999997239044  0.1249999998929567  0.1996562654398630   F   F   F
  0.7499999997239044  0.2500000002140865  0.1996562654398630   F   F   F
  0.7499999997239044  0.3750000001070433  0.1996562654398630   F   F   F
  0.7496789537939944  0.2502104637720544  0.3879183253403014   T   T   T
  0.7497791660539385  0.1251282326729707  0.3878286721593791   T   T   T
  0.7500516229897464  0.9997781061929496  0.3866791703854094   T   T   T
  0.7499211145653250  0.3751729879203262  0.3882548423126122   T   T   T
  0.7504128233059667  0.8748924308394376  0.3875024281056464   T   T   T
  0.7502804546029043  0.7497792372891366  0.3876372809849646   T   T   T
  0.7503141649533317  0.5001669804539768  0.3870848960626866   T   T   T
  0.7505590917094942  0.6249636788121332  0.3871292596250683   T   T   T
  0.7539499061196948  0.5142668403790074  0.5543212672897453   T   T   T
  0.7605041763981751  0.0465332757284883  0.5559573511964591   T   T   T
  0.7833446659197152  0.1681473775931242  0.5902026184338526   T   T   T
  0.7823427526875242  0.9001547038367841  0.5736629418047335   T   T   T
  0.7902123830831118  0.6465987404395294  0.5592182943301551   T   T   T
  0.0803571026554188  0.1346595907364858  0.5677193114893425   T   T   T
  0.8454009036502299  0.0000000000000000  0.3156671842141137   F   F   F
  0.8454009036502299  0.5000000000000000  0.3156671842141137   F   F   F
  0.8454009036502299  0.6249999998929567  0.3156671842141137   F   F   F
  0.8454009036502299  0.7500000002140865  0.3156671842141137   F   F   F
  0.8454009036502299  0.8750000001070433  0.3156671842141137   F   F   F
  0.8454009036502299  0.1249999998929567  0.3156671842141137   F   F   F
  0.8454009036502299  0.2500000002140865  0.3156671842141137   F   F   F
  0.8454009036502299  0.3750000001070433  0.3156671842141137   F   F   F
  0.8469811551167746  0.9977141477246217  0.4863258589151801   T   T   T
  0.8482083585581868  0.8721468030374782  0.4872109894124468   T   T   T
  0.8478693737766039  0.1224778890950869  0.4866518077660466   T   T   T
  0.8502237526363977  0.4998754725147933  0.4836584739511314   T   T   T
  0.8502761519384568  0.7466664411573396  0.4857260761739453   T   T   T
  0.8502760294870696  0.2482188249293418  0.4863818848496910   T   T   T
  0.8514320328276458  0.3740013414877242  0.4867240821848028   T   T   T
  0.8531672045438428  0.6250943959235531  0.4838021386029142   T   T   T
  0.8607041844655707  0.2870673145520723  0.5664522661824912   T   T   T
  0.8659308244295639  0.7717050521077111  0.5721665314603136   T   T   T
  0.8835415119616287  0.4194577083883202  0.5753394655797726   T   T   T
  0.0892206093317751  0.9977297604493272  0.5692503971788138   T   T   T
  0.8998214011575690  0.2494302982791338  0.4016384546804265   T   T   T
  0.9000726802504946  0.1239496684963592  0.4023684222558759   T   T   T
  0.9002062729809859  0.3752467266247557  0.4017860891292289   T   T   T
  0.9003541247609594  0.9989946253373009  0.4027416474817252   T   T   T
  0.9005457500138597  0.8750354693039309  0.4023784086169809   T   T   T
  0.9008585095929478  0.7497831725826649  0.4011662231690728   T   T   T
  0.9014048026072295  0.5000431823883544  0.4016103503196758   T   T   T
  0.9019321176102644  0.6242618295503316  0.4010031283970362   T   T   T
  0.9058866010610345  0.0000000000000000  0.2322132027803434   F   F   F
  0.9058866010610345  0.5000000000000000  0.2322132027803434   F   F   F
  0.9058866010610345  0.6249999998929567  0.2322132027803434   F   F   F
  0.9058866010610345  0.7500000002140865  0.2322132027803434   F   F   F
  0.9058866010610345  0.8750000001070433  0.2322132027803434   F   F   F
  0.9058866010610345  0.1249999998929567  0.2322132027803434   F   F   F
  0.9058866010610345  0.2500000002140865  0.2322132027803434   F   F   F
  0.9058866010610345  0.3750000001070433  0.2322132027803434   F   F   F
  0.9061485511457762  0.9877065299339886  0.5666314005328841   T   T   T
  0.9156874640919849  0.1059800609797014  0.5786190157454001   T   T   T
  0.9205733664495290  0.5423351041722814  0.5770727116341524   T   T   T
  0.0921544195830129  0.5026053601497493  0.5682040031391075   T   T   T
  0.0941133989389655  0.0000000000000000  0.2322132027803434   F   F   F
  0.0941133989389655  0.5000000000000000  0.2322132027803434   F   F   F
  0.0941133989389655  0.6249999998929567  0.2322132027803434   F   F   F
  0.0941133989389655  0.7500000002140865  0.2322132027803434   F   F   F
  0.0941133989389655  0.8750000001070433  0.2322132027803434   F   F   F
  0.0941133989389655  0.1249999998929567  0.2322132027803434   F   F   F
  0.0941133989389655  0.2500000002140865  0.2322132027803434   F   F   F
  0.0941133989389655  0.3750000001070433  0.2322132027803434   F   F   F
  0.9432434566008661  0.6702639129412958  0.5698090430384372   T   T   T
  0.9434569916848264  0.8700378719064304  0.5859484917026848   T   T   T
  0.0983168136524433  0.2494437398985657  0.4028381632546352   T   T   T
  0.0986746316133850  0.1249633276947925  0.4022528977916034   T   T   T
  0.0987503018964606  0.3747919222173993  0.4023479350121326   T   T   T
  0.9962478394460578  0.2491198500909130  0.4722500671731393   T   T   T
  0.9978566941614919  0.7510107861694096  0.4719169713139371   T   T   T
  0.0991549940835650  0.9997789938947715  0.4014424544139604   T   T   T
  0.0993146089432624  0.8744995052226614  0.4016558139098572   T   T   T
  0.0997565455888594  0.4995620597047108  0.4023451380822897   T   T   T
  0.0998606372270343  0.7506417209899355  0.4023945386137320   T   T   T
  0.1006147190861315  0.6246949525599697  0.4016015293093441   T   T   T
  0.1040742313704134  0.8621283006428268  0.5668058315324249   T   T   T
  0.1166283109992952  0.6358766842328641  0.5712143867475201   T   T   T
  0.1465211311270466  0.2514240316472596  0.4884098477869265   T   T   T
  0.1481192917716959  0.3722058049658324  0.4868985154895213   T   T   T
  0.1493484935415240  0.7477538258513873  0.4875174816966422   T   T   T
  0.1497406020184798  0.1214377333648244  0.4868459581777398   T   T   T
  0.1513419185643741  0.9996007484547845  0.4873456172523713   T   T   T
  0.1530536690969196  0.6252878119107657  0.4841371405529923   T   T   T
  0.1530095871527304  0.8776629752815031  0.4848344523124135   T   T   T
  0.1534140548284061  0.4998820031000650  0.4866943232626472   T   T   T
  0.1545990963497701  0.0000000000000000  0.3156671842141137   F   F   F
  0.1545990963497701  0.5000000000000000  0.3156671842141137   F   F   F
  0.1545990963497701  0.6249999998929567  0.3156671842141137   F   F   F
  0.1545990963497701  0.7500000002140865  0.3156671842141137   F   F   F
  0.1545990963497701  0.8750000001070433  0.3156671842141137   F   F   F
  0.1545990963497701  0.1249999998929567  0.3156671842141137   F   F   F
  0.1545990963497701  0.2500000002140865  0.3156671842141137   F   F   F
  0.1545990963497701  0.3750000001070433  0.3156671842141137   F   F   F
  0.2077534586477114  0.2422921641077935  0.5682530946131005   T   T   T
  0.2117007261134549  0.3832600303134435  0.5642779726378317   T   T   T
  0.2215608121634956  0.7528870210942095  0.5629637240076908   T   T   T
  0.2422237125060770  0.6088197188449240  0.5563314330359952   T   T   T
  0.2499999997239044  0.0000000000000000  0.1996562654398630   F   F   F
  0.2499999997239044  0.5000000000000000  0.1996562654398630   F   F   F
  0.2499999997239044  0.6249999998929567  0.1996562654398630   F   F   F
  0.2499999997239044  0.7500000002140865  0.1996562654398630   F   F   F
  0.2499999997239044  0.8750000001070433  0.1996562654398630   F   F   F
  0.2499999997239044  0.1249999998929567  0.1996562654398630   F   F   F
  0.2499999997239044  0.2500000002140865  0.1996562654398630   F   F   F
  0.2499999997239044  0.3750000001070433  0.1996562654398630   F   F   F
  0.2493305824503698  0.2496735491549233  0.3878110346138566   T   T   T
  0.2494381215092636  0.1246192650526024  0.3887752877171594   T   T   T
  0.2494529568819020  0.0000401012388145  0.3884948175234422   T   T   T
  0.2497266296515889  0.3747118563319601  0.3874473789879254   T   T   T
  0.2497751708466698  0.8751167318720303  0.3879786343835607   T   T   T
  0.2501020656689006  0.7501709942236922  0.3876527840059537   T   T   T
  0.2504789014350229  0.4999344969931230  0.3882226272409200   T   T   T
  0.2506909872956987  0.6249133796811656  0.3867609417590738   T   T   T
  0.2848830209277827  0.1290595292306156  0.5573087753458716   T   T   T
  0.2901210065104775  0.4898524422728356  0.5581658664059532   T   T   T
  0.2905121668266156  0.8651463252868034  0.5606421419521519   T   T   T
  0.2964351125843416  0.9977918967574950  0.5633212844223174   T   T   T
  0.3454009036502299  0.0000000000000000  0.3156671842141137   F   F   F
  0.3454009036502299  0.5000000000000000  0.3156671842141137   F   F   F
  0.3454009036502299  0.6249999998929567  0.3156671842141137   F   F   F
  0.3454009036502299  0.7500000002140865  0.3156671842141137   F   F   F
  0.3454009036502299  0.8750000001070433  0.3156671842141137   F   F   F
  0.3454009036502299  0.1249999998929567  0.3156671842141137   F   F   F
  0.3454009036502299  0.2500000002140865  0.3156671842141137   F   F   F
  0.3454009036502299  0.3750000001070433  0.3156671842141137   F   F   F
  0.3460637955460615  0.2483165211432342  0.4853496202964571   T   T   T
  0.3472372812848075  0.3757838676588104  0.4857093772768600   T   T   T
  0.3486645498818275  0.6255333990434073  0.4850125778079488   T   T   T
  0.3485556454606634  0.7506280651734161  0.4854537078845043   T   T   T
  0.3511404651430587  0.9985135720668816  0.4844708600069678   T   T   T
  0.3521911334124023  0.1222388869708539  0.4834950425323233   T   T   T
  0.3531842071390336  0.8755754554041634  0.4841956702969602   T   T   T
  0.3536546961607234  0.5031070952553955  0.4842241926792757   T   T   T
  0.3815611293107208  0.2368908059623291  0.5710384797906697   T   T   T
  0.3832639310335997  0.3746373709625207  0.5697869161988229   T   T   T
  0.3915816526041901  0.7500521289337182  0.5695352323815066   T   T   T
  0.3999859611675866  0.2498527841525618  0.4019982648445960   T   T   T
  0.4004305542650088  0.8750884807845782  0.4006246638673550   T   T   T
  0.4007259565449294  0.3755474220177155  0.4024607557352232   T   T   T
  0.4011401289585514  0.1247474479892730  0.4011267338713946   T   T   T
  0.4011088813227292  0.7504844907504602  0.4017374112695768   T   T   T
  0.4013495176799359  0.9997517661628172  0.4012126345826915   T   T   T
  0.4021254290840479  0.6252812187261838  0.4016564360165593   T   T   T
  0.4023223784422989  0.5000288895213968  0.4019829918349591   T   T   T
  0.4058866010610345  0.0000000000000000  0.2322132027803434   F   F   F
  0.4058866010610345  0.5000000000000000  0.2322132027803434   F   F   F
  0.4058866010610345  0.6249999998929567  0.2322132027803434   F   F   F
  0.4058866010610345  0.7500000002140865  0.2322132027803434   F   F   F
  0.4058866010610345  0.8750000001070433  0.2322132027803434   F   F   F
  0.4058866010610345  0.1249999998929567  0.2322132027803434   F   F   F
  0.4058866010610345  0.2500000002140865  0.2322132027803434   F   F   F
  0.4058866010610345  0.3750000001070433  0.2322132027803434   F   F   F
  0.4072886183894902  0.6103416369710798  0.5642854337729434   T   T   T
  0.4375107828182724  0.9285359507881895  0.5521376949289414   T   T   T
  0.4407426063021982  0.0553047353523229  0.5500458878225655   T   T   T
  0.4439346505257021  0.4962993584196007  0.5815853916322921   T   T   T
  0.4750606953804709  0.8451404627301851  0.6203863180861316   T   T   T
  0.4973870161233500  0.2494472696560993  0.4740573579667784   T   T   T
  0.5000000000000000  0.0000000000000000  0.3032267788896164   F   F   F
  0.5000000000000000  0.5000000000000000  0.3032267788896164   F   F   F
  0.5000000000000000  0.6249999998929567  0.3032267788896164   F   F   F
  0.5000000000000000  0.7500000002140865  0.3032267788896164   F   F   F
  0.5000000000000000  0.8750000001070433  0.3032267788896164   F   F   F
  0.5000000000000000  0.1249999998929567  0.3032267788896164   F   F   F
  0.5000000000000000  0.2500000002140865  0.3032267788896164   F   F   F
  0.5000000000000000  0.3750000001070433  0.3032267788896164   F   F   F
  0.4993987667989940  0.7524620053746487  0.4735692755148734   T   T   T
  0.4994606835008912  0.3746158324239965  0.4755357318937292   T   T   T
  0.5003112999625903  0.1248016592538085  0.4722382810073626   T   T   T
  0.5013349701662017  0.8748490942379966  0.4686985246321544   T   T   T
  0.5016791612162715  0.6254944999007531  0.4740002098524567   T   T   T
  0.5016210285575368  0.9992235270813027  0.4738043620498524   T   T   T
  0.5024294197416148  0.4993533181348091  0.4749350712558492   T   T   T
  0.5380457823242315  0.3578000010592458  0.5888801723316628   T   T   T
  0.0006306686986354  0.5179157020447529  0.5406767911106408   T   T   T
  0.0073458481443974  0.8731634971195066  0.5416351648075710   T   T   T
  0.0315422673100260  0.6502178354223828  0.5390853051357340   T   T   T
  0.6313852944989758  0.1881281591625946  0.5410070561511254   T   T   T
  0.6312813286244365  0.6948126189700101  0.5410119602799104   T   T   T
  0.6493234442971244  0.0547055318291385  0.5434350476551152   T   T   T
  0.6487527256057729  0.9325148620646783  0.5337177425106407   T   T   T
  0.6867667966485659  0.3133408499803394  0.5335946434184441   T   T   T
  0.7000965160671068  0.4492709889433866  0.5333854157742351   T   T   T
  0.7073522619391837  0.8428293982786024  0.5758561749717247   T   T   T
  0.7243251167662103  0.5903036544842138  0.5406626058128112   T   T   T
  0.7844057973860893  0.7277680404936056  0.5470107307691110   T   T   T
  0.7904602026112386  0.2289903717605470  0.5503065347269779   T   T   T
  0.8059958607875275  0.9740970335544054  0.5475235589292837   T   T   T
  0.8220042182401300  0.1159701536133400  0.5548266762803522   T   T   T
  0.8206124430956027  0.3608244456880636  0.5526071259945664   T   T   T
  0.8541811423512999  0.4876959725415393  0.5491466946939527   T   T   T
  0.8628036956393271  0.8495539757302178  0.5527608762735596   T   T   T
  0.8876428369182388  0.6101481451639675  0.5472334062516824   T   T   T
  0.9438032463296157  0.2536598561280330  0.5354279189448854   T   T   T
  0.9502039446161664  0.7462772698912621  0.5356010171830847   T   T   T
  0.9667750681809858  0.3950891495233507  0.5406328682837099   T   T   T
  0.9855350658866348  0.1233117169165836  0.5406975152178694   T   T   T
  0.9905264894553402  0.9922714828442629  0.5402509599872303   T   T   T
  0.1106075101475876  0.2099744257908003  0.5485470568242490   T   T   T
  0.1128590747864843  0.0666567053848126  0.5400107945422563   T   T   T
  0.1194930943150516  0.4269104233995866  0.5466058717358219   T   T   T
  0.1242879069186739  0.7862477337016410  0.5469521853473486   T   T   T
  0.1290008575707230  0.9335510086975649  0.5377355821038254   T   T   T
  0.1427492271811826  0.5654346082239261  0.5410252050358182   T   T   T
  0.1972158038696768  0.3124174477505572  0.5339926230157196   T   T   T
  0.2000028425905711  0.6791122222465724  0.5380305566708666   T   T   T
  0.2883014610640606  0.2046717522740966  0.5436917120426058   T   T   T
  0.2971885322790270  0.4166214047175451  0.5423764348836086   T   T   T
  0.3031560404742747  0.7930525325931557  0.5409678885249233   T   T   T
  0.3143328564951572  0.5597880585007090  0.5351457990229775   T   T   T
  0.3263209160383427  0.0638065749946075  0.5353488245303127   T   T   T
  0.3270485493676198  0.9315271049763565  0.5369251432776736   T   T   T
  0.3686942863211232  0.3056351128784545  0.5394284911294942   T   T   T
  0.3781723510320181  0.6801051966916020  0.5395185702454016   T   T   T
  0.4745172308652118  0.2269680802284694  0.5398850440186846   T   T   T
  0.4832589418068157  0.3739976906983128  0.5457667659819532   T   T   T
  0.4879921826170026  0.7545720403004157  0.5426929094876012   T   T   T
  0.5036116639285990  0.6206033006833955  0.5412599021259016   T   T   T
  0.5047818838661974  0.8702885847196693  0.5735754267598269   T   T   T
  0.5070163804765697  0.1137868342273001  0.5392843496735280   T   T   T
  0.5065079855608503  0.9892535721607235  0.5422052687311647   T   T   T
  0.5088330515277313  0.4857278048985877  0.5451542094932554   T   T   T
  0.0000000000000000  0.0000000000000000  0.1972002481458333   F   F   F
  0.0000000000000000  0.5000000000000000  0.1972002481458333   F   F   F
  0.0000000000000000  0.6249999998929567  0.1972002481458333   F   F   F
  0.0000000000000000  0.7500000002140865  0.1972002481458333   F   F   F
  0.0000000000000000  0.8750000001070433  0.1972002481458333   F   F   F
  0.0000000000000000  0.1249999998929567  0.1972002481458333   F   F   F
  0.0000000000000000  0.2500000002140865  0.1972002481458333   F   F   F
  0.0000000000000000  0.3750000001070433  0.1972002481458333   F   F   F
  0.9995013880050296  0.1246550835105160  0.3701006221656503   T   T   T
  0.9994734012212348  0.2494838810852487  0.3699959967273258   T   T   T
  0.9996387782953562  0.9996284255456269  0.3699971576467740   T   T   T
  0.9996858543787667  0.3750119324884895  0.3699787044408598   T   T   T
 -0.0002276328891050  0.8747817967949687  0.3700312844884393   T   T   T
  0.0005875265142589  0.7501768631806571  0.3698739626290976   T   T   T
  0.0006447972017455  0.4997673820997204  0.3699214311055009   T   T   T
  0.0012165776447378  0.6247170254953351  0.3696608219551408   T   T   T
  0.5825346300460907  0.4375000002676046  0.2838671249793236   F   F   F
  0.5825346300460907  0.5625000001605613  0.2838671249793236   F   F   F
  0.5825346300460907  0.0625000001605613  0.2838671249793236   F   F   F
  0.5825346300460907  0.6875000000535181  0.2838671249793236   F   F   F
  0.5825346300460907  0.8124999999464819  0.2838671249793236   F   F   F
  0.5825346300460907  0.9375000002676046  0.2838671249793236   F   F   F
  0.5825346300460907  0.1875000000535181  0.2838671249793236   F   F   F
  0.5825346300460907  0.3124999999464819  0.2838671249793236   F   F   F
  0.5828737084609252  0.3134778613566370  0.4545541496426029   T   T   T
  0.5833918280779615  0.1883575062110561  0.4541734265969055   T   T   T
  0.5842099788165452  0.9368852246335925  0.4526473569521369   T   T   T
  0.5845342641238255  0.0629724835382811  0.4554425200080891   T   T   T
  0.5853825606530607  0.6888325399044738  0.4551287464903088   T   T   T
  0.5853001806639385  0.4377778903310829  0.4548304794373250   T   T   T
  0.5854516246114071  0.8131559800914131  0.4546525741886402   T   T   T
  0.5861307294031600  0.5638950199929668  0.4574822542714009   T   T   T
  0.6657105641648826  0.4375000002676046  0.2025710526275901   F   F   F
  0.6657105641648826  0.5625000001605613  0.2025710526275901   F   F   F
  0.6657105641648826  0.0625000001605613  0.2025710526275901   F   F   F
  0.6657105641648826  0.6875000000535181  0.2025710526275901   F   F   F
  0.6657105641648826  0.8124999999464819  0.2025710526275901   F   F   F
  0.6657105641648826  0.9375000002676046  0.2025710526275901   F   F   F
  0.6657105641648826  0.1875000000535181  0.2025710526275901   F   F   F
  0.6657105641648826  0.3124999999464819  0.2025710526275901   F   F   F
  0.6672060550873429  0.1878280816021113  0.3685495144508156   T   T   T
  0.6673225841322490  0.3127230970968664  0.3686517657373404   T   T   T
  0.6675841439344544  0.0626191934457160  0.3682723841216768   T   T   T
  0.6675460728732190  0.6875057310367657  0.3686122716170672   T   T   T
  0.6677265021869614  0.4376531859392344  0.3686448305704378   T   T   T
  0.6678677424479774  0.9374957855154424  0.3677965923467010   T   T   T
  0.6677673533193934  0.5626628422395455  0.3686467796742066   T   T   T
  0.6681041184474771  0.8123216739804069  0.3681929730734085   T   T   T
  0.7499999997239044  0.0000000000000000  0.2777865629422820   F   F   F
  0.7499999997239044  0.5000000000000000  0.2777865629422820   F   F   F
  0.7499999997239044  0.6249999998929567  0.2777865629422820   F   F   F
  0.7499999997239044  0.7500000002140865  0.2777865629422820   F   F   F
  0.7499999997239044  0.8750000001070433  0.2777865629422820   F   F   F
  0.7499999997239044  0.1249999998929567  0.2777865629422820   F   F   F
  0.7499999997239044  0.2500000002140865  0.2777865629422820   F   F   F
  0.7499999997239044  0.3750000001070433  0.2777865629422820   F   F   F
  0.7494299905182980  0.2505202396369020  0.4564683155843491   T   T   T
  0.7496222568021104  0.7496526089772820  0.4562391579643211   T   T   T
  0.7497816697591293  0.1267734447953710  0.4557450390854842   T   T   T
  0.7499941069977424  0.5017469407280937  0.4547116571676036   T   T   T
  0.7500719842595620  0.8750165861745380  0.4552174606012707   T   T   T
  0.7502224660134486  0.9986398647233515  0.4540065842652317   T   T   T
  0.7507300149794093  0.3759703828289802  0.4566512710456674   T   T   T
  0.7519925131955785  0.6273678519901527  0.4551829458815717   T   T   T
  0.0816248754749949  0.3122955442833433  0.4539184455331274   T   T   T
  0.0825346300460907  0.4375000002676046  0.2838671249793236   F   F   F
  0.0825346300460907  0.5625000001605613  0.2838671249793236   F   F   F
  0.0825346300460907  0.0625000001605613  0.2838671249793236   F   F   F
  0.0825346300460907  0.6875000000535181  0.2838671249793236   F   F   F
  0.0825346300460907  0.8124999999464819  0.2838671249793236   F   F   F
  0.0825346300460907  0.9375000002676046  0.2838671249793236   F   F   F
  0.0825346300460907  0.1875000000535181  0.2838671249793236   F   F   F
  0.0825346300460907  0.3124999999464819  0.2838671249793236   F   F   F
  0.8319183644096875  0.3124715806036959  0.3683864753128611   T   T   T
  0.8321831341193312  0.1873191239335721  0.3683379998762533   T   T   T
  0.8324238825460502  0.4375013550171789  0.3681162552484487   T   T   T
  0.8327241482949729  0.0622172202161414  0.3686523676613981   T   T   T
  0.8327145065683915  0.8123401751344317  0.3682271996795587   T   T   T
  0.8326431204857190  0.6872769018919519  0.3678933127105504   T   T   T
  0.8328413756082921  0.9372755356873437  0.3683037934169113   T   T   T
  0.8329201187694775  0.5624160661230713  0.3678867297827441   T   T   T
  0.8342894060167296  0.4375000002676046  0.2025710526275901   F   F   F
  0.8342894060167296  0.5625000001605613  0.2025710526275901   F   F   F
  0.8342894060167296  0.0625000001605613  0.2025710526275901   F   F   F
  0.8342894060167296  0.6875000000535181  0.2025710526275901   F   F   F
  0.8342894060167296  0.8124999999464819  0.2025710526275901   F   F   F
  0.8342894060167296  0.9375000002676046  0.2025710526275901   F   F   F
  0.8342894060167296  0.1875000000535181  0.2025710526275901   F   F   F
  0.8342894060167296  0.3124999999464819  0.2025710526275901   F   F   F
  0.0832592604841361  0.0617017115389775  0.4537855631907821   T   T   T
  0.0836979146885991  0.1862598395900809  0.4564387693614184   T   T   T
  0.0844917111291257  0.6871883577908242  0.4535864556283630   T   T   T
  0.0845164624031352  0.4373810269563138  0.4559461420757185   T   T   T
  0.0844659357301489  0.9373243495161261  0.4531670210657350   T   T   T
  0.0855164688328872  0.5616480817325535  0.4544583335545428   T   T   T
  0.0855001286195354  0.8130528651942731  0.4558766927003628   T   T   T
  0.9135900043720468  0.0609046151718178  0.4561650651144690   T   T   T
  0.9143319453779500  0.1864877365367505  0.4546855594339227   T   T   T
  0.9142314910900128  0.8115739218156490  0.4546570590971241   T   T   T
  0.9145361285857958  0.3120557083110438  0.4542741341743627   T   T   T
  0.9149450413652255  0.9359920949375443  0.4563668846500724   T   T   T
  0.9166116717785495  0.4369224964493536  0.4546247883040995   T   T   T
  0.9174653699539093  0.4375000002676046  0.2838671249793236   F   F   F
  0.9174653699539093  0.5625000001605613  0.2838671249793236   F   F   F
  0.9174653699539093  0.0625000001605613  0.2838671249793236   F   F   F
  0.9174653699539093  0.6875000000535181  0.2838671249793236   F   F   F
  0.9174653699539093  0.8124999999464819  0.2838671249793236   F   F   F
  0.9174653699539093  0.9375000002676046  0.2838671249793236   F   F   F
  0.9174653699539093  0.1875000000535181  0.2838671249793236   F   F   F
  0.9174653699539093  0.3124999999464819  0.2838671249793236   F   F   F
  0.9171013484730344  0.6873837054697415  0.4530236448551052   T   T   T
  0.9171766877889191  0.5624395224630500  0.4547179696238676   T   T   T
  0.1657105641648826  0.4375000002676046  0.2025710526275901   F   F   F
  0.1657105641648826  0.5625000001605613  0.2025710526275901   F   F   F
  0.1657105641648826  0.0625000001605613  0.2025710526275901   F   F   F
  0.1657105641648826  0.6875000000535181  0.2025710526275901   F   F   F