Ta  N Co Cu                             
   1.00000000000000     
    18.1096308199999996    0.0000000000000000    0.0000000000000000
     0.0000000000000000   23.3551997799999995    0.0000000000000000
     0.0000000000000000    0.0000000000000000   30.4818171199999988
   Ta   N    Co   Cu
   228   240    12     1
Direct
  0.0000200412578408  0.0000536512262173  0.1978285731465590
  0.3339084244627841  0.0624496348848922  0.2027297873421929
  0.1658538835647221  0.0624564944677388  0.2030722473326705
  0.2498818226049480  0.1250623038177778  0.2784444221787865
  0.0826079537959643  0.0625687136756383  0.2844479119878187
  0.4169740938821249  0.0625134187613128  0.2841234519060336
  0.9999665063150545  0.1250635723714097  0.3701201515189538
  0.3316082109676799  0.0625460929379287  0.3687662775391090
  0.1679022655116214  0.0625589367876032  0.3687531152971530
  0.2506997275725595  0.1272787541643154  0.4578266482921478
  0.0848960281931710  0.0626782274549740  0.4552046988180436
  0.4169912100387378  0.0621310266974220  0.4534605137379444
  0.9998445269486211  0.1251722880603126  0.5413959437004792
  0.3331025144471340  0.0605265877581047  0.5429280394061777
  0.0000086055379924  0.1250329436024202  0.1978466151468155
  0.3338729827010596  0.1876444967915489  0.2027345047093050
  0.1659467643485186  0.1876446283834809  0.2031017242652240
  0.2499523049504973  0.2499954628671688  0.2783889658697589
  0.0825015861784593  0.1875698564658776  0.2845091241269984
  0.4171249356616400  0.1875093895590751  0.2841652724915775
  0.9999135954792635  0.2501417186290382  0.3701021712388410
  0.3315341467887976  0.1874049333589483  0.3687372150591983
  0.1679777021783977  0.1875769146033690  0.3685574802759390
  0.2500341339358343  0.2482430594119549  0.4573784569881170
  0.0833994338722590  0.1877978906868876  0.4538057306824683
  0.4177575025894669  0.1877295290545788  0.4529093882384174
  0.9998583604662556  0.2489522112767517  0.5417848171812594
  0.3429790659797973  0.1868464986894338  0.5412355633369046
  0.1715929973186618  0.1862356016239488  0.5430072595627493
  0.9999786475591677  0.2500772076387960  0.1978194700719840
  0.3339452980080750  0.3124882347594777  0.2027707995835968
  0.1658705254062269  0.3124732100396628  0.2030654172589266
  0.2499354433092904  0.3750509080922697  0.2784884089703397
  0.0825896977800440  0.3125920153436326  0.2844236703655056
  0.4170293495992041  0.3125121849822392  0.2841862425049015
  0.9998863624065493  0.3750474189214259  0.3700978641252064
  0.3316417203088093  0.3125228971917622  0.3688214682045086
  0.1678898427898616  0.3125445404289664  0.3686962001763163
  0.2504244250822723  0.3770020211133911  0.4575261464539224
  0.0847251967272413  0.3125549363032576  0.4550870743448030
  0.4167569242709135  0.3120611140142842  0.4536976163056110
  0.9993787065519868  0.3750924099608994  0.5413655909823660
  0.3322994369827086  0.3097394509509712  0.5431842000174782
  0.9999988780668687  0.3750449393340816  0.1978453213610365
  0.3339075065309487  0.4376527991828212  0.2028496124445809
  0.1659806854152706  0.4376728413024793  0.2031474817101326
  0.2499276751964885  0.9999827286934888  0.2783859466379113
  0.0825100650982051  0.4375850114952229  0.2845220705374771
  0.4171481680656228  0.4375104807164121  0.2842984769294858
  0.0000010932749532  0.0001753458526821  0.3701442886797821
  0.3315541555213528  0.4374629230494662  0.3688836400981472
  0.1679601620899689  0.4376354657088157  0.3685825432631944
  0.2502008762938033  0.9982890057189877  0.4574816072709851
  0.0831976785714446  0.4377738590072582  0.4536867170714203
  0.4177667248462953  0.4377588854484884  0.4531009466505296
  0.9999192775074732  0.9991189622770378  0.5418172724749155
  0.3410495573882812  0.4357594207761011  0.5414204538992280
  0.1696467275496403  0.4353422024702667  0.5427412308524779
  0.9999945769483816  0.5000779884609443  0.1978303985447951
  0.3339756845145416  0.5624604272303984  0.2028625962170381
  0.1658940240562714  0.5624858117122571  0.2031138114605255
  0.2499937531845049  0.6250731110913819  0.2785577521405500
  0.0826435869282278  0.5625790201890695  0.2844739981331514
  0.4170270924761255  0.5625194921913064  0.2843266728182883
  0.0000449084707839  0.6251071002441719  0.3701358776379067
  0.3315812072250139  0.5625539148144370  0.3690714392104582
  0.1679878034799174  0.5625841851022741  0.3688431056458796
  0.2513683700722211  0.6271251529316046  0.4582435983569155
  0.0848537804595750  0.5626574639790149  0.4551107385214124
  0.4172819983350564  0.5619279967000921  0.4538959774847982
  0.0001862101070103  0.6251690803455361  0.5413977905057692
  0.3271946727926363  0.5603040251713480  0.5419205713943711
  0.0000161906508325  0.6250057687710111  0.1978529894623264
  0.3339075511558249  0.6875627660694192  0.2028647076202716
  0.1659897558217622  0.6876326012366150  0.2031762188427706
  0.2499964254489981  0.7500216856778437  0.2784941321398691
  0.0825573478352055  0.6875637549440157  0.2845656416264148
  0.4171321068298752  0.6874925790886053  0.2843162116442244
  0.0001001347720830  0.7501868066962416  0.3701526073947221
  0.3315243115483213  0.6874161867347652  0.3689653989889834
  0.1680136762941444  0.6875973107053426  0.3686660147784764
  0.2504651258357953  0.7482581105314097  0.4575995933862984
  0.0836649196048569  0.6878158149802402  0.4539192567840402
  0.4179691779633004  0.6877746857588178  0.4531279992751465
  0.0003481517840314  0.7491223197306525  0.5418372725964105
  0.3436383757738284  0.6880527707480866  0.5421203554091605
  0.1717141933390565  0.6868676544552486  0.5430735942890124
  0.0000211095801319  0.7500682925608899  0.1978270362266059
  0.3339544359628164  0.8124350282076378  0.2027797852453546
  0.1658713110394032  0.8124529991181433  0.2031099731882975
  0.2498950864341936  0.8750424079313888  0.2785083940045041
  0.0826166408022360  0.8125602656653896  0.2844765811343777
  0.4170013179024252  0.8125034920037564  0.2841987203554055
  0.0000446755029628  0.8750859373467819  0.3701462814952166
  0.3316464975665099  0.8125580021297409  0.3688505283538319
  0.1679665431341277  0.8125772607700981  0.3688009886843915
  0.2507444193701787  0.8773786113067814  0.4579721574967195
  0.0849751000075898  0.8126779225901402  0.4552550255024741
  0.4170080567827625  0.8121331513542245  0.4535334342034147
  0.9999074326560375  0.8752990223632438  0.5414371068317791
  0.3334827747769893  0.8111037969773136  0.5429527856558707
  0.0000169405089636  0.8750039392584981  0.1978483505964874
  0.3338429356142001  0.9375825559598709  0.2027531414019919
  0.1659680401220101  0.9376032386784345  0.2031237761773212
  0.2500019689059130  0.4999943004262803  0.2784920482309587
  0.0825404636076286  0.9375587306181927  0.2845433179444967
  0.4170984246867135  0.9375000077708506  0.2841790663755717
  0.9998893014070092  0.5001699331117067  0.3700993944407287
  0.3315570905986860  0.9374226660489668  0.3687919323331030
  0.1679940085748868  0.9376021586551175  0.3686367680222347
  0.2501099361412713  0.4982010968571089  0.4578297878902404
  0.0834582380554849  0.9378783800630828  0.4538601796990989
  0.4179178534725523  0.9378003802075554  0.4529221491406332
  0.9995712724782422  0.4990059788378574  0.5415342028749350
  0.3433003293091943  0.9373655868835087  0.5411225829969197
  0.1719348423201481  0.9368209505688796  0.5429943994945887
  0.4999655255213185  0.0000362796258955  0.1975090270512609
  0.8341776880970997  0.0624780114804935  0.2030550241394167
  0.6661168291760831  0.0624629510714669  0.2027148434876196
  0.7501420714914957  0.1250884273410264  0.2784381699933078
  0.5830290423052347  0.0625308937730864  0.2841076879276727
  0.9174122409762546  0.0625899053729171  0.2844411933634134
  0.4999909155744788  0.1250484581793643  0.3691299335898393
  0.8320887500483920  0.0626160607332267  0.3687363153123044
  0.6683886913250063  0.0625994492881290  0.3687411542700545
  0.7492000827798151  0.1273603489554489  0.4578329421319367
  0.5829886211653559  0.0621879433426997  0.4534188660143812
  0.9150158626861469  0.0627154301885753  0.4551976526724317
  0.4999741272973282  0.1120149958672911  0.5434363551353627
  0.6668430667718610  0.0607627852546742  0.5428840173300244
  0.4999797276469806  0.1250131298749082  0.1975384726952925
  0.8341163177851243  0.1876453168337662  0.2030958588827545
  0.6661405852077209  0.1876328278824104  0.2027249387266039
  0.7500476306517569  0.2500367486489452  0.2783990968900554
  0.5829260509118157  0.1875259763907096  0.2841599707774662
  0.9174792304751804  0.1875788792175683  0.2845293529730455
  0.4999468947641645  0.2498922900850289  0.3691531855727419
  0.8319721243109370  0.1876584347842538  0.3685929536913477
  0.6684380331752493  0.1874819158702792  0.3687715271015790
  0.7496490641116225  0.2484060249645523  0.4574875035484069
  0.5820942302553860  0.1878281935339459  0.4529097636466659
  0.9164345292391474  0.1878843857335752  0.4538249458848398
  0.8278888214611086  0.1866374523692045  0.5429873369183724
  0.6566868177516056  0.1873280597218923  0.5411723931732340
  0.4999882020891206  0.2500485302944071  0.1975225723265766
  0.8341578445699440  0.3125124426907391  0.2030462927020338
  0.6660993520996072  0.3124899828091898  0.2027496524873555
  0.7500457254425683  0.3750653027208273  0.2784604159253448
  0.5830104025055931  0.3125225958647064  0.2841715761925556
  0.9173599831629176  0.3125968924675178  0.2844293982548578
  0.4998893541935061  0.3750322372921744  0.3692790108073325
  0.8319886375899301  0.3126088805665077  0.3687402061040146
  0.6682601999623117  0.3125997459826806  0.3688688384269554
  0.7490852140242623  0.3773297322875209  0.4578857617964260
  0.5828401488328652  0.3121743682715135  0.4536406867853344
  0.9149093031702549  0.3126830944263475  0.4551835704561142
  0.4998395203080293  0.3613090441281912  0.5437509946051051
  0.6671924956702071  0.3107630092755187  0.5430042487726467
  0.4999503458620538  0.3750285422809299  0.1975882381513188
  0.8340620736018991  0.4376340584230576  0.2031026406568159
  0.6661391808088339  0.4376145232163964  0.2027841296864068
  0.7501131924758582  0.0000212982175114  0.2783636828865568
  0.5828978297369432  0.4375169788961486  0.2842525096781614
  0.9174484523898414  0.4375845746440632  0.2845264037662432
  0.5000068952429189  0.9998824259192105  0.3690738202397483
  0.8318997986940033  0.4376387670030866  0.3686048966021218
  0.6683064991513561  0.4374668544430733  0.3688950781538907
  0.7497339197191764  0.9983498631845649  0.4574697397571583
  0.5818929152747927  0.4378871483399465  0.4531382923090632
  0.9163925041923093  0.4378780190462379  0.4538045618330671
  0.8278987845741952  0.4367306576281820  0.5430660281396129
  0.6568930483985014  0.4375069131037392  0.5412899798564084
  0.4999440932621155  0.5000413768890724  0.1975906089708559
  0.8341928681617290  0.5624894949075170  0.2030504788134024
  0.6660136666301000  0.5624624710666239  0.2027789587331128
  0.7501566441048624  0.6250390935703294  0.2784241099802998
  0.5829964920730077  0.5625079438143317  0.2842254712574075
  0.9173938234444279  0.5625916701864497  0.2844411167752909
  0.4999261813559457  0.6250191682261033  0.3693272856205354
  0.8320501805379905  0.5626096851246913  0.3687355797838165
  0.6684040467955512  0.5625664854247887  0.3687832333232706
  0.7493583691857140  0.6274210928532042  0.4578869684867684
  0.5829414888418754  0.5620981984273570  0.4535324943184733
  0.9149854301762517  0.5627462645103449  0.4551348599825999
  0.5015772354664634  0.6186889120419607  0.5420635112156873
  0.6670061944953218  0.5613311617913368  0.5427645142564046
  0.4999404060537174  0.6249565278297666  0.1976405493561231
  0.8340706803112425  0.6876316658412520  0.2031000277484338
  0.6661466872559387  0.6875926193588811  0.2027747294996871
  0.7501210853957687  0.7500303647266406  0.2783411327115175
  0.5829272252364888  0.6875010132441162  0.2842247747573694
  0.9175092734760284  0.6875803398956322  0.2845241036016333
  0.5000095776646560  0.7498769718416298  0.3691815800651597
  0.8320998350838380  0.6876599155396050  0.3686067898749243
  0.6685785139110934  0.6874705185431296  0.3687486920719607
  0.7499469521280417  0.7484080872160987  0.4574587469485820
  0.5823260459287596  0.6878869299327803  0.4528305553376200
  0.9166638697526253  0.6879185222956252  0.4538127469839210
  0.8281561135951208  0.6867462858601030  0.5429908080588959
  0.6571308926359691  0.6879478159336827  0.5410135126202462
  0.4999375458841584  0.7500274938542333  0.1975586566225189
  0.8341863055325973  0.8124722803802200  0.2030514902532303
  0.6660765813336909  0.8124079626135270  0.2027173731907865
  0.7501811426500424  0.8750701990373813  0.2784128885703154
  0.5830334594397542  0.8125130866873107  0.2841259391727675
  0.9174272983833944  0.8125829440362011  0.2844379939593580
  0.5000214341015266  0.8750818461199685  0.3691410608858590
  0.8321552396067986  0.8126325789974160  0.3687212528266528
  0.6684620944577020  0.8126069228746502  0.3687039064157673
  0.7493269871284269  0.8774202783263121  0.4578117707160203
  0.5831068098790055  0.8122423051245704  0.4533942366086663
  0.9151275152663487  0.8127333335221110  0.4552019016233402
  0.4999661979080230  0.8621648851533124  0.5433548573595672
  0.6669520840762573  0.8110369870618825  0.5428893265625589
  0.4999645576591902  0.8749854603201825  0.1975542762334257
  0.8340796517554452  0.9376312405976606  0.2031058062394919
  0.6661825370748957  0.9376014330905846  0.2027278667313368
  0.7500452585156410  0.5000233075475577  0.2784146839635397
  0.5829289631703247  0.9375075284354750  0.2841371882199795
  0.9175141353688758  0.9375759374974919  0.2845245116319362
  0.4999021536916359  0.4998979305725655  0.3692971181904738
  0.8320512392155166  0.9376662087760792  0.3685896602474017
  0.6685064076485077  0.9374778317302201  0.3687104910721928
  0.7496135250566240  0.4983374403440948  0.4576043750094740
  0.5821746336734535  0.9378526161847276  0.4528571886338000
  0.9165366407107030  0.9379070997301682  0.4538482548723408
  0.8278523149349510  0.9367373084854904  0.5429780333122949
  0.6565789916144880  0.9374828323453883  0.5411180266677675
  0.4054946152766092  0.9999699440701164  0.2323500834270362
  0.2498894087674728  0.0000283396862173  0.1993543277587477
  0.0942858818678758  0.0000046173055281  0.2327468258191274
  0.1550030363466703  0.1250445270835385  0.3161328860524293
  0.9999984854085895  0.1250459147765000  0.3035131400630249
  0.3449770152982907  0.1250382478930732  0.3161234439720815
  0.4010372930859489  0.1247902941070791  0.4018286734223722
  0.2496704606551532  0.1249218419013829  0.3890839942007034
  0.0993908383950028  0.1250386382309401  0.4022183105034856
  0.1501262036960398  0.1267363725849364  0.4873679412573395
  0.9999283309275100  0.1250822841486325  0.4730717584173902
  0.3522549010159679  0.1249877902109517  0.4874772562010534
  0.4061556453478872  0.1260147600553552  0.5713596024246854
  0.2565059013923516  0.1293134870814114  0.5545595640394509
  0.0974557458372018  0.1270300255735322  0.5695484881578423
  0.4053934691602024  0.1250635795548476  0.2323618782625729
  0.2498830389785738  0.1250350589674198  0.1997289060626528
  0.0943544126845595  0.1250940763342072  0.2327579578596541
  0.1549318628462046  0.2500573033533442  0.3160524236709463
  0.9999809627682552  0.2501311540042437  0.3035055973755618
  0.3450444062422449  0.2499595725187405  0.3160654731486048
  0.4009513304704768  0.2500628028132823  0.4016792266761158
  0.2496488693374417  0.2500801064362150  0.3887993253261612
  0.0994319266640673  0.2501854445858669  0.4022222445130836
  0.1501836445054394  0.2489136573335031  0.4880278310594619
  0.9998817853373367  0.2502518694575642  0.4732533832195216
  0.3507338374127471  0.2501597068281995  0.4870934933794615
  0.4107513133792366  0.2543484785162136  0.5648433307435141
  0.2581887320563396  0.2468541972794682  0.5556118017048632
  0.0973123338541555  0.2472615119756085  0.5697362372519379
  0.4055254504700514  0.2500028310616713  0.2323683219906556
  0.2499017553065599  0.2500623239409094  0.1993495803406233
  0.0942632603864624  0.2500359663955720  0.2327101872378279
  0.1550275993763464  0.3750831592588071  0.3161322127831241
  0.9999674171478290  0.3750472341085640  0.3034971437710396
  0.3449888821285896  0.3750427056012455  0.3162200303983838
  0.4009964365846059  0.3747739837348973  0.4020418074639309
  0.2496435379026778  0.3749431500678071  0.3890109996117204
  0.0993556102703437  0.3749923130697326  0.4021455850210103
  0.1501360133580505  0.3764700613324905  0.4873340328774489
  0.9998309255714517  0.3750227630418905  0.4730143818584267
  0.3516339224096896  0.3749664637483860  0.4876550244707829
  0.4060150633296971  0.3762606099614558  0.5712599498805275
  0.2562800527873748  0.3803007691454496  0.5563042148556150
  0.0967757849971420  0.3762202405879052  0.5696344571391165
  0.4054378894096047  0.3750848873504182  0.2324696282533765
  0.2498979120732656  0.3750577960939481  0.1997848521547212
  0.0943560679748998  0.3751150043315832  0.2327493133001184
  0.1549640439675883  0.0000617791992994  0.3161063003172231
  0.0000114124269714  0.0001187026651479  0.3035358578048175
  0.3449864901060664  0.9999658635157473  0.3160612626989874
  0.4010108774349348  0.0000748091423546  0.4015845614355626
  0.2496651424790244  0.0001468749319358  0.3888996415493224
  0.0994877518210302  0.0002551896091347  0.4023089462867659
  0.1503268602653591  0.9989781219789791  0.4880728324205350
  0.9999799594589192  0.0003369808385898  0.4733083043526207
  0.3510090837499575  0.0003872281297816  0.4869606693404478
  0.4109869273375111  0.0041219024330204  0.5649578313290462
  0.2585693358565777  0.9970296874996336  0.5553800081047626
  0.0974654823094241  0.9976428981364265  0.5697997603389240
  0.4055411401582276  0.4999957818893961  0.2325164424469435
  0.2499222118524855  0.5000711420427919  0.1994245250129580
  0.0942641643543709  0.5000454961243221  0.2327397909118645
  0.1551175309395276  0.6250475013698846  0.3162262017459483
  0.0000352416690390  0.6250456141220013  0.3035192387721537
  0.3449752752506967  0.6250096237114704  0.3163438217494274
  0.4009101489258313  0.6247660264337043  0.4020945395466669
  0.2497336096229006  0.6249162035185165  0.3894115087481538
  0.0994379232982396  0.6250925420237934  0.4022715919505018
  0.1506243820314239  0.6266317169442956  0.4873952431410089
  0.0000518771606295  0.6251280764428984  0.4730802990064973
  0.3533263979687220  0.6248381815250710  0.4886052304425803
  0.4089130398082048  0.6291331474875719  0.5751272871789084
  0.2571845660551091  0.6295641656389606  0.5554825142678155
  0.0979500693907553  0.6270155800246613  0.5693891936030298
  0.4054415740688668  0.6250375348493833  0.2325519345155982
  0.2499100253628868  0.6250300761409520  0.1997418188434921
  0.0943529001705556  0.6251041383072078  0.2327979280087646
  0.1549798938400642  0.7500734864534166  0.3161489417625631
  0.0000262790330297  0.7501202123836279  0.3035387006720782
  0.3450279588303005  0.7499650148160271  0.3161831753237649
  0.4009739436986379  0.7500697648267263  0.4016893287373833
  0.2496797696840716  0.7501615972182591  0.3890322574557601
  0.0995594678717637  0.7502571032816832  0.4023430683419846
  0.1505422560310947  0.7489185792252044  0.4881106023098809
  0.0001032090417041  0.7502874910751416  0.4733522302557063
  0.3511458245590617  0.7502386081957582  0.4872095585677130
  0.4111979321727262  0.7550635459098487  0.5653955304880611
  0.2592683637786948  0.7467433430166253  0.5556330902754070
  0.0979974006984179  0.7475985542472898  0.5698385558287669
  0.4055309766085742  0.7499466588554498  0.2324571404852449
  0.2499328187691887  0.7500264538196220  0.1994979173805973
  0.0942547487512329  0.7500150272616821  0.2327684230457052
  0.1550215698520105  0.8750601496040460  0.3161915308089789
  0.0000223716655228  0.8750470432052069  0.3035281137339965
  0.3449950098666150  0.8750449348622453  0.3161805069966306
  0.4010985782224807  0.8748101071498056  0.4018681108229174
  0.2496934689225441  0.8749451051607124  0.3891700931085467
  0.0994375477369331  0.8750650509259685  0.4022769345767401
  0.1500974926328311  0.8768280098953838  0.4874428613071231
  0.0000092026483500  0.8751598902510764  0.4731246364249984
  0.3524441425211009  0.8750656283958946  0.4874925188919619
  0.4062027938640398  0.8760925347866433  0.5713117191098220
  0.2565657367755776  0.8793541984236555  0.5541488930278362
  0.0975991173303186  0.8773579596757699  0.5694896191421748
  0.4054050281165757  0.8750370372735077  0.2324121639562762
  0.2499005096450020  0.8749938439390803  0.1996974487123424
  0.0943503408069404  0.8750719571542191  0.2327893636189700
  0.1549737261113648  0.5001173521706477  0.3161242849786277
  0.9999804475648517  0.5001316230351449  0.3035055717479835
  0.3450359059805521  0.5000026307867529  0.3162456690046938
  0.4009797428182935  0.5000294157167886  0.4019460199864682
  0.2496367360536738  0.5001603102671481  0.3890965608744636
  0.0993759141980135  0.5002391297018036  0.4022113553014890
  0.1495983810705042  0.4988845981448335  0.4878634519348211
  0.9997720122988696  0.5002884623181458  0.4730464276106403
  0.3512730457014968  0.4996437997686485  0.4874637669806816
  0.4091793551899130  0.5022516350199453  0.5664614990676853
  0.2557800009058511  0.4978286801457017  0.5539182531093729
  0.0968134953381892  0.4968555998701660  0.5697151664330704
  0.9057601118255079  0.0000226862659929  0.2327355999491090
  0.7501401629280124  0.0000483071902480  0.1993179743072488
  0.5944813709388441  0.9999808107667647  0.2323056748911085
  0.6550514210693024  0.1250859110163418  0.3161101952354812
  0.5000148983129620  0.1250171866497212  0.3026901768263812
  0.8449963486154104  0.1250907929603855  0.3161425975693746
  0.9005436802739695  0.1250942740605581  0.4022157292490292
  0.7503099787198551  0.1249946776156108  0.3890876300896977
  0.5989370649284496  0.1248470376819597  0.4018075819751701
  0.6476126915396847  0.1251105244572983  0.4874557132279449
  0.4999576609218650  0.1244613545135778  0.4745350762000129
  0.8497446326877238  0.1268457830741525  0.4873343378304185
  0.9021525778141211  0.1272710073499468  0.5694826172708645
  0.7432755789498700  0.1295970807960529  0.5544561772741119
  0.5937751156484410  0.1260212120317448  0.5713097701876677
  0.9056662143684733  0.1251046572703700  0.2327693645073623
  0.7501493596240891  0.1250542114312410  0.1996768215488061
  0.5945891474127336  0.1250769044764795  0.2323400299289986
  0.6549917580090039  0.2500181634546834  0.3160894046034528
  0.5000219737499165  0.2500100577741264  0.3027158491243327
  0.8450354887743856  0.2501080815617698  0.3160853694524590
  0.9004372886186260  0.2502841231200321  0.4022747369966382
  0.7502655727780478  0.2502059619058556  0.3889011279005317
  0.5989115321676550  0.2501460107149356  0.4016539398784431
  0.6488833285163196  0.2504392037300747  0.4870014352428740
  0.4998505653967982  0.2500285412981853  0.4735771232719799
  0.8495775471577218  0.2489689621991360  0.4880487588476186
  0.9022512492978123  0.2476142730439292  0.5698006603882035
  0.7414611442177375  0.2472516839067467  0.5552563381539457
  0.5892106156758814  0.2543691395840781  0.5649638137384017
  0.9057158748281040  0.2500357583431310  0.2327403220641031
  0.7501450709294630  0.2500608276378173  0.1994182687383130
  0.5944806257365371  0.2500072369573303  0.2323453751371574
  0.6550078537350785  0.3750730766067107  0.3162181770249006
  0.5000234882372894  0.3750111923114687  0.3028199696970191
  0.8449114414290051  0.3750886663859632  0.3161477886946855
  0.9004724175879204  0.3750606363521811  0.4022132812085033
  0.7502094609504297  0.3749938996000353  0.3891536351537752
  0.5987416893265447  0.3748405943105624  0.4020287619266085
  0.6475461755025549  0.3751958110034437  0.4876094864614728
  0.4996988238010616  0.3745139792640231  0.4750407729786872
  0.8496047103020743  0.3768562228807184  0.4873925134723436
  0.9018603506104270  0.3771696243910583  0.5695823416265142
  0.7431780445192686  0.3798935856987029  0.5548381665201276
  0.5935578112589823  0.3763192491067073  0.5713449198888298
  0.9056493494238751  0.3751186985660908  0.2327573779061893
  0.7501306739729827  0.3750585431944415  0.1995871493020687
  0.5945512616061350  0.3750818630145645  0.2324046672246567
  0.6550325846953413  0.0000044878160281  0.3160151151937569
  0.5000113426344157  0.0000134321525493  0.3026507109052190
  0.8450768041628365  0.0001058190626964  0.3160871480955265
  0.9005145487261572  0.0002958610214350  0.4022931288944989
  0.7503526632309772  0.0002146947283634  0.3888697600017537
  0.5990249472888891  0.0001181198496170  0.4015367098216274
  0.6489122952859532  0.0004376169532918  0.4869142762256118
  0.5000271064833228  0.0001856991545139  0.4734632072661569
  0.8496546389183663  0.9990192493689207  0.4880493752418502
  0.9023017690545387  0.9976049537154381  0.5698106020510991
  0.7413379708139232  0.9972200462731990  0.5552092236401336
  0.5889905764763199  0.0042259632013142  0.5649211900850588
  0.9057315947743803  0.5000435251680315  0.2327367531570772
  0.7501208237461086  0.5000717673348163  0.1994682345383723
  0.5944359856960091  0.4999694680719671  0.2324188441873005
  0.6551408150717464  0.6250598509959175  0.3161350056755410
  0.5000400073003064  0.6250079822037193  0.3028788157887448
  0.8450043127280509  0.6251036407573736  0.3161453861709944
  0.9006246297884104  0.6251198708330818  0.4022086081201905
  0.7503668274653350  0.6249543284326791  0.3891313763529496
  0.5991448415822447  0.6248188969278416  0.4017306163135501
  0.6477034873273055  0.6249832136931488  0.4875273506543962
  0.5003206139873910  0.6246764437131631  0.4729930099943473
  0.8498471613968803  0.6269589850227746  0.4873449745456782
  0.9024397660955401  0.6272136178578052  0.5694161883602007
  0.7435305785540365  0.6299089034469745  0.5545038381343375
  0.5946139799985843  0.6258282460882825  0.5715316092341709
  0.9056696478192521  0.6251090375634831  0.2327602455717113
  0.7501266122598693  0.6250115577003257  0.1996476618904168
  0.5945566148676491  0.6250446564643966  0.2324311032442736
  0.6550975599458155  0.7499884072135927  0.3160313496150877
  0.5000520408481606  0.7500097543179081  0.3027504464950752
  0.8450817336057739  0.7500982450333566  0.3160774112871039
  0.9005976584047275  0.7503207951865889  0.4022764715933391
  0.7504207662251190  0.7502296315202415  0.3888725177784309
  0.5991109325815245  0.7501864501683997  0.4015075488365198
  0.6491823052785151  0.7505847670534465  0.4868760284339544
  0.5001083671347999  0.7504538874205906  0.4732001211739103
  0.8498557058817653  0.7490076158950245  0.4880522410560317
  0.9027461040122162  0.7475486410177865  0.5697957379316207
  0.7417349680574645  0.7475535823189006  0.5551104263114581
  0.5893358102397315  0.7543050754961556  0.5650896184568737
  0.9057621327219962  0.7500211004274675  0.2327298257723456
  0.7501400551062503  0.7500337452295369  0.1993001727518973
  0.5944401964302912  0.7499528912924305  0.2323531781126746
  0.6550862660696737  0.8750783582560757  0.3160755309853869
  0.5000331064527757  0.8750197102499158  0.3027098194548117
  0.8450288687928094  0.8751021307054501  0.3161312375148810
  0.9006227461638616  0.8751238445884155  0.4022273999652555
  0.7503723588819540  0.8749958081714198  0.3890561442789888
  0.5990049860876141  0.8748474030609898  0.4017696562731246
  0.6476992412078957  0.8751217273346441  0.4874174338428006
  0.5000588934695003  0.8744310027236679  0.4744737805147992
  0.8498361482471921  0.8768827451770349  0.4873525704361228
  0.9021733522978650  0.8772851984881456  0.5694608751510799
  0.7432238426361764  0.8796340557332414  0.5543640305057593
  0.5937419432622164  0.8759849616208513  0.5713112777483218
  0.9056820068123770  0.8750932118831045  0.2327636483496534
  0.7501271150795645  0.8750072039346080  0.1996563061757612
  0.5945918413908942  0.8750434606737656  0.2323367822037667
  0.6550134096573004  0.4999676483360957  0.3161398974294656
  0.5000283754536881  0.5000144976817680  0.3028268599144184
  0.8450273936052710  0.5000874955362846  0.3160922305564640
  0.9003956889212716  0.5002853803889380  0.4022423202145049
  0.7502571890647758  0.5001872013654562  0.3889820195894345
  0.5988811573386599  0.5000893605701080  0.4017509062090383
  0.6487395673681746  0.5002960312719367  0.4869629965534514
  0.4997589668086988  0.5003678209214613  0.4744179125143972
  0.8497017150490223  0.4990613715422256  0.4880219931759200
  0.9023094305828820  0.4975005204719594  0.5698826384445468
  0.7416385003202919  0.4975850096062544  0.5549826695873250
  0.5899087498161535  0.5045667460071570  0.5651296992418011
  0.1270214159615790  0.0618617116756326  0.5365652887479015
  0.1271635660375594  0.3113454907725668  0.5362846653519568
  0.1268300836063716  0.5613161268029216  0.5363978779579455
  0.1271084124195667  0.8121652729471762  0.5365234820021456
  0.8729727310155795  0.0618602044187284  0.5366134031302110
  0.5001439264273912  0.2605669424742416  0.5364442677582559
  0.8729216577111458  0.3117927859468352  0.5366006984047687
  0.4999343388403190  0.0107559216765338  0.5363182060489038
  0.8729921310282336  0.5618443433327016  0.5366673982659265
  0.5002613114694086  0.7600761118939232  0.5360745730076175
  0.8732250832001967  0.8117863338121012  0.5366404712874839
  0.5011155084578718  0.5143889199633804  0.5375305201102876
  0.4260142040815325  0.5598021486723468  0.6081757132687500
 
  0.00000000E+00  0.00000000E+00  0.00000000E+00
  0.00000000E+00  0.00000000E+00  0.00000000E+00
  0.00000000E+00  0.00000000E+00  0.00000000E+00
  0.00000000E+00  0.00000000E+00  0.00000000E+00
  0.00000000E+00  0.00000000E+00  0.00000000E+00
  0.00000000E+00  0.00000000E+00  0.00000000E+00