Mo  S Co                                
   1.00000000000000     
    15.9214998300000001    0.0000000000000000    0.0000000000000000
    -7.9622501300000001   13.7910221699999997    0.0000000000000000
     0.0000000000000000    0.0000000000000000   13.5821998300000004
   Mo   S    Co
    25    49     4
Direct
  0.1383626801996485  0.0710974761706140  0.6803848545081195
  0.1380977581592333  0.2699576252485443  0.6758537489902920
  0.1366174066153718  0.4673192701954818  0.6763342006382160
  0.1376257742696296  0.6687674374678352  0.6785412495538097
  0.1378947492877955  0.8695658101779316  0.6799175323328583
  0.3377184991601609  0.0693801891438639  0.6808930440810670
  0.3381735595149422  0.2692029030854641  0.6763629886089930
  0.3371196358686106  0.4684012722301034  0.6695519162168821
  0.3374144152674816  0.6675923608510601  0.6783442089194409
  0.3374267576907215  0.8683228787632515  0.6801402083442483
  0.5379792995491925  0.0680867568754735  0.6800987902053066
  0.5372907248767831  0.2685261901516114  0.6760814058009004
  0.5363260828011249  0.4677272038811751  0.6762614283625794
  0.5358576496746039  0.6677230885754142  0.6784491273454236
  0.5368150495198378  0.8676967678715002  0.6799431782840486
  0.7371012948937405  0.0682986557867338  0.6800054851063422
  0.7376437701902105  0.2680164650674683  0.6788945539567877
  0.7380097645841417  0.4695777196064626  0.6780762513987781
  0.7371390785581227  0.6688617099210745  0.6790324272301049
  0.7369838806800146  0.8684817701636689  0.6801715454038231
  0.9374827343724377  0.0695543124265399  0.6804955901024243
  0.9377427598508277  0.2689056930386755  0.6777748231789786
  0.9373224439298085  0.4688954451644562  0.6778652548883386
  0.9378870191804154  0.6693926052838393  0.6785853794694603
  0.9377523715286387  0.8696816493699160  0.6801189113381767
  0.0703797149426961  0.1359616201723881  0.5641382030331457
  0.0730157514225098  0.1392306599301918  0.7971453475106642
  0.0701812130902582  0.3350801986074217  0.5604898873079733
  0.0723167198496597  0.3357894048466932  0.7917812723203923
  0.0703735047405729  0.5359599278854432  0.5626048104916705
  0.0706508384493603  0.5346574479910302  0.7923443652971685
  0.0715669453324566  0.7367425933181480  0.5640016135785757
  0.0709471456775148  0.7353547654143426  0.7939667346396391
  0.0717095710163846  0.9374495112649726  0.5656383664255600
  0.0714351907571498  0.9368056174235662  0.7949373929733596
  0.2717671581528336  0.1357340311309301  0.5643892003152331
  0.2716810343329286  0.1388480845215625  0.7978063394584893
  0.2706586531839221  0.3339148592356338  0.5613978407046716
  0.2697932641224625  0.5362146525080576  0.5592184813658392
  0.2686203836120598  0.5291535874425577  0.7917026650449372
  0.2712740202621831  0.7358073046796605  0.5641256303397526
  0.2705081939508744  0.7338690402557049  0.7939785166821380
  0.2718442445083440  0.9364447479667248  0.5653328048127975
  0.2706844627333282  0.9351326110444020  0.7950465054168134
  0.4704201925706144  0.1343856799482950  0.5652656024172060
  0.4702338817280136  0.1320659123816199  0.8012365989688135
  0.4715834954660068  0.3347090161410620  0.5610706703432626
  0.4678239281693521  0.3368618024408931  0.7971860084488185
  0.4722218926282125  0.5364328390912760  0.5591059987980387
  0.4661587897374346  0.5294283008006602  0.7918152505336877
  0.4704492164321437  0.7351470548316783  0.5637576001962472
  0.4696665028057581  0.7337522564253973  0.7945025943108206
  0.4704948209839230  0.9347963241827415  0.5648740631301195
  0.4706310620587075  0.9344656091710206  0.7952266180092735
  0.6704879790810523  0.1346136012765413  0.5645665886962732
  0.6711395319020852  0.1356731758914052  0.7950528392233593
  0.6708777271488344  0.3350440127784609  0.5639324677780593
  0.6742735467214231  0.3376522299328144  0.7988170275241870
  0.6715215153624712  0.5360212946919205  0.5631040216904069
  0.6695248008143935  0.5343655160571501  0.7925264064845265
  0.6704372775798433  0.7356697846640046  0.5644124921970430
  0.6692027714373339  0.7339995832201538  0.7941022608815018
  0.6702838189299811  0.9348845797260310  0.5649712558110025
  0.6702011078749592  0.9348734750885086  0.7951572532061277
  0.8702331277977677  0.1344332224720262  0.5643988100398687
  0.8705529720799277  0.1364981119063202  0.7944300284251540
  0.8703502700292489  0.3351971916685272  0.5629708182101893
  0.8716263702963474  0.3357598001561399  0.7932416962546114
  0.8712227462890851  0.5362299160524913  0.5628542250681647
  0.8712496599071144  0.5359565219491031  0.7931844214597561
  0.8710580167611184  0.7366118578946157  0.5643390022207413
  0.8706413084071514  0.7353317744338028  0.7941073192133246
  0.8707147147016130  0.9362454729944218  0.5654591069892163
  0.8705112039451564  0.9355977434272091  0.7951475708659146
  0.2293823722145092  0.2522825843197083  0.8352242265832288
  0.5362588286739509  0.2697922903375058  0.8636491531764392
  0.2670401840793275  0.3243806806725047  0.9758447479293437
  0.3150185932964433  0.4240478089982815  0.8519361753770127
 
  0.00000000E+00  0.00000000E+00  0.00000000E+00
  0.00000000E+00  0.00000000E+00  0.00000000E+00
  0.00000000E+00  0.00000000E+00  0.00000000E+00
  0.00000000E+00  0.00000000E+00  0.00000000E+00
  0.00000000E+00  0.00000000E+00  0.00000000E+00
  0.00000000E+00  0.00000000E+00  0.00000000E+00
  0.00000000E+00  0.00000000E+00  0.00000000E+00
  0.00000000E+00  0.00000000E+00  0.00000000E+00
  0.00000000E+00  0.00000000E+00  0.00000000E+00
  0.00000000E+00  0.00000000E+00  0.00000000E+00
  0.00000000E+00  0.00000000E+00  0.00000000E+00
  0.00000000E+00  0.00000000E+00  0.00000000E+00
  0.00000000E+00  0.00000000E+00  0.00000000E+00
  0.00000000E+00  0.00000000E+00  0.00000000E+00
  0.00000000E+00  0.00000000E+00  0.00000000E+00
  0.00000000E+00  0.00000000E+00  0.00000000E+00
  0.00000000E+00  0.00000000E+00  0.00000000E+00
  0.00000000E+00  0.00000000E+00  0.00000000E+00
  0.00000000E+00  0.00000000E+00  0.00000000E+00
  0.00000000E+00  0.00000000E+00  0.00000000E+00
  0.00000000E+00  0.00000000E+00  0.00000000E+00
  0.00000000E+00  0.00000000E+00  0.00000000E+00
  0.00000000E+00  0.00000000E+00  0.00000000E+00
  0.00000000E+00  0.00000000E+00  0.00000000E+00
  0.00000000E+00  0.00000000E+00  0.00000000E+00
  0.00000000E+00  0.00000000E+00  0.00000000E+00
  0.00000000E+00  0.00000000E+00  0.00000000E+00
  0.00000000E+00  0.00000000E+00  0.00000000E+00
  0.00000000E+00  0.00000000E+00  0.00000000E+00
  0.00000000E+00  0.00000000E+00  0.00000000E+00
  0.00000000E+00  0.00000000E+00  0.00000000E+00
  0.00000000E+00  0.00000000E+00  0.00000000E+00
  0.00000000E+00  0.00000000E+00  0.00000000E+00
  0.00000000E+00  0.00000000E+00  0.00000000E+00
  0.00000000E+00  0.00000000E+00  0.00000000E+00
  0.00000000E+00  0.00000000E+00  0.00000000E+00
  0.00000000E+00  0.00000000E+00  0.00000000E+00
  0.00000000E+00  0.00000000E+00  0.00000000E+00
  0.00000000E+00  0.00000000E+00  0.00000000E+00
  0.00000000E+00  0.00000000E+00  0.00000000E+00
  0.00000000E+00  0.00000000E+00  0.00000000E+00
  0.00000000E+00  0.00000000E+00  0.00000000E+00
  0.00000000E+00  0.00000000E+00  0.00000000E+00
  0.00000000E+00  0.00000000E+00  0.00000000E+00
  0.00000000E+00  0.00000000E+00  0.00000000E+00
  0.00000000E+00  0.00000000E+00  0.00000000E+00
  0.00000000E+00  0.00000000E+00  0.00000000E+00
  0.00000000E+00  0.00000000E+00  0.00000000E+00
  0.00000000E+00  0.00000000E+00  0.00000000E+00
  0.00000000E+00  0.00000000E+00  0.00000000E+00
  0.00000000E+00  0.00000000E+00  0.00000000E+00
  0.00000000E+00  0.00000000E+00  0.00000000E+00
  0.00000000E+00  0.00000000E+00  0.00000000E+00
  0.00000000E+00  0.00000000E+00  0.00000000E+00
  0.00000000E+00  0.00000000E+00  0.00000000E+00
  0.00000000E+00  0.00000000E+00  0.00000000E+00
  0.00000000E+00  0.00000000E+00  0.00000000E+00
  0.00000000E+00  0.00000000E+00  0.00000000E+00
  0.00000000E+00  0.00000000E+00  0.00000000E+00
  0.00000000E+00  0.00000000E+00  0.00000000E+00
  0.00000000E+00  0.00000000E+00  0.00000000E+00
  0.00000000E+00  0.00000000E+00  0.00000000E+00
  0.00000000E+00  0.00000000E+00  0.00000000E+00
  0.00000000E+00  0.00000000E+00  0.00000000E+00
  0.00000000E+00  0.00000000E+00  0.00000000E+00
  0.00000000E+00  0.00000000E+00  0.00000000E+00
  0.00000000E+00  0.00000000E+00  0.00000000E+00
  0.00000000E+00  0.00000000E+00  0.00000000E+00
  0.00000000E+00  0.00000000E+00  0.00000000E+00
  0.00000000E+00  0.00000000E+00  0.00000000E+00
  0.00000000E+00  0.00000000E+00  0.00000000E+00
  0.00000000E+00  0.00000000E+00  0.00000000E+00
  0.00000000E+00  0.00000000E+00  0.00000000E+00
  0.00000000E+00  0.00000000E+00  0.00000000E+00
  0.00000000E+00  0.00000000E+00  0.00000000E+00
  0.00000000E+00  0.00000000E+00  0.00000000E+00
  0.00000000E+00  0.00000000E+00  0.00000000E+00
  0.00000000E+00  0.00000000E+00  0.00000000E+00
