Ta  N Ru                                
   1.00000000000000     
    10.4555999800000006    0.0000000000000000    0.0000000000000000
     0.0000000000000000   11.6775998899999998    0.0000000000000000
     0.0000000000000000    0.0000000000000000   24.0732377500000005
   Ta   N    Ru
    64    64     2
Selective dynamics
Direct
  0.4991785186325330  0.1250000003211298  0.3753726828051569   F   F   F
  0.2600588226580172  0.1250000003211298  0.3190980514078845   F   F   F
  0.2470962603561304  0.0000000000000000  0.4358978840493251   F   F   F
  0.2478187117172287  0.1249108790862444  0.5614167713509211   T   T   T
  0.9986731558648267  0.1250094983724948  0.5006095953805548   T   T   T
  0.9957827131499141  0.9997869344512869  0.6271360540423281   T   T   T
  0.4999643062679177  0.1307002833523591  0.7492268259551750   T   T   T
  0.2523402970146695  0.1236432187929150  0.6858455971392889   T   T   T
  0.4991785186325330  0.3750000001070433  0.3753726828051569   F   F   F
  0.2600588226580172  0.3750000001070433  0.3190980514078845   F   F   F
  0.2470962603561304  0.2499999997859135  0.4358978840493251   F   F   F
  0.2478277558451369  0.3750896538817761  0.5614174704897956   T   T   T
  0.9986796255508062  0.3749881419047428  0.5006021936548566   T   T   T
  0.9952563924664968  0.2499824664037609  0.6279653325304044   T   T   T
  0.5000035169343464  0.3694080864231722  0.7491955248362986   T   T   T
  0.2523249227126056  0.3763589179807666  0.6858413800291238   T   T   T
  0.4991785186325330  0.6249999998929567  0.3753726828051569   F   F   F
  0.2600588226580172  0.6249999998929567  0.3190980514078845   F   F   F
  0.2470962603561304  0.5000000004281731  0.4358978840493251   F   F   F
  0.2482880194796702  0.6251312847585857  0.5615383784931577   T   T   T
  0.9983268541492106  0.6250671563641922  0.5005934587142641   T   T   T
  0.9957807533997848  0.5001841149127026  0.6271301631046603   T   T   T
  0.5102943388841557  0.6235677673288665  0.7428436660548461   T   T   T
  0.2490432215560073  0.6255031679963626  0.6863375214456074   T   T   T
  0.4991785186325330  0.8750000005352163  0.3753726828051569   F   F   F
  0.2600588226580172  0.8750000005352163  0.3190980514078845   F   F   F
  0.2470962603561304  0.7500000002140865  0.4358978840493251   F   F   F
  0.2482838577776049  0.8748522146978651  0.5615392845117901   T   T   T
  0.9983190611122494  0.8749252788035842  0.5005947309221374   T   T   T
  0.9959541530152475  0.7499813830570718  0.6268189924615587   T   T   T
  0.5102720047699135  0.8764730896871283  0.7428509273039864   T   T   T
  0.2490587361785557  0.8744741826877104  0.6863402853604792   T   T   T
  0.9991784928090510  0.1250000003211298  0.3753726828051569   F   F   F
  0.7600587968345351  0.1250000003211298  0.3190980514078845   F   F   F
  0.7470962345326484  0.0000000000000000  0.4358978840493251   F   F   F
  0.7494830943363492  0.1250339148560598  0.5619408556989242   T   T   T
  0.4987753018335212  0.1249357352279440  0.5003538230386430   T   T   T
  0.4968780269518727  0.9995461625252873  0.6259287254200104   T   T   T
  0.0145793008361462  0.1226589019484559  0.7435517939672037   T   T   T
  0.7454557031564915  0.1246689218452360  0.6880673400933440   T   T   T
  0.9991784928090510  0.3750000001070433  0.3753726828051569   F   F   F
  0.7600587968345351  0.3750000001070433  0.3190980514078845   F   F   F
  0.7470962345326484  0.2499999997859135  0.4358978840493251   F   F   F
  0.7494911202015768  0.3749497741988984  0.5619339575645893   T   T   T
  0.4987821880221815  0.3750552649714044  0.5003514538583410   T   T   T
  0.5001064134307445  0.2499983794938795  0.6240729291968967   T   T   T
  0.0145356755187715  0.3773004279863014  0.7435703194373987   T   T   T
  0.7454856544708998  0.3753004711048895  0.6880582709418779   T   T   T
  0.9991784928090510  0.6249999998929567  0.3753726828051569   F   F   F
  0.7600587968345351  0.6249999998929567  0.3190980514078845   F   F   F
  0.7470962345326484  0.5000000004281731  0.4358978840493251   F   F   F
  0.7486551030366100  0.6248538013805349  0.5620041919432576   T   T   T
  0.4986640435533799  0.6249470853188982  0.5005530687909592   T   T   T
  0.4969059523811389  0.5004452984576985  0.6259168055135846   T   T   T
  0.0102529082807654  0.6244386209842148  0.7426299071769644   T   T   T
  0.7466414853699385  0.6239729740804640  0.6878658715481436   T   T   T
  0.9991784928090439  0.8750000005352163  0.3753726828051569   F   F   F
  0.7600587968345351  0.8750000005352163  0.3190980514078845   F   F   F
  0.7470962345326484  0.7500000002140865  0.4358978840493251   F   F   F
  0.7486475341306359  0.8751350994523365  0.5620060213365614   T   T   T
  0.4986589506853211  0.8750601953208668  0.5005511010791500   T   T   T
  0.4967348160854608  0.7500016300333288  0.6263161721202942   T   T   T
  0.0102409059513559  0.8754731393040536  0.7426097748909467   T   T   T
  0.7466311065969039  0.8760055805049276  0.6878712035931669   T   T   T
  0.1472195596423447  0.0000000000000000  0.3601606351366584   F   F   F
  0.4003222342624682  0.0000000000000000  0.3237632067519129   F   F   F
  0.4439214822817661  0.0000000000000000  0.4377276028165085   F   F   F
  0.4004621070629092  0.0000891094367976  0.5516548867772516   T   T   T
  0.1504252542153837  0.9997451224954141  0.5101462983044655   T   T   T
  0.1933491458848191  0.9993927270106810  0.6239286789658067   T   T   T
  0.1510761930711604  0.9975056856443061  0.7366175673847452   T   T   T
  0.3977975952686802  0.0002013040617604  0.7023823548698792   T   T   T
  0.1472195596423447  0.2499999997859135  0.3601606351366584   F   F   F
  0.4003222342624682  0.2499999997859135  0.3237632067519129   F   F   F
  0.4439214822817661  0.2499999997859135  0.4377276028165085   F   F   F
  0.3999327125011721  0.2499950766439555  0.5507493408680607   T   T   T
  0.1503340500581412  0.2499939833145764  0.5100369259640787   T   T   T
  0.1929934229058028  0.2499982202458357  0.6232834696719826   T   T   T
  0.1506076389456282  0.2500051834729995  0.7306653369499515   T   T   T
  0.4014903651774503  0.2500091051175037  0.6964899340596128   T   T   T
  0.1472195596423447  0.5000000004281731  0.3601606351366584   F   F   F
  0.4003222342624682  0.5000000004281731  0.3237632067519129   F   F   F
  0.4439214822817661  0.5000000004281731  0.4377276028165085   F   F   F
  0.4004692950285823  0.4999067266647504  0.5516477648269846   T   T   T
  0.1504291486145284  0.5002528267083928  0.5101446594780684   T   T   T
  0.1933335530024040  0.5006062320294909  0.6239263263461947   T   T   T
  0.1510954087067537  0.5024248884822372  0.7366359234375583   T   T   T
  0.3978003641332037  0.4998479926837556  0.7023638057373330   T   T   T
  0.1472195596423447  0.7500000002140865  0.3601606351366584   F   F   F
  0.4003222342624682  0.7500000002140865  0.3237632067519129   F   F   F
  0.4439214822817661  0.7500000002140865  0.4377276028165085   F   F   F
  0.4007214048953293  0.7499973963516732  0.5518433774340609   T   T   T
  0.1504317600082448  0.7499987521713561  0.5101880663420836   T   T   T
  0.1933268566516315  0.7499828210216630  0.6240588077329864   T   T   T
  0.1483696512487966  0.7499767043137608  0.7372889909255820   T   T   T
  0.3972695261796259  0.7499914143862974  0.7024691807434889   T   T   T
  0.6472195338188556  0.0000000000000000  0.3601606351366584   F   F   F
  0.9003222591295312  0.0000000000000000  0.3237632067519129   F   F   F
  0.9439215071488221  0.0000000000000000  0.4377276028165085   F   F   F
  0.9010335723841500 -0.0000087432581208  0.5522316327366534   T   T   T
  0.6510346591533253  0.9999419824757362  0.5104433656206717   T   T   T
  0.6934501094228938  0.0002195700774376  0.6248310908450503   T   T   T
  0.6475157426870108  0.0023220991789547  0.7400079613193860   T   T   T
  0.8940569030891368  0.9997031805353106  0.7035137089769495   T   T   T
  0.6472195338188556  0.2499999997859135  0.3601606351366584   F   F   F
  0.9003222591295312  0.2499999997859135  0.3237632067519129   F   F   F
  0.9439215071488221  0.2499999997859135  0.4377276028165085   F   F   F
  0.9016405686158573  0.2499848506651512  0.5524681446116351   T   T   T
  0.6512220337490693  0.2499917381081678  0.5104171911913303   T   T   T
  0.6965092585952992  0.2499859869913647  0.6244406573036809   T   T   T
  0.6467105302086165  0.2499992188381482  0.7363447080946522   T   T   T
  0.8949962226836786  0.2499690395590336  0.7049518260610013   T   T   T
  0.6472195338188556  0.5000000004281731  0.3601606351366584   F   F   F
  0.9003222591295312  0.5000000004281731  0.3237632067519129   F   F   F
  0.9439215071488221  0.5000000004281731  0.4377276028165085   F   F   F
  0.9010378731459360  0.4999941966850647  0.5522194781706955   T   T   T
  0.6510380282569762  0.5000463312128102  0.5104419091241414   T   T   T
  0.6934713060893258  0.4997640364307978  0.6248239321302151   T   T   T
  0.6475763429854701  0.4977293809730659  0.7399936123351870   T   T   T
  0.8940839471202686  0.5002545122274430  0.7034997183763529   T   T   T
  0.6472195338188556  0.7500000002140865  0.3601606351366584   F   F   F
  0.9003222591295312  0.7500000002140865  0.3237632067519129   F   F   F
  0.9439215071488221  0.7500000002140865  0.4377276028165085   F   F   F
  0.9004172137451832  0.7499964003736224  0.5522509702014796   T   T   T
  0.6509168261048169  0.7499977286495721  0.5104647745925955   T   T   T
  0.6938544883513993  0.7499936228277461  0.6248232306483976   T   T   T
  0.6493271225249061  0.7500085595283610  0.7389999374726125   T   T   T
  0.8950733650980994  0.7499649905079294  0.7028833806882616   T   T   T
  0.2337520829094466  0.2498939934938660  0.7998761302622642   T   T   T
  0.4534264274039517  0.2505058604645372  0.8313704514885257   T   T   T
 
  0.00000000E+00  0.00000000E+00  0.00000000E+00
  0.00000000E+00  0.00000000E+00  0.00000000E+00
  0.00000000E+00  0.00000000E+00  0.00000000E+00
  0.00000000E+00  0.00000000E+00  0.00000000E+00
  0.00000000E+00  0.00000000E+00  0.00000000E+00
  0.00000000E+00  0.00000000E+00  0.00000000E+00
  0.00000000E+00  0.00000000E+00  0.00000000E+00
  0.00000000E+00  0.00000000E+00  0.00000000E+00
  0.00000000E+00  0.00000000E+00  0.00000000E+00
  0.00000000E+00  0.00000000E+00  0.00000000E+00
  0.00000000E+00  0.00000000E+00  0.00000000E+00
  0.00000000E+00  0.00000000E+00  0.00000000E+00
  0.00000000E+00  0.00000000E+00  0.00000000E+00
  0.00000000E+00  0.00000000E+00  0.00000000E+00
  0.00000000E+00  0.00000000E+00  0.00000000E+00
  0.00000000E+00  0.00000000E+00  0.00000000E+00
  0.00000000E+00  0.00000000E+00  0.00000000E+00
  0.00000000E+00  0.00000000E+00  0.00000000E+00
  0.00000000E+00  0.00000000E+00  0.00000000E+00
  0.00000000E+00  0.00000000E+00  0.00000000E+00
  0.00000000E+00  0.00000000E+00  0.00000000E+00
  0.00000000E+00  0.00000000E+00  0.00000000E+00
  0.00000000E+00  0.00000000E+00  0.00000000E+00
  0.00000000E+00  0.00000000E+00  0.00000000E+00
  0.00000000E+00  0.00000000E+00  0.00000000E+00
  0.00000000E+00  0.00000000E+00  0.00000000E+00
  0.00000000E+00  0.00000000E+00  0.00000000E+00
  0.00000000E+00  0.00000000E+00  0.00000000E+00
  0.00000000E+00  0.00000000E+00  0.00000000E+00
  0.00000000E+00  0.00000000E+00  0.00000000E+00
  0.00000000E+00  0.00000000E+00  0.00000000E+00
  0.00000000E+00  0.00000000E+00  0.00000000E+00
  0.00000000E+00  0.00000000E+00  0.00000000E+00
  0.00000000E+00  0.00000000E+00  0.00000000E+00
  0.00000000E+00  0.00000000E+00  0.00000000E+00
  0.00000000E+00  0.00000000E+00  0.00000000E+00
  0.00000000E+00  0.00000000E+00  0.00000000E+00
  0.00000000E+00  0.00000000E+00  0.00000000E+00
  0.00000000E+00  0.00000000E+00  0.00000000E+00
  0.00000000E+00  0.00000000E+00  0.00000000E+00
  0.00000000E+00  0.00000000E+00  0.00000000E+00
  0.00000000E+00  0.00000000E+00  0.00000000E+00
  0.00000000E+00  0.00000000E+00  0.00000000E+00
  0.00000000E+00  0.00000000E+00  0.00000000E+00
  0.00000000E+00  0.00000000E+00  0.00000000E+00
  0.00000000E+00  0.00000000E+00  0.00000000E+00
  0.00000000E+00  0.00000000E+00  0.00000000E+00
  0.00000000E+00  0.00000000E+00  0.00000000E+00
  0.00000000E+00  0.00000000E+00  0.00000000E+00
  0.00000000E+00  0.00000000E+00  0.00000000E+00
  0.00000000E+00  0.00000000E+00  0.00000000E+00
  0.00000000E+00  0.00000000E+00  0.00000000E+00
  0.00000000E+00  0.00000000E+00  0.00000000E+00
  0.00000000E+00  0.00000000E+00  0.00000000E+00
  0.00000000E+00  0.00000000E+00  0.00000000E+00
  0.00000000E+00  0.00000000E+00  0.00000000E+00
  0.00000000E+00  0.00000000E+00  0.00000000E+00
  0.00000000E+00  0.00000000E+00  0.00000000E+00
  0.00000000E+00  0.00000000E+00  0.00000000E+00
  0.00000000E+00  0.00000000E+00  0.00000000E+00
  0.00000000E+00  0.00000000E+00  0.00000000E+00
  0.00000000E+00  0.00000000E+00  0.00000000E+00
  0.00000000E+00  0.00000000E+00  0.00000000E+00
  0.00000000E+00  0.00000000E+00  0.00000000E+00
  0.00000000E+00  0.00000000E+00  0.00000000E+00
  0.00000000E+00  0.00000000E+00  0.00000000E+00
  0.00000000E+00  0.00000000E+00  0.00000000E+00
  0.00000000E+00  0.00000000E+00  0.00000000E+00
  0.00000000E+00  0.00000000E+00  0.00000000E+00
  0.00000000E+00  0.00000000E+00  0.00000000E+00
  0.00000000E+00  0.00000000E+00  0.00000000E+00
  0.00000000E+00  0.00000000E+00  0.00000000E+00
  0.00000000E+00  0.00000000E+00  0.00000000E+00
  0.00000000E+00  0.00000000E+00  0.00000000E+00
  0.00000000E+00  0.00000000E+00  0.00000000E+00
  0.00000000E+00  0.00000000E+00  0.00000000E+00
  0.00000000E+00  0.00000000E+00  0.00000000E+00
  0.00000000E+00  0.00000000E+00  0.00000000E+00
  0.00000000E+00  0.00000000E+00  0.00000000E+00
  0.00000000E+00  0.00000000E+00  0.00000000E+00
  0.00000000E+00  0.00000000E+00  0.00000000E+00
  0.00000000E+00  0.00000000E+00  0.00000000E+00
  0.00000000E+00  0.00000000E+00  0.00000000E+00
  0.00000000E+00  0.00000000E+00  0.00000000E+00
  0.00000000E+00  0.00000000E+00  0.00000000E+00
  0.00000000E+00  0.00000000E+00  0.00000000E+00
  0.00000000E+00  0.00000000E+00  0.00000000E+00
  0.00000000E+00  0.00000000E+00  0.00000000E+00
  0.00000000E+00  0.00000000E+00  0.00000000E+00
  0.00000000E+00  0.00000000E+00  0.00000000E+00
  0.00000000E+00  0.00000000E+00  0.00000000E+00
  0.00000000E+00  0.00000000E+00  0.00000000E+00
  0.00000000E+00  0.00000000E+00  0.00000000E+00
  0.00000000E+00  0.00000000E+00  0.00000000E+00
  0.00000000E+00  0.00000000E+00  0.00000000E+00
  0.00000000E+00  0.00000000E+00  0.00000000E+00
  0.00000000E+00  0.00000000E+00  0.00000000E+00
  0.00000000E+00  0.00000000E+00  0.00000000E+00
  0.00000000E+00  0.00000000E+00  0.00000000E+00
  0.00000000E+00  0.00000000E+00  0.00000000E+00
  0.00000000E+00  0.00000000E+00  0.00000000E+00
  0.00000000E+00  0.00000000E+00  0.00000000E+00
  0.00000000E+00  0.00000000E+00  0.00000000E+00
  0.00000000E+00  0.00000000E+00  0.00000000E+00
  0.00000000E+00  0.00000000E+00  0.00000000E+00
  0.00000000E+00  0.00000000E+00  0.00000000E+00
  0.00000000E+00  0.00000000E+00  0.00000000E+00
  0.00000000E+00  0.00000000E+00  0.00000000E+00
  0.00000000E+00  0.00000000E+00  0.00000000E+00
  0.00000000E+00  0.00000000E+00  0.00000000E+00
  0.00000000E+00  0.00000000E+00  0.00000000E+00
  0.00000000E+00  0.00000000E+00  0.00000000E+00
  0.00000000E+00  0.00000000E+00  0.00000000E+00
  0.00000000E+00  0.00000000E+00  0.00000000E+00
  0.00000000E+00  0.00000000E+00  0.00000000E+00
  0.00000000E+00  0.00000000E+00  0.00000000E+00
  0.00000000E+00  0.00000000E+00  0.00000000E+00
  0.00000000E+00  0.00000000E+00  0.00000000E+00
  0.00000000E+00  0.00000000E+00  0.00000000E+00
  0.00000000E+00  0.00000000E+00  0.00000000E+00
  0.00000000E+00  0.00000000E+00  0.00000000E+00
  0.00000000E+00  0.00000000E+00  0.00000000E+00
  0.00000000E+00  0.00000000E+00  0.00000000E+00
  0.00000000E+00  0.00000000E+00  0.00000000E+00
  0.00000000E+00  0.00000000E+00  0.00000000E+00
  0.00000000E+00  0.00000000E+00  0.00000000E+00
  0.00000000E+00  0.00000000E+00  0.00000000E+00
  0.00000000E+00  0.00000000E+00  0.00000000E+00
  0.00000000E+00  0.00000000E+00  0.00000000E+00
  0.00000000E+00  0.00000000E+00  0.00000000E+00
