Ru Ta  N  Cu                            
   1.00000000000000     
    18.1096308199999996    0.0000000000000000    0.0000000000000000
     0.0000000000000000   23.3551997799999995    0.0000000000000000
     0.0000000000000000    0.0000000000000000   30.4818170799999990
   Ru   Ta   N    Cu
    64   240   240     4
Selective dynamics
Direct
  0.0678731593822344  0.0074062222953256  0.5338170331360881   T   T   T
  0.2775549853812334  0.5105843975079112  0.5276438946206000   T   T   T
  0.4426477454723021  0.0630672710337734  0.5193247763488901   T   T   T
  0.0665883020952166  0.2557866819700408  0.5333449239333844   T   T   T
  0.2844441861045747  0.2480278113074421  0.5255662956902996   T   T   T
  0.4342538459882474  0.3108109612743115  0.5191528215990568   T   T   T
  0.0690533742831352  0.1199214277469124  0.5333813283729407   T   T   T
  0.2880804560185789  0.1267344294878567  0.5239115640689300   T   T   T
  0.4489281177766845  0.1842773931675464  0.5213769687150394   T   T   T
  0.0730313918805113  0.3676922251628178  0.5340762899673351   T   T   T
  0.2750527837763509  0.3648626952703422  0.5283466601225805   T   T   T
  0.4282944788170469  0.4375466778313591  0.5211540176538731   T   T   T
  0.1771072726066683  0.4382857471391563  0.5495019235200600   T   T   T
  0.1815352690351834  0.2974717186952358  0.5580172223006438   T   T   T
  0.1778730100229177  0.1816155164519199  0.5481981633342191   T   T   T
  0.1875021377359380  0.0579606596318973  0.5505917422066665   T   T   T
  0.0707198935190782  0.5051185534433368  0.5337144656884543   T   T   T
  0.2875143809838552  0.9966482860601057  0.5240022076228735   T   T   T
  0.4339421691342428  0.5640652031762077  0.5193279347936707   T   T   T
  0.0685436994901369  0.7554615748672123  0.5335564227665561   T   T   T
  0.2869553431217425  0.7482044852935983  0.5240431371309265   T   T   T
  0.4422616024940243  0.8118220421444914  0.5192982590021653   T   T   T
  0.0655479327424675  0.6178403724926863  0.5333821939072667   T   T   T
  0.2841296498824049  0.6276661346024138  0.5254633063894191   T   T   T
  0.4482458590793272  0.6901627169413120  0.5212783837321006   T   T   T
  0.0674240238978644  0.8678248123950890  0.5337701678774024   T   T   T
  0.2873339940871293  0.8780507051727078  0.5240504645943705   T   T   T
  0.4466145973716274  0.9372030854418011  0.5212708933790601   T   T   T
  0.1758312766772072  0.9372960373665106  0.5475931012404787   T   T   T
  0.1871397490261719  0.8165407020813771  0.5506202770861683   T   T   T
  0.1762526721597654  0.6924611163508942  0.5480972261051068   T   T   T
  0.1814568660335742  0.5758302870819343  0.5561342684899249   T   T   T
  0.5693454846703890  0.0033420743497228  0.5333106238439108   T   T   T
  0.7946946550006737  0.4988531085721770  0.5233273117596031   T   T   T
  0.9418311493384031  0.0602626944081629  0.5194525711897086   T   T   T
  0.5677147673585369  0.2436955652522848  0.5355700026112654   T   T   T
  0.7846826669367467  0.2461772025309495  0.5255329701283817   T   T   T
  0.9438390726301965  0.3108938090537203  0.5197273948093709   T   T   T
  0.5667749270774715  0.1134450973486617  0.5327533775750113   T   T   T
  0.7877940479485513  0.1230988766304714  0.5242241956059519   T   T   T
  0.9462108145245289  0.1892203839827505  0.5214046630638037   T   T   T
  0.5679850012289412  0.3520570169135648  0.5360445109758232   T   T   T
  0.7946711317530041  0.3758320937189080  0.5233653639393456   T   T   T
  0.9537111034031580  0.4370148501972527  0.5224936071585812   T   T   T
  0.6825409353044802  0.4374989972957141  0.5433375068684122   T   T   T
  0.6914038538344980  0.3203162155234395  0.5506018512941138   T   T   T
  0.6772982127989017  0.1856862993131299  0.5478202547230625   T   T   T
  0.6849070576897045  0.0679034037615816  0.5527010662115467   T   T   T
  0.5674606924649748  0.5220245227549950  0.5358963476600594   T   T   T
  0.7826756546314897 -0.0004849160661843  0.5254799027487382   T   T   T
  0.9420841317867064  0.5650124629201445  0.5195765851218297   T   T   T
  0.5665705785821201  0.7610578501122769  0.5328605443600467   T   T   T
  0.7869355475905625  0.7517099272176724  0.5244430038624643   T   T   T
  0.9411128401381752  0.8137454157412216  0.5192594969786624   T   T   T
  0.5672459506392841  0.6305240417543836  0.5355252334526404   T   T   T
  0.7841997337611920  0.6286520455135066  0.5256162945074140   T   T   T
  0.9452819341607651  0.6859109653579574  0.5213379560349561   T   T   T
  0.5690274785649838  0.8709874827881615  0.5333118816403658   T   T   T
  0.7828579038715713  0.8749144827766226  0.5254476816853906   T   T   T
  0.9445868125405289  0.9374753374724066  0.5211251606782004   T   T   T
  0.6765271606787006  0.9373661380232327  0.5482634458735355   T   T   T
  0.6844641175378077  0.8074086276514362  0.5527380076585108   T   T   T
  0.6767333666940528  0.6889510670076795  0.5478030854564061   T   T   T
  0.6907950964312557  0.5541941223795745  0.5502774872629445   T   T   T
  0.9996246524628063  0.9999635445867767  0.1022212275957983   F   F   F
  0.3339438256838960  0.0624457813299060  0.1075563970202325   F   F   F
  0.1656734882889026  0.0624869619810369  0.1076523577670159   F   F   F
  0.2496380332605455  0.1248777014917124  0.1827535963680589   F   F   F
  0.0820753910794778  0.0624168821917976  0.1887361965005994   F   F   F
  0.4168249566545654  0.0624128089775482  0.1889653308070223   F   F   F
  0.0001442980610963  0.1248959179606038  0.2747426641771482   T   T   T
  0.3320534616216003  0.0624350161892952  0.2731608218803482   T   T   T
  0.1676470615922437  0.0624140243419705  0.2727993456208140   T   T   T
  0.2491816269365099  0.1248138267101504  0.3594818376428401   T   T   T
  0.0836844975827416  0.0623831235788288  0.3591741325986353   T   T   T
  0.4161898033297783  0.0624180280663588  0.3589478395243786   T   T   T
  0.4944088907883806  0.1247067737970965  0.4441794380254892   T   T   T
  0.3318376022161509  0.0619349705425628  0.4447573944411199   T   T   T
  0.1652642417603637  0.0622297002769765  0.4471153961426990   T   T   T
  0.9996175425524214  0.1249358288969233  0.1022184789678420   F   F   F
  0.3339435537114426  0.1874256191358299  0.1075504356733603   F   F   F
  0.1656688965935942  0.1874633245330628  0.1076544484778310   F   F   F
  0.2496428192825420  0.2499248694537357  0.1827745152021549   F   F   F
  0.0820483011947246  0.1874164370395803  0.1887315368489411   F   F   F
  0.4168235962087010  0.1874178821048673  0.1889761876915443   F   F   F
  0.0001375021290691  0.2499160829803743  0.2747510947034657   T   T   T
  0.3321517942325917  0.1874474985657657  0.2732058027208885   T   T   T
  0.1676031232998628  0.1874532841541419  0.2728100882405426   T   T   T
  0.2492925236147563  0.2499969516994244  0.3594787300497421   T   T   T
  0.0835647402639628  0.1873569693759120  0.3593189528410825   T   T   T
  0.4161365548219402  0.1874483711975010  0.3589419092076084   T   T   T
  0.4968868969013064  0.2490075955734319  0.4444103880561995   T   T   T
  0.3316450079014868  0.1871234676799057  0.4440191389752093   T   T   T
  0.1640838993138126  0.1871197044592445  0.4477333801462285   T   T   T
  0.9996247444640574  0.2499647011854407  0.1022230082490267   F   F   F
  0.3339438339619036  0.3124448417397900  0.1075557633545969   F   F   F
  0.1656741876920407  0.3124866150128511  0.1076519504247102   F   F   F
  0.2496342491082189  0.3748782083517597  0.1827543288382500   F   F   F
  0.0820773763724816  0.3124181279228466  0.1887355922833933   F   F   F
  0.4168238893201348  0.3124134579098339  0.1889644027201030   F   F   F
  0.0001360170695834  0.3749335332076259  0.2747698218589154   T   T   T
  0.3321288294710077  0.3124528602964711  0.2732245642855864   T   T   T
  0.1676150156438614  0.3124546356498077  0.2728728755806679   T   T   T
  0.2493088622680058  0.3748736851438468  0.3596234322396736   T   T   T
  0.0835820822001648  0.3124694731492985  0.3592213286773739   T   T   T
  0.4162968182678474  0.3124987008577881  0.3592534047859149   T   T   T
  0.4986452600110097  0.3751347661614634  0.4445429981138193   T   T   T
  0.3328812196129575  0.3120763366168084  0.4453382268649067   T   T   T
  0.1655711029461811  0.3122402796554603  0.4460793762957133   T   T   T
  0.9996196554118555  0.3749345235867736  0.1022175688270863   F   F   F
  0.3339389444248013  0.4374272239936090  0.1075500232538360   F   F   F
  0.1656692123176882  0.4374660331456823  0.1076535614342404   F   F   F
  0.2496367764464793  0.9999279799998888  0.1827742299965678   F   F   F
  0.0820476334098430  0.4374171254006285  0.1887298800136392   F   F   F
  0.4168193524269412  0.4374154383080295  0.1889763507298241   F   F   F
  0.5003529321565683  0.4998474020543999  0.2748823285600736   T   T   T
  0.3321949396527963  0.4373878070108513  0.2733033177321531   T   T   T
  0.1674988926243050  0.4374114428856488  0.2729204333698709   T   T   T
  0.2492980725225049  0.4999204709273200  0.3596391693071748   T   T   T
  0.0836570424929021  0.4374018628281732  0.3597178791792197   T   T   T
  0.4161918788674581  0.4373878263157268  0.3594310696807246   T   T   T
  0.4985993132134849  0.4996994293522655  0.4444608598401227   T   T   T
  0.3323742786913129  0.4373627078911663  0.4456329788254897   T   T   T
  0.1655697211312430  0.4373033968765013  0.4482140026968873   T   T   T
  0.9996246524628063  0.4999635445867767  0.1022212275957983   F   F   F
  0.3339438256838960  0.5624457813299060  0.1075563970202325   F   F   F
  0.1656734882889026  0.5624869619810369  0.1076523577670159   F   F   F
  0.2496380332605455  0.6248777014917124  0.1827535963680589   F   F   F
  0.0820753910794778  0.5624168821917976  0.1887361965005994   F   F   F
  0.4168249566545654  0.5624128089775482  0.1889653308070223   F   F   F
  0.0001732038332565  0.6248818691151234  0.2747544344873038   T   T   T
  0.3321514024951780  0.5623388883783228  0.2732293278469250   T   T   T
  0.1676403772183442  0.5623483757536288  0.2728803398651405   T   T   T
  0.2492401268524357  0.6248008131877288  0.3595181888095076   T   T   T
  0.0836481324536426  0.5623038347828928  0.3592579942130195   T   T   T
  0.4163152029739346  0.5623031216884563  0.3592274929929121   T   T   T
  0.4970013070380587  0.6257972394290015  0.4443237074393093   T   T   T
  0.3327380379217073  0.5627066343161081  0.4451969399411295   T   T   T
  0.1654472508265083  0.5624685645397807  0.4464598523803971   T   T   T
  0.9996175425524214  0.6249358288969233  0.1022184789678420   F   F   F
  0.3339435537114426  0.6874256191358228  0.1075504356733603   F   F   F
  0.1656688965935942  0.6874633245330557  0.1076544484778310   F   F   F
  0.2496428192825420  0.7499248694537357  0.1827745152021549   F   F   F
  0.0820483011947246  0.6874164370395732  0.1887315368489411   F   F   F
  0.4168235962087010  0.6874178821048602  0.1889761876915443   F   F   F
  0.0001785238205906  0.7499026055985970  0.2747417503591477   T   T   T
  0.3321677552762237  0.6873385158300126  0.2732022724108161   T   T   T
  0.1676349052200836  0.6873522808876749  0.2728085980727394   T   T   T
  0.2491335730543033  0.7499892757662771  0.3594896095607797   T   T   T
  0.0836128364433788  0.6874220548984959  0.3593092292234764   T   T   T
  0.4161365079655906  0.6873709358256771  0.3588872731919618   T   T   T
  0.4945939118885674  0.7500879901162886  0.4440695784252087   T   T   T
  0.3316603175102287  0.6876851986331866  0.4440085821757003   T   T   T
  0.1638978772283285  0.6876249270936866  0.4478805224211381   T   T   T
  0.9996247444640574  0.7499647011854407  0.1022230082490267   F   F   F
  0.3339438339619036  0.8124448417397900  0.1075557633545969   F   F   F
  0.1656741876920407  0.8124866150128511  0.1076519504247102   F   F   F
  0.2496342491082189  0.8748782083517597  0.1827543288382500   F   F   F
  0.0820773763724816  0.8124181279228466  0.1887355922833933   F   F   F
  0.4168238893201348  0.8124134579098339  0.1889644027201030   F   F   F
  0.0001797068840669  0.8749099808066423  0.2747406058386738   T   T   T
  0.3320595199751614  0.8123705889452284  0.2731562929827765   T   T   T
  0.1676668833233062  0.8123801591286870  0.2727887358875900   T   T   T
  0.2490794466855734  0.8748838671398079  0.3595458961050355   T   T   T
  0.0837028703668670  0.8124015732246627  0.3591718122844953   T   T   T
  0.4161951093383787  0.8124053661733798  0.3589080955379190   T   T   T
  0.4951359599312021  0.8751395702373445  0.4443176448061006   T   T   T
  0.3318076912073590  0.8127812863655486  0.4447358505773977   T   T   T
  0.1652164805583999  0.8125374726073501  0.4471532472610094   T   T   T
  0.9996196554118555  0.8749345235867736  0.1022175688270863   F   F   F
  0.3339389444248013  0.9374272239936019  0.1075500232538360   F   F   F
  0.1656692123176882  0.9374660331456752  0.1076535614342404   F   F   F
  0.2496367764464793  0.4999279799998888  0.1827742299965678   F   F   F
  0.0820476334098430  0.9374171254006214  0.1887298800136392   F   F   F
  0.4168193524269412  0.9374154383080224  0.1889763507298241   F   F   F
  0.5002033332263225  0.9999324241905847  0.2747087386413913   T   T   T
  0.3320876117461010  0.9374090522502690  0.2732115845145993   T   T   T
  0.1676603396376244  0.9374060621452036  0.2728029476728043   T   T   T
  0.2491093136931773 -0.0000763345921412  0.3595495927447796   T   T   T
  0.0836217852680061  0.9374026156527551  0.3592880548017790   T   T   T
  0.4162181761398867  0.9373992817270346  0.3587732683362849   T   T   T
  0.4950438387367104  0.9996471064749024  0.4443813761218917   T   T   T
  0.3321208990120619  0.9373510956586354  0.4437155293558028   T   T   T
  0.1637838901158701  0.9373910868330995  0.4480727098396157   T   T   T
  0.4996261485864011  0.9999638794554073  0.1022212895025945   F   F   F
  0.8339437371848675  0.0624482785398897  0.1075580759875550   F   F   F
  0.6656689243728380  0.0624780056916450  0.1076592327669417   F   F   F
  0.7496377014008289  0.1248750966894079  0.1827574333080477   F   F   F
  0.5820735458319604  0.0624174442172745  0.1887352315057669   F   F   F
  0.9168252921289621  0.0624138005358219  0.1889639379559043   F   F   F
  0.5002533621830262  0.1249714159058466  0.2747580182189223   T   T   T
  0.8320665019684752  0.0624327147543644  0.2731787510053201   T   T   T
  0.6677162377071059  0.0624333161415529  0.2728279391760257   T   T   T
  0.7494017130724062  0.1247414833095462  0.3596527213189291   T   T   T
  0.5836947695787110  0.0623825673970163  0.3590563841130994   T   T   T
  0.9161507230256876  0.0623460950081476  0.3590560621044758   T   T   T
  0.9952535218886417  0.1249889722288142  0.4444105216059276   T   T   T
  0.8328048862674623  0.0623568443240922  0.4451989230959066   T   T   T
  0.6654603938352261  0.0621239348903276  0.4466592598425700   T   T   T
  0.4996213536236240  0.1249348955726433  0.1022183024833154   F   F   F
  0.8339388961320680  0.1874236234033546  0.1075519903559652   F   F   F
  0.6656669566206190  0.1874574838225769  0.1076541056651124   F   F   F
  0.7496375557706187  0.2499211919418656  0.1827775726101990   F   F   F
  0.5820467926301731  0.1874136002736648  0.1887331258771638   F   F   F
  0.9168211714113710  0.1874148173649246  0.1889752459503455   F   F   F
  0.5003355060509407  0.2500353088235562  0.2748204803580951   T   T   T
  0.8321035581012740  0.1874317998780995  0.2732518328793095   T   T   T
  0.6676680206350585  0.1874540823168479  0.2729220302656459   T   T   T
  0.7492380944037014  0.2498540689349992  0.3599474758993287   T   T   T
  0.5837429910104003  0.1873841399605422  0.3595393600780823   T   T   T
  0.9160444089279997  0.1873354773587065  0.3590190135136849   T   T   T
  0.9959149137137594  0.2497120516118695  0.4441548128619630   T   T   T
  0.8324280725170184  0.1872758871749997  0.4447041877946282   T   T   T
  0.6644278661534971  0.1868722123741725  0.4481615563226244   T   T   T
  0.4996265847195431  0.2499624135589542  0.1022211658925301   F   F   F
  0.8339432913754052  0.3124470264806618  0.1075580597257542   F   F   F
  0.6656786166489255  0.3124812578813660  0.1076589101753385   F   F   F
  0.7496359798815462  0.3748756411498491  0.1827578042801292   F   F   F
  0.5820751330297256  0.3124154754956550  0.1887345581865603   F   F   F
  0.9168256971425777  0.3124110138011744  0.1889624020058491   F   F   F
  0.5003417117479613  0.3749473728279388  0.2748805016310832   T   T   T
  0.8320927979140917  0.3124366196605625  0.2733465547445083   T   T   T
  0.6676850252449292  0.3124422245068929  0.2729983913753778   T   T   T
  0.7489891763206656  0.3747802456337574  0.3601296007369132   T   T   T
  0.5839762974475629  0.3123670120310718  0.3597127015559660   T   T   T
  0.9163598163667559  0.3123711163761691  0.3592342798659373   T   T   T
  0.9949501277775217  0.3750589645131852  0.4457472781533708   T   T   T
  0.8323966860593921  0.3119436775960826  0.4452511044001566   T   T   T
  0.6649737264770063  0.3123282938945569  0.4485627595967395   T   T   T
  0.4996231203952064  0.3749337364865255  0.1022171720136171   F   F   F
  0.8339311317052278  0.4374224703005467  0.1075522038351053   F   F   F
  0.6656706818776428  0.4374574332997483  0.1076540871022118   F   F   F
  0.7496383104150084  0.9999213865668750  0.1827756388646549   F   F   F
  0.5820474546648100  0.4374150382907018  0.1887310280212660   F   F   F
  0.9168210958579976  0.4374163027642837  0.1889749839040178   F   F   F
  0.0001591088835023  0.4998774872477420  0.2747742990296117   T   T   T
  0.8321725824579407  0.4373880164646510  0.2734480941213314   T   T   T
  0.6677096337194692  0.4374175255081682  0.2730685545756490   T   T   T
  0.7489848045112777  0.5000067090423254  0.3601162668435811   T   T   T
  0.5838654323940228  0.4373957217277685  0.3600193237311867   T   T   T
  0.9165559325584132  0.4374061520901471  0.3592717715383341   T   T   T
  0.9946520441241441  0.4997738256721326  0.4457119996422824   T   T   T
  0.8318569086384143  0.4374093327854709  0.4436952592858046   T   T   T
  0.6633324335324806  0.4373578435092010  0.4494756272788172   T   T   T
  0.4996261485864011  0.4999638794554073  0.1022212895025945   F   F   F
  0.8339437371848675  0.5624482785398897  0.1075580759875550   F   F   F
  0.6656689243728380  0.5624780056916450  0.1076592327669417   F   F   F
  0.7496377014008289  0.6248750966894079  0.1827574333080477   F   F   F
  0.5820735458319604  0.5624174442172745  0.1887352315057669   F   F   F
  0.9168252921289621  0.5624138005358219  0.1889639379559043   F   F   F
  0.5003436867085077  0.6247824336995239  0.2748154536772264   T   T   T
  0.8320968391379061  0.5623606455335654  0.2733391692896679   T   T   T
  0.6677120228859196  0.5623726085408716  0.2729818615513362   T   T   T
  0.7491754426740966  0.6249511261240074  0.3599084994662516   T   T   T
  0.5840023229206619  0.5624357129388803  0.3596622974724770   T   T   T
  0.9163228509403134  0.5624352174760301  0.3592237092132154   T   T   T
  0.9961383776323861  0.6251971159033067  0.4439292902932919   T   T   T
  0.8324492644692957  0.5628726423250378  0.4452850219211296   T   T   T
  0.6649884001590982  0.5624503920453728  0.4485491196873630   T   T   T
  0.4996213536236240  0.6249348955726433  0.1022183024833154   F   F   F
  0.8339388961320680  0.6874236234033475  0.1075519903559652   F   F   F
  0.6656669566206190  0.6874574838225698  0.1076541056651124   F   F   F
  0.7496375557706187  0.7499211919418656  0.1827775726101990   F   F   F
  0.5820467926301731  0.6874136002736577  0.1887331258771638   F   F   F
  0.9168211714113710  0.6874148173649175  0.1889752459503455   F   F   F
  0.5002724926994976  0.7498514142516762  0.2747498012532545   T   T   T
  0.8321158843689916  0.6873711255659075  0.2732356696662721   T   T   T
  0.6676779583696916  0.6873623675431411  0.2729105884633339   T   T   T
  0.7493304877217757  0.7500761911244195  0.3596428589042251   T   T   T
  0.5837498450750112  0.6874296304521074  0.3595219170707891   T   T   T
  0.9160152440644301  0.6874677402654078  0.3589445859023315   T   T   T
  0.9955705221587871  0.7498036243090251  0.4442225438466922   T   T   T
  0.8321679718655196  0.6875598859873245  0.4445576584763997   T   T   T
  0.6643696851096840  0.6879284033429472  0.4481852293292553   T   T   T
  0.4996265847195431  0.7499624135589542  0.1022211658925301   F   F   F
  0.8339432913754052  0.8124470264806618  0.1075580597257542   F   F   F
  0.6656786166489255  0.8124812578813660  0.1076589101753385   F   F   F
  0.7496359798815462  0.8748756411498491  0.1827578042801292   F   F   F
  0.5820751330297256  0.8124154754956550  0.1887345581865603   F   F   F
  0.9168256971425777  0.8124110138011744  0.1889624020058491   F   F   F
  0.5002095699277744  0.8748773863215070  0.2747087628352891   T   T   T
  0.8320648651132256  0.8123793126618494  0.2731680004715519   T   T   T
  0.6677149612432791  0.8123649644562055  0.2728232636515520   T   T   T
  0.7493627582802126  0.8748685949782231  0.3595692303234366   T   T   T
  0.5837061992667960  0.8124544613169647  0.3590449925598583   T   T   T
  0.9161465068578263  0.8124837713498699  0.3590390521691264   T   T   T
  0.9958710839376635  0.8751767974505441  0.4439585717350428   T   T   T
  0.8327770314063109  0.8124561564312748  0.4452086575630667   T   T   T
  0.6653526001317842  0.8126638965971235  0.4466829125531258   T   T   T
  0.4996231203952064  0.8749337364865255  0.1022171720136171   F   F   F
  0.8339311317052278  0.9374224703005396  0.1075522038351053   F   F   F
  0.6656706818776428  0.9374574332997412  0.1076540871022118   F   F   F
  0.7496383104150084  0.4999213865668750  0.1827756388646549   F   F   F
  0.5820474546648100  0.9374150382906947  0.1887310280212660   F   F   F
  0.9168210958579976  0.9374163027642766  0.1889749839040178   F   F   F
  0.0001760212108387 -0.0001144834680207  0.2747428223677601   T   T   T
  0.8320753079494655  0.9374032311966751  0.2731553078555192   T   T   T
  0.6677005948014638  0.9374018547054597  0.2727901551973395   T   T   T
  0.7493891482027648 -0.0000619438962481  0.3595657701249912   T   T   T
  0.5836034393722083  0.9374234377824310  0.3591957335546802   T   T   T
  0.9159632517528922  0.9374072129418674  0.3588843414353078   T   T   T
  0.9958720271159791  0.9995440724604429  0.4439473272720569   T   T   T
  0.8318713641422141  0.9373850462870688  0.4447736678839053   T   T   T
  0.6645845704529340  0.9373747887415318  0.4476840395755747   T   T   T
  0.4054220745019208  0.9999222115495812  0.1371706404740110   F   F   F
  0.2498130538845231  0.9999469596221715  0.1043552466225179   F   F   F
  0.0938777968594522  0.9999465964224399  0.1371098030237761   F   F   F
  0.1543635830516692  0.1248899271375592  0.2204647086472562   F   F   F
  0.9995670073461937  0.1248966516782701  0.2080976692853085   F   F   F
  0.3446973568903360  0.1248674306196307  0.2206598414842134   F   F   F
  0.4005841440655650  0.1249483094158430  0.3067580584633409   T   T   T
  0.2496315589929530  0.1249497638502492  0.2918952265622025   T   T   T
  0.0994565312265836  0.1248907818293412  0.3070499192605459   T   T   T
  0.1516721608314292  0.1248871826457916  0.3934326661240105   T   T   T
  0.4996411885725974  0.1248520761061167  0.3763398393850153   T   T   T
  0.3477841374111495  0.1247156117879047  0.3921608532458349   T   T   T
  0.3962795517677168  0.1258918245570611  0.4800052114288120   T   T   T
  0.2501827663749915  0.1246368284363234  0.4626738827792355   T   T   T
  0.0947901610327368  0.1240721838425716  0.4728086727094020   T   T   T
  0.4054214644049878  0.1249282036816339  0.1371697875501496   F   F   F
  0.2498118312390858  0.1249501818115135  0.1042602234590362   F   F   F
  0.0938664600244081  0.1249385922007349  0.1371069089706722   F   F   F
  0.1543560911150905  0.2498790211591952  0.2204709660202369   F   F   F
  0.9995706735895027  0.2499094862395950  0.2080999580462830   F   F   F
  0.3447055266517580  0.2498932390428195  0.2206623926809286   F   F   F
  0.4006339727044652  0.2500635030557196  0.3068880392638116   T   T   T
  0.2496611246484034  0.2499430261468016  0.2919100636448453   T   T   T
  0.0994560281244949  0.2499484075222167  0.3070545420018684   T   T   T
  0.1517369189721456  0.2498395838747332  0.3933751943892282   T   T   T
  0.4997748922330588  0.2497943530365132  0.3765423250015110   T   T   T
  0.3477183395517147  0.2503449269808899  0.3923950631159360   T   T   T
  0.4003311831447852  0.2465819772918287  0.4786645373911888   T   T   T
  0.2503527426341033  0.2495698707714980  0.4634635017071877   T   T   T
  0.0955049733083973  0.2510548975381657  0.4729225240555914   T   T   T
  0.4054229972694188  0.2499207711709062  0.1371716336629376   F   F   F
  0.2498138581555835  0.2499451823925298  0.1043557657097551   F   F   F
  0.0938776901322669  0.2499459403779412  0.1371098843944125   F   F   F
  0.1543617400249389  0.3748920346981564  0.2204674382050342   F   F   F
  0.9995672189247742  0.3748993922795947  0.2080981530608312   F   F   F
  0.3446956533108718  0.3748674624887514  0.2206599019871973   F   F   F
  0.4006581529607613  0.3749917157340068  0.3070764762117908   T   T   T
  0.2496687654328693  0.3749622676316360  0.2919917493146850   T   T   T
  0.0993229840120473  0.3749974304035922  0.3072190296855309   T   T   T
  0.1519928118996070  0.3749094611605741  0.3935120574405345   T   T   T
  0.4999176583507055  0.3748030060941672  0.3766659332592335   T   T   T
  0.3472784434286750  0.3750965476235918  0.3929668490292046   T   T   T
  0.4024150596164623  0.3746465232038054  0.4773741925252530   T   T   T
  0.2504752092720511  0.3740284740997192  0.4643856686995723   T   T   T
  0.0959614707911024  0.3736745352156109  0.4728101755941146   T   T   T
  0.4054204481464510  0.3749288137657416  0.1371674470345781   F   F   F
  0.2498106243523637  0.3749504007233213  0.1042578114000037   F   F   F
  0.0938682935435935  0.3749385903486697  0.1371059653233644   F   F   F
  0.1543531827738107  0.9998787448957458  0.2204712064644667   F   F   F
  0.9995677263797802  0.9999081653989563  0.2081008624749074   F   F   F
  0.3447067510723798  0.9998918897834912  0.2206650007889195   F   F   F
  0.4006571099365777  0.4997910299788507  0.3070636284236689   T   T   T
  0.2496755563450609  0.4998428790543498  0.2920004261236821   T   T   T
  0.0993472918808587  0.4998119741009413  0.3072421914773887   T   T   T
  0.1520175298456949  0.4998306253599222  0.3935940182797485   T   T   T
  0.4999224395347279  0.4999990543708023  0.3765991962039059   T   T   T
  0.3479634814412794  0.0000629867298035  0.3920731168173703   T   T   T
  0.4023906649929915  0.5003077662835985  0.4772777988833333   T   T   T
  0.2505667568152974  0.5006158221734162  0.4642117174332822   T   T   T
  0.0945123893277037  0.0009228952038943  0.4734085525145737   T   T   T
  0.4054220745019208  0.4999222115495883  0.1371706404740110   F   F   F
  0.2498130538845231  0.4999469596221715  0.1043552466225179   F   F   F
  0.0938777968594522  0.4999465964224399  0.1371098030237761   F   F   F
  0.1543635830516692  0.6248899271375592  0.2204647086472562   F   F   F
  0.9995670073461937  0.6248966516782701  0.2080976692853085   F   F   F
  0.3446973568903360  0.6248674306196307  0.2206598414842134   F   F   F
  0.4006523015915305  0.6247344281173424  0.3068582070387772   T   T   T
  0.2496769969549041  0.6248559745806870  0.2919291225834491   T   T   T
  0.0995107468320485  0.6248192906933256  0.3070670892015481   T   T   T
  0.1516899229416982  0.6248815759560621  0.3935170258719049   T   T   T
  0.4997867174314189  0.6250088179967613  0.3764700863529281   T   T   T
  0.3477273114014235  0.6245427722462347  0.3923366434994182   T   T   T
  0.4004609894683871  0.6281757833277458  0.4785343577613079   T   T   T
  0.2503821856265201  0.6253340889342499  0.4633901828502535   T   T   T
  0.0952068263957282  0.6236314079507602  0.4731295638416581   T   T   T
  0.4054214644049878  0.6249282036816339  0.1371697875501496   F   F   F
  0.2498118312390858  0.6249501818115135  0.1042602234590362   F   F   F
  0.0938664600244081  0.6249385922007349  0.1371069089706722   F   F   F
  0.1543560911150905  0.7498790211591952  0.2204709660202369   F   F   F
  0.9995706735895027  0.7499094862395950  0.2080999580462830   F   F   F
  0.3447055266517580  0.7498932390428195  0.2206623926809286   F   F   F
  0.4005859351149018  0.7498747595205902  0.3067268203241830   T   T   T
  0.2496338951487888  0.7498541684735243  0.2919030127680813   T   T   T
  0.0995007608253628  0.7499002099610454  0.3070423557344881   T   T   T
  0.1515995390855610  0.7498843053657446  0.3934882378637766   T   T   T
  0.4996266257358189  0.7499642276266086  0.3762594590136494   T   T   T
  0.3477424757692253  0.7500816326197376  0.3921100496947478   T   T   T
  0.3966969060288780  0.7489537131431337  0.4797229790702278   T   T   T
  0.2501358330795007  0.7501206414629081  0.4626642433348005   T   T   T
  0.0947488697270660  0.7508131446434069  0.4730124317180568   T   T   T
  0.4054229972694188  0.7499207711709062  0.1371716336629376   F   F   F
  0.2498138581555835  0.7499451823925369  0.1043557657097551   F   F   F
  0.0938776901322669  0.7499459403779412  0.1371098843944125   F   F   F
  0.1543617400249389  0.8748920346981564  0.2204674382050342   F   F   F
  0.9995672189247742  0.8748993922795947  0.2080981530608312   F   F   F
  0.3446956533108718  0.8748674624887514  0.2206599019871973   F   F   F
  0.4005768680952450  0.8748580321044110  0.3067053059054884   T   T   T
  0.2496084822658368  0.8748868046320668  0.2919235861904358   T   T   T
  0.0995127154469122  0.8748845227748556  0.3070377895336270   T   T   T
  0.1515305770326282  0.8749772295758488  0.3936412512973675   T   T   T
  0.4997520091237811  0.8749557143149215  0.3763664404005368   T   T   T
  0.3479264675958402  0.8747077202330847  0.3920531059876187   T   T   T