 S                                      
   1.00000000000000     
    15.9214998300000001    0.0000000000000000    0.0000000000000000
    -7.9622501300000001   13.7910221699999997    0.0000000000000000
     0.0000000000000000    0.0000000000000000   13.5821998300000004
   S 
     1
Direct
  0.0616459116124801  0.1232685930777535  0.1028949019666996
 
  0.00000000E+00  0.00000000E+00  0.00000000E+00
