Mo  S Co                                
   1.00000000000000     
    15.9215000000000000    0.0000000000000000    0.0000000000000000
    -7.9622500000000000   13.7910219999999999    0.0000000000000000
     0.0000000000000000    0.0000000000000000   13.5822000000000003
   Mo   S    Ru
    25    49     1
Direct
  0.1328476494804534  0.0676657221075061  0.6762196959557727
  0.1339471833054020  0.2665420908555873  0.6713298774844176
  0.1325713134235968  0.4639919963035055  0.6763910152176393
  0.1323255608853273  0.6651551741780182  0.6791275266659866
  0.1323042177824476  0.8659689024367410  0.6790789150786267
  0.3321603539561266  0.0666516179587333  0.6795788972940642
  0.3295662050013419  0.2671579128270665  0.6748614536687114
  0.3293306012560464  0.4607596687757507  0.6754026780697373
  0.3322296736915220  0.6641683203809094  0.6797941670025551
  0.3320421919777488  0.8653508768248201  0.6802551743698686
  0.5319358213063481  0.0652557894661143  0.6805176408372091
  0.5318215618242803  0.2641077347615877  0.6794952390198645
  0.5309132667498844  0.4654043739185809  0.6760733956282863
  0.5325521398924522  0.6660753569191300  0.6795185640585970
  0.5321323951246981  0.8655999454548322  0.6804275148851175
  0.7324273593861008  0.0657484752006567  0.6799762250503534
  0.7324834663422095  0.2657992991247937  0.6801743665102720
  0.7315275742761571  0.4655812853250225  0.6798781263401779
  0.7318256810901360  0.6655100640290996  0.6793425750853643
  0.7326027437083766  0.8659030674111108  0.6799973883031640
  0.9330841187495764  0.0664369721230003  0.6781761209548876
  0.9330191519493596  0.2656652248946401  0.6783017402778313
  0.9321762477438753  0.4652286694450325  0.6790099896800541
  0.9321410938152326  0.6655589437600753  0.6791731564436034
  0.9323746871179850  0.8660666027603057  0.6788377136407249
  0.0645519606075879  0.1322205754034940  0.5599295059520273
  0.0707026244604307  0.1378936006049614  0.7907238839243007
  0.0643912865344447  0.3312204391339719  0.5599447359859155
  0.0705611801844412  0.3317279762669472  0.7909775918144746
  0.0652800313767798  0.5321853660577176  0.5633989665829446
  0.0663527673369302  0.5309067803348952  0.7928798595095756
  0.0657057812879742  0.7322383860066850  0.5642292032725678
  0.0656717395950892  0.7322623674479942  0.7939938641819353
  0.0655184621947669  0.9321535006753052  0.5632970968994613
  0.0665119911489711  0.9345201246365562  0.7927411436777732
  0.2670824401087515  0.1338292489505051  0.5618178994642093
  0.2643208416581331  0.1369612959990789  0.7923075954451448
  0.2652781890814708  0.3321510165968462  0.5582134665249541
  0.2669666478049706  0.5318271160229813  0.5623711046490314
  0.2638927996668272  0.5261459830066855  0.7924668166417348
  0.2662081206304094  0.7320157786822179  0.5649409697653809
  0.2651648005282752  0.7308888858588460  0.7947128871722740
  0.2661048701798165  0.9327416183828277  0.5648538442352020
  0.2650913119205143  0.9329572009445286  0.7946244601790653
  0.4653293519145052  0.1312854903655207  0.5648215209584038
  0.4648243776652237  0.1317471888837360  0.7953743122443768
  0.4643069382909530  0.3299748470329291  0.5626458407724826
  0.4596885291176633  0.3312892743056253  0.7902239687589656
  0.4636407034934464  0.5329249402498704  0.5630356169381585
  0.4577041019163488  0.5277248623335922  0.7939542333204344
  0.4657161204922318  0.7325240204117094  0.5651460825126833
  0.4653328287157876  0.7319107670891114  0.7950819196803067
  0.4654373211787757  0.9320983572288668  0.5653885106548557
  0.4651145504729328  0.9318780956017605  0.7956054593827062
  0.6653031633580042  0.1322447540165115  0.5653254541786410
  0.6658991730660233  0.1324319069011466  0.7952884087441063
  0.6654940043432021  0.3319412069846024  0.5648345087455482
  0.6651005278596855  0.3322065611730665  0.7949676462709618
  0.6653817732886935  0.5323454144976623  0.5637984378115561
  0.6635512260777503  0.5316016744071490  0.7944629752526993
  0.6654614099455216  0.7327199227811860  0.5645565222533691
  0.6656826667997251  0.7322181030764483  0.7949016551172861
  0.6653878607077957  0.9322628220131008  0.5651615248712645
  0.6660073721774395  0.9325289291968986  0.7952231732675514
  0.8650277170439580  0.1320731770322823  0.5640447039560144
  0.8669069522630792  0.1329348471716472  0.7940056923025196
  0.8650459644863986  0.3318998906317532  0.5642021084468709
  0.8669561809374997  0.3323651187047361  0.7943910232134641
  0.8648404160137844  0.5318816397797548  0.5644847404297195
  0.8656273087563662  0.5321770261736916  0.7942248308074369
  0.8652411522701726  0.7321879609064865  0.5642263037191526
  0.8657511517680589  0.7326094210963134  0.7940881776009192
  0.8652208406638593  0.9323124523905335  0.5640248398664198
  0.8670948594247321  0.9336876821797233  0.7942056816909755
  0.4405371916484384  0.4141980814511115  0.9069966602111208
 
  0.00000000E+00  0.00000000E+00  0.00000000E+00
  0.00000000E+00  0.00000000E+00  0.00000000E+00
  0.00000000E+00  0.00000000E+00  0.00000000E+00
  0.00000000E+00  0.00000000E+00  0.00000000E+00
  0.00000000E+00  0.00000000E+00  0.00000000E+00
  0.00000000E+00  0.00000000E+00  0.00000000E+00
  0.00000000E+00  0.00000000E+00  0.00000000E+00
  0.00000000E+00  0.00000000E+00  0.00000000E+00
  0.00000000E+00  0.00000000E+00  0.00000000E+00
  0.00000000E+00  0.00000000E+00  0.00000000E+00
  0.00000000E+00  0.00000000E+00  0.00000000E+00
  0.00000000E+00  0.00000000E+00  0.00000000E+00
  0.00000000E+00  0.00000000E+00  0.00000000E+00
  0.00000000E+00  0.00000000E+00  0.00000000E+00
  0.00000000E+00  0.00000000E+00  0.00000000E+00
  0.00000000E+00  0.00000000E+00  0.00000000E+00
  0.00000000E+00  0.00000000E+00  0.00000000E+00
  0.00000000E+00  0.00000000E+00  0.00000000E+00
  0.00000000E+00  0.00000000E+00  0.00000000E+00
  0.00000000E+00  0.00000000E+00  0.00000000E+00
  0.00000000E+00  0.00000000E+00  0.00000000E+00
  0.00000000E+00  0.00000000E+00  0.00000000E+00
  0.00000000E+00  0.00000000E+00  0.00000000E+00
  0.00000000E+00  0.00000000E+00  0.00000000E+00
  0.00000000E+00  0.00000000E+00  0.00000000E+00
  0.00000000E+00  0.00000000E+00  0.00000000E+00
  0.00000000E+00  0.00000000E+00  0.00000000E+00
  0.00000000E+00  0.00000000E+00  0.00000000E+00
  0.00000000E+00  0.00000000E+00  0.00000000E+00
  0.00000000E+00  0.00000000E+00  0.00000000E+00
  0.00000000E+00  0.00000000E+00  0.00000000E+00
  0.00000000E+00  0.00000000E+00  0.00000000E+00
  0.00000000E+00  0.00000000E+00  0.00000000E+00
  0.00000000E+00  0.00000000E+00  0.00000000E+00
  0.00000000E+00  0.00000000E+00  0.00000000E+00
  0.00000000E+00  0.00000000E+00  0.00000000E+00
  0.00000000E+00  0.00000000E+00  0.00000000E+00
  0.00000000E+00  0.00000000E+00  0.00000000E+00
  0.00000000E+00  0.00000000E+00  0.00000000E+00
  0.00000000E+00  0.00000000E+00  0.00000000E+00
  0.00000000E+00  0.00000000E+00  0.00000000E+00
  0.00000000E+00  0.00000000E+00  0.00000000E+00
  0.00000000E+00  0.00000000E+00  0.00000000E+00
  0.00000000E+00  0.00000000E+00  0.00000000E+00
  0.00000000E+00  0.00000000E+00  0.00000000E+00
  0.00000000E+00  0.00000000E+00  0.00000000E+00
  0.00000000E+00  0.00000000E+00  0.00000000E+00
  0.00000000E+00  0.00000000E+00  0.00000000E+00
  0.00000000E+00  0.00000000E+00  0.00000000E+00
  0.00000000E+00  0.00000000E+00  0.00000000E+00
  0.00000000E+00  0.00000000E+00  0.00000000E+00
  0.00000000E+00  0.00000000E+00  0.00000000E+00
  0.00000000E+00  0.00000000E+00  0.00000000E+00
  0.00000000E+00  0.00000000E+00  0.00000000E+00
  0.00000000E+00  0.00000000E+00  0.00000000E+00
  0.00000000E+00  0.00000000E+00  0.00000000E+00
  0.00000000E+00  0.00000000E+00  0.00000000E+00
  0.00000000E+00  0.00000000E+00  0.00000000E+00
  0.00000000E+00  0.00000000E+00  0.00000000E+00
  0.00000000E+00  0.00000000E+00  0.00000000E+00
  0.00000000E+00  0.00000000E+00  0.00000000E+00
  0.00000000E+00  0.00000000E+00  0.00000000E+00
  0.00000000E+00  0.00000000E+00  0.00000000E+00
  0.00000000E+00  0.00000000E+00  0.00000000E+00
  0.00000000E+00  0.00000000E+00  0.00000000E+00
  0.00000000E+00  0.00000000E+00  0.00000000E+00
  0.00000000E+00  0.00000000E+00  0.00000000E+00
  0.00000000E+00  0.00000000E+00  0.00000000E+00
  0.00000000E+00  0.00000000E+00  0.00000000E+00
  0.00000000E+00  0.00000000E+00  0.00000000E+00
  0.00000000E+00  0.00000000E+00  0.00000000E+00
  0.00000000E+00  0.00000000E+00  0.00000000E+00
  0.00000000E+00  0.00000000E+00  0.00000000E+00
  0.00000000E+00  0.00000000E+00  0.00000000E+00
  0.00000000E+00  0.00000000E+00  0.00000000E+00
