Ta  N  W Cu                             
   1.00000000000000     
    18.1096308199999996    0.0000000000000000    0.0000000000000000
     0.0000000000000000   23.3551997799999995    0.0000000000000000
     0.0000000000000000    0.0000000000000000   30.4818171199999988
   Ta   N    W    Cu
   228   240    12     1
Direct
  0.9999855355473954  0.0000550982441823  0.1975156534885585
  0.3341609243618962  0.0625647637970275  0.2026693737631931
  0.1657579163322751  0.0625969574155008  0.2027575814379219
  0.2498914016666021  0.1251088306956589  0.2778835244866400
  0.0827522311749433  0.0626286366222715  0.2840962105497411
  0.4171019316943898  0.0625980443499543  0.2839662525575619
  0.9999924596886274  0.1251477318747973  0.3699120488932977
  0.3324640638095104  0.0626335021458004  0.3683880245822166
  0.1672939221914120  0.0626449424364850  0.3684031452508876
  0.2502961081793060  0.1254191329483092  0.4550000842289208
  0.0839352468681298  0.0625651612143159  0.4546568405672673
  0.4161038026622847  0.0626170494063913  0.4542895233254285
  0.9999748624487026  0.1251946480216972  0.5410468745749810
  0.3352970366588792  0.0626364566672777  0.5418400222339841
  0.9999902340866171  0.1250892043622045  0.1975150520321449
  0.3341453738032811  0.1875587598456008  0.2026853597707117
  0.1657422757705191  0.1875572220090689  0.2027595092465404
  0.2499517197654626  0.2501015208490713  0.2778853799166541
  0.0827086236276102  0.1876320565303118  0.2840951579644653
  0.4171557879911489  0.1875995159987482  0.2839775572267484
  0.0001053645314855  0.2501701447273135  0.3699423772711370
  0.3324207101072503  0.1876332828489424  0.3683964032581031
  0.1673555045772943  0.1876396810398973  0.3684871308439241
  0.2504140028252877  0.2498411498729709  0.4550836960537765
  0.0835979817862764  0.1875554792505483  0.4546973727820571
  0.4162321557136011  0.1875465539827488  0.4542925946482796
  0.9994026882431939  0.2499415639767690  0.5410529558399020
  0.3357117050371201  0.1866344607250525  0.5417214195379358
  0.1658649259700624  0.1868913152861040  0.5419106724713458
  0.9999930186962231  0.2500616443931278  0.1975292895823486
  0.3341595346356669  0.3125732725261159  0.2026910399274016
  0.1657511233332940  0.3125963488596355  0.2027796444014669
  0.2498778862181368  0.3750998281352054  0.2778724025077324
  0.0827453428318208  0.3126310663165555  0.2841418878117494
  0.4171264984424283  0.3125986476649842  0.2839912962113615
  0.0001900005921271  0.3751466347051462  0.3700250974697497
  0.3324566262095985  0.3126342168263108  0.3683939592865997
  0.1673025102438217  0.3126334445256091  0.3684633159071424
  0.2502469469943236  0.3755066195069006  0.4549685759863280
  0.0842139424204973  0.3125945374970414  0.4548997094234792
  0.4159160144813541  0.3126645292105437  0.4544936066310257
  0.9997309145591089  0.3752904224701581  0.5413133096416871
  0.3370342409834493  0.3116121188721266  0.5418071183534110
  0.9999834892811492  0.3750872854988643  0.1975274826431885
  0.3341419880433136  0.4375537419294702  0.2026939877325802
  0.1657405231356179  0.4375571285483986  0.2027732796515664
  0.2499545503751150  0.0001002257394447  0.2778918195693834
  0.0827009152739109  0.4376165176170161  0.2841151944675318
  0.4171736450663204  0.4375907890149762  0.2840027856056224
  0.9999776803608142  0.0001578118469965  0.3698645617811565
  0.3324383825911781  0.4376423858623468  0.3684305680555582
  0.1673703992507711  0.4376549238632208  0.3685348186004944
  0.2505043189464118  0.9997898981234030  0.4550085054892534
  0.0838253810716552  0.4376665283915244  0.4548999209131424
  0.4160550322641683  0.4376374766641433  0.4544559193470405
  0.9999454331941635  0.0000772885439559  0.5411071982971976
  0.3376402740008402  0.4387365684178945  0.5415665390032061
  0.1640616950501297  0.4392413948644318  0.5417628741262135
  0.9999940748855565  0.5000704522906574  0.1975258504999999
  0.3341640401012285  0.5625619409743265  0.2026790967223917
  0.1657573447085454  0.5625960214783063  0.2027747067180314
  0.2498881078282196  0.6251047185155443  0.2778858908752184
  0.0827559305866288  0.5626175423439363  0.2841102272857086
  0.4171071865836993  0.5625910533704968  0.2839663335272178
  0.0000055907366843  0.6251526922235087  0.3699111713826682
  0.3324470633317915  0.5626437678321423  0.3683730173010531
  0.1673298125128326  0.5626580066641864  0.3684015369329430
  0.2502809361338478  0.6255473336968507  0.4550123959652836
  0.0839209922641686  0.5627636424035032  0.4546453201227649
  0.4161351233038175  0.5627751021024423  0.4542702320455234
  0.9999586416189814  0.6253368505774475  0.5410766357143117
  0.3353106742931971  0.5636754566481343  0.5418910977910585
  0.0000000421362856  0.6251003830570809  0.1975162246697764
  0.3341438438483522  0.6875600496161596  0.2026720101780555
  0.1657707016725354  0.6875656460047850  0.2027468279099551
  0.2499513445530610  0.7501013601870099  0.2778921882859962
  0.0827047365444571  0.6876276807482142  0.2840766816957299
  0.4171562910153952  0.6875964330145194  0.2839804737032949
  0.9999817960843629  0.7501601924843158  0.3698594339431835
  0.3324511940227168  0.6876451132220467  0.3684053920121997
  0.1673436427242478  0.6876566614691981  0.3684759775850992
  0.2505026469463090  0.7498103698364389  0.4549950238935736
  0.0835922039570036  0.6877551894026084  0.4547091355932125
  0.4162590988494017  0.6876690137618553  0.4542820876983313
  0.9999323559187374  0.7501033528956214  0.5410806669482255
  0.3358102393972970  0.6877023603325014  0.5416404482736183
  0.1656620912280999  0.6880582045355510  0.5418880932036387
  0.9999881443631153  0.7500755208346064  0.1975151098184682
  0.3341653434635745  0.8125549449300919  0.2026685928005207
  0.1657603331742195  0.8125918895403643  0.2027624273724058
  0.2498867742882425  0.8751106018090340  0.2778945813049774
  0.0827544236285291  0.8126302518775148  0.2840962787297201
  0.4170924475142002  0.8126019222089909  0.2839659411081072
  0.9999772985136417  0.8751586546686241  0.3698919799695588
  0.3324580504480465  0.8126488596007846  0.3683874919487664
  0.1672976527533905  0.8126673177646495  0.3683943625216273
  0.2502741963173420  0.8754929884965321  0.4550179200419961
  0.0839194830986614  0.8126768605671586  0.4546501252219812
  0.4161066288230373  0.8126962709040200  0.4542831300269583
  0.9999867672602747  0.8752708815379648  0.5410770255240962
  0.3352888890097034  0.8131318124009113  0.5418471352065595
  0.0000052811558930  0.8750984517441864  0.1975115620482981
  0.3341481640347510  0.9375676718290720  0.2026738850296326
  0.1657678764846366  0.9375676530863473  0.2027531696348746
  0.2499567293353877  0.5000927473776358  0.2778864023175771
  0.0827051955953877  0.9376287779112431  0.2840795695815785
  0.4171447886675210  0.9375943224221430  0.2839821401664935
  0.0001104197848250  0.5001568345166874  0.3699383679954664
  0.3324430174301582  0.9376301471106459  0.3684104324218254
  0.1673454073541549  0.9376458105773935  0.3684729779060874
  0.2505094708907976  0.4998147436421476  0.4550781148129062
  0.0836015494513660  0.9376599051995953  0.4547163025547718
  0.4162535908339535  0.9375850047425516  0.4542832691238416
  0.9995054708682076  0.5002395911114803  0.5410170284700087
  0.3357743296457087  0.9372416405935482  0.5416439723225892
  0.1656749815039404  0.9375664737511187  0.5419235654810848
  0.5000167500649297  0.0000356079936310  0.1974804294416259
  0.8342382920561064  0.0626136662437773  0.2027684887509622
  0.6658284976432682  0.0625774286848113  0.2026792389206875
  0.7501022825749430  0.1251058251698112  0.2778887632121894
  0.5829223052723904  0.0625971148669962  0.2839798070638153
  0.9172290432381160  0.0626267705675900  0.2841006814136335
  0.4999682896142872  0.1251419115652510  0.3696597885128483
  0.8326850446007015  0.0626670626693127  0.3684043924491860
  0.6675159441271532  0.0626548050697693  0.3684107209536975
  0.7496968490970204  0.1255272836386254  0.4550188344327140
  0.5838818841973108  0.0626654168241316  0.4543141597868896
  0.9160311870903328  0.0626404683226411  0.4546575178088830
  0.5000412365634901  0.1250065505639952  0.5409905245620763
  0.6647566105588538  0.0629952552123498  0.5418361790242869
  0.5000084759341092  0.1250719732839798  0.1974677786655832
  0.8342254618796261  0.1875726116298040  0.2027564654091876
  0.6658526875696253  0.1875672021901451  0.2026837947118949
  0.7500292785036180  0.2500979811489898  0.2778937279411764
  0.5828537778387073  0.1875936977612298  0.2840055060090805
  0.9172923952079941  0.1876246539668287  0.2840860690297404
  0.4998842980382889  0.2501207645422028  0.3696839639063967
  0.8326573605337018  0.1876648841842581  0.3684858090218555
  0.6674834609331128  0.1876544548882606  0.3684550110933955
  0.7494769242971699  0.2498111724890251  0.4550137435189683
  0.5836755370821436  0.1876076885731237  0.4543016326247269
  0.9164022932280602  0.1876734812908083  0.4547312572937869
  0.8342723175817213  0.1875960783325468  0.5418721638601696
  0.6644137547543991  0.1872944423724761  0.5415698704336762
  0.5000124398414272  0.2500561654184779  0.1974870990416875
  0.8342428001785365  0.3125992936133386  0.2027846327893670
  0.6658277505617889  0.3125644971468162  0.2026920876058327
  0.7500984454320161  0.3751058592754148  0.2778973847147697
  0.5828922178457674  0.3125957151163092  0.2840074139313771
  0.9172660092662994  0.3126301361045094  0.2841289892109415
  0.4997970774567122  0.3751187223943404  0.3697563421615868
  0.8327440560418822  0.3126757651020142  0.3684129719603959
  0.6674409726441439  0.3126609320138272  0.3684379317180984
  0.7497352469812313  0.3754948190196998  0.4550350295966936
  0.5837209571877722  0.3127003696362962  0.4543909031501911
  0.9161943439237206  0.3126778213251811  0.4546945284160770
  0.5003234781004124  0.3750975528730365  0.5412575898408818
  0.6648933580355276  0.3130389748915761  0.5417896119683974
  0.5000362069886464  0.3750790442729581  0.1974722718137016
  0.8342476099574654  0.4375649415996818  0.2027782542100027
  0.6658501482168546  0.4375657521391929  0.2027006032263188
  0.7500371494474436  0.0001021395828076  0.2778959200034379
  0.5828395818031140  0.4375947201371488  0.2840230921820748
  0.9173218201882563  0.4376241115399040  0.2841042709663952
  0.5000123127347322  0.0001134252550017  0.3696029850172025
  0.8326806513672622  0.4376365225408207  0.3684850012468530
  0.6674605390821071  0.4376219609919758  0.3684588116518910
  0.7494857326020892  0.9997953017037702  0.4550350098475491
  0.5836001617388433  0.4375913290050946  0.4543625328727146
  0.9165395787556960  0.4376751545981534  0.4547823399022803
  0.8342961103724349  0.4377228782362366  0.5418533813302844
  0.6645426155942857  0.4373431444101996  0.5415793094884123
  0.5000187755251133  0.5000630653728848  0.1974844203776627
  0.8342322099676238  0.5625964048128935  0.2027673613635841
  0.6658392655021572  0.5625589177015797  0.2026745289892915
  0.7501054627608212  0.6251167866382090  0.2778859218799212
  0.5829113761297222  0.5625973037758598  0.2839829858809608
  0.9172488431910324  0.5626291979735427  0.2841058358626469
  0.4999872698900560  0.6251310345909218  0.3696511871582686
  0.8327197884600537  0.5626467293591020  0.3684032423086094
  0.6674835002564805  0.5626307821616194  0.3684262749908314
  0.7497258596673646  0.6254756019987369  0.4550190227928752
  0.5838436622597243  0.5626711507559037  0.4543160640724722
  0.9160750631979724  0.5626744549059168  0.4546521491088882
  0.5000798496568848  0.6251906962352152  0.5410011777260308
  0.6648853809018220  0.5630865492162158  0.5417860237904364
  0.5000118089168453  0.6250974858117715  0.1974654450121278
  0.8342382036048690  0.6875542496722460  0.2027513897359157
  0.6658555382769578  0.6875497928519820  0.2026755451230784
  0.7500373932639661  0.7501018243099935  0.2778971942819553
  0.5828730655546579  0.6875970746922064  0.2839918356699656
  0.9172848739976089  0.6876319311226666  0.2840786541293383
  0.5000162053088246  0.7501173038365820  0.3696006323536096
  0.8326437576871797  0.6876513510204347  0.3684756040908681
  0.6675395946820899  0.6876278345335862  0.3684312638669098
  0.7494863441007027  0.7497799795155018  0.4550241907510753
  0.5837475538896228  0.6876047367610951  0.4543077921127292
  0.9163645163508320  0.6876965719170087  0.4547214990974382
  0.8343377943465171  0.6877574224558529  0.5418976306942014
  0.6643246801750777  0.6873784408221653  0.5416158855634876
  0.5000177590524615  0.7500652375887711  0.1974782515109936
  0.8342351979481251  0.8126151754559743  0.2027628096839393
  0.6658369544998664  0.8125792288094829  0.2026673144956206
  0.7501071803809225  0.8751113883590165  0.2778916409512604
  0.5829280511020656  0.8125912795748178  0.2839726880284061
  0.9172208492181966  0.8126305693578857  0.2840970137008298
  0.5000050355544161  0.8751326989387351  0.3696356922417863
  0.8326878008398779  0.8126650490365890  0.3684047853744445
  0.6675283160708219  0.8126486822491543  0.3684125811467140
  0.7497127278086566  0.8755064409768849  0.4550335133000374
  0.5838985043458749  0.8126704323593756  0.4543075222547444
  0.9160323891606410  0.8126626440196887  0.4546605814404501
  0.5000453590215344  0.8750989183426867  0.5410080764965528
  0.6647845066502995  0.8130282596797187  0.5418443428806157
  0.4999951834231737  0.8750851154893198  0.1974645801178454
  0.8342331968510877  0.9375558618302691  0.2027458565024318
  0.6658507022367175  0.9375465625848065  0.2026699923927140
  0.7500351816200208  0.5001028343559710  0.2778963047937708
  0.5828744941100652  0.9375954434856411  0.2839912532981046
  0.9172720967366814  0.9376264845906945  0.2840789339295640
  0.4998925260135820  0.5001077523139230  0.3696689934465667
  0.8326392720784455  0.9376467460474203  0.3684893682925932
  0.6675362874387076  0.9376318292202726  0.3684392957659526
  0.7494933665533665  0.4997732799385943  0.4550037828802260
  0.5837414521221618  0.9375989046273929  0.4543113966986851
  0.9163620942596964  0.9376798018504502  0.4547298126018191
  0.8343271734321860  0.9376845236110327  0.5419233890647703
  0.6643148208116543  0.9373445695223168  0.5416462702266571
  0.4055858665495293  0.0000661062454483  0.2322612534402211
  0.2499437278592183  0.0000785429910195  0.1993696591518486
  0.0943098698459792  0.0000982920418835  0.2323598642500784
  0.1549942932511712  0.1251686371936103  0.3158323312756224
  0.9999990270882861  0.1251283295750127  0.3032298942036533
  0.3449714691592405  0.1251324997627421  0.3157502286387626
  0.4008385584203609  0.1251636492856179  0.4021793869541455
  0.2497879918311483  0.1251152837875793  0.3872269942232478
  0.0990309580169821  0.1251289441874093  0.4024402491427281
  0.1524105447279496  0.1249137225744974  0.4876760186985578
  0.0000078292848116  0.1249572732639024  0.4731319468145969
  0.3483747183994623  0.1250803580129869  0.4878582164672096
  0.4026248652217390  0.1250688957541328  0.5703328472783582
  0.2493048068144645  0.1238226684747943  0.5575762808943239
  0.0988381034616950  0.1228625378143988  0.5696004612058516
  0.4056005706240740  0.1250901608607009  0.2322375834891162
  0.2499644336729716  0.1250686849562328  0.1992846183308998
  0.0942910273550410  0.1251079945094276  0.2323815023953273
  0.1549829265641591  0.2501187673631904  0.3158343240426902
  0.0000179870552444  0.2501552120080461  0.3032718058579462
  0.3449160836366616  0.2501143529618375  0.3157834113463309
  0.4007880165822613  0.2501143590386690  0.4021556249193452
  0.2499253906479382  0.2501619616402380  0.3872858534971968
  0.0991587590064640  0.2501467600149994  0.4025219904346358
  0.1526137874867217  0.2498044632381351  0.4878789883585952
  0.0000582279320227  0.2503742653981220  0.4732190932165636
  0.3483309165363693  0.2498600886763853  0.4879200264015395
  0.4072902258029174  0.2496223663566752  0.5697212984321069
  0.2498385482109740  0.2516489006040814  0.5585982103100164
  0.0983915459821887  0.2516140670132359  0.5698739687269665
  0.4055977464994740  0.2500805991778279  0.2322749255878449
  0.2499297579446420  0.2500767564051003  0.1994054422261016
  0.0943015390913260  0.2501159759964295  0.2323874875195102
  0.1550160065091575  0.3751595023292182  0.3158896800260820
  0.0000223219786690  0.3751137814170633  0.3033158789470249
  0.3449399155424402  0.3751265577808525  0.3157698073834823
  0.4006256448899208  0.3751759156187831  0.4023129269499890
  0.2498197371211717  0.3751140012888783  0.3872366218590457
  0.0992483913639930  0.3751383127592050  0.4026153880039516
  0.1528927158527864  0.3750031178985722  0.4883294979104704
  0.0002068324318643  0.3749794497342549  0.4733481312987919
  0.3478925133084871  0.3751625776151002  0.4884409644636847
  0.4027714117978789  0.3751813127578245  0.5708866349449195
  0.2491697435256057  0.3741863218541397  0.5592070862518383
  0.0986159197412846  0.3730199869292221  0.5701179665186302
  0.4056331509463078  0.3750852367879958  0.2322525037078620
  0.2499615914602416  0.3750625219058179  0.1992572215173638
  0.0942707130524099  0.3750948456271246  0.2324123379492420
  0.1549593826842610  0.0001048435441149  0.3157962373647081
  0.9999924957626121  0.0001455649521986  0.3032059867144739
  0.3449438135674967  0.0001025346961754  0.3157726673473391
  0.4009297951419057  0.0000842742130089  0.4020927948566282
  0.2499112089151723  0.0001635068955537  0.3872088846451689
  0.0990392975989494  0.0001372809335862  0.4024431759501184
  0.1526041561995015  0.0001789294401391  0.4877184226216542
  0.9999784831766405  0.0003514169081527  0.4732465278482252
  0.3484226465658011  0.0000640896008690  0.4878206570690509
  0.4073575288785705  0.9998305291528666  0.5695787964675105
  0.2498703279925252  0.0012366716321282  0.5581113339464636
  0.0987869374117807  0.0020297029379535  0.5696482788948458
  0.4056019289496220  0.5000559161287015  0.2322707077423658
  0.2499369229391064  0.5000741596604712  0.1993914599971518
  0.0943028858243977  0.5000836456987017  0.2323841445414629
  0.1549914207814069  0.6251659433242480  0.3158328304745837
  0.0000034101020887  0.6251075949325582  0.3032274092061087
  0.3449717955164999  0.6251265374977635  0.3157456884007246
  0.4008522131877115  0.6252043866611814  0.4021704235567682
  0.2497938764059597  0.6251197878437722  0.3872301442431549
  0.0990487319261035  0.6251797363547880  0.4024483646836998
  0.1523763563501461  0.6251665169647751  0.4877086646293165
  0.0000129897838406  0.6250247441998695  0.4731513068667468
  0.3483629862445810  0.6253186563463373  0.4878647040908675
  0.4025928802334207  0.6255341576449212  0.5703322547765879
  0.2491860121864846  0.6239132315083964  0.5575935752865036
  0.0988290990167613  0.6234110829447417  0.5696236437043396
  0.4056039842362651  0.6250864155406219  0.2322401132238525
  0.2499704397482319  0.6250695251674045  0.1992970388172495
  0.0943034130173075  0.6250963456139402  0.2323818361062422
  0.1549606562291572  0.7501006566404129  0.3157955536788322
  0.9999928281785841  0.7501509827365354  0.3032017583902586
  0.3449428875175116  0.7501013017122844  0.3157710836775962
  0.4009310658761720  0.7500986123908646  0.4020878702631734
  0.2499083881579622  0.7501697201291435  0.3872025918540345
  0.0990391793937562  0.7501736954647953  0.4024356330109455
  0.1526083273081795  0.7503348601330728  0.4876987743771508
  0.9999790248315819  0.7503593114266920  0.4732259008718955
  0.3484206544405524  0.7501999232956962  0.4878090234906338
  0.4073658321953531  0.7500191113656385  0.5695768188882582
  0.2499093855208585  0.7512883069465275  0.5581073134609866
  0.0987634759776910  0.7522945390835076  0.5696297450122785
  0.4055856052285165  0.7500690735290618  0.2322588919567252
  0.2499427973952919  0.7500837921904804  0.1993627982420350
  0.0943083646645562  0.7501044936788404  0.2323605540814384
  0.1549832941011999  0.8751744889595585  0.3158269561466085
  0.9999874163564400  0.8751155976087475  0.3032075237561642
  0.3449800010354025  0.8751317093952906  0.3157512983284860
  0.4008820918149141  0.8751814081186495  0.4021785862832061
  0.2497810988041635  0.8751194392149273  0.3872294728042931
  0.0989967748511447  0.8751670607431521  0.4024456891972576
  0.1523781631163246  0.8750536341072959  0.4876727115212489
  0.9999895543628341  0.8750018679632063  0.4731517338083648
  0.3483874956393933  0.8751973047020911  0.4878450476457843
  0.4026539468647883  0.8752876314500568  0.5702935175846378
  0.2492518162164856  0.8738768102624164  0.5575736385539116
  0.0987594756449184  0.8731038092834069  0.5695789469947101
  0.4055794373467663  0.8750862372144752  0.2322389910954072
  0.2499759141471074  0.8750674707631774  0.1993270229359823
  0.0943070591952591  0.8751058067881559  0.2323776309148968
  0.1549893758010654  0.5000759103826482  0.3158284577369201
  0.0000219783891211  0.5001305894842929  0.3032706821175779
  0.3449224790743983  0.5000821850238566  0.3157811217869906
  0.4008172238819299  0.5000777135996799  0.4021428999999230
  0.2499353954681425  0.5001709782490877  0.3872646297951690
  0.0991652024214460  0.5001418792872272  0.4025007894321391
  0.1526233138373456  0.5006570759953703  0.4877793758386986
  0.0000745234177302  0.5003317732581465  0.4731841168576665
  0.3484723140030610  0.5004710005348443  0.4878804071879586
  0.4075331436632226  0.5003677158576707  0.5697341067980517
  0.2499804227302036  0.5008115814115754  0.5584204276398239
  0.0983532305688470  0.5026291179642186  0.5698115362586123
  0.9056708090927472  0.0001030683284569  0.2323669936334056
  0.7500529102279643  0.0000814669422127  0.1994270740016120
  0.5944404636243661  0.0000613092379069  0.2322703827705723
  0.6550302824910261  0.1251432179862633  0.3157688920151571
  0.4999959947781178  0.1250903237507259  0.3030052485466115
  0.8449938049030408  0.1251828065309013  0.3158315334889821
  0.9009772999195107  0.1251820071689096  0.4024513673783261
  0.7501997912898943  0.1251468170820473  0.3872313372638061
  0.5990902204912842  0.1251883562402085  0.4022036494994765
  0.6515747341868661  0.1252373603377421  0.4878412540175390
  0.4999551984178154  0.1250576951135258  0.4729704030085671
  0.8476006379628558  0.1250772851919990  0.4876543803102749
  0.9012324173868933  0.1230857141498802  0.5695100828801785
  0.7507228909375030  0.1239180307684506  0.5575394367229904
  0.5974029451209404  0.1253425324076929  0.5702485741468593
  0.9056958739934728  0.1251038478564439  0.2323838158981033
  0.7500251754229765  0.1250724854880048  0.1992876097961371
  0.5944078660665681  0.1250928920022929  0.2322542523102129
  0.6550668356627227  0.2501014807773672  0.3158027546303259
  0.4999800289802181  0.2501126439931980  0.3030319253121689
  0.8450206240678853  0.2501051913919383  0.3158068899103910
  0.9010076317163467  0.2501867209287383  0.4024574089332233
  0.7500700668253586  0.2502069126205768  0.3872161339870104
  0.5989767061965949  0.2501362249610040  0.4021371594637699
  0.6515542862913009  0.2501423852225031  0.4878113345498107
  0.4999009131136489  0.2502154490848909  0.4725453599549212
  0.8473996422214398  0.2502975791865438  0.4876788888485564
  0.9010021195060887  0.2521394562342607  0.5696564099670169
  0.7500873020438803  0.2512910843375380  0.5580504172267950
  0.5926753921999648  0.2499513573107990  0.5695864441733960
  0.9056910056685936  0.2501099282088717  0.2323881093931206
  0.7500522106803231  0.2500833004666561  0.1993636190292918
  0.5944125507948499  0.2500703491615042  0.2322937276757671
  0.6550254753369984  0.3751275277184902  0.3157817417201230
  0.4999829143535948  0.3750797093644422  0.3030850552628692
  0.8450046232602730  0.3751699167614788  0.3158413816949945
  0.9011096106269889  0.3751728332607271  0.4024741585834093
  0.7502063304757698  0.3751157859553373  0.3872497850115053
  0.5989734951152457  0.3751718135537772  0.4022455733214301
  0.6515743118332367  0.3752170872247760  0.4878459277760072
  0.4998253175866836  0.3750740344357908  0.4731698083319742
  0.8476771302188624  0.3750620262370319  0.4876508523275405
  0.9010420038530356  0.3730389374228622  0.5696517410892454
  0.7507940455641204  0.3738741069013400  0.5574702379644592
  0.5976511344895741  0.3752985410697462  0.5703810155300033
  0.9057108773800948  0.3750999086260123  0.2324120027427696
  0.7500271603473649  0.3750689811737615  0.1993435044293363
  0.5944032096349332  0.3750868999245256  0.2322797142356450
  0.6550677489741545  0.0001000984166311  0.3157888405806162
  0.5000068912723989  0.0001103530614657  0.3029678411341408
  0.8450209147913554  0.0001019568813234  0.3158013896529042
  0.9009357867405683  0.0001583078763900  0.4024492314801691
  0.7500767044469541  0.0001702789295663  0.3872198355209022
  0.5990712824627309  0.0000946018052161  0.4021121924884881
  0.6515759108799983  0.0001366814715027  0.4878434045865063
  0.4999970771629947  0.0001977315280612  0.4725327974070126
  0.8473809602311775  0.0002667712333206  0.4877192931399037
  0.9011836468166052  0.0021816686845568  0.5696237095203003
  0.7500996957501016  0.0012930071375763  0.5580959723984549
  0.5926149786459121  0.9999398070991816  0.5695959488313775
  0.9056949504646283  0.5000963836824113  0.2323883564999747
  0.7500605298263636  0.5000779464615803  0.1993765748004748
  0.5944157692658720  0.5000634154579799  0.2322905420450070
  0.6550352739673926  0.6251202219758838  0.3157645407686687
  0.5000032794756919  0.6250765608802737  0.3029981370090269
  0.8450007145367877  0.6251657497347765  0.3158283285712358
  0.9009844395793962  0.6251577784631195  0.4024442626700591
  0.7502102888920206  0.6250934855552686  0.3872290810941195
  0.5991028524997333  0.6251645508623511  0.4022044687895061
  0.6516099789611616  0.6251676513785540  0.4878452083517004
  0.4999761444709989  0.6250634743350432  0.4729797736756112
  0.8476298620051139  0.6250392389045487  0.4876641561261366
  0.9012246587055586  0.6231328298523877  0.5695268099552493
  0.7507744028117784  0.6238390585455562  0.5575498479829122
  0.5974316990446766  0.6252549931265392  0.5702562571662000
  0.9057016082370950  0.6251052476200556  0.2323830107841189
  0.7500323173751866  0.6250711716518680  0.1992819817865410
  0.5944135105699786  0.6250876118995734  0.2322505310969589
  0.6550655737419362  0.7501024132726002  0.3157861601713847
  0.5000093052247649  0.7501117079071946  0.3029654933514294
  0.8450238756905364  0.7501043075107958  0.3157975015773005
  0.9009388112485794  0.7501549057668271  0.4024418532921530
  0.7500829667508597  0.7501669602691763  0.3872136236101014
  0.5990791686985233  0.7500825112763536  0.4021075606242306
  0.6515800053315388  0.7501130190032086  0.4878333939453725
  0.4999950288088186  0.7502003867820193  0.4725253477018612
  0.8473806496857250  0.7502660234887486  0.4877062233471605
  0.9011846801286723  0.7521901216241389  0.5696098658671147
  0.7500949558114414  0.7512550004053864  0.5580862506678343
  0.5926091077595999  0.7499023744794471  0.5695772877262044
  0.9056730807601312  0.7501048188471557  0.2323648067307289
  0.7500560260163738  0.7500842369410208  0.1994294555482625
  0.5944402913858653  0.7500694915811792  0.2322685000610534
  0.6550303089952578  0.8751342599462220  0.3157638954688124
  0.5000041841808240  0.8750826103062366  0.3029822746631083
  0.8449952941637520  0.8751772284960566  0.3158318489347138
  0.9009813946069727  0.8751685848207487  0.4024553757651219
  0.7502100172064061  0.8751207384522246  0.3872344467731708
  0.5991060957490717  0.8751776467395942  0.4022023100761771
  0.6516180320325873  0.8751967411583479  0.4878637236063952
  0.5000028814820965  0.8750512425929031  0.4729855657948221
  0.8476027614943220  0.8750584450930532  0.4876806238126363
  0.9012094607645338  0.8731139001986676  0.5695473819777064
  0.7507465273323959  0.8738777847521533  0.5575720236059354
  0.5974094607457232  0.8752908322446871  0.5702763398951944
  0.9056988469733369  0.8751069737615467  0.2323750494116155
  0.7500274921795693  0.8750715549530881  0.1992619984090922
  0.5944128645111562  0.8750898648848633  0.2322417385902540
  0.6550674018005154  0.5000982048336340  0.3158000604107514
  0.4999856775212308  0.5000995313851035  0.3030260011784591
  0.8450251681133096  0.5001001412338724  0.3158061160104140
  0.9010165398276229  0.5001188858002195  0.4024532422586162
  0.7500749881542035  0.5001359515884474  0.3872106476913046
  0.5989951787700960  0.5000540076618307  0.4021319853867240
  0.6515789653872446  0.5000899401765508  0.4878157185983980
  0.4999417559185559  0.5001759870524793  0.4725432560305265
  0.8474153917403058  0.5002439555465514  0.4876689988323690
  0.9010087304878951  0.5022251306187968  0.5696540189454993
  0.7501285171813166  0.5012503970557987  0.5580440319562214
  0.5927914342213398  0.4999128319753297  0.5696308661782297
  0.1645734232798404  0.0622525853634386  0.5403908732622043
  0.1626781356735876  0.3110979482225105  0.5405236578507768
  0.1646442358856675  0.5633381942031690  0.5404178334327199
  0.1646154584709407  0.8127200519642201  0.5403866810193847
  0.8353520188123369  0.0625747024371464  0.5403571088184620
  0.5003699002331103  0.2499631224384871  0.5397887912145265
  0.8352260892657100  0.3126493016903211  0.5402700483292051
  0.5000321874801941  0.9999886961806794  0.5398207809201523
  0.8352974734945136  0.5627446869441073  0.5403136308907079
  0.5000495332393839  0.7499599127967826  0.5398026394843995
  0.8353608826068353  0.8126512395492540  0.5403813412016234
  0.5005288290395598  0.5000438269199492  0.5397934185918274
  0.2496721422352906  0.3797497455595646  0.6195166262333061
 
  0.00000000E+00  0.00000000E+00  0.00000000E+00
  0.00000000E+00  0.00000000E+00  0.00000000E+00
  0.00000000E+00  0.00000000E+00  0.00000000E+00
  0.00000000E+00  0.00000000E+00  0.00000000E+00
  0.00000000E+00  0.00000000E+00  0.00000000E+00
  0.00000000E+00  0.00000000E+00  0.00000000E+00