Mo  S Cu                                
   1.00000000000000     
    15.9214998300000001    0.0000000000000000    0.0000000000000000
    -7.9622501300000001   13.7910221699999997    0.0000000000000000
     0.0000000000000000    0.0000000000000000   13.5821998300000004
   Mo   S    Cu
    25    50     4
Direct
  0.1322611745472813  0.0657609007393845  0.6767310758299843
  0.1329881812485496  0.2659988106719950  0.6777978851840700
  0.1323659036046507  0.4655986399025096  0.6768297101004137
  0.1325798818973851  0.6657902406915213  0.6764607219110559
  0.1325128266021380  0.8658550914452761  0.6764095881030485
  0.3327344816318885  0.0660640325121236  0.6756547069669665
  0.3316006732897208  0.2655153471698526  0.6746779079726934
  0.3312096068843928  0.4647005666317341  0.6748026949341579
  0.3327395169430787  0.6655532508520139  0.6761085689176127
  0.3326683008198259  0.8658326876631506  0.6764095696337762
  0.5328367214421732  0.0656937249759508  0.6766120325848064
  0.5332094868028818  0.2652941830718589  0.6744026444122895
  0.5325093454492347  0.4653448650368901  0.6747284843745476
  0.5337831266538160  0.6669309859784747  0.6753428391828962
  0.5328343762741952  0.8659485378006906  0.6770801861787135
  0.7327686548368604  0.0658104927620045  0.6781633519422741
  0.7324833673421551  0.2658891664911280  0.6774961434306164
  0.7330746952446887  0.4649264429008539  0.6745434474072312
  0.7324984755246717  0.6667701592410822  0.6753466242104338
  0.7321989225790588  0.8650384550285324  0.6784565020531375
  0.9324291334325565  0.0658502205047782  0.6782129192785931
  0.9325374297380691  0.2656474777311217  0.6780485134282657
  0.9326706652641406  0.4655984561692748  0.6767103724820842
  0.9322221923654084  0.6655569186307346  0.6760176532044539
  0.9324795093570870  0.8659802278603195  0.6770763762139964
  0.0652794859879080  0.1327608704070400  0.5626614727417305
  0.0662779364359665  0.1324228380529462  0.7928129607739862
  0.0654914198451024  0.3316930390863959  0.5626286755250902
  0.0662490138193732  0.3329134798416149  0.7928479639691801
  0.0658774129447863  0.5322346941340186  0.5615576951680410
  0.0659850272754312  0.5326188343015374  0.7918326582627770
  0.0659015867289412  0.7325014986953917  0.5613345679326329
  0.0655914901562724  0.7323629146296824  0.7912838016395725
  0.0654942482967229  0.9325210405695969  0.5616226950379257
  0.0660313810890614  0.9324744287922186  0.7918785643695188
  0.2648254754859778  0.1317348587427603  0.5604840774892139
  0.2660057106561524  0.1326215732803959  0.7908514728234550
  0.2645472350893030  0.3317224526435041  0.5602076958081810
  0.2699200407668201  0.3343517136608583  0.7939199514729225
  0.2649881465348827  0.5322578253893582  0.5607057657238173
  0.2659312886600773  0.5321963040417472  0.7910961144321007
  0.2659794260612642  0.7324512712076938  0.5613754790648073
  0.2661130666654685  0.7323631525917591  0.7913116605779820
  0.2658090976985719  0.9322866644420955  0.5611659902610882
  0.2661310184101140  0.9329169062358531  0.7911387806842001
  0.4661469050966716  0.1315406736887397  0.5603094210165054
  0.4660215468085980  0.1325623959781908  0.7907717682317497
  0.4654196741597616  0.3315387016034776  0.5597289971308541
  0.4659241872172970  0.3318273506503431  0.7916649548026555
  0.4655490952161259  0.5330107136438258  0.5605788254177853
  0.4654114520170793  0.5318355163357467  0.7923249518310556
  0.4663641257085231  0.7332836143073038  0.5610514269227167
  0.4660582770522197  0.7323015473569612  0.7913057102461778
  0.4663140057605801  0.9324038009412661  0.5615855407268668
  0.4657957086074518  0.9324787132983303  0.7918514174985347
  0.6668009314434116  0.1325797466026870  0.5624792918300656
  0.6655140905345434  0.1324305348743522  0.7926657364120970
  0.6666186626351802  0.3317358115060927  0.5600246316621025
  0.6640530945927239  0.3341359721813433  0.7931949999783754
  0.6668611195621921  0.5330574234087209  0.5602908316747133
  0.6660545445226234  0.5316464215744574  0.7921218908019299
  0.6665603102495439  0.7336865294196002  0.5607455110877311
  0.6635485303197228  0.7276921755880394  0.7952843001409349
  0.6668065223370689  0.9326500675242642  0.5630170355497910
  0.6654678762502684  0.9321932827399309  0.7931845157480382
  0.8658983924078143  0.1323891351683955  0.5631545384837651
  0.8659366614114035  0.1325447967852611  0.7934652639366533
  0.8657766726111689  0.3317051411238552  0.5624702591190527
  0.8659930252747046  0.3328814063216399  0.7926938477652570
  0.8668301033333137  0.5323442580385773  0.5605137254498231
  0.8657326020569585  0.5322141159628302  0.7909893841782889
  0.8662784688478169  0.7333235220270709  0.5610304032643256
  0.8656341434515653  0.7322807598418919  0.7912726390483726
  0.8652337498860376  0.9327131725902973  0.5630398795691605
  0.8660595684373078  0.9321918134619835  0.7931759004914554
  0.4254022292510626  0.4132793049133383  0.9211847333992580
  0.5850422329335103  0.4142192236283435  0.9215609709034069
  0.5882076735240744  0.5775070255386439  0.9206180165007467
  0.5330355886530995  0.4698066233311806  0.0590939488444917
 
  0.00000000E+00  0.00000000E+00  0.00000000E+00
  0.00000000E+00  0.00000000E+00  0.00000000E+00
  0.00000000E+00  0.00000000E+00  0.00000000E+00
  0.00000000E+00  0.00000000E+00  0.00000000E+00
  0.00000000E+00  0.00000000E+00  0.00000000E+00
  0.00000000E+00  0.00000000E+00  0.00000000E+00
  0.00000000E+00  0.00000000E+00  0.00000000E+00
  0.00000000E+00  0.00000000E+00  0.00000000E+00
  0.00000000E+00  0.00000000E+00  0.00000000E+00
  0.00000000E+00  0.00000000E+00  0.00000000E+00
  0.00000000E+00  0.00000000E+00  0.00000000E+00
  0.00000000E+00  0.00000000E+00  0.00000000E+00
  0.00000000E+00  0.00000000E+00  0.00000000E+00
  0.00000000E+00  0.00000000E+00  0.00000000E+00
  0.00000000E+00  0.00000000E+00  0.00000000E+00
  0.00000000E+00  0.00000000E+00  0.00000000E+00
  0.00000000E+00  0.00000000E+00  0.00000000E+00
  0.00000000E+00  0.00000000E+00  0.00000000E+00
  0.00000000E+00  0.00000000E+00  0.00000000E+00
  0.00000000E+00  0.00000000E+00  0.00000000E+00
  0.00000000E+00  0.00000000E+00  0.00000000E+00
  0.00000000E+00  0.00000000E+00  0.00000000E+00
  0.00000000E+00  0.00000000E+00  0.00000000E+00
  0.00000000E+00  0.00000000E+00  0.00000000E+00
  0.00000000E+00  0.00000000E+00  0.00000000E+00
  0.00000000E+00  0.00000000E+00  0.00000000E+00
  0.00000000E+00  0.00000000E+00  0.00000000E+00
  0.00000000E+00  0.00000000E+00  0.00000000E+00
  0.00000000E+00  0.00000000E+00  0.00000000E+00
  0.00000000E+00  0.00000000E+00  0.00000000E+00
  0.00000000E+00  0.00000000E+00  0.00000000E+00
  0.00000000E+00  0.00000000E+00  0.00000000E+00
  0.00000000E+00  0.00000000E+00  0.00000000E+00
  0.00000000E+00  0.00000000E+00  0.00000000E+00
  0.00000000E+00  0.00000000E+00  0.00000000E+00
  0.00000000E+00  0.00000000E+00  0.00000000E+00
  0.00000000E+00  0.00000000E+00  0.00000000E+00
  0.00000000E+00  0.00000000E+00  0.00000000E+00
  0.00000000E+00  0.00000000E+00  0.00000000E+00
  0.00000000E+00  0.00000000E+00  0.00000000E+00
  0.00000000E+00  0.00000000E+00  0.00000000E+00
  0.00000000E+00  0.00000000E+00  0.00000000E+00
  0.00000000E+00  0.00000000E+00  0.00000000E+00
  0.00000000E+00  0.00000000E+00  0.00000000E+00
  0.00000000E+00  0.00000000E+00  0.00000000E+00
  0.00000000E+00  0.00000000E+00  0.00000000E+00
  0.00000000E+00  0.00000000E+00  0.00000000E+00
  0.00000000E+00  0.00000000E+00  0.00000000E+00
  0.00000000E+00  0.00000000E+00  0.00000000E+00
  0.00000000E+00  0.00000000E+00  0.00000000E+00
  0.00000000E+00  0.00000000E+00  0.00000000E+00
  0.00000000E+00  0.00000000E+00  0.00000000E+00
  0.00000000E+00  0.00000000E+00  0.00000000E+00
  0.00000000E+00  0.00000000E+00  0.00000000E+00
  0.00000000E+00  0.00000000E+00  0.00000000E+00
  0.00000000E+00  0.00000000E+00  0.00000000E+00
  0.00000000E+00  0.00000000E+00  0.00000000E+00
  0.00000000E+00  0.00000000E+00  0.00000000E+00
  0.00000000E+00  0.00000000E+00  0.00000000E+00
  0.00000000E+00  0.00000000E+00  0.00000000E+00
  0.00000000E+00  0.00000000E+00  0.00000000E+00
  0.00000000E+00  0.00000000E+00  0.00000000E+00
  0.00000000E+00  0.00000000E+00  0.00000000E+00
  0.00000000E+00  0.00000000E+00  0.00000000E+00
  0.00000000E+00  0.00000000E+00  0.00000000E+00
  0.00000000E+00  0.00000000E+00  0.00000000E+00
  0.00000000E+00  0.00000000E+00  0.00000000E+00
  0.00000000E+00  0.00000000E+00  0.00000000E+00
  0.00000000E+00  0.00000000E+00  0.00000000E+00
  0.00000000E+00  0.00000000E+00  0.00000000E+00
  0.00000000E+00  0.00000000E+00  0.00000000E+00
  0.00000000E+00  0.00000000E+00  0.00000000E+00
  0.00000000E+00  0.00000000E+00  0.00000000E+00
  0.00000000E+00  0.00000000E+00  0.00000000E+00
  0.00000000E+00  0.00000000E+00  0.00000000E+00
  0.00000000E+00  0.00000000E+00  0.00000000E+00
  0.00000000E+00  0.00000000E+00  0.00000000E+00
  0.00000000E+00  0.00000000E+00  0.00000000E+00
  0.00000000E+00  0.00000000E+00  0.00000000E+00
