Ru Ta  N  Cu                            
   1.00000000000000     
    18.1096308199999996    0.0000000000000000    0.0000000000000000
     0.0000000000000000   23.3551997799999995    0.0000000000000000
     0.0000000000000000    0.0000000000000000   32.4818170799999990
   Ru   Ta   N    Cu
   128   240   240     2
Selective dynamics
Direct
  0.0478301103879671  0.0085233336400950  0.4485736734534786   T   T   T
  0.2832372489711168  0.4936082268723549  0.4348237547584459   T   T   T
  0.4272989190981504  0.0683886403820074  0.4323812940711477   T   T   T
  0.0523345347047170  0.2489589016939114  0.4485300847636152   T   T   T
  0.2836117530599090  0.2448742075268767  0.4333770335439418   T   T   T
  0.4244822313364447  0.3174488202057162  0.4322671453373002   T   T   T
  0.0533941042699711  0.1264704320440679  0.4487720284323022   T   T   T
  0.2827644959992903  0.1268206010329748  0.4341724508744074   T   T   T
  0.4291158453433627  0.1860526820772039  0.4326597361406251   T   T   T
  0.0556329289979633  0.3687557273013063  0.4498395698008071   T   T   T
  0.2758654319042191  0.3768317084906307  0.4396565716579727   T   T   T
  0.4259146797429774  0.4345796285846280  0.4320155319207707   T   T   T
  0.1642113512294485  0.4437061278283603  0.4544435865408642   T   T   T
  0.1760691841942224  0.3027779553549027  0.4618338913609585   T   T   T
  0.1763193183371623  0.1882831618191510  0.4631539613239304   T   T   T
  0.1786340135664963  0.0652217804177200  0.4638458773615677   T   T   T
  0.0681265043214650  0.4381917113761981  0.5094296219774341   T   T   T
  0.3276457131240681  0.4424818074005569  0.4997110135718374   T   T   T
  0.4447830244187689  0.0108990027513149  0.4999635626535004   T   T   T
  0.0661748736648211  0.1889423079605335  0.5124861426064884   T   T   T
  0.3168294280526943  0.1864246796778140  0.4979653296601823   T   T   T
  0.4412088351816998  0.2542479260700223  0.4993223583561973   T   T   T
  0.0666654033884635  0.0678483516453953  0.5130178656796532   T   T   T
  0.3135817020732501  0.0657772834110714  0.4975073280572188   T   T   T
  0.4437298377701595  0.1224811767200891  0.4995711758688940   T   T   T
  0.0701541816766854  0.3068738246198759  0.5133996451194679   T   T   T
  0.3137962744357703  0.3023913101913090  0.4967265474074691   T   T   T
  0.4429568922266234  0.3695595072518705  0.4986342148975701   T   T   T
  0.2094811146575274  0.3807983945219576  0.5117204548744837   T   T   T
  0.1963706037880287  0.2444049244552618  0.5274198660094894   T   T   T
  0.1983250347110823  0.1294824126368822  0.5270632274288027   T   T   T
  0.1990846324138269  0.4885612405910225  0.5207072729558684   T   T   T
  0.0472041983067933  0.5035704704055014  0.4481060234803000   T   T   T
  0.2836651462491847  0.0008402051593156  0.4358261991389794   T   T   T
  0.4271221692253376  0.5655777493446432  0.4333809317923527   T   T   T
  0.0473157846367397  0.7566396002954920  0.4482660675663659   T   T   T
  0.2841248508441299  0.7435104276670466  0.4349395903129820   T   T   T
  0.4248503727167450  0.8167949626618696  0.4333978409511897   T   T   T
  0.0528030204502586  0.6192317166394957  0.4498695265109623   T   T   T
  0.2764997121218511  0.6287626760661571  0.4392999691005869   T   T   T
  0.4261776160560981  0.6827518201401265  0.4338028965025229   T   T   T
  0.0539313091597320  0.8725939091974658  0.4495332624868612   T   T   T
  0.2764235462686315  0.8839679521919896  0.4395372722725014   T   T   T
  0.4251132137536148  0.9348179293626997  0.4328760967347812   T   T   T
  0.1635261337509246  0.9495584553024159  0.4532974223825963   T   T   T
  0.1748974990052158  0.8080519004067631  0.4583806216141876   T   T   T
  0.1623442260565304  0.6945017203523340  0.4524881959760528   T   T   T
  0.1739534902133405  0.5555936932780069  0.4603697399258737   T   T   T
  0.0703983381793365  0.9416301927628630  0.5092780898292697   T   T   T
  0.3300048105594256  0.9458177196608264  0.4996851606890043   T   T   T
  0.4459356594914565  0.5055730403847319  0.4991860864989674   T   T   T
  0.0698036574089319  0.6895136087225384  0.5088671665508561   T   T   T
  0.3294440894024167  0.6911089885542270  0.4997228439124804   T   T   T
  0.4450388230409240  0.7575090884049770  0.5002503036392630   T   T   T
  0.0679238558166066  0.5570072487033215  0.5131206574093251   T   T   T
  0.3179043054652331  0.5562667929946673  0.4959019173120336   T   T   T
  0.4446697475341325  0.6194645054819251  0.4997976855820264   T   T   T
  0.0727075100719854  0.8107464390694411  0.5127581931487063   T   T   T
  0.3177037420339662  0.8087617916048735  0.4951301320464468   T   T   T
  0.4442483335453195  0.8697326981978213  0.4999190672810212   T   T   T
  0.2097938995270679  0.8851739749842952  0.5096753862053892   T   T   T
  0.1986406568676229  0.7408591857876661  0.5183173359583471   T   T   T
  0.2099598502983075  0.6342049880451134  0.5103962040393002   T   T   T
  0.2047633457715452  0.9917723842873866  0.5206610492488963   T   T   T
  0.5473352456140467  0.0061945738680563  0.4483466660082013   T   T   T
  0.7833305525669076  0.4942884044788478  0.4333985721372459   T   T   T
  0.9233822483024666  0.0662912055469907  0.4330519070610196   T   T   T
  0.5471651614290347  0.2582704450215871  0.4491024640574487   T   T   T
  0.7831357893936184  0.2509358869803022  0.4356878057447391   T   T   T
  0.9279621117418353  0.3163255715392865  0.4316098680588375   T   T   T
  0.5549333025697248  0.1219091028736647  0.4497296093987907   T   T   T
  0.7750133164701597  0.1342811660497246  0.4396219642674626   T   T   T
  0.9237693480640675  0.1858557325837240  0.4318147592097725   T   T   T
  0.5537505009704859  0.3738761675999308  0.4489209896316199   T   T   T
  0.7828730613949478  0.3758715266740137  0.4340898618165932   T   T   T
  0.9285545709916407  0.4326200394510584  0.4325548214463280   T   T   T
  0.6773890277262856  0.4369847745681015  0.4644943443444998   T   T   T
  0.6778218636312715  0.3141548428250255  0.4629536639292153   T   T   T
  0.6629128379129773  0.1995458928121899  0.4538492528833916   T   T   T
  0.6752702219115138  0.0574463839936670  0.4592375557393351   T   T   T
  0.5634892453208366  0.4368861509740229  0.5117708504659993   T   T   T
  0.8175824835013178  0.4347903177522804  0.4975080891334976   T   T   T
  0.9445857549839105  0.0090119361084771  0.5002087993561034   T   T   T
  0.5681548909763441  0.1911561145637864  0.5092560761538524   T   T   T
  0.8274520492226350  0.1961312426652096  0.4997671106548379   T   T   T
  0.9446572556442212  0.2578780968865660  0.4986256856253462   T   T   T
  0.5726537279713503  0.0610715149323503  0.5131024474180688   T   T   T
  0.8159993696065007  0.0591767436191578  0.4954499081266667   T   T   T
  0.9427294621224722  0.1218845945168271  0.4988351980992228   T   T   T
  0.5684147007450984  0.3158560002589932  0.5137896652018857   T   T   T
  0.8126218253191432  0.3158300068089221  0.4974866423274082   T   T   T
  0.9439579626991017  0.3711364174700656  0.4990130649308518   T   T   T
  0.6975125604605134  0.3767134348981543  0.5273549146297493   T   T   T
  0.7000099594709024  0.2431010330046544  0.5204630505214066   T   T   T
  0.7082169173135833  0.1351714762911935  0.5104420787095887   T   T   T
  0.7000782747790364  0.4937767603639599  0.5283256462128452   T   T   T
  0.5531987595604876  0.4993239555835222  0.4482653618693655   T   T   T
  0.7837817402300273  0.9941582852634795  0.4351132038234967   T   T   T
  0.9251803662820115  0.5669426065854265  0.4321746708847912   T   T   T
  0.5474931874491448  0.7539582238353347  0.4479822282534699   T   T   T
  0.7844200551586639  0.7416737759135670  0.4348047196481411   T   T   T
  0.9257634497863022  0.8176027918845457  0.4332700492760869   T   T   T
  0.5554399667173492  0.6171833899249791  0.4502846449054037   T   T   T
  0.7765920136186516  0.6257408475825925  0.4399650746123780   T   T   T
  0.9257577285916540  0.6840861315643918  0.4334968248019742   T   T   T
  0.5529723906329344  0.8702993992142702  0.4495154972330613   T   T   T
  0.7772364495990256  0.8795146695703410  0.4396176091462589   T   T   T
  0.9260653844846479  0.9369199050238074  0.4328772676367926   T   T   T
  0.6628801760708511  0.9444954202781890  0.4532502902466260   T   T   T
  0.6744511991304082  0.8055798312206960  0.4585900577283513   T   T   T
  0.6639684164373578  0.6931162326948147  0.4536694651382593   T   T   T
  0.6770478400781843  0.5526285209105481  0.4621975893173487   T   T   T
  0.5689340817902229  0.9410459320917308  0.5091569698885458   T   T   T
  0.8289936678324412  0.9432300836123070  0.4999904491499025   T   T   T
  0.9412019148662263  0.5021747254991217  0.4987262906448397   T   T   T
  0.5703979144347474  0.6884747796031421  0.5092768719662510   T   T   T
  0.8296847762908676  0.6901063473576670  0.4998426157463426   T   T   T
  0.9454506544062666  0.7585257613669139  0.5003917416889134   T   T   T
  0.5704420224646555  0.5551012666504657  0.5139245675697315   T   T   T
  0.8129102503046411  0.5507297491592301  0.4974322055865131   T   T   T
  0.9423201505865030  0.6174314404114339  0.4994139486226338   T   T   T
  0.5722979187956961  0.8084174876451983  0.5125087417328017   T   T   T
  0.8176333034257237  0.8050760123163487  0.4957088719281335   T   T   T
  0.9441819270001417  0.8710487683943186  0.4996547540031008   T   T   T
  0.7100680063351652  0.8819408101374113  0.5102530513684890   T   T   T
  0.6987768005499864  0.7394837752542026  0.5197847030424115   T   T   T
  0.7096921988282062  0.6318720971313865  0.5115664709353592   T   T   T
  0.7002053237098390  0.9889325940004715  0.5194117376618695   T   T   T
  0.0002112439569970  0.0001379294448540  0.0373463921698374   F   F   F
  0.3342257926207992  0.0625994154237475  0.0423987318545187   F   F   F
  0.1660626269271432  0.0626581163633873  0.0424061668450690   F   F   F
  0.2502202084754828  0.1252178855354416  0.1130358333669221   F   F   F
  0.0828588434925734  0.0627073156657261  0.1186643004524512   F   F   F
  0.4176999472490408  0.0627059576615423  0.1186271515872050   F   F   F
  0.0006872676387094  0.1252024767341929  0.1991884766303005   T   T   T
  0.3326187716892585  0.0627346007747481  0.1976785938740062   T   T   T
  0.1677440857368540  0.0627098951776432  0.1977758011358612   T   T   T
  0.2488888249224666  0.1252446787577109  0.2785976377226366   T   T   T
  0.0838456858768844  0.0626818403412854  0.2790312032292305   T   T   T
  0.4176171243153361  0.0627258490398929  0.2781072467290882   T   T   T
  0.0017572611643499  0.1253989588039942  0.3593378146651640   T   T   T
  0.3325508944839867  0.0631396780623727  0.3575087048016414   T   T   T
  0.1647772277269155  0.0627435485113274  0.3616003235610587   T   T   T
  0.0001993579241457  0.1251124241418680  0.0373673238785415   F   F   F
  0.3342248374093941  0.1876083518869578  0.0424180467130881   F   F   F
  0.1660568042752573  0.1876606967942038  0.0424146876443743   F   F   F
  0.2502332970886698  0.2502158349488468  0.1130222857832806   F   F   F
  0.0828712378028129  0.1877169521294775  0.1186661494224168   F   F   F
  0.4176644359050954  0.1877065482458207  0.1186607550294028   F   F   F
  0.0007636852321772  0.2501968474227440  0.1991548679728835   T   T   T
  0.3326406082170807  0.1877339864691628  0.1976496012887778   T   T   T
  0.1677756601449421  0.1877167515774596  0.1976928743026249   T   T   T
  0.2488932736918301  0.2502887558616232  0.2785549067824161   T   T   T
  0.0837058745572425  0.1877066733690077  0.2788767916562855   T   T   T
  0.4175926396601157  0.1878729424671186  0.2779121110980497   T   T   T
  0.0003914824347944  0.2503202491050239  0.3596984556645870   T   T   T
  0.3328101884253897  0.1881379614399737  0.3567580134857077   T   T   T
  0.1642429798049418  0.1878032654153938  0.3610683863848174   T   T   T
  0.0002122078768210  0.2501392066830732  0.0373456541597363   F   F   F
  0.3342232035055162  0.3125992309382539  0.0423967923009556   F   F   F
  0.1660586660861370  0.3126582257413517  0.0424062846115874   F   F   F
  0.2502173161139041  0.3752178897059935  0.1130360339591618   F   F   F
  0.0828568376004242  0.3127060748111887  0.1186645141734175   F   F   F
  0.4176984722473520  0.3127078846600213  0.1186298408889357   F   F   F
  0.0009257466815224  0.3752424765012944  0.1991215134397346   T   T   T
  0.3325506185521507  0.3127717081028580  0.1976396856144874   T   T   T
  0.1677849124790075  0.3127377317935696  0.1977077597948746   T   T   T
  0.2488059685647046  0.3752643815525200  0.2786258708230326   T   T   T
  0.0838521591116346  0.3126842288587844  0.2789698382412334   T   T   T
  0.4171888528289524  0.3128452307273474  0.2780765776490650   T   T   T
  0.0023188216243799  0.3754434981658829  0.3592744525103527   T   T   T
  0.3321813376452070  0.3129083941698869  0.3577321233489318   T   T   T
  0.1642536299947470  0.3128102170712685  0.3615188370936560   T   T   T
  0.0001993469486266  0.3751125453592721  0.0373668329409540   F   F   F
  0.3342265491584655  0.4376091382735581  0.0424193945147948   F   F   F
  0.1660559599480962  0.4376604044393986  0.0424156771225839   F   F   F
  0.2502327017382058  0.0002164962773534  0.1130220722767348   F   F   F
  0.0828707196508915  0.4377156099338606  0.1186668391713255   F   F   F
  0.4176643738564039  0.4377089816271393  0.1186614737223408   F   F   F
  0.0007448674486768  0.0002156926881196  0.1992147876284419   T   T   T
  0.3325716073304490  0.4377897854352493  0.1976404354679811   T   T   T
  0.1678414969591218  0.4377689300266973  0.1977111708661088   T   T   T
  0.2491409813908170  0.0002821306543192  0.2787872848897473   T   T   T
  0.0837530685032333  0.4377737447772920  0.2789330544878158   T   T   T
  0.4170751418783921  0.4378603457124657  0.2781342536997905   T   T   T
  0.0020070945460903  0.0001490101582700  0.3601608301656332   T   T   T
  0.3323500500882974  0.4380508005092924  0.3576690563506946   T   T   T
  0.1646191322301291  0.4374280138888270  0.3606616557857804   T   T   T
  0.0002112439569970  0.5001379294448540  0.0373463921698374   F   F   F
  0.3342257926207992  0.5625994154237475  0.0423987318545187   F   F   F
  0.1660626269271432  0.5626581163633873  0.0424061668450690   F   F   F
  0.2502202084754828  0.6252178855354416  0.1130358333669221   F   F   F
  0.0828588434925734  0.5627073156657261  0.1186643004524512   F   F   F
  0.4176999472490408  0.5627059576615423  0.1186271515872050   F   F   F
  0.0007963490486935  0.6252711980133008  0.1991969387556162   T   T   T
  0.3325762213107792  0.5628198916139793  0.1977526970926235   T   T   T
  0.1678244809330610  0.5627845326440999  0.1977833059633537   T   T   T
  0.2491940558563010  0.6252235861806048  0.2788519967590058   T   T   T
  0.0839330398682927  0.5627309800236564  0.2790649886929905   T   T   T
  0.4170546686922468  0.5628440815497667  0.2783231158875868   T   T   T
  0.0023926525547935  0.6254640339188551  0.3594400436472995   T   T   T
  0.3324409775088859  0.5627765639823339  0.3584941581764023   T   T   T
  0.1642516972263394  0.5625142812153662  0.3617252358591027   T   T   T
  0.0001993579241457  0.6251124241418680  0.0373673238785415   F   F   F
  0.3342248374093941  0.6876083518869507  0.0424180467130881   F   F   F
  0.1660568042752573  0.6876606967941967  0.0424146876443743   F   F   F
  0.2502332970886698  0.7502158349488468  0.1130222857832806   F   F   F
  0.0828712378028129  0.6877169521294704  0.1186661494224168   F   F   F
  0.4176644359050954  0.6877065482458136  0.1186607550294028   F   F   F
  0.0007240133994840  0.7503079824654165  0.1992233869179245   T   T   T
  0.3326010053475844  0.6877932443284973  0.1977155063012428   T   T   T
  0.1678452531335823  0.6877718615674216  0.1977695791163989   T   T   T
  0.2492628854994823  0.7502480561881419  0.2789147296042240   T   T   T
  0.0838815813926008  0.6877883413690619  0.2790806758748353   T   T   T
  0.4172449421563814  0.6878565553054160  0.2783317007656785   T   T   T
  0.0006551400120212  0.7501580629904139  0.3603792043719682   T   T   T
  0.3330978582735667  0.6879702534774589  0.3580602975385739   T   T   T
  0.1652894963361505  0.6874422776058380  0.3605973731519572   T   T   T
  0.0002122078768210  0.7501392066830732  0.0373456541597363   F   F   F
  0.3342232035055162  0.8125992309382539  0.0423967923009556   F   F   F
  0.1660586660861370  0.8126582257413517  0.0424062846115874   F   F   F
  0.2502173161139041  0.8752178897059935  0.1130360339591618   F   F   F
  0.0828568376004242  0.8127060748111887  0.1186645141734175   F   F   F
  0.4176984722473520  0.8127078846600213  0.1186298408889357   F   F   F
  0.0007679926133434  0.8752309347756976  0.1992250528953547   T   T   T
  0.3326190896926869  0.8128027535358217  0.1977756232936706   T   T   T
  0.1677854670047711  0.8127625561784305  0.1978383326648481   T   T   T
  0.2492129915904499  0.8752842163724922  0.2788946004581403   T   T   T
  0.0840749157959349  0.8126926013401718  0.2791439768361174   T   T   T
  0.4172305295641729  0.8128238608917396  0.2784405771299536   T   T   T
  0.0023956039362546  0.8756161487086568  0.3595520020924795   T   T   T
  0.3327213657362001  0.8129499195177590  0.3586042126270229   T   T   T
  0.1648811435469983  0.8128215045359825  0.3618459443242277   T   T   T
  0.0001993469486266  0.8751125453592721  0.0373668329409540   F   F   F
  0.3342265491584655  0.9376091382735510  0.0424193945147948   F   F   F
  0.1660559599480962  0.9376604044393915  0.0424156771225839   F   F   F
  0.2502327017382058  0.5002164962773534  0.1130220722767348   F   F   F
  0.0828707196508915  0.9377156099338535  0.1186668391713255   F   F   F
  0.4176643738564039  0.9377089816271322  0.1186614737223408   F   F   F
  0.0008435846054203  0.5003385315322262  0.1991464858948773   T   T   T
  0.3326880395574562  0.9377456019937086  0.1976989230168923   T   T   T
  0.1677595301566548  0.9377267838041417  0.1977969162033985   T   T   T
  0.2489758215264177  0.5002825477496333  0.2787544276638242   T   T   T
  0.0840009704726352  0.9377777383498652  0.2791475498875598   T   T   T
  0.4173932579384437  0.9377713110626763  0.2783533678439344   T   T   T
  0.9996958911435849  0.4999980729691291  0.3602050114111608   T   T   T
  0.3332122678972303  0.9383353234973769  0.3580563936245694   T   T   T
  0.1655291920058161  0.9376221540398192  0.3608024187643169   T   T   T
  0.5002112439569970  0.0001379294448540  0.0373463921698374   F   F   F
  0.8342257926207992  0.0625994154237475  0.0423987318545187   F   F   F
  0.6660626269271432  0.0626581163633873  0.0424061668450690   F   F   F
  0.7502202084754828  0.1252178855354416  0.1130358333669221   F   F   F
  0.5828588434925734  0.0627073156657261  0.1186643004524512   F   F   F
  0.9176999472490408  0.0627059576615423  0.1186271515872050   F   F   F
  0.5009835379656933  0.1252149626642156  0.1991608943075235   T   T   T
  0.8325952478899934  0.0627458422085407  0.1977219693347959   T   T   T
  0.6677598717793265  0.0627498966381493  0.1978285741516169   T   T   T
  0.7488876875894588  0.1253018905489033  0.2787497900070313   T   T   T
  0.5840766668017429  0.0627318492288229  0.2792050828804155   T   T   T
  0.9170623955571732  0.0627510926496545  0.2782511269191150   T   T   T
  0.5020994881660114  0.1259308084532122  0.3595756726858365   T   T   T
  0.8326818434385126  0.0629708021369420  0.3583193322953587   T   T   T
  0.6646984896749454  0.0629915025637850  0.3619151624734620   T   T   T
  0.5001993579241457  0.1251124241418680  0.0373673238785415   F   F   F
  0.8342248374093941  0.1876083518869578  0.0424180467130881   F   F   F
  0.6660568042752573  0.1876606967942038  0.0424146876443743   F   F   F
  0.7502332970886698  0.2502158349488468  0.1130222857832806   F   F   F
  0.5828712378028129  0.1877169521294775  0.1186661494224168   F   F   F
  0.9176644359050954  0.1877065482458207  0.1186607550294028   F   F   F
  0.5008140019603573  0.2502828735476785  0.1991478873606516   T   T   T
  0.8326028458705559  0.1877315602594478  0.1976165961540005   T   T   T
  0.6677570646576670  0.1877413420567300  0.1977548587172661   T   T   T
  0.7488426866022382  0.2502762098373776  0.2786207187576147   T   T   T
  0.5838055420255921  0.1878522650945872  0.2791320127897162   T   T   T
  0.9171995371688327  0.1876760529957408  0.2781447921294024   T   T   T
  0.5007856295228907  0.2502619807528698  0.3603766888007435   T   T   T
  0.8326852009534058  0.1881838683787206  0.3578187898166884   T   T   T
  0.6650217485893342  0.1877876607396852  0.3607502685007771   T   T   T
  0.5002122078768210  0.2501392066830732  0.0373456541597363   F   F   F
  0.8342232035055162  0.3125992309382539  0.0423967923009556   F   F   F
  0.6660586660861370  0.3126582257413517  0.0424062846115874   F   F   F
  0.7502173161139041  0.3752178897059935  0.1130360339591618   F   F   F
  0.5828568376004242  0.3127060748111887  0.1186645141734175   F   F   F
  0.9176984722473520  0.3127078846600213  0.1186298408889357   F   F   F
  0.5006288107001760  0.3752963773005357  0.1991575034181433   T   T   T
  0.8325302763662559  0.3127601659517678  0.1976388309125004   T   T   T
  0.6676620877441568  0.3127371073046968  0.1977443978206403   T   T   T
  0.7487477549221584  0.3752338056999877  0.2784651671042752   T   T   T
  0.5836857874189986  0.3127798136333795  0.2789667067648657   T   T   T
  0.9174304453269537  0.3127087228709501  0.2778971332272362   T   T   T
  0.5018020454284265  0.3753847808442465  0.3591666333842024   T   T   T
  0.8320854665836438  0.3129495721716563  0.3571539080733667   T   T   T
  0.6641897276084404  0.3126940183560115  0.3614241311546508   T   T   T
  0.5001993469486266  0.3751125453592721  0.0373668329409540   F   F   F
  0.8342265491584655  0.4376091382735581  0.0424193945147948   F   F   F
  0.6660559599480962  0.4376604044393986  0.0424156771225839   F   F   F
  0.7502327017382058  0.0002164962773534  0.1130220722767348   F   F   F
  0.5828707196508915  0.4377156099338606  0.1186668391713255   F   F   F
  0.9176643738564039  0.4377089816271393  0.1186614737223408   F   F   F
  0.5008512611057013  0.0002222166095981  0.1992031886601642   T   T   T
  0.8325920337461039  0.4377959230630137  0.1976282925954814   T   T   T
  0.6676944053977751  0.4377719366590204  0.1977051899014199   T   T   T
  0.7491048380571201  0.0002612409486653  0.2787989748819307   T   T   T
  0.5835867138539076  0.4378391009535176  0.2788812023331398   T   T   T
  0.9175367404473130  0.4378646778292232  0.2778595992768914   T   T   T
  0.5007285825062160  0.0004379254993410  0.3603264397325728   T   T   T
  0.8326205106128652  0.4378640068024357  0.3567225196655850   T   T   T
  0.6643925915142015  0.4377816756091620  0.3609567327725036   T   T   T
  0.5002112439569970  0.5001379294448540  0.0373463921698374   F   F   F
  0.8342257926207992  0.5625994154237475  0.0423987318545187   F   F   F
  0.6660626269271432  0.5626581163633873  0.0424061668450690   F   F   F
  0.7502202084754828  0.6252178855354416  0.1130358333669221   F   F   F
  0.5828588434925734  0.5627073156657261  0.1186643004524512   F   F   F
  0.9176999472490408  0.5627059576615423  0.1186271515872050   F   F   F
  0.5006762757604869  0.6252845549600674  0.1992247765248253   T   T   T
  0.8325288264431375  0.5628267337537910  0.1976628581964801   T   T   T
  0.6676948634469789  0.5627976099752676  0.1977674636133991   T   T   T
  0.7489724314547385  0.6252791296048154  0.2788093552023104   T   T   T
  0.5838171154930265  0.5627535265937641  0.2790506725225737   T   T   T
  0.9173330002241298  0.5628707362021255  0.2781447401619116   T   T   T
  0.5025002509975625  0.6253222651677547  0.3596612763823386   T   T   T
  0.8323469013337237  0.5628414790389713  0.3578582673190704   T   T   T
  0.6644536980014211  0.5627237406367703  0.3616611899817544   T   T   T
  0.5001993579241457  0.6251124241418680  0.0373673238785415   F   F   F
  0.8342248374093941  0.6876083518869507  0.0424180467130881   F   F   F
  0.6660568042752573  0.6876606967941967  0.0424146876443743   F   F   F
  0.7502332970886698  0.7502158349488468  0.1130222857832806   F   F   F
  0.5828712378028129  0.6877169521294704  0.1186661494224168   F   F   F
  0.9176644359050954  0.6877065482458136  0.1186607550294028   F   F   F
  0.5006678065254969  0.7502889038482211  0.1992444582502199   T   T   T
  0.8326071975592462  0.6878049159278475  0.1977110063598358   T   T   T
  0.6677600737532174  0.6877789573363814  0.1977911105840632   T   T   T
  0.7491010035010988  0.7502959704954991  0.2789108476242821   T   T   T
  0.5837715852133664  0.6877869402531550  0.2790744246528374   T   T   T
  0.9172809556285008  0.6878645984538373  0.2782827094573257   T   T   T
  0.5001437600694769  0.7501121301407954  0.3604137051843667   T   T   T
  0.8328857519732448  0.6881693910029110  0.3578660935275012   T   T   T
  0.6651544076170447  0.6873920175284250  0.3608054244249282   T   T   T
  0.5002122078768210  0.7501392066830732  0.0373456541597363   F   F   F
  0.8342232035055162  0.8125992309382539  0.0423967923009556   F   F   F
  0.6660586660861370  0.8126582257413517  0.0424062846115874   F   F   F
  0.7502173161139041  0.8752178897059935  0.1130360339591618   F   F   F
  0.5828568376004242  0.8127060748111887  0.1186645141734175   F   F   F
  0.9176984722473520  0.8127078846600213  0.1186298408889357   F   F   F
  0.5007435478176798  0.8752335430974520  0.1992404315548172   T   T   T
  0.8325528658573568  0.8127682282689247  0.1977389537936663   T   T   T
  0.6677615149712651  0.8127506667333726  0.1978399281263619   T   T   T
  0.7491484831233763  0.8752930452163276  0.2788849823131028   T   T   T
  0.5840140935671081  0.8127107573412699  0.2791627603226320   T   T   T
  0.9172484025400363  0.8127884168528456  0.2783952950239564   T   T   T
  0.5025977306063421  0.8756592658294045  0.3595911705894998   T   T   T
  0.8328058916507901  0.8129978024923739  0.3586378166320178   T   T   T
  0.6648014562360638  0.8126603682207173  0.3617583424545301   T   T   T
  0.5001993469486266  0.8751125453592721  0.0373668329409540   F   F   F
  0.8342265491584655  0.9376091382735510  0.0424193945147948   F   F   F
  0.6660559599480962  0.9376604044393915  0.0424156771225839   F   F   F
  0.7502327017382058  0.5002164962773534  0.1130220722767348   F   F   F
  0.5828707196508915  0.9377156099338535  0.1186668391713255   F   F   F
  0.9176643738564039  0.9377089816271322  0.1186614737223408   F   F   F
  0.5006089910635234  0.5003107877442274  0.1991850879928376   T   T   T
  0.8326231757248539  0.9377373489359310  0.1976936765928211   T   T   T
  0.6678316612905184  0.9377461138388451  0.1977782656255598   T   T   T
  0.7488727452112760  0.5003234858416546  0.2786213216489977   T   T   T
  0.5839098302057214  0.9377792809566815  0.2790951966299268   T   T   T
  0.9173325090644264  0.9377947829147045  0.2782536857918248   T   T   T
  0.5001254540535034  0.5002707001066290  0.3600067131331038   T   T   T
  0.8332920681598976  0.9381428145877513  0.3578705081000552   T   T   T
  0.6656026785729294  0.9376098262623638  0.3606950866870153   T   T   T
  0.4059663601692378  0.0001462046730154  0.0700885167279779   F   F   F
  0.2501335306342440  0.0001313415364734  0.0393543396202674   F   F   F
  0.0944334762619548  0.0001738881651363  0.0701382961740649   F   F   F
  0.1549947328934422  0.1252546000618224  0.1485264565477067   F   F   F
  0.0003044512358912  0.1252329358346600  0.1366467142038701   F   F   F
  0.3454752489896649  0.1252525403775380  0.1484231789215542   F   F   F
  0.4016649693748829  0.1252296359623420  0.2291169554658493   T   T   T
  0.2501198907759756  0.1252328696298386  0.2153220652020146   T   T   T
  0.0997795265771451  0.1251625598700838  0.2298895419403458   T   T   T
  0.1509307387040860  0.1252146031292395  0.3110931767348754   T   T   T
  0.0003549466083329  0.1251814867343165  0.2953426082820017   T   T   T
  0.3482570992669052  0.1251983612106144  0.3081379507403680   T   T   T
  0.4015709918714681  0.1265181418890158  0.3856383514455167   T   T   T
  0.2505081050336250  0.1254503443593838  0.3736761295139774   T   T   T
  0.0987552910531301  0.1253126120818102  0.3901419294451509   T   T   T
  0.4059504510021199  0.1251528418496832  0.0701137697057277   F   F   F
  0.2501484584581348  0.1251294756807368  0.0393952583647277   F   F   F
  0.0944439778587522  0.1251741239827453  0.0701534912843229   F   F   F
  0.1549877250862224  0.2502614546838657  0.1485179043880294   F   F   F
  0.0002974674814880  0.2502100279361912  0.1366324893501272   F   F   F
  0.3454803331882346  0.2503006024972620  0.1484139149937889   F   F   F
  0.4015237753107876  0.2503255201096566  0.2291250720499962   T   T   T
  0.2501106556408338  0.2502104360969015  0.2152723722051398   T   T   T
  0.0998272563346126  0.2502069384056170  0.2298377465462242   T   T   T
  0.1509700276305639  0.2501333718369131  0.3109444342410202   T   T   T
  0.0001899583170462  0.2501603230703402  0.2955057001081601   T   T   T
  0.3481148631973054  0.2507269157028861  0.3084232597113807   T   T   T
  0.4004596715832123  0.2506205564848704  0.3877978114759833   T   T   T
  0.2501987869519789  0.2500724875589518  0.3735610866365715   T   T   T
  0.0980980605204706  0.2500607603559646  0.3896855072521964   T   T   T
  0.4059628358367533  0.2501443164155361  0.0700852243531500   F   F   F
  0.2501309939231433  0.2501318371526651  0.0393519425499136   F   F   F
  0.0944333317481849  0.2501740935465691  0.0701386596889861   F   F   F
  0.1549942609652177  0.3752545226085218  0.1485264414225469   F   F   F
  0.0003019335461047  0.3752315664304433  0.1366474736751755   F   F   F
  0.3454762333887373  0.3752493953370220  0.1484229723695165   F   F   F
  0.4012895322663758  0.3752898251404087  0.2291986279343156   T   T   T
  0.2501011149754021  0.3752722772020061  0.2153000344231644   T   T   T