Ta  N Ru                                
   1.00000000000000     
    18.1096308199999996    0.0000000000000000    0.0000000000000000
     0.0000000000000000   23.3551997799999995    0.0000000000000000
     0.0000000000000000    0.0000000000000000   30.4818171199999988
   Ta   N    Ru
   216   240    24
Direct
 -0.0017079362296789  0.0001445861623570  0.1959847326113272
  0.3333206971531742  0.0622851684071507  0.2014479984176157
  0.1660693616651789  0.0622263710229524  0.2015229973169157
  0.2496924827513626  0.1255637981705179  0.2769798786104118
  0.0819592808634120  0.0628540180374041  0.2824169414191079
  0.4174131798134243  0.0629825335226312  0.2823921037264214
 -0.0003206007663440  0.1255617961063792  0.3680600233435909
  0.3318905641891707  0.0632388042992092  0.3667349210765545
  0.1674285478940694  0.0630345672029723  0.3665379187767704
  0.2490294311142846  0.1251851940198518  0.4531639849784766
  0.0824959872730638  0.0622561523461577  0.4524274805544106
  0.4155686778785151  0.0641814935388142  0.4527380770093519
  0.0000764349120894  0.1251344861151415  0.1954825432245656
  0.3331902752257824  0.1885366468766498  0.2013718918925203
  0.1661588527097318  0.1885258141323531  0.2015505008745277
  0.2496235743371711  0.2505540377663884  0.2765823174930069
  0.0820882372010253  0.1880212501427712  0.2823176958606938
  0.4172206699852162  0.1880759903795562  0.2821238603921227
  0.0000949463560078  0.2503042337734023  0.3680381857592091
  0.3318303430963016  0.1882212979242893  0.3662922117668787
  0.1671322569100215  0.1879440231907079  0.3664489455991335
  0.2489443365042246  0.2502947343675917  0.4528759338010073
  0.0842259181246232  0.1875315449575902  0.4528198111401526
  0.4155288590185148  0.1882046013275158  0.4521367822967673
  0.3284133145849271  0.1920906842519469  0.5406858052294228
 -0.0011087176854844  0.2504459564510224  0.1953615813459748
  0.3333378036326516  0.3125897928556556  0.2014454186269311
  0.1658938449365334  0.3126219597474189  0.2015566248408143
  0.2496806892799152  0.3757514987530013  0.2774984359309058
  0.0822018970710434  0.3131190946064001  0.2824607318646561
  0.4173182874089676  0.3131858985658946  0.2823527184315311
  0.0004757759746139  0.3754974016451207  0.3685471052452703
  0.3319952635843639  0.3132351845222997  0.3666963460558629
  0.1676356532994706  0.3131549190187985  0.3669523922347069
  0.2497012616824069  0.3742937767716628  0.4541331745315139
  0.0836417609294968  0.3130876671338607  0.4526837936381571
  0.4146556502130658  0.3125504191482878  0.4531713131905128
  0.0004799846747124  0.3758670902976279  0.1956263315592754
  0.3333605797404532  0.4388414229776338  0.2015401632191227
  0.1657797492700916  0.4388495357844922  0.2017790887539687
  0.2499083906489692  0.0004330757415960  0.2766225807192319
  0.0823829524997699  0.4381201732501889  0.2831239586502374
  0.4173147906725980  0.4381880798304857  0.2825425865362378
 -0.0006812938786332  0.0003027803260752  0.3685755113284527
  0.3321641025674645  0.4383159888599181  0.3670631629509036
  0.1674750730168052  0.4381865865977511  0.3678190883446356
  0.2505306099416499  0.0013460019114522  0.4536051421993436
  0.0845165772085395  0.4377295100717354  0.4548184008708526
  0.4146032349503478  0.4387685944025275  0.4542207242010327
 -0.0010516736809715  0.5006629531303772  0.1961048748562829
  0.3333003712159446  0.5626013142233446  0.2017856729364584
  0.1658082922712991  0.5625068564566484  0.2019662059304133
  0.2498885974423005  0.6252997130836615  0.2774853392245558
  0.0825098533271736  0.5630200277251194  0.2831613548044120
  0.4172853712957745  0.5631473234883645  0.2826961134189113
  0.0002100235018541  0.6250901163677179  0.3690660488336838
  0.3321396838133311  0.5631966986260722  0.3672663904457758
  0.1674115096091860  0.5630240840438986  0.3678850172371638
  0.2511743238489693  0.6272701889750418  0.4533158965369570
  0.0863731859027436  0.5639318825384715  0.4558080372828930
  0.4169887481759426  0.5637843612504914  0.4527076821707035
  0.0002426778719113  0.6255539622952793  0.1963198319011177
  0.3334809456443481  0.6886614128164402  0.2018563545597724
  0.1657893204561731  0.6886842212755786  0.2019690531257689
  0.2500419271885707  0.7506422879038519  0.2767940907335922
  0.0823024836523959  0.6880402314190003  0.2830976583720436
  0.4173931988887396  0.6881513665799707  0.2827994216611966
  0.9994429129990502  0.7506178335314073  0.3691222438292207
  0.3325936452317151  0.6883443537566891  0.3672204108571605
  0.1677005263749704  0.6882300862482715  0.3669725138001851
  0.2507369044146106  0.7500992965888100  0.4534098550702594
  0.0836025190141211  0.6882007186543934  0.4521480853340221
  0.4171650345742385  0.6888122213996034  0.4533307141927057
  0.3391607063300844  0.6905836053329724  0.5406047061230013
 -0.0018227179052756  0.7505735601519495  0.1965381805516630
  0.3336971867128876  0.8122894169424882  0.2016834174221890
  0.1656286038974955  0.8123454665201154  0.2018884689369720
  0.2499898838228278  0.8756622075187114  0.2773710221307790
  0.0822136872077501  0.8130070099201515  0.2829956675165470
  0.4174236128730723  0.8130922703377914  0.2827169377436968
  0.9990013488141805  0.8754357953116034  0.3693223453103299
  0.3325374640150243  0.8133509056924069  0.3670539896095582
  0.1673822699247665  0.8132022176942263  0.3669477372786365
  0.2505046912293113  0.8775248120592408  0.4535647207782290
  0.0849450603809136  0.8133118895857295  0.4533866769654236
  0.4154539199269284  0.8138466621146262  0.4535459204130021
 -0.0003219153582316  0.8752989320292215  0.1963939988643760
  0.3336308153402287  0.9384710802807582  0.2015550130848063
  0.1658168835706347  0.9383908742258036  0.2017329318380325
  0.2495953404566890  0.5005324420392880  0.2772261655421787
  0.0819875343400516  0.9379125948065394  0.2828611414903903
  0.4173435623858833  0.9380498077401731  0.2825492805401180
  0.0005393649375768  0.5002430864509828  0.3694074588074067
  0.3323263439892598  0.9383685653439444  0.3671148524302710
  0.1675665937569201  0.9380573358893690  0.3668200971396821
  0.2492652245798179  0.5022134614308688  0.4552626577957515
  0.0825054730127304  0.9385670373243422  0.4528002271823562
  0.4154945503165631  0.9389861559041547  0.4536787657908810
  0.3378043315844070  0.9406842868027705  0.5412504698136602
  0.1693542316105859  0.9393016103296640  0.5401507952150094
  0.5012895358962604  0.0002564280547491  0.1958825568304886
  0.8333125039307152  0.0633803183317335  0.2018781511087477
  0.6661546807904163  0.0633308475723349  0.2017979527123203
  0.7496164025845475  0.1252990448046058  0.2769557361783114
  0.5823998792734395  0.0628891982082131  0.2830088645442134
  0.9171222316864072  0.0627476856187621  0.2829232618996025
  0.4994919987469546  0.1255880056610128  0.3679794046085680
  0.8317784938915241  0.0629182518985060  0.3672494741888143
  0.6676924346041128  0.0630503062353621  0.3675173910299330
  0.7490526666990520  0.1249653048330585  0.4543889320131654
  0.5824091160177089  0.0640580017137929  0.4526822772292037
  0.9171037188695699  0.0634326445392952  0.4522625409467840
  0.4994543019852443  0.1252130406171214  0.1954754915463831
  0.8331180846972916  0.1871326338144346  0.2016096617177922
  0.6663383908319365  0.1871240990987310  0.2014911051808619
  0.7496271700356426  0.2502814307786524  0.2770836434509888
  0.5823722985345963  0.1879772901788782  0.2823907011579751
  0.9171941719049269  0.1879116193768733  0.2823978155550799
  0.4992605994047806  0.2508608491566504  0.3679322237105270
  0.8318510497614193  0.1878345495365338  0.3665206617852685
  0.6673252893533171  0.1880402088781623  0.3668502162803115
  0.7479286318483360  0.2516796225927876  0.4534211990208669
  0.5827626113924166  0.1886186153575328  0.4522702943209943
  0.9146424161164365  0.1878463160334382  0.4527416704439205
  0.5006289394289196  0.2504803764111844  0.1953396819264530
  0.8333574631461202  0.3138406783862853  0.2015737181242966
  0.6662039664976194  0.3137035501419023  0.2015049226135932
  0.7497426633419749  0.3754965387725222  0.2766209833239895
  0.5823079250789490  0.3130739353345448  0.2824381037573926
  0.9174063595337417  0.3130295242355801  0.2823770590577689
  0.4990825828936369  0.3756852610175607  0.3682396001723165
  0.8319698055325904  0.3128707595884260  0.3663382478702751
  0.6670800200438320  0.3129787118491001  0.3669584920304745
  0.7485448277107349  0.3740639865103229  0.4534744123006850
  0.5827753559074081  0.3129926312422690  0.4525293497273218
  0.9175623532346719  0.3125798360066985  0.4516666009449899
  0.4991409145332623  0.3756999366246033  0.1954960829756551
  0.8339457350087540  0.4376043398818953  0.2018369745081412
  0.6659115167491364  0.4375579816360955  0.2016492166154576
  0.7497326603274003  0.0001912201897222  0.2782739160323228
  0.5823238964943822  0.4380870537776348  0.2826944354294789
  0.9176033121014284  0.4380810463750209  0.2830658111514658
  0.4996992141220585  0.0009296083554707  0.3684552934924950
  0.8323878679164596  0.4377696573439397  0.3670315173185988
  0.6674040149719406  0.4378956836330883  0.3668895531934412
  0.7494738697743627  0.0025421456342723  0.4557447433422974
  0.5823982383004338  0.4378205863209254  0.4523572347130811
  0.9158200082361162  0.4370628270225552  0.4536646899372393
  0.5007299044360025  0.5007465133738537  0.1958054240723875
  0.8336106356090819  0.5638916385997657  0.2022035728102391
  0.6663362743616765  0.5638635415558733  0.2020418678713327
  0.7502492041463374  0.6255480877641534  0.2777791623852510
  0.5824751539603755  0.5631015803905555  0.2830489239117404
  0.9175384491983498  0.5630100515667305  0.2834342483575130
  0.5001259765465611  0.6257922863391197  0.3686096734828505
  0.8322274330675477  0.5627007962670378  0.3678934408663063
  0.6681773827253765  0.5629647959661023  0.3673225178064226
  0.7504872631035758  0.6239561455857153  0.4545998875786562
  0.5839027119471121  0.5621031515181527  0.4524799823713011
  0.9185259927633742  0.5618265972916539  0.4541559613552892
  0.4995979426389014  0.6257661411561808  0.1960472162681081
  0.8335539618931072  0.6872441890694659  0.2024975484038228
  0.6663148560621679  0.6873259984184450  0.2023837025164771
  0.7500341643820301  0.7505102542796485  0.2789726744733125
  0.5826409313747047  0.6881390491590207  0.2835896435010182
  0.9173163268450563  0.6879618009060546  0.2837397744260581
  0.4999567691535522  0.7505361774603465  0.3688110974742601
  0.8324948268174923  0.6878809749489038  0.3683342031447398
  0.6678351657071075  0.6881056633714649  0.3682615773760731
  0.7503398091735631  0.7496174646011476  0.4578869355770888
  0.5845274209421272  0.6876246265483685  0.4545227834536070
  0.9174825824654931  0.6866160533627811  0.4533416501573976
  0.8424886603393544  0.6867160756177071  0.5417606608316208
  0.5014922585204589  0.7506660456825111  0.1963245603236775
  0.8336706169181529  0.8136005211865514  0.2025767392277772
  0.6661521934249401  0.8136322265879836  0.2024205742351067
  0.7499697944134133  0.8753942526686936  0.2785643129940107
  0.5828377461910552  0.8130134683751223  0.2837860881265904
  0.9169331259948771  0.8128699616982129  0.2841014132433608
  0.4994516546540890  0.8758421102188556  0.3686236429344552
  0.8318598132443323  0.8130139446076887  0.3692045720584332
  0.6685416793775981  0.8132455975991536  0.3688440517071576
  0.7515563129216754  0.8754642287082403  0.4614341123196449
  0.5810835642492810  0.8135318854931796  0.4524569595670829
  0.9165008891900871  0.8124946828402235  0.4549663493655461
  0.4967316485672377  0.8719650881776400  0.5411097900140091
  0.4998897303396359  0.8753611126719120  0.1961777941762908
  0.8334841390232673  0.9368929413522950  0.2023307333759043
  0.6663799268343943  0.9369225159877503  0.2022839539674528
  0.7501152600479848  0.5006445408529550  0.2777836033331978
  0.5827150306207426  0.9378963308973678  0.2835453862994247
  0.9168797142413493  0.9377570671214240  0.2836567171640151
  0.4994895837446789  0.5004173178251229  0.3683926846432086
  0.8318118540852598  0.9376136661861006  0.3686197578580041
  0.6681812513110266  0.9378048034555494  0.3683989142311218
  0.7497649079817584  0.5003722896444930  0.4545095114444729
  0.5818220719224413  0.9387066172431504  0.4528580778824388
  0.9158029481574935  0.9383334277607961  0.4547012968996735
  0.6632522137493327  0.9380443377910849  0.5414398757204538
  0.3340814720896059  0.0659554493337748  0.5406913356030799
  0.1657979558566366  0.0644077058198834  0.5395616270352358
  0.3311635218265860  0.5657105400354391  0.5406371037879288
  0.3315837235246885  0.8155483557438882  0.5419465033852615
  0.8259627660908840  0.0594924126379843  0.5403381239332160
  0.6609655832062290  0.0645132800869411  0.5410391320068574
  0.8313197916642679  0.3111629581484556  0.5392331165271766
  0.4979768255868446  0.0115066455621570  0.5419379564323753
  0.8291703908360869  0.5618739490225783  0.5428748369332025
  0.1728644976853737  0.6852416383347083  0.5396246637527562
  0.6627196234578938  0.1901788314458601  0.5409603412698808
  0.5015562762006616  0.3719999509853144  0.5421160095032477
  0.6685506077194709  0.4406727909006835  0.5410682683755722
  0.9978482084614205  0.2436893821757292  0.5415415263113492
  0.1658281780806945  0.3080324835206800  0.5417970061893521
  0.6623236252883894  0.3142986562174139  0.5401616444203708
  0.6650643680193191  0.8120533812259020  0.5404834694089375
  0.4066462414148547  0.0004158367220043  0.2304213352347339
  0.2496821882249549  0.0001966618640660  0.1949234513162441
  0.0928772009040691  0.0002238926373321  0.2306320875885212
  0.1539524714120879  0.1254153522134604  0.3140964326142860
 -0.0003008615204948  0.1254299418021054  0.3014375450207084
  0.3453661131795587  0.1255978839773383  0.3140859280401980
  0.4004765743693419  0.1258936195590387  0.4005097057129856
  0.2495610612720913  0.1257306947414518  0.3853961146330968
  0.0985239281376409  0.1254509622149045  0.4006075095162855
  0.1505638841578305  0.1233039251381226  0.4844743017053673
 -0.0007000725253869  0.1266008694541236  0.4721824581025997
  0.3467463000000342  0.1274916864993582  0.4860463972392018
  0.4022999917809347  0.1300723164135062  0.5656419923020893
  0.2495815749562889  0.1249385909360004  0.5574479273361084
  0.0910120516225496  0.1285008324323408  0.5647212728752291
  0.4055674104146040  0.1253802396243470  0.2304601351573650
  0.2496824803800179  0.1253807926166559  0.1997017822639615
  0.0937673558904333  0.1253483087448249  0.2305906450066435
  0.1540470661529463  0.2507102793838400  0.3141721603023308
 -0.0003431638061775  0.2505111199541390  0.3013960118527337
  0.3452988192873607  0.2506701001612915  0.3139785278029860
  0.4003257857585019  0.2507524551814136  0.4005638186345931
  0.2495280165368429  0.2504723840477976  0.3852390006849185
  0.0988578405382340  0.2502694109532972  0.4008463972667646
  0.1514956782894360  0.2525123753240116  0.4850185226622467
  0.0001482312163712  0.2493757015182591  0.4731352616973396
  0.3457614364512299  0.2478633076459622  0.4845609058843781
  0.4018651953907585  0.2576186123842633  0.5659095529959918
  0.2384965191212233  0.2430225377512212  0.5591216894402891
  0.0950391443987928  0.2501650120182536  0.5700649579226199
  0.4063728227221188  0.2506510619411288  0.2302543546646874
  0.2496130076522409  0.2506944748457432  0.1950445922507867
  0.0929541510223002  0.2505958089296267  0.2304014604328314
  0.1540507991458842  0.3756562399088414  0.3148268438976111
  0.0000017521997610  0.3755519004588247  0.3018764442049167
  0.3454392451425561  0.3758365530238143  0.3143979181879719
  0.4003928937244199  0.3756523618293107  0.4010344603351850
  0.2499362521072827  0.3758169431102049  0.3860874210894618
  0.0993624844686551  0.3759582578378487  0.4017190933870042
  0.1531707223640322  0.3731082356172117  0.4877691826943287
 -0.0000867895912396  0.3745443646301684  0.4724431053686644
  0.3480723457340800  0.3747454771121756  0.4838979059628116
  0.4031947155185998  0.3771349942494810  0.5732064689881478
  0.2503656048264299  0.3671895925265293  0.5577457612606402
  0.0737310282970825  0.3602988105223495  0.5690732791621032
  0.4054398158864085  0.3757173194353343  0.2306778616268605
  0.2496388651859656  0.3757669733602788  0.2009335408910995
  0.0939363068649497  0.3758133274701105  0.2310915236499057
  0.1542867518228198  0.0005063323627785  0.3142049714150339
 -0.0004047244625061  0.0003344300180849  0.3019265825224105
  0.3453636432331809  0.0006298758572674  0.3143034045663441
  0.4007572164661406  0.0012166824964035  0.4010002013374085
  0.2496863076604701  0.0008053092694138  0.3856545059591824
  0.0988234914121711  0.0004321500967780  0.4005395372772560
  0.1518145443455189  0.0007506178579085  0.4853965499115970
  0.0001170931312196  0.0009546141157774  0.4727651776998076
  0.3485986382482640  0.0025165589050421  0.4867516150394501
  0.4005918167235489  0.0043557762063859  0.5705881048287239
  0.2495314930466143  0.0020631613181459  0.5555203899721607
  0.1015575774989117  0.0017978927043036  0.5676908006968465
  0.4063633870094658  0.5007137294492473  0.2306597535039422
  0.2496292719026040  0.5006997761663068  0.1951801739050184
  0.0930467847100660  0.5005874577402885  0.2312373475731683
  0.1544299155278562  0.6254815872792878  0.3148906515354834
  0.0001233069963817  0.6254301398608111  0.3023641138869318
  0.3455151366647698  0.6257326321991801  0.3146266624471044
  0.4011210211965646  0.6261218638317316  0.4009506015984236
  0.2501156611577728  0.6259188144822266  0.3857638554050249
  0.0993369955268973  0.6251862749211974  0.4012776623542378
  0.1530367533170685  0.6301823528746218  0.4838928769530370
  0.0018738115817124  0.6252413348168843  0.4731445794988302
  0.3492948627534823  0.6263497646433409  0.4863044430183595
  0.4042464185971497  0.6268264590054058  0.5666585129914284
  0.2566623213559853  0.6315048005827054  0.5572640764189911
  0.0988648879195507  0.6224392444702206  0.5658753114216313
  0.4056848474152521  0.6256812864332126  0.2309599853383365
  0.2495890264976519  0.6256265175895271  0.2008471324877805
  0.0939601435003180  0.6255732031307849  0.2314100278043355
  0.1546240760208030  0.7505750972602048  0.3144913374836738
 -0.0001917448221853  0.7504969321305603  0.3024459957910682
  0.3453649199348762  0.7506762633695385  0.3145526381135584
  0.4008552291436162  0.7509505793261587  0.4011408383436663
  0.2500286688734096  0.7509964821625353  0.3858049561229885
  0.0989758644552306  0.7510671685066899  0.4006835966846393
  0.1529953525065785  0.7482985042322459  0.4844355083982110
  0.0017044532792333  0.7496728952834953  0.4726024371523426
  0.3485195676489737  0.7519684996882436  0.4865503545190328
  0.3988463621571895  0.7554161926163604  0.5701315207339153
  0.2493949572895535  0.7521504046268427  0.5565684363033394
  0.1016484390464073  0.7484813889185992  0.5669864740163557
  0.4067278840501906  0.7505788155403154  0.2307282162501638
  0.2496200260040371  0.7505512045293552  0.1952318567011871
  0.0928037689386631  0.7504756679025428  0.2310414027468086
  0.1542856788463288  0.8756559558437845  0.3145088372307607
 -0.0002533860096158  0.8753728571896618  0.3025274137799555
  0.3455842680788506  0.8757674442700677  0.3145890483185357
  0.4004337252670023  0.8761990679863939  0.4011263416647601
  0.2499281004751269  0.8757821347805584  0.3859139845523356
  0.0986541196845077  0.8756500881646389  0.4008325249867757
  0.1525351866635006  0.8782883527417432  0.4846100974935623
  0.0020122857731720  0.8756269835161375  0.4721224128552456
  0.3479444355724662  0.8764253704348887  0.4870806854486194
  0.4008721116478755  0.8784036568489310  0.5705213451321788
  0.2500543789874272  0.8773897137760747  0.5576828273974644
  0.1067260394128455  0.8735887712859844  0.5690792948336243
  0.4057409528944260  0.8754541308436110  0.2308719798207915
  0.2497415728359592  0.8753328872110917  0.2009105036901855
  0.0937772745816985  0.8754486343737096  0.2311923740141222
  0.1543548324574609  0.5004841743637696  0.3151617333769482
  0.0000004655030197  0.5005042821135515  0.3025256234161380
  0.3452722857673524  0.5005762312835199  0.3146168735251321
  0.4004708838857509  0.5008368656511685  0.4012514417205654
  0.2499100647882289  0.5003776945522588  0.3870494071161479
  0.0991005164152315  0.5001304302142077  0.4026954480236735
  0.1511882723251729  0.4990118417610994  0.4874232199652737
  0.0001600073327311  0.4988551553191399  0.4734922501113522
  0.3483889473278136  0.5047263809274968  0.4865880445438682
  0.4079353768737994  0.5065939571249817  0.5692249511975296
  0.2381675888854238  0.5091840736635145  0.5565257648400915
  0.0610850149212509  0.5093686133738518  0.5616964129428821
  0.9050177389181606  0.0001466487059164  0.2316440335531779
  0.7498881710494421  0.0001069382010614  0.2020378451628033
  0.5945993209631547  0.0002775959261601  0.2315752747914009
  0.6542145695302251  0.1254283561234098  0.3145807366074720
  0.4996564588000283  0.1255756782893296  0.3013461875050528
  0.8451482096251566  0.1252716316852009  0.3143827987841673
  0.9007833534205064  0.1257987154077936  0.4006207802997109
  0.7497279209254809  0.1255838802540796  0.3863957439672998
  0.5983303670845770  0.1258944420572489  0.4007364723879381
  0.6499226491969462  0.1270093137188438  0.4864972823408434
  0.4990595847503403  0.1262408562960517  0.4723069959461558
  0.8479115579097065  0.1236837110732695  0.4850643661379970
  0.9020087626959685  0.1251072337314587  0.5665157808687201
  0.7490808519577636  0.1272146791010406  0.5552747919894170
  0.5933253544515330  0.1272298920913321  0.5672072201321968
  0.9062173319653322  0.1251620758718963  0.2306871318015726
  0.7497511313041968  0.1251437370469980  0.1946550722619385
  0.5933886679646879  0.1251841446418957  0.2307034594500683
  0.6540144183451210  0.2504981475082693  0.3143489713576783
  0.4997897558316775  0.2505936808445655  0.3012857162427711
  0.8452325445917560  0.2504930193814915  0.3141479951276491
  0.9009972091259694  0.2499833261736059  0.4001874062609315
  0.7497292184963864  0.2505538304723555  0.3856556250745078
  0.5981937494183839  0.2506663626946669  0.4005934299377613
  0.6495853570318116  0.2505625386111985  0.4862484937464543
  0.4986555502156921  0.2510243933501568  0.4727081862067125
  0.8468545342260178  0.2531810314921520  0.4831406782438868
  0.8970809896962395  0.2470993507554611  0.5673037356232357
  0.7456189910012604  0.2519819264947283  0.5564340818621134
  0.5933719302876093  0.2528479549148069  0.5663059543968627
  0.9054072345826657  0.2505237143565179  0.2306711165360735
  0.7497808471435835  0.2505082660647852  0.2002202505889118
  0.5941856175714311  0.2504913803659171  0.2306372706277364
  0.6542913708854257  0.3754297763300481  0.3143342491343173
  0.4996457634067947  0.3756377168390411  0.3015252828250824
  0.8451777911142950  0.3753962803518526  0.3143111057600322
  0.9011811846515471  0.3753060028350463  0.4002861174162003
  0.7498592002216271  0.3752918690798726  0.3857316908911621
  0.5982356516711349  0.3755360992777798  0.4006467730734044
  0.6501065162229430  0.3766091283020609  0.4864878688746172
  0.4991281005871649  0.3755378299324727  0.4728480102079917
  0.8474722864201883  0.3713320266295893  0.4830939072945912
  0.8981000893279791  0.3734296003843030  0.5662945392277270
  0.7495560560219836  0.3747335506063481  0.5559837090107558
  0.5987979727703416  0.3788887297088877  0.5693155976783426
  0.9065927135672736  0.3757552220897911  0.2307774025062861
  0.7498376307729772  0.3758407740598934  0.1950860728353661
  0.5932071081970682  0.3756676071140055  0.2305945688765103
  0.6543114593298662  0.0002919389498831  0.3154411540765391
  0.4998390852931108  0.0004781736359672  0.3017884806437180
  0.8451613550799283  0.0001421166736595  0.3153912627661891
  0.9004097906917459  0.0006836153300223  0.4014098357728405
  0.7498502775431609  0.0002619789520537  0.3876630927309139
  0.5985507357000552  0.0010426151582840  0.4012344630163925
  0.6496217659061418  0.0012064185022763  0.4869558945103364
  0.4993042165435289  0.0024634216149545  0.4731380464111423
  0.8493609200329951  0.0047441265797907  0.4854764066980815
  0.9124673109525576  0.0056136622246242  0.5655521921730039
  0.7443391481534416  0.0060913396797943  0.5563828987428249
  0.5943997775093564  0.0022052179900439  0.5700397606747393
  0.9055404178813389  0.5006742661060229  0.2315664272827267
  0.7498998749805177  0.5006318300041660  0.2017656713646637
  0.5942687636120566  0.5006775266095282  0.2311611113713284
  0.6545942876022380  0.6257053536279927  0.3151805129523412
  0.4997459870800950  0.6256186985083275  0.3019689055285554
  0.8456212560419566  0.6254347010880090  0.3154665644594108
  0.9014390292293391  0.6243605618467215  0.4019385638669722
  0.7503011982098055  0.6255686938264806  0.3869240052729267
  0.5990709854214666  0.6258621591979101  0.4012782404868422
  0.6523381797969429  0.6221548289253148  0.4848988384723057
  0.5009082566452002  0.6260296014914174  0.4712789450134276
  0.8496200815759714  0.6234031009007563  0.4871035889579941
  0.9107131933043829  0.6210596019403565  0.5662725916272955
  0.7626741160055995  0.6275793326045507  0.5595510177637407
  0.5921622064685593  0.6418516245441549  0.5614709537583137
  0.9064119068195036  0.6255925107074641  0.2316078643975513
  0.7499079215243351  0.6256363122088123  0.1950997501602991
  0.5935385200449067  0.6257358507092974  0.2313308681091885
  0.6545608595881728  0.7507840603307898  0.3160055899267898
  0.4998776348590912  0.7506356457858763  0.3021323977507739
  0.8453561566797154  0.7505961177764909  0.3161823109219258
  0.9007525255813308  0.7501053010070651  0.4022499854041960
  0.7501282955584918  0.7506187417366758  0.3892074186976497
  0.5986734044493058  0.7499502043299371  0.4018653333894580
  0.6488416739670937  0.7530296093429005  0.4867271632939271
  0.4995404614552363  0.7514815743283461  0.4727728734136794
  0.8516937334157675  0.7471456134392392  0.4874647878758236
  0.9187474202219329  0.7433599517184366  0.5705509356237335
  0.7461535839333391  0.7439142433935471  0.5521709119113087
  0.5751414325538606  0.7609103078238979  0.5698441031112148
  0.9049854341160231  0.7504338020490201  0.2323077749493936
  0.7499208158512367  0.7505511194485472  0.2032073606752189
  0.5948177441792253  0.7505289722741717  0.2320716994769684
  0.6546286315906877  0.8753694826663809  0.3159195229905543
  0.4996842060106682  0.8755216130656523  0.3019899343979733
  0.8451991598645043  0.8752709917098647  0.3162001181170963
  0.9001395634490563  0.8754346893712993  0.4029678236245456
  0.7500796888652527  0.8753039406721668  0.3901961572992285
  0.5981262620035309  0.8759301396300591  0.4013153090480635
  0.6465866567893641  0.8754537361899254  0.4856074656917025
  0.4987381045730445  0.8761496673751310  0.4728636756671302
  0.8540315578724120  0.8757959001216287  0.4911568670808795
  0.9340527978269084  0.8712508079993447  0.5772030482563165
  0.7396877458856613  0.8742093182436803  0.5450058052673566
  0.5952593434665341  0.8757521898183446  0.5686068036512469
  0.9059511046737299  0.8752127783843593  0.2319568372590666
  0.7498860462044680  0.8751554368763463  0.1954058396574705
  0.5937586048924530  0.8753742326324326  0.2316903939852749
  0.6543089962554505  0.5004978487957842  0.3147015220075490
  0.4998186116790856  0.5006138802648116  0.3017172611715556
  0.8456513358008514  0.5004632846847689  0.3150950128554184
  0.9013914841150391  0.4999495183768802  0.4017920045262025
  0.7501830897493748  0.4999131538067985  0.3865440259688307
  0.5988877953214004  0.5001028423184067  0.4005381804699897
  0.6510736564194882  0.4980682783110599  0.4856919724892571
  0.4993644825204007  0.5007897318771637  0.4719069672747422
  0.8478942001420078  0.5006268283697703  0.4861779758098716
  0.8906904364227310  0.4940890695045819  0.5727814232396459
  0.7537303528703976  0.4952171928630327  0.5579643498959034
  0.5917924673200109  0.4997646375302742  0.5683648018523574
  0.3691220325512227  0.4408992573683105  0.5390601234045660
  0.0185073595417610  0.8723026184176812  0.5397343384832490
  0.8382553007216426  0.1849518346675419  0.5369304438230870
  0.8319816852855280  0.4374129875341099  0.5378240677534663
  0.8952347995603684  0.9326203596651387  0.5420793782202938
  0.3431999069201893  0.3203368948588515  0.5394668323368890
  0.0082652732390508  0.0025891788834535  0.5391942920360324
  0.8924241818082167  0.8127249595162691  0.5406450649973025
  0.9937920735161337  0.1351558158831253  0.5391239739141328
  0.1558248518744454  0.1875032606412054  0.5376885708385503
  0.9936153843517477  0.3693604449175227  0.5393535827542683
  0.2122501415866485  0.4357269657268840  0.5324263622944403
  0.0030258089146756  0.6285265712880210  0.5395753302563444
  0.4981518424006482  0.1190922144647388  0.5392114487253008
  0.4954682748134747  0.6315947752259827  0.5373781751038572
  0.6855341860434807  0.6816102185108851  0.5342015710950302
  0.1406493529434464  0.5500094970774602  0.5468573618922696
  0.0107108693331398  0.7448807236164939  0.5399941775168178
  0.1650234794486017  0.8127290794065299  0.5353219668797312
  0.9760888982343956  0.4832771202295161  0.5400588628744847
  0.4966704128785105  0.2637017131987078  0.5390939054548023
  0.6137171776139917  0.5692637901826991  0.5388238417457487
  0.4936302265754753  0.7606795217778902  0.5401743270535363
  0.4978713014536285  0.5011173688294690  0.5393874201737560
 
  0.00000000E+00  0.00000000E+00  0.00000000E+00
  0.00000000E+00  0.00000000E+00  0.00000000E+00
  0.00000000E+00  0.00000000E+00  0.00000000E+00
  0.00000000E+00  0.00000000E+00  0.00000000E+00
  0.00000000E+00  0.00000000E+00  0.00000000E+00
  0.00000000E+00  0.00000000E+00  0.00000000E+00
  0.00000000E+00  0.00000000E+00  0.00000000E+00
  0.00000000E+00  0.00000000E+00  0.00000000E+00