POSCAR                                  
   1.00000000000000     
     6.3738542009308050    0.0000000000000000    0.0000000000000000
    -3.1869271004654025    5.5990660174522464   -0.0075844119257342
     0.0000000000000000   -0.0127351427526402    9.8541247624282207
   Al   N    Li   Ta
    12    16     2     2
Direct
  0.1674992273842668  0.3318412994116613  0.9881439297188659
  0.6643420720273870  0.3318412994116613  0.9881439297188659
  0.1681230149151656  0.8362460298303381  0.9919546952405847
  0.6680348314276079  0.8360696628552228  0.9959853135365413
  0.1471317484145790  0.7942634968291650  0.4932912157987061
  0.6693392680981884  0.8386785361963833  0.4913420483733985
  0.8324950396229689  0.1649900792459309  0.7435801290245596
  0.3398246673486710  0.6697493034354771  0.7488624515385897
  0.8299246360868131  0.6697493034354771  0.7488624515385897
  0.8301861454139192  0.1603722908278311  0.2575396893402077
  0.3418501704955847  0.6705110441283747  0.2516991100313878
  0.8286608736327968  0.6705110441283747  0.2516991100313878
  0.1699647427681019  0.3366392843022556  0.1883981340382492
  0.6666745415341466  0.3366392843022556  0.1883981340382492
  0.1688434794858497  0.8376869589717066  0.1902772234943914
  0.6670136799515949  0.8340273599031970  0.1857488400767733
  0.1636485391056473  0.3465285139064098  0.7044680791642228
  0.6828799748007554  0.3465285139064098  0.7044680791642228
  0.1556597393756285  0.8113194787512640  0.6910720996516256
  0.6677753747822428  0.8355507495644932  0.6934421409019883
  0.3305868875393205  0.1611737750786341  0.9308799004926668
  0.8327302233439970  0.1654604466879877  0.9404733633930594
  0.3331263427725684  0.6675231787433664  0.9424517583704836
  0.8343968359708049  0.6675231787433664  0.9424517583704836
  0.3226650006911320  0.1453300013822568  0.4721054470788556
  0.8240438258678279  0.1480876517356491  0.4375847134711809
  0.3424350669359175  0.6776375413417159  0.4369198845412297
  0.8352024744058058  0.6776375413417159  0.4369198845412297
  0.1451190922170790  0.3453615899772424  0.4948989096801771
  0.7002424977601565  0.3453615899772424  0.4948989096801771
  0.3354612143339605  0.1709224286679139  0.6989735655767521
  0.3341187714895140  0.1682375429790208  0.2740651003823124
 
  0.00000000E+00  0.00000000E+00  0.00000000E+00
  0.00000000E+00  0.00000000E+00  0.00000000E+00
  0.00000000E+00  0.00000000E+00  0.00000000E+00
  0.00000000E+00  0.00000000E+00  0.00000000E+00
  0.00000000E+00  0.00000000E+00  0.00000000E+00
  0.00000000E+00  0.00000000E+00  0.00000000E+00
  0.00000000E+00  0.00000000E+00  0.00000000E+00
  0.00000000E+00  0.00000000E+00  0.00000000E+00
  0.00000000E+00  0.00000000E+00  0.00000000E+00
  0.00000000E+00  0.00000000E+00  0.00000000E+00
  0.00000000E+00  0.00000000E+00  0.00000000E+00
  0.00000000E+00  0.00000000E+00  0.00000000E+00
  0.00000000E+00  0.00000000E+00  0.00000000E+00
  0.00000000E+00  0.00000000E+00  0.00000000E+00
  0.00000000E+00  0.00000000E+00  0.00000000E+00
  0.00000000E+00  0.00000000E+00  0.00000000E+00
  0.00000000E+00  0.00000000E+00  0.00000000E+00
  0.00000000E+00  0.00000000E+00  0.00000000E+00
  0.00000000E+00  0.00000000E+00  0.00000000E+00
  0.00000000E+00  0.00000000E+00  0.00000000E+00
  0.00000000E+00  0.00000000E+00  0.00000000E+00
  0.00000000E+00  0.00000000E+00  0.00000000E+00
  0.00000000E+00  0.00000000E+00  0.00000000E+00
  0.00000000E+00  0.00000000E+00  0.00000000E+00
  0.00000000E+00  0.00000000E+00  0.00000000E+00
  0.00000000E+00  0.00000000E+00  0.00000000E+00
  0.00000000E+00  0.00000000E+00  0.00000000E+00
  0.00000000E+00  0.00000000E+00  0.00000000E+00
  0.00000000E+00  0.00000000E+00  0.00000000E+00
  0.00000000E+00  0.00000000E+00  0.00000000E+00
  0.00000000E+00  0.00000000E+00  0.00000000E+00
  0.00000000E+00  0.00000000E+00  0.00000000E+00
