Ta  N Co Cu                             
   1.00000000000000     
    18.1096308199999996    0.0000000000000000    0.0000000000000000
     0.0000000000000000   23.3551997799999995    0.0000000000000000
     0.0000000000000000    0.0000000000000000   30.4818171199999988
   Ta   N    Co   Cu
   192   240    48     4
Direct
  0.0002446384219539  0.9999747331311610  0.1970334226839867
  0.3341479904421831  0.0624069092015347  0.2032617140209183
  0.1654110452607895  0.0623893422873962  0.2027836833544896
  0.2493114343162404  0.1248702493612583  0.2786054406591347
  0.0821316569168360  0.0624203013720788  0.2840161645321473
  0.4159628139047413  0.0623916609574593  0.2854294298752791
  0.9990212654114501  0.1248926310274001  0.3695122236149757
  0.3311924903943506  0.0623451944081950  0.3703129025882390
  0.1664133110617314  0.0625332590709036  0.3690405801884182
  0.2463000709696388  0.1271924598305247  0.4573937465656144
  0.0822207483137589  0.0630855479100703  0.4545643946461269
  0.4112926947644695  0.0624397785855635  0.4585903372905094
  0.0000576180456662  0.1248358570568726  0.1970004210128593
  0.3340336355958584  0.1872268483951061  0.2030817688405619
  0.1653520761799001  0.1872916544166117  0.2025405836840903
  0.2492604662765459  0.2497500204673955  0.2780342919101386
  0.0820776387293236  0.1874055619492410  0.2838349534011542
  0.4160536490731559  0.1872664244809599  0.2850358538211282
  0.9991646290705631  0.2499719768658863  0.3691807850701068
  0.3309786074448908  0.1873828079345827  0.3691216206126740
  0.1665681232444385  0.1875454431252876  0.3685982675072594
  0.2463007531556585  0.2499748296632731  0.4561884553313504
  0.0818037556272273  0.1882506160070605  0.4544044185446410
  0.4134394918422046  0.1878676054076607  0.4545540535646850
  0.9998427098422908  0.2496781358249294  0.1967892789644239
  0.3339840010280781  0.3121173885278026  0.2027612604698419
  0.1654183647747374  0.3122247605281743  0.2022074885386473
  0.2495156270956898  0.3747850775902535  0.2776481580499706
  0.0821243290591767  0.3123940021320948  0.2834547665774778
  0.4163522290833086  0.3122394369641341  0.2845355100321996
  0.9992054052694641  0.3749172466414024  0.3689249858237957
  0.3311331682111316  0.3124279474632345  0.3686795678859696
  0.1667038221116925  0.3125661410383955  0.3680992108629511
  0.2488738320340715  0.3768459789283085  0.4561879190530931
  0.0827302227731224  0.3132383535229124  0.4537470397720682
  0.4125504453732205  0.3122160962443985  0.4559070876349907
  0.9997484638654370  0.3747067191489037  0.1964784302418110
  0.3341316846917834  0.4371402293928099  0.2023554418568310
  0.1654682779328098  0.4372502199579316  0.2018596730439484
  0.2493261818340713  0.0000404162772369  0.2786800442173814
  0.0821228126029254  0.4373010384154554  0.2831048429763072
  0.4165735404522124  0.4372269611696780  0.2841201980940227
  0.9991785389792440  0.9998708459294292  0.3695310989171787
  0.3317460363065550  0.4371736228592340  0.3685258146065706
  0.1671426550752599  0.4374367613242711  0.3676770695974199
  0.2459053629730832  0.9993446221910247  0.4571977730972989
  0.0826813341870860  0.4380175676820244  0.4532258575871211
  0.4161549159535980  0.4362372597357904  0.4550746113734689
  0.9997976984927206  0.4997093737486225  0.1962847226081976
  0.3340689212293881  0.5622584493827389  0.2021442797856423
  0.1656345755649085  0.5623338538630449  0.2017624309178885
  0.2495350512304455  0.6248180800082892  0.2772420924685974
  0.0820840026130938  0.5623354457569576  0.2828665553593979
  0.4165056319577758  0.5622674975436652  0.2837190822397702
  0.9994640079920458  0.6248978304144188  0.3684217495705937
  0.3316558501898967  0.5618900589128089  0.3679699199905357
  0.1668150293093689  0.5623025326357904  0.3670888111203254
  0.2490382452322635  0.6231491007594627  0.4547437722428214
  0.0829448023013555  0.5626533017153577  0.4530035862453303
  0.4186216743349220  0.5615285098802900  0.4533852487125642
  0.0000098130081767  0.6249411379104828  0.1961948347467199
  0.3341045314828790  0.6875590222535521  0.2022063368761167
  0.1655473200924718  0.6875922432230936  0.2018505984347385
  0.2493613130338233  0.7499784981070761  0.2776390932708566
  0.0822210942875472  0.6874131702236497  0.2830249998056047
  0.4159979999399681  0.6873557167264579  0.2839285146960009
  0.9999183135262584  0.7497481869432363  0.3687158977735834
  0.3310733369933843  0.6871401066927803  0.3683558817375214
  0.1670052920844682  0.6873677548311932  0.3675584355054795
  0.2518625188117696  0.7468971821452186  0.4573907584190522
  0.0831358300924663  0.6872443475119070  0.4531704622561392
  0.4154082637365519  0.6861210649284502  0.4525066419802002
  0.0001887524740525  0.7501293336644252  0.1964401612184901
  0.3340408685686214  0.8126564268704897  0.2026205603575733
  0.1655690192065720  0.8126030473077819  0.2023117076823624
  0.2492390679204917  0.8750889680431300  0.2783220609178301
  0.0823886085164744  0.8124844024603917  0.2835219221483385
  0.4157324114812937  0.8124549342060021  0.2845511481177923
  0.9994901043305191  0.8748091440802739  0.3694192563473067
  0.3309037364761949  0.8124137894211003  0.3694477580905513
  0.1664218849259527  0.8123032158032117  0.3686715580288720
  0.2456308150301609  0.8753736296580641  0.4564201138309159
  0.0826988336068482  0.8121051228055123  0.4550485381352942
  0.4125038949711382  0.8118959190724340  0.4569248391766152
  0.0003570360936180  0.8751052098653389  0.1968358784987601
  0.3340115208969152  0.9377180966297516  0.2031564044154237
  0.1655363237595253  0.9375896898278029  0.2027033138614414
  0.2496519779450068  0.4997808625254692  0.2772953456369862
  0.0820908880314235  0.9374455467814400  0.2839903655025893
  0.4156663910440557  0.9375008241239442  0.2850538711299393
  0.9990849122518100  0.4999010960979362  0.3685725948772927
  0.3313735515316765  0.9374911514148465  0.3698268269652942
  0.1664771088557089  0.9374607965141735  0.3690601045805693
  0.2485756413800004  0.4994637403827369  0.4552692648006129
  0.0815371551025308  0.9375331793447828  0.4556649819703082
  0.4136432428969101  0.9374657792107044  0.4559101776796055
  0.4978525212104117  0.9999950094871863  0.1978438577858128
  0.8328023456761926  0.0622832480098907  0.2018982773407672
  0.6636178023867529  0.0623132833589324  0.2024593537292390
  0.7480275016010651  0.1246664422597874  0.2772140927895919
  0.5810443811829771  0.0622733905032149  0.2842420295386745
  0.9166006236920268  0.0623298339601348  0.2827906146696648
  0.4989775750108052  0.1245133253590467  0.3713970408479881
  0.8312517986828567  0.0620840704387717  0.3664238526500014
  0.6646721252509380  0.0620706338725938  0.3688021688151650
  0.7491131290342992  0.1231302973397774  0.4526907263099318
  0.5838477501412811  0.0613750999769849  0.4595386839675442
  0.9127239657304997  0.0616317329440648  0.4537230852025971
  0.4980852424935804  0.1246948852236613  0.1978935495525036
  0.8328061513147915  0.1872209961753413  0.2018537198008588
  0.6638078965393532  0.1871837227497792  0.2023638626274860
  0.7484160371408919  0.2497377025289396  0.2770378418968207
  0.5812764909504580  0.1871725342404815  0.2841692552646151
  0.9164315435643431  0.1872935217132365  0.2828734040922285
  0.4991056349691902  0.2498441042705579  0.3708656496521314
  0.8311823274601693  0.1873026981782928  0.3669466144891089
  0.6659509122502314  0.1871302540311603  0.3685587241266788
  0.7470738226869855  0.2486505313852589  0.4548620878185119
  0.5817353707034272  0.1879831321288208  0.4557164309945350
  0.9133726976479295  0.1868698060429068  0.4532407652334882
  0.4984309290424278  0.2496045007131755  0.1976283478780587
  0.8329584588958383  0.3119939070233002  0.2016044411310389
  0.6640716536299678  0.3119399027686995  0.2021551939009356
  0.7486487627972309  0.3747298647176081  0.2768870172374278
  0.5816327920844060  0.3121803398983687  0.2838724456381456
  0.9164999755229601  0.3122943116762897  0.2826880656104009
  0.4997707558821674  0.3750723663635327  0.3703255977518012
  0.8315220550809173  0.3121536307910162  0.3667791098485083
  0.6662303486291066  0.3121873179081476  0.3679115050547068
  0.7512669646230137  0.3733468372962676  0.4522488282199717
  0.5821318338730066  0.3118634624752517  0.4546595209438422
  0.9137591701374674  0.3120927825482340  0.4534076079855041
  0.4987813757521451  0.3746382293067612  0.1972170438846064
  0.8329782035308568  0.4371942058025340  0.2014256075183525
  0.6642794340478844  0.4371092910834236  0.2018649984047300
  0.7479362282761244  0.9998017443004272  0.2771940953586594
  0.5818010404158329  0.4372356844806902  0.2834934777067062
  0.9164566771351090  0.4372837330715384  0.2824437631886454
  0.4990919985858895  0.9998457673879457  0.3715649292731129
  0.8318137979023277  0.4374492082249191  0.3668089210952985
  0.6661030413033586  0.4374224413686889  0.3681615408501813
  0.7496957496152561  0.9978757843088459  0.4518197604065861
  0.5875983839821401  0.4383354917487381  0.4583498122411314
  0.9140838463206293  0.4375891465646546  0.4534892675840823
  0.4988803253068994  0.4996004898751991  0.1968967453464430
  0.8329097484799419  0.5623277160942166  0.2013013330457198
  0.6645691613630547  0.5623096803390837  0.2016548119052715
  0.7490422043141578  0.6248567839334314  0.2765381139071437
  0.5821426877329827  0.5623255326653478  0.2831206969393847
  0.9165119896294485  0.5623241351302468  0.2823277057418778
  0.5004479869266873  0.6245607204498853  0.3690344360871762
  0.8319417322688167  0.5623364015419554  0.3668130862403842
  0.6668896968855975  0.5623352560175690  0.3675249547731596
  0.7524020192743777  0.6253781351820606  0.4531397217711088
  0.5873094850476406  0.5629833360850185  0.4541298830032687
  0.9131693283822955  0.5623720365979281  0.4536186681308791
  0.4987192417250412  0.6250475687509791  0.1967893123498072
  0.8330679395919631  0.6874657344122284  0.2012419493634141
  0.6642169251376799  0.6875366194871972  0.2015631199071635
  0.7486853441641088  0.7500114800219890  0.2766675288302523
  0.5815884465718639  0.6874297311227480  0.2831675616085008
  0.9167764204616162  0.6873857531401626  0.2822077895532047
  0.4982723438461321  0.7497771522144419  0.3696674182876336
  0.8321571970573700  0.6873264568289983  0.3664107148275875
  0.6667388773069334  0.6874208007399929  0.3672977901817731
  0.7487132263168661  0.7488928214943940  0.4544652254148147
  0.5839599583481814  0.6874028304756621  0.4544803382861815
  0.9136644656255513  0.6875673691249560  0.4531540660649469
  0.4983478095508005  0.7501656900461597  0.1970876248239719
  0.8329574615163722  0.8126549810066734  0.2014736146841472
  0.6638615962019898  0.8126645054930108  0.2018724150527760
  0.7481652124896812  0.8747954472256794  0.2769844625668725
  0.5811747218655867  0.8124354654608510  0.2835575246916520
  0.9168669813153087  0.8123861090976661  0.2824153877483440
  0.4979563144477197  0.8749551466897714  0.3703939124956150
  0.8315376681171855  0.8120624394780265  0.3662698640017226
  0.6659482741952800  0.8120727914147992  0.3676425699027419
  0.7464401329095409  0.8719362885809261  0.4530865288470523
  0.5813415802530244  0.8137001467899196  0.4536384869764021
  0.9133010100701853  0.8107632915961034  0.4532918476973862
  0.4978680955965515  0.8751362926443065  0.1974613069901494
  0.8326998387552464  0.9375153213959493  0.2017391059419609
  0.6637955354910972  0.9375678579527715  0.2022208686779194
  0.7488242462548840  0.4997279485441908  0.2766690782069574
  0.5807569375996451  0.9373860441575630  0.2840191776084424
  0.9167209459222576  0.9373182552902364  0.2826919205362159
  0.5005442795822219  0.4993137361176565  0.3696818435336198
  0.8312051917829493  0.9370201399838933  0.3663451744156276
  0.6652243805823375  0.9371386783561917  0.3683780469420199
  0.7495902241223718  0.5004411620587348  0.4541839246388122
  0.5851896859667889  0.9363067897781647  0.4568120533574032
  0.9135720379054320  0.9365863318494050  0.4527766293201978
  0.4044885465260393  0.0001446029654062  0.2336341509432245
  0.2497103069024931  0.0001160252098202  0.2000394175444242
  0.0941611157045585  0.9999645002732365  0.2324043004980183
  0.1539805189597487  0.1249180410318829  0.3160734551308622
  0.9990552647838840  0.1248524338327428  0.3026960979942928
  0.3438015678199022  0.1246359663694960  0.3170022529477308
  0.3999152493494194  0.1241231411733210  0.4036193122267591
  0.2484505222259017  0.1252693090123742  0.3891486721039001
  0.0983461288603920  0.1254317184050606  0.4022515131261386
  0.1472163593269968  0.1263807154488319  0.4895862826547912
  0.9964463034034452  0.1254664957169354  0.4714578086182257
  0.3444146196464857  0.1288617088015229  0.4865424586544194
  0.4533093408862570  0.1307265482274289  0.5743824983016665
  0.3007083795405094  0.1429182941232341  0.5699098208734057
  0.0699584448222481  0.1297351908948770  0.5618756801565183
  0.4045914565047610  0.1247424557086632  0.2335580320022785
  0.2496736550022192  0.1248267122337339  0.2003397669520623
  0.0940371039716368  0.1248866318085859  0.2322854955192355
  0.1539499661517922  0.2499351108452004  0.3156263402152462
  0.9990784377700237  0.2498613141846491  0.3024095854613549
  0.3437518389766083  0.2498501947493850  0.3162273631042183
  0.3991359261777703  0.2504198341337869  0.4017120547555209
  0.2484137450720780  0.2500472385372703  0.3881590049077204
  0.0985498664621502  0.2501923167715816  0.4017516132294574
  0.1478950165403461  0.2514150489113192  0.4887417488081738
  0.9972144641164817  0.2511258993689651  0.4713752825533888
  0.3459039538149256  0.2486525770212893  0.4839502019847259
  0.4803254180138978  0.2560050893169574  0.5713195992950233
  0.3174372087676360  0.2564190266422912  0.5639629631780849
  0.0737422565979386  0.2552642276552319  0.5617429232280529
  0.4047476624420909  0.2496418541223093  0.2330493372060047
  0.2496855476704098  0.2496743475391554  0.1995310643231463
  0.0940273358389945  0.2497709765401410  0.2319297856010110
  0.1541817964081034  0.3749055628576627  0.3151408496575669
  0.9991211668896938  0.3748900281053835  0.3021416136918447
  0.3441342065270376  0.3748163087699865  0.3159782483628391
  0.4004959870522242  0.3744934393582895  0.4022849083539484
  0.2490410099604929  0.3750471349340003  0.3879054813424077
  0.0987906722872083  0.3753696366673438  0.4012432096308771
  0.1501875016821614  0.3760845562355399  0.4880140551885503
  0.9977374106486536  0.3759448056857764  0.4711454070958538
  0.3471960611804690  0.3776367806602039  0.4856405592092727
  0.4568205610710905  0.3038918661055590  0.5657246642461971
  0.3375221170368690  0.3878736253370576  0.5743651562454275
  0.0760062300556612  0.3786081164956983  0.5605758270925421
  0.4049719371282166  0.3746350725665124  0.2326016190160374
  0.2497404364784472  0.3746785948493851  0.1992795112411159
  0.0939515017347645  0.3747747527023151  0.2315196476729184
  0.1540139620918310  0.9999286433241465  0.3162617908205121
  0.9991069800285004  0.9998769705334141  0.3026901271162075
  0.3437722702839210  0.0000341869640934  0.3172401523738557
  0.4002685693917343  0.0003939827704400  0.4040012024413144
  0.2484306617352985  0.9999256365117404  0.3890624970098884
  0.0983012865828030  0.9996524363592272  0.4026125470312536
  0.1475604528057204  0.0011938251274870  0.4897741862670060
  0.9966979122976198  0.0006763644990500  0.4716443371442267
  0.3448156966627138  0.9986241067894071  0.4877222627875355
  0.4393653419068499  0.9975827012631981  0.5751983989531411
  0.3945693782778577  0.0288152036971923  0.5890186971396716
  0.0696474246640193  0.0050040112752114  0.5620052399571165
  0.4050749066422199  0.4996707960986413  0.2321840249584781
  0.2498401578058633  0.4997033165827602  0.1988930014034196
  0.0940238594850626  0.4997505326931062  0.2312488709039542
  0.1542522034160996  0.6249539957609969  0.3147080074142181
  0.9993108643372963  0.6248173288348227  0.3016578135231924
  0.3441865368281611  0.6246827453121568  0.3153870349320869
  0.4012996922234677  0.6234009573180614  0.4003693800969117
  0.2489450247300340  0.6243744672594929  0.3868851262209816
  0.0987600670018054  0.6248567022414946  0.4006159341368658
  0.1500336828169822  0.6251334137792739  0.4858401470512206
  0.9990960206094357  0.6244296348357494  0.4713191726585251
  0.3500026450565699  0.6208484859476542  0.4819768360142618
  0.4500192649663362  0.6357313489470968  0.5883744522807746
  0.2787602697326648  0.6211485681607698  0.5543658844164909
  0.0917985139695574  0.6277653841204440  0.5608676535634842
  0.4048681867240589  0.6248480261846865  0.2320873726174355
  0.2498469339151796  0.6249529398169287  0.1990279705405769
  0.0941789222995908  0.6249070213868748  0.2312085808386186
  0.1544318478413516  0.7500141439722086  0.3154093794372486
  0.9994904243461207  0.7499286928111744  0.3019274691358191
  0.3435815860035518  0.7499664215101944  0.3160867580355884
  0.3986989853000154  0.7501084768677728  0.4019479973764462
  0.2489285760711724  0.7495067791963805  0.3889557159414210
  0.0986810427070495  0.7498211643111219  0.4014748507299544
  0.1523565998899628  0.7489223030229581  0.4865445599128506
  0.9982666533467111  0.7491216288187559  0.4726804531504456
  0.3512912267398249  0.7457471035767327  0.4899237462701009
  0.3253231774019554  0.7538818009791299  0.6169554025041393
  0.3149504496793654  0.8023383117546246  0.6121939575861006
  0.0780891017136582  0.7542294015681250  0.5576265178476163
  0.4045581333067290  0.7501165774562324  0.2325451150995264
  0.2498605841388439  0.7501259303678367  0.1990791030903480
  0.0942654224894994  0.7500698181425633  0.2316193091253922
  0.1540492861965248  0.8750213359628418  0.3160395089338621
  0.9992750699745372  0.8748524302415461  0.3024869852061443
  0.3436347518818081  0.8749507226438027  0.3167503100576710
  0.3996818400880997  0.8748625777121930  0.4030148267197333
  0.2482541484818199  0.8748882886090072  0.3884880850680830
  0.0983422530334508  0.8749486586684014  0.4026824143107746
  0.1471980798599333  0.8744110326459520  0.4896448092832131
  0.9964668899870617  0.8749878356092751  0.4728802633959575
  0.3449200529745724  0.8756658317211432  0.4849514517211162
  0.4178836363211289  0.8647770038821534  0.5693148366426257
  0.2650088049196171  0.9191399775176095  0.5675594324535282
  0.0643735832419239  0.8806262247302428  0.5596041482541096
  0.4044193028607168  0.8751023416699582  0.2331804326884921
  0.2498230714286578  0.8751651971239482  0.1999307427859165
  0.0942868773126193  0.8751153357330779  0.2321514420617135
  0.1542983674734231  0.4997082603154652  0.3147458821739804
  0.9991451210480591  0.4997906406174835  0.3018215329858336
  0.3444062832584223  0.4996442650435995  0.3155288437525954
  0.4014273817792358  0.4992213815855209  0.4017567914670792
  0.2491050160669346  0.4998133544697083  0.3872164442323580
  0.0984996375260891  0.5000403038850791  0.4006831702026261
  0.1493815942466128  0.5002759915766930  0.4862667170474992
  0.9980543480456348  0.5007933467562111  0.4714934057183484
  0.3491420658572295  0.5009068934536245  0.4843426312939698
  0.4260568068918928  0.4815550935282502  0.5631810088550679
  0.2723906874602804  0.4967889737016904  0.5557680849052744
  0.0887316883333753  0.5035853467244564  0.5616677216640511
  0.9050858814185716  0.9998843161947235  0.2309711068275675
  0.7483138301205230  0.9999470170441427  0.1990314777997142
  0.5924918964641677  0.9998618565596971  0.2324037362329605
  0.6531623735002867  0.1246871036854955  0.3158219061354686
  0.4988129564005064  0.1248123116299027  0.3043612377025369
  0.8438112724106190  0.1248424012049085  0.3142133672187697
  0.8989965051982907  0.1244208951956551  0.4004903597614557
  0.7487608121344280  0.1242778181346793  0.3856010177575300
  0.5980218329464932  0.1242848998912223  0.4035705053075915
  0.6544503941860000  0.1276705644576737  0.4843247396934984
  0.4977186966653875  0.1254773052339360  0.4758807759372488
  0.8453114657509317  0.1232217252565349  0.4839457470552233
  0.9028270185334861  0.1530145459591949  0.5635758319082171
  0.7499005560852012  0.0878120971869976  0.5533280100506772
  0.5765258891723093  0.0636230927670027  0.5340110119515273
  0.9049422201648412  0.1247974096245983  0.2310730580885760
  0.7483595718439133  0.1246843958206227  0.1992285663026863
  0.5926761564156209  0.1247437823043853  0.2324920375223201
  0.6537728681810222  0.2495569552855059  0.3155640118097693
  0.4990268259111232  0.2497461514434107  0.3039346573124249
  0.8438637389409962  0.2497596856892699  0.3143529953390782
  0.8995105596380810  0.2497334458341953  0.4004333500942394
  0.7488316282403318  0.2497875067798390  0.3867737154928861
  0.5990869818323219  0.2497309729156427  0.4023077454490647
  0.6476307006587163  0.2502721556016425  0.4877319201534434
  0.4974835212395377  0.2498274446921016  0.4705832388492794
  0.8470007549026519  0.2478435772237688  0.4832306891171001
  0.9069980919595793  0.2821291835321063  0.5643280227066256
  0.7702160797117088  0.2267350125388816  0.5544749353336940
  0.6015490356126207  0.1760240409469347  0.5596676633009281
  0.9049512768514845  0.2496910735627935  0.2310405975566994
  0.7484706726952695  0.2495550898664547  0.1986546791532362
  0.5928839059540891  0.2495735354566406  0.2323273657385982
  0.6538273570396385  0.3748152340851334  0.3152703376065986
  0.4993092941978645  0.3747683315509036  0.3033958248353841
  0.8441865940008881  0.3747890648642738  0.3141679690443766
  0.8994994629399926  0.3747791455835028  0.4005212890056029
  0.7493630575566854  0.3746541751436325  0.3852991844986491
  0.5989411703624299  0.3756131630165385  0.4025786072494881
  0.6560077228607710  0.3731459603158171  0.4829187296579889
  0.4992739566694837  0.3720879933217560  0.4737284659967997
  0.8470665425641286  0.3739977152263876  0.4839029014866867
  0.9052267003095196  0.4043963828649026  0.5619420425061961
  0.7538291462665967  0.3422679977067631  0.5521649298315907
  0.6047173337656417  0.3134888249459209  0.5627624529852824
  0.9048737429878884  0.3746397069744063  0.2307897409949007
  0.7486246483977155  0.3745256878695713  0.1989222133521480
  0.5932032511995047  0.3745889458148284  0.2319630845516798
  0.6528235863703173  0.9997640053766190  0.3156854561901454
  0.4986330024096262  0.9999059688543852  0.3044505079476565
  0.8439625753839408  0.9997050470747482  0.3139338206697104
  0.8991146399726588  0.9997014753536178  0.4003113824989839
  0.7486920856011636  0.9996002848531447  0.3845021998551061
  0.5980771013464263  0.9997544711535653  0.4039374277450847
  0.6562573774449447  0.9964323605975096  0.4857394821727610
  0.4979250982274053  0.9983405756543178  0.4772662695394772
  0.8460874590956351  0.9963598668402440  0.4836864482394603
  0.9026534047631003  0.0308171274778957  0.5637455849808717
  0.7595312200164415  0.9674413868917426  0.5679669296294136
  0.5826225579278344  0.9436457400733360  0.5671957130972487
  0.9048923372323543  0.4997484018203480  0.2305849328003902
  0.7486828798519269  0.4996526119395668  0.1982006978403348
  0.5933430971971347  0.4996738763265398  0.2315908081066027
  0.6541372049072720  0.6249407713136463  0.3146595568589916
  0.4993568871824081  0.6247993956902747  0.3024403924264902
  0.8444800674559971  0.6248008002481740  0.3138542054201210
  0.9003206302835167  0.6243982726036990  0.4001560165426810
  0.7498471050028286  0.6250263244951029  0.3853472305281329
  0.5995886308199161  0.6252788287331796  0.4012948711897479
  0.6562965983851967  0.6261695618884318  0.4844996526902321
  0.5017959500920313  0.6249101201256337  0.4724853433086196
  0.8499184133159616  0.6247918900258398  0.4838872006359836
  0.9291685990701808  0.6196644563021749  0.5688015202758621
  0.7841805546184020  0.6324703385869057  0.5603188282933047
  0.5937194727732518  0.6519870838890327  0.5578314528120885
  0.9050472023850560  0.6248747611100995  0.2304410806534207
  0.7487038354553022  0.6250076325102540  0.1981331257396306
  0.5932745752415371  0.6249525449354465  0.2313909633590612
  0.6537462365451177  0.7498271766702445  0.3148170542600752
  0.4987086201492588  0.7498705331431879  0.3029877942991916
  0.8443740701995921  0.7498187751277428  0.3138356891078686
  0.9004510172152820  0.7497771077520383  0.3996459147730107
  0.7493305692994099  0.7497318018949599  0.3862804128935409
  0.5976635834602959  0.7495498034726467  0.4012513294765157
  0.6467138634878751  0.7531210151709971  0.4843076580089445
  0.4963424748833205  0.7492458292266875  0.4706228127696264
  0.8466315388151529  0.7498329591282058  0.4820128964323516
  0.9126454809840538  0.7312539192903671  0.5638774902539794
  0.6971005156415089  0.7382243917677229  0.5568213990214659
  0.5218519693591546  0.7717742150583717  0.5622104261511609
  0.9050536773972269  0.7500489303457485  0.2305287591345930
  0.7486301198583902  0.7501413900946048  0.1989110527116935
  0.5929715553090631  0.7500898747179932  0.2316351721380840
  0.6530889766662682  0.8748714353302844  0.3151972934586951
  0.4985262344842170  0.8748772800133864  0.3035709551709971
  0.8439939386665714  0.8746198665820444  0.3138788285864607
  0.8996150343223093  0.8743392506802437  0.3999627737880402
  0.7486455438140140  0.8740571720897350  0.3856242047213101
  0.5972304523945766  0.8751069950878616  0.4021127349181768
  0.6502003107417522  0.8719727463743396  0.4856681807143204
  0.4986577615538437  0.8729044837207667  0.4771761283518288
  0.8459335292013677  0.8728833968359666  0.4812844543513890
  0.8944279601406606  0.9021927960948304  0.5657631548301723
  0.7418850031651729  0.8568324486360055  0.5615701544057927
  0.5718538752519393  0.8927109416709769  0.5685147570533857
  0.9050649406328404  0.8750289393887769  0.2307729026372769
  0.7483698651890691  0.8750775122033403  0.1987930272380893
  0.5926024516118673  0.8750921610139955  0.2319713347449053
  0.6540268741342388  0.4996952871980227  0.3150880127944262
  0.4995223625198477  0.4998544391843396  0.3028842360063848
  0.8441932250618223  0.4998145411348816  0.3141286671802987
  0.8998303081328203  0.4999015503022122  0.4006903432419548
  0.7494157941668007  0.4998455473601240  0.3862976267344891
  0.5994038216420208  0.4991851517216688  0.4025443438452712
  0.6545957774990185  0.5041471356141187  0.4868729378983474
  0.5008145994620179  0.4993870697648291  0.4737192578395977
  0.8467213815841816  0.4983977521432337  0.4853520132693276
  0.9309771085720655  0.5202862920911784  0.5720382650150881
  0.8007291859556176  0.5101160058679568  0.5751802149914198
  0.5760077824355108  0.4241523014502846  0.5386714219720190
  0.9839582250725911  0.1347888993874875  0.5350228326561108
  0.3729843365696368  0.1060556997523605  0.5900020013600908
  0.1080544528462681  0.0672015868902207  0.5370413977910999
  0.9883185530109273  0.2644463133195813  0.5350656102183962
  0.3156510283748091  0.1951410394878721  0.5321301042123139
  0.1086470467202076  0.1918441290310895  0.5367485289955667
  0.9887124461679164  0.3863703517804495  0.5345582253560579
  0.3551103692148274  0.3184608036084313  0.5783913179485509
  0.1133183120606063  0.3161699466598549  0.5357209601774784
  0.9837068849911006  0.0106863223224778  0.5348724493180157
  0.3405187821428513  0.4464553456077880  0.5394676723968388
  0.1165657187313371  0.4394942783791720  0.5349708282826597
  0.0052825500202829  0.6278119289085922  0.5358607733979284
  0.3059372872854880  0.5562437453700184  0.5301533460191408
  0.1260533381180835  0.5647400072940840  0.5347043898858246
  0.9921622946280237  0.7334932865189288  0.5361104481221304
  0.3221884613166068  0.6727552386600451  0.5257519440446359
  0.1225143630226029  0.6915894923318788  0.5333484910620427
  0.9779855972302798  0.8939113353534296  0.5351292232424569
  0.3309189607643646  0.8691938283678979  0.5856577203063509
  0.1122604221712251  0.8207307275433422  0.5380089383705808
  0.0023105478611782  0.5067480534836690  0.5360518558810838
  0.3101072817998869  0.9339786751014927  0.5219414640724480
  0.1101281756664818  0.9425890789593794  0.5385362678733117
  0.5258913425466574  0.1314806804284743  0.5402934059626716
  0.8524878571904182  0.0924830312399862  0.5433516640163205
  0.7188276425543307  0.0206318419372096  0.5364963546196577
  0.5732225614053803  0.2451933180664412  0.5423337031584765
  0.8631229600793731  0.2188205397711371  0.5432195317428778
  0.6567786650288667  0.1149400646382333  0.5459910743854479
  0.5307959028515796  0.3534291609672593  0.5376572678260985
  0.8567029170370901  0.3436558105754415  0.5424709580993223
  0.7105277081490655  0.2770417459299708  0.5394020628763414
  0.5221057942179712  0.0013924850504665  0.5409690992223233
  0.8690981460974356  0.4726429244017254  0.5465428970269315
  0.6598662882330046  0.3731525774954108  0.5444662178277540
  0.5042898153017248  0.6377914966898004  0.5354376161593493
  0.8469979150373845  0.5744690506131889  0.5751772417917849
  0.7039209492820433  0.6629565628295424  0.5393102387365474
  0.4516024740639679  0.7440089259526488  0.5277487405525889
  0.8717767775360912  0.6700729176430613  0.5421362274406860
  0.6012248741999500  0.7283959113666896  0.5411107617978246
  0.4948479257808174  0.8443484546213682  0.5439560621757948
  0.8312742116667380  0.8576878211798871  0.5403680453347945
  0.6954626914133044  0.8059155144467525  0.5284978091682504
  0.5040438320005762  0.4734350085998713  0.5335057148010378
  0.8538717772249385  0.9684316001579418  0.5464333583674019
  0.6883155904951437  0.9196767320568213  0.5691150777039553
  0.4386090672753085  0.5582864809779409  0.5739777422063597
  0.6120099152235099  0.5667767192302193  0.5390715177768044
  0.3772903103204328  0.6891422501937470  0.5995194012483722
  0.5099394885123658  0.7040877572651780  0.5978431654899481
 
  0.00000000E+00  0.00000000E+00  0.00000000E+00
  0.00000000E+00  0.00000000E+00  0.00000000E+00
  0.00000000E+00  0.00000000E+00  0.00000000E+00