Ta Ru N Cu                              
   1.00000000000000     
    18.1096308199999996    0.0000000000000000    0.0000000000000000
     0.0000000000000000   23.3551997799999995    0.0000000000000000
     0.0000000000000000    0.0000000000000000   28.4818170799999990
   Ta   Ru   N    Cu
   240    64   240    29
Direct
 -0.0003125403241465 -0.0004032711704442  0.2115298475151560
  0.3340168159300517  0.0622948983601733  0.2173021916417724
  0.1658051572682287  0.0622654492514841  0.2173382604839986
  0.2497462355938071  0.1246208590196023  0.2977620482898591
  0.0821169731612529  0.0620818142121331  0.3040600809092514
  0.4170442177409457  0.0621352631989735  0.3043343223496758
  0.0000938841813695  0.1245437346590558  0.3961804294549111
  0.3320612392949412  0.0621214185713153  0.3942851047504221
  0.1676019685593975  0.0619784861563800  0.3939446192554170
  0.2491816680539218  0.1243621982237066  0.4867298644117698
  0.0835622304643837  0.0618292282871017  0.4864277725192901
  0.4164114204946721  0.0621763323871280  0.4857452863367508
  0.4982907860369893  0.1244526352216083  0.5776791727806495
  0.3319730797038718  0.0616982071921454  0.5766774860585072
  0.1648799101116783  0.0615815962253415  0.5800401606986798
 -0.0003786423465779  0.1247605284382634  0.2116178545778229
  0.3340601846670359  0.1872389888102933  0.2175837586110546
  0.1658294996577795  0.1872106261856397  0.2175494977400299
  0.2498887327530270  0.2497321679408093  0.2982815692858258
  0.0821903928568269  0.1871450835682675  0.3043360876042747
  0.4170701571938907  0.1871821151497748  0.3047073470502632
  0.0000864442656601  0.2494832113789931  0.3964407463725551
  0.3322906960601063  0.1871765010173130  0.3948991636548445
  0.1675963264047473  0.1870110163972402  0.3943228136973276
  0.2495244034538729  0.2494644488137278  0.4874163774173256
  0.0838373178529845  0.1866538251381579  0.4868871554786820
  0.4162059715446734  0.1872954340151782  0.4869748345551034
  0.5003071352408692  0.2488634726886008  0.5785513583476852
  0.3321547357973856  0.1867145408689878  0.5785543989366283
  0.1653653287376713  0.1863985767025478  0.5818818712295019
 -0.0003023842022276  0.2497946757952847  0.2118606566967090
  0.3341522845688487  0.3123418934839034  0.2178844077255942
  0.1657628264573876  0.3123364151771510  0.2177763661034299
  0.2499347842841470  0.3746362493138972  0.2985196158506669
  0.0822768149199377  0.3121055755641807  0.3045710761773152
  0.4170194099516694  0.3121478013536506  0.3051188828392840
 -0.0000720040994926  0.3745109665685070  0.3966426527375669
  0.3323737027560186  0.3121332020327486  0.3953699678117104
  0.1677683064048965  0.3120234618052912  0.3945769006386747
  0.2498561882959834  0.3744394386152676  0.4877575189592655
  0.0836024080111221  0.3117059019167802  0.4866402745755567
  0.4163258110982337  0.3122532436914897  0.4879533912561967
  0.4987686765635457  0.3746722141036946  0.5793037336146911
  0.3327800836721922  0.3115912001396608  0.5807460904827930
  0.1653931733151290  0.3115689618931277  0.5793273461073329
 -0.0004015241708781  0.3746698608725751  0.2120544557760496
  0.3340059389939285  0.4370869854526378  0.2180532129728988
  0.1657840257710249  0.4370995195097261  0.2179651304668877
  0.2496415036274905 -0.0004035524710906  0.2976514933953632
  0.0822129551097828  0.4370714981782383  0.3047686969300067
  0.4170120727121300  0.4370907231389381  0.3053185779825457
  0.4998682470528427  0.4994831488948095  0.3971981244517155
  0.3322985716651779  0.4370400560047569  0.3956012884238207
  0.1677429568430435  0.4370306902742121  0.3948005150083026
  0.2496473699299153  0.4996788594378353  0.4878826102997397
  0.0834285815658904  0.4370146642227875  0.4867555878249472
  0.4162126190311694  0.4370582610141661  0.4881200824358951
  0.4989558595562481  0.4996808883253944  0.5793388376793466
  0.3323855726538102  0.4370742053413629  0.5811947199123288
  0.1648800148374992  0.4369638169619389  0.5796549079613065
 -0.0003480928545096  0.4995277814808671  0.2121887490766196
  0.3339568549833034  0.5620529875251166  0.2179559849282756
  0.1656810574483551  0.5620972093935077  0.2179601278230737
  0.2496803747801034  0.6244156546200801  0.2984291993408422
  0.0821509354093573  0.5619958972822047  0.3048136271629797
  0.4169381485550010  0.5619840603439541  0.3051864985527774
 -0.0000736514687500  0.6245539357593003  0.3968793954358459
  0.3322100167520463  0.5619549947935184  0.3954692740361938
  0.1676159174419336  0.5620067489876740  0.3948599173958492
  0.2494129779912161  0.6245636459022188  0.4877484348368229
  0.0832772370201930  0.5622892782806254  0.4872034547201238
  0.4162466541732651  0.5618369666888193  0.4878938040505567
  0.5000841409566303  0.6251619010405122  0.5782968428840238
  0.3322850100427290  0.5624822026616527  0.5806318636062430
  0.1648400902108031  0.5623738965017002  0.5798983174312369
 -0.0004308550076211  0.6243498471485688  0.2120596832282479
  0.3338588770895020  0.6868170387222667  0.2177231418153560
  0.1656385632432043  0.6868588186356303  0.2177845968900618
  0.2495937856529053  0.7494202969199432  0.2981159575211209
  0.0820635320786539  0.6869635329401351  0.3046338911321839
  0.4169363890993494  0.6869322080843474  0.3048401581922057
  0.0000217182492809  0.7493534853910775  0.3965839353260744
  0.3321774322532386  0.6868562982066393  0.3950760312485566
  0.1674847819321064  0.6869142323258057  0.3946706295678607
  0.2492067527115479  0.7496454794113404  0.4871928358477849
  0.0836436763747419  0.6872037591705552  0.4875062604763806
  0.4161306029063819  0.6867882690640137  0.4870975629675909
  0.4985054775715372  0.7499033453735340  0.5779907474117351
  0.3322278433012211  0.6876110309772898  0.5787457824225032
  0.1658183431188722  0.6875866390763280  0.5823886825151098
 -0.0003784292694511  0.7493266934639898  0.2118492393196783
  0.3338661869732910  0.8119787246526626  0.2174149666409690
  0.1657093738583265  0.8120127573548593  0.2175202267232423
  0.2495875755063055  0.8744802733690407  0.2976585256502370
  0.0820380821888620  0.8119451727173199  0.3043067744479580
  0.4169725833003516  0.8119471411572731  0.3044222184878669
  0.0000761833892681  0.8743918384316050  0.3961888304090952
  0.3320121858668277  0.8118337075809392  0.3944618868905349
  0.1675547905253627  0.8118682289769830  0.3942339744988514
  0.2488890209466163  0.8744801584349570  0.4866309938459485
  0.0836763364045782  0.8119792363310303  0.4868244040987800
  0.4163703598655302  0.8118944272810685  0.4860116000721990
  0.4974390230968115  0.8756440268267072  0.5761424114337739
  0.3329111213068074  0.8124703170175421  0.5773752832670714
  0.1654041463209815  0.8121731459746230  0.5809572625710754
 -0.0004066813223979  0.8743953612376605  0.2115769469505671
  0.3338766211078907  0.9369860660156444  0.2172478459554488
  0.1658043104371100  0.9369811167820314  0.2173119665247144
  0.2498457499105644  0.4995723660191235  0.2987095586648069
  0.0820144696730501  0.9370246668834344  0.3040426703305417
  0.4170245707128618  0.9370402207010550  0.3042149008903487
  0.5004087406656063 -0.0004120684251978  0.3960387070684355
  0.3320012437511820  0.9369536046466572  0.3941257658187842
  0.1675529450336204  0.9369100836115561  0.3938894689258809
  0.2489367046626783 -0.0005005170828836  0.4864077805961069
  0.0835090316379741  0.9368972372587353  0.4864798956777747
  0.4160967753893220  0.9370217145920967  0.4854665272227190
  0.4968991932001586 -0.0002676876782077  0.5763532124358234
  0.3319643131278096  0.9371873763568133  0.5769612492717717
  0.1638314072472786  0.9369458613851982  0.5813246772381312
  0.4997559623396117 -0.0003000754266642  0.2115357191382122
  0.8338210358108790  0.0621725853610820  0.2173149198365335
  0.6656975078669266  0.0622916806903668  0.2173842000177397
  0.7496060797596479  0.1246641105040093  0.2978583083715713
  0.5822489550510381  0.0621713800983315  0.3042233331081433
  0.9168977855686288  0.0620820553085042  0.3043098449686640
  0.5003583994548670  0.1247399574350069  0.3963831034145994
  0.8320433295319122  0.0620471960064999  0.3944255318786183
  0.6676288772701965  0.0620680216012542  0.3942209487725281
  0.7490978131076387  0.1245581759473902  0.4871322015432861
  0.5839503853881401  0.0620818337906693  0.4867781155121637
  0.9160100456060262  0.0620051810066175  0.4861929020891622
  0.9964337236108809  0.1241988108319383  0.5774833464355296
  0.8316899031721454  0.0622478421219568  0.5780646867558494
  0.6645209111119769  0.0620527156759522  0.5811343507142023
  0.4998178284670804  0.1248316981525277  0.2117011550414298
  0.8338746041679341  0.1872224923310217  0.2175075423031041
  0.6656200631140469  0.1873581162708282  0.2176557367272692
  0.7495965845454620  0.2497055728283386  0.2982347820138955
  0.5822173759108612  0.1872186670591549  0.3045917101559403
  0.9169422773281505  0.1871309138807909  0.3045466347215089
  0.5001289645300874  0.2497041825055474  0.3969199373697038
  0.8320615328245081  0.1870832288069798  0.3947184052844995
  0.6676325190230488  0.1871358829926382  0.3946564222604534
  0.7496093282688133  0.2494656866905552  0.4876325807631735
  0.5837353002417265  0.1870832766471185  0.4873534488190659
  0.9161856724705293  0.1869453643498084  0.4863864155133445
  0.9989748430995771  0.2482166207782310  0.5772622033114363
  0.8331936706987872  0.1871113579966225  0.5783411404695470
  0.6648029665085158  0.1872196121957886  0.5819386415164900
  0.4997125864519475  0.2498626920501519  0.2120555623901307
  0.8338997850593667  0.3122115806647758  0.2177541340862332
  0.6655289008624151  0.3123411785264293  0.2179550261406238
  0.7496174760825146  0.3746574083633708  0.2985261967302238
  0.5821903710453903  0.3121425102882207  0.3049436534845162
  0.9169899029993875  0.3120885367984533  0.3048266934584941
  0.4999232295425797  0.3745611836301836  0.3972229098839321
  0.8321593269284704  0.3120733384208242  0.3950338355552653
  0.6675652523133752  0.3120931923017454  0.3949784672420839
  0.7503594269332818  0.3745216796320959  0.4877824088947568
  0.5839421338360574  0.3121066133612478  0.4876145247040335
  0.9164858280371156  0.3119194823881600  0.4869695146901118
 -0.0006432928564600  0.3739198441194749  0.5778844514103864
  0.8340796911666618  0.3115647036983167  0.5798330285790536
  0.6664584480663313  0.3119841976073628  0.5810338283619890
  0.4996402314001576  0.3747315128896415  0.2122824397403197
  0.8338580743501551  0.4371200521416344  0.2179129995419855
  0.6655253367977235  0.4371277274043793  0.2180781472516261
  0.7496353427298260 -0.0004117714443349  0.2976461640038118
  0.5821903418744123  0.4370603720067063  0.3050658872286137
  0.9169251864729605  0.4370588068185161  0.3050178008953994
 -0.0001247290796715  0.4995967102575050  0.3968178908995236
  0.8322350869898100  0.4370548146425662  0.3953044603534474
  0.6677002892460400  0.4370310685636251  0.3951032635708117
  0.7504124438551782  0.4995089712357489  0.4879145029697549
  0.5837258927605071  0.4369934874709377  0.4875273803591186
  0.9166740773093461  0.4370251343212602  0.4872659035808293
  0.9986859761888461  0.4987711522457738  0.5786454201442249
  0.8346766455399534  0.4365756879142245  0.5796499080965302
  0.6660302736372758  0.4370070386303000  0.5806219152600526
  0.4995445749201360  0.4995294529037482  0.2123364621390926
  0.8338862774625190  0.5620278797543099  0.2179031520849552
  0.6655075314642440  0.5619910270743810  0.2180049211390627
  0.7496787179521317  0.6244037393870859  0.2984055448964449
  0.5821585125116693  0.5619707757714354  0.3049820103185817
  0.9169424067783783  0.5619947323174185  0.3050274404956572
  0.5000323880317895  0.6243318834441949  0.3969319432438704
  0.8323333845887561  0.5619863989834053  0.3953466933551939
  0.6676485569638345  0.5619456814450615  0.3950250120503366
  0.7500304040176966  0.6244180236311521  0.4877942814222741
  0.5838135525823015  0.5618576298427373  0.4874250077108467
  0.9163455843536464  0.5621256125009373  0.4877134848425700
  0.9966462891331863  0.6245752846563047  0.5790588119847945
  0.8334804549350078  0.5618054525691814  0.5805983483594847
  0.6655460507894272  0.5617580484118589  0.5808501536402594
  0.4996482769868767  0.6243109200465535  0.2121141930539803
  0.8337940726580033  0.6868810674895045  0.2177077256435559
  0.6655215281227765  0.6868265637799021  0.2177270040450809
  0.7496626409708563  0.7493828395766827  0.2980553222343183
  0.5821835813519985  0.6869146301239533  0.3046682791173743
  0.9169346996821520  0.6869480996034137  0.3048075775321672
  0.5002427116075766  0.7493435539000939  0.3964547782682569
  0.8323139902997334  0.6868794548454191  0.3950746591793198
  0.6677085350968734  0.6868573215965645  0.3947068197617986
  0.7495507916625230  0.7494401772059007  0.4872838881421447
  0.5836677881326582  0.6869208276587471  0.4871416766967890
  0.9160161981782999  0.6869370173779709  0.4874098017649193
  0.9958999259983653  0.7500625303622239  0.5781374998355311
  0.8337036964708939  0.6871856489111428  0.5803109015721661
  0.6654128000965712  0.6868252813407540  0.5806670234087802
  0.4996198918823317  0.7492838071138317  0.2118233666359962
  0.8337758042844058  0.8118768740696913  0.2174411006073761
  0.6655730917352994  0.8119054734086700  0.2174402741091312
  0.7496297038309521  0.8744588058113841  0.2977058052867936
  0.5821659569064189  0.8119246632390189  0.3042695329290445
  0.9168914327331943  0.8119448653834340  0.3044762758429781
  0.5003502877600339  0.8744240297391920  0.3960838941549447
  0.8321877325143101  0.8118463855637735  0.3946385849529908
  0.6676955510882880  0.8118544248144844  0.3942305385437568
  0.7492104267482657  0.8743822576152727  0.4868477667825536
  0.5838600053430107  0.8119491978689664  0.4866711914179582
  0.9158881800500605  0.8118027279611325  0.4866299370903880
  0.9961134488659759  0.8750970521069240  0.5770444172329965
  0.8315055398433748  0.8121552174882427  0.5787110003484107
  0.6646898170188189  0.8118561995587004  0.5809169076603656
  0.4997903790246342  0.8743902549921414  0.2115397669370898
  0.8337506670181556  0.9369792994075625  0.2172797321365753
  0.6657301300002534  0.9370868216332224  0.2173249091709851
  0.7496766550735330  0.4994937873674007  0.2986154642304898
  0.5822140346589650  0.9370486950037406  0.3040690835097204
  0.9168447238568208  0.9370009295511560  0.3042576921060257
  0.0000991840005414 -0.0005204651825245  0.3960549180570544
  0.8320756509996395  0.9369252517089713  0.3943637128789871
  0.6677331001724162  0.9369452903782487  0.3940153493477911
  0.7490913550964080 -0.0004642630229032  0.4867780474984880
  0.5839771745835884  0.9370159506535419  0.4864878600599439
  0.9158829462083100  0.9369296780094181  0.4859702838474676
  0.9955519876643122  0.9990650734750067  0.5770956035161480
  0.8312369656341503  0.9370639206060445  0.5769960933311085
  0.6646860516091485  0.9370396132663623  0.5813535396735487
  0.0643836540721650  0.0038326782608564  0.6730559714251980
  0.2281500499026342  0.5041702155889123  0.6682332761261700
  0.4402128180231684  0.0597347901385295  0.6582056476058525
  0.0610095151178580  0.2436856416825891  0.6748321977894687
  0.2871457557900966  0.2537515738738161  0.6678551073401164
  0.4371996483012595  0.3105390459948187  0.6573090436747506
  0.0687056394560139  0.1158964885969599  0.6733809971122269
  0.2846676433331998  0.1103965617537385  0.6640700779329103
  0.4274086000933027  0.1837229729105516  0.6601093117206412
  0.0734892527839480  0.3547091148155208  0.6746938133261907
  0.2255484144283412  0.3690246281941222  0.6681120685948200
  0.4331519225579668  0.4381577129298115  0.6631856404003506
  0.1325717878274530  0.4386870675496927  0.7074379596293950
  0.1736148636804219  0.2820705155679488  0.7069482867784308
  0.1804460375896873  0.1749946256736255  0.6934270061539508
  0.1808071800433255  0.0546292963677935  0.6949789008507319
  0.0745334696490769  0.5204822872203788  0.6754445311015852
  0.2847223028307801 -0.0030409631468517  0.6629857429816272
  0.4358413285542238  0.5641588840047047  0.6579232254129117
  0.0658711115956162  0.7549605643961643  0.6736512442749542
  0.2889730311257062  0.7636702342849265  0.6654089578785097
  0.4391186261831133  0.8166001781662098  0.6570854270706554
  0.0648304934866874  0.6373183777343753  0.6748588096083309
  0.2852731787116364  0.6190061564375101  0.6687783804198276
  0.4340746485750481  0.6881881902798170  0.6605740059698956
  0.0661506575904015  0.8715554589735246  0.6732075243487529
  0.2817275508400532  0.8761976821241368  0.6645299737396450
  0.4448447171824705  0.9382788981391814  0.6586440967735531
  0.1759624818561657  0.9371667520074485  0.6902047172263837
  0.1797315084607918  0.8129956459989746  0.6948621045624067
  0.1813373931436601  0.6981238582427851  0.6923742614247850
  0.1725637793405971  0.5904503403722902  0.7086123096620752
  0.5658682975425376 -0.0033809157729657  0.6734276090621225
  0.7796061839925182  0.5002965434284041  0.6668994223630978
  0.9409278094399044  0.0597773944937795  0.6580829185628660
  0.5715389937452406  0.2601331614245408  0.6778057641633995
  0.7790492778158656  0.2356470209837612  0.6669215034305017
  0.9444601056614548  0.3095934310442817  0.6591012088375432
  0.5708806867797057  0.1048259035739055  0.6748283083467214
  0.7803378132327250  0.1251631887429674  0.6652955220611093
  0.9397928678170513  0.1858679223703039  0.6590483409294987
  0.5748560613025449  0.3656290751642086  0.6761902848877391
  0.7804976079903626  0.3858281538545253  0.6670235781706075
  0.9538436968598787  0.4346716900136879  0.6608637040648272
  0.6755206698889985  0.4381688523253927  0.7034074365224662
  0.6876964357228312  0.3117911239885882  0.7011574843891453
  0.6693524354107662  0.1791382292572704  0.6973068488650300
  0.6867657046501441  0.0582385973316268  0.6944967169192523
  0.5744780833188894  0.5114282096106795  0.6773179177026347
  0.7890255852219733  0.9958282249590801  0.6628394243083519
  0.9462585862167625  0.5592922838492022  0.6591921767854543
  0.5681306579451825  0.7639369489437989  0.6745986293007603
  0.7737443989612088  0.7476813354445567  0.6678983584419994
  0.9411716833802940  0.8165853808545395  0.6590216454058914
  0.5614065524142188  0.6179254015842811  0.6750065822938440
  0.7754307007384458  0.6356033104780607  0.6682537847721851
  0.9392537374667915  0.6889705182036837  0.6589947222742165
  0.5646918492259880  0.8719334145653527  0.6732422678188261
  0.7901876551572323  0.8773736418877178  0.6634679274482193
  0.9421378497030356  0.9371532085839350  0.6596394505612279
  0.6807789453812679  0.9384658932726431  0.6893180619572754
  0.6830531035276260  0.8238367076940112  0.6950418979069025
  0.6707314062745869  0.6903539000988325  0.7067116601975264
  0.6850380604584358  0.5637402101903756  0.7018129537102472
  0.4055106877025690 -0.0003776623830290  0.2488552311229898
  0.2498816770455550 -0.0003419012843060  0.2140650019283704
  0.0939721824242702 -0.0004134771651875  0.2487758834680067
  0.1544835692114769  0.1246032461109679  0.3380795100432035
 -0.0003528250251513  0.1245833103599113  0.3248686009526993
  0.3448774891644088  0.1247197627428851  0.3383262486734638
  0.4006479246640658  0.1248639974050895  0.4305437141704839
  0.2496672808981598  0.1245630387749571  0.4144794348788342
  0.0995217174554772  0.1243955935049773  0.4307322266242380
  0.1516637364485508  0.1243123870454733  0.5233232251355265
  0.4997596348670418  0.1245855600042217  0.5050013909906749
  0.3475471717821194  0.1247789753560372  0.5218125945771886
  0.4010180370125597  0.1220351829522826  0.6127966171520400
  0.2504665021312922  0.1234718414257343  0.5977806404947483
  0.0955894351009033  0.1229092058193601  0.6087975957864554
  0.4056119335206760  0.1247795969451169  0.2490810798059863
  0.2499210155521676  0.1247836255055311  0.2134782826027505
  0.0939133304271694  0.1247196219440110  0.2488842628500911
  0.1545611953693387  0.2496041972343618  0.3384145426056560
 -0.0002916706176975  0.2495889623163421  0.3251319000663241
  0.3449661940521337  0.2496646268768090  0.3388741175900547
  0.4005968480622135  0.2498145029423176  0.4314853950868203
  0.2497667196749538  0.2495711591934111  0.4150595808729053
  0.0996203900582089  0.2493232903938254  0.4309334118627949
  0.1517645986990645  0.2487067511685018  0.5235645453863127
  0.5000197800605793  0.2497212807272478  0.5057587418336402
  0.3472568494294648  0.2499138725216898  0.5234519361361869
  0.4033204842049987  0.2473887220651794  0.6133575059782974
  0.2513872340706619  0.2493570634706945  0.5996643862933496
  0.0970363526412806  0.2489298021867419  0.6105348919983185
  0.4055501956921271  0.2497794814917305  0.2495358404491657
  0.2499358139566559  0.2498268861406800  0.2147907223857440
  0.0939795486552233  0.2497120779649010  0.2491761374489371
  0.1545639259823421  0.3745992643422552  0.3386123679591065
 -0.0003138064365537  0.3745609723729051  0.3253304758353206
  0.3450111085701648  0.3746324756047675  0.3392034908757781
  0.4004736604507105  0.3746359082144700  0.4320504870204988
  0.2498344474388159  0.3745077537639260  0.4153880258196019
  0.0994414328771944  0.3744749896444858  0.4309212430300354
  0.1514844348313498  0.3742584772133428  0.5227618598136536
  0.4999780812616796  0.3745795460528786  0.5064062127925110
  0.3475060001999693  0.3750112802025783  0.5244523741815148
  0.4026477428516241  0.3767672005153900  0.6159357832546573
  0.2489119603802783  0.3743017829435923  0.5987525698083082
  0.0975098070573329  0.3736121749630462  0.6097875545521512
  0.4055158205055212  0.3747053235604872  0.2498115996105960
  0.2499004957591482  0.3746921388755686  0.2141752070100317
  0.0939158506607426  0.3746727534091040  0.2493428446511982
  0.1543335120682866 -0.0005003283627295  0.3379246405891361
 -0.0003974987130772 -0.0004581261344631  0.3247374685801165
  0.3448572094255942 -0.0004268732591875  0.3380053420993855
  0.4004281306723941  0.4994267663753200  0.4320554207005403
  0.2497505008637745  0.4995286501501183  0.4154910301676240
  0.0992995802121646  0.4996482600213166  0.4311901697407928
  0.1513109792172871  0.4998569113426868  0.5230403557346789
  0.4999725209401977  0.4994842013329455  0.5064335235965007
  0.3477102049224376 -0.0006525905171237  0.5209754269495901
  0.4024772853266751  0.4982251010511277  0.6155646927018514
  0.2489100412267751  0.4996947111037800  0.5987694848733832
  0.0944668392987296 -0.0000190590091506  0.6085716465352897
  0.4054212669285880  0.4995372517802626  0.2498752122599553
  0.2498405047706814  0.4995944963341302  0.2150530766223922
  0.0939362396530246  0.4995573846690965  0.2495196305206478
  0.1543899132840512  0.6244608302349088  0.3386958162433596
 -0.0003811490275100  0.6244946644241615  0.3254746105317360
  0.3448305653700771  0.6244317275391156  0.3389716017873218
  0.4004722909622998  0.6242862580853948  0.4315275155626637
  0.2496327077624763  0.6244655070380378  0.4153350592505531
  0.0993670759609917  0.6246472667659385  0.4314376985747853
  0.1517407048438484  0.6251927449378445  0.5240526702078095
  0.5000620628977079  0.6243856264157215  0.5054775023137182
  0.3473121855909134  0.6241845042411351  0.5235134409290352
  0.4027949446423236  0.6269444733901832  0.6130962684872441
  0.2513921864504067  0.6246000774743781  0.6002650361249668
  0.0962642384947479  0.6251865380095575  0.6106529914515646
  0.4054665410501669  0.6244018846891235  0.2495882839528120
  0.2497934601470880  0.6244231685769778  0.2141029625474446
  0.0938172155848561  0.6244447495417138  0.2494141409855697
  0.1543439252602336  0.7493883435642302  0.3384152537615007
 -0.0004185751481858  0.7494633818590467  0.3252000076603311
  0.3448234886416470  0.7493668969976259  0.3385287508477285
  0.4005752536577931  0.7491914642881765  0.4307616734280755
  0.2495928454352582  0.7493868679543397  0.4148612511256162
  0.0994280878066845  0.7494377884419836  0.4311859307437028
  0.1518849990935946  0.7496492697223648  0.5239389888438589
  0.4998898486703181  0.7494768082758075  0.5051817839407343
  0.3476837186632719  0.7494921348120515  0.5222074910540419
  0.4012204339266480  0.7504739209876586  0.6134694305547650
  0.2514112087154576  0.7506581471167346  0.5991026335948071
  0.0953161691250201  0.7508468979617045  0.6092005091799442
  0.4054316799237794  0.7493433760530959  0.2492430446473311
  0.2497752680484917  0.7493670097552092  0.2145084183680072
  0.0938582039277489  0.7493946995179296  0.2491972663601724
  0.1543369266608055  0.8744288286831423  0.3380311699660264
 -0.0004235887736281  0.8744866564983660  0.3248563714338504
  0.3447979723395543  0.8744129475252734  0.3380586962701365
  0.4004925961293591  0.8743476489407322  0.4300326873786259
  0.2495641123074321  0.8744165964451692  0.4143357046309687
  0.0994274521077261  0.8743678870039101  0.4307614180294893
  0.1515164519915119  0.8744977452768106  0.5233798871992440
  0.4997806091487502  0.8746067277756893  0.5038268058320821
  0.3476546080805125  0.8746518739692851  0.5211419304341232
  0.4004562805311109  0.8769353557853060  0.6121891109638574
  0.2503827372345289  0.8750010359687176  0.5978860491605771
  0.0949250179499873  0.8739615301866465  0.6087334707329221
  0.4055264403513094  0.8744459995540967  0.2488556965007501
  0.2498338499006119  0.8744449146504967  0.2133412673556472
  0.0938655567455245  0.8744463056175561  0.2488568511476984
  0.1544470142565323  0.4995345862628450  0.3387693145590270
 -0.0003558480721139  0.4995245358666119  0.3254781725749007
  0.3449786529373311  0.4995188388329849  0.3392702601323870
  0.4005392085861451 -0.0003521787165161  0.4299382154467372
  0.2495910036253091 -0.0005140383967848  0.4141730611005548
  0.0994709491945814 -0.0006008403090265  0.4305732721410911
  0.1514082483091549 -0.0007529691425996  0.5231069752999213
  0.4997019422924538 -0.0004309626860619  0.5039704006237516
  0.3474252515534780  0.4991738787490980  0.5243666288620358
  0.3999897793324255  0.9988699683987035  0.6128449390801523
  0.2500123282186652 -0.0009025453190459  0.5971275645643940
  0.0973202471222251  0.5001234026505637  0.6103143668871192
  0.9054072966440659 -0.0004381117700987  0.2488481067661722
  0.7497554139435582 -0.0003546386426655  0.2136789830550015
  0.5939725590016617 -0.0003340474894424  0.2488626911761428
  0.6544975351632598  0.1246673384536818  0.3383472611133153
  0.4997662339051400  0.1246504671260009  0.3250551269791464
  0.8447326305405382  0.1246049663825179  0.3383123565028086
  0.9004247012667734  0.1245495881137996  0.4305039388045108
  0.7496614377030311  0.1245571510121288  0.4147708130564677
  0.5996704360983418  0.1246843308446992  0.4311344725373208
  0.6515846762591690  0.1246698736466428  0.5239741256263710
  0.9995996100591951  0.1242745403685594  0.5047926765454608
  0.8475884165377666  0.1245855236644511  0.5221080918565317
  0.8994973959375151  0.1237418095985247  0.6140013610899219
  0.7500149569174176  0.1246236175469616  0.5984624660086240
  0.5960603337627365  0.1243493169767039  0.6108803308710161
  0.9054107316954993  0.1246996862945393  0.2490111555095183
  0.7497567611380339  0.1248082676658348  0.2138641025208149
  0.5939767938210925  0.1248157413869818  0.2491012440216066
  0.6544840424119222  0.2496933249013370  0.3387308506227641
  0.4997143416306207  0.2496454467763598  0.3255227840277409
  0.8447771522503518  0.2496389819476729  0.3386300392622417
  0.9004725984433397  0.2495628137506409  0.4308836336434217
  0.7497369050177104  0.2496088029055510  0.4152127692279562
  0.5995731662894023  0.2496349140161181  0.4315316732871340
  0.6519082657247663  0.2494589049617587  0.5243049663659678
 -0.0000637273798929  0.2491190904295447  0.5047061473853425
  0.8480825033285564  0.2497935727566464  0.5228279500963012
  0.9029253597703658  0.2485724292797015  0.6141388086760941
  0.7514245174405167  0.2490924620028159  0.5992239856925549
  0.5982988889310418  0.2498320826561073  0.6119746140674357
  0.9054626652384782  0.2497109601316113  0.2492931473378656
  0.7497523562970154  0.2498256930590393  0.2144245482315927
  0.5939026853850494  0.2497996270598078  0.2494751185767455
  0.6544677867458530  0.3745817561395417  0.3389606813180113
  0.4996920284816406  0.3745903432605101  0.3258068626716244
  0.8448672863550205  0.3745776011052697  0.3388933253016815
  0.9004530878096887  0.3745253459568846  0.4312988491758899
  0.7498325036480173  0.3745253220207617  0.4154140410955358
  0.5994278571912096  0.3745576465666100  0.4316596163370804
  0.6526014939791295  0.3745380512551350  0.5238303207969481
  0.0000552001941570  0.3743283762223337  0.5050882682561861
  0.8486205751262728  0.3740575319182247  0.5234809277673892
  0.9037302025886436  0.3750904820844806  0.6156064474881312
  0.7519177718892261  0.3745695158894424  0.5989115854001795
  0.5983919577244367  0.3751362694124395  0.6099291848046620
  0.9054062198230295  0.3746457223982445  0.2495044355497286
  0.7497641275286754  0.3747140668007576  0.2145399968224547
  0.5938291668502814  0.3746766849190764  0.2496877667188356
  0.6545094502479911 -0.0004206649864293  0.3380723593016912
  0.4997656987567066 -0.0004041464866367  0.3247619358386865
  0.8447290368528174 -0.0004619860209871  0.3381292442691324
  0.9004839415628388  0.4996033747312383  0.4315868553190124
  0.7498675757432998  0.4995218273741390  0.4155162175652529
  0.5993890054452717  0.4994160220308185  0.4316130456398470
  0.6523425063499370  0.4993942612254441  0.5238090045143340
 -0.0000572741985683  0.4995187644512494  0.5057225882252935
  0.8475897584298674 -0.0001796759015980  0.5216842055724830
  0.9028380650086238  0.4970596362551055  0.6170026423515096
  0.7511493754382779  0.4994723859436720  0.5986074577223248
  0.5951548033432849 -0.0005109757358548  0.6087450042275645
  0.9054132101171072  0.4995592111766156  0.2496268073539029
  0.7497120511840939  0.4995507126163911  0.2147568700817477