Ta  N Cu                                
   1.00000000000000     
    18.1096308199999996    0.0000000000000000    0.0000000000000000
     0.0000000000000000   11.6775998899999998    0.0000000000000000
     0.0000000000000000    0.0000000000000000   23.4818170799999990
   Ta   N    Cu
   120   120     2
Direct
 -0.0002080484924665  0.0002238540844521  0.2548032505860374
  0.3337401016599128  0.1244030354829126  0.2637367637755827
  0.1664139331118190  0.1243407979115820  0.2637521473065663
  0.2499409983898470  0.2500698843201883  0.3616003398162431
  0.0826322254299414  0.1250695244952409  0.3685781238747469
  0.4175337518072023  0.1250740866653373  0.3684023439128430
  0.0001878635682706  0.2501776139628252  0.4799520081884270
  0.3323468899852609  0.1251095516405455  0.4780152947683344
  0.1673979839302057  0.1251030471463919  0.4784338698054802
  0.2498519779366176  0.2501619631329787  0.5908570111139654
  0.0836646372441744  0.1251072598863940  0.5906217498332488
  0.4162159392405716  0.1252579562775844  0.5900774380240204
  0.9993798388448498  0.2484023921318654  0.7029492035073394
  0.3381730849996543  0.1240428802738127  0.7045641963709394
  0.1681729785698496  0.1216572975876719  0.7013008121414455
  0.0005910104457008  0.2499219273665786  0.2548356709753437
  0.3335686116459005  0.3756149285188726  0.2637986727662365
  0.1664989425871401  0.3757111617627464  0.2637721982341214
  0.2500151473623962  0.4999935537443839  0.3612695268276342
  0.0826151310985493  0.3750177896298896  0.3684751497129374
  0.4175390359460726  0.3750207724254123  0.3684190752375896
  0.0001180482897772  0.4999935080644025  0.4797421561986986
  0.3323767394792518  0.3750486415777916  0.4781239043447464
  0.1675480397273533  0.3750278471936448  0.4783727850655041
  0.2502893554626838  0.5002132079085798  0.5907104448253360
  0.0837266469707381  0.3752293241790306  0.5902405136325419
  0.4160414402756518  0.3750929305288777  0.5900283697135698
  0.0002625060091922  0.4997376605885775  0.7019266341036097
  0.3376713981395120  0.3765934816433470  0.7045577760563452
  0.1656683412296543  0.3801602657187592  0.7034691425271582
 -0.0002113433249829  0.4999022003167331  0.2547293974146893
  0.3334361262950785  0.6243826717170047  0.2637374782125239
  0.1667234339249325  0.6243722483958435  0.2637808585120889
  0.2500574608107209  0.7501017272118067  0.3614857032074414
  0.0826520113239166  0.6250100591849728  0.3683545009619527
  0.4175061305609200  0.6250255042847690  0.3683538525803530
  0.0000841747229912  0.7501137803634699  0.4796536562719644
  0.3324274187602502  0.6250621373710357  0.4780076445617023
  0.1676547080396709  0.6250216435387722  0.4780546283934048
  0.2501851479385087  0.7500718129242574  0.5906171452881148
  0.0836307915746173  0.6252601766697899  0.5896581900038802
  0.4165688367951391  0.6251418363604890  0.5897078378069870
  0.0002773927025729  0.7503321851913136  0.7018750972712821
  0.3359284705790418  0.6258761732131553  0.7037157353432324
  0.1647953464275937  0.6259786362021915  0.7039468339842911
  0.0005525682234963  0.7500695849923429  0.2547155361117590
  0.3334532199947539  0.8757708806895740  0.2637976514092876
  0.1666832158020800  0.8756767197927106  0.2638007213750280
  0.2499832319177762  0.0000628822105935  0.3612768038489131
  0.0826481807402463  0.8751067010915469  0.3683738327558274
  0.4175153477916012  0.8751095121132504  0.3683487602577329
  0.0000954100281686  0.0000606266101450  0.4798568422405727
  0.3323860804346008  0.8751462926166287  0.4780700030796442
  0.1676574849459783  0.8751888040656762  0.4781954313368468
  0.2501295209155011  0.0001811136829258  0.5909421977284212
  0.0836312636863095  0.8748593787483516  0.5897276295022099
  0.4163873115816585  0.8751672723494573  0.5896099643303940
  0.9990356552219379  0.0020544189355976  0.7017604051853362
  0.3362263821360991  0.8749207100016324  0.7037479869847811
  0.1658029511287874  0.8727994810255901  0.7043893904848788
  0.5004067797489137  0.0001625872144330  0.2547778344457654
  0.8336568185275757  0.1257309655540368  0.2636495398959645
  0.6665053391280664  0.1256810475399448  0.2637225547418505
  0.7500713838647352  0.2500788867842110  0.3612428423107789
  0.5825505208394135  0.1250805976787387  0.3683590211235642
  0.9175117660315067  0.1250847996297680  0.3684130862970041
  0.4999460435934349  0.2500099912712129  0.4799767626855982
  0.8326487175725336  0.1251346671275144  0.4780609271189302
  0.6676815969007242  0.1250871567058728  0.4779755075267896
  0.7500415032028614  0.2503562104126251  0.5906943577815192
  0.5836152907648485  0.1251321286577377  0.5898957566423294
  0.9164734403252552  0.1252263193741344  0.5900128846196150
  0.5013207242855865  0.2500785099482360  0.7022282795427448
  0.8348763616878284  0.1251003334287877  0.7032434739373215
  0.6651812636036520  0.1251027189157266  0.7040591291675716
  0.4996245773460547  0.2499924879699144  0.2548087035371586
  0.8335680755761007  0.3743101664109413  0.2637054719799678
  0.6665983811483015  0.3744127246396561  0.2637724263734768
  0.7500323131479107  0.4999567044684278  0.3614707717598178
  0.5825724775612576  0.3750078445545498  0.3683765839996699
  0.9175158084634372  0.3750218175333812  0.3683204049455309
  0.5000373313513079  0.4999913740399456  0.4798255593428790
  0.8324440901918421  0.3750282833844036  0.4780296590940138
  0.6676518008360041  0.3750292725390492  0.4780288736200517
  0.7500597136606093  0.5000486108173436  0.5906162176982732
  0.5836869953868997  0.3751316228289366  0.5898996294805052
  0.9163391111206209  0.3751904281038494  0.5897115735405800
  0.5011538537997872  0.5003759350095325  0.7021121278348288
  0.8353470171052253  0.3746607564189111  0.7036335269109608
  0.6652180588645121  0.3753922305495287  0.7041018087929471
  0.5004034886170335  0.5000285324453413  0.2547551664872285
  0.8334691366302992  0.6256814175900250  0.2637189323685617
  0.6666399786028097  0.6256261236786737  0.2637072423115782
  0.7500225367081569  0.7500928067801980  0.3612416443018685
  0.5825515242512607  0.6250378262800131  0.3683624151952244
  0.9176005132464109  0.6250532360831438  0.3682755367633638
  0.5000943373680100  0.7500711788797697  0.4797328822315468
  0.8324561854111319  0.6250634076414747  0.4779075664113235
  0.6676186647320769  0.6250550580091044  0.4780222228017168
  0.7500867931462618  0.7501330984570970  0.5906201131918415
  0.5837244535412915  0.6251016372260562  0.5898353595051348
  0.9164365137395266  0.6251221021265791  0.5895022324535917
  0.5008695960101008  0.7500522429429139  0.7020637769678775
  0.8353101704642079  0.6250528039083568  0.7041196624301035
  0.6652774680612783  0.6252376263559827  0.7039937815486877
  0.4996442740457862  0.7499658724891620  0.2547372622409383
  0.8334659734943436  0.8744139114993909  0.2637415619637088
  0.6666877328445673  0.8744920225253708  0.2637712212235371
  0.7500726772749501  0.0000630598879250  0.3614698033455200
  0.5825780223954015  0.8750576134722824  0.3683327665261962
  0.9175597167837882  0.8750708467250864  0.3682838691078996
  0.5000419113901101  0.0002728109150300  0.4798704158037779
  0.8324150336147791  0.8751135578040841  0.4779729613716466
  0.6676545153084801  0.8750690746370456  0.4780070832670097
  0.7500754300393234 -0.0000761789300654  0.5906298990543180
  0.5838058205538618  0.8750971644700207  0.5897980969757530
  0.9162267051555658  0.8750304396823354  0.5894866358013149
  0.5013410517019852  0.0002233792018765  0.7020177963660625
  0.8354458470298927  0.8757585607044813  0.7038194344094437
  0.6651251116230826  0.8749387116560893  0.7040032609263362
  0.4071684431458440  0.0001428105214775  0.3011350288263187
  0.2500604256763040  0.0002400943972731  0.2564387253937938
  0.0930007756657273  0.0001678714263800  0.3012014529071780
  0.1544459516680108  0.2500720872017808  0.4101359945992817
  0.0001251027170769  0.2500924466642307  0.3932345961105916
  0.3455475204060898  0.2500303542815261  0.4099846179306189
  0.4007833854389989  0.2500895860806233  0.5221177410920014
  0.2499350843149515  0.2499457584234506  0.5028639487679868
  0.0991403215897873  0.2500924430276207  0.5224628029924266
  0.1519398095792429  0.2509856206858918  0.6349272098730809
  0.0000083944199982  0.2506604727904651  0.6141656503663177
  0.3476684230562232  0.2503691832609812  0.6340049532393796
  0.4045618960198880  0.2505221877113303  0.7408969033694792
  0.2514428319386514  0.2503863562401283  0.7291527078989570
  0.0977843581892378  0.2536937082239127  0.7464042261587902
  0.4065938191598332  0.2500376995363864  0.3012893163366243
  0.2499991644897991  0.2499495208902239  0.2597113635263418
  0.0936021793896024  0.2499926155676930  0.3013604943353829
  0.1544924567089890  0.4999597318051389  0.4099701311057521
  0.0000357925212419  0.5000334392224707  0.3930414231256192
  0.3456118562134614  0.5000450615329802  0.4098777478290020
  0.4010034305206295  0.4998905688448204  0.5220203510142486
  0.2500539141611917  0.5001397562626259  0.5026998888388922
  0.0990210647047427  0.4999693214046391  0.5220670165166480
  0.1519170428758529  0.5012548600483495  0.6329117091848675
 -0.0000252914216946  0.5002079527154318  0.6133250703098941
  0.3483655365380832  0.5005388128173095  0.6333068030554480
  0.4038312026412443  0.5010049816336761  0.7403582194941286
  0.2501465657256181  0.4994588089387212  0.7238323300529185
  0.0976709609557207  0.5005949302749506  0.7405343938845413
  0.4071524952831093  0.4999534251981562  0.3011130917512465
  0.2500972947864458  0.4999073893466804  0.2561831524259714
  0.0929872459030872  0.4999476080365733  0.3011386008480230
  0.1545158069784427  0.7501386536503040  0.4099409718662895
  0.0001670164888954  0.7500700240705792  0.3929820316962425
  0.3456447611973095  0.7500811458108677  0.4098673524492363
  0.4010213783221790  0.7501659768956506  0.5218919822223949
  0.2500704145745081  0.7500202043706822  0.5026427878027661
  0.0990852677953701  0.7501235706525258  0.5219366303374771
  0.1518979146252155  0.7500705584702102  0.6330317182826181
  0.9999551197479745  0.7500856741800482  0.6131983211025940
  0.3484109282539748  0.7501558176774632  0.6330797411394238
  0.4037048730242321  0.7500872920817860  0.7401854289715681
  0.2502060505786208  0.7509440118113512  0.7237016459230823
  0.0973562801459338  0.7502961410150032  0.7405189005254204
  0.4066029271586118  0.7500575154411137  0.3011900506218378
  0.2501062622184290  0.7500597908827425  0.2587373445564990
  0.0935814120458287  0.7500533069099407  0.3012031762411856
  0.1545001995646286  0.0000972746201831  0.4100467019431218
  0.0000251241868468  0.0000233898072779  0.3931591182565187
  0.3455572579449898  0.0001190753459162  0.4099078554751090
  0.4009856864265945  0.0003690788712782  0.5219753993784766
  0.2499942008950537  0.0003074419856870  0.5028876436208289
  0.0990378887779906  0.0002201107799054  0.5222151720788512
  0.1515764131540033  0.9981766924168066  0.6336568378745489
  0.9998723142395813 -0.0003048871658351  0.6132875183191241
  0.3484352335072560  0.9998365502692815  0.6332517900628152
  0.4042601772679218  0.9996075060289908  0.7403915936082488
  0.2510677840907032  0.0007927293267822  0.7241873227630367
  0.0974630589873438  0.9973708093946498  0.7427376490333865
  0.9066507451344304  0.0001268264511686  0.3011467025492733
  0.7501185235780806  0.0001660319024751  0.2589899788185147
  0.5934847309993775  0.0000947662003868  0.3011828673840492
  0.6544724596362080  0.2500677896240080  0.4098535155549035
  0.4999849544106889  0.2500468176022320  0.3932244066778303
  0.8456574551777629  0.2501326367996897  0.4098395451148575
  0.9010862481795603  0.2502193119575836  0.5220187621762251
  0.7500753963243540  0.2499857617852520  0.5026262005881391
  0.5990640838878191  0.2500772515138262  0.5220116239908303
  0.6518215985937026  0.2502160111169198  0.6331816249438469
  0.4999554093853883  0.2501947501583499  0.6134218156618424
  0.8482688161899377  0.2506104454209434  0.6331278538898478
  0.9033544785861016  0.2496276415911680  0.7403085439197680
  0.7502509074778277  0.2502088208893332  0.7238337043477433
  0.5975622846257993  0.2501219336402446  0.7406935142984983
  0.9072404648030750  0.2500034064129125  0.3010706919180392
  0.7500798291976072  0.2499911861606857  0.2563143617144951
  0.5929276500227300  0.2500357910696490  0.3011032041788603
  0.6544452137608139  0.5000643033228167  0.4098444390403409
  0.5000869426250864  0.5000208960990911  0.3931088434983528
  0.8456679580699518  0.5000284451678441  0.4097883261654978
  0.9010527982810641  0.5000129892923739  0.5218512372914624
  0.7500610207024444  0.5001086296516166  0.5025662316720770
  0.5990826158181177  0.4999767693523710  0.5219851587814048
  0.6519300885251246  0.5001770170842156  0.6331491718185098
  0.5000637791563958  0.4999546165159691  0.6133496992331574
  0.8482557541257333  0.5006429370245030  0.6328979459612575
  0.9037774057951034  0.4997261473591488  0.7399666414788577
  0.7504884834102786  0.5000583067051279  0.7237776598007412
  0.5973665611707027  0.5003151548770727  0.7405618507750046
  0.9066760516608485  0.4999833918582954  0.3011078815995487
  0.7500959988746423  0.4999899578857117  0.2589225903742945
  0.5934590047422516  0.5000348299696173  0.3011736387147578
  0.6544397518880180  0.7500410983680459  0.4098106973983632
  0.4999879968884727  0.7500612966813113  0.3930416569041293
  0.8456732205748284  0.7500715703072899  0.4097388090514670
  0.9010416367721314  0.7500775365535407  0.5217818972625665
  0.7500687781124670  0.7500061436314184  0.5025448325068719
  0.5990823669160815  0.7501096793970939  0.5219411477848168
  0.6519061873408557  0.7500475491415850  0.6330948017489781
  0.5000958923372945  0.7502198526464784  0.6132664213153810
  0.8483250179402558  0.7497055120054757  0.6328400520716505
  0.9036706051981690  0.7503780750954503  0.7399481251415551
  0.7505031127674360  0.7502350690946377  0.7236767076753161
  0.5973089005754189  0.7500479222778393  0.7404816593596416
  0.9072555800572936  0.7500481708477718  0.3009789709434963
  0.7500450925127589  0.7499965473328097  0.2560602822847166
  0.5929144527498713  0.7500150881624378  0.3010382122703895
  0.6544728236725893  0.0000330852448855  0.4098512567490475
  0.5000938469397093  0.0000739598492522  0.3931403679456126
  0.8456517351710184  0.0000238656129641  0.4098243489489743
  0.9009765247987250  0.0001532708625441  0.5219174866496472
  0.7500761357448887  0.0002088763088997  0.5025988307363140
  0.5991209096414425  0.0001622230621916  0.5219669315665324
  0.6519103370797791  0.0000906425639965  0.6331433256473071
  0.5000883112017889  0.0001653563441160  0.6132784224154399
  0.8482933870765326  0.9995932886686060  0.6330635871774505
  0.9031229223441881  0.0010823530843966  0.7403380538990137
  0.7501929513874850  0.0001381013312187  0.7237788918549197
  0.5974361330844516  0.0001801945762896  0.7405682018634717
  0.0744241896682085  0.1215579219768610  0.7934952170075826
  0.1903612104351494  0.2431642198010082  0.7992883080485097
 
  0.00000000E+00  0.00000000E+00  0.00000000E+00
  0.00000000E+00  0.00000000E+00  0.00000000E+00
  0.00000000E+00  0.00000000E+00  0.00000000E+00
  0.00000000E+00  0.00000000E+00  0.00000000E+00
  0.00000000E+00  0.00000000E+00  0.00000000E+00
  0.00000000E+00  0.00000000E+00  0.00000000E+00
  0.00000000E+00  0.00000000E+00  0.00000000E+00
  0.00000000E+00  0.00000000E+00  0.00000000E+00
  0.00000000E+00  0.00000000E+00  0.00000000E+00
  0.00000000E+00  0.00000000E+00  0.00000000E+00
  0.00000000E+00  0.00000000E+00  0.00000000E+00
  0.00000000E+00  0.00000000E+00  0.00000000E+00
  0.00000000E+00  0.00000000E+00  0.00000000E+00
  0.00000000E+00  0.00000000E+00  0.00000000E+00
  0.00000000E+00  0.00000000E+00  0.00000000E+00
  0.00000000E+00  0.00000000E+00  0.00000000E+00
  0.00000000E+00  0.00000000E+00  0.00000000E+00
  0.00000000E+00  0.00000000E+00  0.00000000E+00
  0.00000000E+00  0.00000000E+00  0.00000000E+00
  0.00000000E+00  0.00000000E+00  0.00000000E+00
  0.00000000E+00  0.00000000E+00  0.00000000E+00
  0.00000000E+00  0.00000000E+00  0.00000000E+00
  0.00000000E+00  0.00000000E+00  0.00000000E+00
  0.00000000E+00  0.00000000E+00  0.00000000E+00
  0.00000000E+00  0.00000000E+00  0.00000000E+00
  0.00000000E+00  0.00000000E+00  0.00000000E+00
  0.00000000E+00  0.00000000E+00  0.00000000E+00
  0.00000000E+00  0.00000000E+00  0.00000000E+00
  0.00000000E+00  0.00000000E+00  0.00000000E+00
  0.00000000E+00  0.00000000E+00  0.00000000E+00
  0.00000000E+00  0.00000000E+00  0.00000000E+00
  0.00000000E+00  0.00000000E+00  0.00000000E+00
  0.00000000E+00  0.00000000E+00  0.00000000E+00
  0.00000000E+00  0.00000000E+00  0.00000000E+00
  0.00000000E+00  0.00000000E+00  0.00000000E+00
  0.00000000E+00  0.00000000E+00  0.00000000E+00
  0.00000000E+00  0.00000000E+00  0.00000000E+00
  0.00000000E+00  0.00000000E+00  0.00000000E+00
  0.00000000E+00  0.00000000E+00  0.00000000E+00
  0.00000000E+00  0.00000000E+00  0.00000000E+00
  0.00000000E+00  0.00000000E+00  0.00000000E+00
  0.00000000E+00  0.00000000E+00  0.00000000E+00
  0.00000000E+00  0.00000000E+00  0.00000000E+00
  0.00000000E+00  0.00000000E+00  0.00000000E+00
  0.00000000E+00  0.00000000E+00  0.00000000E+00
  0.00000000E+00  0.00000000E+00  0.00000000E+00
  0.00000000E+00  0.00000000E+00  0.00000000E+00
  0.00000000E+00  0.00000000E+00  0.00000000E+00
  0.00000000E+00  0.00000000E+00  0.00000000E+00
  0.00000000E+00  0.00000000E+00  0.00000000E+00
  0.00000000E+00  0.00000000E+00  0.00000000E+00
  0.00000000E+00  0.00000000E+00  0.00000000E+00
  0.00000000E+00  0.00000000E+00  0.00000000E+00
  0.00000000E+00  0.00000000E+00  0.00000000E+00
  0.00000000E+00  0.00000000E+00  0.00000000E+00
  0.00000000E+00  0.00000000E+00  0.00000000E+00
  0.00000000E+00  0.00000000E+00  0.00000000E+00
  0.00000000E+00  0.00000000E+00  0.00000000E+00
  0.00000000E+00  0.00000000E+00  0.00000000E+00
  0.00000000E+00  0.00000000E+00  0.00000000E+00
  0.00000000E+00  0.00000000E+00  0.00000000E+00
  0.00000000E+00  0.00000000E+00  0.00000000E+00
  0.00000000E+00  0.00000000E+00  0.00000000E+00
  0.00000000E+00  0.00000000E+00  0.00000000E+00
  0.00000000E+00  0.00000000E+00  0.00000000E+00
  0.00000000E+00  0.00000000E+00  0.00000000E+00
  0.00000000E+00  0.00000000E+00  0.00000000E+00
  0.00000000E+00  0.00000000E+00  0.00000000E+00
  0.00000000E+00  0.00000000E+00  0.00000000E+00
  0.00000000E+00  0.00000000E+00  0.00000000E+00
  0.00000000E+00  0.00000000E+00  0.00000000E+00
  0.00000000E+00  0.00000000E+00  0.00000000E+00
  0.00000000E+00  0.00000000E+00  0.00000000E+00
  0.00000000E+00  0.00000000E+00  0.00000000E+00
  0.00000000E+00  0.00000000E+00  0.00000000E+00
  0.00000000E+00  0.00000000E+00  0.00000000E+00
  0.00000000E+00  0.00000000E+00  0.00000000E+00
  0.00000000E+00  0.00000000E+00  0.00000000E+00
  0.00000000E+00  0.00000000E+00  0.00000000E+00
  0.00000000E+00  0.00000000E+00  0.00000000E+00
  0.00000000E+00  0.00000000E+00  0.00000000E+00
  0.00000000E+00  0.00000000E+00  0.00000000E+00
  0.00000000E+00  0.00000000E+00  0.00000000E+00
  0.00000000E+00  0.00000000E+00  0.00000000E+00
  0.00000000E+00  0.00000000E+00  0.00000000E+00
  0.00000000E+00  0.00000000E+00  0.00000000E+00
  0.00000000E+00  0.00000000E+00  0.00000000E+00
  0.00000000E+00  0.00000000E+00  0.00000000E+00
  0.00000000E+00  0.00000000E+00  0.00000000E+00
  0.00000000E+00  0.00000000E+00  0.00000000E+00
  0.00000000E+00  0.00000000E+00  0.00000000E+00
  0.00000000E+00  0.00000000E+00  0.00000000E+00
  0.00000000E+00  0.00000000E+00  0.00000000E+00
  0.00000000E+00  0.00000000E+00  0.00000000E+00
  0.00000000E+00  0.00000000E+00  0.00000000E+00
  0.00000000E+00  0.00000000E+00  0.00000000E+00
  0.00000000E+00  0.00000000E+00  0.00000000E+00
  0.00000000E+00  0.00000000E+00  0.00000000E+00
  0.00000000E+00  0.00000000E+00  0.00000000E+00
  0.00000000E+00  0.00000000E+00  0.00000000E+00
  0.00000000E+00  0.00000000E+00  0.00000000E+00
  0.00000000E+00  0.00000000E+00  0.00000000E+00
  0.00000000E+00  0.00000000E+00  0.00000000E+00
  0.00000000E+00  0.00000000E+00  0.00000000E+00
  0.00000000E+00  0.00000000E+00  0.00000000E+00
  0.00000000E+00  0.00000000E+00  0.00000000E+00
  0.00000000E+00  0.00000000E+00  0.00000000E+00
  0.00000000E+00  0.00000000E+00  0.00000000E+00
  0.00000000E+00  0.00000000E+00  0.00000000E+00
  0.00000000E+00  0.00000000E+00  0.00000000E+00
  0.00000000E+00  0.00000000E+00  0.00000000E+00
  0.00000000E+00  0.00000000E+00  0.00000000E+00
  0.00000000E+00  0.00000000E+00  0.00000000E+00
  0.00000000E+00  0.00000000E+00  0.00000000E+00
  0.00000000E+00  0.00000000E+00  0.00000000E+00
  0.00000000E+00  0.00000000E+00  0.00000000E+00
  0.00000000E+00  0.00000000E+00  0.00000000E+00
  0.00000000E+00  0.00000000E+00  0.00000000E+00
  0.00000000E+00  0.00000000E+00  0.00000000E+00
  0.00000000E+00  0.00000000E+00  0.00000000E+00
  0.00000000E+00  0.00000000E+00  0.00000000E+00
  0.00000000E+00  0.00000000E+00  0.00000000E+00
  0.00000000E+00  0.00000000E+00  0.00000000E+00
  0.00000000E+00  0.00000000E+00  0.00000000E+00
  0.00000000E+00  0.00000000E+00  0.00000000E+00
  0.00000000E+00  0.00000000E+00  0.00000000E+00
  0.00000000E+00  0.00000000E+00  0.00000000E+00
  0.00000000E+00  0.00000000E+00  0.00000000E+00
  0.00000000E+00  0.00000000E+00  0.00000000E+00
  0.00000000E+00  0.00000000E+00  0.00000000E+00
  0.00000000E+00  0.00000000E+00  0.00000000E+00
  0.00000000E+00  0.00000000E+00  0.00000000E+00
  0.00000000E+00  0.00000000E+00  0.00000000E+00
  0.00000000E+00  0.00000000E+00  0.00000000E+00
  0.00000000E+00  0.00000000E+00  0.00000000E+00
  0.00000000E+00  0.00000000E+00  0.00000000E+00
  0.00000000E+00  0.00000000E+00  0.00000000E+00
  0.00000000E+00  0.00000000E+00  0.00000000E+00
  0.00000000E+00  0.00000000E+00  0.00000000E+00
  0.00000000E+00  0.00000000E+00  0.00000000E+00
  0.00000000E+00  0.00000000E+00  0.00000000E+00
  0.00000000E+00  0.00000000E+00  0.00000000E+00
  0.00000000E+00  0.00000000E+00  0.00000000E+00
  0.00000000E+00  0.00000000E+00  0.00000000E+00
  0.00000000E+00  0.00000000E+00  0.00000000E+00
  0.00000000E+00  0.00000000E+00  0.00000000E+00
  0.00000000E+00  0.00000000E+00  0.00000000E+00
  0.00000000E+00  0.00000000E+00  0.00000000E+00
  0.00000000E+00  0.00000000E+00  0.00000000E+00
  0.00000000E+00  0.00000000E+00  0.00000000E+00
  0.00000000E+00  0.00000000E+00  0.00000000E+00
  0.00000000E+00  0.00000000E+00  0.00000000E+00
  0.00000000E+00  0.00000000E+00  0.00000000E+00
  0.00000000E+00  0.00000000E+00  0.00000000E+00
  0.00000000E+00  0.00000000E+00  0.00000000E+00
  0.00000000E+00  0.00000000E+00  0.00000000E+00
  0.00000000E+00  0.00000000E+00  0.00000000E+00
  0.00000000E+00  0.00000000E+00  0.00000000E+00
  0.00000000E+00  0.00000000E+00  0.00000000E+00
  0.00000000E+00  0.00000000E+00  0.00000000E+00
  0.00000000E+00  0.00000000E+00  0.00000000E+00
  0.00000000E+00  0.00000000E+00  0.00000000E+00
  0.00000000E+00  0.00000000E+00  0.00000000E+00
  0.00000000E+00  0.00000000E+00  0.00000000E+00
  0.00000000E+00  0.00000000E+00  0.00000000E+00
  0.00000000E+00  0.00000000E+00  0.00000000E+00
  0.00000000E+00  0.00000000E+00  0.00000000E+00
  0.00000000E+00  0.00000000E+00  0.00000000E+00
  0.00000000E+00  0.00000000E+00  0.00000000E+00
  0.00000000E+00  0.00000000E+00  0.00000000E+00
  0.00000000E+00  0.00000000E+00  0.00000000E+00
  0.00000000E+00  0.00000000E+00  0.00000000E+00
  0.00000000E+00  0.00000000E+00  0.00000000E+00
  0.00000000E+00  0.00000000E+00  0.00000000E+00
  0.00000000E+00  0.00000000E+00  0.00000000E+00
  0.00000000E+00  0.00000000E+00  0.00000000E+00
  0.00000000E+00  0.00000000E+00  0.00000000E+00
  0.00000000E+00  0.00000000E+00  0.00000000E+00
  0.00000000E+00  0.00000000E+00  0.00000000E+00
  0.00000000E+00  0.00000000E+00  0.00000000E+00
  0.00000000E+00  0.00000000E+00  0.00000000E+00
  0.00000000E+00  0.00000000E+00  0.00000000E+00
  0.00000000E+00  0.00000000E+00  0.00000000E+00
  0.00000000E+00  0.00000000E+00  0.00000000E+00
  0.00000000E+00  0.00000000E+00  0.00000000E+00
  0.00000000E+00  0.00000000E+00  0.00000000E+00
  0.00000000E+00  0.00000000E+00  0.00000000E+00
  0.00000000E+00  0.00000000E+00  0.00000000E+00
  0.00000000E+00  0.00000000E+00  0.00000000E+00
  0.00000000E+00  0.00000000E+00  0.00000000E+00
  0.00000000E+00  0.00000000E+00  0.00000000E+00
  0.00000000E+00  0.00000000E+00  0.00000000E+00
  0.00000000E+00  0.00000000E+00  0.00000000E+00
  0.00000000E+00  0.00000000E+00  0.00000000E+00
  0.00000000E+00  0.00000000E+00  0.00000000E+00
  0.00000000E+00  0.00000000E+00  0.00000000E+00
  0.00000000E+00  0.00000000E+00  0.00000000E+00
  0.00000000E+00  0.00000000E+00  0.00000000E+00
  0.00000000E+00  0.00000000E+00  0.00000000E+00
  0.00000000E+00  0.00000000E+00  0.00000000E+00
  0.00000000E+00  0.00000000E+00  0.00000000E+00
  0.00000000E+00  0.00000000E+00  0.00000000E+00
  0.00000000E+00  0.00000000E+00  0.00000000E+00
  0.00000000E+00  0.00000000E+00  0.00000000E+00
  0.00000000E+00  0.00000000E+00  0.00000000E+00
  0.00000000E+00  0.00000000E+00  0.00000000E+00
  0.00000000E+00  0.00000000E+00  0.00000000E+00
  0.00000000E+00  0.00000000E+00  0.00000000E+00
  0.00000000E+00  0.00000000E+00  0.00000000E+00
  0.00000000E+00  0.00000000E+00  0.00000000E+00
  0.00000000E+00  0.00000000E+00  0.00000000E+00
  0.00000000E+00  0.00000000E+00  0.00000000E+00
  0.00000000E+00  0.00000000E+00  0.00000000E+00
  0.00000000E+00  0.00000000E+00  0.00000000E+00
  0.00000000E+00  0.00000000E+00  0.00000000E+00
  0.00000000E+00  0.00000000E+00  0.00000000E+00
  0.00000000E+00  0.00000000E+00  0.00000000E+00
  0.00000000E+00  0.00000000E+00  0.00000000E+00
  0.00000000E+00  0.00000000E+00  0.00000000E+00
  0.00000000E+00  0.00000000E+00  0.00000000E+00
  0.00000000E+00  0.00000000E+00  0.00000000E+00
  0.00000000E+00  0.00000000E+00  0.00000000E+00
  0.00000000E+00  0.00000000E+00  0.00000000E+00
  0.00000000E+00  0.00000000E+00  0.00000000E+00
  0.00000000E+00  0.00000000E+00  0.00000000E+00
  0.00000000E+00  0.00000000E+00  0.00000000E+00
  0.00000000E+00  0.00000000E+00  0.00000000E+00
  0.00000000E+00  0.00000000E+00  0.00000000E+00
  0.00000000E+00  0.00000000E+00  0.00000000E+00
  0.00000000E+00  0.00000000E+00  0.00000000E+00
  0.00000000E+00  0.00000000E+00  0.00000000E+00
  0.00000000E+00  0.00000000E+00  0.00000000E+00
  0.00000000E+00  0.00000000E+00  0.00000000E+00
  0.00000000E+00  0.00000000E+00  0.00000000E+00
  0.00000000E+00  0.00000000E+00  0.00000000E+00
  0.00000000E+00  0.00000000E+00  0.00000000E+00
  0.00000000E+00  0.00000000E+00  0.00000000E+00
  0.00000000E+00  0.00000000E+00  0.00000000E+00
  0.00000000E+00  0.00000000E+00  0.00000000E+00
  0.00000000E+00  0.00000000E+00  0.00000000E+00
  0.00000000E+00  0.00000000E+00  0.00000000E+00
  0.00000000E+00  0.00000000E+00  0.00000000E+00
