Ta  N Ru                                
   1.00000000000000     
     9.0548154099999998    0.0000000000000000    0.0000000000000000
     0.0000000000000000   11.6775998899999998    0.0000000000000000
     0.0000000000000000    0.0000000000000000   23.4818170799999990
   Ta   N    Ru
    60    60     1
Selective dynamics
Direct
  0.0000000000000000  0.0000000000000000  0.2546926809530987   F   F   F
  0.6670845899906297  0.1250000003211298  0.2638822399803757   F   F   F
  0.3329153514769843  0.1250000003211298  0.2638822399803757   F   F   F
  0.4999999994478088  0.2499999997859135  0.3618861993156202   F   F   F
  0.1650707596845180  0.1250000003211298  0.3684425577811794   F   F   F
  0.8349292403154820  0.1250000003211298  0.3684425577811794   F   F   F
  0.0000583096443505  0.2502762666222656  0.4798153386766812   T   T   T
  0.6648500475547715  0.1249719280497495  0.4781657201411497   T   T   T
  0.3352250287799142  0.1249709008478893  0.4781672328204666   T   T   T
  0.5000559098496057  0.2505075697796678  0.5908064150902025   T   T   T
  0.1676703962576888  0.1248918939351452  0.5896017713176663   T   T   T
  0.8324878893217347  0.1248944541691298  0.5895913411283817   T   T   T
  0.0000954749069397  0.2499197004523366  0.7016986341169538   T   T   T
  0.6796767708632775  0.1248427697038941  0.7048343343304384   T   T   T
  0.3204408960359983  0.1248346109723734  0.7048327619996563   T   T   T
  0.0000000000000000  0.2499999997859135  0.2546926809530987   F   F   F
  0.6670845899906297  0.3750000001070433  0.2638822399803757   F   F   F
  0.3329153514769843  0.3750000001070433  0.2638822399803757   F   F   F
  0.4999999994478088  0.5000000004281731  0.3618861993156202   F   F   F
  0.1650707596845180  0.3750000001070433  0.3684425577811794   F   F   F
  0.8349292403154820  0.3750000001070433  0.3684425577811794   F   F   F
  0.0000411769545814  0.4997847417868070  0.4797929642981630   T   T   T
  0.6648927119133728  0.3750144139354271  0.4780632249092251   T   T   T
  0.3351760305903501  0.3750128586377628  0.4780616395113624   T   T   T
  0.5000424094487474  0.4990722657246789  0.5908087066000602   T   T   T
  0.1679801816641724  0.3750573914336160  0.5900864450942417   T   T   T
  0.8321103370536949  0.3750651910670622  0.5900800208201865   T   T   T
  0.0000902102767072  0.5001933744982802  0.7017956070110243   T   T   T
  0.6738520105436437  0.3769861076964787  0.7047296743581287   T   T   T
  0.3263032649025913  0.3769739407341450  0.7047441253910250   T   T   T
  0.0000000000000000  0.5000000004281731  0.2546926809530987   F   F   F
  0.6670845899906297  0.6249999998929567  0.2638822399803757   F   F   F
  0.3329153514769843  0.6249999998929567  0.2638822399803757   F   F   F
  0.4999999994478088  0.7500000002140865  0.3618861993156202   F   F   F
  0.1650707596845180  0.6249999998929567  0.3684425577811794   F   F   F
  0.8349292403154820  0.6249999998929567  0.3684425577811794   F   F   F
  0.0000456044680815  0.7501429551451172  0.4797927035263297   T   T   T
  0.6649359094539959  0.6249677682955760  0.4781520086353174   T   T   T
  0.3351123597354113  0.6249725383701396  0.4781496070791479   T   T   T
  0.5000502873385059  0.7507208296101116  0.5907964822163396   T   T   T
  0.1679767658764905  0.6249050829699114  0.5898820266891709   T   T   T
  0.8321142782721870  0.6249063893833924  0.5898739244751363   T   T   T
  0.0000701552222648  0.7494455771417077  0.7017778942323628   T   T   T
  0.6697256442899677  0.6248425980116519  0.7040978334572698   T   T   T
  0.3303988500498511  0.6248361950156445  0.7041124293370490   T   T   T
  0.0000000000000000  0.7500000002140865  0.2546926809530987   F   F   F
  0.6670845899906297  0.8750000005352163  0.2638822399803757   F   F   F
  0.3329153514769843  0.8750000005352163  0.2638822399803757   F   F   F
  0.4999999994478088  0.0000000000000000  0.3618861993156202   F   F   F
  0.1650707596845180  0.8750000005352163  0.3684425577811794   F   F   F
  0.8349292403154820  0.8750000005352163  0.3684425577811794   F   F   F
  0.0000555348394500  0.9996344318471649  0.4798125896766001   T   T   T
  0.6648895794709015  0.8749209240517283  0.4780567125593535   T   T   T
  0.3351904582431073  0.8749160380847787  0.4780547811286073   T   T   T
  0.5000683548443844  0.9993012178692663  0.5907982238584603   T   T   T
  0.1680050365901161  0.8747298471028122  0.5900672997938944   T   T   T
  0.8321149171532445  0.8747436866717335  0.5900624496113842   T   T   T
  0.0001070576591793  0.9996805006066312  0.7016756189784894   T   T   T
  0.6738937684156427  0.8727199993156047  0.7047328825852746   T   T   T
  0.3263036658928380  0.8727015373443308  0.7047423062897272   T   T   T
  0.8141011533980276  0.0000000000000000  0.3013105672926031   F   F   F
  0.4999999994478088  0.0000000000000000  0.2564174481620327   F   F   F
  0.1858988466019724  0.0000000000000000  0.3013105672926031   F   F   F
  0.3088456122590841  0.2499999997859135  0.4099867722441957   F   F   F
  0.0000000000000000  0.2499999997859135  0.3930971035158137   F   F   F
  0.6911543877409159  0.2499999997859135  0.4099867722441957   F   F   F
  0.8019168885552622  0.2502319685136693  0.5219913007076300   T   T   T
  0.5000409975306129  0.2502224914407928  0.5028989906064415   T   T   T
  0.1981931075157387  0.2502320662058551  0.5220005630123463   T   T   T
  0.3042554835840803  0.2505552801500600  0.6337211297430415   T   T   T
  0.0000579301321951  0.2500455330684210  0.6129994890221384   T   T   T
  0.6958710092656829  0.2505465761453746  0.6337142644407119   T   T   T
  0.8091296436935196  0.2533885336909540  0.7415118499271476   T   T   T
  0.5000849371791931  0.2458792745028803  0.7285729026149905   T   T   T
  0.1910409196453838  0.2533823162642119  0.7415233271905414   T   T   T
  0.8141011533980276  0.2499999997859135  0.3013105672926031   F   F   F
  0.4999999994478088  0.2499999997859135  0.2564174481620327   F   F   F
  0.1858988466019724  0.2499999997859135  0.3013105672926031   F   F   F
  0.3088456122590841  0.5000000004281731  0.4099867722441957   F   F   F
  0.0000000000000000  0.5000000004281731  0.3930971035158137   F   F   F
  0.6911543877409159  0.5000000004281731  0.4099867722441957   F   F   F
  0.8021396250792213  0.4998977647335420  0.5220358106991007   T   T   T
  0.5000329525788079  0.4998554228520746  0.5028920496378471   T   T   T
  0.1979404294846887  0.4999008236189629  0.5220419809435581   T   T   T
  0.3040837575920961  0.5002006395502901  0.6333119671193702   T   T   T
  0.0000398132910390  0.4997895548759093  0.6132962171327161   T   T   T
  0.6960053418126172  0.5001983592379581  0.6333013311614188   T   T   T
  0.8066812195642298  0.5009447461821985  0.7405593572429131   T   T   T
  0.5000756471161906  0.4992035857974131  0.7244305795200614   T   T   T
  0.1934598545046685  0.5009386176313929  0.7405788146774464   T   T   T
  0.8141011533980276  0.5000000004281731  0.3013105672926031   F   F   F
  0.4999999994478088  0.5000000004281731  0.2564174481620327   F   F   F
  0.1858988466019724  0.5000000004281731  0.3013105672926031   F   F   F
  0.3088456122590841  0.7500000002140865  0.4099867722441957   F   F   F
  0.0000000000000000  0.7500000002140865  0.3930971035158137   F   F   F
  0.6911543877409159  0.7500000002140865  0.4099867722441957   F   F   F
  0.8021326653145155  0.7499857042066187  0.5220298308052499   T   T   T
  0.5000363408870895  0.7500653570279325  0.5028817334082509   T   T   T
  0.1979540586625494  0.7499798679232108  0.5220360256969834   T   T   T
  0.3041057314775505  0.7495553937625438  0.6333007375247829   T   T   T
  0.0000476705038112  0.7499821067910787  0.6132742037210887   T   T   T
  0.6960062378664827  0.7495732104294159  0.6332912777282976   T   T   T
  0.8066990314781202  0.7487277556400531  0.7405391689646990   T   T   T
  0.5000873928356817  0.7504573525108406  0.7244240279758396   T   T   T
  0.1934492393438891  0.7487303126795545  0.7405523634460958   T   T   T
  0.8141011533980276  0.7500000002140865  0.3013105672926031   F   F   F
  0.4999999994478088  0.7500000002140865  0.2564174481620327   F   F   F
  0.1858988466019724  0.7500000002140865  0.3013105672926031   F   F   F
  0.3088456122590841  0.0000000000000000  0.4099867722441957   F   F   F
  0.0000000000000000  0.0000000000000000  0.3930971035158137   F   F   F
  0.6911543877409159  0.0000000000000000  0.4099867722441957   F   F   F
  0.8019066063459285  0.9996489273077040  0.5219831896953850   T   T   T
  0.5000489393082573  0.9997036876496252  0.5028929768433672   T   T   T
  0.1982019120983462  0.9996383232825954  0.5219930766065720   T   T   T
  0.3042676575024506  0.9991882106859442  0.6337114315563825   T   T   T
  0.0000690937588935  0.9997043226519086  0.6129786064701123   T   T   T
  0.6958751348436804  0.9992216428644787  0.6337079500692715   T   T   T
  0.8091451267752845  0.9962728923758175  0.7414973501210469   T   T   T
  0.5000913758934696  0.0037938817972599  0.7285992214240106   T   T   T
  0.1910261394220245  0.9962386047607411  0.7415032325905234   T   T   T
  0.5000274486296851  0.1247928996014201  0.7901153447603702   T   T   T
 
  0.00000000E+00  0.00000000E+00  0.00000000E+00
  0.00000000E+00  0.00000000E+00  0.00000000E+00
  0.00000000E+00  0.00000000E+00  0.00000000E+00
  0.00000000E+00  0.00000000E+00  0.00000000E+00
  0.00000000E+00  0.00000000E+00  0.00000000E+00
  0.00000000E+00  0.00000000E+00  0.00000000E+00
  0.00000000E+00  0.00000000E+00  0.00000000E+00
  0.00000000E+00  0.00000000E+00  0.00000000E+00
  0.00000000E+00  0.00000000E+00  0.00000000E+00
  0.00000000E+00  0.00000000E+00  0.00000000E+00
  0.00000000E+00  0.00000000E+00  0.00000000E+00
  0.00000000E+00  0.00000000E+00  0.00000000E+00
  0.00000000E+00  0.00000000E+00  0.00000000E+00
  0.00000000E+00  0.00000000E+00  0.00000000E+00
  0.00000000E+00  0.00000000E+00  0.00000000E+00
  0.00000000E+00  0.00000000E+00  0.00000000E+00
  0.00000000E+00  0.00000000E+00  0.00000000E+00
  0.00000000E+00  0.00000000E+00  0.00000000E+00
  0.00000000E+00  0.00000000E+00  0.00000000E+00
  0.00000000E+00  0.00000000E+00  0.00000000E+00
  0.00000000E+00  0.00000000E+00  0.00000000E+00
  0.00000000E+00  0.00000000E+00  0.00000000E+00
  0.00000000E+00  0.00000000E+00  0.00000000E+00
  0.00000000E+00  0.00000000E+00  0.00000000E+00
  0.00000000E+00  0.00000000E+00  0.00000000E+00
  0.00000000E+00  0.00000000E+00  0.00000000E+00
  0.00000000E+00  0.00000000E+00  0.00000000E+00
  0.00000000E+00  0.00000000E+00  0.00000000E+00
  0.00000000E+00  0.00000000E+00  0.00000000E+00
  0.00000000E+00  0.00000000E+00  0.00000000E+00
  0.00000000E+00  0.00000000E+00  0.00000000E+00
  0.00000000E+00  0.00000000E+00  0.00000000E+00
  0.00000000E+00  0.00000000E+00  0.00000000E+00
  0.00000000E+00  0.00000000E+00  0.00000000E+00
  0.00000000E+00  0.00000000E+00  0.00000000E+00
  0.00000000E+00  0.00000000E+00  0.00000000E+00
  0.00000000E+00  0.00000000E+00  0.00000000E+00
  0.00000000E+00  0.00000000E+00  0.00000000E+00
  0.00000000E+00  0.00000000E+00  0.00000000E+00
  0.00000000E+00  0.00000000E+00  0.00000000E+00
  0.00000000E+00  0.00000000E+00  0.00000000E+00
  0.00000000E+00  0.00000000E+00  0.00000000E+00
  0.00000000E+00  0.00000000E+00  0.00000000E+00
  0.00000000E+00  0.00000000E+00  0.00000000E+00
  0.00000000E+00  0.00000000E+00  0.00000000E+00
  0.00000000E+00  0.00000000E+00  0.00000000E+00
  0.00000000E+00  0.00000000E+00  0.00000000E+00
  0.00000000E+00  0.00000000E+00  0.00000000E+00
  0.00000000E+00  0.00000000E+00  0.00000000E+00
  0.00000000E+00  0.00000000E+00  0.00000000E+00
  0.00000000E+00  0.00000000E+00  0.00000000E+00
  0.00000000E+00  0.00000000E+00  0.00000000E+00
  0.00000000E+00  0.00000000E+00  0.00000000E+00
  0.00000000E+00  0.00000000E+00  0.00000000E+00
  0.00000000E+00  0.00000000E+00  0.00000000E+00
  0.00000000E+00  0.00000000E+00  0.00000000E+00
  0.00000000E+00  0.00000000E+00  0.00000000E+00
  0.00000000E+00  0.00000000E+00  0.00000000E+00
  0.00000000E+00  0.00000000E+00  0.00000000E+00
  0.00000000E+00  0.00000000E+00  0.00000000E+00
  0.00000000E+00  0.00000000E+00  0.00000000E+00
  0.00000000E+00  0.00000000E+00  0.00000000E+00
  0.00000000E+00  0.00000000E+00  0.00000000E+00
  0.00000000E+00  0.00000000E+00  0.00000000E+00
  0.00000000E+00  0.00000000E+00  0.00000000E+00
  0.00000000E+00  0.00000000E+00  0.00000000E+00
  0.00000000E+00  0.00000000E+00  0.00000000E+00
  0.00000000E+00  0.00000000E+00  0.00000000E+00
  0.00000000E+00  0.00000000E+00  0.00000000E+00
  0.00000000E+00  0.00000000E+00  0.00000000E+00
  0.00000000E+00  0.00000000E+00  0.00000000E+00
  0.00000000E+00  0.00000000E+00  0.00000000E+00
  0.00000000E+00  0.00000000E+00  0.00000000E+00
  0.00000000E+00  0.00000000E+00  0.00000000E+00
  0.00000000E+00  0.00000000E+00  0.00000000E+00
  0.00000000E+00  0.00000000E+00  0.00000000E+00
  0.00000000E+00  0.00000000E+00  0.00000000E+00
  0.00000000E+00  0.00000000E+00  0.00000000E+00
  0.00000000E+00  0.00000000E+00  0.00000000E+00
  0.00000000E+00  0.00000000E+00  0.00000000E+00
  0.00000000E+00  0.00000000E+00  0.00000000E+00
  0.00000000E+00  0.00000000E+00  0.00000000E+00
  0.00000000E+00  0.00000000E+00  0.00000000E+00
  0.00000000E+00  0.00000000E+00  0.00000000E+00
  0.00000000E+00  0.00000000E+00  0.00000000E+00
  0.00000000E+00  0.00000000E+00  0.00000000E+00
  0.00000000E+00  0.00000000E+00  0.00000000E+00
  0.00000000E+00  0.00000000E+00  0.00000000E+00
  0.00000000E+00  0.00000000E+00  0.00000000E+00
  0.00000000E+00  0.00000000E+00  0.00000000E+00
  0.00000000E+00  0.00000000E+00  0.00000000E+00
  0.00000000E+00  0.00000000E+00  0.00000000E+00
  0.00000000E+00  0.00000000E+00  0.00000000E+00
  0.00000000E+00  0.00000000E+00  0.00000000E+00
  0.00000000E+00  0.00000000E+00  0.00000000E+00
  0.00000000E+00  0.00000000E+00  0.00000000E+00
  0.00000000E+00  0.00000000E+00  0.00000000E+00
  0.00000000E+00  0.00000000E+00  0.00000000E+00
  0.00000000E+00  0.00000000E+00  0.00000000E+00
  0.00000000E+00  0.00000000E+00  0.00000000E+00
  0.00000000E+00  0.00000000E+00  0.00000000E+00
  0.00000000E+00  0.00000000E+00  0.00000000E+00
  0.00000000E+00  0.00000000E+00  0.00000000E+00
  0.00000000E+00  0.00000000E+00  0.00000000E+00
  0.00000000E+00  0.00000000E+00  0.00000000E+00
  0.00000000E+00  0.00000000E+00  0.00000000E+00
  0.00000000E+00  0.00000000E+00  0.00000000E+00
  0.00000000E+00  0.00000000E+00  0.00000000E+00
  0.00000000E+00  0.00000000E+00  0.00000000E+00
  0.00000000E+00  0.00000000E+00  0.00000000E+00
  0.00000000E+00  0.00000000E+00  0.00000000E+00
  0.00000000E+00  0.00000000E+00  0.00000000E+00
  0.00000000E+00  0.00000000E+00  0.00000000E+00
  0.00000000E+00  0.00000000E+00  0.00000000E+00
  0.00000000E+00  0.00000000E+00  0.00000000E+00
  0.00000000E+00  0.00000000E+00  0.00000000E+00
  0.00000000E+00  0.00000000E+00  0.00000000E+00
  0.00000000E+00  0.00000000E+00  0.00000000E+00
  0.00000000E+00  0.00000000E+00  0.00000000E+00
  0.00000000E+00  0.00000000E+00  0.00000000E+00
  0.00000000E+00  0.00000000E+00  0.00000000E+00
