Ta  N Co Cu                             
   1.00000000000000     
    18.1096308199999996    0.0000000000000000    0.0000000000000000
     0.0000000000000000   23.3551997799999995    0.0000000000000000
     0.0000000000000000    0.0000000000000000   30.4818171199999988
   Ta   N    Co   Cu
   192   240    48     1
Direct
  0.0007548139537192  0.9982998310798123  0.1977950099929515
  0.3349408979226922  0.0609036236718978  0.2031753431522603
  0.1663161113961280  0.0609509038518112  0.2027515525158137
  0.2502171655893193  0.1237198407545677  0.2779044983595966
  0.0833923339220988  0.0611539561547261  0.2840467516130900
  0.4173445067151675  0.0612352992165626  0.2847832984497458
  0.0007812425448250  0.1235604267680657  0.3694811764147659
  0.3328328484771106  0.0616672766711091  0.3690689539043959
  0.1677152625901357  0.0613157549627843  0.3686776338763664
  0.2507160227997645  0.1259478935556189  0.4569775750704537
  0.0843722079883520  0.0619841717294776  0.4552200334331289
  0.4167586090865854  0.0623704178810200  0.4553047985531720
  0.0006141994125741  0.1234733845467133  0.1973006193394795
  0.3344105130659329  0.1861177251306287  0.2027175482809866
  0.1663636917546469  0.1862335843815828  0.2024642916754047
  0.2501726823624395  0.2488446720762667  0.2777154386752301
  0.0829688450544381  0.1862264268992178  0.2836644992322235
  0.4169850721719683  0.1863460355717592  0.2841387201626731
  0.0002773695662839  0.2483852208293413  0.3693338988307175
  0.3323725664195152  0.1864575816371143  0.3688027681831798
  0.1677266909278998  0.1861800399152429  0.3682494376893857
  0.2490901646700507  0.2486327441089742  0.4557045524401744
  0.0835918656551158  0.1862193444106310  0.4539424908800882
  0.4144712963153481  0.1872561899654883  0.4555698637027348
  0.0001010339341221  0.2488612729782034  0.1972080337079092
  0.3345225386771631  0.3114361441990141  0.2025527906027378
  0.1660047786451173  0.3113741326397630  0.2023947888394346
  0.2501938657082405  0.3738484803321214  0.2778117998888092
  0.0827385825467033  0.3112544223887141  0.2835179817822393
  0.4168686859077866  0.3114770730275609  0.2840343168773032
  0.0004498210216468  0.3732657415139329  0.3695136689161416
  0.3321849567737019  0.3112773405425031  0.3688004470909689
  0.1678517368112296  0.3110052689554408  0.3677678159861344
  0.2509176163953768  0.3759751587386475  0.4553481439519373
  0.0852575947915781  0.3107276124921086  0.4541857134218148
  0.4117682080768361  0.3118924533601231  0.4562399939859176
  0.9998993173881772  0.3741299606684123  0.1974349650590526
  0.3346349809832034  0.4368820528916686  0.2029161104662975
  0.1660476738757239  0.4365952097355716  0.2026236814978688
  0.2508079797706060  0.9987138709757275  0.2784849011247132
  0.0826416846824998  0.4362858694865182  0.2838687802875981
  0.4169102061413881  0.4365536340374732  0.2846099542462497
  0.0003879863140739  0.9988224544445288  0.3700649169972721
  0.3322998534796824  0.4364666687531766  0.3692217953945445
  0.1677641668330381  0.4360289044350267  0.3681698705300320
  0.2521409032931743  0.9987567815809655  0.4552499040145719
  0.0851113643708246  0.4349620271914389  0.4541329504266471
  0.4137907215406429  0.4356005627576351  0.4557033572620668
  0.9998661376691871  0.4990079822134277  0.1978680353185567
  0.3345674673544110  0.5618330663116069  0.2036258522453736
  0.1665009427065343  0.5616392546790152  0.2032144356426286
  0.2507877983704461  0.6240240064998659  0.2793215227260930
  0.0830243484378244  0.5612904741039770  0.2843084935245628
  0.4170670994441537  0.5616488395848052  0.2853461164736544
  0.9992568388699823  0.6235033701534149  0.3701250775476197
  0.3320842370535999  0.5615413353849306  0.3701001150832965
  0.1679855530041792  0.5612262669464769  0.3686847710607424
  0.2478056043653254  0.6249770725040946  0.4586409238405338
  0.0822514147161115  0.5595322857402749  0.4533101760890688
  0.4150848215891898  0.5606530935139844  0.4569471150899389
  0.0002469654842230  0.6240694992983649  0.1983326042160485
  0.3352111962144519  0.6865693586061141  0.2041432667908651
  0.1664348433604701  0.6864914067670327  0.2037152438803176
  0.2510277122837010  0.7488731885555708  0.2800383608167607
  0.0834923409413335  0.6862591261438880  0.2849968390089117
  0.4172780266419096  0.6865278442429457  0.2862505014738517
  0.9995071648593452  0.7485446196467791  0.3707565878024894
  0.3323599631782841  0.6867756437045784  0.3716482112713777
  0.1688154762655856  0.6865066565649229  0.3700028711757284
  0.2529519417699717  0.7510445058172266  0.4674203099786638
  0.0819568130845383  0.6846799860626547  0.4534507126542522
  0.4201669048680330  0.6869211835586384  0.4566289688332787
  0.0007089934380318  0.7487146200618042  0.1985245186510554
  0.3356195003169304  0.8112817518703750  0.2042219162722887
  0.1665042273518083  0.8112878582093046  0.2037516854945025
  0.2510801729162608  0.8736220987970000  0.2793026277778594
  0.0836628603332272  0.8111580205134032  0.2851409783888528
  0.4176475694098372  0.8113139297129806  0.2862927509459539
  0.0002747611260290  0.8737901053321337  0.3706803382468280
  0.3329212146520177  0.8112445234569776  0.3712798614124040
  0.1686671412600163  0.8109983559754710  0.3701632288603633
  0.2530113838554371  0.8755257166990731  0.4566977948017694
  0.0838146119992302  0.8104654719939504  0.4557704526569637
  0.4216997021049522  0.8114647153571326  0.4570197127182354
  0.0008666747391928  0.8733518531463105  0.1982742105926363
  0.3352626405517753  0.9358641840872792  0.2037600932323116
  0.1666411686664304  0.9358924574018346  0.2032876120551421
  0.2503762255531399  0.4990774260680766  0.2783852251372565
  0.0834148501329892  0.9361089384333496  0.2845159783989502
  0.4178047083387071  0.9361660238818601  0.2855782114617398
  0.0000741194261735  0.4978127222696784  0.3696614760325829
  0.3333933262479505  0.9363936561659330  0.3698526067794106
  0.1679708149726409  0.9361067076074292  0.3688212106012756
  0.2480918899208859  0.4980487099384305  0.4567120529590838
  0.0827246581989698  0.9368971235243748  0.4549199935523305
  0.4192637408037569  0.9374143548039200  0.4560973064258746
  0.5000271893550874  0.9983526538462542  0.1982697838542720
  0.8341413261238060  0.0610264486960546  0.2025251031861188
  0.6653682566595194  0.0609890515431886  0.2028812573932086
  0.7500073983160860  0.1237323515318565  0.2772977069644753
  0.5825785048696872  0.0612842140692536  0.2844637251450521
  0.9177442631778590  0.0610784847484709  0.2836346804603664
  0.5001317492353508  0.1242830153212822  0.3703329575653811
  0.8328457712572259  0.0612173968378045  0.3677460430984567
  0.6680828334826145  0.0615025962513513  0.3682570271060470
  0.7467957261280915  0.1253940035736179  0.4534028505012273
  0.5864418810592440  0.0634753214088875  0.4553022216234908
  0.9151128460430655  0.0602916408711778  0.4543026141412767
  0.4996198996497512  0.1233539062591760  0.1975848731831817
  0.8339674682404805  0.1860971525526907  0.2021784621529150
  0.6656266016572943  0.1860838814164509  0.2024027314976493
  0.7500815345362852  0.2489839587021478  0.2773135325794414
  0.5824477480743724  0.1864505926665032  0.2836609255629767
  0.9174205518320377  0.1861880909962323  0.2833371405008407
  0.4986072879487793  0.2492022471444955  0.3694600758826425
  0.8325344968436781  0.1861113169533226  0.3674484869980930
  0.6677661882962695  0.1868302708876257  0.3673091887356961
  0.7505668172829019  0.2487768886901662  0.4552710436578664
  0.5844821193989276  0.1885687112452885  0.4529937298501565
  0.9160001023088569  0.1861569569008239  0.4537093747391978
  0.4994938233673736  0.2488917301632299  0.1973467560813233
  0.8338991829770279  0.3114713861089129  0.2023023967400448
  0.6655440746007670  0.3115904380816303  0.2023720918490426
  0.7498682636591099  0.3738796458638731  0.2778489363285246
  0.5825551903171018  0.3115308408754771  0.2835417023164837
  0.9168128728863181  0.3112333898603197  0.2836756627031463
  0.4984972637458185  0.3739790550261120  0.3696946102514787
  0.8318365402082577  0.3111714397065199  0.3683933366716445
  0.6680219214778873  0.3118715438129627  0.3676487746246764
  0.7534332507963484  0.3760359166952938  0.4609115220331930
  0.5808187034422190  0.3110681864803411  0.4521484551036039
  0.9166568508579473  0.3096936791538312  0.4531868354561439
  0.4994526843953651  0.3742569452065112  0.1975452969556954
  0.8337850961534627  0.4365084125761314  0.2025981137885111
  0.6654405343232099  0.4366882742037319  0.2027955648131154
  0.7500575112723880  0.9986053805782760  0.2782114427804672
  0.5823457842890605  0.4365201886064654  0.2842164929763058
  0.9169564088621982  0.4361696391276340  0.2840538128115639
  0.5015554418611643  0.9993380576309860  0.3713296118383269
  0.8318503601114315  0.4357590854119593  0.3689486178184396
  0.6676551877103947  0.4360661909805827  0.3688117555806016
  0.7523033373170804  0.0006614808206606  0.4555709646487074
  0.5805645844857068  0.4351203390988871  0.4541261774813066
  0.9170026864600231  0.4331795770743057  0.4546344926647237
  0.4996521110344219  0.4993351960241696  0.1981992466998008
  0.8337514525699490  0.5615884294732396  0.2031102043525053
  0.6652307851193058  0.5617505787296722  0.2034315547048422
  0.7498377000480616  0.6237784195227292  0.2788695834290209
  0.5826024661045821  0.5614595056064147  0.2850207267890426
  0.9170437532839770  0.5611567538248110  0.2842967931738229
  0.4999667926563163  0.6236461784877250  0.3716146306313561
  0.8320802161967720  0.5606411082718523  0.3689097573579616
  0.6674774730816111  0.5608911647017081  0.3693843919615460
  0.7502119599816837  0.6219183409439211  0.4576636431639614
  0.5831057752344080  0.5611277273263084  0.4550264830175834
  0.9174518461873902  0.5595601358631868  0.4540051314655074
  0.4996667313271104  0.6243405222565030  0.1989890702611206
  0.8339640076724493  0.6863617004068630  0.2034629110009760
  0.6650981898660007  0.6864160293112107  0.2038443081759880
  0.7500682907176852  0.7487751475803179  0.2791032684067005
  0.5828652180089620  0.6864245438952707  0.2857380175911999
  0.9176981564627766  0.6862015419103642  0.2845936224812746
  0.5015506592243142  0.7491703482376479  0.3724662515421500
  0.8325492814140532  0.6858522939049365  0.3693053803419630
  0.6684065139234932  0.6860930138235375  0.3701430526100040
  0.7513315502875599  0.7476943645423972  0.4563289022129027
  0.5869319432605593  0.6867857978492822  0.4563427765437709
  0.9149238000006079  0.6860641844964519  0.4568033411830470
  0.4998113144580572  0.7488635795536851  0.1993908175055310
  0.8341051013190892  0.8111953961782206  0.2034834031014441
  0.6651767549560219  0.8112681255436200  0.2039617836483600
  0.7499072421026298  0.8737340632996649  0.2788912253342986
  0.5831096039371175  0.8113025914420007  0.2859823634531580
  0.9178197042744785  0.8111813011753242  0.2845791795999943
  0.5025014543215249  0.8743916078940686  0.3724868884732757
  0.8331141449236270  0.8111600121240912  0.3688796659048990
  0.6685335123556300  0.8115205279114193  0.3704617638808045
  0.7508813311401354  0.8751132831219337  0.4563586005995077
  0.5895762801751729  0.8108122156782116  0.4589906678120741
  0.9151469125155174  0.8112857689921853  0.4552041286792203
  0.5001070907908840  0.8733051877568485  0.1990358422264435
  0.8340576996773450  0.9359233154061926  0.2031398775617106
  0.6654043112417796  0.9359222169920614  0.2036330946947018
  0.7497022615553917  0.4988277494053079  0.2784428734300093
  0.5829666009907228  0.9362393854478839  0.2854091084056805
  0.9179202748052617  0.9361297296210012  0.2841949189829123
  0.4987335991018611  0.4986087306017879  0.3706081021366288
  0.8331757253628851  0.9362533456676019  0.3686904711076835
  0.6681511170625853  0.9366411256328817  0.3700035592360251
  0.7472991534709408  0.4977602286691294  0.4576817923005478
  0.5890598712656896  0.9375712501929954  0.4589518215991291
  0.9157654778268238  0.9360416685884161  0.4551797889482998
  0.4060854685380804  0.9984213457109092  0.2334900533898079
  0.2507516574417181  0.9983549229808801  0.2001545506658147
  0.0951255029513760  0.9984444184391563  0.2326212702534889
  0.1552542632171594  0.1237920888145894  0.3157657898393964
  0.0003733529594996  0.1236617982614305  0.3027431507159761
  0.3448183519071648  0.1239847814679962  0.3162131204311294
  0.4007693896500442  0.1244994617753932  0.4025202762314279
  0.2500121995933142  0.1241087582540317  0.3888085374386208
  0.0997318136957688  0.1236406323598729  0.4022038655399740
  0.1524080097339962  0.1254813241923500  0.4880780457612062
  0.9974272406361848  0.1229089457092698  0.4730202323375892
  0.3498754837690825  0.1230680843612078  0.4864033537035297
  0.4739590483581111  0.1734623012677190  0.5522065755727539
  0.3143113078932842  0.1679872638513302  0.5656372027456129
  0.0616166154113600  0.1392479177650472  0.5573764162088182
  0.4056253450344371  0.1235306191753907  0.2327823620445173
  0.2504593577730958  0.1234283434421144  0.1993992694187199
  0.0949698470831208  0.1235694795407554  0.2321429745085339
  0.1550848993986733  0.2485534731303929  0.3153178457815571
  0.9999851168854192  0.2487248115005656  0.3026051643189760
  0.3449340861171422  0.2488113379735069  0.3159467558145792
  0.3998164313740773  0.2491606274550762  0.4025924025003675
  0.2496916390625117  0.2485955139708622  0.3875343458824716
  0.0995708514788305  0.2485999765000102  0.4014406479690606
  0.1502173019079791  0.2474274407361179  0.4863197070157383
  0.0003611420350325  0.2479543660474803  0.4721487765859607
  0.3477672798057725  0.2486981966471618  0.4868635369877197
  0.4032094594337963  0.3053911672133864  0.5811486844670810
  0.2340025310661815  0.2832836376826933  0.5547732865780972
  0.0854177459003935  0.2552441317453145  0.5663718607659405
  0.4053773465949178  0.2488637866834154  0.2323840720615493
  0.2503772883875897  0.2488802763159157  0.1989543604724986
  0.0945980345506783  0.2487354196613225  0.2318475641113764
  0.1550626539627942  0.3737578856966977  0.3153412344378097
  0.9999535393706793  0.3735519888639018  0.3027935243160798
  0.3449224875108925  0.3739609822062846  0.3161059996297411
  0.3998731119027212  0.3737989703711975  0.4026537981898883
  0.2498455546587408  0.3738179527343988  0.3874318328392903
  0.1001640523578757  0.3729196812787805  0.4013966750762350
  0.1542536759713826  0.3735281836573847  0.4867248718453112
  0.0025996680103688  0.3723444839114549  0.4720268048225407
  0.3476113375351702  0.3756066653362851  0.4869534270876628
  0.4613468047169107  0.3071301628075460  0.5632217704732412
  0.2941095776032228  0.3858416826772739  0.5711547634723999
  0.0966453905766187  0.3727190620334184  0.5629795311179038
  0.4053161032242727  0.3741793344222160  0.2326020068861965
  0.2503714518176210  0.3740939122949314  0.1999114598444365
  0.0945511239456209  0.3739364128107496  0.2319770673194910
  0.1557327213936901  0.9986629196778338  0.3160975799511405
  0.0004901140650091  0.9986629275692209  0.3032660843668964
  0.3454191400050277  0.9988201809820794  0.3167205822005457
  0.4020010396154561  0.9997284806726938  0.4027865039832932
  0.2504738265881699  0.9990111799893455  0.3880198308029321
  0.0993285702768532  0.9989559062497335  0.4018645327326453
  0.1523933975634506  0.9988159152592075  0.4830198323816575
  0.0009987108087088  0.9987677506095451  0.4739151064080076
  0.3501600443852411  0.9999675664571583  0.4856478669597522
  0.4065128567078844  0.0565415733523835  0.5592480523354482
  0.2617063620364419  0.9862625390062476  0.5571283873989188
  0.1023590429125818  0.0187186570878239  0.5678301168435667
  0.4054735049768965  0.4993091212323577  0.2332678576145781
  0.2503759287642850  0.4992057291926884  0.1995940397710925
  0.0946635510382805  0.4989707009956348  0.2323278909674613
  0.1555940868850243  0.6240067053404488  0.3164617791859143
  0.0001644619842196  0.6236125757323734  0.3034283180846771
  0.3449560242262066  0.6243325417590029  0.3178186043076252
  0.4014040444980083  0.6232806922607566  0.4039742977183352
  0.2498093595492037  0.6240452311120066  0.3899279838042418
  0.0986261705031168  0.6230613164628735  0.4012973861981948
  0.1466203428403148  0.6198080686817846  0.4854646973236427
  0.9995117510268656  0.6227164335281330  0.4742227942798394
  0.3506173707171527  0.6243302655599763  0.4849249428128743
  0.4265398246650989  0.6673741235380888  0.5517231584038171
  0.3016295983297894  0.5977132104886920  0.5725336937972969
  0.0998590756409072  0.6215229173163692  0.5655214877410870
  0.4055836951893212  0.6242850068599566  0.2341248025444216
  0.2505779248118003  0.6243178966936327  0.2004745198237785
  0.0949183510735594  0.6240104108884381  0.2329161477215536
  0.1559244283323480  0.7486810146556877  0.3172981693803152
  0.0003948860580962  0.7487007353947561  0.3039404626539906
  0.3452641779663068  0.7488434653113671  0.3185576678586486
  0.4025149353726007  0.7492751391119370  0.4043078617896469
  0.2508264605992920  0.7493454201734835  0.3941115223558427
  0.0987347378131602  0.7486184515906942  0.4022070811504790
  0.1451680778760718  0.7466679199363284  0.4848959476741612
  0.9991110455226107  0.7482030724090194  0.4734040152615719
  0.3618623197074413  0.7489055843173134  0.4894996270896215
  0.3685434933999616  0.7999011034101358  0.5669066331576857
  0.2465370014645245  0.6854374822016922  0.5140317652623381
  0.0886760885764630  0.7347107546057075  0.5649528648202704
  0.4058015601475802  0.7488832135617116  0.2347081836937406
  0.2508373928811096  0.7489450217939435  0.2020681936764817
  0.0952124942540422  0.7488083713778551  0.2334427513186697
  0.1558730540982367  0.8735447674452743  0.3166335189127949
  0.0004847910406980  0.8736471712486349  0.3037970162634878
  0.3456444553798264  0.8735934540049541  0.3175797069573534
  0.4030800113785205  0.8743932244352735  0.4035700805710434
  0.2506690299649819  0.8738818160447650  0.3885842592927773
  0.0991683318418239  0.8738348785722181  0.4024624917622006
  0.1497443191184402  0.8765642275349350  0.4826178988563612
  0.0003515691428433  0.8722148236576075  0.4754091666277418
  0.3548298503359959  0.8747292759033485  0.4850878280116646
  0.3878008667476962  0.9200747311972819  0.5593452862667334
  0.2504367255533992  0.8209557379147654  0.5150132954882238
  0.0900836662920597  0.8666335922221435  0.5587485027626755
  0.4062084339464320  0.8735680298731339  0.2342841839406873
  0.2509318037976129  0.8734366284232351  0.2008363405534723
  0.0951675145783000  0.8735133318756212  0.2331784459219790
  0.1551324982769557  0.4987685617355311  0.3158074010787004
  0.9999742966415255  0.4986742289678006  0.3029677531299129
  0.3448041389274294  0.4991831106189863  0.3168289056946989
  0.4000896237137184  0.4987277508813435  0.4036128690289473
  0.2495168968370791  0.4987437061089466  0.3886801462435798
  0.0995671946638694  0.4975934843378980  0.4015784219618297
  0.1494342570327092  0.4980781192595458  0.4879265213322839
  0.9991552310175393  0.4960735307664876  0.4735154852719532
  0.3464586523880797  0.4984873961789447  0.4879337558405155
  0.4501220835978756  0.5438198172815447  0.5544567089856685
  0.2966021874519527  0.4890611982368540  0.5710424899102691
  0.0726239264043471  0.4970344458619991  0.5595623351418411
  0.9059115066952188  0.9984403089679361  0.2321844490608385
  0.7497626843468410  0.9984130145571513  0.2002584145313548
  0.5942500755747915  0.9984718132123476  0.2332218714192678
  0.6549898268423888  0.1239093788335524  0.3151726145881213
  0.4999370700141341  0.1239776732383007  0.3035282990040002
  0.8452810405049789  0.1235984192444590  0.3149392059553691
  0.9014788934066047  0.1233517837507847  0.4004256150238206
  0.7499953995485598  0.1241591984461081  0.3859018844246336
  0.6004844695506222  0.1244476382444404  0.4012419164415775
  0.6484862545740242  0.1282988351953875  0.4863608865414903
  0.5025234836533627  0.1264374618604123  0.4708203529759061
  0.8472403783983253  0.1235450935858324  0.4791404964837440
  0.8957880158594946  0.1288243452274429  0.5581301391077389
  0.7374033368409911  0.0770101907174521  0.5557650445824862
  0.6243088815918227  0.1866738842247742  0.5636647612914629
  0.9058794608280536  0.1235298372368092  0.2316987335571667
  0.7497612884804425  0.1234456141993476  0.1987719975563991
  0.5939794842093207  0.1235514981040069  0.2322785660167881
  0.6550662116341002  0.2493055474725381  0.3148928189121847
  0.4997150304156008  0.2489713036049395  0.3027914215454288
  0.8448933920516524  0.2487388599496470  0.3151809991859125
  0.9005938665491513  0.2474926521679706  0.4010521164904688
  0.7498732639719847  0.2490161539882720  0.3874647776522337
  0.5986626782424764  0.2495958541803063  0.3997030923365941
  0.6518105184091780  0.2523141605237953  0.4827350183781647
  0.4981022678963853  0.2497374743902938  0.4722002861300609
  0.8490006445915697  0.2480666732913264  0.4866745626437918
  0.9203381720062183  0.2542140240582995  0.5639639842745652
  0.7714064227556676  0.2021777315795390  0.5603041964595761
  0.6049029779814035  0.2368646850818976  0.5623298453992405
  0.9054183269575944  0.2487587570847509  0.2317247315327435
  0.7496990997400772  0.2488219026740879  0.1990618301092439
  0.5941326515063494  0.2488238319607987  0.2317862990782018
  0.6549455664034838  0.3741489995212177  0.3156268386654233
  0.4996884079803010  0.3739245391676036  0.3030190588285748
  0.8446955184634746  0.3738443402907805  0.3157982549003222
  0.9011142852436294  0.3729625551854312  0.4015079450380199
  0.7498697533653242  0.3739342363092888  0.3902365552930149
  0.5978511687045085  0.3739276543813119  0.4010677946038399
  0.6494923021893158  0.3692679601231887  0.4847587555661761
  0.4972384367651372  0.3727638742996220  0.4740145594199632
  0.8551163948052576  0.3696823203305613  0.4872039302946405
  0.9317638202692038  0.3723193148398209  0.5636666043522354
  0.7479435338880407  0.4371229299586687  0.5156542362037513
  0.6051114218478233  0.3686284683378886  0.5601333151894963
  0.9052301492914907  0.3739299603929851  0.2320958619714659
  0.7496550015406953  0.3740788049643271  0.1989567922144744
  0.5940237975664928  0.3742368359107360  0.2321482383081417
  0.6552353046177828  0.9987206929887833  0.3164826101413638
  0.5003349950161393  0.9989060328583435  0.3044546434566442
  0.8456745167780113  0.9985772388054883  0.3156366486932924
  0.9009874312628341  0.9987068536046664  0.4022462697429745
  0.7509633446896444  0.9991487450232768  0.3877158902639763
  0.6007847325109452  0.9993682903429075  0.4037839158936194
  0.6556590535614930  0.0046372326792010  0.4869250437811914
  0.5026987269585774  0.0017445076034761  0.4743865846731694
  0.8475821556570722  0.9981046582754303  0.4893136933324556
  0.9457602461110000  0.9768300149308544  0.5572374383113043
  0.6716936395055626  0.9606842027626286  0.5645606831044958
  0.5693783907631484  0.0619573209339137  0.5515061655382212
  0.9051659425024638  0.4988573359285908  0.2324631303086377
  0.7495972548220209  0.4992010371018125  0.2000723942174005
  0.5940435852256414  0.4992046028056834  0.2329190937484782
  0.6551317500504723  0.6237542369471001  0.3170363876496154
  0.5000391689865893  0.6239278692584378  0.3047859064733842
  0.8450194117669341  0.6235832619993786  0.3164222032575239
  0.9007091797704803  0.6234613688727535  0.4025514884253951
  0.7502195146655950  0.6229422190890617  0.3893757456104154
  0.5995335033670912  0.6238646998848125  0.4033267302866292
  0.6513654136385725  0.6236045552630216  0.4889428382344008
  0.5011881414892514  0.6227440500771380  0.4759673502007260
  0.8519282253645812  0.6195743097307158  0.4843514502112853
  0.9249601748296925  0.6264527769485468  0.5620381333760349
  0.7841049043122297  0.6639748790125495  0.5500145863014367
  0.5831196111525117  0.6130458261670029  0.5618820669926663
  0.9054380206366730  0.6239125429703805  0.2328005540683407
  0.7495671532860726  0.6241225873799507  0.2002741047520047
  0.5941752221806880  0.6241781894831604  0.2336911032484963
  0.6554833089093464  0.7488148666708199  0.3174197092555247
  0.5004501750322987  0.7488892113569321  0.3055537269558570
  0.8455296351968542  0.7485098465993616  0.3164948786508077
  0.9004058947798868  0.7481554866512070  0.4030697782593933
  0.7511539171377919  0.7486515091538948  0.3883883486702544
  0.6014342339257652  0.7493111418111198  0.4037526706000278
  0.6537099178393717  0.7467712941706282  0.4877136625221894
  0.5054856133602428  0.7488687706641031  0.4727164411449181
  0.8485263982857134  0.7502953706664215  0.4887750116169798
  0.9235711453652584  0.7547200980253592  0.5653388068230853
  0.7188892756849654  0.7686873101944087  0.5710882440314649
  0.5006619707843356  0.7690662261110646  0.5719845596512272
  0.9058423756532008  0.7487157202099439  0.2329478958630133
  0.7496003163381175  0.7488453974813751  0.2011417627371870
  0.5943873900312866  0.7488784480597488  0.2341544734027750
  0.6553830273792798  0.8738677010311449  0.3175365196259108
  0.5006508031880159  0.8738237525633892  0.3054295395062354
  0.8455246872405766  0.8737492129950652  0.3161684742660711
  0.9009395507063331  0.8738563361783136  0.4026654789527342
  0.7510880582425514  0.8742198995332160  0.3885568340939116
  0.6014917830915465  0.8743287048052721  0.4055645460751407
  0.6567501570644154  0.8744053225113575  0.4901476732141319
  0.5032705136367355  0.8770502112747991  0.4773550908679098
  0.8471017657724857  0.8742965980914477  0.4886068281613234
  0.9203917433114128  0.8713275262109690  0.5588996062977500
  0.6657337340899119  0.7934471952885858  0.5793016515927221
  0.5455764385412891  0.8834468488801122  0.5689987151951286
  0.9059823941969540  0.8735518272956284  0.2326527291403977
  0.7497111457709167  0.8734911423847223  0.2002098378583739
  0.5944038532558906  0.8735703019321264  0.2339949846637737
  0.6548181168907021  0.4986321732073833  0.3162366238241674
  0.4996903955179022  0.4989686372335314  0.3038378683462710
  0.8446819903702050  0.4983749380106985  0.3160371537163371
  0.9012386667831436  0.4974407654075179  0.4014190756131981
  0.7494017210437320  0.4980690558579965  0.3885175181809117
  0.5977388332271190  0.4982282722673403  0.4018537879292410
  0.6454977537516555  0.4977671840556610  0.4842294750908849
  0.4981141579890718  0.4970442662856485  0.4745616070385026
  0.8523184350308384  0.4965470335747071  0.4808091199220641
  0.8981267210151884  0.5092802549442723  0.5579612069736015
  0.7511271217080804  0.5531042496168723  0.5231747040884400
  0.6025248560160179  0.4926189528041078  0.5615760428448340
  0.9797582009742669  0.1108136360981433  0.5360008652288784
  0.3892664089635076  0.1316832812243049  0.5451259962916168
  0.1188124764470118  0.0828549771051854  0.5407321647116348
  0.0042802589092616  0.2576278930491469  0.5357076229066280
  0.2980513719406872  0.2300331285972490  0.5406350679869405
  0.1168088971863455  0.1946651352898598  0.5366020080379883
  0.0117435255666507  0.3685395563718501  0.5355815946226343
  0.3063364475943118  0.3186424649544151  0.5819892944308904
  0.1367093848394276  0.3098027795678746  0.5384032121857985
  0.0215187700239312  0.0042360225428766  0.5365230818533533
  0.3146384985611945  0.4356169329964743  0.5335267283932268
  0.1205474420405110  0.4376041923359608  0.5360797790541767
  0.0110870581958622  0.6337587024545570  0.5389691513260217
  0.3503968555233570  0.5403130411764963  0.5479696539392691
  0.1148055254213531  0.5564947297347729  0.5351285575897506
  0.0090828269443790  0.7430457938560551  0.5376779777590670
  0.3319627353587720  0.6548833340009921  0.5411441868072941
  0.1353481628162783  0.6879992201129639  0.5318385587281469
  0.0071706618685781  0.8483323963433875  0.5382328780848695
  0.3313304684386296  0.8562230203858192  0.5438422056842924
  0.1761882147336848  0.8648733283210106  0.5395332589358333
  0.9832529863669350  0.4858971185331669  0.5368214053880394
  0.3542225367557919  0.9913007244732128  0.5479444106306275
  0.1737272673787231  0.9789436519090913  0.5417533119967928
  0.5538448410393286  0.1372440533944470  0.5324365950985239
  0.8259624628495601  0.0850699640440666  0.5307445699248987
  0.6599165679917078  0.0296653603195907  0.5484650195336442
  0.5111911070590267  0.2405637093211439  0.5362083450682604
  0.8623687448044848  0.1987367788853334  0.5424645286549108
  0.7163437777978743  0.1503776301263429  0.5418227096381329
  0.5176417958257886  0.3711437515613554  0.5374921540047382
  0.8891306999620241  0.3184529856108682  0.5370781442555526
  0.6349511632135858  0.3064238644815873  0.5306585906112460
  0.4867482119193056  0.0303889684014891  0.5344653377027342
  0.8136164220410933  0.4926591119351968  0.5358686853180217
  0.6384120715204062  0.4327020032921638  0.5325362025366331
  0.4959126733594204  0.6102439792661301  0.5410066630707817
  0.8325757963572116  0.5975785634540713  0.5433058568425935
  0.6309971382373192  0.5604525163745535  0.5363526554495692
  0.4210959676577488  0.7458388009291070  0.5450968349982759
  0.8831244669021601  0.6910230518364102  0.5450812840339836
  0.7046626739683148  0.6886279210283419  0.5257142208559245
  0.4767906852323875  0.9191223026520632  0.5390776365717187
  0.8783345729811032  0.8101554395581232  0.5366345460215456
  0.5691935799347405  0.8121111543702497  0.5794057807425190
  0.5141632729019605  0.4910571161810964  0.5383991486523030
  0.8800566570320996  0.9348131275162572  0.5358756795577904
  0.6311881730445137  0.9014090855541497  0.5468573936963210
  0.2034407811390011  0.6161635267093359  0.5795642614549621
 
  0.00000000E+00  0.00000000E+00  0.00000000E+00
  0.00000000E+00  0.00000000E+00  0.00000000E+00
  0.00000000E+00  0.00000000E+00  0.00000000E+00
  0.00000000E+00  0.00000000E+00  0.00000000E+00
  0.00000000E+00  0.00000000E+00  0.00000000E+00
  0.00000000E+00  0.00000000E+00  0.00000000E+00