Cu	N	Ru	Ta                              
   1.00000000000000     
    18.1096308199999996    0.0000000000000000    0.0000000000000000
     0.0000000000000000   23.3551997799999995    0.0000000000000000
     0.0000000000000000    0.0000000000000000   30.4818171199999988
   Cu   N    Ru   Ta
     4   240    24   216
Selective dynamics
Direct
  0.5642071939992372  0.4561463522401353  0.6074130720408379   T   T   T
  0.7345566055929241  0.4255231355800010  0.6124218911397074   T   T   T
  0.2651636433940392  0.4300258524997919  0.6154020409121659   T   T   T
  0.4228326995492440  0.4503967846492735  0.6090306147242770   T   T   T
  0.0000000000000000  0.0000770226766207  0.3028264943543491   F   F   F
  0.0000000000000000  0.5000770226766207  0.3028264943543491   F   F   F
  0.0000000000000000  0.6248851796377153  0.3029475127301708   F   F   F
  0.0000000000000000  0.7500770228907001  0.3028264943543491   F   F   F
  0.0000000000000000  0.8748851798518018  0.3029475127301708   F   F   F
  0.0000000000000000  0.1248851796377153  0.3029475127301708   F   F   F
  0.0000000000000000  0.2500770228907001  0.3028264943543491   F   F   F
  0.0000000000000000  0.3748851798518018  0.3029475127301708   F   F   F
  0.0001129537604546  0.7497437888100216  0.4725409131957914   T   T   T
  0.0002887067686587  0.8754590202965548  0.4737399194389796   T   T   T
  0.0004052065683625  0.0006360542737077  0.4717172939558415   T   T   T
  0.0007966069128312  0.1253800172752714  0.4735046729143784   T   T   T
  0.0016150462842277  0.3732652280404574  0.4739241795634824   T   T   T
  0.0016708690064236  0.2503859810715718  0.4712784819713884   T   T   T
  0.5778773202057154  0.3864627296142993  0.5748609892288962   T   T   T
  0.5861586974874361  0.6385818535566854  0.5777939097607692   T   T   T
  0.5890561578058494  0.1347844055532229  0.5721830334489173   T   T   T
  0.5914864964772942  0.7588996093943908  0.5696289124448649   T   T   T
  0.5913830173147564  0.0040426146378384  0.5700478413241927   T   T   T
  0.5943504772119894  0.6250779795299195  0.2321437935324795   F   F   F
  0.5943504772119894  0.8750779797440060  0.2321437935324795   F   F   F
  0.5943504772119894  0.1250779795299195  0.2321437935324795   F   F   F
  0.5943504772119894  0.3750779797440060  0.2321437935324795   F   F   F
  0.5943930523482663  0.9999373617004466  0.2321734905809336   F   F   F
  0.5943930523482663  0.4999373617004466  0.2321734905809336   F   F   F
  0.5943930523482663  0.7499373619145331  0.2321734905809336   F   F   F
  0.5943930523482663  0.2499373619145331  0.2321734905809336   F   F   F
  0.5944453690829361  0.5103091489045004  0.5631016445725855   T   T   T
  0.5960009785895034  0.8789723961394906  0.5722849331221752   T   T   T
  0.5971661924785789  0.2618293617389342  0.5582706274612135   T   T   T
  0.5984453797116727  0.6238603094580006  0.4028374410634581   T   T   T
  0.5985279958122435  0.7503270770463277  0.4024829768699151   T   T   T
  0.5986348437796154  0.8753818238339308  0.4022554823475009   T   T   T
  0.5985920787496978  0.3737415863009027  0.4016949611475828   T   T   T
  0.5986534680894269  0.5003185742281647  0.4015927086955685   T   T   T
  0.5988743835348653  0.1252021082712135  0.4012406950731839   T   T   T
  0.5991907131236286  0.2507743437549217  0.4009837733436639   T   T   T
  0.5992540429249471  0.0011997417945547  0.4016266768546281   T   T   T
  0.6477464804224403  0.3745558555149216  0.4864898545258717   T   T   T
  0.6480869688830210  0.7461636876167828  0.4876991767115128   T   T   T
  0.6488109344011078  0.6270662571867383  0.4897320520728703   T   T   T
  0.6491449964424755  0.1296165905180457  0.4846373941208643   T   T   T
  0.6490025675378631  0.8819910944526055  0.4872599236249020   T   T   T
  0.6492750326032928  0.4955302092416584  0.4850966544654078   T   T   T
  0.6529130024602740  0.9998710745795031  0.4873747177411761   T   T   T
  0.6531652726088603  0.2471543980608309  0.4842490298793286   T   T   T
  0.6547082680948861  0.6251230654212776  0.3157550047659328   F   F   F
  0.6547082680948861  0.8751230656353641  0.3157550047659328   F   F   F
  0.6547082680948861  0.1251230654212776  0.3157550047659328   F   F   F
  0.6547082680948861  0.3751230656353641  0.3157550047659328   F   F   F
  0.6547523877132235  0.9998547719551993  0.3156484409089586   F   F   F
  0.6547523877132235  0.4998547719551993  0.3156484409089586   F   F   F
  0.6547523877132235  0.7498547721692859  0.3156484409089586   F   F   F
  0.6547523877132235  0.2498547721692859  0.3156484409089586   F   F   F
  0.7416521168067992  0.3722691516218676  0.5593882195560992   T   T   T
  0.7430245131096691  0.4820802130430320  0.5638485185320208   T   T   T
  0.7439973867857091  0.1253927366092612  0.5526052492644227   T   T   T
  0.7454634430573496  0.7026874293972298  0.5756943865402655   T   T   T
  0.7491633560438412  0.2413870320302374  0.5578679197316021   T   T   T
  0.7495353402436833  0.7500515222410473  0.3890684931817435   T   T   T
  0.7495539630989507  0.6247622795418213  0.3893555944078978   T   T   T
  0.7497510644192735  0.8749186082049800  0.3888281182227885   T   T   T
  0.7499297173634418  0.5001147787085062  0.3875519581350991   T   T   T
  0.7499845506643233  0.0005419013207749  0.3880966413437013   T   T   T
  0.7499999997239044  0.0000513585844359  0.1992858820091215   F   F   F
  0.7499999997239044  0.5000513585844431  0.1992858820091215   F   F   F
  0.7499999997239044  0.6250070552811167  0.1993925282102751   F   F   F
  0.7499999997239044  0.7500513587985225  0.1992858820091215   F   F   F
  0.7499999997239044  0.8750070554952032  0.1993925282102751   F   F   F
  0.7499999997239044  0.1250070552811167  0.1993925282102751   F   F   F
  0.7499999997239044  0.2500513587985225  0.1992858820091215   F   F   F
  0.7499999997239044  0.3750070554952032  0.1993925282102751   F   F   F
  0.7501477632169943  0.1250693245449637  0.3880062244081889   T   T   T
  0.7501170627265669  0.3745547427573073  0.3880080366484178   T   T   T
  0.7505091763456301  0.2500289670450914  0.3874243617512906   T   T   T
  0.7508050943138286  0.8134598347057174  0.5111998975103327   T   T   T
  0.7508585684925028  0.9397418243344875  0.5741806693326066   T   T   T
  0.7717611802736309  0.5962338431430142  0.5466252410638175   T   T   T
  0.8452476122867765  0.9998547719551993  0.3156484409089586   F   F   F
  0.8452476122867765  0.4998547719551993  0.3156484409089586   F   F   F
  0.8452476122867765  0.7498547721692859  0.3156484409089586   F   F   F
  0.8452476122867765  0.2498547721692859  0.3156484409089586   F   F   F
  0.8452917319051139  0.6251230654212776  0.3157550047659328   F   F   F
  0.8452917319051139  0.8751230656353641  0.3157550047659328   F   F   F
  0.8452917319051139  0.1251230654212776  0.3157550047659328   F   F   F
  0.8452917319051139  0.3751230656353641  0.3157550047659328   F   F   F
  0.8475608968226498  0.4969230181695674  0.4889453369532261   T   T   T
  0.8483772401149262  0.9987165790564492  0.4892048058664849   T   T   T
  0.8492896905315017  0.3750942852195175  0.4871137987070329   T   T   T
  0.8498826562582562  0.7442656384419885  0.4873746422560788   T   T   T
  0.8512133923695444  0.2473140883577561  0.4884674438407196   T   T   T
  0.8511528587941899  0.1269021890720153  0.4868888906234065   T   T   T
  0.8517840455069019  0.6275623854555026  0.4852905437048806   T   T   T
  0.8525895212965109  0.8794813354348914  0.4871143830664536   T   T   T
  0.9003576732377950  0.4996654758162774  0.4022281257984039   T   T   T
  0.9003633278871349  0.0006868783310811  0.4018395208845479   T   T   T
  0.9007888897207074  0.7503455059138077  0.4016510812037971   T   T   T
  0.9008154061453594  0.6242254708060764  0.4016347777130059   T   T   T
  0.9007716740053017  0.2501300692351917  0.4017884458932183   T   T   T
  0.9007981073320060  0.1249509187182360  0.4018858421446533   T   T   T
  0.9010982121349866  0.8748914304112753  0.4019835415857329   T   T   T
  0.9009898796553176  0.3747589112396962  0.4020290873035833   T   T   T
  0.9045390854760708  0.3764751472922995  0.5731379762044713   T   T   T
  0.9056069476517337  0.9999373617004466  0.2321734905809336   F   F   F
  0.9056069476517337  0.4999373617004466  0.2321734905809336   F   F   F
  0.9056069476517337  0.7499373619145331  0.2321734905809336   F   F   F
  0.9056069476517337  0.2499373619145331  0.2321734905809336   F   F   F
  0.9056495227880106  0.6250779795299195  0.2321437935324795   F   F   F
  0.9056495227880106  0.8750779797440060  0.2321437935324795   F   F   F
  0.9056495227880106  0.1250779795299195  0.2321437935324795   F   F   F
  0.9056495227880106  0.3750779797440060  0.2321437935324795   F   F   F
  0.9060913535628723  0.6284458737211006  0.5754648784325129   T   T   T
  0.9067585459951396  0.7465897880262290  0.5684156869556274   T   T   T
  0.9072813505080168  0.8737522731009653  0.5730900399208929   T   T   T
  0.9076753446718731  0.1285847236957572  0.5722440821476906   T   T   T
  0.9073778893913346  0.4921235068405291  0.5701637644250257   T   T   T
  0.0905178709862273  0.4904631290469457  0.5704420112107922   T   T   T
  0.9129719399689571  0.2407581164051314  0.5702620832380936   T   T   T
  0.9142198068844855  0.9935994801896185  0.5712306301258336   T   T   T
  0.0919978191672720  0.2536938645325375  0.5710985631672553   T   T   T
  0.0926496956565206  0.6286092163729647  0.5756007152028448   T   T   T
  0.0934048926110503  0.7468925494928368  0.5685664837144188   T   T   T
  0.0943504772119894  0.6250779795299195  0.2321437935324795   F   F   F
  0.0943504772119894  0.8750779797440060  0.2321437935324795   F   F   F
  0.0943504772119894  0.1250779795299195  0.2321437935324795   F   F   F
  0.0943504772119894  0.3750779797440060  0.2321437935324795   F   F   F
  0.0943930523482663  0.9999373617004466  0.2321734905809336   F   F   F
  0.0943930523482663  0.4999373617004466  0.2321734905809336   F   F   F
  0.0943930523482663  0.7499373619145331  0.2321734905809336   F   F   F
  0.0943930523482663  0.2499373619145331  0.2321734905809336   F   F   F
  0.0960730087419644  0.0051946404844189  0.5675258153051083   T   T   T
  0.0973124418791816  0.8760289886050918  0.5734673311574028   T   T   T
  0.0990126347451116  0.8749156423058816  0.4021186887755951   T   T   T
  0.0988949316308620  0.1249864083723662  0.4015575320700997   T   T   T
  0.0989806616452559  0.6242103174764838  0.4016979100286093   T   T   T
  0.0992687162918446  0.7504767753795072  0.4017763231332968   T   T   T
  0.0992712397066534  0.5000282228608144  0.4021644106838003   T   T   T
  0.0992397279033912  0.3744021647455368  0.4018014721346200   T   T   T
  0.0996023705353305  0.0006142209339125  0.4014430218468942   T   T   T
  0.0996537266554952  0.2505236103565194  0.4013563942240115   T   T   T
  0.0994906789441387  0.3693606567020282  0.5731692858059020   T   T   T
  0.9995218942668446  0.4985159016761744  0.4728030181763199   T   T   T
  0.9997079032273648  0.6250935120481371  0.4737031976839594   T   T   T
  0.1007879784383674  0.1321686705635513  0.5736373887388124   T   T   T
  0.1478838906459146  0.8801454242556697  0.4872696680093742   T   T   T
  0.1477708887958957  0.6275811481442994  0.4854925887177557   T   T   T
  0.1495403690228060  0.1287058470887329  0.4858816233080266   T   T   T
  0.1503243162145759  0.7440280315903262  0.4876465235720674   T   T   T
  0.1510198330774538  0.4971641176490056  0.4891640890069777   T   T   T
  0.1518937176103051  0.3767432282659663  0.4854702785496828   T   T   T
  0.1535669030628788  0.9983948289057935  0.4868761553469801   T   T   T
  0.1533449455656405  0.2463766932443862  0.4858856575054288   T   T   T
  0.1547082680948861  0.6251230654212776  0.3157550047659328   F   F   F
  0.1547082680948861  0.8751230656353641  0.3157550047659328   F   F   F
  0.1547082680948861  0.1251230654212776  0.3157550047659328   F   F   F
  0.1547082680948861  0.3751230656353641  0.3157550047659328   F   F   F
  0.1547523877132235  0.9998547719551993  0.3156484409089586   F   F   F
  0.1547523877132235  0.4998547719551993  0.3156484409089586   F   F   F
  0.1547523877132235  0.7498547721692859  0.3156484409089586   F   F   F
  0.1547523877132235  0.2498547721692859  0.3156484409089586   F   F   F
  0.2254866509570650  0.5950360215549981  0.5473331724137085   T   T   T
  0.2462914780169656  0.1109559191618914  0.5478169176887386   T   T   T
  0.2481871557639790  0.3703508647812850  0.5675876672168476   T   T   T
  0.2496441315441066  0.8137832028179012  0.5113277548510129   T   T   T
  0.2497760974651169  0.5003255267256811  0.3872463992330593   T   T   T
  0.2500577639639972  0.0005621888825102  0.3869723094633500   T   T   T
  0.2498450415418408  0.2365130859974725  0.5715163334190161   T   T   T
  0.2499999997239044  0.0000513585844359  0.1992858820091215   F   F   F
  0.2499999997239044  0.5000513585844431  0.1992858820091215   F   F   F
  0.2499999997239044  0.6250070552811167  0.1993925282102751   F   F   F
  0.2499999997239044  0.7500513587985225  0.1992858820091215   F   F   F
  0.2499999997239044  0.8750070554952032  0.1993925282102751   F   F   F
  0.2499999997239044  0.1250070552811167  0.1993925282102751   F   F   F
  0.2499999997239044  0.2500513587985225  0.1992858820091215   F   F   F
  0.2499999997239044  0.3750070554952032  0.1993925282102751   F   F   F
  0.2499521707783637  0.1249434081862404  0.3876070073954740   T   T   T
  0.2499350859298968  0.2498853584774334  0.3861154398486730   T   T   T
  0.2502590512746583  0.8748777972306756  0.3887196268871278   T   T   T
  0.2499688244027060  0.3750164986211647  0.3867869709365059   T   T   T
  0.2502210713879326  0.6247998570938256  0.3891708152132086   T   T   T
  0.2504127695412897  0.7502027976383615  0.3891084058999485   T   T   T
  0.2512172538032434  0.9397030406827929  0.5739613832359149   T   T   T
  0.2519461676025930  0.4815015155480787  0.5642880275895281   T   T   T
  0.2547013338721935  0.7011060333218900  0.5754208035417457   T   T   T
  0.3452476122867765  0.9998547719551993  0.3156484409089586   F   F   F
  0.3452476122867765  0.4998547719551993  0.3156484409089586   F   F   F
  0.3452476122867765  0.7498547721692859  0.3156484409089586   F   F   F
  0.3452476122867765  0.2498547721692859  0.3156484409089586   F   F   F
  0.3452917319051139  0.6251230654212776  0.3157550047659328   F   F   F
  0.3452917319051139  0.8751230656353641  0.3157550047659328   F   F   F
  0.3452917319051139  0.1251230654212776  0.3157550047659328   F   F   F
  0.3452917319051139  0.3751230656353641  0.3157550047659328   F   F   F
  0.3462953047583975  0.0003987505516433  0.4864596378761392   T   T   T
  0.3478349545323184  0.2487446381761347  0.4843870017156702   T   T   T
  0.3488354093237737  0.4961492497350734  0.4849204641800247   T   T   T
  0.3494848402128500  0.1308884700687747  0.4867355282134211   T   T   T
  0.3496965639183509  0.3749277195440460  0.4854620081697363   T   T   T
  0.3497862670705670  0.6267316019457324  0.4899679800836702   T   T   T
  0.3508319936628601  0.8824833670271681  0.4873962051502926   T   T   T
  0.3516786075926793  0.7462393839605719  0.4880674442133932   T   T   T
  0.3971085729433164  0.5059246408852542  0.5650139529940621   T   T   T
  0.3974357229319598  0.3778919939447246  0.5798375131290946   T   T   T
  0.3995705363430863  0.1387397979362964  0.5729204462173781   T   T   T
  0.4004884214018578  0.0015127322201504  0.4016818680510307   T   T   T
  0.4005388008164604  0.2506438369100112  0.4009419074200604   T   T   T
  0.4008812801881109  0.1251119815096508  0.4016650859312907   T   T   T
  0.4008330085823117  0.3744265844467508  0.4013578685638605   T   T   T
  0.4012736592079150  0.7503996329318459  0.4026555372790514   T   T   T
  0.4009937430078679  0.5004474315012944  0.4016794766861549   T   T   T
  0.4011182660421646  0.6239622390002870  0.4029802792696087   T   T   T
  0.4013727127021129  0.8753613156818695  0.4022843432070897   T   T   T
  0.4041569540393222  0.8798897328747540  0.5723639298483537   T   T   T
  0.4033659993178134  0.0122066692763592  0.5669868518350368   T   T   T
  0.4047220367669244  0.2641196177655438  0.5660055769579858   T   T   T
  0.4056069476517337  0.9999373617004466  0.2321734905809336   F   F   F
  0.4056069476517337  0.4999373617004466  0.2321734905809336   F   F   F
  0.4056069476517337  0.7499373619145331  0.2321734905809336   F   F   F
  0.4056069476517337  0.2499373619145331  0.2321734905809336   F   F   F
  0.4056495227880106  0.6250779795299195  0.2321437935324795   F   F   F
  0.4056495227880106  0.8750779797440060  0.2321437935324795   F   F   F
  0.4056495227880106  0.1250779795299195  0.2321437935324795   F   F   F
  0.4056495227880106  0.3750779797440060  0.2321437935324795   F   F   F
  0.4080043097552442  0.7585490135871652  0.5699646936137679   T   T   T
  0.4153026313059639  0.6373590843183604  0.5769345706521146   T   T   T
  0.4987192081978533  0.3732212960646003  0.4749957902681817   T   T   T
  0.4990608475691056  0.1266285602603998  0.4737668270527448   T   T   T
  0.4993956625857848  0.2506808840014642  0.4715646027415267   T   T   T
  0.4996625439370975  0.0024081999367465  0.4728022508860406   T   T   T
  0.4998053589278617  0.7504115421683397  0.4746460551413567   T   T   T
  0.4996370966829251  0.4996204981287377  0.4721562569545187   T   T   T
  0.4999468691281623  0.8771043375117901  0.4742145713794825   T   T   T
  0.4999157518991789  0.6240566238828533  0.4770594622791471   T   T   T
  0.5000000000000000  0.0000770226766207  0.3028264943543491   F   F   F
  0.5000000000000000  0.5000770226766207  0.3028264943543491   F   F   F
  0.5000000000000000  0.6248851796377153  0.3029475127301708   F   F   F
  0.5000000000000000  0.7500770228907001  0.3028264943543491   F   F   F
  0.5000000000000000  0.8748851798518018  0.3029475127301708   F   F   F
  0.5000000000000000  0.1248851796377153  0.3029475127301708   F   F   F
  0.5000000000000000  0.2500770228907001  0.3028264943543491   F   F   F
  0.5000000000000000  0.3748851798518018  0.3029475127301708   F   F   F
  0.0053517087738638  0.9951120762432660  0.5388420923055678   T   T   T
  0.0075236039191417  0.2431428982498381  0.5388105031872786   T   T   T
  0.6345964306654293  0.0670404523812155  0.5369224738645959   T   T   T
  0.6427814193116483  0.8147493197815547  0.5348857004733679   T   T   T
  0.6904333914743263  0.3051797260398234  0.5344529514029779   T   T   T
  0.6932687639894739  0.5507474395561988  0.5347288022876466   T   T   T
  0.8637947606020250  0.8078624096711519  0.5356063273034002   T   T   T
  0.8757569046820944  0.5583552119557832  0.5416224790585240   T   T   T
  0.8832405839046523  0.0594522262306237  0.5404913493480817   T   T   T
  0.8835181571092963  0.3052557435734500  0.5411671024130661   T   T   T
  0.9986046475836494  0.4856104104681077  0.5392888166415821   T   T   T
  0.0001723530308077  0.7466518523443860  0.5395417001381727   T   T   T
  0.1209860291836347  0.5575937313589121  0.5427800872345987   T   T   T
  0.1366149502083077  0.8080055854412157  0.5358319575070964   T   T   T
  0.1471723597319567  0.0672967219888617  0.5367136558015253   T   T   T
  0.1740619577043501  0.3037915052026079  0.5747381241592091   T   T   T
  0.3033654482523044  0.5501563334248670  0.5355167922760122   T   T   T
  0.3226886940596379  0.3109812015917690  0.5801213698584794   T   T   T
  0.3465852130625256  0.0731576517383282  0.5379422903494382   T   T   T
  0.3574071263768881  0.8150738826951116  0.5352354517399895   T   T   T
  0.4944761416498685  0.5030555457132595  0.5382703533392905   T   T   T
  0.4987760437322938  0.0088970100393606  0.5398063992360818   T   T   T
  0.4997452206499947  0.7633474594974049  0.5417745262973565   T   T   T
  0.5024599905553849  0.2550922612802989  0.5387513905588611   T   T   T
  0.0000000000000000  0.9999830748611132  0.1973415402473861   F   F   F
  0.0000000000000000  0.4999830748611132  0.1973415402473861   F   F   F
  0.0000000000000000  0.6250597900044994  0.1972695212469660   F   F   F
  0.0000000000000000  0.7499830750751997  0.1973415402473861   F   F   F
  0.0000000000000000  0.8750597902185859  0.1972695212469660   F   F   F
  0.0000000000000000  0.1250597900044994  0.1972695212469660   F   F   F
  0.0000000000000000  0.2499830750751997  0.1973415402473861   F   F   F
  0.0000000000000000  0.3750597902185859  0.1972695212469660   F   F   F
  0.9999832123314183  0.3748409942396300  0.3695830577054535   T   T   T
  0.0000827144993985  0.2501377301758976  0.3693529550747241   T   T   T
  0.0022729321723873  0.8789916605403288  0.5429775386683240   T   T   T
  0.0022712365067096  0.3767554837136411  0.5433164890822447   T   T   T
  0.0051568976899446  0.1318590405254506  0.5428129433189474   T   T   T
  0.5815170300420702  0.4364449336354971  0.4520552358320064   T   T   T
  0.5819262881787075  0.1882362145726053  0.4517524160734016   T   T   T
  0.5824959423441172  0.4374754614066489  0.2839355729984092   F   F   F
  0.5824959423441172  0.6874754611925624  0.2839355729984092   F   F   F
  0.5824959423441172  0.9374754614066489  0.2839355729984092   F   F   F
  0.5824959423441172  0.1874754611925624  0.2839355729984092   F   F   F
  0.5828474871960492  0.6868713451249666  0.4539047274532027   T   T   T
  0.5827651808530874  0.5624885324787385  0.2838652796168972   F   F   F
  0.5827651808530874  0.0624885324787385  0.2838652796168972   F   F   F
  0.5827651808530874  0.8124885322646520  0.2838652796168972   F   F   F
  0.5827651808530874  0.3124885322646520  0.2838652796168972   F   F   F
  0.5831215455504365  0.9396127868664638  0.4532676373034530   T   T   T
  0.5838746895259130  0.8132091355448777  0.4550973069172271   T   T   T
  0.5840619014780843  0.3116743349991622  0.4542522443763997   T   T   T
  0.5844691448621130  0.0636613773312415  0.4541384411312651   T   T   T
  0.5843832843885389  0.5617351365144462  0.4555030320704864   T   T   T
  0.6530016396618084  0.6895396310352792  0.5472151762999733   T   T   T
  0.6566947875616816  0.4331430161071004  0.5393844031375538   T   T   T
  0.6577821344194001  0.9407073593671645  0.5449624122236032   T   T   T
  0.6628912324767595  0.1854781798444012  0.5401354119371157   T   T   T
  0.6659163253997278  0.5625456426731574  0.2025671506292426   F   F   F
  0.6659163253997278  0.0625456426731503  0.2025671506292426   F   F   F
  0.6659163253997278  0.8125456424590709  0.2025671506292426   F   F   F
  0.6659163253997278  0.3125456424590709  0.2025671506292426   F   F   F
  0.6659898017733283  0.4375125970341855  0.2025194438276969   F   F   F
  0.6659898017733283  0.6875125968200990  0.2025194438276969   F   F   F
  0.6659898017733283  0.9375125970341855  0.2025194438276969   F   F   F
  0.6659898017733283  0.1875125968200990  0.2025194438276969   F   F   F
  0.6675125475821478  0.8125880176390059  0.3689622299298582   T   T   T
  0.6675698247615219  0.6874349200796783  0.3689330166134618   T   T   T
  0.6676867197887956  0.5625361918698286  0.3685011555695706   T   T   T
  0.6679518627812931  0.9376186156212724  0.3685106858801880   T   T   T
  0.6679931334622251  0.0628227519304289  0.3680119682489958   T   T   T
  0.6680368989262359  0.4373554861327785  0.3683850033868993   T   T   T
  0.6683579935601897  0.1875878349427894  0.3679308902174748   T   T   T
  0.6683958942196000  0.3124407257618608  0.3678727838832406   T   T   T
  0.7486231271969416  0.6246796928084651  0.4578233887023050   T   T   T
  0.7491438750506789  0.7500761465469390  0.4583255414045702   T   T   T
  0.7489754350178510  0.3752351284016908  0.4560956734515067   T   T   T
  0.7492310694129615  0.4976234180594173  0.4556660883087509   T   T   T
  0.7499999997239044  0.0001643475558382  0.2779548773829816   F   F   F
  0.7499999997239044  0.5001643475558382  0.2779548773829816   F   F   F
  0.7499999997239044  0.6249264342623420  0.2780286426703711   F   F   F
  0.7499999997239044  0.7501643477699247  0.2779548773829816   F   F   F
  0.7499999997239044  0.8749264344764285  0.2780286426703711   F   F   F
  0.7499999997239044  0.1249264342623420  0.2780286426703711   F   F   F
  0.7499999997239044  0.2501643477699247  0.2779548773829816   F   F   F
  0.7499999997239044  0.3749264344764285  0.2780286426703711   F   F   F
  0.7503977968231713  0.8761448769347312  0.4581791375210512   T   T   T
  0.7508275172861069  0.0000525671604980  0.4559046298060576   T   T   T
  0.7507879860375344  0.1275928619301553  0.4564761611700529   T   T   T
  0.7526044155817426  0.2484039970958054  0.4555233092558932   T   T   T
  0.0824959423441172  0.4374754614066489  0.2839355729984092   F   F   F
  0.0824959423441172  0.6874754611925624  0.2839355729984092   F   F   F
  0.0824959423441172  0.9374754614066489  0.2839355729984092   F   F   F
  0.0824959423441172  0.1874754611925624  0.2839355729984092   F   F   F
  0.8271027599136646  0.1809143433729202  0.5424249880114441   T   T   T
  0.0827886308097388  0.6871419163813168  0.4525078992485975   T   T   T
  0.0827651808530874  0.5624885324787385  0.2838652796168972   F   F   F
  0.0827651808530874  0.0624885324787385  0.2838652796168972   F   F   F
  0.0827651808530874  0.8124885322646520  0.2838652796168972   F   F   F
  0.0827651808530874  0.3124885322646520  0.2838652796168972   F   F   F
  0.8314015029245579  0.6874944966378087  0.3685488725854388   T   T   T
  0.8318246085260035  0.9375034752364031  0.3686458893084356   T   T   T
  0.0833168972005525  0.9385850648539064  0.4531470388163942   T   T   T
  0.8319972653592060  0.8125165564917750  0.3687850659949306   T   T   T
  0.8319541657263636  0.4374167744458697  0.3684902117429700   T   T   T
  0.8320189360053900  0.5624649424463560  0.3683520320471260   T   T   T
  0.8321313190816667  0.0626747711019050  0.3681223843610149   T   T   T
  0.8321393749839572  0.1874977605136725  0.3682881219217708   T   T   T
  0.8324179294822504  0.3125070224916249  0.3680700018521900   T   T   T
  0.8320432995417537  0.4318867047220510  0.5415266580019669   T   T   T
  0.8327627223085213  0.6818387537783185  0.5441390126638388   T   T   T
  0.8340101684082839  0.4375125970341855  0.2025194438276969   F   F   F
  0.8340101684082839  0.6875125968200990  0.2025194438276969   F   F   F
  0.8340101684082839  0.9375125970341855  0.2025194438276969   F   F   F
  0.8340101684082839  0.1875125968200990  0.2025194438276969   F   F   F
  0.8340836447818845  0.5625456426731574  0.2025671506292426   F   F   F
  0.8340836447818845  0.0625456426731503  0.2025671506292426   F   F   F
  0.8340836447818845  0.8125456424590709  0.2025671506292426   F   F   F
  0.8340836447818845  0.3125456424590709  0.2025671506292426   F   F   F
  0.0833642588041240  0.1882386493010812  0.4528537516275565   T   T   T
  0.0838882631298657  0.4371892805102228  0.4534739507674945   T   T   T
  0.0841957870926787  0.5615029621684970  0.4554605128437257   T   T   T
  0.8430607553096064  0.9334872494519100  0.5447997423232517   T   T   T
  0.0845423437209393  0.8124015437800541  0.4549428497660445   T   T   T
  0.0848809720725523  0.0627984329207970  0.4539873370796427   T   T   T
  0.0879433769969179  0.3118073328329045  0.4551733643194594   T   T   T
  0.9151914694130121  0.5614190189988496  0.4552784657286949   T   T   T
  0.9158208014782963  0.8122917507609022  0.4546784418745997   T   T   T
  0.9160288695346146  0.0627062553852503  0.4545873262617307   T   T   T
  0.9163283650639780  0.3117183034153408  0.4544822633437763   T   T   T
  0.9163740496381000  0.4369700187464945  0.4539458134938915   T   T   T
  0.9169190886096324  0.9384888109101521  0.4530267440369868   T   T   T
  0.9172111584467312  0.6871151124378276  0.4524693439842543   T   T   T
  0.9172348191469126  0.5624885324787385  0.2838652796168972   F   F   F
  0.9172348191469126  0.0624885324787385  0.2838652796168972   F   F   F
  0.9172348191469126  0.8124885322646520  0.2838652796168972   F   F   F
  0.9172348191469126  0.3124885322646520  0.2838652796168972   F   F   F
  0.9175040576558828  0.4374754614066489  0.2839355729984092   F   F   F
  0.9175040576558828  0.6874754611925624  0.2839355729984092   F   F   F
  0.9175040576558828  0.9374754614066489  0.2839355729984092   F   F   F
  0.9175040576558828  0.1874754611925624  0.2839355729984092   F   F   F
  0.9178674488573483  0.1877875706538884  0.4530151277720845   T   T   T
  0.9993072219445701  0.6304140379810034  0.5436599422973847   T   T   T
  0.9997487901999151  0.1250455098765343  0.3693862147516396   T   T   T
  0.9998170618656613  0.4998577228072552  0.3697291013912292   T   T   T
  0.9998773890866025  0.0003816375302288  0.3694458371218463   T   T   T
  0.9998898207342978  0.6245632227015109  0.3695193425303058   T   T   T
  0.0000496791018065  0.7499131486537705  0.3694702419472058   T   T   T
  0.0000492405968263  0.8751190683179061  0.3695714727914997   T   T   T
  0.1589625298450855  0.9364438765022275  0.5442644894381062   T   T   T
  0.1638114715177403  0.4306425399322346  0.5418468606572133   T   T   T
  0.1659163253997278  0.5625456426731574  0.2025671506292426   F   F   F
  0.1659163253997278  0.0625456426731503  0.2025671506292426   F   F   F
  0.1659163253997278  0.8125456424590709  0.2025671506292426   F   F   F
  0.1659163253997278  0.3125456424590709  0.2025671506292426   F   F   F
  0.1659898017733283  0.4375125970341855  0.2025194438276969   F   F   F
  0.1659898017733283  0.6875125968200990  0.2025194438276969   F   F   F
  0.1659898017733283  0.9375125970341855  0.2025194438276969   F   F   F
  0.1659898017733283  0.1875125968200990  0.2025194438276969   F   F   F
  0.1665201840705706  0.6814931630417392  0.5442296325041643   T   T   T
  0.1675676150555050  0.0626997041955197  0.3678156482398460   T   T   T
  0.1675489078022870  0.3125414236331839  0.3678993717754135   T   T   T
  0.1676237779438821  0.1873581142558731  0.3680374119380050   T   T   T