generated by phonopy                    
   1.00000000000000     
     7.6531923697071180    0.0081428672392318   -0.0038809616791904
    -3.8196290617450126    6.6324801438732210   -0.0282471115014572
    -0.0056689720542672   -0.0638025429689641   13.2261093073616713
   B    N    Al
    32    36     4
Direct
  0.1094071241891137  0.2157247729973103 -0.0009134382742577
  0.4392539578016795  0.2188019369541612  0.0066797488535276
  0.7793008939910300  0.2137582180900892  0.0049525426483885
  0.1093842820512434  0.5416661152000747 -0.0002510959124737
  0.4384719676334958  0.5430090395017997 -0.0127530661649824
  0.7673217781356606  0.5416892849514670 -0.0001686903687645
  0.4392444252108110  0.8687287536821537  0.0063110456012318
  0.7674835510838431  0.8738830127211765 -0.0011234043464543
  0.1006631822370442  0.2324899902542834  0.5060829322988473
  0.4511749430353508  0.2327037889291964  0.5055821681313304
  0.7756428180220085  0.2325940750716718  0.4860980451615322
  0.1035472327499155  0.5622967894522158  0.4984722463113039
  0.7779085070986845  0.5623043841170922  0.4986003006053711
  0.1060521591859826  0.8927613539011464  0.5043033122376063
  0.4458865727765604  0.9045589727128840  0.4976474271420281
  0.7779163625066238  0.9044320560980870  0.4983632796838002
  0.2353986766901205  0.1204143948423649  0.2441843427048728
  0.5652209745210781  0.4475209455541493  0.2513090890287570
  0.9072635487681224  0.1151726529735297  0.2520284127436866
  0.2363546219426061  0.4460031623058547  0.2646228044726149
  0.9073165887305915  0.4474729583734506  0.2510866201186883
  0.2351021835492690  0.7699494296425324  0.2443665118432645
  0.5650830479304251  0.7729999448052660  0.2520476420393160
  0.8951355448647502  0.7751972666980907  0.2459130345600480
  0.2128549030583274  0.7733995595389586  0.7508749502908283
  0.5551247153472566  0.1152443556608504  0.7502830502169203
  0.8807719882088517  0.1150683072742095  0.7506570845908633
  0.2075274699111632  0.4448992877937390  0.7434734912500901
  0.5581190103020818  0.4451593562617491  0.7430559017366656
  0.8828610456805548  0.4449982927908344  0.7630327364335773
  0.5527570911641162  0.7848942734549545  0.7451996132874320
  0.8810835281970272  0.7734125855786396  0.7503873282704921
  0.2285511950801825  0.1231963038543029  0.0167955849538570
  0.5534399871488733  0.1009059033109580  0.0257625791183886
  0.8842995110492448  0.0993280413134120  0.0007078291660725
  0.2176148708242152  0.4325905878099336 -0.0126322957624940
  0.5496514230864831  0.4316233451825389 -0.0117750141242224
  0.8843199714829170  0.4330736353784957  0.0020773053259190
  0.2286225032085377  0.7537264438502238  0.0171033176608011
  0.5496624394569527  0.7656276526711370 -0.0129634209866125
  0.8590639959700357  0.7537940654878476  0.0135231875190410
  0.2193254640738426  0.1191674647607936  0.5250417407950205
  0.5533494102866637  0.1217230903475264  0.4867357714779642
  0.8873470582734273  0.1216568170961481  0.4876890098688868
  0.1966748146839436  0.4436749180774916  0.5161844515302124
  0.5663335841309085  0.4438453114619830  0.5158347950134863
  0.8864195210281706  0.4536866871541022  0.4870636924719344
  0.2202411842280323  0.7876312525757178  0.4995006733752681
  0.5660871433622096  0.8127787474101467  0.5115811881679406
  0.8868513445721030  0.7875970677246884  0.5000076265083625
  0.1250761583104297  0.2230996204769521  0.2641482847444887
  0.4461055868312720  0.2353591089087231  0.2338101835149675
  0.8157302366242654  0.2353363225730334  0.2370856366122794
  0.1248913232993767  0.5572478271928256  0.2627117932900244
  0.4570945251707073  0.5563464485959848  0.2636534755162683
  0.7902812512662403  0.5561136374506014  0.2492225567000128
  0.1210867251229860  0.8879722601924568  0.2250857654052403
  0.4460162410818811  0.8659289599957255  0.2347176189537981
  0.7902224393645966  0.8896580616599717  0.2500815865162235
  0.0923016848318122  0.2338268475887293  0.7331674597957465
  0.4621222559378307  0.2340532908004042  0.7328903427756920
  0.7719857295289581  0.2236008305853260  0.7630488580039032
  0.1052417770344728  0.5561190311981816  0.7620592224259319
  0.4394059627632486  0.5585204737433983  0.7240344751309760
  0.7714443490182267  0.5560671649446518  0.7614815758826595
  0.0925817252841027  0.8648022988001814  0.7365422462723741
  0.4385035898028970  0.8902353605407171  0.7492400146536486
  0.7720521965910844  0.8900729400533226  0.7485890575160772
  0.1027919765121676  0.8766215325832286  0.0684292961585619
  0.5717246659691586  0.1121585965274617  0.1824410853116306
  0.4452905500870720  0.5713899699823805  0.5672468659817923
  0.2135589310450851  0.1066327619543105  0.6816686095617286
 
  0.00000000E+00  0.00000000E+00  0.00000000E+00
  0.00000000E+00  0.00000000E+00  0.00000000E+00
  0.00000000E+00  0.00000000E+00  0.00000000E+00
  0.00000000E+00  0.00000000E+00  0.00000000E+00
  0.00000000E+00  0.00000000E+00  0.00000000E+00
  0.00000000E+00  0.00000000E+00  0.00000000E+00
  0.00000000E+00  0.00000000E+00  0.00000000E+00
  0.00000000E+00  0.00000000E+00  0.00000000E+00
  0.00000000E+00  0.00000000E+00  0.00000000E+00
  0.00000000E+00  0.00000000E+00  0.00000000E+00
  0.00000000E+00  0.00000000E+00  0.00000000E+00
  0.00000000E+00  0.00000000E+00  0.00000000E+00
  0.00000000E+00  0.00000000E+00  0.00000000E+00
  0.00000000E+00  0.00000000E+00  0.00000000E+00
  0.00000000E+00  0.00000000E+00  0.00000000E+00
  0.00000000E+00  0.00000000E+00  0.00000000E+00
  0.00000000E+00  0.00000000E+00  0.00000000E+00
  0.00000000E+00  0.00000000E+00  0.00000000E+00
  0.00000000E+00  0.00000000E+00  0.00000000E+00
  0.00000000E+00  0.00000000E+00  0.00000000E+00
  0.00000000E+00  0.00000000E+00  0.00000000E+00
  0.00000000E+00  0.00000000E+00  0.00000000E+00
  0.00000000E+00  0.00000000E+00  0.00000000E+00
  0.00000000E+00  0.00000000E+00  0.00000000E+00
  0.00000000E+00  0.00000000E+00  0.00000000E+00
  0.00000000E+00  0.00000000E+00  0.00000000E+00
  0.00000000E+00  0.00000000E+00  0.00000000E+00
  0.00000000E+00  0.00000000E+00  0.00000000E+00
  0.00000000E+00  0.00000000E+00  0.00000000E+00
  0.00000000E+00  0.00000000E+00  0.00000000E+00
  0.00000000E+00  0.00000000E+00  0.00000000E+00
  0.00000000E+00  0.00000000E+00  0.00000000E+00
  0.00000000E+00  0.00000000E+00  0.00000000E+00
  0.00000000E+00  0.00000000E+00  0.00000000E+00
  0.00000000E+00  0.00000000E+00  0.00000000E+00
  0.00000000E+00  0.00000000E+00  0.00000000E+00
  0.00000000E+00  0.00000000E+00  0.00000000E+00
  0.00000000E+00  0.00000000E+00  0.00000000E+00
  0.00000000E+00  0.00000000E+00  0.00000000E+00
  0.00000000E+00  0.00000000E+00  0.00000000E+00
  0.00000000E+00  0.00000000E+00  0.00000000E+00
  0.00000000E+00  0.00000000E+00  0.00000000E+00
  0.00000000E+00  0.00000000E+00  0.00000000E+00
  0.00000000E+00  0.00000000E+00  0.00000000E+00
  0.00000000E+00  0.00000000E+00  0.00000000E+00
  0.00000000E+00  0.00000000E+00  0.00000000E+00
  0.00000000E+00  0.00000000E+00  0.00000000E+00
  0.00000000E+00  0.00000000E+00  0.00000000E+00
  0.00000000E+00  0.00000000E+00  0.00000000E+00
  0.00000000E+00  0.00000000E+00  0.00000000E+00
  0.00000000E+00  0.00000000E+00  0.00000000E+00
  0.00000000E+00  0.00000000E+00  0.00000000E+00
  0.00000000E+00  0.00000000E+00  0.00000000E+00
  0.00000000E+00  0.00000000E+00  0.00000000E+00
  0.00000000E+00  0.00000000E+00  0.00000000E+00
  0.00000000E+00  0.00000000E+00  0.00000000E+00
  0.00000000E+00  0.00000000E+00  0.00000000E+00
  0.00000000E+00  0.00000000E+00  0.00000000E+00
  0.00000000E+00  0.00000000E+00  0.00000000E+00
  0.00000000E+00  0.00000000E+00  0.00000000E+00
  0.00000000E+00  0.00000000E+00  0.00000000E+00
  0.00000000E+00  0.00000000E+00  0.00000000E+00
  0.00000000E+00  0.00000000E+00  0.00000000E+00
  0.00000000E+00  0.00000000E+00  0.00000000E+00
  0.00000000E+00  0.00000000E+00  0.00000000E+00
  0.00000000E+00  0.00000000E+00  0.00000000E+00
  0.00000000E+00  0.00000000E+00  0.00000000E+00
  0.00000000E+00  0.00000000E+00  0.00000000E+00
  0.00000000E+00  0.00000000E+00  0.00000000E+00
  0.00000000E+00  0.00000000E+00  0.00000000E+00
  0.00000000E+00  0.00000000E+00  0.00000000E+00
  0.00000000E+00  0.00000000E+00  0.00000000E+00
