Mo  S Cu                                
   1.00000000000000     
    15.9214998300000001    0.0000000000000000    0.0000000000000000
    -7.9622501300000001   13.7910221699999997    0.0000000000000000
     0.0000000000000000    0.0000000000000000   13.5821998300000004
   Mo   S    Cu
    25    50     4
Direct
  0.1322172459870004  0.0652424969613179  0.6744196864910705
  0.1323182660916800  0.2646702395391429  0.6774166291963866
  0.1324174846055328  0.4649374993094852  0.6808260091404819
  0.1324561467339365  0.6652746438466437  0.6776226600201696
  0.1324767382743346  0.8653949119937252  0.6745794425888860
  0.3321568665514008  0.0646825133395694  0.6732749919031988
  0.3323085125470300  0.2640548706070049  0.6744159857481478
  0.3322483888980372  0.4637411725253884  0.6809504138805949
  0.3341179223450865  0.6663792771564943  0.6770583593218475
  0.3325546734917566  0.8654000733656062  0.6746233586221067
  0.5326539309046296  0.0652389749610478  0.6744348203088748
  0.5313696473549427  0.2640387015399597  0.6743519836357663
  0.5314030406627168  0.4631703248967582  0.6808113804479703
  0.5330340548426662  0.6661392759418874  0.6757430599358045
  0.5329425433072998  0.8658810452918217  0.6750640712227494
  0.7326629735031034  0.0655841251203668  0.6760012130261970
  0.7319926223662705  0.2646623423629748  0.6773392443625283
  0.7311197654658628  0.4637142818961522  0.6808500506598634
  0.7327308768000123  0.6661235905311997  0.6756876388659023
  0.7328491300768931  0.8660525579650908  0.6751544579162143
  0.9325686955594819  0.0655899909984683  0.6759951323334832
  0.9328072583989169  0.2660006328888400  0.6799711684379446
  0.9321575485747857  0.4649281742940872  0.6807567815638293
  0.9318872664679176  0.6663657112556010  0.6769633128307859
  0.9325697132214117  0.8658694538088056  0.6749936001719661
  0.0657506825699770  0.1332275379055332  0.5607268199440156
  0.0653378460825351  0.1301330292364540  0.7914055219393248
  0.0655030127471079  0.3322805136326394  0.5651021782766819
  0.0681542533007331  0.3320062694510426  0.7981909084468839
  0.0650822050722581  0.5304615125965668  0.5648989694044104
  0.0666374569450525  0.5336785727572888  0.7947422426783319
  0.0647398652422879  0.7305344074493760  0.5614680090389115
  0.0662456013238497  0.7336982077119174  0.7912738475746224
  0.0654890606776348  0.9318703890794282  0.5593458000620259
  0.0661063772155330  0.9323316466210727  0.7896388631017359
  0.2655194823734419  0.1321539145053805  0.5586546780517878
  0.2652211620931055  0.1297211925004689  0.7894616612761283
  0.2656891026744361  0.3326887227491326  0.5626266878837569
  0.2658565670938415  0.3280919743204009  0.7959981571149797
  0.2657869704161229  0.5306664003341268  0.5654627816167519
  0.2662412490804655  0.5329206349836682  0.7968201873636502
  0.2654689424126957  0.7305403531412153  0.5615219165656526
  0.2670672881471674  0.7337105255942404  0.7913237476934043
  0.2653521263610727  0.9310397739386005  0.5587091871449061
  0.2659699990512365  0.9323341017003699  0.7891281902800387
  0.4662484254752925  0.1321146096691947  0.5586365714124142
  0.4641385958762285  0.1297402468581410  0.7894590226041913
  0.4660275136017802  0.3324600584764141  0.5612709847908803
  0.4642943786113705  0.3289066840435453  0.7965183385501433
  0.4649956494688112  0.5300225055390300  0.5650551911883568
  0.4657823949320132  0.5314565469605554  0.7975032163872129
  0.4659601231438089  0.7316991165643003  0.5608341234095064
  0.4677400431674670  0.7340532700123603  0.7918222383843627
  0.4660169583117835  0.9318489970606052  0.5594021159677496
  0.4658626419466643  0.9323575311218590  0.7896965881447571
  0.6670910889751056  0.1331688510062037  0.5607050638689657
  0.6644569645620635  0.1301586821066820  0.7913873365677873
  0.6666140807347887  0.3326496564119523  0.5625205341625232
  0.6619005984817647  0.3280672302512144  0.7958617773049639
  0.6646204887642213  0.5300052260923778  0.5649898371364515
  0.6653460732399381  0.5314313095933798  0.7974575555031223
  0.6657240071130843  0.7318448894942193  0.5607307073460319
  0.6665816768892725  0.7334744110898299  0.7912364080364824
  0.6664216845893591  0.9328478918096437  0.5600778178860253
  0.6659165496076653  0.9321260349930540  0.7905143434434407
  0.8671556639136497  0.1346702778440658  0.5625296178119257
  0.8651143575377418  0.1305872342833609  0.7919116699980222
  0.8664354763702988  0.3322655009541577  0.5650311960775838
  0.8634501854856822  0.3320305574452149  0.7981366497550653
  0.8645215563063147  0.5306449947161056  0.5653597735897264
  0.8663037804993934  0.5328942474306544  0.7967154654133495
  0.8653490861577069  0.7316815536416215  0.5607501090571887
  0.8659510455644437  0.7340344039927800  0.7917353227005748
  0.8660580365886048  0.9328636307414726  0.5600463012519796
  0.8658758950194212  0.9321097873562110  0.7904786488183717
  0.4093451301489992  0.4111421181156700  0.9181753448241565
  0.6011663249191201  0.4109933059700452  0.9181062156456576
  0.7870691451801477  0.4034318575857299  0.9041875498935639
  0.2157141637655471  0.4032939878490822  0.9041079918389698
 
  0.00000000E+00  0.00000000E+00  0.00000000E+00
  0.00000000E+00  0.00000000E+00  0.00000000E+00
  0.00000000E+00  0.00000000E+00  0.00000000E+00
  0.00000000E+00  0.00000000E+00  0.00000000E+00
  0.00000000E+00  0.00000000E+00  0.00000000E+00
  0.00000000E+00  0.00000000E+00  0.00000000E+00
  0.00000000E+00  0.00000000E+00  0.00000000E+00
  0.00000000E+00  0.00000000E+00  0.00000000E+00
  0.00000000E+00  0.00000000E+00  0.00000000E+00
  0.00000000E+00  0.00000000E+00  0.00000000E+00
  0.00000000E+00  0.00000000E+00  0.00000000E+00
  0.00000000E+00  0.00000000E+00  0.00000000E+00
  0.00000000E+00  0.00000000E+00  0.00000000E+00
  0.00000000E+00  0.00000000E+00  0.00000000E+00
  0.00000000E+00  0.00000000E+00  0.00000000E+00
  0.00000000E+00  0.00000000E+00  0.00000000E+00
  0.00000000E+00  0.00000000E+00  0.00000000E+00
  0.00000000E+00  0.00000000E+00  0.00000000E+00
  0.00000000E+00  0.00000000E+00  0.00000000E+00
  0.00000000E+00  0.00000000E+00  0.00000000E+00
  0.00000000E+00  0.00000000E+00  0.00000000E+00
  0.00000000E+00  0.00000000E+00  0.00000000E+00
  0.00000000E+00  0.00000000E+00  0.00000000E+00
  0.00000000E+00  0.00000000E+00  0.00000000E+00
  0.00000000E+00  0.00000000E+00  0.00000000E+00
  0.00000000E+00  0.00000000E+00  0.00000000E+00
  0.00000000E+00  0.00000000E+00  0.00000000E+00
  0.00000000E+00  0.00000000E+00  0.00000000E+00
  0.00000000E+00  0.00000000E+00  0.00000000E+00
  0.00000000E+00  0.00000000E+00  0.00000000E+00
  0.00000000E+00  0.00000000E+00  0.00000000E+00
  0.00000000E+00  0.00000000E+00  0.00000000E+00
  0.00000000E+00  0.00000000E+00  0.00000000E+00
  0.00000000E+00  0.00000000E+00  0.00000000E+00
  0.00000000E+00  0.00000000E+00  0.00000000E+00
  0.00000000E+00  0.00000000E+00  0.00000000E+00
  0.00000000E+00  0.00000000E+00  0.00000000E+00
  0.00000000E+00  0.00000000E+00  0.00000000E+00
  0.00000000E+00  0.00000000E+00  0.00000000E+00
  0.00000000E+00  0.00000000E+00  0.00000000E+00
  0.00000000E+00  0.00000000E+00  0.00000000E+00
  0.00000000E+00  0.00000000E+00  0.00000000E+00
  0.00000000E+00  0.00000000E+00  0.00000000E+00
  0.00000000E+00  0.00000000E+00  0.00000000E+00
  0.00000000E+00  0.00000000E+00  0.00000000E+00
  0.00000000E+00  0.00000000E+00  0.00000000E+00
  0.00000000E+00  0.00000000E+00  0.00000000E+00
  0.00000000E+00  0.00000000E+00  0.00000000E+00
  0.00000000E+00  0.00000000E+00  0.00000000E+00
  0.00000000E+00  0.00000000E+00  0.00000000E+00
  0.00000000E+00  0.00000000E+00  0.00000000E+00
  0.00000000E+00  0.00000000E+00  0.00000000E+00
  0.00000000E+00  0.00000000E+00  0.00000000E+00
  0.00000000E+00  0.00000000E+00  0.00000000E+00
  0.00000000E+00  0.00000000E+00  0.00000000E+00
  0.00000000E+00  0.00000000E+00  0.00000000E+00
  0.00000000E+00  0.00000000E+00  0.00000000E+00
  0.00000000E+00  0.00000000E+00  0.00000000E+00
  0.00000000E+00  0.00000000E+00  0.00000000E+00
  0.00000000E+00  0.00000000E+00  0.00000000E+00
  0.00000000E+00  0.00000000E+00  0.00000000E+00
  0.00000000E+00  0.00000000E+00  0.00000000E+00
  0.00000000E+00  0.00000000E+00  0.00000000E+00
  0.00000000E+00  0.00000000E+00  0.00000000E+00
  0.00000000E+00  0.00000000E+00  0.00000000E+00
  0.00000000E+00  0.00000000E+00  0.00000000E+00
  0.00000000E+00  0.00000000E+00  0.00000000E+00
  0.00000000E+00  0.00000000E+00  0.00000000E+00
  0.00000000E+00  0.00000000E+00  0.00000000E+00
  0.00000000E+00  0.00000000E+00  0.00000000E+00
  0.00000000E+00  0.00000000E+00  0.00000000E+00
  0.00000000E+00  0.00000000E+00  0.00000000E+00
  0.00000000E+00  0.00000000E+00  0.00000000E+00
  0.00000000E+00  0.00000000E+00  0.00000000E+00
  0.00000000E+00  0.00000000E+00  0.00000000E+00
  0.00000000E+00  0.00000000E+00  0.00000000E+00
  0.00000000E+00  0.00000000E+00  0.00000000E+00
  0.00000000E+00  0.00000000E+00  0.00000000E+00
  0.00000000E+00  0.00000000E+00  0.00000000E+00
