Ta  N  W Cu                             
   1.00000000000000     
    18.1096308199999996    0.0000000000000000    0.0000000000000000
     0.0000000000000000   23.3551997799999995    0.0000000000000000
     0.0000000000000000    0.0000000000000000   30.4818171199999988
   Ta   N    W    Cu
   216   240    24     1
Direct
  0.0000353849345487  0.0000000016661588  0.1975371689220040
  0.3342134119004356  0.0623949645381643  0.2030088114704824
  0.1658042367669168  0.0624069103138396  0.2029828761263346
  0.2499328286792775  0.1250136856560076  0.2782399279506365
  0.0827484432957633  0.0624870472473305  0.2842829587080331
  0.4172745157692148  0.0624816973425837  0.2842724392025673
  0.9999490646541460  0.1249881592545634  0.3700052858308496
  0.3324135774830452  0.0624827970347397  0.3687404078009777
  0.1673782533852233  0.0624778225226166  0.3688219721695205
  0.2497652710600633  0.1252024552895037  0.4554679063580807
  0.0837154805663047  0.0625060950869241  0.4547860079866766
  0.4163736684143871  0.0625281300608123  0.4546690940188327
  0.3348570010916205  0.0623207326255653  0.5417118710624464
  0.1647484119347880  0.0626024767859690  0.5418897915741496
  0.0000290085378865  0.1249876827778635  0.1976055443586091
  0.3343001072014928  0.1874320877368874  0.2028955379518251
  0.1656822351850522  0.1874267766067703  0.2028834339876795
  0.2500215654690123  0.2499447557472720  0.2780666374715537
  0.0828059017339271  0.1874571500609861  0.2841904328170557
  0.4172566491134901  0.1874378156527712  0.2841651039136082
  0.9999113860997753  0.2501379580100362  0.3697888339818931
  0.3325146689428280  0.1874246793270657  0.3685546383028964
  0.1672853870243358  0.1874807501433509  0.3686699008317689
  0.2501460634147108  0.2503101101443477  0.4549988076511369
  0.0836651981708840  0.1877202655504249  0.4546696851841929
  0.4162398296881094  0.1875819666127754  0.4546028921153678
  0.3358516168915457  0.1871636216101464  0.5414137133217523
  0.1640928721958659  0.1884783429459205  0.5417512456787250
  0.0000178415344081  0.2498986045669582  0.1974980672774080
  0.3340517722876015  0.3124501967702855  0.2028070571761447
  0.1659596387414837  0.3124377283786473  0.2028225004726778
  0.2501307614808894  0.3751545878005160  0.2778903961916370
  0.0826714675554996  0.3124559306200965  0.2840074313906271
  0.4173706914028017  0.3124452913377738  0.2839542765392338
  0.9999915133052113  0.3750741553485284  0.3695256521182912
  0.3325884178053329  0.3124104675162016  0.3683920519760377
  0.1675606696702445  0.3124627586482092  0.3683494184156757
  0.2503758155292743  0.3751731779294900  0.4543627965524522
  0.0836318046293840  0.3125492805382422  0.4541468723801287
  0.4162759946217349  0.3126055663175507  0.4544452675592154
  0.3338778823408006  0.3121888543750515  0.5412170375674421
  0.9999939292633400  0.3750464920561782  0.1973120203255121
  0.3342863070625697  0.4374433493137104  0.2024945221549785
  0.1657904509946775  0.4374421985047263  0.2025615096961246
  0.2499506828939673  0.0000014723735902  0.2782323445999850
  0.0826598059371406  0.4374969193867813  0.2838321595171678
  0.4173945976094942  0.4374908572466865  0.2837368746450224
  0.9999671128163214  0.9999994390764897  0.3700043678126548
  0.3327950415363361  0.4374871424712055  0.3680984329575594
  0.1675363240979806  0.4374925251672366  0.3681050977487317
  0.2498027106761569  0.9999988969787381  0.4555379426050905
  0.0839435534977682  0.4376426688549913  0.4539858388792339
  0.4158039740682185  0.4376381826242053  0.4544072555833480
  0.3366886757685350  0.4363093655059558  0.5407836752476811
  0.9999957179696253  0.5000001654890482  0.1972945121230936
  0.3342831626464431  0.5625568775959877  0.2024946607867335
  0.1657887467315859  0.5625597557403097  0.2025598880716899
  0.2501302025531302  0.6248471655498804  0.2778869289094530
  0.0826559440591197  0.5625032895946163  0.2838345655982621
  0.4173926253705744  0.5625100946047326  0.2837392360136803
  0.9999975773710332  0.6249213361470964  0.3695326925135944
  0.3328037620258328  0.5625151081051243  0.3681023080020296
  0.1675421942109807  0.5625082230319620  0.3681039762644573
  0.2503660476931060  0.6248340366669183  0.4543684917557371
  0.0839448048038420  0.5623472758824661  0.4540100616317133
  0.4158246206569558  0.5623661225859919  0.4543982998863143
  0.3367150535116892  0.5635998545503114  0.5407033102826730
  0.9999870957678354  0.6249561334353260  0.1973082992769193
  0.3340515385466176  0.6875540148873966  0.2028047821616994
  0.1659586059563409  0.6875583908330825  0.2028221495712970
  0.2500193149394008  0.7500535655711928  0.2780686104956018
  0.0826700452350906  0.6875439172448452  0.2840051905456278
  0.4173741756910090  0.6875539883652095  0.2839534239639434
  0.9999124456573796  0.7498600068853278  0.3697893080111427
  0.3325823756033373  0.6875922769958791  0.3683856813804312
  0.1675616677330822  0.6875375527391157  0.3683458575392748
  0.2501433070948238  0.7496930752045046  0.4550012473710012
  0.0836388843721352  0.6874476060819177  0.4541506008180320
  0.4162803535713238  0.6874068074936659  0.4544405267050209
  0.3339365325159989  0.6878225757771474  0.5412261451672293
  0.0000163459646672  0.7501012637659628  0.1974990932273144
  0.3342984742778299  0.8125670288419400  0.2028956043042243
  0.1656812883998668  0.8125745601183780  0.2028834186846069
  0.2499323919283043  0.8749839266212192  0.2782398517588476
  0.0828053237764834  0.8125427575213990  0.2841896136605655
  0.4172566547188268  0.8125631376520346  0.2841642229908601
  0.9999488218294275  0.8750147052147668  0.3700050737734557
  0.3325127245538226  0.8125772482689158  0.3685516286990165
  0.1672849845671465  0.8125200837291331  0.3686667708031806
  0.2497634960531911  0.8748051258297025  0.4554676774756459
  0.0836643682447473  0.8122812694966939  0.4546648184170579
  0.4162395903373337  0.8124228366687305  0.4546031419896863
  0.3358525213822787  0.8128541332890435  0.5414133059028927
  0.1640952360929262  0.8115348530946136  0.5417554525506105
  0.0000279780449475  0.8750124749458763  0.1976059572804729
  0.3342125369161693  0.9376057797140263  0.2030091465820618
  0.1658041998811726  0.9375936257198916  0.2029830938616968
  0.2501213453872708  0.4999959816750916  0.2778392256047084
  0.0827485884977008  0.9375135069937528  0.2842839764775889
  0.4172768729064202  0.9375185912852686  0.2842728618269135
  0.0000499351293328  0.5000062677271799  0.3695098012202109
  0.3324121348358275  0.9375205489405189  0.3687398654715963
  0.1673770726025481  0.9375232339791211  0.3688247467185448
  0.2503203810546992  0.5000184135816852  0.4540903426273459
  0.0837167955250564  0.9374980940599684  0.4547856851842411
  0.4163749413376294  0.9374757327273358  0.4546688635890845
  0.3348475578004866  0.9376925962452134  0.5417115970620685
  0.1647528992120755  0.9374127119748366  0.5418869953602012
  0.5000051768646117  0.9999989591011342  0.1975455945457938
  0.8342165158966282  0.0623823319509498  0.2030187556268004
  0.6657998117349138  0.0623955936588061  0.2029949577662080
  0.7499358721822347  0.1250196423937240  0.2782371669053845
  0.5827567738345749  0.0624857444221689  0.2842835233120766
  0.9172671198179998  0.0624807545993420  0.2842733292075224
  0.4999577479248458  0.1249863505348543  0.3700047463674423
  0.8324158932438976  0.0624846269485815  0.3687473397491061
  0.6673721525596434  0.0624869810841062  0.3688300239568889
  0.7497616111968739  0.1252207150735742  0.4554872717458522
  0.5837278125434366  0.0625186142251337  0.4547880471287655
  0.9163542995068070  0.0625319069712589  0.4546757300984154
  0.8348191143677752  0.0623745036151746  0.5417099821220788
  0.6647637772462929  0.0626661993492448  0.5418876834020949
  0.5000222068652391  0.1249938865975366  0.1976048396960479
  0.8343106917329237  0.1874446587524261  0.2028947504461129
  0.6656901020402373  0.1874450085520749  0.2028786161447798
  0.7500242359803053  0.2499269056607787  0.2780671883218488
  0.5828296349436641  0.1874590755240035  0.2841801362600975
  0.9172296406244129  0.1874412238559486  0.2841593934068030
  0.4999486153576171  0.2501416260942264  0.3697882102152619
  0.8325016326273129  0.1874355394472431  0.3685660094988563
  0.6672667737161362  0.1874941624731719  0.3686711583550561
  0.7501629089166784  0.2503819083777827  0.4550168207194147
  0.5837284969676730  0.1877842443741855  0.4546825187826755
  0.9162115527842545  0.1876203528513969  0.4546067291627267
  0.8357721630812947  0.1874017152099370  0.5413985034902709
  0.6641797627448796  0.1887702073641222  0.5417632919118489
  0.4999910658495352  0.2498869269771475  0.1974956348586332
  0.8340452279151904  0.3124321761881745  0.2028086892316594
  0.6659636506261606  0.3124243509438003  0.2028236624006681
  0.7501174356379252  0.3751220762078518  0.2778764961604594
  0.5827134573540604  0.3124626414263787  0.2840098837405804
  0.9173257696167951  0.3124518096111615  0.2839610537056316
  0.4999851738670031  0.3750729907576584  0.3695366265862319
  0.8325794041397359  0.3124233427464844  0.3684378802277308
  0.6675334534418340  0.3124792330304373  0.3683857452031489
  0.7504429595774624  0.3752646026177189  0.4543818646294326
  0.5838500495699392  0.3126778116276654  0.4542292886251289
  0.9161873833857541  0.3126668260548087  0.4544956315200466
  0.8339034813735893  0.3127083414526695  0.5411986426697126
  0.4999975182487262  0.3750367915554378  0.1973191880677234
  0.8342801952738199  0.4374506154865614  0.2025085525996460
  0.6657959925820407  0.4374513041744237  0.2025695348304524
  0.7499526506603829  0.0000000343998323  0.2782128184688943
  0.5827534220460677  0.4374915497826350  0.2838471219463017
  0.9172952372838239  0.4374854053520352  0.2837494329563057
  0.4999698184717829  0.9999998868677764  0.3700093961646331
  0.8327589721954638  0.4374951996035747  0.3681624738387654
  0.6674846623850854  0.4375018966311188  0.3681502778722390
  0.7498052769629808  0.9999991751403812  0.4555511907692207
  0.5837117781583601  0.4376625345353204  0.4539469007344437
  0.9160575310663717  0.4376744219641324  0.4543600207158960
  0.8346160983417832  0.4375344484112134  0.5407127405789893
  0.4999765412232478  0.4999993491461936  0.1972980952992245
  0.8342783212190241  0.5625490765874019  0.2025090432188392
  0.6657967617666856  0.5625482293506678  0.2025702090795107
  0.7501174961763510  0.6248788330122679  0.2778761761131747
  0.5827518243896392  0.5625079648046452  0.2838471295257321
  0.9172926936095465  0.5625134858435743  0.2837482062486032
  0.4999708258109976  0.6249306432862269  0.3695189187043155
  0.8327541331864339  0.5625053769173718  0.3681538765379671
  0.6674887873001012  0.5624983119220914  0.3681438449982508
  0.7504442276178196  0.6247319768752604  0.4543802257910698
  0.5837074305763963  0.5623392149449558  0.4539524215626471
  0.9160553982062183  0.5623277130153994  0.4543556500151098
  0.8346105020648054  0.5624608422564350  0.5407099008660339
  0.4999990417136218  0.6249638632384986  0.1973183195666053
  0.8340446999137399  0.6875678421217515  0.2028081434296070
  0.6659625351034038  0.6875760335528085  0.2028230306960097
  0.7500236028135987  0.7500744707723754  0.2780681069034685
  0.5827126136783463  0.6875369323959362  0.2840099553160300
  0.9173254599363787  0.6875483173314123  0.2839622518114098
  0.4999525123432704  0.7498614276187823  0.3697892985750784
  0.8325835117646818  0.6875753110301233  0.3684421704974454
  0.6675309328784635  0.6875205488695073  0.3683891128896377
  0.7501642511633690  0.7496193599998691  0.4550196734445535
  0.5838537721409338  0.6873239583423683  0.4542303242989334
  0.9161910487983320  0.6873287744683196  0.4544953127583327
  0.8338961427487348  0.6872839371093775  0.5411994674611549
  0.4999907181502437  0.7501124821348100  0.1974973493594092
  0.8343113001717555  0.8125547037083223  0.2028944963708312
  0.6656910872624096  0.8125536184927427  0.2028782671267066
  0.7499364366568031  0.8749793299647379  0.2782386180595111
  0.5828305356251562  0.8125412156235541  0.2841804352672384
  0.9172293994675016  0.8125587672287509  0.2841597977712524
  0.4999575612743428  0.8750131003304134  0.3700027049212196
  0.8325007552271160  0.8125640381459505  0.3685658691452218
  0.6672677022973801  0.8125058659365294  0.3686701886598556
  0.7497586905744100  0.8747812646528814  0.4554870701580427
  0.5837324336760759  0.8122179591698711  0.4546829559270691
  0.9162115494970209  0.8123806178179223  0.4546059365640929
  0.8357768896129798  0.8126037000992454  0.5413986744067145
  0.6641753944615303  0.8112324489515998  0.5417647706402491
  0.5000231694523478  0.8750083147040542  0.1976049757393170
  0.8342067785311897  0.9376085396321017  0.2030191291071262
  0.6658001487951424  0.9376057273839891  0.2029940764130060
  0.7501225086946803  0.5000005357164952  0.2778170667704529
  0.5827547646750162  0.9375138457573868  0.2842830239767480
  0.9172679800964119  0.9375191954886972  0.2842734275485981
  0.4999313962672076  0.4999993851114652  0.3695132601946938
  0.8324168664893250  0.9375155783581377  0.3687485564968966
  0.6673733697436148  0.9375130708599144  0.3688303658903820
  0.7504214149371009  0.5000003501626864  0.4541854763342243
  0.5837295681265928  0.9374820822925756  0.4547872089749205
  0.9163540321883588  0.9374698425099197  0.4546759217196907
  0.8348145065302361  0.9376254738068539  0.5417074595629003
  0.6647701214362201  0.9373324561002079  0.5418887838226567
  0.4058122544435960  0.0000003337813297  0.2325666438723104
  0.2499973031493354  0.0000001439691317  0.1994973218144622
  0.0942505274013143  0.9999999561247535  0.2325675070191338
  0.1549020195970314  0.1249909614576410  0.3161208027037858
  0.0000026149729493  0.1250023836774901  0.3033434701271176
  0.3450604930262600  0.1249849931001492  0.3160853011901068
  0.4010366818996829  0.1251060854422121  0.4025162708709686
  0.2499177772102712  0.1250685793074027  0.3876511817729806
  0.0988560882911855  0.1250993015554442  0.4025910002876998
  0.1515492185644476  0.1255171507532822  0.4881437577839947
  0.9999142875569405  0.1252073338189064  0.4736007169493348
  0.3480404573106171  0.1250363469560227  0.4879414920579848
  0.4066256848352126  0.1253274247212062  0.5692229487445175
  0.2497767199317735  0.1264346485183125  0.5580178435365539
  0.0936047299730376  0.1260239621933295  0.5696286534752062
  0.4057253267652001  0.1249587583959979  0.2325680734908815
  0.2499956030224553  0.1249689775386926  0.2000750590535247
  0.0942704397762881  0.1249518371695260  0.2325755475923614
  0.1548810148490105  0.2500141536553855  0.3159367899756447
  0.9999801002889797  0.2499710786547098  0.3031452737930493
  0.3451490655177594  0.2499857015730029  0.3159513126324569
  0.4011857573845958  0.2500303971894482  0.4025175967775141
  0.2500178150257000  0.2499292726018396  0.3873498969322569
  0.0988202249022478  0.2501446912263106  0.4024855008996582
  0.1520746079174415  0.2509455750026603  0.4877962675933674
  0.9999878272178506  0.2505383065245823  0.4742460108122302
  0.3479784208787251  0.2501759310870000  0.4878855862289200
  0.4057084982218697  0.2509190164332225  0.5691370586152189
  0.2481984768057259  0.2529912747159742  0.5579733554701676
  0.0966538498655041  0.2544908743004015  0.5693849889965108
  0.4056956233368609  0.2499143990685937  0.2323933989714462
  0.2499949498075580  0.2498405427104942  0.1996043438029531
  0.0942712268396804  0.2499156025621687  0.2324048702711679
  0.1548424632221526  0.3749194101314544  0.3156518579490282
  0.9999717433918036  0.3750247569973979  0.3029374358333428
  0.3453245803229237  0.3748916509192668  0.3156874875228723
  0.4011090370297836  0.3750669273772047  0.4022571936129182
  0.2501117806314639  0.3750186153038797  0.3869286124611406
  0.0989736873090834  0.3750899599876618  0.4021186759240365
  0.1527057863866688  0.3749770970074309  0.4870287372377291
  0.0001839234077821  0.3754371906022058  0.4731481542511702
  0.3478442555811583  0.3748339760759976  0.4876163884921212
  0.4050502971606562  0.3752038532992756  0.5689519265395973
  0.2471971724168256  0.3763527903116213  0.5578216448794606
  0.0983634070483532  0.3755909990298463  0.5684424185725163
  0.4057089402848959  0.3749679591080195  0.2321805976246054
  0.2500080718989324  0.3750242056734550  0.1993808184646682
  0.0942941043909897  0.3749707004588601  0.2322057079102038
  0.1549018226971910  0.9999992994828588  0.3161820474020374
  0.0000007611026476  0.0000003948453582  0.3033424688369593
  0.3450781804786018  0.9999989557453119  0.3161388100582911
  0.4009906566653143  0.0000008965562159  0.4026271484777268
  0.2499227598477063  0.0000006803686503  0.3878026928237688
  0.0989028898271940  0.0000015924190393  0.4027230309457508
  0.1516428881153260  0.0000028243592638  0.4883837610762924
  0.9999801604342267  0.0000021446868956  0.4736617910525709
  0.3481973201624342  0.0000014277585407  0.4881729293068275
  0.4053500451449423  0.9999987918418256  0.5699210651705258
  0.2498663017747660  0.0000014673466993  0.5582369784018510
  0.0945581860106657  0.0000018956809740  0.5701020560571521
  0.4056666988709168  0.5000003264569770  0.2321394397009300
  0.2500282767647661  0.4999998530001335  0.1998411019637558
  0.0943543968692779  0.5000019831582421  0.2321704577516712
  0.1548424227424761  0.6250771047065911  0.3156508665239457
  0.9999707886028943  0.6249750856405640  0.3029365590567892
  0.3453227812582185  0.6251079960610610  0.3156847031808354
  0.4011069597982626  0.6249438952963970  0.4022522983773200
  0.2501103316229134  0.6249850804356143  0.3869288226157153
  0.0989822209864286  0.6249010250104945  0.4021241130440814
  0.1527042991884002  0.6250293907386961  0.4870521601001911
  0.0001889202213405  0.6245638479353275  0.4731554338519501
  0.3478708335442349  0.6251970550071420  0.4876146731502828
  0.4050738472958173  0.6248073431334618  0.5689573205624185
  0.2472137948408601  0.6235410441604543  0.5578862734396779
  0.0983333642268178  0.6244297070376916  0.5684513861675953
  0.4057127992183069  0.6250280268020134  0.2321820890681607
  0.2500055870032583  0.6249769214003891  0.1993757153115752
  0.0942933465491009  0.6250286184864038  0.2322067538492121
  0.1548759446031482  0.7499864311220037  0.3159347875660856
  0.9999793684819380  0.7500282691945799  0.3031452311795633
  0.3451514995099387  0.7500159247419376  0.3159488420694458
  0.4011833213154858  0.7499767850974024  0.4025137004987229
  0.2500149727622514  0.7500718867331813  0.3873507745532194
  0.0988211356925959  0.7498576045964285  0.4024837865879363
  0.1520751727601990  0.7490632363794987  0.4877993643708933
  0.9999882169908432  0.7494644510363742  0.4742396010834824
  0.3479756492482551  0.7498258773224151  0.4878890656568160
  0.4056972671370147  0.7490863904478502  0.5691432462540291
  0.2481965728877213  0.7469866274465389  0.5579864486124606
  0.0966423080836734  0.7455307230078816  0.5693847845431179
  0.4056940186276208  0.7500864048964146  0.2323927522200862
  0.2499996050133078  0.7501561173392162  0.1996093347363939
  0.0942718572008232  0.7500841016040809  0.2324035956805517
  0.1549017635083629  0.8750110275604186  0.3161211783105102
  0.0000035526016333  0.8749976497855840  0.3033433420387723
  0.3450608547862686  0.8750176095089301  0.3160850142130371
  0.4010335073935423  0.8748944913468932  0.4025167706962662
  0.2499172006393309  0.8749314409637847  0.3876509715317766
  0.0988553679404518  0.8749018913006807  0.4025903357574521
  0.1515478167767910  0.8744870373089952  0.4881434338087658
  0.9999149046132558  0.8747950644790023  0.4736045496666321
  0.3480395250184998  0.8749674055181984  0.4879435748859322
  0.4066127280796437  0.8746758528424508  0.5692278988312225
  0.2497779478180533  0.8735656231204416  0.5580195667084240
  0.0936118557003027  0.8739848154622081  0.5696310485755092
  0.4057249281946795  0.8750420887672661  0.2325674681552314
  0.2499957097845069  0.8750308889719847  0.2000747895545203
  0.0942699148758663  0.8750496524836677  0.2325757075958634
  0.1547746948862070  0.5000015975583949  0.3155485112900536
  0.9999557309274891  0.4999998418715350  0.3029216803268895
  0.3453675281331527  0.5000003663696049  0.3155659529362325
  0.4010021265699706  0.4999975196050030  0.4021922317605160
  0.2501395828711992  0.5000011362074730  0.3867159542282934
  0.0990455845342311  0.5000034779551541  0.4021333290547915
  0.1532156476924058  0.4999804454404071  0.4875930928832943
  0.0003246084086328  0.5000054739853397  0.4736757978651980
  0.3473129677794233  0.4999917264774254  0.4879799868513786
  0.4066434695589010  0.4999545960168490  0.5692818810124649
  0.2474451945391607  0.4998370602376241  0.5588035760218446
  0.0973700858672757  0.4998692079634424  0.5684551733598866
  0.9058291856740439  0.0000000833265332  0.2325566113475404
  0.7499993265202818  0.9999997610792164  0.1994348914944837
  0.5942313088033160  0.0000003241175506  0.2325600291115535
  0.6549103770747351  0.1249860499321471  0.3161204211814379
  0.5000204993445792  0.1250016957081712  0.3033410443710665
  0.8450527555932226  0.1249799334876087  0.3160893528706055
  0.9010379167687717  0.1251175010775611  0.4025221081138213
  0.7499108045134548  0.1250753192714740  0.3876649025347874
  0.5988425867605045  0.1251221136987368  0.4025994584302168
  0.6515650097386469  0.1255769583663522  0.4881567819371355
  0.4999489871967242  0.1252067669220409  0.4736032122499338
  0.8480303120611694  0.1250923649027058  0.4879510458240830
  0.9065992418258233  0.1254029113191919  0.5691865460663408
  0.7497690338064160  0.1264842956321175  0.5580179032579551
  0.5936065404417974  0.1261563423525089  0.5695917775023105
  0.9057317446772686  0.1249585057165916  0.2325628400164490
  0.7499984144053613  0.1249761231768858  0.2001022503178405
  0.5942656716645089  0.1249479627444003  0.2325691922179658
  0.6549033030321141  0.2500302750773429  0.3159411616481478
  0.5000069293474851  0.2499700847054385  0.3031449941578472
  0.8451299387830673  0.2500000312928776  0.3159605824372207
  0.9011574814250380  0.2500391598467360  0.4025319439624937
  0.7500048226615021  0.2499353298234084  0.3873630151192486
  0.5988254364427732  0.2501805201384286  0.4025115535871038
  0.6521381645204940  0.2510429600793316  0.4878198400406077
  0.5000580260741003  0.2505655747626605  0.4742470357199196
  0.8479497738475956  0.2502806106126698  0.4879086374302801
  0.9057855414924916  0.2510275674413691  0.5690660474817335
  0.7482709744641838  0.2531442975131810  0.5579747762233467
  0.5966260086044244  0.2547636404526301  0.5693064409783375
  0.9057058491732946  0.2499191376287726  0.2323913549012815
  0.7499939176864387  0.2498307974107234  0.1995479105269453
  0.5942643848252516  0.2499183460122225  0.2323972524277806
  0.6548863340982578  0.3749310038572347  0.3156827441053096
  0.5000232670323328  0.3750238880301993  0.3029348141041766
  0.8452683829102909  0.3749057968229366  0.3157207629378149
  0.9011487445545541  0.3750759032083195  0.4022779208768483
  0.7500909083189171  0.3750105755992266  0.3869566463108498
  0.5989190683085752  0.3750843791648535  0.4021494233742260
  0.6527821838231915  0.3756345725808359  0.4870764060591384
  0.5001483931006163  0.3754605081196445  0.4731575599811109
  0.8478418927454499  0.3751637982835163  0.4876128961708801
  0.9047600699303047  0.3756230014167770  0.5688064176729171
  0.7471143316331350  0.3764338617161229  0.5575097983162607
  0.5987739268444230  0.3761585495347006  0.5682174783406921
  0.9057141316116812  0.3749669873851857  0.2321811436570371
  0.7500085501938614  0.3750172242713532  0.1993889316280644
  0.5942894211512950  0.3749630236817794  0.2322053813059526
  0.6549190661409554  0.9999993577408759  0.3161842251799882
  0.5000102362098460  0.0000002281930875  0.3033369984694758
  0.8450637367468232  0.9999996078458295  0.3161383550689294
  0.9009883406023391  0.0000003718813346  0.4026295355260530
  0.7499210003818888  0.0000005514690287  0.3878082334162158
  0.5989057410141214  0.0000002801656223  0.4027192673200730
  0.6516325184651421  0.0000003706151617  0.4883937575492681
  0.4999879751605008  0.0000007973588865  0.4736520551834360
  0.8481962409184192  0.0000006527127709  0.4881859365447738
  0.9053291285474998  0.0000000355372691  0.5699103000455210
  0.7498451883048887  0.0000009590192889  0.5582344921330247
  0.5945636396498131  0.9999968314615018  0.5700899896346812
  0.9056678752751424  0.5000000491610095  0.2321404435686105
  0.7500050162298351  0.4999995400277868  0.1997210372932159
  0.5943557601145528  0.4999994732789403  0.2321685969894673
  0.6548846062930167  0.6250707655076795  0.3156829510598484
  0.5000238043904233  0.6249760152757275  0.3029383944626574
  0.8452675890905326  0.6250966493244619  0.3157193683184047
  0.9011490127456554  0.6249202917628267  0.4022750647258349
  0.7500910832578001  0.6249909305651116  0.3869551662337471
  0.5989252893448551  0.6249094033971119  0.4021522895071357
  0.6527838180161751  0.6243653685503574  0.4870762054585143
  0.5001528346664443  0.6245500030036482  0.4731570143103951
  0.8478432810029659  0.6248337140298261  0.4876111691703855
  0.9047573212880380  0.6243663889014144  0.5688072822627106
  0.7471170789022352  0.6235864447147748  0.5575111039070890
  0.5987959095334929  0.6238300924892215  0.5682224616801577
  0.9057134529873139  0.6250328804985656  0.2321810615196469
  0.7500076377490217  0.6249836843440733  0.1993897368691222
  0.5942882288707949  0.6250366288886582  0.2322056564015824
  0.6549037253964869  0.7499683470549101  0.3159423357873976
  0.5000073734187254  0.7500299351807627  0.3031446176863852
  0.8451292763548253  0.7499998315215706  0.3159610309109908
  0.9011591768308094  0.7499613925907127  0.4025331231580296
  0.7500048921819555  0.7500638969428621  0.3873642759294995
  0.5988250655671123  0.7498217252677719  0.4025120332231822
  0.6521381981768997  0.7489553772512139  0.4878197973131293
  0.5000617893164403  0.7494422957367988  0.4742471789246849
  0.8479508231915247  0.7497170401276918  0.4879077489698460
  0.9057748907998828  0.7489759933609506  0.5690684023690267
  0.7482714943413313  0.7468559341704477  0.5579727676767945
  0.5966206712731434  0.7452381417854994  0.5693051742530955
  0.9057032947266990  0.7500799887014438  0.2323924023579096
  0.7499941370057783  0.7501687856008843  0.1995465025789898
  0.5942659244582771  0.7500816703861588  0.2323976829753605
  0.6549091660640229  0.8750148211656281  0.3161206050988099
  0.5000204081245272  0.8749973945900038  0.3033442010232292
  0.8450548950125096  0.8750205161281741  0.3160899480573534
  0.9010379490388374  0.8748818787272157  0.4025227523919028
  0.7499116911906967  0.8749241273742783  0.3876643483462843
  0.5988449610550077  0.8748776964365703  0.4026001590077115
  0.6515679138993491  0.8744250042756008  0.4881567624911582
  0.4999489257000675  0.8747970089472616  0.4736062561119212
  0.8480340766030210  0.8749079383540845  0.4879523769343521
  0.9065987735070635  0.8746044043545282  0.5691879735377228
  0.7497734275150734  0.8735137352786211  0.5580185424965975
  0.5936086485218297  0.8738475909686159  0.5695902194531968
  0.9057308747029893  0.8750421316823420  0.2325632967908646
  0.7499986151198286  0.8750237257614941  0.2001069939430380
  0.5942672874569084  0.8750521800140234  0.2325688378351174
  0.6548581155289881  0.4999989450483042  0.3155807960207255
  0.5000340526633806  0.5000004827704245  0.3029276408214514
  0.8452717442060518  0.4999978326666863  0.3156087824902016
  0.9011833023910683  0.5000045910664781  0.4021137542219790
  0.7501130973677661  0.4999992506606361  0.3868288966051168
  0.5988514214194538  0.5000053615492774  0.4020346275553308
  0.6527328592262123  0.4999994440176749  0.4870555407782078
  0.4999954697226343  0.4999983127266603  0.4736928398410640
  0.8477296532705338  0.5000009183039751  0.4875546471988983
  0.9061230013549348  0.5000023094914994  0.5689053831201178
  0.7469349708316670  0.4999932021723481  0.5574479649023445
  0.5976887519220497  0.5000009794393989  0.5683322063444507
  0.0001607924163238  0.1217982430734708  0.5404362694945704
  0.0003043582005731  0.2577967654464288  0.5410247257826342
  0.9993894044553855  0.3729006011042060  0.5398577186650755
  0.1648457327592254  0.3130189088643434  0.5396853928852607
  0.0000237686596947  0.9999840799794057  0.5407973096271448
  0.1622191467106404  0.4362144537749231  0.5391414286173557
  0.9994062239104693  0.6271614172285638  0.5398741156537525
  0.1622354560043675  0.5636736430044991  0.5391545411777940
  0.0002797451412988  0.7421880375054073  0.5410163189973431
  0.1648008964780843  0.6870068431929184  0.5396843427962068
  0.0001654162203479  0.8782404328305731  0.5404361620729716
  0.9995350813897943  0.4999449467966173  0.5402814899504662
  0.5002037993333488  0.1218008481472594  0.5404389542569419
  0.5002764615482818  0.2579181112155169  0.5410224130683829
  0.5003317689369098  0.3728343953753779  0.5398280003582840
  0.6645863665496918  0.3136114570048960  0.5396519087773726
  0.4999375175594238  0.9999722041948047  0.5407795671536562
  0.6641752974088106  0.4380182408108411  0.5392342039227032
  0.5003155547602063  0.6271987629214379  0.5398329342544130
  0.6641691471443423  0.5619798438359282  0.5392412890225131
  0.5003138678583596  0.7420689003758127  0.5410175697857014
  0.6645989025235082  0.6863853570921066  0.5396569272993119
  0.5002164801662445  0.8782501319489739  0.5404399735735623
  0.5002838993179424  0.4999765881149330  0.5402541069552598
  0.2438657732146723  0.5070705431233336  0.6187094385646716
 
  0.00000000E+00  0.00000000E+00  0.00000000E+00
  0.00000000E+00  0.00000000E+00  0.00000000E+00
  0.00000000E+00  0.00000000E+00  0.00000000E+00
  0.00000000E+00  0.00000000E+00  0.00000000E+00
  0.00000000E+00  0.00000000E+00  0.00000000E+00
  0.00000000E+00  0.00000000E+00  0.00000000E+00