Ta  N Ru                                
   1.00000000000000     
     9.0548154099999998    0.0000000000000000    0.0000000000000000
     0.0000000000000000   11.6775998899999998    0.0000000000000000
     0.0000000000000000    0.0000000000000000   23.4818170799999990
   Ta   N    Ru
    60    60     2
Selective dynamics
Direct
  0.0000000000000000  0.0000000000000000  0.2546926809530987   F   F   F
  0.6670845899906297  0.1250000003211298  0.2638822399803757   F   F   F
  0.3329153514769843  0.1250000003211298  0.2638822399803757   F   F   F
  0.4999999994478088  0.2499999997859135  0.3618861993156202   F   F   F
  0.1650707596845180  0.1250000003211298  0.3684425577811794   F   F   F
  0.8349292403154820  0.1250000003211298  0.3684425577811794   F   F   F
  0.0006507930689470  0.2499047254904400  0.4799821647936124   T   T   T
  0.6650261270293975  0.1250310104983459  0.4782240853030591   T   T   T
  0.3352777918157329  0.1250627296270310  0.4785743682696232   T   T   T
  0.4995252826783815  0.2496145663016262  0.5912169147165581   T   T   T
  0.1684082451943561  0.1251438983179725  0.5913650938646965   T   T   T
  0.8326109781440687  0.1249690201772031  0.5901355060430802   T   T   T
 -0.0034472712734434  0.2515161642018314  0.7044630601889476   T   T   T
  0.6708804931658198  0.1207047716701402  0.7030172307835896   T   T   T
  0.3373993094780887  0.1192534256626857  0.7045611546587321   T   T   T
  0.0000000000000000  0.2499999997859135  0.2546926809530987   F   F   F
  0.6670845899906297  0.3750000001070433  0.2638822399803757   F   F   F
  0.3329153514769843  0.3750000001070433  0.2638822399803757   F   F   F
  0.4999999994478088  0.5000000004281731  0.3618861993156202   F   F   F
  0.1650707596845180  0.3750000001070433  0.3684425577811794   F   F   F
  0.8349292403154820  0.3750000001070433  0.3684425577811794   F   F   F
  0.0005017158607730  0.4995227471033609  0.4797714615575129   T   T   T
  0.6646933920276680  0.3749332897464077  0.4780860600907493   T   T   T
  0.3351856381798671  0.3748074024919769  0.4783285749633139   T   T   T
  0.5003878517129902  0.4996010411650219  0.5905729792871617   T   T   T
  0.1677008151704708  0.3744236341029530  0.5909468557044920   T   T   T
  0.8322449414313894  0.3749601520524444  0.5901722089906296   T   T   T
  0.0003294414926206  0.4998331444703153  0.7023420649294470   T   T   T
  0.6688410002260966  0.3794221841174021  0.7027944796600436   T   T   T
  0.3303032802301660  0.3804384231236623  0.7045536169415257   T   T   T
  0.0000000000000000  0.5000000004281731  0.2546926809530987   F   F   F
  0.6670845899906297  0.6249999998929567  0.2638822399803757   F   F   F
  0.3329153514769843  0.6249999998929567  0.2638822399803757   F   F   F
  0.4999999994478088  0.7500000002140865  0.3618861993156202   F   F   F
  0.1650707596845180  0.6249999998929567  0.3684425577811794   F   F   F
  0.8349292403154820  0.6249999998929567  0.3684425577811794   F   F   F
  0.0006314443523705  0.7500507290109690  0.4796243966614754   T   T   T
  0.6647284885941414  0.6249099949981322  0.4778221756509093   T   T   T
  0.3348705327657316  0.6248971025427493  0.4781472946830665   T   T   T
  0.5003090288070552  0.7498367097649384  0.5902805365919370   T   T   T
  0.1679692957829728  0.6248136535575789  0.5898285654842659   T   T   T
  0.8332243760482132  0.6252351364453644  0.5890762662810154   T   T   T
  0.0024798874825361  0.7498520654322692  0.7018961707416069   T   T   T
  0.6720005603510651  0.6257993454225490  0.7035127366193874   T   T   T
  0.3290879626908675  0.6253858046940585  0.7034582945960898   T   T   T
  0.0000000000000000  0.7500000002140865  0.2546926809530987   F   F   F
  0.6670845899906297  0.8750000005352163  0.2638822399803757   F   F   F
  0.3329153514769843  0.8750000005352163  0.2638822399803757   F   F   F
  0.4999999994478088  0.0000000000000000  0.3618861993156202   F   F   F
  0.1650707596845180  0.8750000005352163  0.3684425577811794   F   F   F
  0.8349292403154820  0.8750000005352163  0.3684425577811794   F   F   F
  0.0009113668612657  0.0002526579529957  0.4798382246648156   T   T   T
  0.6648214591429158  0.8750472470078959  0.4777650201938161   T   T   T
  0.3351725139976646  0.8751116482678603  0.4781729607743474   T   T   T
  0.4998979812829473 -0.0001320012371391  0.5906879227198121   T   T   T
  0.1671205629672280  0.8749609882843389  0.5902907211063662   T   T   T
  0.8331789605008276  0.8746513442606382  0.5890764941409105   T   T   T
 -0.0000978083210634  0.0019870244175220  0.7031415976789770   T   T   T
  0.6729820376429915  0.8730741159958133  0.7027377452498984   T   T   T
  0.3332383947320862  0.8708646270069338  0.7040082708545833   T   T   T
  0.8141011533980276  0.0000000000000000  0.3013105672926031   F   F   F
  0.4999999994478088  0.0000000000000000  0.2564174481620327   F   F   F
  0.1858988466019724  0.0000000000000000  0.3013105672926031   F   F   F
  0.3088456122590841  0.2499999997859135  0.4099867722441957   F   F   F
  0.0000000000000000  0.2499999997859135  0.3930971035158137   F   F   F
  0.6911543877409159  0.2499999997859135  0.4099867722441957   F   F   F
  0.8028321891292797  0.2500083995068905  0.5221917255751548   T   T   T
  0.5001456267413099  0.2500466044600725  0.5031688825259835   T   T   T
  0.1979881660140662  0.2497119903184586  0.5230501640559526   T   T   T
  0.3048826308538780  0.2498004855787923  0.6365884606014401   T   T   T
 -0.0003533351062274  0.2500035843545185  0.6149170300655268   T   T   T
  0.6955941169547813  0.2497041493448062  0.6345458711241280   T   T   T
  0.8064748725162674  0.2504242292294745  0.7459970137826407   T   T   T
  0.4983211133800284  0.2492681188831753  0.7290382750195841   T   T   T
  0.1848855612899185  0.2766693384098932  0.7497792091903518   T   T   T
  0.8141011533980276  0.2499999997859135  0.3013105672926031   F   F   F
  0.4999999994478088  0.2499999997859135  0.2564174481620327   F   F   F
  0.1858988466019724  0.2499999997859135  0.3013105672926031   F   F   F
  0.3088456122590841  0.5000000004281731  0.4099867722441957   F   F   F
  0.0000000000000000  0.5000000004281731  0.3930971035158137   F   F   F
  0.6911543877409159  0.5000000004281731  0.4099867722441957   F   F   F
  0.8027106417599859  0.4995871012178596  0.5218076381680824   T   T   T
  0.4999490077851151  0.4999224188192632  0.5027250474089424   T   T   T
  0.1979141209787197  0.4990466596970560  0.5223510939636454   T   T   T
  0.3042826195985929  0.5005800777530154  0.6330951346301956   T   T   T
 -0.0000368250673356  0.5000917904751659  0.6136557850678980   T   T   T
  0.6965724005569490  0.5027430482167442  0.6321983030310118   T   T   T
  0.8062057234746550  0.5027609996877928  0.7400429894353912   T   T   T
  0.4996762128555573  0.5015049875359580  0.7236849698289146   T   T   T
  0.1945077365624191  0.5034976418895430  0.7405873659660064   T   T   T
  0.8141011533980276  0.5000000004281731  0.3013105672926031   F   F   F
  0.4999999994478088  0.5000000004281731  0.2564174481620327   F   F   F
  0.1858988466019724  0.5000000004281731  0.3013105672926031   F   F   F
  0.3088456122590841  0.7500000002140865  0.4099867722441957   F   F   F
  0.0000000000000000  0.7500000002140865  0.3930971035158137   F   F   F
  0.6911543877409159  0.7500000002140865  0.4099867722441957   F   F   F
  0.8026088495565753  0.7499891880584738  0.5214481914975048   T   T   T
  0.5000512845033708  0.7499887373089458  0.5025625207453598   T   T   T
  0.1980860005956558  0.7502515161063242  0.5221133595333639   T   T   T
  0.3043286248612727  0.7495449056875381  0.6327594166589836   T   T   T
  0.0003186923943270  0.7497315608665609  0.6133260208782314   T   T   T
  0.6966811258529146  0.7494977183223919  0.6323428775150801   T   T   T
  0.8081946181662331  0.7497158619425516  0.7395468504949946   T   T   T
  0.5013552172558325  0.7505406761738908  0.7234757550078708   T   T   T
  0.1954992733640293  0.7483482492211553  0.7405377355282071   T   T   T
  0.8141011533980276  0.7500000002140865  0.3013105672926031   F   F   F
  0.4999999994478088  0.7500000002140865  0.2564174481620327   F   F   F
  0.1858988466019724  0.7500000002140865  0.3013105672926031   F   F   F
  0.3088456122590841  0.0000000000000000  0.4099867722441957   F   F   F
  0.0000000000000000  0.0000000000000000  0.3930971035158137   F   F   F
  0.6911543877409159  0.0000000000000000  0.4099867722441957   F   F   F
  0.8031230496054595  0.0002578562144971  0.5217926236287889   T   T   T
  0.5001756508141298 -0.0001929198149615  0.5028415958789970   T   T   T
  0.1980530540506643  0.0006047422207715  0.5227212826587373   T   T   T
  0.3041086167249816  0.9980132375147039  0.6343876918956609   T   T   T
  0.0000199730871977  0.0003594605442152  0.6141257262646780   T   T   T
  0.6965940209789789  0.9972912311798101  0.6321199361616825   T   T   T
  0.8065211297274297  0.9969071103597865  0.7396737378269691   T   T   T
  0.5002209359971009 -0.0005001297032803  0.7235088108157935   T   T   T
  0.1962670308145909  0.9836211889278579  0.7470414939195277   T   T   T
  0.1469307841146544  0.1289016102406706  0.7818192942334161   T   T   T
  0.6377539344402325  0.2496853195993165  0.7953963790805948   T   T   T
 
  0.00000000E+00  0.00000000E+00  0.00000000E+00
  0.00000000E+00  0.00000000E+00  0.00000000E+00
  0.00000000E+00  0.00000000E+00  0.00000000E+00
  0.00000000E+00  0.00000000E+00  0.00000000E+00
  0.00000000E+00  0.00000000E+00  0.00000000E+00
  0.00000000E+00  0.00000000E+00  0.00000000E+00
  0.00000000E+00  0.00000000E+00  0.00000000E+00
  0.00000000E+00  0.00000000E+00  0.00000000E+00
  0.00000000E+00  0.00000000E+00  0.00000000E+00
  0.00000000E+00  0.00000000E+00  0.00000000E+00
  0.00000000E+00  0.00000000E+00  0.00000000E+00
  0.00000000E+00  0.00000000E+00  0.00000000E+00
  0.00000000E+00  0.00000000E+00  0.00000000E+00
  0.00000000E+00  0.00000000E+00  0.00000000E+00
  0.00000000E+00  0.00000000E+00  0.00000000E+00
  0.00000000E+00  0.00000000E+00  0.00000000E+00
  0.00000000E+00  0.00000000E+00  0.00000000E+00
  0.00000000E+00  0.00000000E+00  0.00000000E+00
  0.00000000E+00  0.00000000E+00  0.00000000E+00
  0.00000000E+00  0.00000000E+00  0.00000000E+00
  0.00000000E+00  0.00000000E+00  0.00000000E+00
  0.00000000E+00  0.00000000E+00  0.00000000E+00
  0.00000000E+00  0.00000000E+00  0.00000000E+00
  0.00000000E+00  0.00000000E+00  0.00000000E+00
  0.00000000E+00  0.00000000E+00  0.00000000E+00
  0.00000000E+00  0.00000000E+00  0.00000000E+00
  0.00000000E+00  0.00000000E+00  0.00000000E+00
  0.00000000E+00  0.00000000E+00  0.00000000E+00
  0.00000000E+00  0.00000000E+00  0.00000000E+00
  0.00000000E+00  0.00000000E+00  0.00000000E+00
  0.00000000E+00  0.00000000E+00  0.00000000E+00
  0.00000000E+00  0.00000000E+00  0.00000000E+00
  0.00000000E+00  0.00000000E+00  0.00000000E+00
  0.00000000E+00  0.00000000E+00  0.00000000E+00
  0.00000000E+00  0.00000000E+00  0.00000000E+00
  0.00000000E+00  0.00000000E+00  0.00000000E+00
  0.00000000E+00  0.00000000E+00  0.00000000E+00
  0.00000000E+00  0.00000000E+00  0.00000000E+00
  0.00000000E+00  0.00000000E+00  0.00000000E+00
  0.00000000E+00  0.00000000E+00  0.00000000E+00
  0.00000000E+00  0.00000000E+00  0.00000000E+00
  0.00000000E+00  0.00000000E+00  0.00000000E+00
  0.00000000E+00  0.00000000E+00  0.00000000E+00
  0.00000000E+00  0.00000000E+00  0.00000000E+00
  0.00000000E+00  0.00000000E+00  0.00000000E+00
  0.00000000E+00  0.00000000E+00  0.00000000E+00
  0.00000000E+00  0.00000000E+00  0.00000000E+00
  0.00000000E+00  0.00000000E+00  0.00000000E+00
  0.00000000E+00  0.00000000E+00  0.00000000E+00
  0.00000000E+00  0.00000000E+00  0.00000000E+00
  0.00000000E+00  0.00000000E+00  0.00000000E+00
  0.00000000E+00  0.00000000E+00  0.00000000E+00
  0.00000000E+00  0.00000000E+00  0.00000000E+00
  0.00000000E+00  0.00000000E+00  0.00000000E+00
  0.00000000E+00  0.00000000E+00  0.00000000E+00
  0.00000000E+00  0.00000000E+00  0.00000000E+00
  0.00000000E+00  0.00000000E+00  0.00000000E+00
  0.00000000E+00  0.00000000E+00  0.00000000E+00
  0.00000000E+00  0.00000000E+00  0.00000000E+00
  0.00000000E+00  0.00000000E+00  0.00000000E+00
  0.00000000E+00  0.00000000E+00  0.00000000E+00
  0.00000000E+00  0.00000000E+00  0.00000000E+00
  0.00000000E+00  0.00000000E+00  0.00000000E+00
  0.00000000E+00  0.00000000E+00  0.00000000E+00
  0.00000000E+00  0.00000000E+00  0.00000000E+00
  0.00000000E+00  0.00000000E+00  0.00000000E+00
  0.00000000E+00  0.00000000E+00  0.00000000E+00
  0.00000000E+00  0.00000000E+00  0.00000000E+00
  0.00000000E+00  0.00000000E+00  0.00000000E+00
  0.00000000E+00  0.00000000E+00  0.00000000E+00
  0.00000000E+00  0.00000000E+00  0.00000000E+00
  0.00000000E+00  0.00000000E+00  0.00000000E+00
  0.00000000E+00  0.00000000E+00  0.00000000E+00
  0.00000000E+00  0.00000000E+00  0.00000000E+00
  0.00000000E+00  0.00000000E+00  0.00000000E+00
  0.00000000E+00  0.00000000E+00  0.00000000E+00
  0.00000000E+00  0.00000000E+00  0.00000000E+00
  0.00000000E+00  0.00000000E+00  0.00000000E+00
  0.00000000E+00  0.00000000E+00  0.00000000E+00
  0.00000000E+00  0.00000000E+00  0.00000000E+00
  0.00000000E+00  0.00000000E+00  0.00000000E+00
  0.00000000E+00  0.00000000E+00  0.00000000E+00
  0.00000000E+00  0.00000000E+00  0.00000000E+00
  0.00000000E+00  0.00000000E+00  0.00000000E+00
  0.00000000E+00  0.00000000E+00  0.00000000E+00
  0.00000000E+00  0.00000000E+00  0.00000000E+00
  0.00000000E+00  0.00000000E+00  0.00000000E+00
  0.00000000E+00  0.00000000E+00  0.00000000E+00
  0.00000000E+00  0.00000000E+00  0.00000000E+00
  0.00000000E+00  0.00000000E+00  0.00000000E+00
  0.00000000E+00  0.00000000E+00  0.00000000E+00
  0.00000000E+00  0.00000000E+00  0.00000000E+00
  0.00000000E+00  0.00000000E+00  0.00000000E+00
  0.00000000E+00  0.00000000E+00  0.00000000E+00
  0.00000000E+00  0.00000000E+00  0.00000000E+00
  0.00000000E+00  0.00000000E+00  0.00000000E+00
  0.00000000E+00  0.00000000E+00  0.00000000E+00
  0.00000000E+00  0.00000000E+00  0.00000000E+00
  0.00000000E+00  0.00000000E+00  0.00000000E+00
  0.00000000E+00  0.00000000E+00  0.00000000E+00
  0.00000000E+00  0.00000000E+00  0.00000000E+00
  0.00000000E+00  0.00000000E+00  0.00000000E+00
  0.00000000E+00  0.00000000E+00  0.00000000E+00
  0.00000000E+00  0.00000000E+00  0.00000000E+00
  0.00000000E+00  0.00000000E+00  0.00000000E+00
  0.00000000E+00  0.00000000E+00  0.00000000E+00
  0.00000000E+00  0.00000000E+00  0.00000000E+00
  0.00000000E+00  0.00000000E+00  0.00000000E+00
  0.00000000E+00  0.00000000E+00  0.00000000E+00
  0.00000000E+00  0.00000000E+00  0.00000000E+00
  0.00000000E+00  0.00000000E+00  0.00000000E+00
  0.00000000E+00  0.00000000E+00  0.00000000E+00
  0.00000000E+00  0.00000000E+00  0.00000000E+00
  0.00000000E+00  0.00000000E+00  0.00000000E+00
  0.00000000E+00  0.00000000E+00  0.00000000E+00
  0.00000000E+00  0.00000000E+00  0.00000000E+00
  0.00000000E+00  0.00000000E+00  0.00000000E+00
  0.00000000E+00  0.00000000E+00  0.00000000E+00
  0.00000000E+00  0.00000000E+00  0.00000000E+00
  0.00000000E+00  0.00000000E+00  0.00000000E+00
  0.00000000E+00  0.00000000E+00  0.00000000E+00
  0.00000000E+00  0.00000000E+00  0.00000000E+00
