Mo S Cu                                 
   1.00000000000000     
    15.9214998300000001    0.0000000000000000    0.0000000000000000
    -7.9622501300000001   13.7910221699999997    0.0000000000000000
     0.0000000000000000    0.0000000000000000   13.5821998300000004
   Mo   S    Cu
    25    50     2
Direct
  0.1315400842289662  0.0637558308335926  0.6764679819286599
  0.1311125023003328  0.2634062996058191  0.6764548571701567
  0.1314237063497359  0.4636953293737278  0.6765908513037431
  0.1316460729329592  0.6637828432121466  0.6766171471810267
  0.1316384882164598  0.8638195748746540  0.6765680182414329
  0.3316684752875929  0.0638379130676938  0.6764430621145650
  0.3314739267401094  0.2637622064763008  0.6768638921641568
  0.3306438085674301  0.4631415804098395  0.6769666862957635
  0.3316730037433757  0.6636973316527204  0.6771733148135013
  0.3316838395873702  0.8638159570603534  0.6765943029880219
  0.5317198314550993  0.0637579625758917  0.6765053203809472
  0.5317800360238039  0.2637536530757316  0.6768854418639023
  0.5313805840530677  0.4631759339459620  0.6801902798062187
  0.5318921008296513  0.6639747851616349  0.6786955714270988
  0.5317198266613588  0.8638978805341679  0.6772736375917745
  0.7316507126156537  0.0637222363734011  0.6767592173826742
  0.7317968992916306  0.2634111630899980  0.6764807656014966
  0.7320215417718501  0.4631778677042817  0.6769023749627721
  0.7316009359188342  0.6639521020534431  0.6786229280405465
  0.7318299398073052  0.8641522453489472  0.6775532916530196
  0.9315710591876112  0.0637245324566251  0.6767321126492405
  0.9316001922348249  0.2637017170181579  0.6765092248204283
  0.9317796912335155  0.4636955614080023  0.6765753274128770
  0.9315406918306763  0.6637072541831017  0.6771188011674809
  0.9316884986764720  0.8639042786436022  0.6772233849487108
  0.0646943859948408  0.1302467452221094  0.5613519949270298
  0.0648594024546014  0.1303368151235702  0.7916938307263095
  0.0648739846663915  0.3304069739987199  0.5613762757529202
  0.0647375007033943  0.3302578916019598  0.7916493924025261
  0.0650207183115583  0.5305142690699967  0.5614498368649663
  0.0649803087067866  0.5304569369804923  0.7917205835500596
  0.0646919357147979  0.7303476273594427  0.5616966994237629
  0.0651956979810606  0.7306089888170675  0.7917933904723711
  0.0646430192390213  0.9302617628023526  0.5616061947522226
  0.0653341255920878  0.9307066112593532  0.7918321602835618
  0.2650855532740195  0.1307564335951383  0.5614342564751595
  0.2647898246651508  0.1301139395914177  0.7916612115509167
  0.2648330383984003  0.3303349769029253  0.5617148624029085
  0.2639415108974745  0.3296914148024896  0.7922906074639329
  0.2650338117781530  0.5304489709908111  0.5617274526934963
  0.2642134415877138  0.5303352293414534  0.7921186842377210
  0.2651876083086364  0.7303395175261898  0.5617261028969196
  0.2649043137122646  0.7306014205530929  0.7918222586509742
  0.2649757441385958  0.9304274461452025  0.5614008557738472
  0.2650266492134037  0.9305673980025162  0.7915429911096794
  0.4651806360042769  0.1307463842428973  0.5614546127586806
  0.4648097300154888  0.1301061957311234  0.7916825291072414
  0.4655643698029124  0.3316114593845114  0.5628467456960919
  0.4642026675488395  0.3288343627946730  0.7940176999529740
  0.4656154868105347  0.5302519500823806  0.5642283531414805
  0.4622080643322946  0.5290127583555844  0.7952611931997069
  0.4655826889201009  0.7301091269321702  0.5627400098405460
  0.4645944794800201  0.7309294372303583  0.7928976928880189
  0.4651356378562994  0.9302563407097182  0.5616503809314537
  0.4648742425753056  0.9307059872688868  0.7918684690249691
  0.6650569663526369  0.1302481156163395  0.5613898604641108
  0.6649922890114581  0.1303440788800216  0.7917297823853175
  0.6649986013800628  0.3303147977168592  0.5617218586896158
  0.6652607554270347  0.3297544467375815  0.7923024126513951
  0.6641492860396667  0.5302490155461044  0.5641314545335945
  0.6663732627206471  0.5289700541077025  0.7951944916754314
  0.6647713397170349  0.7300495392800954  0.5634792762412175
  0.6656240075735198  0.7316740463035671  0.7937980541094021
  0.6649463532535691  0.9301286569575495  0.5620517520274575
  0.6651302248846420  0.9309243368245035  0.7923932665423550
  0.8648802780476856  0.1302834706217055  0.5615424066500907
  0.8650328109497565  0.1305488852987580  0.7917618683937846
  0.8650190760365888  0.3303902599179267  0.5613845231068737
  0.8650384676885636  0.3302704362600366  0.7916549435164626
  0.8649484897329529  0.5304521601872807  0.5616776530613308
  0.8656398642222030  0.5303603309315790  0.7920755399861292
  0.8640444695679292  0.7301212111973996  0.5626774195221742
  0.8658480966351689  0.7309283432990625  0.7928402109592696
  0.8646708643283176  0.9301280184828826  0.5620243401681577
  0.8653204000458885  0.9309260125354442  0.7923622606226743
  0.4652883160235533  0.4729164499433338  0.9458054049608151
  0.6070672702301607  0.4703749132269266  0.9455279688310227
 
  0.00000000E+00  0.00000000E+00  0.00000000E+00
  0.00000000E+00  0.00000000E+00  0.00000000E+00
  0.00000000E+00  0.00000000E+00  0.00000000E+00
  0.00000000E+00  0.00000000E+00  0.00000000E+00
  0.00000000E+00  0.00000000E+00  0.00000000E+00
  0.00000000E+00  0.00000000E+00  0.00000000E+00
  0.00000000E+00  0.00000000E+00  0.00000000E+00
  0.00000000E+00  0.00000000E+00  0.00000000E+00
  0.00000000E+00  0.00000000E+00  0.00000000E+00
  0.00000000E+00  0.00000000E+00  0.00000000E+00
  0.00000000E+00  0.00000000E+00  0.00000000E+00
  0.00000000E+00  0.00000000E+00  0.00000000E+00
  0.00000000E+00  0.00000000E+00  0.00000000E+00
  0.00000000E+00  0.00000000E+00  0.00000000E+00
  0.00000000E+00  0.00000000E+00  0.00000000E+00
  0.00000000E+00  0.00000000E+00  0.00000000E+00
  0.00000000E+00  0.00000000E+00  0.00000000E+00
  0.00000000E+00  0.00000000E+00  0.00000000E+00
  0.00000000E+00  0.00000000E+00  0.00000000E+00
  0.00000000E+00  0.00000000E+00  0.00000000E+00
  0.00000000E+00  0.00000000E+00  0.00000000E+00
  0.00000000E+00  0.00000000E+00  0.00000000E+00
  0.00000000E+00  0.00000000E+00  0.00000000E+00
  0.00000000E+00  0.00000000E+00  0.00000000E+00
  0.00000000E+00  0.00000000E+00  0.00000000E+00
  0.00000000E+00  0.00000000E+00  0.00000000E+00
  0.00000000E+00  0.00000000E+00  0.00000000E+00
  0.00000000E+00  0.00000000E+00  0.00000000E+00
  0.00000000E+00  0.00000000E+00  0.00000000E+00
  0.00000000E+00  0.00000000E+00  0.00000000E+00
  0.00000000E+00  0.00000000E+00  0.00000000E+00
  0.00000000E+00  0.00000000E+00  0.00000000E+00
  0.00000000E+00  0.00000000E+00  0.00000000E+00
  0.00000000E+00  0.00000000E+00  0.00000000E+00
  0.00000000E+00  0.00000000E+00  0.00000000E+00
  0.00000000E+00  0.00000000E+00  0.00000000E+00
  0.00000000E+00  0.00000000E+00  0.00000000E+00
  0.00000000E+00  0.00000000E+00  0.00000000E+00
  0.00000000E+00  0.00000000E+00  0.00000000E+00
  0.00000000E+00  0.00000000E+00  0.00000000E+00
  0.00000000E+00  0.00000000E+00  0.00000000E+00
  0.00000000E+00  0.00000000E+00  0.00000000E+00
  0.00000000E+00  0.00000000E+00  0.00000000E+00
  0.00000000E+00  0.00000000E+00  0.00000000E+00
  0.00000000E+00  0.00000000E+00  0.00000000E+00
  0.00000000E+00  0.00000000E+00  0.00000000E+00
  0.00000000E+00  0.00000000E+00  0.00000000E+00
  0.00000000E+00  0.00000000E+00  0.00000000E+00
  0.00000000E+00  0.00000000E+00  0.00000000E+00
  0.00000000E+00  0.00000000E+00  0.00000000E+00
  0.00000000E+00  0.00000000E+00  0.00000000E+00
  0.00000000E+00  0.00000000E+00  0.00000000E+00
  0.00000000E+00  0.00000000E+00  0.00000000E+00
  0.00000000E+00  0.00000000E+00  0.00000000E+00
  0.00000000E+00  0.00000000E+00  0.00000000E+00
  0.00000000E+00  0.00000000E+00  0.00000000E+00
  0.00000000E+00  0.00000000E+00  0.00000000E+00
  0.00000000E+00  0.00000000E+00  0.00000000E+00
  0.00000000E+00  0.00000000E+00  0.00000000E+00
  0.00000000E+00  0.00000000E+00  0.00000000E+00
  0.00000000E+00  0.00000000E+00  0.00000000E+00
  0.00000000E+00  0.00000000E+00  0.00000000E+00
  0.00000000E+00  0.00000000E+00  0.00000000E+00
  0.00000000E+00  0.00000000E+00  0.00000000E+00
  0.00000000E+00  0.00000000E+00  0.00000000E+00
  0.00000000E+00  0.00000000E+00  0.00000000E+00
  0.00000000E+00  0.00000000E+00  0.00000000E+00
  0.00000000E+00  0.00000000E+00  0.00000000E+00
  0.00000000E+00  0.00000000E+00  0.00000000E+00
  0.00000000E+00  0.00000000E+00  0.00000000E+00
  0.00000000E+00  0.00000000E+00  0.00000000E+00
  0.00000000E+00  0.00000000E+00  0.00000000E+00
  0.00000000E+00  0.00000000E+00  0.00000000E+00
  0.00000000E+00  0.00000000E+00  0.00000000E+00
  0.00000000E+00  0.00000000E+00  0.00000000E+00
  0.00000000E+00  0.00000000E+00  0.00000000E+00
  0.00000000E+00  0.00000000E+00  0.00000000E+00
