Ta  N Cu                                
   1.00000000000000     
    18.1096308199999996    0.0000000000000000    0.0000000000000000
     0.0000000000000000   23.3551997799999995    0.0000000000000000
     0.0000000000000000    0.0000000000000000   30.4818170799999990
   Ta   N    Cu
   240   240     1
Selective dynamics
Direct
  0.0000000000000000  0.0000000000000000  0.1962037549895328   F   F   F
  0.3335422814544131  0.0625000001605613  0.2032829710819826   F   F   F
  0.1664576892793903  0.0625000001605613  0.2032829710819826   F   F   F
  0.2499999997239044  0.1249999998929567  0.2787808134173062   F   F   F
  0.0825353920715628  0.0625000001605613  0.2838315333135668   F   F   F
  0.4174646079284372  0.0625000001605613  0.2838315333135668   F   F   F
 -0.0000115647423446  0.1250088563528615  0.3695596191778348   T   T   T
  0.3322171618823586  0.0624946231788492  0.3684005532360149   T   T   T
  0.1677539740070680  0.0624958421653550  0.3684053674258604   T   T   T
  0.2499760515544195  0.1250291320522600  0.4557075604051251   T   T   T
  0.0838248764700748  0.0624853409385641  0.4543190335209678   T   T   T
  0.4161120519518541  0.0624805296953287  0.4543189951643248   T   T   T
  0.0000080277136899  0.1250039300088047  0.5406838387195818   T   T   T
  0.3351538045727202  0.0624765085442740  0.5425873065893354   T   T   T
  0.1648703661734394  0.0624342913662835  0.5425618430826228   T   T   T
  0.0000000000000000  0.1249999998929567  0.1962037549895328   F   F   F
  0.3335422814544131  0.1875000000535181  0.2032829710819826   F   F   F
  0.1664576892793903  0.1875000000535181  0.2032829710819826   F   F   F
  0.2499999997239044  0.2500000002140865  0.2787808134173062   F   F   F
  0.0825353920715628  0.1875000000535181  0.2838315333135668   F   F   F
  0.4174646079284372  0.1875000000535181  0.2838315333135668   F   F   F
  0.9999649098166722  0.2500018895284399  0.3695669296958406   T   T   T
  0.3321964720358274  0.1874840471826518  0.3683785597545301   T   T   T
  0.1677393331924890  0.1874965188129370  0.3684060121252870   T   T   T
  0.2499027040511254  0.2500167385908693  0.4556700700981833   T   T   T
  0.0837784437732749  0.1874935248469467  0.4543378758123107   T   T   T
  0.4161123645542496  0.1874563275883944  0.4542969356440097   T   T   T
  0.0000330478934843  0.2499584904385003  0.5407071810568729   T   T   T
  0.3351610685220145  0.1875240838906900  0.5425491094604857   T   T   T
  0.1649194922325956  0.1873504210528175  0.5425153524428700   T   T   T
  0.0000000000000000  0.2500000002140865  0.1962037549895328   F   F   F
  0.3335422814544131  0.3124999999464819  0.2032829710819826   F   F   F
  0.1664576892793903  0.3124999999464819  0.2032829710819826   F   F   F
  0.2499999997239044  0.3750000001070433  0.2787808134173062   F   F   F
  0.0825353920715628  0.3124999999464819  0.2838315333135668   F   F   F
  0.4174646079284372  0.3124999999464819  0.2838315333135668   F   F   F
 -0.0000178535018558  0.3750248622881419  0.3695688944032535   T   T   T
  0.3321799826204915  0.3124847283980140  0.3683665803634503   T   T   T
  0.1677330529820237  0.3124954762157214  0.3683967418139591   T   T   T
  0.2498240914431088  0.3749537323000370  0.4556232469554082   T   T   T
  0.0837281877755394  0.3124880791976467  0.4543208681748827   T   T   T
  0.4159728396786928  0.3124393003755411  0.4541893680466112   T   T   T
  0.0003966031584238  0.3750211750534007  0.5406892885448211   T   T   T
  0.3350616754808686  0.3124660143036260  0.5423245478249863   T   T   T
  0.1649894919209084  0.3122831952325337  0.5425627469901182   T   T   T
  0.0000000000000000  0.3750000001070433  0.1962037549895328   F   F   F
  0.3335422814544131  0.4375000002676046  0.2032829710819826   F   F   F
  0.1664576892793903  0.4375000002676046  0.2032829710819826   F   F   F
  0.2499999997239044  0.0000000000000000  0.2787808134173062   F   F   F
  0.0825353920715628  0.4375000002676046  0.2838315333135668   F   F   F
  0.4174646079284372  0.4375000002676046  0.2838315333135668   F   F   F
  0.9999914584994259  0.0000072084806723  0.3695646518700663   T   T   T
  0.3321801064869037  0.4374992967734208  0.3683479874488521   T   T   T
  0.1676680064096970  0.4374997882260516  0.3683568793694635   T   T   T
  0.2499968091254912  0.9999923050941997  0.4557187919725955   T   T   T
  0.0836654600572977  0.4375006461875843  0.4543551326722643   T   T   T
  0.4159674552178771  0.4374967813894433  0.4542071794717249   T   T   T
  0.0000169481134615  0.9999923159891677  0.5406924995178121   T   T   T
  0.3346306893366676  0.4375042409903850  0.5420840531878154   T   T   T
  0.1648531905820022  0.4374998214229144  0.5425727363470472   T   T   T
  0.0000000000000000  0.5000000000000000  0.1962037549895328   F   F   F
  0.3335422814544131  0.5625000001605613  0.2032829710819826   F   F   F
  0.1664576892793903  0.5625000001605613  0.2032829710819826   F   F   F
  0.2499999997239044  0.6249999998929567  0.2787808134173062   F   F   F
  0.0825353920715628  0.5625000001605613  0.2838315333135668   F   F   F
  0.4174646079284372  0.5625000001605613  0.2838315333135668   F   F   F
  0.9999626357731581  0.6249980604904424  0.3695675090918357   T   T   T
  0.3321811778983911  0.5625146707776286  0.3683670639355305   T   T   T
  0.1677327767716559  0.5625054638779919  0.3683969743367906   T   T   T
  0.2499031368303732  0.6249823902821482  0.4556700804340277   T   T   T
  0.0837255770039199  0.5625119967116120  0.4543206384009122   T   T   T
  0.4159746803825620  0.5625559375423306  0.4541902061152703   T   T   T
  0.0000354579441463  0.6250408756577057  0.5407069757560773   T   T   T
  0.3350601082044694  0.5625314344989355  0.5423252866901501   T   T   T
  0.1649887810692156  0.5627154864673299  0.5425621992764552   T   T   T
  0.0000000000000000  0.6249999998929567  0.1962037549895328   F   F   F
  0.3335422814544131  0.6875000000535181  0.2032829710819826   F   F   F
  0.1664576892793903  0.6875000000535181  0.2032829710819826   F   F   F
  0.2499999997239044  0.7500000002140865  0.2787808134173062   F   F   F
  0.0825353920715628  0.6875000000535181  0.2838315333135668   F   F   F
  0.4174646079284372  0.6875000000535181  0.2838315333135668   F   F   F
 -0.0000133398899708  0.7499899340336131  0.3695598812697716   T   T   T
  0.3321993573411078  0.6875147845391311  0.3683787971911859   T   T   T
  0.1677395418589299  0.6875026221474634  0.3684064216408909   T   T   T
  0.2499750556813437  0.7499692417984791  0.4557075346730450   T   T   T
  0.0837773800241060  0.6875064001202263  0.4543370260500597   T   T   T
  0.4161130445924601  0.6875388538232812  0.4543002632684455   T   T   T
  0.0000084020457110  0.7499936688705351  0.5406842607871947   T   T   T
  0.3351638004422550  0.6874719263778418  0.5425496027729185   T   T   T
  0.1649216931340366  0.6876519577220340  0.5425153079559409   T   T   T
  0.0000000000000000  0.7500000002140865  0.1962037549895328   F   F   F
  0.3335422814544131  0.8124999999464819  0.2032829710819826   F   F   F
  0.1664576892793903  0.8124999999464819  0.2032829710819826   F   F   F
  0.2499999997239044  0.8750000001070433  0.2787808134173062   F   F   F
  0.0825353920715628  0.8124999999464819  0.2838315333135668   F   F   F
  0.4174646079284372  0.8124999999464819  0.2838315333135668   F   F   F
  0.9999909709377446  0.8749916434962682  0.3695648138481339   T   T   T
  0.3322188222207837  0.8125044806609246  0.3684006770495621   T   T   T
  0.1677537640653825  0.8125036018455049  0.3684058181332912   T   T   T
  0.2499975082886698  0.8750074216293510  0.4557188089435253   T   T   T
  0.0838245047843969  0.8125131559218047  0.4543194108832673   T   T   T
  0.4161126565597731  0.8125158293570616  0.4543194841875202   T   T   T
  0.0000156817970983  0.8750043891853932  0.5406925076254100   T   T   T
  0.3351542004558308  0.8125173174036521  0.5425873704489098   T   T   T
  0.1648667285176564  0.8125655241557722  0.5425617225728179   T   T   T
  0.0000000000000000  0.8750000001070433  0.1962037549895328   F   F   F
  0.3335422814544131  0.9375000002676046  0.2032829710819826   F   F   F
  0.1664576892793903  0.9375000002676046  0.2032829710819826   F   F   F
  0.2499999997239044  0.5000000000000000  0.2787808134173062   F   F   F
  0.0825353920715628  0.9375000002676046  0.2838315333135668   F   F   F
  0.4174646079284372  0.9375000002676046  0.2838315333135668   F   F   F
 -0.0000185196392466  0.4999732307670084  0.3695697944677022   T   T   T
  0.3322194436384791  0.9374992073146957  0.3683976020658222   T   T   T
  0.1677568962979803  0.9374997932579591  0.3684073982230685   T   T   T
  0.2498250933820821  0.5000456180101248  0.4556236575589081   T   T   T
  0.0838408312327430  0.9374992582470192  0.4543316545653673   T   T   T
  0.4161262908565032  0.9374993351073065  0.4543258145354609   T   T   T
  0.0003992778697751  0.4999771311746682  0.5406897662237905   T   T   T
  0.3351514081355700  0.9374968376464941  0.5425700770533536   T   T   T
  0.1648777927394902  0.9375010257022943  0.5425606422712870   T   T   T
  0.5000000000000000  0.0000000000000000  0.1962037549895328   F   F   F
  0.8335422809022219  0.0625000001605613  0.2032829710819826   F   F   F
  0.6664576892793903  0.0625000001605613  0.2032829710819826   F   F   F
  0.7499999997239044  0.1249999998929567  0.2787808134173062   F   F   F
  0.5825353920715628  0.0625000001605613  0.2838315333135668   F   F   F
  0.9174646079284372  0.0625000001605613  0.2838315333135668   F   F   F
  0.4999925295027415  0.1249983386164350  0.3695622974739924   T   T   T
  0.8322384682013266  0.0625026644224021  0.3684040200488397   T   T   T
  0.6677502772413222  0.0624940213636258  0.3684029775690117   T   T   T
  0.7499582752869748  0.1250233467988105  0.4556790172188722   T   T   T
  0.5838480860664158  0.0624398861531239  0.4543271108907390   T   T   T
  0.9161130427062451  0.0624999914240679  0.4543209480629652   T   T   T
  0.4999233928059401  0.1249924436044019  0.5406569443238137   T   T   T
  0.8351247259958596  0.0624082138157939  0.5425673234897372   T   T   T
  0.6647908540750429  0.0622851159393904  0.5425914375661571   T   T   T
  0.5000000000000000  0.1249999998929567  0.1962037549895328   F   F   F
  0.8335422809022219  0.1875000000535181  0.2032829710819826   F   F   F
  0.6664576892793903  0.1875000000535181  0.2032829710819826   F   F   F
  0.7499999997239044  0.2500000002140865  0.2787808134173062   F   F   F
  0.5825353920715628  0.1875000000535181  0.2838315333135668   F   F   F
  0.9174646079284372  0.1875000000535181  0.2838315333135668   F   F   F
  0.5000057238570276  0.2499867672471242  0.3695724718177228   T   T   T
  0.8322232807279595  0.1875039002181478  0.3683805798599206   T   T   T
  0.6677336162053300  0.1874865405000429  0.3684014109453556   T   T   T
  0.7498818135414671  0.2500043825084448  0.4556791250312427   T   T   T
  0.5838315905891635  0.1874159531157502  0.4543504553937301   T   T   T
  0.9161546142277867  0.1875049212410310  0.4543336223519241   T   T   T
  0.5000624894658927  0.2500266488105554  0.5406191502499247   T   T   T
  0.8352390632578282  0.1872828174281738  0.5424789024473922   T   T   T
  0.6645926093878913  0.1869468573458226  0.5425243530844123   T   T   T
  0.5000000000000000  0.2500000002140865  0.1962037549895328   F   F   F
  0.8335422809022219  0.3124999999464819  0.2032829710819826   F   F   F
  0.6664576892793903  0.3124999999464819  0.2032829710819826   F   F   F
  0.7499999997239044  0.3750000001070433  0.2787808134173062   F   F   F
  0.5825353920715628  0.3124999999464819  0.2838315333135668   F   F   F
  0.9174646079284372  0.3124999999464819  0.2838315333135668   F   F   F
  0.5000055496135977  0.3749470526398010  0.3695737683377923   T   T   T
  0.8322219911950525  0.3125108573405654  0.3684151653123607   T   T   T
  0.6677348774059189  0.3124962379188460  0.3684982000070849   T   T   T
  0.7496250777677499  0.3748967130896730  0.4558040280913732   T   T   T
  0.5837264962118514  0.3123740544508045  0.4544314567574801   T   T   T
  0.9161068503220933  0.3125106795582204  0.4542653483619897   T   T   T
  0.4993803970666090  0.3751568343622864  0.5402449765317022   T   T   T
  0.8356737898508432  0.3123899343799383  0.5423797000555215   T   T   T
  0.6654878830709321  0.3112921789489946  0.5430202566793606   T   T   T
  0.5000000000000000  0.3750000001070433  0.1962037549895328   F   F   F
  0.8335422809022219  0.4375000002676046  0.2032829710819826   F   F   F
  0.6664576892793903  0.4375000002676046  0.2032829710819826   F   F   F
  0.7499999997239044  0.0000000000000000  0.2787808134173062   F   F   F
  0.5825353920715628  0.4375000002676046  0.2838315333135668   F   F   F
  0.9174646079284372  0.4375000002676046  0.2838315333135668   F   F   F
  0.4999857376739561 -0.0000026312399679  0.3695629709386859   T   T   T
  0.8322294899788525  0.4374991886678062  0.3683709541584296   T   T   T
  0.6676488095221055  0.4374977472340676  0.3684660728652849   T   T   T
  0.7499904405791895  0.9999936806925355  0.4556935874333673   T   T   T
  0.5835101044100515  0.4374949072680477  0.4544973475814715   T   T   T
  0.9160971661594400  0.4374994199382463  0.4543351026543606   T   T   T
  0.4999788425978636 -0.0000107663207151  0.5406781623279527   T   T   T
  0.8365084007949586  0.4374978475897234  0.5425433364316400   T   T   T
  0.6688993877484184  0.4374872821506394  0.5409524876189624   T   T   T
  0.5000000000000000  0.5000000000000000  0.1962037549895328   F   F   F
  0.8335422809022219  0.5625000001605613  0.2032829710819826   F   F   F
  0.6664576892793903  0.5625000001605613  0.2032829710819826   F   F   F
  0.7499999997239044  0.6249999998929567  0.2787808134173062   F   F   F
  0.5825353920715628  0.5625000001605613  0.2838315333135668   F   F   F
  0.9174646079284372  0.5625000001605613  0.2838315333135668   F   F   F
  0.5000074223758390  0.6250097448574051  0.3695587560149615   T   T   T
  0.8322220375816316  0.5624889484643381  0.3684145854666382   T   T   T
  0.6677332995445890  0.5624998992320872  0.3684988287361824   T   T   T
  0.7498779545872584  0.6249908462361478  0.4556847300115971   T   T   T
  0.5837255958384044  0.5626163451394708  0.4544364283738673   T   T   T
  0.9161035869677560  0.5624888086283044  0.4542663110296418   T   T   T
  0.5000634271035583  0.6249607823654162  0.5406248891654959   T   T   T
  0.8356681275826261  0.5626067154017567  0.5423806071770199   T   T   T
  0.6654746121667834  0.5636867890334545  0.5430333416672525   T   T   T
  0.5000000000000000  0.6249999998929567  0.1962037549895328   F   F   F
  0.8335422809022219  0.6875000000535181  0.2032829710819826   F   F   F
  0.6664576892793903  0.6875000000535181  0.2032829710819826   F   F   F
  0.7499999997239044  0.7500000002140865  0.2787808134173062   F   F   F
  0.5825353920715628  0.6875000000535181  0.2838315333135668   F   F   F
  0.9174646079284372  0.6875000000535181  0.2838315333135668   F   F   F
  0.4999935883158324  0.7499980965528814  0.3695634163848143   T   T   T
  0.8322207444708285  0.6874951980334811  0.3683809402015884   T   T   T
  0.6677287579651537  0.6875101225055698  0.3684026831299695   T   T   T
  0.7499521596139372  0.7499713606577302  0.4556800391923746   T   T   T
  0.5838352798599109  0.6875784319405892  0.4543526544761685   T   T   T
  0.9161504336496766  0.6874939004918750  0.4543344980609696   T   T   T
  0.4999260851130004  0.7500000927167666  0.5406611907673599   T   T   T
  0.8352336430538992  0.6877084241880523  0.5424816716548004   T   T   T
  0.6645902992166179  0.6880377344987274  0.5425319061447944   T   T   T
  0.5000000000000000  0.7500000002140865  0.1962037549895328   F   F   F
  0.8335422809022219  0.8124999999464819  0.2032829710819826   F   F   F
  0.6664576892793903  0.8124999999464819  0.2032829710819826   F   F   F
  0.7499999997239044  0.8750000001070433  0.2787808134173062   F   F   F
  0.5825353920715628  0.8124999999464819  0.2838315333135668   F   F   F
  0.9174646079284372  0.8124999999464819  0.2838315333135668   F   F   F
  0.4999859923663373  0.8749999601024709  0.3695635821704756   T   T   T
  0.8322373673994227  0.8124960941195536  0.3684041150705590   T   T   T
  0.6677485596643760  0.8125034855134903  0.3684040121891097   T   T   T
  0.7499879677456625  0.8750028101992255  0.4556934002599750   T   T   T
  0.5838463631128018  0.8125534469649353  0.4543294053646795   T   T   T
  0.9161120389822339  0.8124981679588396  0.4543208847837888   T   T   T
  0.4999767982220335  0.8750017237071550  0.5406784412885528   T   T   T
  0.8351302390013536  0.8125841855674351  0.5425650472156460   T   T   T
  0.6647988697788255  0.8127073987359674  0.5425937599570841   T   T   T
  0.5000000000000000  0.8750000001070433  0.1962037549895328   F   F   F
  0.8335422809022219  0.9375000002676046  0.2032829710819826   F   F   F
  0.6664576892793903  0.9375000002676046  0.2032829710819826   F   F   F
  0.7499999997239044  0.5000000000000000  0.2787808134173062   F   F   F
  0.5825353920715628  0.9375000002676046  0.2838315333135668   F   F   F
  0.9174646079284372  0.9375000002676046  0.2838315333135668   F   F   F
  0.5000058060734129  0.5000499527926056  0.3695696629016367   T   T   T
  0.8322290044006234  0.9374995154177567  0.3683989832194074   T   T   T
  0.6677726173088837  0.9374986274568420  0.3683930253917901   T   T   T
  0.7496236956397541  0.5000992435069581  0.4558049004866542   T   T   T
  0.5838490338348094  0.9374959522311667  0.4543138341547299   T   T   T
  0.9161310096060624  0.9374989710412817  0.4543284148636992   T   T   T
  0.4993768449677216  0.4998172585053988  0.5402486345224150   T   T   T
  0.8351511900680285  0.9374980184506267  0.5425667350051767   T   T   T
  0.6648589841861833  0.9374971474276201  0.5425660451743503   T   T   T
  0.4070505905542277  0.0000000000000000  0.2321160648471405   F   F   F
  0.2499999997239044  0.0000000000000000  0.1975324349659786   F   F   F
  0.0929494094457723  0.0000000000000000  0.2321160648471405   F   F   F
  0.1544227962345630  0.1249999998929567  0.3158353176496362   F   F   F
  0.0000000000000000  0.1249999998929567  0.3028242704748862   F   F   F
  0.3455772037654370  0.1249999998929567  0.3158353176496362   F   F   F
  0.4010003717888551  0.1249916608775514  0.4020664472291547   T   T   T
  0.2499855442185522  0.1249969022443425  0.3876175131523167   T   T   T
  0.0989632611306064  0.1250061986271176  0.4020870298377818   T   T   T
  0.1513852157355387  0.1249865181266304  0.4877203166968935   T   T   T
  0.9999676447887621  0.1249919534895494  0.4725004728022926   T   T   T
  0.3485852447871997  0.1250244622113530  0.4877285428772093   T   T   T
  0.4030803511130476  0.1250619037988358  0.5702378738215609   T   T   T
  0.2500138365231317  0.1250331312826239  0.5576942125437787   T   T   T
  0.0968807398665540  0.1249858954389248  0.5702056705471829   T   T   T
  0.4070505905542277  0.1249999998929567  0.2321160648471405   F   F   F
  0.2499999997239044  0.1249999998929567  0.1975324349659786   F   F   F
  0.0929494094457723  0.1249999998929567  0.2321160648471405   F   F   F
  0.1544227962345630  0.2500000002140865  0.3158353176496362   F   F   F
  0.0000000000000000  0.2500000002140865  0.3028242704748862   F   F   F
  0.3455772037654370  0.2500000002140865  0.3158353176496362   F   F   F
  0.4009642436020091  0.2499542796988017  0.4020201098901817   T   T   T
  0.2499668561181987  0.2499874568584529  0.3875916380635114   T   T   T
  0.0989479972619195  0.2500065096398316  0.4020897474077008   T   T   T
  0.1513563473943011  0.2500162768261867  0.4877413164315976   T   T   T
  0.9999496060260539  0.2500118856303617  0.4725073696269638   T   T   T
  0.3485412627109165  0.2499789653730804  0.4876714999930300   T   T   T
  0.4031935329274340  0.2501349257563401  0.5701573770834675   T   T   T
  0.2500337893998666  0.2500858373832997  0.5576584898802425   T   T   T
  0.0968902788269027  0.2499537790302231  0.5701935258622854   T   T   T
  0.4070505905542277  0.2500000002140865  0.2321160648471405   F   F   F
  0.2499999997239044  0.2500000002140865  0.1975324349659786   F   F   F
  0.0929494094457723  0.2500000002140865  0.2321160648471405   F   F   F
  0.1544227962345630  0.3750000001070433  0.3158353176496362   F   F   F
  0.0000000000000000  0.3750000001070433  0.3028242704748862   F   F   F
  0.3455772037654370  0.3750000001070433  0.3158353176496362   F   F   F
  0.4008999983633214  0.3749806291789652  0.4019692369222854   T   T   T
  0.2499261052793496  0.3750297636831412  0.3875632985054929   T   T   T
  0.0989645566198386  0.3749824244259785  0.4020844292189223   T   T   T
  0.1512823783307568  0.3750110479006265  0.4877166062382437   T   T   T
  0.9999510592890846  0.3749974825734083  0.4724621005154071   T   T   T
  0.3484103715606704  0.3749244721886368  0.4876110009044278   T   T   T
  0.4033915088086663  0.3752367851217243  0.5699758445235479   T   T   T
  0.2501123033686649  0.3750347600152673  0.5576241955951985   T   T   T
  0.0971552162239467  0.3749500365222244  0.5702742702097181   T   T   T
  0.4070505905542277  0.3750000001070433  0.2321160648471405   F   F   F
  0.2499999997239044  0.3750000001070433  0.1975324349659786   F   F   F
  0.0929494094457723  0.3750000001070433  0.2321160648471405   F   F   F
  0.1544227962345630  0.0000000000000000  0.3158353176496362   F   F   F
  0.0000000000000000  0.0000000000000000  0.3028242704748862   F   F   F
  0.3455772037654370  0.0000000000000000  0.3158353176496362   F   F   F
  0.4010000029281344  0.9999941021596299  0.4020720430967492   T   T   T
  0.2499853163108213  0.9999963124590788  0.3876285913297193   T   T   T
  0.0989682161550128  0.9999910220828995  0.4020799541364630   T   T   T
  0.1513947678295468 -0.0000018898568189  0.4877252514569735   T   T   T
  0.9999766071645307  0.0000026951375417  0.4725095475093898   T   T   T
  0.3485954957313666  0.0000091913742126  0.4877411869479647   T   T   T
  0.4031049185974257  0.0000212162613923  0.5702398867059010   T   T   T
  0.2500097972422963  0.0000239147723673  0.5576958466072873   T   T   T
  0.0968974612488794  0.0000092823823302  0.5702277811728363   T   T   T
  0.4070505905542277  0.5000000000000000  0.2321160648471405   F   F   F
  0.2499999997239044  0.5000000000000000  0.1975324349659786   F   F   F
  0.0929494094457723  0.5000000000000000  0.2321160648471405   F   F   F
  0.1544227962345630  0.6249999998929567  0.3158353176496362   F   F   F
  0.0000000000000000  0.6249999998929567  0.3028242704748862   F   F   F
  0.3455772037654370  0.6249999998929567  0.3158353176496362   F   F   F
  0.4009654911241212  0.6250448710866210  0.4020219641882832   T   T   T
  0.2499683103462913  0.6250125832475050  0.3875939987515459   T   T   T
  0.0989459400321363  0.6249925504113241  0.4020893508550663   T   T   T
  0.1513551151512037  0.6249831038216305  0.4877416001892478   T   T   T
  0.9999477654648280  0.6249880891612264  0.4725068871536789   T   T   T
  0.3485436992567834  0.6250156262637558  0.4876736777067556   T   T   T
  0.4031934173211326  0.6248607409952338  0.5701602458110211   T   T   T
  0.2500329436663364  0.6249110309328192  0.5576587934842310   T   T   T
  0.0968928506983150  0.6250451895425122  0.5701943727239934   T   T   T
  0.4070505905542277  0.6249999998929567  0.2321160648471405   F   F   F
  0.2499999997239044  0.6249999998929567  0.1975324349659786   F   F   F
  0.0929494094457723  0.6249999998929567  0.2321160648471405   F   F   F
  0.1544227962345630  0.7500000002140865  0.3158353176496362   F   F   F
  0.0000000000000000  0.7500000002140865  0.3028242704748862   F   F   F
  0.3455772037654370  0.7500000002140865  0.3158353176496362   F   F   F
  0.4010021988907664  0.7500051250827364  0.4020675538329631   T   T   T
  0.2499869155271639  0.7500019611492824  0.3876175123605302   T   T   T
  0.0989627447541723  0.7499930575146728  0.4020870079151874   T   T   T
  0.1513846786379362  0.7500132114847973  0.4877208331809566   T   T   T
  0.9999657653599119  0.7500065240438178  0.4725003700470093   T   T   T
  0.3485850499630859  0.7499737828810438  0.4877293382887541   T   T   T
  0.4030799893686105  0.7499336440438296  0.5702393353999035   T   T   T
  0.2500135109732483  0.7499642465013666  0.5576946210149669   T   T   T
  0.0968794149015668  0.7500123482947867  0.5702059239243513   T   T   T
  0.4070505905542277  0.7500000002140865  0.2321160648471405   F   F   F
  0.2499999997239044  0.7500000002140865  0.1975324349659786   F   F   F
  0.0929494094457723  0.7500000002140865  0.2321160648471405   F   F   F
  0.1544227962345630  0.8750000001070433  0.3158353176496362   F   F   F
  0.0000000000000000  0.8750000001070433  0.3028242704748862   F   F   F
  0.3455772037654370  0.8750000001070433  0.3158353176496362   F   F   F
  0.4010012712567028  0.8750039361702113  0.4020722692047909   T   T   T
  0.2499854762489738  0.8750029193079170  0.3876288298490079   T   T   T
  0.0989681776406106  0.8750082429160211  0.4020801406503144   T   T   T
  0.1513941104374170  0.8750010183848379  0.4877261470494668   T   T   T
  0.9999761449309815  0.8749951839879345  0.4725093680345642   T   T   T
  0.3485953559103161  0.8749872627731567  0.4877406111766000   T   T   T
  0.4031047937727330  0.8749735880273142  0.5702400032655774   T   T   T
  0.2500098871220338  0.8749740482520432  0.5576963846168791   T   T   T
  0.0968965515533965  0.8749905422579246  0.5702288665022799   T   T   T
  0.4070505905542277  0.8750000001070433  0.2321160648471405   F   F   F
  0.2499999997239044  0.8750000001070433  0.1975324349659786   F   F   F
  0.0929494094457723  0.8750000001070433  0.2321160648471405   F   F   F
  0.1544227962345630  0.5000000000000000  0.3158353176496362   F   F   F
  0.0000000000000000  0.5000000000000000  0.3028242704748862   F   F   F
  0.3455772037654370  0.5000000000000000  0.3158353176496362   F   F   F
  0.4009006028555028  0.5000158051173992  0.4019691296293406   T   T   T
  0.2499259222480174  0.4999707445705823  0.3875638204098136   T   T   T
  0.0989627267209191  0.5000179061222596  0.4020836460878126   T   T   T
  0.1512834284096052  0.4999898324073858  0.4877162473687683   T   T   T
  0.9999494716543069  0.5000034732192259  0.4724625129376949   T   T   T
  0.3484116876621345  0.5000736665602625  0.4876114677043274   T   T   T
  0.4033879286482576  0.4997572961232563  0.5699770158000079   T   T   T
  0.2501126576325380  0.4999623258080028  0.5576243880834466   T   T   T
  0.0971559759534333  0.5000491732077024  0.5702748528144349   T   T   T
  0.9070505905542277  0.0000000000000000  0.2321160648471405   F   F   F
  0.7499999997239044  0.0000000000000000  0.1975324349659786   F   F   F
  0.5929494094457723  0.0000000000000000  0.2321160648471405   F   F   F
  0.6544227962345630  0.1249999998929567  0.3158353176496362   F   F   F
  0.5000000000000000  0.1249999998929567  0.3028242704748862   F   F   F
  0.8455772037654370  0.1249999998929567  0.3158353176496362   F   F   F
  0.9009877539064404  0.1250207700678335  0.4020797840192198   T   T   T
  0.7499870001314490  0.1250109511383998  0.3876044396404140   T   T   T
  0.5989763122187931  0.1249736741929333  0.4020833461859935   T   T   T
  0.6513680706914744  0.1248835460470451  0.4877421449116481   T   T   T
  0.4999460893777091  0.1249880939494015  0.4724668600450397   T   T   T
  0.8485419657710750  0.1249908267738412  0.4877257027872448   T   T   T
  0.9029968889814567  0.1250040706633141  0.5701879180599463   T   T   T
  0.7499344182872076  0.1250817982511499  0.5577508885049391   T   T   T
  0.5968294052513105  0.1248022071348779  0.5702813583881381   T   T   T
  0.9070505905542277  0.1249999998929567  0.2321160648471405   F   F   F
  0.7499999997239044  0.1249999998929567  0.1975324349659786   F   F   F
  0.5929494094457723  0.1249999998929567  0.2321160648471405   F   F   F
  0.6544227962345630  0.2500000002140865  0.3158353176496362   F   F   F
  0.5000000000000000  0.2500000002140865  0.3028242704748862   F   F   F
  0.8455772037654370  0.2500000002140865  0.3158353176496362   F   F   F
  0.9009705563139848  0.2500074707015970  0.4020645399766036   T   T   T
  0.7499961102096798  0.2499824304527259  0.3876059839961339   T   T   T
  0.5989800592290881  0.2499787524050303  0.4021354837865515   T   T   T
  0.6513294660788793  0.2499173839922434  0.4878772682536645   T   T   T
  0.4999044849285531  0.2499924608082951  0.4724533764819380   T   T   T
  0.8485316184167212  0.2500044812719119  0.4876962248175430   T   T   T
  0.9029159064690995  0.2498782731552918  0.5702000974140110   T   T   T
  0.7497390381512994  0.2504945408258712  0.5575834087214192   T   T   T
  0.5970244449565231  0.2498294799426345  0.5704811900153398   T   T   T
  0.9070505905542277  0.2500000002140865  0.2321160648471405   F   F   F
  0.7499999997239044  0.2500000002140865  0.1975324349659786   F   F   F
  0.5929494094457723  0.2500000002140865  0.2321160648471405   F   F   F
  0.6544227962345630  0.3750000001070433  0.3158353176496362   F   F   F
  0.5000000000000000  0.3750000001070433  0.3028242704748862   F   F   F
  0.8455772037654370  0.3750000001070433  0.3158353176496362   F   F   F
  0.9009455592182430  0.3750245972254334  0.4020386610955989   T   T   T
  0.7499143970281863  0.3750743581552030  0.3877036025422825   T   T   T
  0.5989654692273014  0.3749750533050022  0.4021635167123245   T   T   T
  0.6508607392494911  0.3746275145683226  0.4883498392298813   T   T   T
  0.4997006791491603  0.3748950833796604  0.4722132617324631   T   T   T
  0.8485287793972653  0.3749339901608886  0.4876208485449717   T   T   T
  0.9033738977320555  0.3748193051547692  0.5702437363534884   T   T   T
  0.7504629318233395  0.3752448215862335  0.5577210159559588   T   T   T
  0.5971075653487428  0.3741607466669939  0.5725284439174598   T   T   T
  0.9070505905542277  0.3750000001070433  0.2321160648471405   F   F   F