POSCAR                                  
   1.00000000000000     
     6.3553606906522644   -0.0140871938260664   -0.0063923394801468
    -3.1898802130475410    5.5250345990569745   -0.0000000000000000
    -0.0105044727130941   -0.0060647601485999    9.8858316224162301
   Al   N    Li   V 
    14    16     1     1
Direct
  0.1699476603035137  0.3343879829300038  0.0017620773692425
  0.6646099048294065  0.3323049524147068 -0.0036544080249392
  0.1699476603035137  0.8355596773735169  0.0017620773692425
  0.6638907214627137  0.8319453607313602  0.0110316510596244
  0.1664239070433306  0.3293324191359517  0.4985413129043079
  0.6592379116534937  0.3296189558267504  0.5004933258023170
  0.1664239070433306  0.8370914879073856  0.4985413129043079
  0.3316291507810430  0.1658145753905179  0.7495715419748958
  0.8332870912492801  0.1657592030176272  0.7504227608095968
  0.3328224075589626  0.6664112037794776  0.7476868034948096
  0.8332870912492801  0.6675278882316457  0.7504227608095968
  0.3288555094763716  0.1644277547381822  0.2415912696087284
  0.8471158721911852  0.1804531454467761  0.2356120087812073
  0.8471158721911852  0.6666627267444020  0.2356120087812073
  0.1661147425456153  0.3225745215917399  0.1881579536504673
  0.6676078020735472  0.3338039010367772  0.1888581070171944
  0.1661147425456153  0.8435402209538823  0.1881579536504673
  0.6838895439259693  0.8419447719629880  0.2100043883946157
  0.1646830842655893  0.3313863019500946  0.6906835415630835
  0.6671060522026574  0.3335530261013323  0.6913701117906551
  0.1646830842655893  0.8332967823155017  0.6906835415630835
  0.6690928424831591  0.8345464212415830  0.6804355636503487
  0.3340507578969348  0.1670253789484638  0.9386849465635936
  0.8301035174205452  0.1622617079736465  0.9424219682397242
  0.3368381985499948  0.6684190992749939  0.9401366183716917
  0.8301035174205452  0.6678418094468919  0.9424219682397242
  0.3311673221118631  0.1655836610559280  0.4414746314820916
  0.8390693451394132  0.1871619815798511  0.4376695007321332
  0.3134738340110820  0.6567369170055375  0.4521959234945404
  0.8390693451394132  0.6519073635595551  0.4376695007321332
  0.3227425633110435  0.6613712816555180  0.2366148415774069
  0.6594950373548122  0.8297475186774091  0.4629624356428910
 
  0.00000000E+00  0.00000000E+00  0.00000000E+00
  0.00000000E+00  0.00000000E+00  0.00000000E+00
  0.00000000E+00  0.00000000E+00  0.00000000E+00
  0.00000000E+00  0.00000000E+00  0.00000000E+00
  0.00000000E+00  0.00000000E+00  0.00000000E+00
  0.00000000E+00  0.00000000E+00  0.00000000E+00
  0.00000000E+00  0.00000000E+00  0.00000000E+00
  0.00000000E+00  0.00000000E+00  0.00000000E+00
  0.00000000E+00  0.00000000E+00  0.00000000E+00
  0.00000000E+00  0.00000000E+00  0.00000000E+00
  0.00000000E+00  0.00000000E+00  0.00000000E+00
  0.00000000E+00  0.00000000E+00  0.00000000E+00
  0.00000000E+00  0.00000000E+00  0.00000000E+00
  0.00000000E+00  0.00000000E+00  0.00000000E+00
  0.00000000E+00  0.00000000E+00  0.00000000E+00
  0.00000000E+00  0.00000000E+00  0.00000000E+00
  0.00000000E+00  0.00000000E+00  0.00000000E+00
  0.00000000E+00  0.00000000E+00  0.00000000E+00
  0.00000000E+00  0.00000000E+00  0.00000000E+00
  0.00000000E+00  0.00000000E+00  0.00000000E+00
  0.00000000E+00  0.00000000E+00  0.00000000E+00
  0.00000000E+00  0.00000000E+00  0.00000000E+00
  0.00000000E+00  0.00000000E+00  0.00000000E+00
  0.00000000E+00  0.00000000E+00  0.00000000E+00
  0.00000000E+00  0.00000000E+00  0.00000000E+00
  0.00000000E+00  0.00000000E+00  0.00000000E+00
  0.00000000E+00  0.00000000E+00  0.00000000E+00
  0.00000000E+00  0.00000000E+00  0.00000000E+00
  0.00000000E+00  0.00000000E+00  0.00000000E+00
  0.00000000E+00  0.00000000E+00  0.00000000E+00
  0.00000000E+00  0.00000000E+00  0.00000000E+00
  0.00000000E+00  0.00000000E+00  0.00000000E+00
