POSCAR
   1.00000000000000
     6.3386850565867077    0.0000000000000000    0.0000000000000000
    -3.16934252829335385   5.48946228559289086836    0.0000000000000000
     0.0000000000000000    0.0000000000000000    10.0144480917254484
   Al   N      Li     V
    14    16    1   1
Direct
  0.1666666666666667  0.3333333333333333  0.0000000000000000
  0.6666666666666667  0.3333333333333333  0.0000000000000000
  0.1666666666666667  0.8333333333333333  0.0000000000000000
  0.6666666666666667  0.8333333333333333  0.0000000000000000
  0.1666666666666667  0.3333333333333333  0.5000000000000000
  0.6666666666666667  0.3333333333333333  0.5000000000000000
  0.1666666666666667  0.8333333333333333  0.5000000000000000
  0.3333333333333333  0.1666666666666667  0.7500000000000000
  0.8333333333333333  0.1666666666666667  0.7500000000000000
  0.3333333333333333  0.6666666666666667  0.7500000000000000
  0.8333333333333333  0.6666666666666667  0.7500000000000000
  0.3333333333333333  0.1666666666666667  0.2500000000000000
  0.8333333333333333  0.1666666666666667  0.2500000000000000
  0.8333333333333333  0.6666666666666667  0.2500000000000000
  0.1666666666666667  0.3333333333333333  0.1825000000000000
  0.6666666666666667  0.3333333333333333  0.1825000000000000
  0.1666666666666667  0.8333333333333333  0.1825000000000000
  0.6666666666666667  0.8333333333333333  0.1825000000000000
  0.1666666666666667  0.3333333333333333  0.6875000000000000
  0.6666666666666667  0.3333333333333333  0.6875000000000000
  0.1666666666666667  0.8333333333333333  0.6875000000000000
  0.6666666666666667  0.8333333333333333  0.6875000000000000
  0.3333333333333333  0.1666666666666667  0.9375000000000000
  0.8333333333333333  0.1666666666666667  0.9375000000000000
  0.3333333333333333  0.6666666666666667  0.9375000000000000
  0.8333333333333333  0.6666666666666667  0.9375000000000000
  0.3333333333333333  0.1666666666666667  0.4375000000000000
  0.8333333333333333  0.1666666666666667  0.4375000000000000
  0.3333333333333333  0.6666666666666667  0.4375000000000000
  0.8333333333333333  0.6666666666666667  0.4375000000000000
  0.3333333333333333  0.6666666666666667  0.2500000000000000
  0.6666666666666667  0.8333333333333333  0.5000000000000000
