Ru Cu                                   
   1.00000000000000     
    10.8623999999999992    0.0000000000000000    0.0000000000000000
    -5.4311999999999969    9.4071143460680844    0.0000000000000000
     0.0000000000000000    0.0000000000000000   22.7112499999999962
   Ru   Cu
    96     2
Direct
  0.0831804105217883  0.1663995572338610  0.3580981285953941
  0.1665951990847844  0.0833574120649517  0.2674994711467307
  0.0831096729655656  0.1663953969354871  0.5477210417926223
  0.1668811772230122  0.0834455343729954  0.4520251744283897
  0.0833620617318476  0.1669168452948903  0.7323116865401212
  0.1665079345730547  0.0832712116064338  0.6423360237561860
  0.0832471684391043  0.4166876784855259  0.3580527534482965
  0.1666735485477212  0.3333259318639237  0.2676982732542434
  0.0832708679842711  0.4168078357289818  0.5480271984489180
  0.1666765208876405  0.3334167675740107  0.4517899286622769
  0.0841268859641242  0.4158553058982595  0.7327251852741926
  0.1658938193538360  0.3322526171003855  0.6413348955168214
  0.0832732360297298  0.6666161445100240  0.3580491120690566
  0.1664558199913869  0.5832268854708447  0.2675447773002574
  0.0833143012322900  0.6667236251027918  0.5481312648812698
  0.1665227732770760  0.5833010227842187  0.4520648920051851
  0.0844996564750419  0.6689213962015499  0.7325332167929881
  0.1667612235942789  0.5834504568690134  0.6417737484647821
  0.0832473141799440  0.9167946746749179  0.3581042542146127
  0.1666387817724354  0.8332376021539161  0.2677185673260066
  0.0832426024321985  0.9167292246608710  0.5477777053221028
  0.1665768885779406  0.8332434306557317  0.4517851936339120
  0.0834018255597990  0.9165817521418104  0.7323200105966562
  0.1673081831804543  0.8347719734886269  0.6415566446044788
  0.3333083290889815  0.1666919559985084  0.3581822047258901
  0.4167518959637778  0.0833710122989710  0.2675067765716557
  0.3332495434923900  0.1667448891909415  0.5482053487837313
  0.4165195325401666  0.0834268699212063  0.4520216344724651
  0.3332996581839845  0.1665959090124539  0.7327700765424355
  0.4166351087889049  0.0832643940145333  0.6422976792842054
  0.3334157074543446  0.4166856960242966  0.3580528259045917
  0.4167121116787122  0.3334849838988282  0.2675963873464340
  0.3333705799246673  0.4167257318964938  0.5481288641588745
  0.4166947728637830  0.3334523271430439  0.4521055788491721
  0.3308047800625225  0.4154326562915546  0.7326315009172353
  0.4165557721863319  0.3332591136547016  0.6421467929458626
  0.3333364888117671  0.6667085744214050  0.3582293601026157
  0.4166691536635591  0.5832242348015657  0.2675233670380147
  0.3332795355950123  0.6667176424530050  0.5484903439279993
  0.4167059026404941  0.5832770956204627  0.4520836174299701
  0.3332344190895023  0.6660680280441917  0.7326575133724414
  0.4165949431077218  0.5834242980836654  0.6417572880060409
  0.3335248557902157  0.9168070803718051  0.3580897475876231
  0.4166938595269985  0.8334143379734714  0.2674711075454645
  0.3334331009756384  0.9167255030864739  0.5477827722133827
  0.4165157934126109  0.8330938774000685  0.4519813685445153
  0.3330335421348552  0.9164826991670517  0.7322621541380760
  0.4166737070310784  0.8333926055926160  0.6420080494994496
  0.5831934796860329  0.1664158723799619  0.3580967192145283
  0.6666005947135761  0.0833552186600202  0.2675085894533089
  0.5830731594125268  0.1663762707680927  0.5477090946424324
  0.6668381516901674  0.0834298970578580  0.4520172492969172
  0.5833240791606832  0.1668954020476668  0.7323124325720825
  0.6664952238013265  0.0832996329458625  0.6422865482994243
  0.5832519181821209  0.4166972457441360  0.3580489461267005
  0.6666689939480186  0.3333323361389831  0.2676938264441058
  0.5832214319438911  0.4168034571399699  0.5480636261621520
  0.6666587511730965  0.3334316957273886  0.4517861954778061
  0.5841661937943547  0.4158044285810932  0.7327815072271734
  0.6658030874260721  0.3322422626099353  0.6413250543804969
  0.5832608833650426  0.6665941463346632  0.3580567612189877
  0.6664735312652642  0.5832271202348046  0.2675385519012582
  0.5833356757457945  0.6667308579086562  0.5481423135169207
  0.6664982721864917  0.5832890764697305  0.4520588078403860
  0.5845545933279914  0.6691343045251795  0.7324825816706544
  0.6667724664341870  0.5834406811755158  0.6418105024607479
  0.5832600198199756  0.9168015431951447  0.3580966474226709
  0.6666379589434217  0.8332722212363027  0.2677078552104030
  0.5832143694096357  0.9167483741752960  0.5477671584788006
  0.6665607323793491  0.8332196874830898  0.4517789205139628
  0.5834590148218429  0.9166245740668142  0.7322878233090624
  0.6673642224920969  0.8349065452219476  0.6415197928273486
  0.8333084394508659  0.1666842076073347  0.3581891966673544
  0.9167499965110341  0.0833530472118739  0.2675043044855835
  0.8332196213210648  0.1666766998184483  0.5481463074116462
  0.9165286629806789  0.0834199539873909  0.4520205052947518
  0.8333971513943654  0.1668808416152625  0.7326972922916427
  0.9166180348970226  0.0832654669973835  0.6422926684275462
  0.8334130665007103  0.4166956987343781  0.3580547758735350
  0.9167251051587942  0.3334798448240214  0.2676047083512202
  0.8333114654201744  0.4167238944734908  0.5480745024009657
  0.9167082261458169  0.3334502395895677  0.4521014413886051
  0.8307861219051913  0.4154191328931696  0.7325291537432786
  0.9165412088242606  0.3332395115247846  0.6420163872259860
  0.8333222546108853  0.6667272477641093  0.3582133594699715
  0.9166672177547648  0.5832137615514120  0.2675363528869457
  0.8332169864038933  0.6667042654989405  0.5485028597671839
  0.9167204960236015  0.5832837262338242  0.4520835911435948
  0.8332504240964004  0.6660714158261297  0.7326848224914085
  0.9166161051229633  0.5834539769269044  0.6417503033971264
  0.8335103816476944  0.9167997760225256  0.3580849883983190
  0.9166948014847348  0.8334131489596657  0.2674861932820591
  0.8334577767113843  0.9167368445877152  0.5477835041154828
  0.9165254170982643  0.8330832015053398  0.4519861436662879
  0.8330603187637140  0.9165251427406271  0.7322700793234763
  0.9166477307157327  0.8333751549537002  0.6420245347093207
  0.4983955717076750  0.5022344145068041  0.8206154592226299
  0.9967862969981603  0.5004510293526511  0.8206431517874534
 
  0.00000000E+00  0.00000000E+00  0.00000000E+00
  0.00000000E+00  0.00000000E+00  0.00000000E+00
  0.00000000E+00  0.00000000E+00  0.00000000E+00
  0.00000000E+00  0.00000000E+00  0.00000000E+00
  0.00000000E+00  0.00000000E+00  0.00000000E+00
  0.00000000E+00  0.00000000E+00  0.00000000E+00
  0.00000000E+00  0.00000000E+00  0.00000000E+00
  0.00000000E+00  0.00000000E+00  0.00000000E+00
  0.00000000E+00  0.00000000E+00  0.00000000E+00
  0.00000000E+00  0.00000000E+00  0.00000000E+00
  0.00000000E+00  0.00000000E+00  0.00000000E+00
  0.00000000E+00  0.00000000E+00  0.00000000E+00
  0.00000000E+00  0.00000000E+00  0.00000000E+00
  0.00000000E+00  0.00000000E+00  0.00000000E+00
  0.00000000E+00  0.00000000E+00  0.00000000E+00
  0.00000000E+00  0.00000000E+00  0.00000000E+00
  0.00000000E+00  0.00000000E+00  0.00000000E+00
  0.00000000E+00  0.00000000E+00  0.00000000E+00
  0.00000000E+00  0.00000000E+00  0.00000000E+00
  0.00000000E+00  0.00000000E+00  0.00000000E+00
  0.00000000E+00  0.00000000E+00  0.00000000E+00
  0.00000000E+00  0.00000000E+00  0.00000000E+00
  0.00000000E+00  0.00000000E+00  0.00000000E+00
  0.00000000E+00  0.00000000E+00  0.00000000E+00
  0.00000000E+00  0.00000000E+00  0.00000000E+00
  0.00000000E+00  0.00000000E+00  0.00000000E+00
  0.00000000E+00  0.00000000E+00  0.00000000E+00
  0.00000000E+00  0.00000000E+00  0.00000000E+00
  0.00000000E+00  0.00000000E+00  0.00000000E+00
  0.00000000E+00  0.00000000E+00  0.00000000E+00
  0.00000000E+00  0.00000000E+00  0.00000000E+00
  0.00000000E+00  0.00000000E+00  0.00000000E+00
  0.00000000E+00  0.00000000E+00  0.00000000E+00
  0.00000000E+00  0.00000000E+00  0.00000000E+00
  0.00000000E+00  0.00000000E+00  0.00000000E+00
  0.00000000E+00  0.00000000E+00  0.00000000E+00
  0.00000000E+00  0.00000000E+00  0.00000000E+00
  0.00000000E+00  0.00000000E+00  0.00000000E+00
  0.00000000E+00  0.00000000E+00  0.00000000E+00
  0.00000000E+00  0.00000000E+00  0.00000000E+00
  0.00000000E+00  0.00000000E+00  0.00000000E+00
  0.00000000E+00  0.00000000E+00  0.00000000E+00
  0.00000000E+00  0.00000000E+00  0.00000000E+00
  0.00000000E+00  0.00000000E+00  0.00000000E+00
  0.00000000E+00  0.00000000E+00  0.00000000E+00
  0.00000000E+00  0.00000000E+00  0.00000000E+00
  0.00000000E+00  0.00000000E+00  0.00000000E+00
  0.00000000E+00  0.00000000E+00  0.00000000E+00
  0.00000000E+00  0.00000000E+00  0.00000000E+00
  0.00000000E+00  0.00000000E+00  0.00000000E+00
  0.00000000E+00  0.00000000E+00  0.00000000E+00
  0.00000000E+00  0.00000000E+00  0.00000000E+00
  0.00000000E+00  0.00000000E+00  0.00000000E+00
  0.00000000E+00  0.00000000E+00  0.00000000E+00
  0.00000000E+00  0.00000000E+00  0.00000000E+00
  0.00000000E+00  0.00000000E+00  0.00000000E+00
  0.00000000E+00  0.00000000E+00  0.00000000E+00
  0.00000000E+00  0.00000000E+00  0.00000000E+00
  0.00000000E+00  0.00000000E+00  0.00000000E+00
  0.00000000E+00  0.00000000E+00  0.00000000E+00
  0.00000000E+00  0.00000000E+00  0.00000000E+00
  0.00000000E+00  0.00000000E+00  0.00000000E+00
  0.00000000E+00  0.00000000E+00  0.00000000E+00
  0.00000000E+00  0.00000000E+00  0.00000000E+00
  0.00000000E+00  0.00000000E+00  0.00000000E+00
  0.00000000E+00  0.00000000E+00  0.00000000E+00
  0.00000000E+00  0.00000000E+00  0.00000000E+00
  0.00000000E+00  0.00000000E+00  0.00000000E+00
  0.00000000E+00  0.00000000E+00  0.00000000E+00
  0.00000000E+00  0.00000000E+00  0.00000000E+00
  0.00000000E+00  0.00000000E+00  0.00000000E+00
  0.00000000E+00  0.00000000E+00  0.00000000E+00
  0.00000000E+00  0.00000000E+00  0.00000000E+00
  0.00000000E+00  0.00000000E+00  0.00000000E+00
  0.00000000E+00  0.00000000E+00  0.00000000E+00
  0.00000000E+00  0.00000000E+00  0.00000000E+00
  0.00000000E+00  0.00000000E+00  0.00000000E+00
  0.00000000E+00  0.00000000E+00  0.00000000E+00
  0.00000000E+00  0.00000000E+00  0.00000000E+00
  0.00000000E+00  0.00000000E+00  0.00000000E+00
  0.00000000E+00  0.00000000E+00  0.00000000E+00
  0.00000000E+00  0.00000000E+00  0.00000000E+00
  0.00000000E+00  0.00000000E+00  0.00000000E+00
  0.00000000E+00  0.00000000E+00  0.00000000E+00
  0.00000000E+00  0.00000000E+00  0.00000000E+00
  0.00000000E+00  0.00000000E+00  0.00000000E+00
  0.00000000E+00  0.00000000E+00  0.00000000E+00
  0.00000000E+00  0.00000000E+00  0.00000000E+00
  0.00000000E+00  0.00000000E+00  0.00000000E+00
  0.00000000E+00  0.00000000E+00  0.00000000E+00
  0.00000000E+00  0.00000000E+00  0.00000000E+00
  0.00000000E+00  0.00000000E+00  0.00000000E+00
  0.00000000E+00  0.00000000E+00  0.00000000E+00
  0.00000000E+00  0.00000000E+00  0.00000000E+00
  0.00000000E+00  0.00000000E+00  0.00000000E+00
  0.00000000E+00  0.00000000E+00  0.00000000E+00
  0.00000000E+00  0.00000000E+00  0.00000000E+00
  0.00000000E+00  0.00000000E+00  0.00000000E+00
