POSCAR                                  
   1.00000000000000     
     6.4475302299860822    0.0000000000000000    0.0000000000000000
    -3.2237651149930411    5.5934645486943708   -0.0016127341735699
     0.0000000000000000   -0.0027769950616594   10.2664899530349221
   Al   N    Sc
    12    16     4
Direct
  0.1675585778043190  0.3359287888971961  0.0026000751589761
  0.6683697110928710  0.3359287888971961  0.0026000751589761
  0.1659908898032934  0.8319822796065854  0.0027013419974938
  0.6662492372526474  0.8324989745053009  0.9970744721518532
  0.1650227860618262  0.8300460721236582  0.4922848306195751
  0.3314979828236326  0.1629954656472663  0.2419572047090810
  0.8344262502053644  0.1688520004107301  0.7602046721679719
  0.3283922774373200  0.6642219369075563  0.7548721131465077
  0.8358301594702422  0.6642219369075563  0.7548721131465077
  0.8328721590800308  0.1657438181600550  0.2374132426173080
  0.3334461695936954  0.6704336101865163  0.2420187640610584
  0.8369879405928263  0.6704336101865163  0.2420187640610584
  0.1687894441250731  0.3362166028578373  0.1897882385200291
  0.6674266587327583  0.3362166028578373  0.1897882385200291
  0.1662927863672949  0.8325860727345888  0.1864672180148839
  0.6658933614441341  0.8317872228882733  0.1849329238686835
  0.1561531479439061  0.3400932999731185  0.6994589689748855
  0.6839396520292065  0.3400932999731185  0.6994589689748855
  0.1550197461756574  0.8100399923513274  0.6830292720610920
  0.6668020645119123  0.8336046290238375  0.7073851042485720
  0.3332026398263642  0.1664047796527155  0.9561554274609032
  0.8341345857501932  0.1682686715003877  0.9479853749914651
  0.3311945054468037  0.6674701896322230  0.9433246049885869
  0.8362761841854249  0.6674701896322230  0.9433246049885869
  0.3237178658786113  0.1474352317572094  0.4301814933435019
  0.8319097299988906  0.1638189599977755  0.4199901359416282
  0.3274521972890990  0.6790350975354986  0.4264043981103418
  0.8515834002464129  0.6790350975354986  0.4264043981103418
  0.1642088390034940  0.3356944525835073  0.4922842483970664
  0.6714851135800147  0.3356944525835073  0.4922842483970664
  0.3299992996094501  0.1599980992188874  0.7531549177311944
  0.6678746366372437  0.8357497732744941  0.4975795453598885
 
  0.00000000E+00  0.00000000E+00  0.00000000E+00
  0.00000000E+00  0.00000000E+00  0.00000000E+00
  0.00000000E+00  0.00000000E+00  0.00000000E+00
  0.00000000E+00  0.00000000E+00  0.00000000E+00
  0.00000000E+00  0.00000000E+00  0.00000000E+00
  0.00000000E+00  0.00000000E+00  0.00000000E+00
  0.00000000E+00  0.00000000E+00  0.00000000E+00
  0.00000000E+00  0.00000000E+00  0.00000000E+00
  0.00000000E+00  0.00000000E+00  0.00000000E+00
  0.00000000E+00  0.00000000E+00  0.00000000E+00
  0.00000000E+00  0.00000000E+00  0.00000000E+00
  0.00000000E+00  0.00000000E+00  0.00000000E+00
  0.00000000E+00  0.00000000E+00  0.00000000E+00
  0.00000000E+00  0.00000000E+00  0.00000000E+00
  0.00000000E+00  0.00000000E+00  0.00000000E+00
  0.00000000E+00  0.00000000E+00  0.00000000E+00
  0.00000000E+00  0.00000000E+00  0.00000000E+00
  0.00000000E+00  0.00000000E+00  0.00000000E+00
  0.00000000E+00  0.00000000E+00  0.00000000E+00
  0.00000000E+00  0.00000000E+00  0.00000000E+00
  0.00000000E+00  0.00000000E+00  0.00000000E+00
  0.00000000E+00  0.00000000E+00  0.00000000E+00
  0.00000000E+00  0.00000000E+00  0.00000000E+00
  0.00000000E+00  0.00000000E+00  0.00000000E+00
  0.00000000E+00  0.00000000E+00  0.00000000E+00
  0.00000000E+00  0.00000000E+00  0.00000000E+00
  0.00000000E+00  0.00000000E+00  0.00000000E+00
  0.00000000E+00  0.00000000E+00  0.00000000E+00
  0.00000000E+00  0.00000000E+00  0.00000000E+00
  0.00000000E+00  0.00000000E+00  0.00000000E+00
  0.00000000E+00  0.00000000E+00  0.00000000E+00
  0.00000000E+00  0.00000000E+00  0.00000000E+00
