Ta  N Ru                                
   1.00000000000000     
    10.4555999800000006    0.0000000000000000    0.0000000000000000
     0.0000000000000000   11.6775998899999998    0.0000000000000000
     0.0000000000000000    0.0000000000000000   24.0732377500000005
   Ta   N    Ru
    64    64     2
Selective dynamics
Direct
  0.4991785186325330  0.1250000003211298  0.3753726828051569   F   F   F
  0.2600588226580172  0.1250000003211298  0.3190980514078845   F   F   F
  0.2470962603561304  0.0000000000000000  0.4358978840493251   F   F   F
  0.2470774457715297  0.1248790835681354  0.5619579841297638   T   T   T
  0.9987318957883426  0.1251337096124043  0.5007034467106520   T   T   T
  0.9949302424689029  0.0000550212576237  0.6279810747784141   T   T   T
  0.4980795908925907  0.1289838065820080  0.7434564375142741   T   T   T
  0.2515007074605911  0.1266768331306860  0.6868148499297083   T   T   T
  0.4991785186325330  0.3750000001070433  0.3753726828051569   F   F   F
  0.2600588226580172  0.3750000001070433  0.3190980514078845   F   F   F
  0.2470962603561304  0.2499999997859135  0.4358978840493251   F   F   F
  0.2470872463914385  0.3751832558890421  0.5619610338747525   T   T   T
  0.9987375428988949  0.3749096365536815  0.5007014302854845   T   T   T
  0.9943302221749831  0.2500430073714967  0.6287183217171204   T   T   T
  0.4980715409626265  0.3711642415699754  0.7434445757702762   T   T   T
  0.2514988393256516  0.3734304321021349  0.6868138481108734   T   T   T
  0.4991785186325330  0.6249999998929567  0.3753726828051569   F   F   F
  0.2600588226580172  0.6249999998929567  0.3190980514078845   F   F   F
  0.2470962603561304  0.5000000004281731  0.4358978840493251   F   F   F
  0.2470816122507286  0.6248751300592839  0.5619591875483880   T   T   T
  0.9987357752011190  0.6251369175360549  0.5007009065416926   T   T   T
  0.9949264035902219  0.5000522723841379  0.6279757420878139   T   T   T
  0.4980849605573104  0.6289804404040681  0.7434524794034985   T   T   T
  0.2515056354710711  0.6266814227248323  0.6868133072641185   T   T   T
  0.4991785186325330  0.8750000005352163  0.3753726828051569   F   F   F
  0.2600588226580172  0.8750000005352163  0.3190980514078845   F   F   F
  0.2470962603561304  0.7500000002140865  0.4358978840493251   F   F   F
  0.2470908848441726  0.8751846746304160  0.5619639460694259   T   T   T
  0.9987358221893896  0.8749147202312835  0.5007025002135689   T   T   T
  0.9943328274584016  0.7500489618488635  0.6287173661152419   T   T   T
  0.4980779841741130  0.8711633009991300  0.7434483503942089   T   T   T
  0.2514987764406152  0.8734269402946589  0.6868175257816984   T   T   T
  0.9991784928090510  0.1250000003211298  0.3753726828051569   F   F   F
  0.7600587968345351  0.1250000003211298  0.3190980514078845   F   F   F
  0.7470962345326484  0.0000000000000000  0.4358978840493251   F   F   F
  0.7503674956916019  0.1249953136151215  0.5624823114225402   T   T   T
  0.4990318908277251  0.1248238178913512  0.5000265809448757   T   T   T
  0.4994197187756254  0.0000545979278868  0.6241938913682185   T   T   T
  0.0133874054147207  0.1223787760112314  0.7446198093021043   T   T   T
  0.7455568661322151  0.1239065885116299  0.6893355046503589   T   T   T
  0.9991784928090510  0.3750000001070433  0.3753726828051569   F   F   F
  0.7600587968345351  0.3750000001070433  0.3190980514078845   F   F   F
  0.7470962345326484  0.2499999997859135  0.4358978840493251   F   F   F
  0.7503699426191950  0.3750912115543413  0.5624825301086614   T   T   T
  0.4990318589173453  0.3752239268321723  0.5000260653218382   T   T   T
  0.5030056523966335  0.2500470342221334  0.6210510824489585   T   T   T
  0.0133740780508310  0.3777242434528365  0.7446105948537866   T   T   T
  0.7455499883058758  0.3762327640013566  0.6893328892720428   T   T   T
  0.9991784928090510  0.6249999998929567  0.3753726828051569   F   F   F
  0.7600587968345351  0.6249999998929567  0.3190980514078845   F   F   F
  0.7470962345326484  0.5000000004281731  0.4358978840493251   F   F   F
  0.7503746085655013  0.6249963800139104  0.5624837021263843   T   T   T
  0.4990333990093613  0.6248265755887590  0.5000243506714858   T   T   T
  0.4994248917840199  0.5000517444204172  0.6241883789998627   T   T   T
  0.0133856534429108  0.6223907662051333  0.7446130697597515   T   T   T
  0.7455717016371703  0.6239030073815713  0.6893340934359315   T   T   T
  0.9991784928090439  0.8750000005352163  0.3753726828051569   F   F   F
  0.7600587968345351  0.8750000005352163  0.3190980514078845   F   F   F
  0.7470962345326484  0.7500000002140865  0.4358978840493251   F   F   F
  0.7503700705597472  0.8750926581897855  0.5624847358424999   T   T   T
  0.4990326455906105  0.8752247629921076  0.5000258013559112   T   T   T
  0.5030001059630125  0.7500470657494123  0.6210589794707004   T   T   T
  0.0133729988814105  0.8777156395716762  0.7446136059984204   T   T   T
  0.7455434728848961  0.8762356104172374  0.6893365385238545   T   T   T
  0.1472195596423447  0.0000000000000000  0.3601606351366584   F   F   F
  0.4003222342624682  0.0000000000000000  0.3237632067519129   F   F   F
  0.4439214822817661  0.0000000000000000  0.4377276028165085   F   F   F
  0.3996740275805579  0.0000345060898060  0.5508922549040528   T   T   T
  0.1503388980714526  0.0000234123253252  0.5101756488470949   T   T   T
  0.1918445542906894  0.0000453749198029  0.6246053887601514   T   T   T
  0.1523662367879217  0.0000542068374224  0.7376804864790938   T   T   T
  0.3983337475685590  0.0000730138467700  0.6982804094939138   T   T   T
  0.1472195596423447  0.2499999997859135  0.3601606351366584   F   F   F
  0.4003222342624682  0.2499999997859135  0.3237632067519129   F   F   F
  0.4439214822817661  0.2499999997859135  0.4377276028165085   F   F   F
  0.3986080024300943  0.2500325037207380  0.5496866802066915   T   T   T
  0.1502240341028099  0.2500191898157215  0.5102276567149940   T   T   T
  0.1907230707895345  0.2500492893731485  0.6245772222639198   T   T   T
  0.1624110386427453  0.2500570429210917  0.7421189080586585   T   T   T
  0.4035716472331735  0.2500570650961963  0.6910355321247967   T   T   T
  0.1472195596423447  0.5000000004281731  0.3601606351366584   F   F   F
  0.4003222342624682  0.5000000004281731  0.3237632067519129   F   F   F
  0.4439214822817661  0.5000000004281731  0.4377276028165085   F   F   F
  0.3996750160524300  0.5000325111356639  0.5508879791420213   T   T   T
  0.1503379579262799  0.5000216758685276  0.5101726108577243   T   T   T
  0.1918533074935535  0.5000455590006908  0.6246002737529800   T   T   T
  0.1523762302380740  0.5000543101489706  0.7376752592014755   T   T   T
  0.3983376821418903  0.5000651763012128  0.6982715087772637   T   T   T
  0.1472195596423447  0.7500000002140865  0.3601606351366584   F   F   F
  0.4003222342624682  0.7500000002140865  0.3237632067519129   F   F   F
  0.4439214822817661  0.7500000002140865  0.4377276028165085   F   F   F
  0.3986049482796344  0.7500331605916172  0.5496847931195241   T   T   T
  0.1502220857672687  0.7500244751226026  0.5102272465523765   T   T   T
  0.1907210318340418  0.7500554631989530  0.6245727102874485   T   T   T
  0.1624093387631358  0.7500507396215421  0.7421182175839860   T   T   T
  0.4035762109328423  0.7500645323469733  0.6910312159235013   T   T   T
  0.6472195338188556  0.0000000000000000  0.3601606351366584   F   F   F
  0.9003222591295312  0.0000000000000000  0.3237632067519129   F   F   F
  0.9439215071488221  0.0000000000000000  0.4377276028165085   F   F   F
  0.9019938924324817  0.0000363740713336  0.5525172771982075   T   T   T
  0.6516971570239248  0.0000301553458330  0.5107340686091626   T   T   T
  0.6961526568116960  0.0000575898790113  0.6254343143014414   T   T   T
  0.6438528497355268  0.0000684282975139  0.7407527070237144   T   T   T
  0.8945295974006897  0.0000633190646336  0.7044564188498267   T   T   T
  0.6472195338188556  0.2499999997859135  0.3601606351366584   F   F   F
  0.9003222591295312  0.2499999997859135  0.3237632067519129   F   F   F
  0.9439215071488221  0.2499999997859135  0.4377276028165085   F   F   F
  0.9021203106988264  0.2500344530171223  0.5527127317549880   T   T   T
  0.6515555879884321  0.2500295387098374  0.5107902357471644   T   T   T
  0.6995510815471644  0.2500586281902926  0.6254095803728059   T   T   T
  0.6432812676306098  0.2500809504371780  0.7385625768590693   T   T   T
  0.8951559913752013  0.2500645801408887  0.7063062580170405   T   T   T
  0.6472195338188556  0.5000000004281731  0.3601606351366584   F   F   F
  0.9003222591295312  0.5000000004281731  0.3237632067519129   F   F   F
  0.9439215071488221  0.5000000004281731  0.4377276028165085   F   F   F
  0.9019935015178886  0.5000350088935561  0.5525161035386741   T   T   T
  0.6516993426032304  0.5000300265708695  0.5107346147284741   T   T   T
  0.6961595033359465  0.5000554678676266  0.6254281231159375   T   T   T
  0.6438520210833920  0.5000680176673918  0.7407486979771428   T   T   T
  0.8945286207741808  0.5000656402274493  0.7044481552080083   T   T   T
  0.6472195338188556  0.7500000002140865  0.3601606351366584   F   F   F
  0.9003222591295312  0.7500000002140865  0.3237632067519129   F   F   F
  0.9439215071488221  0.7500000002140865  0.4377276028165085   F   F   F
  0.9021218824763718  0.7500374428748370  0.5527134316240599   T   T   T
  0.6515570375927650  0.7500312475249020  0.5107906715539549   T   T   T
  0.6995622359740206  0.7500581243717745  0.6254105747925701   T   T   T
  0.6432894739989776  0.7500728228048226  0.7385607379300220   T   T   T
  0.8951659125561197  0.7500526999477092  0.7063065461620182   T   T   T
  0.3184538692647547  0.2500192698157067  0.7939614596702096   T   T   T
  0.3184547141097256  0.7500162172348314  0.7939572600588202   T   T   T
 
  0.00000000E+00  0.00000000E+00  0.00000000E+00
  0.00000000E+00  0.00000000E+00  0.00000000E+00
  0.00000000E+00  0.00000000E+00  0.00000000E+00
  0.00000000E+00  0.00000000E+00  0.00000000E+00
  0.00000000E+00  0.00000000E+00  0.00000000E+00
  0.00000000E+00  0.00000000E+00  0.00000000E+00
  0.00000000E+00  0.00000000E+00  0.00000000E+00
  0.00000000E+00  0.00000000E+00  0.00000000E+00
  0.00000000E+00  0.00000000E+00  0.00000000E+00
  0.00000000E+00  0.00000000E+00  0.00000000E+00
  0.00000000E+00  0.00000000E+00  0.00000000E+00
  0.00000000E+00  0.00000000E+00  0.00000000E+00
  0.00000000E+00  0.00000000E+00  0.00000000E+00
  0.00000000E+00  0.00000000E+00  0.00000000E+00
  0.00000000E+00  0.00000000E+00  0.00000000E+00
  0.00000000E+00  0.00000000E+00  0.00000000E+00
  0.00000000E+00  0.00000000E+00  0.00000000E+00
  0.00000000E+00  0.00000000E+00  0.00000000E+00
  0.00000000E+00  0.00000000E+00  0.00000000E+00
  0.00000000E+00  0.00000000E+00  0.00000000E+00
  0.00000000E+00  0.00000000E+00  0.00000000E+00
  0.00000000E+00  0.00000000E+00  0.00000000E+00
  0.00000000E+00  0.00000000E+00  0.00000000E+00
  0.00000000E+00  0.00000000E+00  0.00000000E+00
  0.00000000E+00  0.00000000E+00  0.00000000E+00
  0.00000000E+00  0.00000000E+00  0.00000000E+00
  0.00000000E+00  0.00000000E+00  0.00000000E+00
  0.00000000E+00  0.00000000E+00  0.00000000E+00
  0.00000000E+00  0.00000000E+00  0.00000000E+00
  0.00000000E+00  0.00000000E+00  0.00000000E+00
  0.00000000E+00  0.00000000E+00  0.00000000E+00
  0.00000000E+00  0.00000000E+00  0.00000000E+00
  0.00000000E+00  0.00000000E+00  0.00000000E+00
  0.00000000E+00  0.00000000E+00  0.00000000E+00
  0.00000000E+00  0.00000000E+00  0.00000000E+00
  0.00000000E+00  0.00000000E+00  0.00000000E+00
  0.00000000E+00  0.00000000E+00  0.00000000E+00
  0.00000000E+00  0.00000000E+00  0.00000000E+00
  0.00000000E+00  0.00000000E+00  0.00000000E+00
  0.00000000E+00  0.00000000E+00  0.00000000E+00
  0.00000000E+00  0.00000000E+00  0.00000000E+00
  0.00000000E+00  0.00000000E+00  0.00000000E+00
  0.00000000E+00  0.00000000E+00  0.00000000E+00
  0.00000000E+00  0.00000000E+00  0.00000000E+00
  0.00000000E+00  0.00000000E+00  0.00000000E+00
  0.00000000E+00  0.00000000E+00  0.00000000E+00
  0.00000000E+00  0.00000000E+00  0.00000000E+00
  0.00000000E+00  0.00000000E+00  0.00000000E+00
  0.00000000E+00  0.00000000E+00  0.00000000E+00
  0.00000000E+00  0.00000000E+00  0.00000000E+00
  0.00000000E+00  0.00000000E+00  0.00000000E+00
  0.00000000E+00  0.00000000E+00  0.00000000E+00
  0.00000000E+00  0.00000000E+00  0.00000000E+00
  0.00000000E+00  0.00000000E+00  0.00000000E+00
  0.00000000E+00  0.00000000E+00  0.00000000E+00
  0.00000000E+00  0.00000000E+00  0.00000000E+00
  0.00000000E+00  0.00000000E+00  0.00000000E+00
  0.00000000E+00  0.00000000E+00  0.00000000E+00
  0.00000000E+00  0.00000000E+00  0.00000000E+00
  0.00000000E+00  0.00000000E+00  0.00000000E+00
  0.00000000E+00  0.00000000E+00  0.00000000E+00
  0.00000000E+00  0.00000000E+00  0.00000000E+00
  0.00000000E+00  0.00000000E+00  0.00000000E+00
  0.00000000E+00  0.00000000E+00  0.00000000E+00
  0.00000000E+00  0.00000000E+00  0.00000000E+00
  0.00000000E+00  0.00000000E+00  0.00000000E+00
  0.00000000E+00  0.00000000E+00  0.00000000E+00
  0.00000000E+00  0.00000000E+00  0.00000000E+00
  0.00000000E+00  0.00000000E+00  0.00000000E+00
  0.00000000E+00  0.00000000E+00  0.00000000E+00
  0.00000000E+00  0.00000000E+00  0.00000000E+00
  0.00000000E+00  0.00000000E+00  0.00000000E+00
  0.00000000E+00  0.00000000E+00  0.00000000E+00
  0.00000000E+00  0.00000000E+00  0.00000000E+00
  0.00000000E+00  0.00000000E+00  0.00000000E+00
  0.00000000E+00  0.00000000E+00  0.00000000E+00
  0.00000000E+00  0.00000000E+00  0.00000000E+00
  0.00000000E+00  0.00000000E+00  0.00000000E+00
  0.00000000E+00  0.00000000E+00  0.00000000E+00
  0.00000000E+00  0.00000000E+00  0.00000000E+00
  0.00000000E+00  0.00000000E+00  0.00000000E+00
  0.00000000E+00  0.00000000E+00  0.00000000E+00
  0.00000000E+00  0.00000000E+00  0.00000000E+00
  0.00000000E+00  0.00000000E+00  0.00000000E+00
  0.00000000E+00  0.00000000E+00  0.00000000E+00
  0.00000000E+00  0.00000000E+00  0.00000000E+00
  0.00000000E+00  0.00000000E+00  0.00000000E+00
  0.00000000E+00  0.00000000E+00  0.00000000E+00
  0.00000000E+00  0.00000000E+00  0.00000000E+00
  0.00000000E+00  0.00000000E+00  0.00000000E+00
  0.00000000E+00  0.00000000E+00  0.00000000E+00
  0.00000000E+00  0.00000000E+00  0.00000000E+00
  0.00000000E+00  0.00000000E+00  0.00000000E+00
  0.00000000E+00  0.00000000E+00  0.00000000E+00
  0.00000000E+00  0.00000000E+00  0.00000000E+00
  0.00000000E+00  0.00000000E+00  0.00000000E+00
  0.00000000E+00  0.00000000E+00  0.00000000E+00
  0.00000000E+00  0.00000000E+00  0.00000000E+00
  0.00000000E+00  0.00000000E+00  0.00000000E+00
  0.00000000E+00  0.00000000E+00  0.00000000E+00
  0.00000000E+00  0.00000000E+00  0.00000000E+00
  0.00000000E+00  0.00000000E+00  0.00000000E+00
  0.00000000E+00  0.00000000E+00  0.00000000E+00
  0.00000000E+00  0.00000000E+00  0.00000000E+00
  0.00000000E+00  0.00000000E+00  0.00000000E+00
  0.00000000E+00  0.00000000E+00  0.00000000E+00
  0.00000000E+00  0.00000000E+00  0.00000000E+00
  0.00000000E+00  0.00000000E+00  0.00000000E+00
  0.00000000E+00  0.00000000E+00  0.00000000E+00
  0.00000000E+00  0.00000000E+00  0.00000000E+00
  0.00000000E+00  0.00000000E+00  0.00000000E+00
  0.00000000E+00  0.00000000E+00  0.00000000E+00
  0.00000000E+00  0.00000000E+00  0.00000000E+00
  0.00000000E+00  0.00000000E+00  0.00000000E+00
  0.00000000E+00  0.00000000E+00  0.00000000E+00
  0.00000000E+00  0.00000000E+00  0.00000000E+00
  0.00000000E+00  0.00000000E+00  0.00000000E+00
  0.00000000E+00  0.00000000E+00  0.00000000E+00
  0.00000000E+00  0.00000000E+00  0.00000000E+00
  0.00000000E+00  0.00000000E+00  0.00000000E+00
  0.00000000E+00  0.00000000E+00  0.00000000E+00
  0.00000000E+00  0.00000000E+00  0.00000000E+00
  0.00000000E+00  0.00000000E+00  0.00000000E+00
  0.00000000E+00  0.00000000E+00  0.00000000E+00
  0.00000000E+00  0.00000000E+00  0.00000000E+00
  0.00000000E+00  0.00000000E+00  0.00000000E+00
  0.00000000E+00  0.00000000E+00  0.00000000E+00
  0.00000000E+00  0.00000000E+00  0.00000000E+00
  0.00000000E+00  0.00000000E+00  0.00000000E+00
  0.00000000E+00  0.00000000E+00  0.00000000E+00
