Mo  S Cu                                
   1.00000000000000     
    15.9214998300000001    0.0000000000000000    0.0000000000000000
    -7.9622501300000001   13.7910221699999997    0.0000000000000000
     0.0000000000000000    0.0000000000000000   13.5821998300000004
   Mo   S    Cu
    25    50     3
Direct
  0.1323930726747591  0.0657691688697071  0.6788044863715541
  0.1311602080660066  0.2652619079767362  0.6793248699927688
  0.1326548851375051  0.4657524201838612  0.6789525231513736
  0.1327070858027213  0.6658817977163238  0.6788415055436303
  0.1327089752606483  0.8659036060255332  0.6787677342016210
  0.3328716290543952  0.0657645141234369  0.6788273508610629
  0.3330538527659144  0.2661721556556174  0.6781107908530473
  0.3326330854804382  0.4659429201716989  0.6789862302448242
  0.3326525545782317  0.6660582909337762  0.6788561601406755
  0.3326449891764227  0.8657857226638299  0.6787971165386040
  0.5328747359011032  0.0656770578022190  0.6788843950603294
  0.5335936077816115  0.2652809318468101  0.6793757358870849
  0.5327318437499216  0.4657698094020972  0.6791362985756493
  0.5328831523459812  0.6662172539432802  0.6789260034930678
  0.5326961100919547  0.8657909322983244  0.6787218569618645
  0.7326204104264988  0.0657191097679615  0.6787696233517906
  0.7326791209404107  0.2656566683111521  0.6788766480942883
  0.7326063262914602  0.4657408779842882  0.6790600572949970
  0.7329570783553052  0.6660894311250090  0.6789198173975848
  0.7326418551875449  0.8658008217161921  0.6787343160952801
  0.9322805382284969  0.0656399982250946  0.6788554874248121
  0.9325069679331719  0.2656572764648217  0.6788397837968532
  0.9326266111794794  0.4657359511498242  0.6788525141168833
  0.9326987423233604  0.6658740973757205  0.6788609835450004
  0.9326761773060213  0.8657687038392226  0.6788024734939668
  0.0656831298374314  0.1323245947422791  0.5638308861977492
  0.0652326232493081  0.1316636940755771  0.7941168139846155
  0.0657471383657651  0.3324530011944304  0.5637446477255281
  0.0654303629943200  0.3325684729535396  0.7942942924530882
  0.0660405390362797  0.5324707379650349  0.5639016144101703
  0.0659876891466880  0.5325431921274841  0.7938589658781439
  0.0660160380335171  0.7325070922782899  0.5638244751535311
  0.0660636590914905  0.7325771827330598  0.7938189954712911
  0.0659846167588540  0.9325429481722409  0.5637578263804528
  0.0659848068475029  0.9324780438633766  0.7938277633771307
  0.2660825130497955  0.1325844285669646  0.5637671311917529
  0.2661422207199848  0.1327080496430426  0.7933656507295765
  0.2650622709601720  0.3321243884347993  0.5641850177802539
  0.2647799257623973  0.3326989974831420  0.7941325614591577
  0.2661783679322980  0.5325788210088973  0.5638662812494744
  0.2660597762783681  0.5326582014095536  0.7941282759476280
  0.2659645836308968  0.7325273014128868  0.5637249168625971
  0.2659242376404407  0.7325947240377388  0.7939858893156213
  0.2661075227247878  0.9325496566789724  0.5637644365311942
  0.2660313311700122  0.9324579418005428  0.7938352679104526
  0.4661785100247471  0.1323558098187547  0.5638684706776758
  0.4659472666220310  0.1316532488105508  0.7941873712704179
  0.4668247610101730  0.3321856852957339  0.5640889504136766
  0.4675005846092972  0.3325656337612131  0.7943900039354972
  0.4660953531451284  0.5325018565216553  0.5640687418775698
  0.4663509717679801  0.5332634885867407  0.7942094502386610
  0.4659471432311761  0.7324706173211624  0.5638201815129449
  0.4659832528709273  0.7327330352908774  0.7938457546335584
  0.4660531417107734  0.9324587142278062  0.5637570382733941
  0.4660501874917102  0.9323140071378546  0.7938019247309427
  0.6660870655257369  0.1324007968711314  0.5637351864847844
  0.6661509085490778  0.1322941645735298  0.7939739754768240
  0.6662386675506653  0.3324613919040686  0.5638281271645624
  0.6666803310967069  0.3325351234223035  0.7943804449849523
  0.6658857268796226  0.5325355583754288  0.5640274272482415
  0.6661511798502744  0.5326680251104321  0.7942191311829632
  0.6660944670313569  0.7324695980911997  0.5638444013241468
  0.6662921191065720  0.7327538161007965  0.7938720176181420
  0.6660090994371544  0.9324588982268196  0.5636667922767558
  0.6660041172499973  0.9324573599894990  0.7938289007746206
  0.8658347991930029  0.1323947562133938  0.5637120568696545
  0.8656888921433250  0.1323033537204807  0.7939531742652903
  0.8659396899493430  0.3323680688965709  0.5638202422763925
  0.8659844724565389  0.3323941574268261  0.7938369617707295
  0.8659117736143074  0.5324449940920175  0.5639407832090484
  0.8661328564775843  0.5325498176332744  0.7939018836181901
  0.8660844498508595  0.7325018838024420  0.5637478265592222
  0.8662464377986652  0.7326136971718711  0.7940226864811777
  0.8659351188912368  0.9324174165349888  0.5637455620552885
  0.8658211222300380  0.9323127939318852  0.7938060447888518
  0.2957918337017347  0.3436307845993412  0.9513625361298494
  0.4474855360028300  0.3419823467501146  0.9519865356516632
  0.3783064492059864  0.3569014737148350  0.0966603057299693
 
  0.00000000E+00  0.00000000E+00  0.00000000E+00
  0.00000000E+00  0.00000000E+00  0.00000000E+00
  0.00000000E+00  0.00000000E+00  0.00000000E+00
  0.00000000E+00  0.00000000E+00  0.00000000E+00
  0.00000000E+00  0.00000000E+00  0.00000000E+00
  0.00000000E+00  0.00000000E+00  0.00000000E+00
  0.00000000E+00  0.00000000E+00  0.00000000E+00
  0.00000000E+00  0.00000000E+00  0.00000000E+00
  0.00000000E+00  0.00000000E+00  0.00000000E+00
  0.00000000E+00  0.00000000E+00  0.00000000E+00
  0.00000000E+00  0.00000000E+00  0.00000000E+00
  0.00000000E+00  0.00000000E+00  0.00000000E+00
  0.00000000E+00  0.00000000E+00  0.00000000E+00
  0.00000000E+00  0.00000000E+00  0.00000000E+00
  0.00000000E+00  0.00000000E+00  0.00000000E+00
  0.00000000E+00  0.00000000E+00  0.00000000E+00
  0.00000000E+00  0.00000000E+00  0.00000000E+00
  0.00000000E+00  0.00000000E+00  0.00000000E+00
  0.00000000E+00  0.00000000E+00  0.00000000E+00
  0.00000000E+00  0.00000000E+00  0.00000000E+00
  0.00000000E+00  0.00000000E+00  0.00000000E+00
  0.00000000E+00  0.00000000E+00  0.00000000E+00
  0.00000000E+00  0.00000000E+00  0.00000000E+00
  0.00000000E+00  0.00000000E+00  0.00000000E+00
  0.00000000E+00  0.00000000E+00  0.00000000E+00
  0.00000000E+00  0.00000000E+00  0.00000000E+00
  0.00000000E+00  0.00000000E+00  0.00000000E+00
  0.00000000E+00  0.00000000E+00  0.00000000E+00
  0.00000000E+00  0.00000000E+00  0.00000000E+00
  0.00000000E+00  0.00000000E+00  0.00000000E+00
  0.00000000E+00  0.00000000E+00  0.00000000E+00
  0.00000000E+00  0.00000000E+00  0.00000000E+00
  0.00000000E+00  0.00000000E+00  0.00000000E+00
  0.00000000E+00  0.00000000E+00  0.00000000E+00
  0.00000000E+00  0.00000000E+00  0.00000000E+00
  0.00000000E+00  0.00000000E+00  0.00000000E+00
  0.00000000E+00  0.00000000E+00  0.00000000E+00
  0.00000000E+00  0.00000000E+00  0.00000000E+00
  0.00000000E+00  0.00000000E+00  0.00000000E+00
  0.00000000E+00  0.00000000E+00  0.00000000E+00
  0.00000000E+00  0.00000000E+00  0.00000000E+00
  0.00000000E+00  0.00000000E+00  0.00000000E+00
  0.00000000E+00  0.00000000E+00  0.00000000E+00
  0.00000000E+00  0.00000000E+00  0.00000000E+00
  0.00000000E+00  0.00000000E+00  0.00000000E+00
  0.00000000E+00  0.00000000E+00  0.00000000E+00
  0.00000000E+00  0.00000000E+00  0.00000000E+00
  0.00000000E+00  0.00000000E+00  0.00000000E+00
  0.00000000E+00  0.00000000E+00  0.00000000E+00
  0.00000000E+00  0.00000000E+00  0.00000000E+00
  0.00000000E+00  0.00000000E+00  0.00000000E+00
  0.00000000E+00  0.00000000E+00  0.00000000E+00
  0.00000000E+00  0.00000000E+00  0.00000000E+00
  0.00000000E+00  0.00000000E+00  0.00000000E+00
  0.00000000E+00  0.00000000E+00  0.00000000E+00
  0.00000000E+00  0.00000000E+00  0.00000000E+00
  0.00000000E+00  0.00000000E+00  0.00000000E+00
  0.00000000E+00  0.00000000E+00  0.00000000E+00
  0.00000000E+00  0.00000000E+00  0.00000000E+00
  0.00000000E+00  0.00000000E+00  0.00000000E+00
  0.00000000E+00  0.00000000E+00  0.00000000E+00
  0.00000000E+00  0.00000000E+00  0.00000000E+00
  0.00000000E+00  0.00000000E+00  0.00000000E+00
  0.00000000E+00  0.00000000E+00  0.00000000E+00
  0.00000000E+00  0.00000000E+00  0.00000000E+00
  0.00000000E+00  0.00000000E+00  0.00000000E+00
  0.00000000E+00  0.00000000E+00  0.00000000E+00
  0.00000000E+00  0.00000000E+00  0.00000000E+00
  0.00000000E+00  0.00000000E+00  0.00000000E+00
  0.00000000E+00  0.00000000E+00  0.00000000E+00
  0.00000000E+00  0.00000000E+00  0.00000000E+00
  0.00000000E+00  0.00000000E+00  0.00000000E+00
  0.00000000E+00  0.00000000E+00  0.00000000E+00
  0.00000000E+00  0.00000000E+00  0.00000000E+00
  0.00000000E+00  0.00000000E+00  0.00000000E+00
  0.00000000E+00  0.00000000E+00  0.00000000E+00
  0.00000000E+00  0.00000000E+00  0.00000000E+00
  0.00000000E+00  0.00000000E+00  0.00000000E+00
