Ta N Cu                                 
   1.00000000000000     
    18.1096308199999996    0.0000000000000000    0.0000000000000000
     0.0000000000000000   11.6775998899999998    0.0000000000000000
     0.0000000000000000    0.0000000000000000   23.4818170799999990
   Ta   N    Cu
   120   120     1
Direct
 -0.0001683272424073 -0.0004526137178985  0.2548655021345536
  0.3331864104888996  0.1245570018949186  0.2638928317083364
  0.1662484283929705  0.1246546718343860  0.2639767821906169
  0.2498327462053534  0.2496007756982581  0.3615795430714174
  0.0823468829069839  0.1246568414292277  0.3686112517771712
  0.4171760902275620  0.1245878443340280  0.3685044247492366
 -0.0000534271163742  0.2495750210442099  0.4799820152791418
  0.3323053630020755  0.1246223330933728  0.4784402804391475
  0.1675670683564975  0.1245537308041147  0.4783434569548388
  0.2502133858272288  0.2493882927552269  0.5912062058611083
  0.0836758434608035  0.1244699109209682  0.5898914168959609
  0.4163902045572562  0.1243572646767454  0.5900563638180069
 -0.0004367563969007  0.2494625755278897  0.7022948545333607
  0.3345614116865195  0.1226679816774667  0.7049171577317039
  0.1642583021737069  0.1241804184774369  0.7041963589121372
 -0.0000919919482274  0.2495723725424946  0.2548522646342589
  0.3332867530954648  0.3746360397064767  0.2638569668776904
  0.1661183743285972  0.3746867515610282  0.2639573026252858
  0.2498260941875016  0.4996003704347559  0.3615565613702156
  0.0823592239480146  0.3746401638248996  0.3685905755734955
  0.4171264574532279  0.3745857143964139  0.3685509203124619
 -0.0000766634680056  0.4994695212766286  0.4799727370467226
  0.3324370068791492  0.3745490469565942  0.4784645226025881
  0.1676082096695828  0.3745374426364333  0.4782354752424657
  0.2502087659231277  0.4995882594474175  0.5912236023574762
  0.0835612330737220  0.3744512825598388  0.5900049059843465
  0.4165967003147443  0.3745016130125218  0.5902994126099506
 -0.0004905508890944  0.4992710312223470  0.7023174315631829
  0.3314805362552481  0.3744320425861968  0.7022832984075463
  0.1635273522503455  0.3742962982207267  0.7043810273247552
 -0.0001583607764541  0.4996472154723195  0.2548524665139240
  0.3331647068393419  0.6245562618063281  0.2639008469080087
  0.1662509365364077  0.6245384048627954  0.2639708391980118
  0.2497995637070433  0.7495994404159609  0.3615674979919297
  0.0823541030462820  0.6246389714284489  0.3685958744835520
  0.4171485914509981  0.6245664203177861  0.3685013233370438
 -0.0000686051057039  0.7494804437557587  0.4799508141406251
  0.3323051807511379  0.6245575380297620  0.4784669156026897
  0.1675547175117776  0.6245129334273279  0.4783448460331129
  0.2500912021395127  0.7495443214963464  0.5910485580528420
  0.0836831518805944  0.6244227044094824  0.5899076989566033
  0.4164462127433676  0.6246324621157854  0.5901118377493172
 -0.0002164124039736  0.7495236687975194  0.7023287840680862
  0.3345689926575626  0.6260572842567603  0.7049721375066097
  0.1642396546769622  0.6243931443212443  0.7042118191077101
 -0.0000987358490513  0.7496554652591789  0.2548706503188745
  0.3331440500386456  0.8746735544513438  0.2638946467608003
  0.1662565003424049  0.8746945448944351  0.2639274197742140
  0.2497921505983044 -0.0004033088264531  0.3615503883093119
  0.0823746256603666  0.8746419615835407  0.3685975128161050
  0.4171495055932182  0.8745651347194470  0.3684921823655914
 -0.0000542834348323 -0.0004966012386622  0.4799567282153396
  0.3323558539030310  0.8745581038543339  0.4783060563357076
  0.1675534995013317  0.8745017482576656  0.4782600539550569
  0.2500591748555230 -0.0005951632486557  0.5910297677502980
  0.0835835636509480  0.8744164801293962  0.5900284752790139
  0.4163969872543978  0.8745130363821575  0.5900229902775771
 -0.0001800599529877 -0.0008093298317301  0.7023224945858836
  0.3356498166736448  0.8743389970169539  0.7043584432196396
  0.1645891571031080  0.8742563580524032  0.7041754530589768
  0.4995698637053336 -0.0003788282030797  0.2547857322883927
  0.8332547777537164  0.1246635081150489  0.2638640163113896
  0.6664581035682979  0.1246323327454048  0.2637699928261102
  0.7498306873517387  0.2495811369748552  0.3613714435783209
  0.5822760187969860  0.1245290838194826  0.3682757956809481
  0.9173328165954556  0.1246203180001733  0.3684488635179131
  0.4998481994950524  0.2494284597532108  0.4798420066533814
  0.8323027485918932  0.1245238276819240  0.4781219927149006
  0.6675413750857579  0.1244786965816419  0.4779621429495655
  0.7501016415525634  0.2492787372237369  0.5906663303710908
  0.5838093090630815  0.1243970702815530  0.5895995922658348
  0.9163502516329635  0.1244309076745888  0.5898840781835636
  0.5007866134908313  0.2500846719130324  0.7018116124434656
  0.8350985443115884  0.1239948074288233  0.7042075348818978
  0.6649540588317951  0.1243759827276649  0.7038709967725537
  0.4995119847414460  0.2496754919834632  0.2548416799462973
  0.8333279603863194  0.3745721036174718  0.2638230878070907
  0.6663458178094566  0.3745128684808830  0.2637054030294351
  0.7498299054684356  0.4996273335692908  0.3614058113742709
  0.5823164832970867  0.3745061617477282  0.3683052479384275
  0.9173281796912656  0.3746122211092063  0.3684298403168705
  0.4998390599474005  0.4996059679499362  0.4798407014501732
  0.8323181611151582  0.3745309403516682  0.4780489485890009
  0.6674855655335405  0.3744892661057148  0.4779334196926798
  0.7500827541507145  0.4996144911126082  0.5906551154200457
  0.5837608507134722  0.3744579946673425  0.5897471250239121
  0.9163830827451239  0.3744316301426713  0.5899121506717007
  0.5007177403323366  0.4986677349375807  0.7018238591103555
  0.8351417582617223  0.3741777607659145  0.7042340157725704
  0.6653148629450819  0.3743521026536185  0.7035186446115095
  0.4995652479003335  0.4994912035947546  0.2548530275756131
  0.8332712019364735  0.6246040503465937  0.2638643019555872
  0.6664394174889285  0.6246311769595001  0.2637725278383356
  0.7498512727351846  0.7495804014617852  0.3614110004834536
  0.5822628043799558  0.6245028293245670  0.3682840837321908
  0.9173404921027878  0.6246122154519186  0.3684520605433662
  0.4998267735776622  0.7495168923731581  0.4797866385924178
  0.8322817840665943  0.6245363444516360  0.4781233107497692
  0.6675184313614594  0.6245087229282482  0.4779656712363912
  0.7500483667870929  0.7494326009582152  0.5906715098369204
  0.5838334783149531  0.6245628600427385  0.5895969221717671
  0.9163437308643639  0.6244268060189736  0.5899060737084993
  0.4999523564797761  0.7493089276791257  0.7022114550372009
  0.8349778969226817  0.6244538427843168  0.7042111571075214
  0.6648829072860409  0.6241755573830158  0.7038839272537444
  0.4995175512153368  0.7495283176780975  0.2548025540625476
  0.8333190360244825  0.8745421238621842  0.2638195654533799
  0.6664284238847121  0.8745089230851930  0.2637455066230080
  0.7498539627495696 -0.0003892286795386  0.3614214522396096
  0.5822357964634359  0.8745035602376695  0.3682652676709994
  0.9173278224995353  0.8746029091368076  0.3684798111445095
  0.4998405832585485 -0.0004638295887810  0.4797797922923668
  0.8323455817848346  0.8745190467596996  0.4781276516207530
  0.6674925929215760  0.8744957781108674  0.4779255228129111
  0.7500593419461087  0.9994807091587861  0.5906820872355125
  0.5836822602122033  0.8744935760681453  0.5896895535713071
  0.9163986930889286  0.8744215680424723  0.5899642662931085
  0.4999846053259885 -0.0004241067290751  0.7021769904293380
  0.8350234835946549  0.8742156213785492  0.7041124719468993
  0.6648210293186314  0.8742718846217724  0.7041767276004092
  0.4065240465198338 -0.0003980968911048  0.3012992246338358
  0.2496882007876367 -0.0003427676783478  0.2576348709007301
  0.0928984309576442 -0.0003575003509569  0.3013919240502965
  0.1543154393409005  0.2496112280843407  0.4101350241415014
 -0.0001757854456661  0.2496286308221802  0.3932746467999734
  0.3453960356753302  0.2496043172144834  0.4101823383062649
  0.4009385450940956  0.2495232295260836  0.5222937851084406
  0.2499892788717337  0.2497580288125293  0.5031376818670015
  0.0989983663326798  0.2495579794566857  0.5221297668023799
  0.1516707500518152  0.2493054636697399  0.6332582106069981
 -0.0000279326454408  0.2494248102145636  0.6134202623155947
  0.3487793551726580  0.2486417589954013  0.6341224509312231
  0.4028868315545359  0.2477478768746694  0.7433558624732240
  0.2494748008113765  0.2498181094984532  0.7241167660654574
  0.0964901463588500  0.2490289588041427  0.7405345794150090
  0.4064563815172488  0.2496143262286790  0.3013482171889348
  0.2497189022658669  0.2497065633910721  0.2580916279776499
  0.0929182064870006  0.2496268752134194  0.3014068341792250
  0.1543179238368174  0.4995810992404784  0.4101295217527147
 -0.0001754703751403  0.4995994277973849  0.3932636484541538
  0.3453877535534943  0.4995885273169449  0.4101740120282575
  0.4009403466245732  0.4995692813605386  0.5223120099654012
  0.2499782054770879  0.4993747262368986  0.5031473871797271
  0.0989989044446710  0.4994249649756169  0.5221338314551067
  0.1516578280026346  0.4995587728080390  0.6332900104725500
 -0.0000494836417891  0.4994826991900378  0.6134447297098867
  0.3487753106461533  0.5003054429237310  0.6341311108370355
  0.4028653006534688  0.5009668902132336  0.7434978162242970
  0.2494732172188820  0.4988191112384114  0.7241244867647867
  0.0964506835927837  0.4996776257526188  0.7405327933227410
  0.4064855002313210  0.4995669462844307  0.3013322327721210
  0.2497235514592754  0.4995416280321285  0.2578293053771393
  0.0928738193998588  0.4996367229216318  0.3013977954077510
  0.1542617042252083  0.7495539071992680  0.4100995212330849
 -0.0001552575498853  0.7495908466724166  0.3932500660283475
  0.3453806996604968  0.7494966180282422  0.4101303800245044
  0.4009185046503716  0.7495007887893811  0.5222349321805309
  0.2499403829743708  0.7496091052529585  0.5030142300807359
  0.0989850801739457  0.7494361266433057  0.5221667776577383
  0.1517887366712930  0.7493415271911908  0.6333740843002983
 -0.0000022243113367  0.7493304796084884  0.6134876049030097
  0.3484089508995956  0.7494607236367106  0.6335196015111297
  0.4029822043142487  0.7492766681736777  0.7408325617418847
  0.2502566388920467  0.7485113959321837  0.7239720657842027
  0.0969350825336127  0.7495657455570518  0.7404355310977759
  0.4064526687743775  0.7495816914874420  0.3012998653201190
  0.2496926853737509  0.7496314475895018  0.2578480313882964
  0.0929448041947000  0.7496293816904088  0.3014045588001001
  0.1542673191929103 -0.0004194623050147  0.4101031944277388
 -0.0001731014873799 -0.0003829587421624  0.3932628085672988
  0.3453870078812889 -0.0003807829906264  0.4101239247688215
  0.4009213856381021 -0.0004222838441915  0.5222053803876671
  0.2499246026179248 -0.0005615709514729  0.5029840615300969
  0.0989985817789839 -0.0005080097507286  0.5221773828326367
  0.1517469603431861 -0.0005224280894129  0.6333672880936956
  0.0000095372394844 -0.0004828801221529  0.6134630532082931
  0.3483641774863114  0.9994945297324068  0.6334778345512485
  0.4030239890035655 -0.0005604908923028  0.7407918059805436
  0.2502608361455821  0.0001620678645631  0.7239389743207060
  0.0969346866966874  0.9990272032229275  0.7404561123629350
  0.9067156718581263 -0.0004275326029965  0.3012446440898330
  0.7498556049080300 -0.0004558499087238  0.2575869976647449
  0.5928582524291121 -0.0004634155359518  0.3010036193413232
  0.6541982097903412  0.2494667547862615  0.4097702439414653
  0.4997731623305020  0.2495564180873160  0.3931312454383390
  0.8454217686250391  0.2495530559897000  0.4099092863748630
  0.9008554896605807  0.2494647149590142  0.5220538840338963
  0.7499315694419084  0.2495837704076939  0.5026226920196720
  0.5990274037056303  0.2494632167506826  0.5218271021184131
  0.6518714472743620  0.2491561069416358  0.6330042362903069
  0.5002817328546626  0.2491332836667725  0.6131492235522378
  0.8483117954237794  0.2493929029638719  0.6331787205218525
  0.9029068832134222  0.2492237269381842  0.7404680362460367
  0.7499415558318154  0.2493243166223022  0.7237332861078708
  0.5968267210731381  0.2499299149736590  0.7401045690030192
  0.9067533121193939  0.2495935837604569  0.3012014462371176
  0.7498319420051321  0.2496404903950031  0.2573976259221052
  0.5928468724608613  0.2495491634224886  0.3010260036062851
  0.6541900683988607  0.4995796676138119  0.4097736610877107
  0.4997668227153388  0.4995554329096352  0.3931391624131694
  0.8454246840371700  0.4996205359726622  0.4099056226049883
  0.9008499482241282  0.4995026757892496  0.5220654969414872
  0.7499180642360027  0.4994321014693267  0.5026272613553915
  0.5990272235885176  0.4995262268664220  0.5218254299872708
  0.6518435709333766  0.4996963073675559  0.6330189969777761
  0.5003170571517750  0.4998214785002510  0.6131820640936453
  0.8482636290967149  0.4993784947595588  0.6331894157701475
  0.9028268423608403  0.4993605570304564  0.7404738396842677
  0.7498967865978422  0.4992490532074626  0.7237534463152913
  0.5967501336517305  0.4987479421937276  0.7400993162962919
  0.9067177796298959  0.4996219772415684  0.3012187442537622
  0.7498192611565874  0.4995456355520252  0.2576123058708236
  0.5928919932288492  0.4995496374333221  0.3010319765159192
  0.6541756290709763  0.7494905107215639  0.4097619644342848
  0.4997364225579994  0.7495299539730615  0.3930780100838411
  0.8454349057523166  0.7495700402289480  0.4099248037472557
  0.9008818186251810  0.7494233370649372  0.5220953114579503
  0.7498897668217458  0.7495673078964322  0.5026287948831176
  0.5989614174393847  0.7495489113745131  0.5218403642918702
  0.6517846701535119  0.7496213874458678  0.6330026244893892
  0.5001316233260067  0.7494951105090086  0.6134027098019423
  0.8482354494905153  0.7493443419258118  0.6332195946656913
  0.9030234705837131  0.7493370804462375  0.7403969914137739
  0.7498594601477053  0.7492237765969093  0.7237773425309957
  0.5967869278860322  0.7490582389580758  0.7402040341797019
  0.9067534449048232  0.7496044097832465  0.3012330698145677
  0.7498692300949911  0.7496164662949140  0.2574014691293833
  0.5928215196936872  0.7495335171731103  0.3010082481652934
  0.6541777365728685 -0.0004782478128764  0.4097605539937444
  0.4997546258069442 -0.0004635101755146  0.3930753806727633
  0.8454382194035549 -0.0004159102840710  0.4099248933383063
  0.9008905743916951 -0.0005027502188496  0.5220740863346065
  0.7498960164865209 -0.0005734825964090  0.5026386689600806
  0.5989702162767286 -0.0005635382070845  0.5218447618437222
  0.6517864940969126  0.9992757487847518  0.6329976085667351
  0.5001304462925791 -0.0005017118675064  0.6133763062003935
  0.8482709745134224 -0.0005694252519445  0.6332119169744428
  0.9030700658556168 -0.0008677778193206  0.7403964165869085
  0.7498968984487357 -0.0006340147880784  0.7237468533822048
  0.5968107750559274 -0.0004768639304696  0.7402042409654744
  0.4289061520640920  0.3741400341537652  0.7920274572622583
 
  0.00000000E+00  0.00000000E+00  0.00000000E+00
  0.00000000E+00  0.00000000E+00  0.00000000E+00
  0.00000000E+00  0.00000000E+00  0.00000000E+00
  0.00000000E+00  0.00000000E+00  0.00000000E+00
  0.00000000E+00  0.00000000E+00  0.00000000E+00
  0.00000000E+00  0.00000000E+00  0.00000000E+00
  0.00000000E+00  0.00000000E+00  0.00000000E+00
  0.00000000E+00  0.00000000E+00  0.00000000E+00
  0.00000000E+00  0.00000000E+00  0.00000000E+00
  0.00000000E+00  0.00000000E+00  0.00000000E+00
  0.00000000E+00  0.00000000E+00  0.00000000E+00
  0.00000000E+00  0.00000000E+00  0.00000000E+00
  0.00000000E+00  0.00000000E+00  0.00000000E+00
  0.00000000E+00  0.00000000E+00  0.00000000E+00
  0.00000000E+00  0.00000000E+00  0.00000000E+00
  0.00000000E+00  0.00000000E+00  0.00000000E+00
  0.00000000E+00  0.00000000E+00  0.00000000E+00
  0.00000000E+00  0.00000000E+00  0.00000000E+00
  0.00000000E+00  0.00000000E+00  0.00000000E+00
  0.00000000E+00  0.00000000E+00  0.00000000E+00
  0.00000000E+00  0.00000000E+00  0.00000000E+00
  0.00000000E+00  0.00000000E+00  0.00000000E+00
  0.00000000E+00  0.00000000E+00  0.00000000E+00
  0.00000000E+00  0.00000000E+00  0.00000000E+00
  0.00000000E+00  0.00000000E+00  0.00000000E+00
  0.00000000E+00  0.00000000E+00  0.00000000E+00
  0.00000000E+00  0.00000000E+00  0.00000000E+00
  0.00000000E+00  0.00000000E+00  0.00000000E+00
  0.00000000E+00  0.00000000E+00  0.00000000E+00
  0.00000000E+00  0.00000000E+00  0.00000000E+00
  0.00000000E+00  0.00000000E+00  0.00000000E+00
  0.00000000E+00  0.00000000E+00  0.00000000E+00
  0.00000000E+00  0.00000000E+00  0.00000000E+00
  0.00000000E+00  0.00000000E+00  0.00000000E+00
  0.00000000E+00  0.00000000E+00  0.00000000E+00
  0.00000000E+00  0.00000000E+00  0.00000000E+00
  0.00000000E+00  0.00000000E+00  0.00000000E+00
  0.00000000E+00  0.00000000E+00  0.00000000E+00
  0.00000000E+00  0.00000000E+00  0.00000000E+00
  0.00000000E+00  0.00000000E+00  0.00000000E+00
  0.00000000E+00  0.00000000E+00  0.00000000E+00
  0.00000000E+00  0.00000000E+00  0.00000000E+00
  0.00000000E+00  0.00000000E+00  0.00000000E+00
  0.00000000E+00  0.00000000E+00  0.00000000E+00
  0.00000000E+00  0.00000000E+00  0.00000000E+00
  0.00000000E+00  0.00000000E+00  0.00000000E+00
  0.00000000E+00  0.00000000E+00  0.00000000E+00
  0.00000000E+00  0.00000000E+00  0.00000000E+00
  0.00000000E+00  0.00000000E+00  0.00000000E+00
  0.00000000E+00  0.00000000E+00  0.00000000E+00
  0.00000000E+00  0.00000000E+00  0.00000000E+00
  0.00000000E+00  0.00000000E+00  0.00000000E+00
  0.00000000E+00  0.00000000E+00  0.00000000E+00
  0.00000000E+00  0.00000000E+00  0.00000000E+00
  0.00000000E+00  0.00000000E+00  0.00000000E+00
  0.00000000E+00  0.00000000E+00  0.00000000E+00
  0.00000000E+00  0.00000000E+00  0.00000000E+00
  0.00000000E+00  0.00000000E+00  0.00000000E+00
  0.00000000E+00  0.00000000E+00  0.00000000E+00
  0.00000000E+00  0.00000000E+00  0.00000000E+00
  0.00000000E+00  0.00000000E+00  0.00000000E+00
  0.00000000E+00  0.00000000E+00  0.00000000E+00
  0.00000000E+00  0.00000000E+00  0.00000000E+00
  0.00000000E+00  0.00000000E+00  0.00000000E+00
  0.00000000E+00  0.00000000E+00  0.00000000E+00
  0.00000000E+00  0.00000000E+00  0.00000000E+00
  0.00000000E+00  0.00000000E+00  0.00000000E+00
  0.00000000E+00  0.00000000E+00  0.00000000E+00
  0.00000000E+00  0.00000000E+00  0.00000000E+00
  0.00000000E+00  0.00000000E+00  0.00000000E+00
  0.00000000E+00  0.00000000E+00  0.00000000E+00
  0.00000000E+00  0.00000000E+00  0.00000000E+00
  0.00000000E+00  0.00000000E+00  0.00000000E+00
  0.00000000E+00  0.00000000E+00  0.00000000E+00
  0.00000000E+00  0.00000000E+00  0.00000000E+00
  0.00000000E+00  0.00000000E+00  0.00000000E+00
  0.00000000E+00  0.00000000E+00  0.00000000E+00
  0.00000000E+00  0.00000000E+00  0.00000000E+00
  0.00000000E+00  0.00000000E+00  0.00000000E+00
  0.00000000E+00  0.00000000E+00  0.00000000E+00
  0.00000000E+00  0.00000000E+00  0.00000000E+00
  0.00000000E+00  0.00000000E+00  0.00000000E+00
  0.00000000E+00  0.00000000E+00  0.00000000E+00
  0.00000000E+00  0.00000000E+00  0.00000000E+00
  0.00000000E+00  0.00000000E+00  0.00000000E+00
  0.00000000E+00  0.00000000E+00  0.00000000E+00
  0.00000000E+00  0.00000000E+00  0.00000000E+00
  0.00000000E+00  0.00000000E+00  0.00000000E+00
  0.00000000E+00  0.00000000E+00  0.00000000E+00
  0.00000000E+00  0.00000000E+00  0.00000000E+00
  0.00000000E+00  0.00000000E+00  0.00000000E+00
  0.00000000E+00  0.00000000E+00  0.00000000E+00
  0.00000000E+00  0.00000000E+00  0.00000000E+00
  0.00000000E+00  0.00000000E+00  0.00000000E+00
  0.00000000E+00  0.00000000E+00  0.00000000E+00
  0.00000000E+00  0.00000000E+00  0.00000000E+00
  0.00000000E+00  0.00000000E+00  0.00000000E+00
  0.00000000E+00  0.00000000E+00  0.00000000E+00
  0.00000000E+00  0.00000000E+00  0.00000000E+00
  0.00000000E+00  0.00000000E+00  0.00000000E+00
  0.00000000E+00  0.00000000E+00  0.00000000E+00
  0.00000000E+00  0.00000000E+00  0.00000000E+00
  0.00000000E+00  0.00000000E+00  0.00000000E+00
  0.00000000E+00  0.00000000E+00  0.00000000E+00
  0.00000000E+00  0.00000000E+00  0.00000000E+00
  0.00000000E+00  0.00000000E+00  0.00000000E+00
  0.00000000E+00  0.00000000E+00  0.00000000E+00
  0.00000000E+00  0.00000000E+00  0.00000000E+00
  0.00000000E+00  0.00000000E+00  0.00000000E+00
  0.00000000E+00  0.00000000E+00  0.00000000E+00
  0.00000000E+00  0.00000000E+00  0.00000000E+00
  0.00000000E+00  0.00000000E+00  0.00000000E+00
  0.00000000E+00  0.00000000E+00  0.00000000E+00
  0.00000000E+00  0.00000000E+00  0.00000000E+00
  0.00000000E+00  0.00000000E+00  0.00000000E+00
  0.00000000E+00  0.00000000E+00  0.00000000E+00
  0.00000000E+00  0.00000000E+00  0.00000000E+00
  0.00000000E+00  0.00000000E+00  0.00000000E+00
  0.00000000E+00  0.00000000E+00  0.00000000E+00
  0.00000000E+00  0.00000000E+00  0.00000000E+00
  0.00000000E+00  0.00000000E+00  0.00000000E+00
  0.00000000E+00  0.00000000E+00  0.00000000E+00
  0.00000000E+00  0.00000000E+00  0.00000000E+00
  0.00000000E+00  0.00000000E+00  0.00000000E+00
  0.00000000E+00  0.00000000E+00  0.00000000E+00
  0.00000000E+00  0.00000000E+00  0.00000000E+00
  0.00000000E+00  0.00000000E+00  0.00000000E+00
  0.00000000E+00  0.00000000E+00  0.00000000E+00
  0.00000000E+00  0.00000000E+00  0.00000000E+00
  0.00000000E+00  0.00000000E+00  0.00000000E+00
  0.00000000E+00  0.00000000E+00  0.00000000E+00
  0.00000000E+00  0.00000000E+00  0.00000000E+00
  0.00000000E+00  0.00000000E+00  0.00000000E+00
  0.00000000E+00  0.00000000E+00  0.00000000E+00
  0.00000000E+00  0.00000000E+00  0.00000000E+00
  0.00000000E+00  0.00000000E+00  0.00000000E+00
  0.00000000E+00  0.00000000E+00  0.00000000E+00
  0.00000000E+00  0.00000000E+00  0.00000000E+00
  0.00000000E+00  0.00000000E+00  0.00000000E+00
  0.00000000E+00  0.00000000E+00  0.00000000E+00
  0.00000000E+00  0.00000000E+00  0.00000000E+00
  0.00000000E+00  0.00000000E+00  0.00000000E+00
  0.00000000E+00  0.00000000E+00  0.00000000E+00
  0.00000000E+00  0.00000000E+00  0.00000000E+00
  0.00000000E+00  0.00000000E+00  0.00000000E+00
  0.00000000E+00  0.00000000E+00  0.00000000E+00
  0.00000000E+00  0.00000000E+00  0.00000000E+00
  0.00000000E+00  0.00000000E+00  0.00000000E+00
  0.00000000E+00  0.00000000E+00  0.00000000E+00
  0.00000000E+00  0.00000000E+00  0.00000000E+00
  0.00000000E+00  0.00000000E+00  0.00000000E+00
  0.00000000E+00  0.00000000E+00  0.00000000E+00
  0.00000000E+00  0.00000000E+00  0.00000000E+00
  0.00000000E+00  0.00000000E+00  0.00000000E+00
  0.00000000E+00  0.00000000E+00  0.00000000E+00
  0.00000000E+00  0.00000000E+00  0.00000000E+00
  0.00000000E+00  0.00000000E+00  0.00000000E+00
  0.00000000E+00  0.00000000E+00  0.00000000E+00
  0.00000000E+00  0.00000000E+00  0.00000000E+00
  0.00000000E+00  0.00000000E+00  0.00000000E+00
  0.00000000E+00  0.00000000E+00  0.00000000E+00
  0.00000000E+00  0.00000000E+00  0.00000000E+00
  0.00000000E+00  0.00000000E+00  0.00000000E+00
  0.00000000E+00  0.00000000E+00  0.00000000E+00
  0.00000000E+00  0.00000000E+00  0.00000000E+00
  0.00000000E+00  0.00000000E+00  0.00000000E+00
  0.00000000E+00  0.00000000E+00  0.00000000E+00
  0.00000000E+00  0.00000000E+00  0.00000000E+00
  0.00000000E+00  0.00000000E+00  0.00000000E+00
  0.00000000E+00  0.00000000E+00  0.00000000E+00
  0.00000000E+00  0.00000000E+00  0.00000000E+00
  0.00000000E+00  0.00000000E+00  0.00000000E+00
  0.00000000E+00  0.00000000E+00  0.00000000E+00
  0.00000000E+00  0.00000000E+00  0.00000000E+00
  0.00000000E+00  0.00000000E+00  0.00000000E+00
  0.00000000E+00  0.00000000E+00  0.00000000E+00
  0.00000000E+00  0.00000000E+00  0.00000000E+00
  0.00000000E+00  0.00000000E+00  0.00000000E+00
  0.00000000E+00  0.00000000E+00  0.00000000E+00
  0.00000000E+00  0.00000000E+00  0.00000000E+00
  0.00000000E+00  0.00000000E+00  0.00000000E+00
  0.00000000E+00  0.00000000E+00  0.00000000E+00
  0.00000000E+00  0.00000000E+00  0.00000000E+00
  0.00000000E+00  0.00000000E+00  0.00000000E+00
  0.00000000E+00  0.00000000E+00  0.00000000E+00
  0.00000000E+00  0.00000000E+00  0.00000000E+00
  0.00000000E+00  0.00000000E+00  0.00000000E+00
  0.00000000E+00  0.00000000E+00  0.00000000E+00
  0.00000000E+00  0.00000000E+00  0.00000000E+00
  0.00000000E+00  0.00000000E+00  0.00000000E+00
  0.00000000E+00  0.00000000E+00  0.00000000E+00
  0.00000000E+00  0.00000000E+00  0.00000000E+00
  0.00000000E+00  0.00000000E+00  0.00000000E+00
  0.00000000E+00  0.00000000E+00  0.00000000E+00
  0.00000000E+00  0.00000000E+00  0.00000000E+00
  0.00000000E+00  0.00000000E+00  0.00000000E+00
  0.00000000E+00  0.00000000E+00  0.00000000E+00
  0.00000000E+00  0.00000000E+00  0.00000000E+00
  0.00000000E+00  0.00000000E+00  0.00000000E+00
  0.00000000E+00  0.00000000E+00  0.00000000E+00
  0.00000000E+00  0.00000000E+00  0.00000000E+00
  0.00000000E+00  0.00000000E+00  0.00000000E+00
  0.00000000E+00  0.00000000E+00  0.00000000E+00
  0.00000000E+00  0.00000000E+00  0.00000000E+00
  0.00000000E+00  0.00000000E+00  0.00000000E+00
  0.00000000E+00  0.00000000E+00  0.00000000E+00
  0.00000000E+00  0.00000000E+00  0.00000000E+00
  0.00000000E+00  0.00000000E+00  0.00000000E+00
  0.00000000E+00  0.00000000E+00  0.00000000E+00
  0.00000000E+00  0.00000000E+00  0.00000000E+00
  0.00000000E+00  0.00000000E+00  0.00000000E+00
  0.00000000E+00  0.00000000E+00  0.00000000E+00
  0.00000000E+00  0.00000000E+00  0.00000000E+00
  0.00000000E+00  0.00000000E+00  0.00000000E+00
  0.00000000E+00  0.00000000E+00  0.00000000E+00
  0.00000000E+00  0.00000000E+00  0.00000000E+00
  0.00000000E+00  0.00000000E+00  0.00000000E+00
  0.00000000E+00  0.00000000E+00  0.00000000E+00
  0.00000000E+00  0.00000000E+00  0.00000000E+00
  0.00000000E+00  0.00000000E+00  0.00000000E+00
  0.00000000E+00  0.00000000E+00  0.00000000E+00
  0.00000000E+00  0.00000000E+00  0.00000000E+00
  0.00000000E+00  0.00000000E+00  0.00000000E+00
  0.00000000E+00  0.00000000E+00  0.00000000E+00
  0.00000000E+00  0.00000000E+00  0.00000000E+00
  0.00000000E+00  0.00000000E+00  0.00000000E+00
  0.00000000E+00  0.00000000E+00  0.00000000E+00
  0.00000000E+00  0.00000000E+00  0.00000000E+00
  0.00000000E+00  0.00000000E+00  0.00000000E+00
  0.00000000E+00  0.00000000E+00  0.00000000E+00
  0.00000000E+00  0.00000000E+00  0.00000000E+00
  0.00000000E+00  0.00000000E+00  0.00000000E+00
  0.00000000E+00  0.00000000E+00  0.00000000E+00
  0.00000000E+00  0.00000000E+00  0.00000000E+00
  0.00000000E+00  0.00000000E+00  0.00000000E+00
  0.00000000E+00  0.00000000E+00  0.00000000E+00
  0.00000000E+00  0.00000000E+00  0.00000000E+00
  0.00000000E+00  0.00000000E+00  0.00000000E+00
  0.00000000E+00  0.00000000E+00  0.00000000E+00
  0.00000000E+00  0.00000000E+00  0.00000000E+00
  0.00000000E+00  0.00000000E+00  0.00000000E+00
