Ta  N Ru                                
   1.00000000000000     
     9.0548154099999998    0.0000000000000000    0.0000000000000000
     0.0000000000000000   11.6775998899999998    0.0000000000000000
     0.0000000000000000    0.0000000000000000   23.4818170799999990
   Ta   N    Ru
    60    60     2
Selective dynamics
Direct
  0.0000000000000000  0.0000000000000000  0.2546926809530987   F   F   F
  0.6670845899906297  0.1250000003211298  0.2638822399803757   F   F   F
  0.3329153514769843  0.1250000003211298  0.2638822399803757   F   F   F
  0.4999999994478088  0.2499999997859135  0.3618861993156202   F   F   F
  0.1650707596845180  0.1250000003211298  0.3684425577811794   F   F   F
  0.8349292403154820  0.1250000003211298  0.3684425577811794   F   F   F
  0.0001724724972967  0.2500045218073694  0.4798692687946488   T   T   T
  0.6638481380597793  0.1250491359778358  0.4780390656815630   T   T   T
  0.3348537409084980  0.1250115189349708  0.4786512290670925   T   T   T
  0.4965995656063755  0.2498797228312103  0.5919399654758771   T   T   T
  0.1670866287394172  0.1249786958035448  0.5914985443618043   T   T   T
  0.8313480744490950  0.1252174192186325  0.5893012788367185   T   T   T
 -0.0079784568741868  0.2484498200902203  0.7039510114722241   T   T   T
  0.6690922005089346  0.1254267297229346  0.7025820639299021   T   T   T
  0.3347550301809391  0.1233967279952043  0.7092676173828761   T   T   T
  0.0000000000000000  0.2499999997859135  0.2546926809530987   F   F   F
  0.6670845899906297  0.3750000001070433  0.2638822399803757   F   F   F
  0.3329153514769843  0.3750000001070433  0.2638822399803757   F   F   F
  0.4999999994478088  0.5000000004281731  0.3618861993156202   F   F   F
  0.1650707596845180  0.3750000001070433  0.3684425577811794   F   F   F
  0.8349292403154820  0.3750000001070433  0.3684425577811794   F   F   F
 -0.0001019380243623  0.5000817078714913  0.4797448317282116   T   T   T
  0.6643206335963224  0.3749700300508547  0.4780172193050104   T   T   T
  0.3351110696196964  0.3748762643519759  0.4783297672731064   T   T   T
  0.4998883453734839  0.5005263050511454  0.5904106406822667   T   T   T
  0.1664774848305534  0.3748838084236644  0.5899841505634820   T   T   T
  0.8322003839832661  0.3750772515403428  0.5895705527210583   T   T   T
  0.0010090572211736  0.4969733744004799  0.7023083866077926   T   T   T
  0.6754002745770512  0.3767003554679773  0.7028196005676748   T   T   T
  0.3508726541977239  0.3812684146290244  0.6996288102130381   T   T   T
  0.0000000000000000  0.5000000004281731  0.2546926809530987   F   F   F
  0.6670845899906297  0.6249999998929567  0.2638822399803757   F   F   F
  0.3329153514769843  0.6249999998929567  0.2638822399803757   F   F   F
  0.4999999994478088  0.7500000002140865  0.3618861993156202   F   F   F
  0.1650707596845180  0.6249999998929567  0.3684425577811794   F   F   F
  0.8349292403154820  0.6249999998929567  0.3684425577811794   F   F   F
 -0.0001577354290563  0.7500732984045380  0.4797585631323254   T   T   T
  0.6645012352864258  0.6250886685102354  0.4779835029113347   T   T   T
  0.3346639760556435  0.6250823653363201  0.4782058240220171   T   T   T
  0.4983528067108717  0.7502921744056874  0.5910147773996013   T   T   T
  0.1668272319976984  0.6253451494158772  0.5903145196021492   T   T   T
  0.8320799853783001  0.6252573204754508  0.5896775943877031   T   T   T
  0.0010916870592039  0.7487153183813243  0.7021549747187015   T   T   T
  0.6730222511706841  0.6267770707734572  0.7029270251776408   T   T   T
  0.3294115092774061  0.6277073406331395  0.7048147653681673   T   T   T
  0.0000000000000000  0.7500000002140865  0.2546926809530987   F   F   F
  0.6670845899906297  0.8750000005352163  0.2638822399803757   F   F   F
  0.3329153514769843  0.8750000005352163  0.2638822399803757   F   F   F
  0.4999999994478088  0.0000000000000000  0.3618861993156202   F   F   F
  0.1650707596845180  0.8750000005352163  0.3684425577811794   F   F   F
  0.8349292403154820  0.8750000005352163  0.3684425577811794   F   F   F
 -0.0001681038731142 -0.0000028521285748  0.4798614039600687   T   T   T
  0.6639131962473355  0.8749609465007318  0.4778810047651009   T   T   T
  0.3346399390435693  0.8750044884031185  0.4781464427702260   T   T   T
  0.4964702282727990 -0.0001119416433191  0.5912497670856746   T   T   T
  0.1663595953617090  0.8750731308999634  0.5902060451471531   T   T   T
  0.8304649808043395  0.8750354969691174  0.5894459030666465   T   T   T
  0.9975972731317855 -0.0023837959860350  0.6993385874756177   T   T   T
  0.6723233087416659  0.8754320751114251  0.7036758933563007   T   T   T
  0.3277096702180347  0.8739083061894504  0.7052706144469797   T   T   T
  0.8141011533980276  0.0000000000000000  0.3013105672926031   F   F   F
  0.4999999994478088  0.0000000000000000  0.2564174481620327   F   F   F
  0.1858988466019724  0.0000000000000000  0.3013105672926031   F   F   F
  0.3088456122590841  0.2499999997859135  0.4099867722441957   F   F   F
  0.0000000000000000  0.2499999997859135  0.3930971035158137   F   F   F
  0.6911543877409159  0.2499999997859135  0.4099867722441957   F   F   F
  0.8020262122047978  0.2501892774981624  0.5216891793250609   T   T   T
  0.4993351811439785  0.2500314203812154  0.5035845479790830   T   T   T
  0.1974382086178596  0.2497846229302736  0.5228311933865440   T   T   T
  0.2990714337808750  0.2490411152833271  0.6371684206299615   T   T   T
  0.9987330311474116  0.2500746817886209  0.6140679594627496   T   T   T
  0.6954679601768841  0.2500814017845426  0.6323588271132828   T   T   T
  0.8017370209985459  0.2485847450583965  0.7405653331943544   T   T   T
  0.5033036141624012  0.2539011494442336  0.7221982360185534   T   T   T
  0.2607173074334861  0.1929120277725643  0.7871072054255508   T   T   T
  0.8141011533980276  0.2499999997859135  0.3013105672926031   F   F   F
  0.4999999994478088  0.2499999997859135  0.2564174481620327   F   F   F
  0.1858988466019724  0.2499999997859135  0.3013105672926031   F   F   F
  0.3088456122590841  0.5000000004281731  0.4099867722441957   F   F   F
  0.0000000000000000  0.5000000004281731  0.3930971035158137   F   F   F
  0.6911543877409159  0.5000000004281731  0.4099867722441957   F   F   F
  0.8021527888264415  0.5000822784077646  0.5218035529678138   T   T   T
  0.4996713006357551  0.5001001940774279  0.5026735169374736   T   T   T
  0.1973013147273766  0.4998872007581403  0.5221759669299647   T   T   T
  0.3029799973009981  0.5029939152491092  0.6332883391488454   T   T   T
  0.0000390478178655  0.4998017665116241  0.6138573239617633   T   T   T
  0.6966557680460206  0.5009353605880504  0.6324677094608031   T   T   T
  0.8094351585253730  0.5015051021606560  0.7398690099445029   T   T   T
  0.5052059318263171  0.5026362458997262  0.7230133317645288   T   T   T
  0.1978420511216440  0.4996655314225897  0.7458865693310377   T   T   T
  0.8141011533980276  0.5000000004281731  0.3013105672926031   F   F   F
  0.4999999994478088  0.5000000004281731  0.2564174481620327   F   F   F
  0.1858988466019724  0.5000000004281731  0.3013105672926031   F   F   F
  0.3088456122590841  0.7500000002140865  0.4099867722441957   F   F   F
  0.0000000000000000  0.7500000002140865  0.3930971035158137   F   F   F
  0.6911543877409159  0.7500000002140865  0.4099867722441957   F   F   F
  0.8018498388924474  0.7500074106061958  0.5217782225870630   T   T   T
  0.4993717097873987  0.7501506243950598  0.5030036547138167   T   T   T
  0.1973798103715915  0.7499203953710453  0.5223055916531645   T   T   T
  0.3023554392506636  0.7502397237689986  0.6339331402525640   T   T   T
 -0.0011464600725284  0.7496530381847945  0.6135167589085389   T   T   T
  0.6949845271510294  0.7507376111576001  0.6328475405129085   T   T   T
  0.8064839418467067  0.7512947985579295  0.7401397325776096   T   T   T
  0.4993759348673316  0.7511762929913453  0.7235853639559203   T   T   T
  0.1942412777307535  0.7484128260482256  0.7417612771201106   T   T   T
  0.8141011533980276  0.7500000002140865  0.3013105672926031   F   F   F
  0.4999999994478088  0.7500000002140865  0.2564174481620327   F   F   F
  0.1858988466019724  0.7500000002140865  0.3013105672926031   F   F   F
  0.3088456122590841  0.0000000000000000  0.4099867722441957   F   F   F
  0.0000000000000000  0.0000000000000000  0.3930971035158137   F   F   F
  0.6911543877409159  0.0000000000000000  0.4099867722441957   F   F   F
  0.8012355860654784 -0.0000058080449716  0.5216135523310014   T   T   T
  0.4991497517721170 -0.0001129424340891  0.5031613012747307   T   T   T
  0.1975141690971309  0.0003780873420593  0.5224768625375076   T   T   T
  0.3008036486531381 -0.0017095535423853  0.6347840564943908   T   T   T
  0.9981759078207639 -0.0003898372989632  0.6114793907949335   T   T   T
  0.6936604816563212  0.0001601863988835  0.6328480077400831   T   T   T
  0.8059185389484628  0.0019105767445815  0.7402048464441543   T   T   T
  0.4976040032866841  0.0031069215574701  0.7243041477298288   T   T   T
  0.1884221800310656  0.9920833476643351  0.7455571285390644   T   T   T
  0.0777549195233818  0.1199119959365050  0.7885300622472704   T   T   T
  0.1716879692863748  0.3391652670095817  0.7766977345160514   T   T   T
 
  0.00000000E+00  0.00000000E+00  0.00000000E+00
  0.00000000E+00  0.00000000E+00  0.00000000E+00
  0.00000000E+00  0.00000000E+00  0.00000000E+00
  0.00000000E+00  0.00000000E+00  0.00000000E+00
  0.00000000E+00  0.00000000E+00  0.00000000E+00
  0.00000000E+00  0.00000000E+00  0.00000000E+00
  0.00000000E+00  0.00000000E+00  0.00000000E+00
  0.00000000E+00  0.00000000E+00  0.00000000E+00
  0.00000000E+00  0.00000000E+00  0.00000000E+00
  0.00000000E+00  0.00000000E+00  0.00000000E+00
  0.00000000E+00  0.00000000E+00  0.00000000E+00
  0.00000000E+00  0.00000000E+00  0.00000000E+00
  0.00000000E+00  0.00000000E+00  0.00000000E+00
  0.00000000E+00  0.00000000E+00  0.00000000E+00
  0.00000000E+00  0.00000000E+00  0.00000000E+00
  0.00000000E+00  0.00000000E+00  0.00000000E+00
  0.00000000E+00  0.00000000E+00  0.00000000E+00
  0.00000000E+00  0.00000000E+00  0.00000000E+00
  0.00000000E+00  0.00000000E+00  0.00000000E+00
  0.00000000E+00  0.00000000E+00  0.00000000E+00
  0.00000000E+00  0.00000000E+00  0.00000000E+00
  0.00000000E+00  0.00000000E+00  0.00000000E+00
  0.00000000E+00  0.00000000E+00  0.00000000E+00
  0.00000000E+00  0.00000000E+00  0.00000000E+00
  0.00000000E+00  0.00000000E+00  0.00000000E+00
  0.00000000E+00  0.00000000E+00  0.00000000E+00
  0.00000000E+00  0.00000000E+00  0.00000000E+00
  0.00000000E+00  0.00000000E+00  0.00000000E+00
  0.00000000E+00  0.00000000E+00  0.00000000E+00
  0.00000000E+00  0.00000000E+00  0.00000000E+00
  0.00000000E+00  0.00000000E+00  0.00000000E+00
  0.00000000E+00  0.00000000E+00  0.00000000E+00
  0.00000000E+00  0.00000000E+00  0.00000000E+00
  0.00000000E+00  0.00000000E+00  0.00000000E+00
  0.00000000E+00  0.00000000E+00  0.00000000E+00
  0.00000000E+00  0.00000000E+00  0.00000000E+00
  0.00000000E+00  0.00000000E+00  0.00000000E+00
  0.00000000E+00  0.00000000E+00  0.00000000E+00
  0.00000000E+00  0.00000000E+00  0.00000000E+00
  0.00000000E+00  0.00000000E+00  0.00000000E+00
  0.00000000E+00  0.00000000E+00  0.00000000E+00
  0.00000000E+00  0.00000000E+00  0.00000000E+00
  0.00000000E+00  0.00000000E+00  0.00000000E+00
  0.00000000E+00  0.00000000E+00  0.00000000E+00
  0.00000000E+00  0.00000000E+00  0.00000000E+00
  0.00000000E+00  0.00000000E+00  0.00000000E+00
  0.00000000E+00  0.00000000E+00  0.00000000E+00
  0.00000000E+00  0.00000000E+00  0.00000000E+00
  0.00000000E+00  0.00000000E+00  0.00000000E+00
  0.00000000E+00  0.00000000E+00  0.00000000E+00
  0.00000000E+00  0.00000000E+00  0.00000000E+00
  0.00000000E+00  0.00000000E+00  0.00000000E+00
  0.00000000E+00  0.00000000E+00  0.00000000E+00
  0.00000000E+00  0.00000000E+00  0.00000000E+00
  0.00000000E+00  0.00000000E+00  0.00000000E+00
  0.00000000E+00  0.00000000E+00  0.00000000E+00
  0.00000000E+00  0.00000000E+00  0.00000000E+00
  0.00000000E+00  0.00000000E+00  0.00000000E+00
  0.00000000E+00  0.00000000E+00  0.00000000E+00
  0.00000000E+00  0.00000000E+00  0.00000000E+00
  0.00000000E+00  0.00000000E+00  0.00000000E+00
  0.00000000E+00  0.00000000E+00  0.00000000E+00
  0.00000000E+00  0.00000000E+00  0.00000000E+00
  0.00000000E+00  0.00000000E+00  0.00000000E+00
  0.00000000E+00  0.00000000E+00  0.00000000E+00
  0.00000000E+00  0.00000000E+00  0.00000000E+00
  0.00000000E+00  0.00000000E+00  0.00000000E+00
  0.00000000E+00  0.00000000E+00  0.00000000E+00
  0.00000000E+00  0.00000000E+00  0.00000000E+00
  0.00000000E+00  0.00000000E+00  0.00000000E+00
  0.00000000E+00  0.00000000E+00  0.00000000E+00
  0.00000000E+00  0.00000000E+00  0.00000000E+00
  0.00000000E+00  0.00000000E+00  0.00000000E+00
  0.00000000E+00  0.00000000E+00  0.00000000E+00
  0.00000000E+00  0.00000000E+00  0.00000000E+00
  0.00000000E+00  0.00000000E+00  0.00000000E+00
  0.00000000E+00  0.00000000E+00  0.00000000E+00
  0.00000000E+00  0.00000000E+00  0.00000000E+00
  0.00000000E+00  0.00000000E+00  0.00000000E+00
  0.00000000E+00  0.00000000E+00  0.00000000E+00
  0.00000000E+00  0.00000000E+00  0.00000000E+00
  0.00000000E+00  0.00000000E+00  0.00000000E+00
  0.00000000E+00  0.00000000E+00  0.00000000E+00
  0.00000000E+00  0.00000000E+00  0.00000000E+00
  0.00000000E+00  0.00000000E+00  0.00000000E+00
  0.00000000E+00  0.00000000E+00  0.00000000E+00
  0.00000000E+00  0.00000000E+00  0.00000000E+00
  0.00000000E+00  0.00000000E+00  0.00000000E+00
  0.00000000E+00  0.00000000E+00  0.00000000E+00
  0.00000000E+00  0.00000000E+00  0.00000000E+00
  0.00000000E+00  0.00000000E+00  0.00000000E+00
  0.00000000E+00  0.00000000E+00  0.00000000E+00
  0.00000000E+00  0.00000000E+00  0.00000000E+00
  0.00000000E+00  0.00000000E+00  0.00000000E+00
  0.00000000E+00  0.00000000E+00  0.00000000E+00
  0.00000000E+00  0.00000000E+00  0.00000000E+00
  0.00000000E+00  0.00000000E+00  0.00000000E+00
  0.00000000E+00  0.00000000E+00  0.00000000E+00
  0.00000000E+00  0.00000000E+00  0.00000000E+00
  0.00000000E+00  0.00000000E+00  0.00000000E+00
  0.00000000E+00  0.00000000E+00  0.00000000E+00
  0.00000000E+00  0.00000000E+00  0.00000000E+00
  0.00000000E+00  0.00000000E+00  0.00000000E+00
  0.00000000E+00  0.00000000E+00  0.00000000E+00
  0.00000000E+00  0.00000000E+00  0.00000000E+00
  0.00000000E+00  0.00000000E+00  0.00000000E+00
  0.00000000E+00  0.00000000E+00  0.00000000E+00
  0.00000000E+00  0.00000000E+00  0.00000000E+00
  0.00000000E+00  0.00000000E+00  0.00000000E+00
  0.00000000E+00  0.00000000E+00  0.00000000E+00
  0.00000000E+00  0.00000000E+00  0.00000000E+00
  0.00000000E+00  0.00000000E+00  0.00000000E+00
  0.00000000E+00  0.00000000E+00  0.00000000E+00
  0.00000000E+00  0.00000000E+00  0.00000000E+00
  0.00000000E+00  0.00000000E+00  0.00000000E+00
  0.00000000E+00  0.00000000E+00  0.00000000E+00
  0.00000000E+00  0.00000000E+00  0.00000000E+00
  0.00000000E+00  0.00000000E+00  0.00000000E+00
  0.00000000E+00  0.00000000E+00  0.00000000E+00
  0.00000000E+00  0.00000000E+00  0.00000000E+00
  0.00000000E+00  0.00000000E+00  0.00000000E+00
  0.00000000E+00  0.00000000E+00  0.00000000E+00
