Cu	N	Ru	Ta                              
   1.00000000000000     
    18.1096308199999996    0.0000000000000000    0.0000000000000000
     0.0000000000000000   23.3551997799999995    0.0000000000000000
     0.0000000000000000    0.0000000000000000   30.4818171199999988
   Cu   N    Ru   Ta
     3   240    48   192
Selective dynamics
Direct
  0.5829448131192376  0.4446109035949409  0.5727927195987547   T   T   T
  0.2230681463421522  0.4337583764175703  0.5868969882426155   T   T   T
  0.3656826166937016  0.4344135998503685  0.6099418060319085   T   T   T
  0.0000000000000000  0.0000000000000000  0.3032267788896164   F   F   F
  0.0000000000000000  0.5000000000000000  0.3032267788896164   F   F   F
  0.0000000000000000  0.6249999998929567  0.3032267788896164   F   F   F
  0.0000000000000000  0.7500000002140865  0.3032267788896164   F   F   F
  0.0000000000000000  0.8750000001070433  0.3032267788896164   F   F   F
  0.0000000000000000  0.1249999998929567  0.3032267788896164   F   F   F
  0.0000000000000000  0.2500000002140865  0.3032267788896164   F   F   F
  0.0000000000000000  0.3750000001070433  0.3032267788896164   F   F   F
  0.9995924212515672  0.2504738093131483  0.4738504735312546   T   T   T
  0.0005557819388402  0.8759050436187253  0.4722786863374656   T   T   T
  0.0006077807186845  0.9994105629290767  0.4731399502964116   T   T   T
  0.0012483329429379  0.6263913874445528  0.4726930956481657   T   T   T
  0.0010363524342417  0.7508840004034749  0.4728485532578992   T   T   T
  0.0012922213966643  0.1257415908757985  0.4723487130933769   T   T   T
  0.5660281124082416  0.6269132791241231  0.5785557407037398   T   T   T
  0.5724027074917488  0.1327902888303388  0.5777083951036120   T   T   T
  0.0570675198531627  0.3842396400327951  0.5797821365242587   T   T   T
  0.5883928370282362  0.2637970274262138  0.5641176577046897   T   T   T
  0.5941133989389655  0.0000000000000000  0.2322132027803434   F   F   F
  0.5941133989389655  0.5000000000000000  0.2322132027803434   F   F   F
  0.5941133989389655  0.6249999998929567  0.2322132027803434   F   F   F
  0.5941133989389655  0.7500000002140865  0.2322132027803434   F   F   F
  0.5941133989389655  0.8750000001070433  0.2322132027803434   F   F   F
  0.5941133989389655  0.1249999998929567  0.2322132027803434   F   F   F
  0.5941133989389655  0.2500000002140865  0.2322132027803434   F   F   F
  0.5941133989389655  0.3750000001070433  0.2322132027803434   F   F   F
  0.5987393615967519  0.3755624233161180  0.4025428448336066   T   T   T
  0.5988248682681910  0.4999156990587729  0.4030370776090000   T   T   T
  0.5990539365866436  0.7493049028837727  0.4015979059265705   T   T   T
  0.5989855962968219  0.8756721519243329  0.4010762444430536   T   T   T
  0.5993522145568773  0.2500825936660297  0.4016657334636874   T   T   T
  0.5994869867028966  0.6250482648739798  0.4031805873956416   T   T   T
  0.5993274293654248  0.0001008159116909  0.4018026913230896   T   T   T
  0.5997389065044405  0.1248375005415016  0.4024541136085039   T   T   T
  0.6014627162521458  0.0180047005786895  0.5691033674656804   T   T   T
  0.6127289064506715  0.8770939715780947  0.5678258178545023   T   T   T
  0.6230539764034548  0.7481228622884407  0.5675741991336132   T   T   T
  0.0639276580869896  0.2669248187886584  0.5776618507774267   T   T   T
  0.6486265366457993  0.3747863567132358  0.4863972920736400   T   T   T
  0.6499478003480135  0.6229912940910272  0.4882051187932729   T   T   T
  0.6504033271145878  0.2516803979254621  0.4829314758990053   T   T   T
  0.6505948514381451  0.1251491337080940  0.4895398084678151   T   T   T
  0.6509200495543516  0.4987640211144390  0.4877152310976237   T   T   T
  0.6508180354451436  0.9994895031928140  0.4848020277632255   T   T   T
  0.6527682308762307  0.7543706995206234  0.4832631978353524   T   T   T
  0.6525906381594476  0.8733538835633774  0.4834650776285626   T   T   T
  0.6545990963497701  0.0000000000000000  0.3156671842141137   F   F   F
  0.6545990963497701  0.5000000000000000  0.3156671842141137   F   F   F
  0.6545990963497701  0.6249999998929567  0.3156671842141137   F   F   F
  0.6545990963497701  0.7500000002140865  0.3156671842141137   F   F   F
  0.6545990963497701  0.8750000001070433  0.3156671842141137   F   F   F
  0.6545990963497701  0.1249999998929567  0.3156671842141137   F   F   F
  0.6545990963497701  0.2500000002140865  0.3156671842141137   F   F   F
  0.6545990963497701  0.3750000001070433  0.3156671842141137   F   F   F
  0.7199504949998908  0.2197503531176044  0.5534771177169325   T   T   T
  0.0724920146448887  0.5001156162601751  0.5768360437613234   T   T   T
  0.7361859554155863  0.6322502264210523  0.5541610641266813   T   T   T
  0.7387512518629517  0.9889884848132825  0.5520660984608614   T   T   T
  0.7433865499745207  0.3583827925783359  0.5558295328523453   T   T   T
  0.7499999997239044  0.0000000000000000  0.1996562654398630   F   F   F
  0.7499999997239044  0.5000000000000000  0.1996562654398630   F   F   F
  0.7499999997239044  0.6249999998929567  0.1996562654398630   F   F   F
  0.7499999997239044  0.7500000002140865  0.1996562654398630   F   F   F
  0.7499999997239044  0.8750000001070433  0.1996562654398630   F   F   F
  0.7499999997239044  0.1249999998929567  0.1996562654398630   F   F   F
  0.7499999997239044  0.2500000002140865  0.1996562654398630   F   F   F
  0.7499999997239044  0.3750000001070433  0.1996562654398630   F   F   F
  0.7498965833348485  0.3749188836228463  0.3866330961451948   T   T   T
  0.7498581624790260  0.7498226771036028  0.3868834566911115   T   T   T
  0.7500308610990279  0.4999518535652621  0.3874937761516208   T   T   T
  0.7500887499951834  0.6249291619017625  0.3882193849573232   T   T   T
  0.7500010598272416  0.8751154417820983  0.3867014369896331   T   T   T
  0.7501607901072892  0.1250023565446925  0.3882192183170435   T   T   T
  0.7502717677679552  0.2498122884448072  0.3867271310572946   T   T   T
  0.7505705159998631  0.9999519625784682  0.3873364010789954   T   T   T
  0.7531184559524063  0.4949181181435401  0.5543858914368942   T   T   T
  0.7637810424350733  0.8631695352907238  0.5546596479296411   T   T   T
  0.7644906561648200  0.7620724528429760  0.5547020409497939   T   T   T
  0.7715926348123027  0.1076341499977784  0.5515962231009018   T   T   T
  0.0807992565096636  0.0210467188295966  0.5707825753645404   T   T   T
  0.8454009036502299  0.0000000000000000  0.3156671842141137   F   F   F
  0.8454009036502299  0.5000000000000000  0.3156671842141137   F   F   F
  0.8454009036502299  0.6249999998929567  0.3156671842141137   F   F   F
  0.8454009036502299  0.7500000002140865  0.3156671842141137   F   F   F
  0.8454009036502299  0.8750000001070433  0.3156671842141137   F   F   F
  0.8454009036502299  0.1249999998929567  0.3156671842141137   F   F   F
  0.8454009036502299  0.2500000002140865  0.3156671842141137   F   F   F
  0.8454009036502299  0.3750000001070433  0.3156671842141137   F   F   F
  0.8466770416033477  0.3739020838089271  0.4828602352508861   T   T   T
  0.8480038281617418  0.2499523887207521  0.4857855783844982   T   T   T
  0.8491067193076497  0.4996264871432899  0.4849827117196459   T   T   T
  0.8498061571195683  0.6287070142220242  0.4883590191617661   T   T   T
  0.8500890510619348  0.8742146287110073  0.4855878055749705   T   T   T
  0.8500185127996128  0.9977989672055828  0.4865898866692678   T   T   T
  0.8508460739294685  0.7503774648068090  0.4865471622481550   T   T   T
  0.8527282793020007  0.1260023455775917  0.4860672872025776   T   T   T
  0.0872055104273577  0.8916424991736341  0.5695414894362488   T   T   T
  0.8851148802782164  0.3897515535899321  0.5674054307141864   T   T   T
  0.8971878705283015  0.2655363725631545  0.5686326714976933   T   T   T
  0.9004940907632825  0.5005259188587087  0.4021384556850814   T   T   T
  0.9010073023939642  0.3751363011515987  0.4012514217074114   T   T   T
  0.9009782616903677  0.6253524653802656  0.4027160336607845   T   T   T
  0.9012491105960491  0.2496411878707847  0.4016490395193308   T   T   T
  0.9011885126162616  0.1246316001784575  0.4023907006362699   T   T   T
  0.9011514221723784  0.0002451304325224  0.4021765524699166   T   T   T
  0.9012605333172632  0.8749435292153588  0.4015884252158129   T   T   T
  0.9013617545452662  0.7499662935331546  0.4020063779180129   T   T   T
  0.9058866010610345  0.0000000000000000  0.2322132027803434   F   F   F
  0.9058866010610345  0.5000000000000000  0.2322132027803434   F   F   F
  0.9058866010610345  0.6249999998929567  0.2322132027803434   F   F   F
  0.9058866010610345  0.7500000002140865  0.2322132027803434   F   F   F
  0.9058866010610345  0.8750000001070433  0.2322132027803434   F   F   F
  0.9058866010610345  0.1249999998929567  0.2322132027803434   F   F   F
  0.9058866010610345  0.2500000002140865  0.2322132027803434   F   F   F
  0.9058866010610345  0.3750000001070433  0.2322132027803434   F   F   F
  0.9061586749471665  0.5207571546643939  0.5755031584850415   T   T   T
  0.9144375159649717  0.8739394180290831  0.5711514768584751   T   T   T
  0.9161058099803741  0.0146974123223362  0.5743692906406118   T   T   T
  0.9250364798826490  0.7652501729988320  0.5721489364432857   T   T   T
  0.9310766472265515  0.1370788466531774  0.5764309353221936   T   T   T
  0.9352701551828818  0.6474114928219391  0.5760702612374764   T   T   T
  0.0941133989389655  0.0000000000000000  0.2322132027803434   F   F   F
  0.0941133989389655  0.5000000000000000  0.2322132027803434   F   F   F
  0.0941133989389655  0.6249999998929567  0.2322132027803434   F   F   F
  0.0941133989389655  0.7500000002140865  0.2322132027803434   F   F   F
  0.0941133989389655  0.8750000001070433  0.2322132027803434   F   F   F
  0.0941133989389655  0.1249999998929567  0.2322132027803434   F   F   F
  0.0941133989389655  0.2500000002140865  0.2322132027803434   F   F   F
  0.0941133989389655  0.3750000001070433  0.2322132027803434   F   F   F
  0.9980361505466816  0.3751658684290825  0.4728068374130520   T   T   T
  0.9986719061659524  0.5013723417504025  0.4725392006988473   T   T   T
  0.0992061588101954  0.5005190020195859  0.4022576439492985   T   T   T
  0.0994426541479574  0.2502894139496339  0.4029140921456438   T   T   T
  0.0995057114379524  0.3744552218396106  0.4030062864767516   T   T   T
  0.0993684635669845  0.1248801820891801  0.4017110136005511   T   T   T
  0.0995000003119574  0.6245641426285450  0.4015787159739816   T   T   T
  0.0994683332580900  0.9999253048158983  0.4016127654734075   T   T   T
  0.1009514510672555  0.7536377542646329  0.5672379120437128   T   T   T
  0.0996349851092211  0.8747404314651474  0.4015843510473069   T   T   T
  0.0998910350951161  0.7501990290689163  0.4014324230867560   T   T   T
  0.1029721241302229  0.1494649277673435  0.5641425348342199   T   T   T
  0.1061915685313304  0.6272154655373204  0.5698405543298700   T   T   T
  0.1481705005613757  0.3767067468660584  0.4898353346697487   T   T   T
  0.1491603725140648  0.4987166376717425  0.4880937993321660   T   T   T
  0.1495807431420318  0.8755454592783010  0.4847286834882629   T   T   T
  0.1510674223413032  0.9980929980892055  0.4861701522435317   T   T   T
  0.1511728857308718  0.2473985803769565  0.4886671635060924   T   T   T
  0.1516849154922376  0.1247786356840611  0.4844557446486489   T   T   T
  0.1523048783691048  0.7478217184158018  0.4848445918094766   T   T   T
  0.1525857353051470  0.6259579038112305  0.4851420883892179   T   T   T
  0.1545990963497701  0.0000000000000000  0.3156671842141137   F   F   F
  0.1545990963497701  0.5000000000000000  0.3156671842141137   F   F   F
  0.1545990963497701  0.6249999998929567  0.3156671842141137   F   F   F
  0.1545990963497701  0.7500000002140865  0.3156671842141137   F   F   F
  0.1545990963497701  0.8750000001070433  0.3156671842141137   F   F   F
  0.1545990963497701  0.1249999998929567  0.3156671842141137   F   F   F
  0.1545990963497701  0.2500000002140865  0.3156671842141137   F   F   F
  0.1545990963497701  0.3750000001070433  0.3156671842141137   F   F   F
  0.2051713213901326  0.3544352041013137  0.5822222045436538   T   T   T
  0.2129871728053831  0.5132036726074487  0.5793259689845638   T   T   T
  0.2310694623568694  0.8598834577742993  0.5522158360931905   T   T   T
  0.2333529304073103  0.1112066572060559  0.5571620804662445   T   T   T
  0.2499999997239044  0.0000000000000000  0.1996562654398630   F   F   F
  0.2499999997239044  0.5000000000000000  0.1996562654398630   F   F   F
  0.2499999997239044  0.6249999998929567  0.1996562654398630   F   F   F
  0.2499999997239044  0.7500000002140865  0.1996562654398630   F   F   F
  0.2499999997239044  0.8750000001070433  0.1996562654398630   F   F   F
  0.2499999997239044  0.1249999998929567  0.1996562654398630   F   F   F
  0.2499999997239044  0.2500000002140865  0.1996562654398630   F   F   F
  0.2499999997239044  0.3750000001070433  0.1996562654398630   F   F   F
  0.2495335273834186  0.3748593001161731  0.3890371794674092   T   T   T
  0.2496933587086828  0.5000424445745368  0.3886065436145419   T   T   T
  0.2498912330835671  0.2500037056164757  0.3882000125922364   T   T   T
  0.2502012511770019  0.9998117415749129  0.3878523771009805   T   T   T
  0.2503413256164193  0.6247969525774970  0.3870737967775034   T   T   T
  0.2503801691464828  0.7501052298357037  0.3870926957900487   T   T   T
  0.2503260408313882  0.1249738987058639  0.3873466446136927   T   T   T
  0.2506186027795477  0.8749175792460562  0.3880202367925036   T   T   T
  0.2555338591247402  0.6279618821714997  0.5560260485340959   T   T   T
  0.2570192485678198  0.7368817729266333  0.5575119151665366   T   T   T
  0.2671578875792340  0.2420635886652891  0.5556954643014295   T   T   T
  0.2724276736319085  0.9775567535704942  0.5517138943935991   T   T   T
  0.3454009036502299  0.0000000000000000  0.3156671842141137   F   F   F
  0.3454009036502299  0.5000000000000000  0.3156671842141137   F   F   F
  0.3454009036502299  0.6249999998929567  0.3156671842141137   F   F   F
  0.3454009036502299  0.7500000002140865  0.3156671842141137   F   F   F
  0.3454009036502299  0.8750000001070433  0.3156671842141137   F   F   F
  0.3454009036502299  0.1249999998929567  0.3156671842141137   F   F   F
  0.3454009036502299  0.2500000002140865  0.3156671842141137   F   F   F
  0.3454009036502299  0.3750000001070433  0.3156671842141137   F   F   F
  0.3484967141542326  0.1252441839324361  0.4871067872234900   T   T   T
  0.3500691853566597  0.3730269485179036  0.4831175240194372   T   T   T
  0.3504813916734796  0.7502761739335821  0.4869251013850605   T   T   T
  0.3503087820394385  0.8741137439551688  0.4891385866152499   T   T   T
  0.3502150783229396  0.2495550610280988  0.4840694062587722   T   T   T
  0.3507281282939101  0.6246650641120914  0.4837614690471607   T   T   T
  0.3509339165514194  0.5025942561411640  0.4845588750747570   T   T   T
  0.3516488714374233  0.0021465726227098  0.4871487348902964   T   T   T
  0.3646144059761250  0.5027164166972572  0.5755976265532857   T   T   T
  0.3671513095502038  0.3684282676114166  0.5718313054599017   T   T   T
  0.4009017439466186  0.2498494229681831  0.4010502703769966   T   T   T
  0.4010138062953695  0.0001833595748351  0.4027075945887607   T   T   T
  0.4009240064860220  0.8751420268343935  0.4031086854484769   T   T   T
  0.4010586899809419  0.1244561549180559  0.4017445303306022   T   T   T
  0.4011667639036223  0.3745215909014565  0.4006709266278898   T   T   T
  0.4013385544666700  0.5005334941991578  0.4010164182437327   T   T   T
  0.4016240640705336  0.7505177069595700  0.4025163786756908   T   T   T
  0.4018684213773775  0.6253749091688032  0.4014580519120939   T   T   T
  0.4058866010610345  0.0000000000000000  0.2322132027803434   F   F   F
  0.4058866010610345  0.5000000000000000  0.2322132027803434   F   F   F
  0.4058866010610345  0.6249999998929567  0.2322132027803434   F   F   F
  0.4058866010610345  0.7500000002140865  0.2322132027803434   F   F   F
  0.4058866010610345  0.8750000001070433  0.2322132027803434   F   F   F
  0.4058866010610345  0.1249999998929567  0.2322132027803434   F   F   F
  0.4058866010610345  0.2500000002140865  0.2322132027803434   F   F   F
  0.4058866010610345  0.3750000001070433  0.2322132027803434   F   F   F
  0.4061003426393434  0.6562417099315339  0.5685414988194994   T   T   T
  0.4045489355869190  0.1310911246504079  0.5694657521079478   T   T   T
  0.4182472748712562  0.2410135885243602  0.5736422958653271   T   T   T
  0.4350531105416537  0.9979956851193155  0.5775808421224125   T   T   T
  0.4358893207432458  0.8870860562986831  0.5716313672125678   T   T   T
  0.4590976299515842  0.7600640575663477  0.5785124139863664   T   T   T
  0.4980522180556072  0.3746300006095176  0.4749523774862131   T   T   T
  0.4986811844079572  0.5006311758764285  0.4752445477544419   T   T   T
  0.5000000000000000  0.0000000000000000  0.3032267788896164   F   F   F
  0.5000000000000000  0.5000000000000000  0.3032267788896164   F   F   F
  0.5000000000000000  0.6249999998929567  0.3032267788896164   F   F   F
  0.5000000000000000  0.7500000002140865  0.3032267788896164   F   F   F
  0.5000000000000000  0.8750000001070433  0.3032267788896164   F   F   F
  0.5000000000000000  0.1249999998929567  0.3032267788896164   F   F   F
  0.5000000000000000  0.2500000002140865  0.3032267788896164   F   F   F
  0.5000000000000000  0.3750000001070433  0.3032267788896164   F   F   F
  0.5003594093378435  0.2507267579038704  0.4716228148670858   T   T   T
  0.5003247505491285  0.1244527276855281  0.4732845904599749   T   T   T
  0.5010149787657063  0.6254345484238412  0.4736612844948557   T   T   T
  0.5006396561690123  0.8751576231449215  0.4739469771575839   T   T   T
  0.5012058538736550  0.7507666985698201  0.4744234931599185   T   T   T
  0.5014147681709364  0.0010096430676544  0.4732552740148482   T   T   T
  0.5335585975909475  0.5134642774665491  0.5725309968742966   T   T   T
  0.5367982633279540  0.3745841973872799  0.5769107136842886   T   T   T
  0.0036339779646305  0.7544232403474768  0.5406138272498611   T   T   T
  0.0103320394868927  0.1417609726377805  0.5389366068226492   T   T   T
  0.0193548384160107  0.6402500968237433  0.5399648623762721   T   T   T
  0.6119260430875644  0.1885886995102664  0.5441130874330402   T   T   T
  0.6320623545524777  0.9491727901218410  0.5432017759743675   T   T   T
  0.6323004358986318  0.6707252542061208  0.5488874318344016   T   T   T
  0.6775321721054247  0.8126187012726623  0.5346951513990480   T   T   T
  0.6880107055652481  0.2949224679696907  0.5373590519965787   T   T   T
  0.6969453901490462  0.0588015175491176  0.5337557488913046   T   T   T
  0.7039591241315982  0.5608511797262267  0.5320567793150015   T   T   T
  0.7059956348183825  0.4278059940921667  0.5323571751823313   T   T   T
  0.7936691112891703  0.6919490635552638  0.5323709960813247   T   T   T
  0.7978256322364236  0.9337657188073952  0.5314852950095693   T   T   T
  0.8023119774182108  0.1833377476583085  0.5327203375242190   T   T   T
  0.8426367017522083  0.3222495845379142  0.5381847028039436   T   T   T
  0.8533859422103377  0.4618182272432410  0.5459767967223014   T   T   T
  0.8554863940869503  0.8138702843043557  0.5398328508500971   T   T   T
  0.8792091150581126  0.0798754038286396  0.5499489659208127   T   T   T
  0.8881386445415135  0.5924008684478443  0.5467997408168059   T   T   T
  0.9790174621657695  0.3818585072649839  0.5399170605681238   T   T   T
  0.9844832918108191  0.2560062888052509  0.5420702024188097   T   T   T
  0.9920042430561029  0.5096005983612185  0.5411571173120834   T   T   T
  0.9941672633238168  0.8851987601776424  0.5401646201188782   T   T   T
  0.9983690049724232  0.0024698872180365  0.5413457340804325   T   T   T
  0.1074586191314083  0.4366598835628678  0.5406301576940945   T   T   T
  0.1136645520439767  0.3242388633797981  0.5509638761440553   T   T   T
  0.1203993933862998  0.8252608643488050  0.5435334890724123   T   T   T
  0.1344945517889799  0.5544979156551458  0.5462839680962259   T   T   T
  0.1366751231386532  0.0738683516174509  0.5414769288217762   T   T   T
  0.1717904119918460  0.6852350889460134  0.5360157575917351   T   T   T
  0.1946730668145044  0.9314863952939479  0.5342172312774837   T   T   T
  0.2025261529981732  0.1855142176073092  0.5358578748071402   T   T   T
  0.2795635354894460  0.3236163218771279  0.5512105117604414   T   T   T
  0.2825115059175671  0.5511757593228690  0.5479355581274113   T   T   T
  0.2934479445646859  0.0550135095373014  0.5338333930587086   T   T   T
  0.2938685357293802  0.8060709662344713  0.5332257482923557   T   T   T
  0.3287663535670085  0.6818300792648636  0.5345737478159226   T   T   T
  0.3412127390745253  0.4364283183888427  0.5280930160177497   T   T   T
  0.3557274510781750  0.1914673381875207  0.5373573791328993   T   T   T
  0.3775328320288014  0.9460285017033586  0.5444648296355742   T   T   T
  0.4555354436847091  0.5116527172755679  0.5420824158060579   T   T   T
  0.4645374064927757  0.3691492770541435  0.5421835112685421   T   T   T
  0.4863921320562838  0.6300269176315324  0.5415067958421125   T   T   T
  0.4896938099888741  0.1235373045779810  0.5420503740000646   T   T   T
  0.4917685420524651  0.2554916686105290  0.5392068238726457   T   T   T
  0.5086694785671606  0.0100939631436514  0.5417919753774852   T   T   T
  0.5163064930938217  0.8760366706995500  0.5410458519286107   T   T   T
  0.5258935449872443  0.7576868946241107  0.5420731364488939   T   T   T
  0.0000000000000000  0.0000000000000000  0.1972002481458333   F   F   F
  0.0000000000000000  0.5000000000000000  0.1972002481458333   F   F   F
  0.0000000000000000  0.6249999998929567  0.1972002481458333   F   F   F
  0.0000000000000000  0.7500000002140865  0.1972002481458333   F   F   F
  0.0000000000000000  0.8750000001070433  0.1972002481458333   F   F   F
  0.0000000000000000  0.1249999998929567  0.1972002481458333   F   F   F
  0.0000000000000000  0.2500000002140865  0.1972002481458333   F   F   F
  0.0000000000000000  0.3750000001070433  0.1972002481458333   F   F   F
  0.9997903850000517  0.5002353965777070  0.3700235000234796   T   T   T
  0.9999009476810310  0.6248894099660365  0.3698953771012829   T   T   T
  0.0000469534871515  0.1247574735722619  0.3699074061727251   T   T   T
  0.0000995151153911  0.0001806461415563  0.3697589252452795   T   T   T
  0.0005137758389497  0.7500495129815499  0.3696372380387395   T   T   T
  0.0004915848429540  0.8748942956772766  0.3696245617675541   T   T   T
  0.0006529185187252  0.3750282688996349  0.3700039817874028   T   T   T
  0.0006499754209474  0.2501515798166862  0.3699873924291398   T   T   T
  0.5825346300460907  0.4375000002676046  0.2838671249793236   F   F   F
  0.5825346300460907  0.5625000001605613  0.2838671249793236   F   F   F
  0.5825346300460907  0.0625000001605613  0.2838671249793236   F   F   F
  0.5825346300460907  0.6875000000535181  0.2838671249793236   F   F   F
  0.5825346300460907  0.8124999999464819  0.2838671249793236   F   F   F
  0.5825346300460907  0.9375000002676046  0.2838671249793236   F   F   F
  0.5825346300460907  0.1875000000535181  0.2838671249793236   F   F   F
  0.5825346300460907  0.3124999999464819  0.2838671249793236   F   F   F
  0.5831823906512676  0.4375325994844514  0.4558096881680778   T   T   T
  0.5833416010709596  0.3132563092043413  0.4538789040786130   T   T   T
  0.5842285438314618  0.5615511435882661  0.4551397468333843   T   T   T
  0.5839801874203939  0.8128330370719268  0.4524691913713620   T   T   T
  0.5841153295726308  0.1874524713711991  0.4550320566917380   T   T   T
  0.5841042575076741  0.9372028068346993  0.4544864022293465   T   T   T
  0.5851657712137036  0.6877874397351776  0.4564800814366906   T   T   T
  0.5852091882379939  0.0631627368151903  0.4541410177151408   T   T   T
  0.6657105641648826  0.4375000002676046  0.2025710526275901   F   F   F
  0.6657105641648826  0.5625000001605613  0.2025710526275901   F   F   F
  0.6657105641648826  0.0625000001605613  0.2025710526275901   F   F   F
  0.6657105641648826  0.6875000000535181  0.2025710526275901   F   F   F
  0.6657105641648826  0.8124999999464819  0.2025710526275901   F   F   F
  0.6657105641648826  0.9375000002676046  0.2025710526275901   F   F   F
  0.6657105641648826  0.1875000000535181  0.2025710526275901   F   F   F
  0.6657105641648826  0.3124999999464819  0.2025710526275901   F   F   F
  0.6672676464505256  0.4376174943732347  0.3688157881974821   T   T   T
  0.6674273420878407  0.3124830202219601  0.3680352910525012   T   T   T
  0.6676164354545931  0.5625666391848672  0.3689148791919185   T   T   T
  0.6677094627094170  0.6872979290107240  0.3685488815068731   T   T   T
  0.6676590764674230  0.8125093003986229  0.3675245295475432   T   T   T
  0.6681713913052546  0.1874576926746334  0.3683098378965974   T   T   T
  0.6682547617124991  0.9377026570916964  0.3679589824917311   T   T   T
  0.6682621778610710  0.0625069853836012  0.3684194448924444   T   T   T
  0.7474970355241404  0.3725814691899980  0.4540104675047200   T   T   T
  0.7485305592125655  0.4991647036749917  0.4554617358938995   T   T   T
  0.7499999997239044  0.0000000000000000  0.2777865629422820   F   F   F
  0.7499999997239044  0.5000000000000000  0.2777865629422820   F   F   F
  0.7499999997239044  0.6249999998929567  0.2777865629422820   F   F   F
  0.7499999997239044  0.7500000002140865  0.2777865629422820   F   F   F
  0.7499999997239044  0.8750000001070433  0.2777865629422820   F   F   F
  0.7499999997239044  0.1249999998929567  0.2777865629422820   F   F   F
  0.7499999997239044  0.2500000002140865  0.2777865629422820   F   F   F
  0.7499999997239044  0.3750000001070433  0.2777865629422820   F   F   F
  0.7502927816688783  0.6256774252398608  0.4568337195669178   T   T   T
  0.7499650781469919  0.1243034925452380  0.4571492648061996   T   T   T
  0.7507794337862325  0.8742699846121352  0.4542108345001964   T   T   T
  0.7507592646440547  0.2482580234240523  0.4545046038440952   T   T   T
  0.7514727417355155  0.7507645721400101  0.4545592210670264   T   T   T
  0.7517756470339660  0.9998388309161800  0.4555875301409164   T   T   T
  0.0825346300460907  0.4375000002676046  0.2838671249793236   F   F   F
  0.0825346300460907  0.5625000001605613  0.2838671249793236   F   F   F
  0.0825346300460907  0.0625000001605613  0.2838671249793236   F   F   F
  0.0825346300460907  0.6875000000535181  0.2838671249793236   F   F   F
  0.0825346300460907  0.8124999999464819  0.2838671249793236   F   F   F
  0.0825346300460907  0.9375000002676046  0.2838671249793236   F   F   F
  0.0825346300460907  0.1875000000535181  0.2838671249793236   F   F   F
  0.0825346300460907  0.3124999999464819  0.2838671249793236   F   F   F
  0.8324245097166283  0.4375571363045707  0.3681358118423999   T   T   T
  0.8324251164907963  0.5626026731050149  0.3685401732714101   T   T   T
  0.8324186625730381  0.6874356453192767  0.3686087135451122   T   T   T
  0.8324948528410576  0.3124219831951339  0.3677879858911563   T   T   T
  0.8323978839018270  0.1871785083107073  0.3684144746216985   T   T   T
  0.8323871233083397  0.8125200820641948  0.3682158185501444   T   T   T
  0.8324020907020083  0.0625681163878535  0.3685367058106415   T   T   T
  0.8326526139523945  0.9375847360655593  0.3681244106762405   T   T   T
  0.8342894060167296  0.4375000002676046  0.2025710526275901   F   F   F
  0.8342894060167296  0.5625000001605613  0.2025710526275901   F   F   F
  0.8342894060167296  0.0625000001605613  0.2025710526275901   F   F   F
  0.8342894060167296  0.6875000000535181  0.2025710526275901   F   F   F
  0.8342894060167296  0.8124999999464819  0.2025710526275901   F   F   F
  0.8342894060167296  0.9375000002676046  0.2025710526275901   F   F   F
  0.8342894060167296  0.1875000000535181  0.2025710526275901   F   F   F
  0.8342894060167296  0.3124999999464819  0.2025710526275901   F   F   F
  0.0829221936613579  0.4376655255138583  0.4542090806901424   T   T   T
  0.0840289190585704  0.5624195777562966  0.4553682663610674   T   T   T
  0.0841918461481790  0.0619423095479735  0.4544195029713018   T   T   T
  0.0843021435694583  0.9379276694936538  0.4532757892336752   T   T   T
  0.0847181359560906  0.1876312579672276  0.4544844898573542   T   T   T
  0.0848641143354308  0.8120741118556587  0.4545559965739439   T   T   T
  0.0851899003142379  0.6872736191189133  0.4531870157259335   T   T   T
  0.0853300214187888  0.3122304846048657  0.4573416002021272   T   T   T
  0.9148962332468982  0.4373992064180929  0.4543106093909285   T   T   T
  0.9148817366817347  0.5633015374040151  0.4560087329359197   T   T   T
  0.9160161907518853  0.3122730100924646  0.4535473016774835   T   T   T
  0.9158857823107459  0.9375933125251179  0.4540738121687191   T   T   T
  0.9162010072576586  0.0617807504746034  0.4562104537173426   T   T   T
  0.9174653699539093  0.4375000002676046  0.2838671249793236   F   F   F
  0.9174653699539093  0.5625000001605613  0.2838671249793236   F   F   F
  0.9174653699539093  0.0625000001605613  0.2838671249793236   F   F   F
  0.9174653699539093  0.6875000000535181  0.2838671249793236   F   F   F
  0.9174653699539093  0.8124999999464819  0.2838671249793236   F   F   F
  0.9174653699539093  0.9375000002676046  0.2838671249793236   F   F   F
  0.9174653699539093  0.1875000000535181  0.2838671249793236   F   F   F
  0.9174653699539093  0.3124999999464819  0.2838671249793236   F   F   F
  0.9172881033815566  0.1877772445474527  0.4543440717602790   T   T   T
  0.9173971717227962  0.6882634891354196  0.4542324505051011   T   T   T
  0.9175001701048585  0.8128093972743948  0.4539934768737477   T   T   T
  0.1657105641648826  0.4375000002676046  0.2025710526275901   F   F   F
  0.1657105641648826  0.5625000001605613  0.2025710526275901   F   F   F
  0.1657105641648826  0.0625000001605613  0.2025710526275901   F   F   F