Ta  N  W Cu                             
   1.00000000000000     
    18.1096308199999996    0.0000000000000000    0.0000000000000000
     0.0000000000000000   23.3551997799999995    0.0000000000000000
     0.0000000000000000    0.0000000000000000   30.4818171199999988
   Ta   N    W    Cu
   216   240    24     1
Direct
  0.0000150762585718  0.0000034242841483  0.1978751364580860
  0.3343962003936949  0.0624736024048043  0.2033231276357561
  0.1656141095550727  0.0624640708303339  0.2033235721491173
  0.2500100519042232  0.1249992616351809  0.2784036804035228
  0.0826622315947436  0.0624615966627237  0.2846621367434549
  0.4173454909483827  0.0624607510666776  0.2846710179166830
  0.0000153257018641  0.1251527901444372  0.3703528449472856
  0.3325777305371899  0.0624726356925565  0.3690552480476598
  0.1674480284183319  0.0624812201697161  0.3690488313831922
  0.2499617459432653  0.1251853867631275  0.4553298926122276
  0.0835568693527054  0.0626502869053580  0.4552976098536486
  0.4164462354549895  0.0626471586267795  0.4553267787750301
  0.0000052756057303  0.1284144663538246  0.5416022678366791
  0.3352239309977997  0.0632662608970314  0.5427055266185228
  0.1645323156815256  0.0632221666952078  0.5427952504657514
  0.0000185302704325  0.1248252999240512  0.1977361625704498
  0.3341023988249202  0.1872679035961306  0.2030511969006277
  0.1659338006591364  0.1872631230762247  0.2030448912172813
  0.2500591082430896  0.2500273930174805  0.2780111436305934
  0.0826771896150314  0.1874265235304242  0.2842594767345579
  0.4173247084834866  0.1874269172145190  0.2842815146263094
  0.0000140412923988  0.2502005894778965  0.3697422919150647
  0.3327450327717530  0.1874488947222506  0.3685552753079264
  0.1673324245405911  0.1874811598046288  0.3685083724848309
  0.2499648776767954  0.2504966595791162  0.4541959741242693
  0.0838109882818623  0.1878809773392708  0.4547351778307913
  0.4162595825038402  0.1877392147850657  0.4547738238146115
  0.0000031236177405  0.2527134657144530  0.5409180679203829
  0.0000105497654652  0.2498221131348524  0.1973688211643835
  0.3340716698092267  0.3123524101196368  0.2026536562541940
  0.1659950153510163  0.3123355356123939  0.2026415428369579
  0.2500754269222624  0.3750229878460273  0.2777156033743390
  0.0826314395219781  0.3124332872148204  0.2838204292265348
  0.4174022382692358  0.3124364969664666  0.2838723953199613
  0.0000399427016646  0.3751263049384116  0.3693301452156246
  0.3327569762213614  0.3125114711106411  0.3681201110244004
  0.1673743606055225  0.3125143339426648  0.3680097078502171
  0.2500044492997184  0.3751849802002746  0.4538081204446936
  0.0837174725026981  0.3129007164461560  0.4541872639762118
  0.4164829800870976  0.3127588275258858  0.4542953413672081
  0.0000144551715911  0.3760055460222884  0.5408157128137884
  0.0000445694005265  0.3748889861325316  0.1970299698479380
  0.3343035391395376  0.4374024285305490  0.2024634075226647
  0.1657848340958462  0.4373930956942819  0.2024353048519232
  0.2500064783913666  0.9999947338603805  0.2786821530166384
  0.0826472559196842  0.4374829659104581  0.2836220625125493
  0.4173898526165248  0.4374915374412655  0.2837046468491048
  1.0000089650448356  0.9999929804156547  0.3706489884105022
  0.3327578731588069  0.4375131840112308  0.3679771365358877
  0.1674398465759247  0.4375298755664453  0.3678114318100399
  0.2499428317080400  0.0000487127709562  0.4559667007521345
  0.0838288588412863  0.4376639452783350  0.4539651796443558
  0.4165416791871218  0.4374916385826193  0.4543195986243223
  0.9999807961467224  0.0000657583144111  0.5415439783164009
  0.0000573532566290  0.4999783770548690  0.1969177026726416
  0.3342493608991026  0.5626200696631608  0.2024851138589452
  0.1658683605389570  0.5626489968162516  0.2024739698305481
  0.2501280358579391  0.6250471092130804  0.2777401675226068
  0.0826614008544197  0.5625133453927442  0.2836458528899410
  0.4174203638884589  0.5625065644238908  0.2837459224198065
  0.0000366235950854  0.6248701442711964  0.3693261825945763
  0.3327795150464225  0.5624523399369031  0.3681155362728442
  0.1674463749177833  0.5624579404026978  0.3678731521111260
  0.2502280468238051  0.6247318126069460  0.4539857977257855
  0.0838336396001508  0.5622936259042028  0.4539816005143757
  0.4163149067334239  0.5623046898523805  0.4543742797031428
  0.9996948602779510  0.6238519831307434  0.5407168503857155
  0.0000624447805053  0.6251339756721721  0.1970232199596300
  0.3341068987039617  0.6876243561072654  0.2026887594911428
  0.1659790206648566  0.6876495247184150  0.2026598771548824
  0.2500758075853926  0.7499838873960987  0.2780793581913225
  0.0826767884813716  0.6875866831728512  0.2838414653847847
  0.4173685791999718  0.6875592022180057  0.2839139948782896
  0.0000360812030548  0.7498330944816932  0.3697298873509400
  0.3327276577322733  0.6874766626950464  0.3681859232668851
  0.1674346568841105  0.6874676214552592  0.3680469828583128
  0.2499935174397667  0.7495595427996574  0.4542593734762191
  0.0837234150278728  0.6871087309345738  0.4541299529711039
  0.4166469739708621  0.6872189537195371  0.4544616463290206
  0.9999668028342904  0.7474332985549976  0.5409149846388308
  0.0000403762101724  0.7502069652082022  0.1973975207398821
  0.3341209033950677  0.8127561209189412  0.2030432802166899
  0.1659043810810616  0.8127708050987577  0.2030200437761905
  0.2500405165214864  0.8749509706890137  0.2784171024508031
  0.0826966070597286  0.8125789227756482  0.2842667747530808
  0.4173453608334420  0.8125673047112505  0.2843045451850224
  0.0000176823129589  0.8748387152889201  0.3703438780267417
  0.3327583485542526  0.8125342906303465  0.3686183367437447
  0.1673949570245936  0.8125389470797212  0.3685372202677162
  0.2499949562501506  0.8748361153386980  0.4553306068683895
  0.0838931767716648  0.8121447383892249  0.4547383995134543
  0.4162449768738917  0.8122963465453472  0.4548197772297092
  0.9999831659472176  0.8715842850274228  0.5415974396016069
  0.0000202046584423  0.8751629372839703  0.1977036403632196
  0.3343673565265936  0.9375241252161083  0.2033356015394155
  0.1656298884834789  0.9375411294180227  0.2033255137520341
  0.2501347873859748  0.4999760379507454  0.2777165582438014
  0.0826758710720372  0.9375528621338698  0.2846678268748252
  0.4173298925101273  0.9375444050455032  0.2846751999165090
  0.0000461643655548  0.4999876446189247  0.3692120424082988
  0.3325873587407089  0.9375514191945590  0.3690633198998539
  0.1674693412891546  0.9375369064537942  0.3690375501322168
  0.2502298082867009  0.4999257969479494  0.4538877856790794
  0.0835632850818781  0.9373807151247368  0.4553004514283185
  0.4165075843586675  0.9374569524649977  0.4553345251225573
  0.9997896201570339  0.5000621355948215  0.5408937130438919
  0.3352723071026442  0.9371615336096525  0.5427597095717547
  0.1645651513240267  0.9369003110847420  0.5427926010419807
  0.4999938735304789  0.9999957636132272  0.1978782842021501
  0.8343916788520396  0.0624687866576520  0.2033221951899439
  0.6656144784535156  0.0624586964502009  0.2033253352473392
  0.7500104921052898  0.1249991350604535  0.2783887965585010
  0.5826737952428024  0.0624648725651254  0.2846701525984450
  0.9173304581649061  0.0624649612021453  0.2846623956426199
  0.5000524298693788  0.1251258482806887  0.3703732784432037
  0.8325730799728023  0.0624869938542199  0.3690631700543862
  0.6674813077001402  0.0624818216966240  0.3690625107275482
  0.7500731715569722  0.1252314439113913  0.4553581360768033
  0.5836807380019546  0.0626478732145715  0.4553405321295634
  0.9164365665864299  0.0626514621159834  0.4553102365588562
  0.4999941950391027  0.1276305086133429  0.5418794131026401
  0.8354463453127280  0.0632133902789254  0.5428097603119302
  0.6647879981676627  0.0632300164309977  0.5427575835431190
  0.4999966731217463  0.1248190154539455  0.1977271734521786
  0.8340932150384743  0.1872559032665216  0.2030274464862000
  0.6659183349159226  0.1872535842578038  0.2030403665123424
  0.7499869550324554  0.2499949212834107  0.2779811206636750
  0.5826985423872495  0.1874204943426293  0.2842646678327994
  0.9173232502321376  0.1874189684841521  0.2842495758821495
  0.5000341335079018  0.2501762893100353  0.3697711521414163
  0.8327229059937077  0.1874864641127688  0.3685295219810487
  0.6673256095164414  0.1874663049887019  0.3685447500429665
  0.7501017398442211  0.2505689650298003  0.4542134829286565
  0.5838943884863143  0.1878063969643387  0.4547895777046145
  0.9162359925861033  0.1878936951031859  0.4547480683278646
  0.4999553296328675  0.2530011016159544  0.5408627361424700
  0.4999888621528611  0.2498279621678073  0.1973959810127698
  0.8340373218756070  0.3123306704892362  0.2026078721166028
  0.6659518747581051  0.3123467492833727  0.2026249508905351
  0.7499884184630902  0.3749897816015921  0.2776395799849328
  0.5826186363171512  0.3124278946154183  0.2838238696439682
  0.9173887850512642  0.3124265864366152  0.2837848549740320
  0.4999973449473706  0.3751044884264396  0.3694277214801037
  0.8327296707347805  0.3125253652587720  0.3679991356432742
  0.6673096558487712  0.3125089237954869  0.3680523251628374
  0.7500967223278036  0.3752629990385809  0.4537194463078243
  0.5836800320256786  0.3128493039550917  0.4542878118336962
  0.9164079570472422  0.3129314220667718  0.4541980806311220
  0.4999754640781363  0.3751136520077578  0.5413264777145926
  0.4999521941394210  0.3749219434915554  0.1970507242123287
  0.8342408677470147  0.4373731299893500  0.2023965628677294
  0.6657072351217111  0.4373724029472839  0.2024118602181489
  0.7500177705737948  0.9999939659400919  0.2786690373523659
  0.5826087847188625  0.4374842766306692  0.2836175434894684
  0.9174408413253466  0.4374794707750680  0.2835557712393607
  0.5000384271012931  0.0000135352322549  0.3706545110950443
  0.8327396244415161  0.4375248115243722  0.3677264938876934
  0.6672816627231252  0.4375014443266134  0.3677955040259452
  0.7500735773726718  0.0000227340067179  0.4559791350291438
  0.5837984526234902  0.4376073890171725  0.4541137711437705
  0.9163116951432417  0.4376913265259390  0.4540077365083313
  0.4999985341614127  0.0007970010155986  0.5415579917915947
  0.4999322641115743  0.4999609980824285  0.1969464133467452
  0.8341865383086065  0.5626344156983424  0.2024263554061278
  0.6657489794684375  0.5626349233435964  0.2024360157988384
  0.7499680733113090  0.6250517304592567  0.2776069417486419
  0.5825565771249015  0.5625068066974642  0.2836346311470631
  0.9174682627708580  0.5625098790538504  0.2835559279045224
  0.4999685914485787  0.6248328712411156  0.3694613063721034
  0.8327615292442752  0.5624540931909745  0.3677294034232743
  0.6673238218975872  0.5624505511858094  0.3678489160708910
  0.7501307414964882  0.6246507129625104  0.4536801187610603
  0.5838798272742960  0.5623017472288280  0.4541154736905161
  0.9163112179940183  0.5622844690315690  0.4540215539668521
  0.5008721421899646  0.6234796712222351  0.5411900053802597
  0.4999282167730285  0.6251276556124291  0.1970603236439578
  0.8340476609235896  0.6876513265653303  0.2026219548045989
  0.6659102765368977  0.6876436815808781  0.2026431016151851
  0.7499964209140513  0.7500359408186372  0.2779752610193942
  0.5826302703870007  0.6875687887062272  0.2838307391156117
  0.9174098688555232  0.6875780880925140  0.2837783106589605
  0.5000027284959097  0.7498653204983502  0.3698066535809177
  0.8327330939238603  0.6874709504833109  0.3679582683192240
  0.6673163482704964  0.6874861397913337  0.3680022132941581
  0.7500892875587483  0.7494853555654570  0.4541575193720573
  0.5837278674581525  0.6871163399572607  0.4542333173650687
  0.9163746944748435  0.6870714224221155  0.4541520889852155
  0.5000762431819998  0.7482299171794422  0.5409649704296292
  0.4999539779354368  0.7501650739078168  0.1974207560222356
  0.8341187663926369  0.8127619557807598  0.2029900890062884
  0.6658786758212318  0.8127547584917434  0.2030054745717569
  0.7500036467178255  0.8749813333574061  0.2783880309333763
  0.5826770941574434  0.8125823999537217  0.2842608817829557
  0.9173473686767022  0.8125879586277059  0.2842264571234583
  0.5000430059112152  0.8748672895928520  0.3703745863203384
  0.8327104408810587  0.8125317485156318  0.3685079399941302
  0.6673239702686763  0.8125452247665188  0.3685438048707774
  0.7500818584058652  0.8747746683556619  0.4553205657907083
  0.5839647668220500  0.8122258616911878  0.4547916402270020
  0.9161958819950891  0.8121213698128310  0.4547443410489701
  0.4999647039821151  0.8711569973419214  0.5418537984137938
  0.4999857940414105  0.8751763326619380  0.1977178047884996
  0.8343820001138594  0.9375394198594397  0.2033125986768343
  0.6656480944896923  0.9375404716106356  0.2033286782216699
  0.7499609731280400  0.4999665722176520  0.2775895960438651
  0.5826819326188416  0.9375507991767479  0.2846627688383018
  0.9173310142306759  0.9375497464355551  0.2846604224093113
  0.4999587733391411  0.5000105922933084  0.3693535181146076
  0.8325697549627782  0.9375377642004503  0.3690495427748276
  0.6674734962501272  0.9375539742488438  0.3690494484663617
  0.7501185755400568  0.5000112073942139  0.4536009808500764
  0.5836410781330924  0.9373946709032527  0.4553506232977726
  0.9164455303934083  0.9373691972197885  0.4553100364236878
  0.5009302639846985  0.5004659242328214  0.5410624733548218
  0.8354450008208847  0.9368605012419365  0.5428032789481827
  0.6646854037797010  0.9368930455099831  0.5428022715899239
  0.4059040925630652  0.0000099322071423  0.2330381646267561
  0.2500057255641998  0.0000124919688387  0.2010330083842705
  0.0941028297113065  0.0000055355577222  0.2330314666180980
  0.1548812412940332  0.1249413739715425  0.3163002267057764
  0.9999973101917352  0.1250134738615859  0.3036817912433984
  0.3451311320243713  0.1249333641134822  0.3163126604485514
  0.4010541744990095  0.1251036510324130  0.4029230134288932
  0.2500006855456679  0.1250315778861659  0.3877297135537351
  0.0990139372071091  0.1251512332713440  0.4029042216985952
  0.1522642987035979  0.1258753216347975  0.4882756947193314
  0.0000128872036273  0.1259170540434437  0.4738703286884594
  0.3476219825928168  0.1258085974304592  0.4882817008767926
  0.4004659438067377  0.1294352754206411  0.5700907019311735
  0.2498229745237465  0.1307575060078424  0.5581017009855324
  0.0993668418131378  0.1295964594085080  0.5700362667864114
  0.4058705646706492  0.1248681227000997  0.2327962544724893
  0.2500092666641601  0.1247262140318387  0.2000158978068329
  0.0941528438697803  0.1248712398941032  0.2327895797017847
  0.1548360802491468  0.2499653489704651  0.3157942076712282
  0.9999990111540005  0.2500119675850406  0.3031579051350545
  0.3452340377311419  0.2499692202952315  0.3158360927819879
  0.4010958088366863  0.2501939181467704  0.4024364513530629
  0.2500267663245036  0.2500205742093304  0.3869509625053337
  0.0989847423445095  0.2502754966191759  0.4023938420870509
  0.1529510741856013  0.2508569066826400  0.4874520470265786
  0.0000416601159864  0.2508392409968151  0.4733711332129973
  0.3469498297303832  0.2506192622082488  0.4873610352464500
  0.3984577284480871  0.2518084329633918  0.5686959097387443
  0.2498398449193090  0.2530399437411447  0.5577209474680370
  0.1012509576427514  0.2521839678063966  0.5688437830822461
  0.4057950838072600  0.2498384340869490  0.2323654941421510
  0.2500260837376484  0.2497856199021032  0.1995515746296660
  0.0942090101871564  0.2498296442895029  0.2323331819513575
  0.1547854849229396  0.3749911315908733  0.3154795568260340
  0.0000163105521447  0.3749961019502749  0.3027918930508464
  0.3453254356271203  0.3750090640283852  0.3155817172515217
  0.4011724697511477  0.3751637552173998  0.4022673573742856
  0.2500514730189744  0.3750423483026837  0.3866126811251216
  0.0989832427591216  0.3751732051637591  0.4020594189245230
  0.1530610327429137  0.3754674025935256  0.4870747970470035
  0.0000629802760429  0.3755063513569739  0.4731866581871643
  0.3469000840782572  0.3750959183243955  0.4871694641711871
  0.3976851913450262  0.3749744903669018  0.5689123577215314
  0.2498332364033968  0.3763703763818222  0.5574749721795824
  0.1017319406646617  0.3758998956474184  0.5686302116591866
  0.4057994234955940  0.3748956544467478  0.2320889733979392
  0.2500312434616660  0.3749469344278801  0.1993043532322102
  0.0942228347986176  0.3748756364014962  0.2320284761469288
  0.1548862852011989  0.0000042288632379  0.3165708326325610
  0.0000000347585074  0.0000012272062545  0.3039353438620996
  0.3451221692113051  1.0000020364617654  0.3165724639660190
  0.4009965205535563  0.0000119087418875  0.4031454476001958
  0.2499977902933988  0.0000099016214709  0.3881379527512797
  0.0990527612943698  0.0000071121982565  0.4031635041894064
  0.1516433973293863  0.0000249892334465  0.4886269727509308
  1.0000023935627143  0.0000068592731265  0.4736749932437306
  0.3481944806825165  0.0000365646117537  0.4885586888231197
  0.4024421195898956  0.0002293874945203  0.5706825901780215
  0.2498518359985164  0.0000476649413659  0.5584397421539690
  0.0973621339261798  0.0000402972031355  0.5707873837391859
  0.4058320320635055  0.5000090443819541  0.2320639443492873
  0.2500246200957919  0.4999899637811897  0.2000879760662101
  0.0942200274741906  0.5000019645721008  0.2319737533030609
  0.1548534809605241  0.6249882423249504  0.3155054515272456
  0.0000391229630915  0.6250166315578189  0.3027913830111150
  0.3453178402098901  0.6249535972723597  0.3156679591113218
  0.4011630658586749  0.6248409726656570  0.4023824078366475
  0.2500821631929269  0.6249392497938165  0.3867664249731300
  0.0989579817376468  0.6247833783855788  0.4020504534784383
  0.1529874607281962  0.6245435118775089  0.4869886356395952
  0.0000195690077199  0.6245164244752587  0.4730779702256047
  0.3471685185739203  0.6250105769341298  0.4876576802069877
  0.3971903195081323  0.6258069116868543  0.5702491925973983
  0.2492211376932763  0.6235534992160927  0.5575523425139138
  0.1012577757734882  0.6240636779316309  0.5686129175371536
  0.4058097927536462  0.6250938152905029  0.2321233644294990
  0.2500354969942511  0.6250904484074767  0.1991465233852753
  0.0942237592946328  0.6251265755728355  0.2320380924546976
  0.1548458787387003  0.7500411783100152  0.3158286514529762
  0.0000199303917216  0.7499950525120525  0.3031582516873891
  0.3452758187305343  0.7500183016227773  0.3159102931871258
  0.4011213071394367  0.7497364466420383  0.4025524220320055
  0.2500496284884480  0.7499497553749601  0.3870264812822276
  0.0990085138026745  0.7497540904260589  0.4023970560299555
  0.1529597952863779  0.7491375091900200  0.4874814848608803
  0.0000378331628032  0.7491715971124131  0.4733930626973815
  0.3470033690359822  0.7494637818008382  0.4875047709935235
  0.3983490838699078  0.7487227802608620  0.5689532228393120
  0.2499182299637682  0.7465878620017256  0.5578154004221557
  0.1012527696491590  0.7479379307284246  0.5688716723189550
  0.4057658787330957  0.7501703873688589  0.2324169077874748
  0.2500294712630005  0.7502267319475354  0.1998006974786660
  0.0942537608824820  0.7501940313777700  0.2323654115759327
  0.1549035276116683  0.8750640233733196  0.3162998176526786
  0.0000083187887995  0.8749971986968313  0.3036727774783983
  0.3451536118938769  0.8750586733760054  0.3163320709596037
  0.4010620582385889  0.8749470956364870  0.4029556450728111
  0.2500253256730265  0.8750108474200703  0.3877532164949859
  0.0990356418066913  0.8748647028139767  0.4029041722894480
  0.1523052539588631  0.8741815262674323  0.4882896337760916
  0.0000258634947424  0.8741028993244134  0.4738696123826073
  0.3476353882547374  0.8744189123408606  0.4882835330276115
  0.4003082447839793  0.8707817210250387  0.5701059808560501
  0.2497872816004143  0.8693350905734966  0.5581650671487295
  0.0993386804113274  0.8704611124197250  0.5700448963202145
  0.4058644836627245  0.8751192199908449  0.2328003551797322
  0.2500152838364655  0.8752531303497839  0.1998929175862928
  0.0941415103787959  0.8751359930489265  0.2327795487708092
  0.1547657582348035  0.5000186549180349  0.3154237952170243
  0.0000410014074758  0.4999906731668336  0.3026942617999751
  0.3454119827557645  0.5000361603797659  0.3155867821390068
  0.4011501990520006  0.4999490395988033  0.4022943454772374
  0.2500924969119354  0.4999802266189908  0.3866677435237023
  0.0989725892196293  0.5000031979011884  0.4019799730839980
  0.1530286702677823  0.4999580262221896  0.4869857870623571
  0.0000439539011105  0.4999636670125721  0.4732222730662463
  0.3471241930237485  0.4994635518086492  0.4875455631448680
  0.3972565943271558  0.4980558025690755  0.5701621001526231
  0.2493752152734590  0.5002311987915783  0.5575956196096284
  0.1013286894836918  0.4999222029424833  0.5687214123241481
  0.9058990351449826  0.0000080654481241  0.2330237754266051
  0.7500095464313569  0.0000131125024591  0.2009914714379096
  0.5941046239948565  0.0000130546976081  0.2330254932616123
  0.6549055657715533  0.1249325087261233  0.3163131825966440
  0.5000198216541341  0.1250118593404119  0.3036920882588729
  0.8451247027483831  0.1249354620503662  0.3163066373245559
  0.9010167603286181  0.1251513795143504  0.4029185140544833
  0.7500402797916947  0.1250487624637913  0.3877526193328333
  0.5990464944583115  0.1251301204404884  0.4029442980962203
  0.6524658540461428  0.1258594615804870  0.4883396948423484
  0.5000697657297660  0.1258303315964536  0.4740284717993699
  0.8477575938918400  0.1258993949823534  0.4883018536410499
  0.9006029037835529  0.1296052954236302  0.5700403289738336
  0.7501656430929665  0.1308980053344878  0.5581369058396224
  0.5995465140255997  0.1295532910230882  0.5700767232532075
  0.9058617901562540  0.1248639948997026  0.2327802795599558
  0.7500052901688113  0.1247249106174631  0.1999756589765392
  0.5941364113089783  0.1248597316927133  0.2327849708914521
  0.6548189268253476  0.2499567872931656  0.3158035354475097
  0.5000227277446292  0.2500015430547890  0.3031843864422515
  0.8451896470662376  0.2499572070968213  0.3157870652114587
  0.9010755114669514  0.2502865814015347  0.4024069965570471
  0.7500403539977879  0.2500498359669152  0.3869571081868994
  0.5989916829593332  0.2502367136353569  0.4024180981906179
  0.6531441730362519  0.2508252511889096  0.4873804372957559
  0.5000724125338820  0.2506446726272717  0.4733565153023964
  0.8471291614100122  0.2509012276983488  0.4874767675639218
  0.8987761669328259  0.2522389291640985  0.5688371921182352
  0.7501353804536868  0.2532597890894110  0.5576885652146606
  0.6015030772716090  0.2521789273629981  0.5686298619542719
  0.9057912344319693  0.2498187955270335  0.2323193869154623
  0.7499996744023462  0.2497724384277238  0.1995685764306964
  0.5942124497838641  0.2498250392782757  0.2323365767994508
  0.6547482706885653  0.3749754768147347  0.3154730302345611
  0.5000179799081865  0.3750063616990094  0.3028684110227328
  0.8452682740706610  0.3749801947499445  0.3154319821333600
  0.9011196290178127  0.3752054586790879  0.4020526081326828
  0.7500396023454515  0.3750615573323122  0.3865203405445832
  0.5989073932302291  0.3751631937500382  0.4021370712020380
  0.6532103341543052  0.3754188453220112  0.4870410024230404
  0.5001181988568266  0.3753458867371159  0.4735640687448983
  0.8470073984405700  0.3754968442452036  0.4870266022182234
  0.8983233262106702  0.3760553541797730  0.5685202601363105
  0.7502084912447639  0.3762378710194028  0.5573065213087202
  0.6020294832152683  0.3758055226437885  0.5686134040963875
  0.9058115639044856  0.3748660516591777  0.2319828089311633
  0.7499908583628073  0.3749296949910062  0.1991635391887529
  0.5941655464824859  0.3748781784252917  0.2320203361678206
  0.6549103741365061  0.0000137123989269  0.3165711784717058
  0.5000122563772859  0.9999972977497984  0.3039331796887694
  0.8451193644673667  0.0000115602313193  0.3165765495040170
  0.9009662940759993  0.0000120286426586  0.4031701262115024
  0.7500352993198376  0.0000103984674166  0.3881480061457545
  0.5990869962205142  0.9999998034022169  0.4031644773702500
  0.6518836422053729  0.9999858753107913  0.4886114976297803
  0.5000711072999332  0.0000627235562600  0.4736712660646195
  0.8483569309875493  0.0000121310230413  0.4886439943319394
  0.9025991991792539  0.0000389848320909  0.5707939479155788
  0.7501250032692465 -0.0000022879474819  0.5584756323367394
  0.5975631676871906  0.0001229326283740  0.5706768638873961
  0.9058463269893606  0.4999885162121970  0.2319098127946412
  0.7499817764861554  0.4999828558487726  0.2000311885041897
  0.5941204486049476  0.5000029692068374  0.2319625827743310
  0.6547513588465810  0.6249753019904187  0.3154805269350504
  0.5000080623186817  0.6250162710572996  0.3028932957267595
  0.8452645293011175  0.6250007214650580  0.3154082207829592
  0.9011003869907538  0.6247648543507512  0.4020336746086138
  0.7500626005428114  0.6249330077992348  0.3864775617399830
  0.5989347759335403  0.6248207695699913  0.4021226818450533
  0.6532913188447499  0.6245485001099885  0.4870168860048641
  0.5001678632971862  0.6243266813732523  0.4733884510968697
  0.8470069250849701  0.6244843865085662  0.4869991719718337
  0.8982640564111990  0.6239571690170936  0.5685487183230407
  0.7503165721000843  0.6237016951056881  0.5572542179448053
  0.6027271198878954  0.6241866762781200  0.5685071952422928
  0.9058403937856906  0.6251278285233606  0.2319699159436648
  0.7499863871209866  0.6250883938376609  0.1990602886432352
  0.5941340113129455  0.6251053449231205  0.2320227087705867
  0.6548063422809284  0.7500489520140843  0.3157916350332143
  0.5000179018911872  0.7499801396883896  0.3032298793658201
  0.8452201055397057  0.7500527237182960  0.3157702548089848
  0.9010775717239735  0.7497273292425339  0.4023844014896994
  0.7500409357604115  0.7499331604901704  0.3869210826128423
  0.5989694668489427  0.7497465527225774  0.4024129615158425
  0.6531265801607542  0.7491594592881478  0.4873602925787233
  0.5001395944657308  0.7493686466310007  0.4734530344005294
  0.8470931698047713  0.7490903232975964  0.4874293940132747
  0.8987117416391049  0.7477573418664921  0.5688000146438736
  0.7501084194359399  0.7467304507579282  0.5576680567907231
  0.6015226891395233  0.7479558976803552  0.5686984288176562
  0.9057802253822654  0.7501986080450214  0.2323191824824199
  0.7499943128189260  0.7502391393099002  0.1996848412734742
  0.5941965626611592  0.7501871778422489  0.2323497714558480
  0.6548882711634287  0.8750810283507493  0.3162955746462104
  0.5000199787003450  0.8750050733834772  0.3036906343224393
  0.8451350334870968  0.8750762191390611  0.3162837206827668
  0.9010140870561971  0.8748581435533056  0.4029105018299984
  0.7500430303067117  0.8749903697968057  0.3877344942345222
  0.5990494593084101  0.8749194369241025  0.4029381369913446
  0.6524891796623207  0.8742509775725669  0.4882935878193123
  0.5000783704238250  0.8742461926168971  0.4740517685992391
  0.8477466179298789  0.8741224652391462  0.4883056643217329
  0.9006096624887077  0.8704198312092932  0.5700563361413047
  0.7501819730774469  0.8691708114678643  0.5581632116221373
  0.5996627874913958  0.8703866794185624  0.5700410822777195
  0.9058666572797308  0.8751436601749437  0.2327604013161743
  0.7500036655392444  0.8752575722402450  0.1998983735918631
  0.5941398072656072  0.8751350539417779  0.2327694102719446
  0.6546502891462888  0.5000159189467388  0.3153997656106578
  0.5000056283876088  0.4999824441275360  0.3028072117314097
  0.8453519371874961  0.5000003557270017  0.3153267227483898
  0.9011039550620110  0.5000038390617326  0.4019667876826561
  0.7500515982512560  0.4999770210603918  0.3863950027418263
  0.5989395112226429  0.4999591263652878  0.4020375416201202
  0.6533288156352203  0.4999557021985928  0.4869447721771782
  0.5001596681695262  0.5001288176330999  0.4733388545968513
  0.8470021649567324  0.4999853758833898  0.4869861114275885
  0.8982880162949380  0.4999837179969167  0.5686456940585372
  0.7502750542645171  0.5000528783367690  0.5572908045246323
  0.6027281635800755  0.4997824050424894  0.5684320803863490
  0.3347186107945941  0.1885676394088318  0.5401314668539925
  0.1650863214665328  0.1888719994672835  0.5402070027612501
  0.3344705818487684  0.3127959153851886  0.5394207067739014
  0.1651887103165666  0.3133473222234251  0.5394639972458397
  0.3336558648618598  0.4362152729135803  0.5395590121638286
  0.1649236654089029  0.4379130272338490  0.5392417140479453
  0.3310828255244949  0.5620888035549932  0.5384305973521922
  0.1643848895992492  0.5621217205119149  0.5392256432079252
  0.3337933991936163  0.6881384256319021  0.5397451338901716
  0.1647991778365432  0.6864764190650731  0.5394236179900683
  0.3348497171228059  0.8117653949372712  0.5401412961269900
  0.1649753025108333  0.8112529830255769  0.5401930278978627
  0.8349317279412228  0.1888846250527921  0.5402222393095172
  0.6652414828319980  0.1887905219441744  0.5401534066178661
  0.8347073229914280  0.3133744029574635  0.5394395636221996
  0.6656079183039268  0.3132971250998655  0.5394051561880582
  0.8346426788895256  0.4378488301773225  0.5392150245840495
  0.6657579098832490  0.4375208737088070  0.5391337585322441
  0.8346277491069504  0.5620891522440825  0.5392249503788175
  0.6658708302727258  0.5621586504987287  0.5392346776606471
  0.8346510269656435  0.6865665320227282  0.5393669484212988
  0.6656469783351989  0.6868623793954035  0.5393207608186121
  0.8349298452075173  0.8111715139586747  0.5401918744383200
  0.6653431452695718  0.8112967934352515  0.5401134308913776
  0.4278482875576575  0.5618897910978009  0.6068906879033537
 
  0.00000000E+00  0.00000000E+00  0.00000000E+00
  0.00000000E+00  0.00000000E+00  0.00000000E+00
  0.00000000E+00  0.00000000E+00  0.00000000E+00
  0.00000000E+00  0.00000000E+00  0.00000000E+00
  0.00000000E+00  0.00000000E+00  0.00000000E+00
  0.00000000E+00  0.00000000E+00  0.00000000E+00