Mo S Cu                                 
   1.00000000000000     
    15.9214998300000001    0.0000000000000000    0.0000000000000000
    -7.9622501300000001   13.7910221699999997    0.0000000000000000
     0.0000000000000000    0.0000000000000000   13.5821998300000004
   Mo   S    Cu
    25    50     2
Direct
  0.1306388522536608  0.0645276320031059  0.6774616068582802
  0.1306318753724796  0.2651034069782412  0.6775204244885131
  0.1324824139251461  0.4658275884266416  0.6776804050925023
  0.1326621183413366  0.6658265340108755  0.6778873547520377
  0.1324799882594405  0.8656477175452792  0.6775643032127832
  0.3324448905647870  0.0652125222468598  0.6794024446732365
  0.3293910762593555  0.2641978742570998  0.6749570640984643
  0.3324481689420935  0.4662449633926684  0.6794412250240285
  0.3325224088262999  0.6661202817842877  0.6782428515698200
  0.3325207831109438  0.8654041003855824  0.6782112867465315
  0.5329809463802420  0.0660833454005498  0.6794651787942030
  0.5335226151652961  0.2666628035626317  0.6859168151038517
  0.5335158352121567  0.4658486828220489  0.6859055788353245
  0.5329783134110642  0.6658870727231729  0.6794406881770172
  0.5326338008562743  0.8658123712421641  0.6778448886050512
  0.7323284619575432  0.0654918142964931  0.6772269582726196
  0.7334105033747207  0.2654875055486627  0.6771867662315927
  0.7327532476194918  0.4658628030962291  0.6813335165591354
  0.7334049921186079  0.6668867951406341  0.6771064303343337
  0.7323281639580870  0.8658166090904515  0.6771746709983333
  0.9319163988799346  0.0654521602258100  0.6770898084654249
  0.9322904755368668  0.2657822230660400  0.6769798641751947
  0.9324348630213066  0.4655205726590665  0.6779617393017574
  0.9324334223816209  0.6658975569708048  0.6778735209210893
  0.9322909746456958  0.8654932348709252  0.6768495749336552
  0.0652362934255493  0.1321361769620211  0.5619935397520308
  0.0644242463464408  0.1316845406397320  0.7922217022186331
  0.0655310504162969  0.3326922069933573  0.5620104289543661
  0.0645720980766384  0.3322925618377184  0.7925859220988301
  0.0657571463486875  0.5325482788807676  0.5627853567174199
  0.0658992826009097  0.5324062967010548  0.7928479904545895
  0.0657686909532202  0.7321632877506730  0.5627036659196349
  0.0658836191424754  0.7325213171174170  0.7927655909495144
  0.0655547613867711  0.9318718055407444  0.5618891724944532
  0.0645550506191341  0.9312496788891025  0.7924640948808914
  0.2652114913318826  0.1311804207879774  0.5632753408295343
  0.2621854029565398  0.1271694803344232  0.7946572918056205
  0.2651858689791098  0.3330530053784742  0.5633117973879180
  0.2621924314104120  0.3340299329058780  0.7946887486085785
  0.2666267012820001  0.5327673498866830  0.5632675214804337
  0.2653746785530160  0.5333572969834108  0.7933296546564179
  0.2660556504128166  0.7325168984509745  0.5628523147082376
  0.2656533252059106  0.7323431013908106  0.7934996887499750
  0.2666670073294242  0.9328920145700863  0.5631985900314831
  0.2653313344142205  0.9310141987800762  0.7932554017784739
  0.4668821964419223  0.1348419105336944  0.5664613571096595
  0.4650259999773070  0.1300384085628465  0.7962699410610696
  0.4667580170552412  0.3328747819411007  0.5702063975298444
  0.4817910500754792  0.3403978129418874  0.8164792682828832
  0.4668502842164841  0.5310203515629013  0.5664593419501927
  0.4650558635499209  0.5340104395472309  0.7962725393439527
  0.4660722782745452  0.7318316400924019  0.5634350383365856
  0.4660185476569438  0.7330597377755907  0.7933810376117520
  0.4660934651048905  0.9332575922274273  0.5634335933642518
  0.4659986985228386  0.9319409642971550  0.7933745363773994
  0.6652082246520550  0.1322879599731550  0.5627380815082503
  0.6669862282009476  0.1323271130711348  0.7933252212916670
  0.6639505212010945  0.3323500186514536  0.5662404103506873
  0.6691525786220609  0.3326955605520965  0.7983435901377405
  0.6639295528865077  0.5305372062651870  0.5662088434790959
  0.6691506929435462  0.5354477789388170  0.7983226356211688
  0.6651870298090117  0.7318990592845580  0.5626811410988211
  0.6670100334543108  0.7336334902719415  0.7932621109680937
  0.6654213067503605  0.9322249839249537  0.5621077265302645
  0.6660774699313166  0.9325146466353189  0.7925882320701589
  0.8654429629873945  0.1322824291012097  0.5619434195873083
  0.8655860914822924  0.1323065586264178  0.7920959145350466
  0.8657492744830648  0.3326696161482587  0.5619981505146256
  0.8665437372099163  0.3322063386393310  0.7929240606082573
  0.8644709095706062  0.5316939661708702  0.5638568180682881
  0.8676880486120524  0.5333717698927600  0.7942154938706238
  0.8657289272398359  0.7320401927018381  0.5618814441466427
  0.8665497441355896  0.7333414856720353  0.7928030750371278
  0.8654394076926266  0.9321958360241069  0.5618721577946388
  0.8655967809589811  0.9322248259836741  0.7920223349982010
  0.3336875801861154  0.2663471610352701  0.8752183851108626
  0.6162595757961569  0.4075548527046564  0.9129998818553773
 
  0.00000000E+00  0.00000000E+00  0.00000000E+00
  0.00000000E+00  0.00000000E+00  0.00000000E+00
  0.00000000E+00  0.00000000E+00  0.00000000E+00
  0.00000000E+00  0.00000000E+00  0.00000000E+00
  0.00000000E+00  0.00000000E+00  0.00000000E+00
  0.00000000E+00  0.00000000E+00  0.00000000E+00
  0.00000000E+00  0.00000000E+00  0.00000000E+00
  0.00000000E+00  0.00000000E+00  0.00000000E+00
  0.00000000E+00  0.00000000E+00  0.00000000E+00
  0.00000000E+00  0.00000000E+00  0.00000000E+00
  0.00000000E+00  0.00000000E+00  0.00000000E+00
  0.00000000E+00  0.00000000E+00  0.00000000E+00
  0.00000000E+00  0.00000000E+00  0.00000000E+00
  0.00000000E+00  0.00000000E+00  0.00000000E+00
  0.00000000E+00  0.00000000E+00  0.00000000E+00
  0.00000000E+00  0.00000000E+00  0.00000000E+00
  0.00000000E+00  0.00000000E+00  0.00000000E+00
  0.00000000E+00  0.00000000E+00  0.00000000E+00
  0.00000000E+00  0.00000000E+00  0.00000000E+00
  0.00000000E+00  0.00000000E+00  0.00000000E+00
  0.00000000E+00  0.00000000E+00  0.00000000E+00
  0.00000000E+00  0.00000000E+00  0.00000000E+00
  0.00000000E+00  0.00000000E+00  0.00000000E+00
  0.00000000E+00  0.00000000E+00  0.00000000E+00
  0.00000000E+00  0.00000000E+00  0.00000000E+00
  0.00000000E+00  0.00000000E+00  0.00000000E+00
  0.00000000E+00  0.00000000E+00  0.00000000E+00
  0.00000000E+00  0.00000000E+00  0.00000000E+00
  0.00000000E+00  0.00000000E+00  0.00000000E+00
  0.00000000E+00  0.00000000E+00  0.00000000E+00
  0.00000000E+00  0.00000000E+00  0.00000000E+00
  0.00000000E+00  0.00000000E+00  0.00000000E+00
  0.00000000E+00  0.00000000E+00  0.00000000E+00
  0.00000000E+00  0.00000000E+00  0.00000000E+00
  0.00000000E+00  0.00000000E+00  0.00000000E+00
  0.00000000E+00  0.00000000E+00  0.00000000E+00
  0.00000000E+00  0.00000000E+00  0.00000000E+00
  0.00000000E+00  0.00000000E+00  0.00000000E+00
  0.00000000E+00  0.00000000E+00  0.00000000E+00
  0.00000000E+00  0.00000000E+00  0.00000000E+00
  0.00000000E+00  0.00000000E+00  0.00000000E+00
  0.00000000E+00  0.00000000E+00  0.00000000E+00
  0.00000000E+00  0.00000000E+00  0.00000000E+00
  0.00000000E+00  0.00000000E+00  0.00000000E+00
  0.00000000E+00  0.00000000E+00  0.00000000E+00
  0.00000000E+00  0.00000000E+00  0.00000000E+00
  0.00000000E+00  0.00000000E+00  0.00000000E+00
  0.00000000E+00  0.00000000E+00  0.00000000E+00
  0.00000000E+00  0.00000000E+00  0.00000000E+00
  0.00000000E+00  0.00000000E+00  0.00000000E+00
  0.00000000E+00  0.00000000E+00  0.00000000E+00
  0.00000000E+00  0.00000000E+00  0.00000000E+00
  0.00000000E+00  0.00000000E+00  0.00000000E+00
  0.00000000E+00  0.00000000E+00  0.00000000E+00
  0.00000000E+00  0.00000000E+00  0.00000000E+00
  0.00000000E+00  0.00000000E+00  0.00000000E+00
  0.00000000E+00  0.00000000E+00  0.00000000E+00
  0.00000000E+00  0.00000000E+00  0.00000000E+00
  0.00000000E+00  0.00000000E+00  0.00000000E+00
  0.00000000E+00  0.00000000E+00  0.00000000E+00
  0.00000000E+00  0.00000000E+00  0.00000000E+00
  0.00000000E+00  0.00000000E+00  0.00000000E+00
  0.00000000E+00  0.00000000E+00  0.00000000E+00
  0.00000000E+00  0.00000000E+00  0.00000000E+00
  0.00000000E+00  0.00000000E+00  0.00000000E+00
  0.00000000E+00  0.00000000E+00  0.00000000E+00
  0.00000000E+00  0.00000000E+00  0.00000000E+00
  0.00000000E+00  0.00000000E+00  0.00000000E+00
  0.00000000E+00  0.00000000E+00  0.00000000E+00
  0.00000000E+00  0.00000000E+00  0.00000000E+00
  0.00000000E+00  0.00000000E+00  0.00000000E+00
  0.00000000E+00  0.00000000E+00  0.00000000E+00
  0.00000000E+00  0.00000000E+00  0.00000000E+00
  0.00000000E+00  0.00000000E+00  0.00000000E+00
  0.00000000E+00  0.00000000E+00  0.00000000E+00
  0.00000000E+00  0.00000000E+00  0.00000000E+00
  0.00000000E+00  0.00000000E+00  0.00000000E+00
