Cu	N	Ru	Ta                              
   1.00000000000000     
    18.1096308199999996    0.0000000000000000    0.0000000000000000
     0.0000000000000000   23.3551997799999995    0.0000000000000000
     0.0000000000000000    0.0000000000000000   30.4818171199999988
   Cu   N    Ru   Ta
     2   240    12   228
Selective dynamics
Direct
  0.5665323843660782  0.4377861561105873  0.6055152655696782   T   T   T
  0.4334670693813744  0.4377808059559756  0.6055050650840024   T   T   T
  0.0000000000000000  0.0002658024790421  0.3027806050297599   F   F   F
  0.0000000000000000  0.5002658024790421  0.3027806050297599   F   F   F
  0.0000000000000000  0.6252068313499990  0.3027729437410898   F   F   F
  0.0000000000000000  0.7502658026931286  0.3027806050297599   F   F   F
  0.0000000000000000  0.8752068315640855  0.3027729437410898   F   F   F
  0.0000000000000000  0.1252068313499990  0.3027729437410898   F   F   F
  0.0000000000000000  0.2502658026931286  0.3027806050297599   F   F   F
  0.0000000000000000  0.3752068315640855  0.3027729437410898   F   F   F
  0.9999976053881512  0.0023674555422713  0.4736473832772375   T   T   T
  0.5927385673560064  0.9997020932790505  0.5684724595591474   T   T   T
  0.5929018503642526  0.7498632087685891  0.5685383888980007   T   T   T
  0.5931736797306481  0.2499325651956329  0.5683834723079196   T   T   T
  0.5940493004484111  0.9998103570065027  0.2323399901691943   F   F   F
  0.5940493004484111  0.4998103570065027  0.2323399901691943   F   F   F
  0.5940493004484111  0.7498103572205892  0.2323399901691943   F   F   F
  0.5940493004484111  0.2498103572205892  0.2323399901691943   F   F   F
  0.5941034351798038  0.6248444726427422  0.2323487498175751   F   F   F
  0.5941034351798038  0.8748444728568288  0.2323487498175751   F   F   F
  0.5941034351798038  0.1248444726427422  0.2323487498175751   F   F   F
  0.5941034351798038  0.3748444728568288  0.2323487498175751   F   F   F
  0.5980625919627813  0.8713656674510614  0.5715690919600533   T   T   T
  0.5981410405074409  0.1212491361105498  0.5716220768917544   T   T   T
  0.5984911938951664  0.6214415860995109  0.5714175722288056   T   T   T
  0.5986613397173389  0.6239731101647742  0.4026914365999537   T   T   T
  0.5987075489036874  0.3742293467884087  0.4026416436448798   T   T   T
  0.5988080839655936  0.8742007282448440  0.4025185713612237   T   T   T
  0.5988223069403346  0.1241991869421436  0.4025368044138694   T   T   T
  0.5989409977037512  0.4992064163256362  0.4025759476277604   T   T   T
  0.5990798900568799  0.7490554548105914  0.4023189419636160   T   T   T
  0.5991297737002056  0.2490967124563460  0.4023656743266864   T   T   T
  0.5991631819888313  0.9990935744657216  0.4022951091130156   T   T   T
  0.6001524099675497  0.5007603386980638  0.5712478887555401   T   T   T
  0.6009854630979266  0.3709268745101120  0.5727529948784773   T   T   T
  0.6510004318887646  0.6232082544460336  0.4882256511801663   T   T   T
  0.6510542993020338  0.8730718144801208  0.4882209351622986   T   T   T
  0.6510634136736202  0.1228875239651097  0.4882212749554118   T   T   T
  0.6510774861485205  0.3725153974477498  0.4882072532674681   T   T   T
  0.6516675827081654  0.7492117219165446  0.4883135259039619   T   T   T
  0.6516826101445317  0.9990601462128615  0.4883325558947532   T   T   T
  0.6518340335060029  0.2490200993592485  0.4883886605557207   T   T   T
  0.6518937554043629  0.4992771836193408  0.4886273595749371   T   T   T
  0.6547396409045092  0.9997083480310920  0.3159103144045119   F   F   F
  0.6547396409045092  0.4997083480310920  0.3159103144045119   F   F   F
  0.6547396409045092  0.7497083482451785  0.3159103144045119   F   F   F
  0.6547396409045092  0.2497083482451785  0.3159103144045119   F   F   F
  0.6547625022209047  0.6246790182669955  0.3159667218028375   F   F   F
  0.6547625022209047  0.8746790184810820  0.3159667218028375   F   F   F
  0.6547625022209047  0.1246790182669955  0.3159667218028375   F   F   F
  0.6547625022209047  0.3746790184810820  0.3159667218028375   F   F   F
  0.7408365652098527  0.9918258210887831  0.5623810230849950   T   T   T
  0.7409695169285325  0.2419307801165423  0.5622154123102906   T   T   T
  0.7409966394386357  0.7420290030171973  0.5622108951780821   T   T   T
  0.7451427179398769  0.4927606852976089  0.5614380746425116   T   T   T
  0.7497181855858486  0.0000100119032282  0.1992701427899632   F   F   F
  0.7497181855858486  0.5000100119032282  0.1992701427899632   F   F   F
  0.7497181855858486  0.7500100121173077  0.1992701427899632   F   F   F
  0.7497181855858486  0.2500100121173077  0.1992701427899632   F   F   F
  0.7497340914871273  0.6250292589019324  0.1993221157413743   F   F   F
  0.7497340914871273  0.8750292591160189  0.1993221157413743   F   F   F
  0.7497340914871273  0.1250292589019324  0.1993221157413743   F   F   F
  0.7497340914871273  0.3750292591160189  0.1993221157413743   F   F   F
  0.7500559618992262  0.6249592858788908  0.3879130324720491   T   T   T
  0.7501255401943462  0.7498619269359086  0.3872597901741437   T   T   T
  0.7500888533167900  0.4999117899020550  0.3873826893073853   T   T   T
  0.7501633424755044  0.8748896337444062  0.3878406728480368   T   T   T
  0.7501587049937369  0.9998941663527440  0.3872315111005616   T   T   T
  0.7500963526215633  0.3748839089420461  0.3878643792297407   T   T   T
  0.7501610618964490  0.1248984531072289  0.3878197024920784   T   T   T
  0.7501389800807031  0.2498340593561267  0.3872394081649719   T   T   T
  0.7524736951366610  0.1222516432007054  0.5562828068252594   T   T   T
  0.7526581203869878  0.8721949324128836  0.5563054564421430   T   T   T
  0.7527714148617123  0.6226035870931866  0.5563627456387628   T   T   T
  0.7540795735492565  0.3722890538944207  0.5558176868562958   T   T   T
  0.8451499272473839  0.6251896283286698  0.3155471503596488   F   F   F
  0.8451499272473839  0.8751896285427563  0.3155471503596488   F   F   F
  0.8451499272473839  0.1251896283286698  0.3155471503596488   F   F   F
  0.8451499272473839  0.3751896285427563  0.3155471503596488   F   F   F
  0.8451807898312538  0.0001939208417241  0.3155011134060643   F   F   F
  0.8451807898312538  0.5001939208417241  0.3155011134060643   F   F   F
  0.8451807898312538  0.7501939210558106  0.3155011134060643   F   F   F
  0.8451807898312538  0.2501939210558106  0.3155011134060643   F   F   F
  0.8466842573636673  0.9986397302824024  0.4860474441711659   T   T   T
  0.8467946562426221  0.7486320816064966  0.4860329127606590   T   T   T
  0.8468240136669654  0.2486750412569725  0.4860247020098988   T   T   T
  0.8475109366484255  0.4987683497590982  0.4856009838860138   T   T   T
  0.8489481491510155  0.1292245482213076  0.4862164795584282   T   T   T
  0.8490066218274802  0.8792965425045350  0.4862645735381620   T   T   T
  0.8490954152339520  0.6291296163973427  0.4861813761016057   T   T   T
  0.8495428843471664  0.3790819907056097  0.4859557156919957   T   T   T
  0.9008829350078233  0.5008780762360251  0.4015531991502387   T   T   T
  0.9009192629935417  0.0089534744507442  0.5677837103963960   T   T   T
  0.9009299200954836  0.2507704817740414  0.4017507078477596   T   T   T
  0.9009653575186010  0.7589935636330245  0.5677981294600836   T   T   T
  0.9009973102193528  0.7508807880732351  0.4018333228382590   T   T   T
  0.9010040122419122  0.0008166660146398  0.4018518251892688   T   T   T
  0.9009820063317622  0.6258972163758463  0.4017333195214770   T   T   T
  0.9011005854536813  0.2585467919020286  0.5678022420867426   T   T   T
  0.9010811805935877  0.3756515717526986  0.4016523045024084   T   T   T
  0.9011224033656211  0.1257180314953062  0.4018512371940104   T   T   T
  0.9011611572993553  0.8757726777876489  0.4018918912339230   T   T   T
  0.9017948945191510  0.5086683989349944  0.5679214226215794   T   T   T
  0.9025199216248398  0.6346493284671020  0.5709586898780070   T   T   T
  0.9025776828764723  0.8849744936051784  0.5711587846174434   T   T   T
  0.9025906179590323  0.1347487529908026  0.5711204393626481   T   T   T
  0.9034806537238935  0.3839715400548671  0.5715087417451651   T   T   T
  0.9057164253114252  0.6251516265128672  0.2320045249323357   F   F   F
  0.9057164253114252  0.8751516267269537  0.2320045249323357   F   F   F
  0.9057164253114252  0.1251516265128672  0.2320045249323357   F   F   F
  0.9057164253114252  0.3751516267269537  0.2320045249323357   F   F   F
  0.9057548087553968  0.0001403618907503  0.2320193078436787   F   F   F
  0.9057548087553968  0.5001403618907503  0.2320193078436787   F   F   F
  0.9057548087553968  0.7501403621048368  0.2320193078436787   F   F   F
  0.9057548087553968  0.2501403621048368  0.2320193078436787   F   F   F
  0.0942451912446032  0.0001403618907503  0.2320193078436787   F   F   F
  0.0942451912446032  0.5001403618907503  0.2320193078436787   F   F   F
  0.0942451912446032  0.7501403621048368  0.2320193078436787   F   F   F
  0.0942451912446032  0.2501403621048368  0.2320193078436787   F   F   F
  0.0942835746885748  0.6251516265128672  0.2320045249323357   F   F   F
  0.0942835746885748  0.8751516267269537  0.2320045249323357   F   F   F
  0.0942835746885748  0.1251516265128672  0.2320045249323357   F   F   F
  0.0942835746885748  0.3751516267269537  0.2320045249323357   F   F   F
  0.0965053036966298  0.3839691377131725  0.5715115013132723   T   T   T
  0.0973996497393945  0.1347382783217405  0.5711182730583768   T   T   T
  0.0974104006957668  0.8849807114251659  0.5711597286822443   T   T   T
  0.0974800964395938  0.6346459019993638  0.5709568556640152   T   T   T
  0.0981830720700124  0.5086631668719301  0.5679179384234508   T   T   T
  0.0988369207458593  0.8757729610673088  0.4018914747067064   T   T   T
  0.0988728452024434  0.1257180064427629  0.4018504347151935   T   T   T
  0.0989113334210590  0.3756504868738814  0.4016518405555631   T   T   T
  0.0988922737519272  0.2585381356939045  0.5678022058333245   T   T   T
  0.0990140165613355  0.6258966416115213  0.4017335360506691   T   T   T
  0.0989921152878092  0.0008171632745512  0.4018508107262754   T   T   T
  0.0990007195995628  0.7508803583712582  0.4018336658374821   T   T   T
  0.0990258073133155  0.7589932524378680  0.5677994735790837   T   T   T
  0.0990641340334417  0.2507703016467472  0.4017502881073468   T   T   T
  0.0990779990323255  0.0089500510306202  0.5677831154706747   T   T   T
  0.0991087829784822  0.5008783180222448  0.4015524815384667   T   T   T
  0.9999930330192525  0.5025879357017136  0.4729729418456445   T   T   T
  0.9999945224868217  0.3752968724602270  0.4732312958352449   T   T   T
  0.9999966120718837  0.6254148274561173  0.4735730449566325   T   T   T
  0.9999961012006955  0.1253694990511866  0.4736518964172917   T   T   T
  0.9999964297576979  0.2521050131155296  0.4734729756568009   T   T   T
  0.9999985460146144  0.8753994353615576  0.4737448001736532   T   T   T
 -0.0000000198310458  0.7523646584577079  0.4735560405287081   T   T   T
  0.1504461672666947  0.3790808065897178  0.4859553710934579   T   T   T
  0.1508982972996511  0.6291234783630875  0.4861820078343892   T   T   T
  0.1509886238299647  0.8793002244144820  0.4862628235130537   T   T   T
  0.1510457633176798  0.1292233431923397  0.4862143469845234   T   T   T
  0.1524753998531099  0.4987668696659870  0.4856003945097743   T   T   T
  0.1531682550599574  0.2486724656589492  0.4860228695843994   T   T   T
  0.1532015740413312  0.7486272548099563  0.4860333751921418   T   T   T
  0.1533121694125647  0.9986413203236066  0.4860473145306482   T   T   T
  0.1548192101687462  0.0001939208417241  0.3155011134060643   F   F   F
  0.1548192101687462  0.5001939208417241  0.3155011134060643   F   F   F
  0.1548192101687462  0.7501939210558106  0.3155011134060643   F   F   F
  0.1548192101687462  0.2501939210558106  0.3155011134060643   F   F   F
  0.1548500727526161  0.6251896283286698  0.3155471503596488   F   F   F
  0.1548500727526161  0.8751896285427563  0.3155471503596488   F   F   F
  0.1548500727526161  0.1251896283286698  0.3155471503596488   F   F   F
  0.1548500727526161  0.3751896285427563  0.3155471503596488   F   F   F
  0.2459075366293592  0.3722888651117882  0.5558203602362927   T   T   T
  0.2472165408403982  0.6225996780085865  0.5563640556500522   T   T   T
  0.2473404714521141  0.8721949967675768  0.5563022231990944   T   T   T
  0.2475178989037400  0.1222431662521882  0.5562805043815009   T   T   T
  0.2498572197675506  0.2498339732005102  0.3872391594481994   T   T   T
  0.2498363004386829  0.1248985332642997  0.3878192400249661   T   T   T
  0.2498983620837123  0.3748845912343269  0.3878630483744857   T   T   T
  0.2499058068689641  0.4999134514354333  0.3873812152884374   T   T   T
  0.2498398637118587  0.9998944845515969  0.3872310498482483   T   T   T
  0.2498349556219713  0.8748895451179194  0.3878403058205012   T   T   T
  0.2498732663138707  0.7498616362878433  0.3872603743879000   T   T   T
  0.2499422561556114  0.6249598778530109  0.3879125975180184   T   T   T
  0.2502659079606815  0.6250292589019324  0.1993221157413743   F   F   F
  0.2502659079606815  0.8750292591160189  0.1993221157413743   F   F   F
  0.2502659079606815  0.1250292589019324  0.1993221157413743   F   F   F
  0.2502659079606815  0.3750292591160189  0.1993221157413743   F   F   F
  0.2502818138619602  0.0000100119032282  0.1992701427899632   F   F   F
  0.2502818138619602  0.5000100119032282  0.1992701427899632   F   F   F
  0.2502818138619602  0.7500100121173077  0.1992701427899632   F   F   F
  0.2502818138619602  0.2500100121173077  0.1992701427899632   F   F   F
  0.2548342621343782  0.4927633802428947  0.5614325908636505   T   T   T
  0.2590046914332263  0.7420234540209449  0.5622130046987209   T   T   T
  0.2590183943947614  0.2419213792349122  0.5622149422475415   T   T   T
  0.2591629161805933  0.9918203154890103  0.5623800721508043   T   T   T
  0.3452374977790953  0.6246790182669955  0.3159667218028375   F   F   F
  0.3452374977790953  0.8746790184810820  0.3159667218028375   F   F   F
  0.3452374977790953  0.1246790182669955  0.3159667218028375   F   F   F
  0.3452374977790953  0.3746790184810820  0.3159667218028375   F   F   F
  0.3452603590954908  0.9997083480310920  0.3159103144045119   F   F   F
  0.3452603590954908  0.4997083480310920  0.3159103144045119   F   F   F
  0.3452603590954908  0.7497083482451785  0.3159103144045119   F   F   F
  0.3452603590954908  0.2497083482451785  0.3159103144045119   F   F   F
  0.3480930920917310  0.4992768569215022  0.4886250489414142   T   T   T
  0.3481563716298485  0.2490186070480160  0.4883878736646765   T   T   T
  0.3483176544146743  0.9990587993104675  0.4883310981772659   T   T   T
  0.3483298574663171  0.7492117014403626  0.4883144022049446   T   T   T
  0.3489085795396948  0.3725143874593976  0.4882050782049704   T   T   T
  0.3489341855683613  0.1228860371538107  0.4882199239686386   T   T   T
  0.3489447089831937  0.8730712820040007  0.4882201631107886   T   T   T
  0.3489930978540438  0.6232080346803495  0.4882257065176602   T   T   T
  0.3990022200206359  0.3709243923759389  0.5727484475678681   T   T   T
  0.3998310050165581  0.5007538186571466  0.5712458143699470   T   T   T
  0.4008355970242826  0.9990932383359942  0.4022944038607353   T   T   T
  0.4008598802834065  0.2490977494272061  0.4023667967548537   T   T   T
  0.4009174714991882  0.7490555317898859  0.4023189641931021   T   T   T
  0.4010543258533512  0.4992071854315872  0.4025762543739791   T   T   T
  0.4011754019794274  0.1241994631778309  0.4025364552384337   T   T   T
  0.4011911148059464  0.8742008044303944  0.4025185763869932   T   T   T
  0.4012912885088131  0.3742305481465917  0.4026405965986832   T   T   T
  0.4013310669507827  0.6239738516982105  0.4026932803182511   T   T   T
  0.4014996824943693  0.6214367649512387  0.5714177814862456   T   T   T
  0.4018541061753669  0.1212453258455334  0.5716217519700110   T   T   T
  0.4019418684102639  0.8713625084557870  0.5715682643373786   T   T   T
  0.4058965648201962  0.6248444726427422  0.2323487498175751   F   F   F
  0.4058965648201962  0.8748444728568288  0.2323487498175751   F   F   F
  0.4058965648201962  0.1248444726427422  0.2323487498175751   F   F   F
  0.4058965648201962  0.3748444728568288  0.2323487498175751   F   F   F
  0.4059506995515889  0.9998103570065027  0.2323399901691943   F   F   F
  0.4059506995515889  0.4998103570065027  0.2323399901691943   F   F   F
  0.4059506995515889  0.7498103572205892  0.2323399901691943   F   F   F
  0.4059506995515889  0.2498103572205892  0.2323399901691943   F   F   F
  0.4068110177375498  0.2499292535242392  0.5683830288670759   T   T   T
  0.4071011971002530  0.7498626896164330  0.5685374950527405   T   T   T
  0.4072661784803290  0.9997000472817923  0.5684697196921710   T   T   T
  0.4999950795770847  0.3729343415658916  0.4757282027377130   T   T   T
  0.4999952408208032  0.4990032011615802  0.4745405608775096   T   T   T
  0.4999968847246660  0.6232660232766103  0.4762010463586215   T   T   T
  0.4999979482255907  0.1231165297832903  0.4755524735763030   T   T   T
  0.4999960371343233  0.2491902523525521  0.4732079282271534   T   T   T
  0.4999988483736506  0.7491470408295698  0.4728204201596627   T   T   T
  0.4999998451868097  0.8731369612537389  0.4755761922267545   T   T   T
  0.5000000000000000  0.9996370422826644  0.3031199056678844   F   F   F
  0.5000000000000000  0.4996370422826644  0.3031199056678844   F   F   F
  0.5000000000000000  0.6247350156471256  0.3031143997625279   F   F   F
  0.5000000000000000  0.7496370424967509  0.3031199056678844   F   F   F
  0.5000000000000000  0.8747350158612122  0.3031143997625279   F   F   F
  0.5000000000000000  0.1247350156471256  0.3031143997625279   F   F   F
  0.5000000000000000  0.2496370424967509  0.3031199056678844   F   F   F
  0.5000000000000000  0.3747350158612122  0.3031143997625279   F   F   F
  0.4999994838254336  0.9991972635928658  0.4727356322619978   T   T   T
  0.8469785386414059  0.0695945554234932  0.5366705347477820   T   T   T
  0.8469930831225135  0.8197860706851644  0.5367800381652235   T   T   T
  0.8471522091087952  0.5692590575893001  0.5365374021001651   T   T   T
  0.8480582399543757  0.3195063929164328  0.5366188186550158   T   T   T
  0.1519543437773267  0.3195059569023718  0.5366188914063775   T   T   T
  0.1528377520393275  0.5692460141070518  0.5365349958523656   T   T   T
  0.1529703327635884  0.8197912470900156  0.5367814313132077   T   T   T
  0.1530104358540251  0.0695860641740284  0.5366676768994685   T   T   T
  0.5000000964174481  0.0066480613487193  0.5389953936834913   T   T   T
  0.4999881918190279  0.2578006728291963  0.5395312574912197   T   T   T
  0.4999989502480609  0.7565770869788283  0.5390554256104706   T   T   T
  0.4999976104368036  0.5048626710842571  0.5411721190418252   T   T   T
  0.0000000000000000  0.0000718854908470  0.1971343718238288   F   F   F
  0.0000000000000000  0.5000718854908470  0.1971343718238288   F   F   F
  0.0000000000000000  0.6251997477026094  0.1971274191543344   F   F   F
  0.0000000000000000  0.7500718857049335  0.1971343718238288   F   F   F
  0.0000000000000000  0.8751997479166960  0.1971274191543344   F   F   F
  0.0000000000000000  0.1251997477026094  0.1971274191543344   F   F   F
  0.0000000000000000  0.2500718857049335  0.1971343718238288   F   F   F
  0.0000000000000000  0.3751997479166960  0.1971274191543344   F   F   F
 -0.0000000849772440  0.6286252482217340  0.5420621201322312   T   T   T
  0.9999945897960628  0.8784369081287647  0.5422219015094499   T   T   T
  0.9999983067956737  0.8756369080483285  0.3693500327944300   T   T   T
  0.9999919753350146  0.5012812001692243  0.5408165679787742   T   T   T
 -0.0000000659876791  0.7506709918751102  0.3693808492000615   T   T   T
 -0.0000069125837602  0.7509440179874657  0.5415008076694252   T   T   T
 -0.0000014320719923  0.0010625833249030  0.5415523066756733   T   T   T
  0.5826617485954912  0.5622475047824267  0.2840383746124928   F   F   F
  0.5826617485954912  0.0622475047824267  0.2840383746124928   F   F   F
  0.5826617485954912  0.8122475045683402  0.2840383746124928   F   F   F
  0.5826617485954912  0.3122475045683402  0.2840383746124928   F   F   F
  0.5827027102256537  0.4372504995116770  0.2840867749422387   F   F   F
  0.5827027102256537  0.6872504992975905  0.2840867749422387   F   F   F
  0.5827027102256537  0.9372504995116770  0.2840867749422387   F   F   F
  0.5827027102256537  0.1872504992975905  0.2840867749422387   F   F   F
  0.5837560156981687  0.4362074787124829  0.4545696475402492   T   T   T
  0.5838052353676355  0.5610699794368686  0.4549199777684553   T   T   T
  0.5838509425817289  0.6861856993702690  0.4541777576214311   T   T   T
  0.5838977689910214  0.1861251995359200  0.4542334433097939   T   T   T
  0.5839289999769965  0.9361706987568014  0.4541374229391189   T   T   T
  0.5839647293507640  0.3110973443618765  0.4544420791556005   T   T   T
  0.5840717414571570  0.0611972398507490  0.4543245276032016   T   T   T
  0.5841281138037363  0.8112316708003884  0.4543541554096223   T   T   T
  0.6602258959393439  0.9352521987059309  0.5423049098559046   T   T   T
  0.6603348536058812  0.1845275805248836  0.5422289813250241   T   T   T
  0.6603499871883866  0.6859478239663974  0.5422850528438742   T   T   T
  0.6656630292367254  0.4374555758991647  0.2027209846340057   F   F   F
  0.6656630292367254  0.6874555756850853  0.2027209846340057   F   F   F
  0.6656630292367254  0.9374555758991647  0.2027209846340057   F   F   F
  0.6656630292367254  0.1874555756850853  0.2027209846340057   F   F   F
  0.6657072857987743  0.5624132520265661  0.2026937805471647   F   F   F
  0.6657072857987743  0.0624132520265661  0.2026937805471647   F   F   F
  0.6657072857987743  0.8124132518124867  0.2026937805471647   F   F   F
  0.6657072857987743  0.3124132518124867  0.2026937805471647   F   F   F
  0.6661673957718187  0.4354941070363643  0.5406333297024167   T   T   T
  0.6674974469846954  0.4370131300884993  0.3686979507844451   T   T   T
  0.6675778755002187  0.6869386870342640  0.3685182745144098   T   T   T
  0.6676493942793907  0.8121131952368063  0.3685535738201745   T   T   T
  0.6676554602894668  0.1869838442110611  0.3684838356194998   T   T   T
  0.6676696840937290  0.9369774231898175  0.3684817897193377   T   T   T
  0.6676911207507765  0.5621431311473065  0.3685265936448565   T   T   T
  0.6676772890877019  0.3121449085900571  0.3685680472743535   T   T   T
  0.6676956708012600  0.0621506507062713  0.3685292710675717   T   T   T
  0.6688127535904290  0.8097767244156402  0.5436627181282204   T   T   T
  0.6688484884110568  0.0591516157529374  0.5437680788809900   T   T   T
  0.6702554795146910  0.5606176674369776  0.5439345268887673   T   T   T
  0.6703590181372090  0.3082611649029927  0.5439532812141915   T   T   T
  0.7493445186235553  0.9982509340929522  0.4550040285088366   T   T   T
  0.7494236550685915  0.7483077889867151  0.4550524649139909   T   T   T
  0.7494736125751497  0.2482328056990129  0.4549915815028209   T   T   T
  0.7494902957818596  0.1262781421441284  0.4558579932504411   T   T   T
  0.7495301397777202  0.6264897784514615  0.4559294664681573   T   T   T
  0.7495522027167502  0.8763695808026286  0.4559008209623419   T   T   T
  0.7496021164084666  0.4982123199311831  0.4551358934416094   T   T   T
  0.7496573475647630  0.3761810452773529  0.4558827503514543   T   T   T
  0.7497932119634427  0.6250918038603928  0.2779408447549940   F   F   F
  0.7497932119634427  0.8750918040744793  0.2779408447549940   F   F   F
  0.7497932119634427  0.1250918038603928  0.2779408447549940   F   F   F
  0.7497932119634427  0.3750918040744793  0.2779408447549940   F   F   F
  0.7498000177344295  0.9998887643854673  0.2779024730268418   F   F   F
  0.7498000177344295  0.4998887643854673  0.2779024730268418   F   F   F
  0.7498000177344295  0.7498887645995538  0.2779024730268418   F   F   F
  0.7498000177344295  0.2498887645995538  0.2779024730268418   F   F   F
  0.0820757979075999  0.4387673371948656  0.4532602001413290   T   T   T
  0.0822629130186665  0.6887879885105042  0.4535561005505560   T   T   T
  0.0822807203670082  0.9387862751731476  0.4536174860030693   T   T   T
  0.0823097204010634  0.1887664481409564  0.4535348725033344   T   T   T
  0.0825727650034978  0.4376830284600572  0.2837096284632494   F   F   F
  0.0825727650034978  0.6876830282459707  0.2837096284632494   F   F   F
  0.0825727650034978  0.9376830284600572  0.2837096284632494   F   F   F
  0.0825727650034978  0.1876830282459707  0.2837096284632494   F   F   F
  0.0826029583302130  0.5626929404925889  0.2836274496354534   F   F   F
  0.0826029583302130  0.0626929404925889  0.2836274496354534   F   F   F
  0.0826029583302130  0.8126929402785024  0.2836274496354534   F   F   F
  0.0826029583302130  0.3126929402785024  0.2836274496354534   F   F   F
  0.8294064738591650  0.9416772725424493  0.5429594680021333   T   T   T
  0.8295594292850140  0.6916291720360538  0.5428925113182216   T   T   T
  0.8299367280303656  0.1914554703479708  0.5428313262532629   T   T   T
  0.8319946184836804  0.4377601101797220  0.3677284004899822   T   T   T
  0.8320699155074870  0.6877851615764851  0.3677798111183549   T   T   T
  0.8321152802881299  0.9377497381420953  0.3677932655903956   T   T   T
  0.8321052290766255  0.1877283855617521  0.3677512611131891   T   T   T
  0.8321046273950161  0.5628492066654773  0.3678755429567701   T   T   T
  0.8322479616446810  0.3127607764344437  0.3679130456661791   T   T   T
  0.8323809116783184  0.8128047308668995  0.3680436491577570   T   T   T
  0.8323910355586404  0.0627798042434265  0.3680224280976019   T   T   T
  0.8325660512743777  0.4415259752569777  0.5426007087889290   T   T   T
  0.8336793151700448  0.5625684457322180  0.2026879705260853   F   F   F
  0.8336793151700448  0.0625684457322180  0.2026879705260853   F   F   F
  0.8336793151700448  0.8125684455181315  0.2026879705260853   F   F   F
  0.8336793151700448  0.3125684455181315  0.2026879705260853   F   F   F
  0.8337395527315365  0.4376312579759087  0.2027221981443361   F   F   F
  0.8337395527315365  0.6876312577618222  0.2027221981443361   F   F   F
  0.8337395527315365  0.9376312579759087  0.2027221981443361   F   F   F
  0.8337395527315365  0.1876312577618222  0.2027221981443361   F   F   F
  0.0850020448951898  0.3135856242241124  0.4540684044649361   T   T   T
  0.0850610351738827  0.5637558321667357  0.4538880916661936   T   T   T
  0.0851907384186670  0.8136875559554363  0.4543292954062573   T   T   T
  0.0851976819180952  0.0636601872863063  0.4542909115043734   T   T   T
  0.9147954869340774  0.0636609961662086  0.4542925754775154   T   T   T
  0.9148132993557611  0.8136871531334664  0.4543273498961031   T   T   T
  0.9149279172002920  0.5637583423004771  0.4538888448667603   T   T   T
  0.9149867148522963  0.3135876035819228  0.4540685862853608   T   T   T
  0.9173970416697870  0.5626929404925889  0.2836274496354534   F   F   F
  0.9173970416697870  0.0626929404925889  0.2836274496354534   F   F   F
  0.9173970416697870  0.8126929402785024  0.2836274496354534   F   F   F
  0.9173970416697870  0.3126929402785024  0.2836274496354534   F   F   F
  0.9174272349965022  0.4376830284600572  0.2837096284632494   F   F   F
  0.9174272349965022  0.6876830282459707  0.2837096284632494   F   F   F
  0.9174272349965022  0.9376830284600572  0.2837096284632494   F   F   F
  0.9174272349965022  0.1876830282459707  0.2837096284632494   F   F   F
  0.9176835358469754  0.1887669944022213  0.4535354860988464   T   T   T
  0.9177136876310922  0.9387841097246771  0.4536197693335671   T   T   T
  0.9177350216842315  0.6887899114561362  0.4535556449092675   T   T   T
  0.9179110034763488  0.4387672826637852  0.4532613109965833   T   T   T
  0.9999924378562384  0.3786635697360281  0.5416793441993278   T   T   T
  0.9999965364709956  0.2506099222619296  0.3693545856750016   T   T   T
  0.9999971755554408  0.2508118946243751  0.5414198652970499   T   T   T
  0.0000074697824235  0.3756228012327633  0.3692600334350843   T   T   T
  0.9999971822840342  0.6256421966077317  0.3693161371504094   T   T   T
  0.9999962774291837  0.5007370734828063  0.3692812125587077   T   T   T
  0.9999972117081269  0.1255560333432922  0.3693353993837293   T   T   T
  0.9999937967176842  0.1284184586696907  0.5420957757817215   T   T   T
  0.9999980846295272  0.0006481288983198  0.3693827863348997   T   T   T
  0.1662604174500757  0.4376312579759087  0.2027221981443361   F   F   F
  0.1662604174500757  0.6876312577618222  0.2027221981443361   F   F   F
  0.1662604174500757  0.9376312579759087  0.2027221981443361   F   F   F
  0.1662604174500757  0.1876312577618222  0.2027221981443361   F   F   F
  0.1663206550115603  0.5625684457322180  0.2026879705260853   F   F   F
  0.1663206550115603  0.0625684457322180  0.2026879705260853   F   F   F
  0.1663206550115603  0.8125684455181315  0.2026879705260853   F   F   F
  0.1663206550115603  0.3125684455181315  0.2026879705260853   F   F   F
  0.1674213894278164  0.4415274326384794  0.5426003263444987   T   T   T
  0.1676061851145976  0.0627798122913916  0.3680221849110955   T   T   T
  0.1676180212597635  0.8128045822950396  0.3680436671761985   T   T   T
  0.1677479449800049  0.3127607159459848  0.3679125299124719   T   T   T
  0.1678920221914558  0.5628502996952056  0.3678749028317755   T   T   T
  0.1678907086533003  0.1877281272009866  0.3677512667178061   T   T   T
  0.1678828232998498  0.9377503217100698  0.3677928294133887   T   T   T
  0.1679274466579480  0.6877857748248735  0.3677803615875293   T   T   T
  0.1679992514818347  0.4377612711364789  0.3677287164249814   T   T   T
  0.1700533143258879  0.1914463819007153  0.5428282909751483   T   T   T
  0.1704419042397015  0.6916271710935715  0.5428923496604732   T   T   T
  0.1706028689863149  0.9416805318709667  0.5429610180270794   T   T   T