Ta  N Ru Cu                             
   1.00000000000000     
    18.1096308199999996    0.0000000000000000    0.0000000000000000
     0.0000000000000000   23.3551997799999995    0.0000000000000000
     0.0000000000000000    0.0000000000000000   30.4818171199999988
   Ta   N    Ru   Cu
   216   240    24    29
Selective dynamics
Direct
  0.9989989956073515  0.0008353600133475  0.1946265203496509   F   F   F
  0.3278212603563162  0.0605236955074346  0.2010805975204946   F   F   F
  0.1692617607982783  0.0606077881299996  0.2011301352496275   F   F   F
  0.2485624386682019  0.1250512103305184  0.2794461027853572   F   F   F
  0.0815346825496448  0.0633483769754335  0.2828782472532581   F   F   F
  0.4155970971914016  0.0632284465091431  0.2827117545543487   F   F   F
  0.9985216805209305  0.1255335012167436  0.3688312922992836   F   F   F
  0.3312574430493029  0.0629819489388268  0.3678101261438158   F   F   F
  0.1657266804514563  0.0630208267908046  0.3679000486044544   F   F   F
  0.2489295913763954  0.1247173232272800  0.4544080146361011   F   F   F
  0.0816320892840849  0.0625504390354621  0.4535769290121650   F   F   F
  0.4150504267430435  0.0626841137644050  0.4533681160016059   F   F   F
  0.9979631931558046  0.1261298138208460  0.1961371914431354   F   F   F
  0.3354135741570019  0.1884010430845464  0.2023112328153758   F   F   F
  0.1619473101992241  0.1885314637201532  0.2024092584674619   F   F   F
  0.2485948523604407  0.2512022613920877  0.2793327893307662   F   F   F
  0.0812498065048928  0.1881091166585591  0.2837797355041687   F   F   F
  0.4163512263139566  0.1879611410457400  0.2835020617694752   F   F   F
  0.9983336590182361  0.2506056490688664  0.3696246177071743   F   F   F
  0.3312431964860991  0.1879778824996237  0.3681960283344168   F   F   F
  0.1660525291702228  0.1880762760060648  0.3685087721568223   F   F   F
  0.2491478178018411  0.2476875408684691  0.4547783009597666   F   F   F
  0.0813555513441457  0.1871226125730843  0.4539007614123491   F   F   F
  0.4153850001012884  0.1872451976944731  0.4539312714044641   F   F   F
  0.3342053220276497  0.1843266185068799  0.5413622467137245   F   F   F
  0.0000871911755524  0.2499393306409985  0.1959962877698658   F   F   F
  0.3277350079077976  0.3162737664237625  0.2015965772581225   F   F   F
  0.1695988742414372  0.3163525497361448  0.2018200547487581   F   F   F
  0.2485041823729475  0.3753249846959790  0.2816072600333186   F   F   F
  0.0816978553955963  0.3130332032638279  0.2839926821265593   F   F   F
  0.4159811469861836  0.3128980727562833  0.2834808688072101   F   F   F
  0.9984529325706077  0.3755791893294642  0.3701179938054793   F   F   F
  0.3318984831740508  0.3129983502115010  0.3685131354137567   F   F   F
  0.1653038667521542  0.3130181316736298  0.3693928073799810   F   F   F
  0.2487952981915100  0.3745081216342285  0.4545269051860217   F   F   F
  0.0827188038723392  0.3126127401510104  0.4562100069446231   F   F   F
  0.4160861187561196  0.3124859589619007  0.4553383725569731   F   F   F
  0.9982585608556320  0.3759563644374850  0.1963026671423052   F   F   F
  0.3281471090750827  0.4350009888889943  0.2019282175917709   F   F   F
  0.1688279032515396  0.4349947804214409  0.2021552381782712   F   F   F
  0.2485418418927239  0.0009489963780567  0.2801401558963192   F   F   F
  0.0813889589826573  0.4382331599134801  0.2840056734780418   F   F   F
  0.4162135095363553  0.4381931688190406  0.2832641822502993   F   F   F
  0.9984441527118904  0.0005621446240553  0.3681979639145609   F   F   F
  0.3316994178239128  0.4380094409965238  0.3684598249436632   F   F   F
  0.1655088405606691  0.4379192255404476  0.3693120051105439   F   F   F
  0.2484274276332243  0.0001474189915953  0.4541754169542784   F   F   F
  0.0835430062069022  0.4382916051425028  0.4563663952590531   F   F   F
  0.4158862803366645  0.4378150089196140  0.4547756108314331   F   F   F
  0.3407789513403259  0.4383067623667287  0.5415005586779813   F   F   F
  0.0013142730647857  0.5002327580175390  0.1965582293343289   F   F   F
  0.3281669880004756  0.5657198450220235  0.2017456497357273   F   F   F
  0.1689404952762033  0.5657607780908478  0.2018973139223377   F   F   F
  0.2486424513429171  0.6256117326177701  0.2809164875666710   F   F   F
  0.0814347357302978  0.5627631586887674  0.2836753782085566   F   F   F
  0.4160337157000100  0.5627851666358126  0.2832256018731698   F   F   F
  0.9982294050983853  0.6260458115421841  0.3693218142370398   F   F   F
  0.3315027269009789  0.5631414042222360  0.3684648771359065   F   F   F
  0.1658457883461182  0.5631471845196074  0.3689205914374938   F   F   F
  0.2489864119714866  0.6257181757235202  0.4544618500092881   F   F   F
  0.0822191249948432  0.5631879035033478  0.4546991718189304   F   F   F
  0.4161608856032970  0.5632394123755162  0.4540091210940247   F   F   F
  0.9980826323658860  0.6248400415095929  0.1958384231655046   F   F   F
  0.3275304758531803  0.6845321020842050  0.2011067442556751   F   F   F
  0.1693336562451222  0.6844930101471363  0.2012912476918629   F   F   F
  0.2485490203935612  0.7499149724678560  0.2785084618341145   F   F   F
  0.0815741090850111  0.6881086503812384  0.2833291390077051   F   F   F
  0.4156024534574172  0.6881006864159644  0.2830548443366538   F   F   F
  0.9979455782191380  0.7505600964720145  0.3687195535539658   F   F   F
  0.3316645744852380  0.6883011128753438  0.3681129624203976   F   F   F
  0.1655721218065125  0.6882878824169083  0.3681775911133727   F   F   F
  0.2476806426692235  0.7527574229981582  0.4547545490949361   F   F   F
  0.0831451516028210  0.6887617383506708  0.4545234933159392   F   F   F
  0.4157293472645165  0.6889157083459523  0.4543328550748811   F   F   F
  0.3340709184042865  0.6911155182591173  0.5415209642856098   F   F   F
  0.9998408680978272  0.7512824195589047  0.1953322853608128   F   F   F
  0.3350131242487677  0.8127483463556118  0.2018516145470528   F   F   F
  0.1617405693751195  0.8127649593584394  0.2019396998468679   F   F   F
  0.2484785054276415  0.8762864883530455  0.2787800335703849   F   F   F
  0.0811843717088010  0.8131848658500331  0.2831358434447537   F   F   F
  0.4158038380155133  0.8131322437354029  0.2830432964686693   F   F   F
  0.9982022372336772  0.8758294166901806  0.3682245699399402   F   F   F
  0.3309526328599119  0.8132001943423361  0.3678347965890580   F   F   F
  0.1658922277246049  0.8131540375973643  0.3678174747870813   F   F   F
  0.2482616594831271  0.8758354110726430  0.4540222436712753   F   F   F
  0.0805706651064710  0.8138996959588383  0.4530058016436271   F   F   F
  0.4146726719413039  0.8137160965873775  0.4538911819309561   F   F   F
  0.9978563439318080  0.8751917856641001  0.1957301947095971   F   F   F
  0.3279327479962433  0.9408491987645959  0.2006822944943920   F   F   F
  0.1689353046679045  0.9409006220027294  0.2007518113473949   F   F   F
  0.2485943553873042  0.5002933012804220  0.2812037407827574   F   F   F
  0.0814141941740587  0.9380003684986704  0.2826201589651163   F   F   F
  0.4155189619707542  0.9379394826996403  0.2825333203101366   F   F   F
  0.9986846324899261  0.5006088627001262  0.3699308986602858   F   F   F
  0.3311590423685971  0.9381345998488371  0.3675946206188669   F   F   F
  0.1657079611300460  0.9381761323559132  0.3675802185903265   F   F   F
  0.2479945088135125  0.5025276645267880  0.4548935171880615   F   F   F
  0.0817226488331002  0.9381681255736183  0.4528739197422240   F   F   F
  0.4145795170881357  0.9382761529090189  0.4530173495116117   F   F   F
  0.3322381367021165  0.9383613159570245  0.5396412207068551   F   F   F
  0.1620272676547003  0.9370792888160864  0.5394982830341206   F   F   F
  0.4982148498596501  0.0007134599642455  0.1945476536603508   F   F   F
  0.8280322304218046  0.0599012645226011  0.2014583637131935   F   F   F
  0.6691688594014096  0.0599704996400590  0.2013365861962768   F   F   F
  0.7488692693294752  0.1256369043142485  0.2802877848904330   F   F   F
  0.5813037330597552  0.0632969537373000  0.2825442120492596   F   F   F
  0.9159667121253889  0.0633505606433289  0.2826274748019344   F   F   F
  0.4985974087350300  0.1254886717993244  0.3685816352670273   F   F   F
  0.8315035325496467  0.0631276552497155  0.3676934992384702   F   F   F
  0.6656312389696737  0.0631265420072538  0.3675598457891383   F   F   F
  0.7487903058202718  0.1250082220448476  0.4541014384250062   F   F   F
  0.5815236160623201  0.0628159045445784  0.4533486617808293   F   F   F
  0.9150040751631394  0.0627157983574307  0.4535987124904040   F   F   F
  0.4995291229244430  0.1259927993645249  0.1959466188149648   F   F   F
  0.8287129179588675  0.1913073766051099  0.2018729387350930   F   F   F
  0.6685442193901139  0.1911086628264300  0.2014656139371240   F   F   F
  0.7492604424058626  0.2508919236485312  0.2811943581400271   F   F   F
  0.5813215688733706  0.1878969583363599  0.2830691807523067   F   F   F
  0.9164139879467754  0.1879336953374562  0.2832896072437308   F   F   F
  0.4985989548736711  0.2505946450953473  0.3692049248801510   F   F   F
  0.8317667074341841  0.1880101665308871  0.3684263295652244   F   F   F
  0.6661710622326211  0.1879637957008313  0.3682083307505906   F   F   F
  0.7492418887421550  0.2482275919114372  0.4550055183849224   F   F   F
  0.5815298006168845  0.1871659862119159  0.4534363205968859   F   F   F
  0.9149948535505246  0.1877909005837637  0.4543080205974306   F   F   F
  0.8341712291184109  0.1842647907334651  0.5413847191272723   F   F   F
  0.4976418950543788  0.2497940096832707  0.1957579161540508   F   F   F
  0.8280350466028992  0.3094960894400032  0.2016113401575339   F   F   F
  0.6697270154511088  0.3095920851934579  0.2014339229130542   F   F   F
  0.7493581252364834  0.3745350535383025  0.2795447189534244   F   F   F
  0.5817865700699016  0.3129926555481575  0.2834076120196869   F   F   F
  0.9162258007863713  0.3131043223300551  0.2836174092235382   F   F   F
  0.4986357308856526  0.3752104491738990  0.3693351664593933   F   F   F
  0.8321561687142136  0.3129661518142655  0.3686354706402071   F   F   F
  0.6665562716313858  0.3127548498324160  0.3683160014969573   F   F   F
  0.7494708276996249  0.3763676647085390  0.4550149010276598   F   F   F
  0.5852733335841691  0.3126839448512726  0.4552571109973229   F   F   F
  0.9164079690499207  0.3128573109555290  0.4560313430553151   F   F   F
  0.4995015133058374  0.3758989896339031  0.1959988794788785   F   F   F
  0.8341708425837453  0.4390034808770977  0.2027123900020271   F   F   F
  0.6638155200118021  0.4387937631248988  0.2025060046682654   F   F   F
  0.7486773272609426  0.0008309070435217  0.2801319214790965   F   F   F
  0.5813882184926840  0.4378757662675810  0.2836182621910552   F   F   F
  0.9166486144856734  0.4379545495799633  0.2840162371527271   F   F   F
  0.4984136943328394  0.0005115777262716  0.3680920975225632   F   F   F
  0.8320852672136354  0.4380388991046331  0.3686926850770362   F   F   F
  0.6673046579532667  0.4379833226157928  0.3678246922045716   F   F   F
  0.7480303234585790  0.0003802151162731  0.4539496102061804   F   F   F
  0.5831315450305823  0.4380627910004549  0.4521860342425654   F   F   F
  0.9162544043512426  0.4378492197166750  0.4555088676419459   F   F   F
  0.8310942475634633  0.4394438539031000  0.5425883219130085   F   F   F
  0.4963604774357293  0.5002877350681345  0.1962387929975193   F   F   F
  0.8337901611624332  0.5618479877546108  0.2026409047624398   F   F   F
  0.6638325827560934  0.5620142034169291  0.2023946267938257   F   F   F
  0.7490308408175466  0.6264637484509663  0.2789533828159136   F   F   F
  0.5812921370199433  0.5631599011738331  0.2832978416609535   F   F   F
  0.9164973689949605  0.5630942198688373  0.2835899830370749   F   F   F
  0.4982082235511882  0.6259510146652261  0.3686506928298243   F   F   F
  0.8319923884566549  0.5633313833293201  0.3680005347397710   F   F   F
  0.6666056376294449  0.5634396247498117  0.3672921124067159   F   F   F
  0.7483660012015605  0.6258631969621291  0.4538750739673745   F   F   F
  0.5832044896429309  0.5631349816695916  0.4530207613816941   F   F   F
  0.9149770177369092  0.5634123503095978  0.4552238452639870   F   F   F
  0.4991904081234040  0.6248524156276787  0.1956022495813698   F   F   F
  0.8278698858644091  0.6916663163735066  0.2010345700807719   F   F   F
  0.6693753241293265  0.6915236072538562  0.2009929387044380   F   F   F
  0.7487400010951717  0.7507374873759289  0.2805751365258473   F   F   F
  0.5814414498373495  0.6881250921159960  0.2828587602260342   F   F   F
  0.9159044800450573  0.6880731122566317  0.2829683337461049   F   F   F
  0.4982752597051530  0.7506095929443575  0.3685921005223847   F   F   F
  0.8316836024821868  0.6884674998057321  0.3679019841845985   F   F   F
  0.6657314066659694  0.6885177241673759  0.3679051336031378   F   F   F
  0.7475836550487998  0.7528502074752979  0.4543040510178074   F   F   F
  0.5833523115409349  0.6889197331456103  0.4542580235780918   F   F   F
  0.9144772836401742  0.6887291546002814  0.4549234694706428   F   F   F
  0.8355756199783215  0.6915712197774226  0.5432486500004288   F   F   F
  0.4971990367719741  0.7512707305130988  0.1952949844349732   F   F   F
  0.8283934746716142  0.8098820895635228  0.2014274272373200   F   F   F
  0.6684229027259647  0.8100870546267700  0.2012085098422745   F   F   F
  0.7485300575553069  0.8756774590947245  0.2799052289570341   F   F   F
  0.5809724728557413  0.8133442307895322  0.2826234724158709   F   F   F
  0.9160654441215144  0.8133662387365774  0.2826524076987198   F   F   F
  0.4982895062683568  0.8757911810934615  0.3682502901913622   F   F   F
  0.8311273238865482  0.8133652111281577  0.3677439883544551   F   F   F
  0.6655347709622745  0.8133743311529074  0.3677971019858930   F   F   F
  0.7478385470477491  0.8764237597114644  0.4538058195659147   F   F   F
  0.5806200084646420  0.8140893753468035  0.4531774777605548   F   F   F
  0.9143731401588013  0.8137835333900938  0.4536208240330808   F   F   F
  0.4991586018427725  0.8751139443261025  0.1955987392919596   F   F   F
  0.8279338297410987  0.9414916252966421  0.2012928552075763   F   F   F
  0.6688576437805054  0.9413589781761260  0.2010890943892676   F   F   F
  0.7494214064823197  0.5005995714073066  0.2781977520111809   F   F   F
  0.5810666768744213  0.9379464618735085  0.2823928103141924   F   F   F
  0.9159517477121071  0.9379737363137224  0.2824343760776458   F   F   F
  0.4985664859621934  0.5007032314069093  0.3690122526396138   F   F   F
  0.8312520089241673  0.9382715714881371  0.3674644118460577   F   F   F
  0.6654854049642083  0.9382596255402262  0.3674068037319174   F   F   F
  0.7501548283909187  0.5002331005536789  0.4539002365092628   F   F   F
  0.5816386377334197  0.9384188192116625  0.4530011759351424   F   F   F
  0.9144766762285670  0.9383478714134981  0.4529834276494071   F   F   F
  0.8324242581108550  0.9385800252829171  0.5397524345490865   F   F   F
  0.6628587915079294  0.9379727515223166  0.5396136961010711   F   F   F
  0.3343109012091929  0.0612497008578359  0.5409175225705809   F   F   F
  0.1621729912216949  0.0607042976876642  0.5404069230896269   F   F   F
  0.3365959284640994  0.3093813826498533  0.5433382772030768   F   F   F
  0.3297903783551561  0.5668069690988560  0.5413818321602761   F   F   F
  0.3336218755673102  0.8149190835138285  0.5419838631982472   F   F   F
  0.8340759759342262  0.0613062621380820  0.5408335708825973   F   F   F
  0.6624246026457641  0.0621590058605790  0.5404179788609653   F   F   F
  0.8406333155719210  0.3117650488365911  0.5432802097987235   F   F   F
  0.8401292743746822  0.5654417484927237  0.5438183338854685   F   F   F
  0.8331264811504298  0.8156840951672635  0.5412191450087676   F   F   F
  0.1657929435361041  0.1862233267524616  0.5407145163004614   F   F   F
  0.6645250319906850  0.1865166233230156  0.5400329296378885   F   F   F
  0.1638862232753127  0.8115258776861580  0.5404950411958893   F   F   F
  0.6615072454580257  0.8125504461002748  0.5414771676840218   F   F   F
  0.4040007812815247  0.0005992241612915  0.2309922985326267   F   F   F
  0.2484563072942834  0.0006953483658023  0.1760650613076038   F   F   F
  0.0930947746399156  0.0007595310751825  0.2311202436608539   F   F   F
  0.1522117169255495  0.1256086878996499  0.3157717914948250   F   F   F
  0.9987470854472136  0.1255588060741459  0.3020209708547696   F   F   F
  0.3450687682213029  0.1254946661817868  0.3155874192844053   F   F   F
  0.4000923084526988  0.1254334378466169  0.4017795576879948   F   F   F
  0.2485825936897825  0.1252913281652113  0.3866662526581024   F   F   F
  0.0969375365764620  0.1253846692635747  0.4019526444819803   F   F   F
  0.1500894759819289  0.1247403587827520  0.4871685287507574   F   F   F
  0.9983067120304767  0.1250706064394862  0.4734474963610680   F   F   F
  0.3474020570895320  0.1241031987438674  0.4871017020260879   F   F   F
  0.4036296527882470  0.1227387060270289  0.5680741384882353   F   F   F
  0.2485484129819469  0.1236084052884934  0.5571885013658289   F   F   F
  0.0903370154952725  0.1220325249557774  0.5670057638611041   F   F   F
  0.4046205067807094  0.1251473773520431  0.2312298827938122   F   F   F
  0.2486219650059098  0.1266312439139412  0.2074603352911950   F   F   F
  0.0927743374063965  0.1253154341461169  0.2314507357689948   F   F   F
  0.1525966502281264  0.2507567931409938  0.3163380963162226   F   F   F
  0.9987617185450688  0.2506849461854586  0.3026000701889942   F   F   F
  0.3449599311047677  0.2505802157604151  0.3158867452715697   F   F   F
  0.4002134594591382  0.2503999561163255  0.4025473924895735   F   F   F
  0.2489194310367537  0.2504360080451420  0.3871368610848762   F   F   F
  0.0964135060153595  0.2507293474327099  0.4028795905327556   F   F   F
  0.1506791622160719  0.2468130461010318  0.4865602316821480   F   F   F
  0.9987635407798976  0.2491974829940844  0.4755930705485483   F   F   F
  0.3486374770835852  0.2486156425419352  0.4887622329518138   F   F   F
  0.4006677481236451  0.2456618677658753  0.5733600438319257   F   F   F
  0.2505202367234105  0.2462147639141250  0.5587519908327536   F   F   F
  0.0846364023228574  0.2306420005284124  0.5730605538125459   F   F   F
  0.4047287364856373  0.2509812827642648  0.2318879472366575   F   F   F
  0.2486981123340186  0.2500095933668760  0.2059453009407761   F   F   F
  0.0928968136745283  0.2511674939737958  0.2322659102680191   F   F   F
  0.1512203659599507  0.3754767282063440  0.3170207983978628   F   F   F
  0.9988275398758262  0.3754686786070351  0.3029137325918043   F   F   F
  0.3462047935883845  0.3755019046126975  0.3164022657189918   F   F   F
  0.4000900996832115  0.3751190776583471  0.4026421374973452   F   F   F
  0.2490330170076902  0.3753499898342554  0.3870968044178085   F   F   F
  0.0961458583726085  0.3752852505036444  0.4034753227336481   F   F   F
  0.1510383081348721  0.3745061948684381  0.4851278695684300   F   F   F
  0.0000827184173389  0.3763191102105807  0.4778214153920501   F   F   F
  0.3478810839723110  0.3740553744901405  0.4884503749033726   F   F   F
  0.4005797838787757  0.3736377801175053  0.5715521463636435   F   F   F
  0.2543996642334676  0.3731637529156657  0.5639073921456585   F   F   F
  0.0590595142789354  0.3774789375832981  0.5999449418650684   F   F   F
  0.4046016770208212  0.3754320272399738  0.2318437569577512   F   F   F
  0.2485823728128338  0.3759032713356660  0.1765649986945377   F   F   F
  0.0929731266603468  0.3755029322211172  0.2323839478504155   F   F   F
  0.1512704498080950  0.0006603240454055  0.3155413918446897   F   F   F
  0.9986781718391740  0.0006718846401554  0.3012129809667954   F   F   F
  0.3458010857451583  0.0006018359993689  0.3154666259607808   F   F   F
  0.4000444885932808  0.0005883914558424  0.4014229844575610   F   F   F
  0.2485043480306572  0.0005402651280590  0.3864236490111210   F   F   F
  0.0968142872390132  0.0006167363214900  0.4013790238237576   F   F   F
  0.1496460102879098  0.9999883109541940  0.4866428054995140   F   F   F
  0.9983212899091001  0.9998762254218647  0.4727855279514941   F   F   F
  0.3469989566579130  0.0003743920018806  0.4868170733254473   F   F   F
  0.4044543520959536  0.9981841825204043  0.5674548512611750   F   F   F
  0.2474428134145725  0.9998725859753677  0.5570482210149805   F   F   F
  0.0910193596094544  0.9987634111344761  0.5671230468953112   F   F   F
  0.4029059494653993  0.5003936643696747  0.2313113411921179   F   F   F
  0.2485606164333731  0.5002961700206043  0.2118145376498504   F   F   F
  0.0946168376943177  0.5003618513256001  0.2318776788199557   F   F   F
  0.1514721656816178  0.6255210033574770  0.3163132946452123   F   F   F
  0.9987264886717355  0.6256482127167686  0.3022498614085265   F   F   F
  0.3459344954222558  0.6255988446954746  0.3160584213884974   F   F   F
  0.4000860134596635  0.6260443985806035  0.4020637270984295   F   F   F
  0.2488456029166031  0.6261885206618416  0.3869178780769502   F   F   F
  0.0966106939114297  0.6265324269471932  0.4020644160337383   F   F   F
  0.1504197974589090  0.6243950014286739  0.4848795904067842   F   F   F
  0.9984836896857274  0.6272657111905886  0.4721420951822850   F   F   F
  0.3489028607376099  0.6265720326884718  0.4874808132829571   F   F   F
  0.3989200592660112  0.6287887553235905  0.5719078666265531   F   F   F
  0.2544579205287221  0.6289957756036770  0.5563336966835024   F   F   F
  0.0837499126887238  0.6501861745153548  0.5597812929861163   F   F   F
  0.4043014500281217  0.6254201692810355  0.2315106403341645   F   F   F
  0.2484444351582837  0.6246715993623582  0.1761578051223509   F   F   F
  0.0928871503080160  0.6253794074802812  0.2318657044682126   F   F   F
  0.1525713598174860  0.7505043487151042  0.3154702674759733   F   F   F
  0.9985010285262135  0.7506074520934831  0.3017867328507862   F   F   F
  0.3445742247328738  0.7505113707059863  0.3154070822664892   F   F   F
  0.3999223988598146  0.7510973215918284  0.4020309206552994   F   F   F
  0.2486044052884750  0.7506610589995120  0.3868862526657679   F   F   F
  0.0964323909944866  0.7505678035351835  0.4017458654709003   F   F   F
  0.1487909403997421  0.7539265844807090  0.4863558147349707   F   F   F
  0.9978405512299702  0.7522056400923702  0.4736021131275621   F   F   F
  0.3471032105777638  0.7525612354235207  0.4878078935210155   F   F   F
  0.3989840031427008  0.7542203092214379  0.5732368228315110   F   F   F
  0.2479262578363262  0.7542368365902306  0.5583758649622155   F   F   F
  0.0731091656787299  0.7669456124857845  0.5692988358169089   F   F   F
  0.4042488260950634  0.7500196600758855  0.2314038553617550   F   F   F
  0.2484262128100099  0.7509637753139344  0.2049040244356632   F   F   F
  0.0926773172066220  0.7499583032896666  0.2315725788987990   F   F   F
  0.1522602546350527  0.8757770514776553  0.3152156566708015   F   F   F
  0.9985784458967757  0.8756567356582039  0.3014652297080644   F   F   F
  0.3446622441969822  0.8757563280411418  0.3152011234164931   F   F   F
  0.3998177584053053  0.8755416006978791  0.4014545114494155   F   F   F
  0.2484419502926158  0.8757589398792121  0.3862614211498183   F   F   F
  0.0967741980728007  0.8756603322876799  0.4011883527762592   F   F   F
  0.1494040948097037  0.8749869490519089  0.4865410399129146   F   F   F
  0.9979521493083681  0.8769690344305872  0.4723821727331483   F   F   F
  0.3469431300090946  0.8759877968382739  0.4869243503945029   F   F   F
  0.4037619580806009  0.8783924861806511  0.5683145769099767   F   F   F
  0.2468331378165587  0.8751609145944101  0.5566212451575794   F   F   F
  0.0890475358679907  0.8766172069969755  0.5661354745376173   F   F   F
  0.4043121073409068  0.8760814376557633  0.2309046725230104   F   F   F
  0.2483993210414894  0.8748171367601145  0.2065488738815731   F   F   F
  0.0926856553114419  0.8761794458090506  0.2310351109409154   F   F   F
  0.1513274360608960  0.5004620431467757  0.3166459519786002   F   F   F
  0.9986702754882586  0.5006066790322308  0.3029632703209373   F   F   F
  0.3460824829779696  0.5004685513334550  0.3161336465626050   F   F   F
  0.3999055569924650  0.5005043035431456  0.4022392087627651   F   F   F
  0.2488493026054996  0.5004550639729075  0.3871188831540380   F   F   F
  0.0970343911185267  0.5000897491787555  0.4030530710040523   F   F   F
  0.1508552563635277  0.5027623017832283  0.4875453107501642   F   F   F
  0.9991010407577150  0.5008675203034372  0.4752744871792629   F   F   F
  0.3479465739876417  0.5021490336401655  0.4881558058504609   F   F   F
  0.4016723517061749  0.5037832735678691  0.5733359639026645   F   F   F
  0.2581251405101810  0.4975170886763465  0.5595608993011396   F   F   F
  0.0716435366847534  0.5242217200164774  0.5842544074682152   F   F   F
  0.9047017668579969  0.0007147016577562  0.2309008013627221   F   F   F
  0.7484823481343597  0.0006635781387416  0.1762104594635758   F   F   F
  0.5925129068975679  0.0006487634506556  0.2308323015094587   F   F   F
  0.6515421610345129  0.1257331569698081  0.3155084869822247   F   F   F
  0.4985973535157910  0.1254976205559970  0.3017712154031855   F   F   F
  0.8460070860792968  0.1257906174074250  0.3156794085509560   F   F   F
  0.9000896352894259  0.1254429860415414  0.4020253107535225   F   F   F
  0.7487757279416485  0.1253463480328207  0.3864659037098761   F   F   F
  0.5969842294112553  0.1252819084213357  0.4015675624524562   F   F   F
  0.6501526241494062  0.1248357550979620  0.4866478576917572   F   F   F
  0.4983898396223623  0.1251443373437908  0.4729389308795930   F   F   F
  0.8471886673170701  0.1242971170165674  0.4870952391567940   F   F   F
  0.9027077449831751  0.1223486429967053  0.5686118688976620   F   F   F
  0.7476722819245225  0.1241927291276639  0.5571418834101323   F   F   F
  0.5908004479132742  0.1261814083270494  0.5661784509781214   F   F   F
  0.9035740243764963  0.1259088351930160  0.2309639865721991   F   F   F
  0.7486813030460198  0.1258412699392437  0.2103779435049660   F   F   F
  0.5938613606701892  0.1257838095016268  0.2308509027627181   F   F   F
  0.6515329946411370  0.2503037034607658  0.3160360145878371   F   F   F
  0.4988552825727908  0.2505990124311381  0.3022152506110203   F   F   F
  0.8466216761894216  0.2505038730180402  0.3164125013292534   F   F   F
  0.9002435865227625  0.2507994817075385  0.4031132380207652   F   F   F
  0.7493227849246651  0.2505340161984293  0.3871624501105231   F   F   F
  0.5971610966280352  0.2507705802206601  0.4021191043744423   F   F   F
  0.6505308207050433  0.2463028385193269  0.4863442340605459   F   F   F
  0.4995464065456829  0.2496836274118976  0.4740952595807713   F   F   F
  0.8479697986466164  0.2491810840763478  0.4892328085721402   F   F   F
  0.9025832256032729  0.2445414748663737  0.5732662502110060   F   F   F
  0.7505558857107602  0.2461039534725842  0.5610715375881767   F   F   F
  0.5838394004323533  0.2398741630460179  0.5702329992851816   F   F   F
  0.9049354546698609  0.2508370322319706  0.2316401601716578   F   F   F
  0.7487339269790780  0.2501641199833884  0.1764107099924743   F   F   F
  0.5929199831142640  0.2507356415342983  0.2313865991726658   F   F   F
  0.6527918275917699  0.3753514456128570  0.3156571329760638   F   F   F
  0.4987917252307597  0.3754289444147076  0.3023422115459482   F   F   F
  0.8456923364272129  0.3754033826552003  0.3162128085098885   F   F   F
  0.9004466828772166  0.3755496455873200  0.4035223343666559   F   F   F
  0.7495751368387076  0.3751529031022471  0.3871245258622551   F   F   F
  0.5977861231739894  0.3744911660952610  0.4015834735773751   F   F   F
  0.6514032846529361  0.3777647411757670  0.4862230798660505   F   F   F
  0.5000418887611531  0.3747767984196599  0.4720749075867445   F   F   F
  0.8488436982946723  0.3761540077907242  0.4891804494888987   F   F   F
  0.9040214106363536  0.3801517470898688  0.5701799840730786   F   F   F
  0.7575273696275175  0.3718562068322413  0.5588446034217256   F   F   F
  0.5831383922159930  0.3766911044594821  0.5703794800537807   F   F   F
  0.9049161831560752  0.3751694732880608  0.2320427280353670   F   F   F
  0.7489727501800090  0.3751879702396650  0.2075103651169741   F   F   F
  0.5928653160694282  0.3750897480012938  0.2317246367627277   F   F   F
  0.6510340336137261  0.0006437538595989  0.3153073178729215   F   F   F
  0.4983621747845248  0.0006111272921885  0.3010916627400846   F   F   F
  0.8461097386412675  0.0006901246896547  0.3153995695910154   F   F   F
  0.9000064198989577  0.0007468144209568  0.4014486390960954   F   F   F
  0.7484152567611559  0.0006396006088920  0.3862155249358707   F   F   F
  0.5967347488975463  0.0007094351645947  0.4013305687072517   F   F   F
  0.6494516711522920  0.0006795488863105  0.4867623521783031   F   F   F
  0.4982772475976986  0.9997148908995541  0.4732179496784568   F   F   F
  0.8466506662889586  0.0005932297788291  0.4866020270906972   F   F   F
  0.9046347307040250  0.9993403704466175  0.5674729604177884   F   F   F
  0.7473809452290112  0.0006674744873436  0.5570843409088724   F   F   F
  0.5911280636476306  0.9996612411765042  0.5671757012365433   F   F   F
  0.9065907065244119  0.5003728552991191  0.2318393280879292   F   F   F
  0.7487162568231724  0.5003378737957433  0.1978471944851066   F   F   F
  0.5914066446993402  0.5003523887647106  0.2314425669646596   F   F   F
  0.6525347820425651  0.6259712242975297  0.3151895755485086   F   F   F
  0.4985225866686136  0.6256643119153864  0.3017729869511143   F   F   F
  0.8452802904791596  0.6258240622080464  0.3155416871026731   F   F   F
  0.8995392651521783  0.6259542687585622  0.4023687942131460   F   F   F
  0.7491170380468333  0.6259409954831057  0.3862691306639547   F   F   F
  0.5970838449151756  0.6260069336902063  0.4010869480605308   F   F   F
  0.6500533951801444  0.6249890019138178  0.4832071179357555   F   F   F