Ta  N Ru Cu                             
   1.00000000000000     
     9.0548154099999998    0.0000000000000000    0.0000000000000000
     0.0000000000000000   11.6775998899999998    0.0000000000000000
     0.0000000000000000    0.0000000000000000   26.4818170799999990
   Ta   N    Ru   Cu
    60    60    32     2
Selective dynamics
Direct
  0.0000000000000000  0.0000000000000000  0.2258397498815228   F   F   F
  0.6670845899906297  0.1250000003211298  0.2339882671631202   F   F   F
  0.3329153514769843  0.1250000003211298  0.2339882671631202   F   F   F
  0.4999999994478088  0.2499999997859135  0.3208898207564346   F   F   F
  0.1650707596845180  0.1250000003211298  0.3267034403329916   F   F   F
  0.8349292403154820  0.1250000003211298  0.3267034403329916   F   F   F
  0.0010415652851233  0.2503115478547234  0.4254723442006314   T   T   T
  0.6649999539608981  0.1252922666191033  0.4239576867919896   T   T   T
  0.3353205706471709  0.1252981844612709  0.4239339387610478   T   T   T
  0.4980525244499412  0.2507111142763384  0.5231905886553146   T   T   T
  0.1675790029207570  0.1256237234730770  0.5234125243296496   T   T   T
  0.8341263468286729  0.1257228516880345  0.5227479310604422   T   T   T
  0.0045474170668935  0.2509592343083208  0.6223110254849151   T   T   T
  0.6653402382444576  0.1263624641915238  0.6207074633771246   T   T   T
  0.3292678039676695  0.1259169083122889  0.6243797232901356   T   T   T
  0.0000000000000000  0.2499999997859135  0.2258397498815228   F   F   F
  0.6670845899906297  0.3750000001070433  0.2339882671631202   F   F   F
  0.3329153514769843  0.3750000001070433  0.2339882671631202   F   F   F
  0.4999999994478088  0.5000000004281731  0.3208898207564346   F   F   F
  0.1650707596845180  0.3750000001070433  0.3267034403329916   F   F   F
  0.8349292403154820  0.3750000001070433  0.3267034403329916   F   F   F
  0.0009472061211929  0.5003094579391795  0.4254912298305765   T   T   T
  0.6651691170866368  0.3752674579344823  0.4239826842958148   T   T   T
  0.3354052224240824  0.3752898180736481  0.4239002823110221   T   T   T
  0.4981482127028347  0.5005977609530319  0.5232867588892629   T   T   T
  0.1672952844022016  0.3756603478110923  0.5233751878242632   T   T   T
  0.8340938952427521  0.3757661669104452  0.5227823558681689   T   T   T
  0.9992636039006241  0.5006636567404278  0.6234815784025788   T   T   T
  0.6655418690988389  0.3762653487278795  0.6204515606313481   T   T   T
  0.3299592649325146  0.3754774268103999  0.6232827783361744   T   T   T
  0.0000000000000000  0.5000000004281731  0.2258397498815228   F   F   F
  0.6670845899906297  0.6249999998929567  0.2339882671631202   F   F   F
  0.3329153514769843  0.6249999998929567  0.2339882671631202   F   F   F
  0.4999999994478088  0.7500000002140865  0.3208898207564346   F   F   F
  0.1650707596845180  0.6249999998929567  0.3267034403329916   F   F   F
  0.8349292403154820  0.6249999998929567  0.3267034403329916   F   F   F
  0.0009910267544120  0.7502266036242274  0.4254628389748170   T   T   T
  0.6649489226060659  0.6252276450795348  0.4239783357511790   T   T   T
  0.3352632605712124  0.6252424296542531  0.4239255106420089   T   T   T
  0.4981751711254380  0.7505345178190963  0.5231468948530251   T   T   T
  0.1674383717062138  0.6255271921512262  0.5234418994923644   T   T   T
  0.8341510884348335  0.6255890776357164  0.5228264844055689   T   T   T
  0.0042401882423416  0.7513291797247532  0.6223079740564141   T   T   T
  0.6647898977965002  0.6261698836522720  0.6208469647208052   T   T   T
  0.3286943222735738  0.6258237868570684  0.6245406043514989   T   T   T
  0.0000000000000000  0.7500000002140865  0.2258397498815228   F   F   F
  0.6670845899906297  0.8750000005352163  0.2339882671631202   F   F   F
  0.3329153514769843  0.8750000005352163  0.2339882671631202   F   F   F
  0.4999999994478088  0.0000000000000000  0.3208898207564346   F   F   F
  0.1650707596845180  0.8750000005352163  0.3267034403329916   F   F   F
  0.8349292403154820  0.8750000005352163  0.3267034403329916   F   F   F
  0.0010536105452561  0.0003790863000594  0.4254654488216827   T   T   T
  0.6651556241212115  0.8752350580736067  0.4239426523188098   T   T   T
  0.3354245006916443  0.8752361990205361  0.4238987293698396   T   T   T
  0.4980440821396967  0.0006532223169660  0.5231927120547984   T   T   T
  0.1673029056273015  0.8755566264854624  0.5233128211298478   T   T   T
  0.8342828574054685  0.8757810251353736  0.5226153512796484   T   T   T
  0.0014667016614857  0.0007714979117404  0.6231280339319889   T   T   T
  0.6660101312154069  0.8765731650998639  0.6198969238607573   T   T   T
  0.3304179063776608  0.8756055278733978  0.6230324903967125   T   T   T
  0.8141011533980276  0.0000000000000000  0.2671765160246267   F   F   F
  0.4999999994478088  0.0000000000000000  0.2273691263583544   F   F   F
  0.1858988466019724  0.0000000000000000  0.2671765160246267   F   F   F
  0.3088456122590841  0.2499999997859135  0.3635413069267344   F   F   F
  0.0000000000000000  0.2499999997859135  0.3485649890092901   F   F   F
  0.6911543877409159  0.2499999997859135  0.3635413069267344   F   F   F
  0.8027464499355226  0.2504457960276392  0.4626688660149943   T   T   T
  0.5000549966770510  0.2504161564548964  0.4456439006496327   T   T   T
  0.1989712892176710  0.2505261937642418  0.4632218032456389   T   T   T
  0.3025358095244943  0.2503518774730827  0.5628841008211184   T   T   T
  0.0008670555201138  0.2507756859237882  0.5438351372100931   T   T   T
  0.6957835861360040  0.2506016625562786  0.5603447333185341   T   T   T
  0.8053844837045904  0.2515186450520302  0.6551927397628298   T   T   T
  0.5028470070133603  0.2513520190019650  0.6434006096932234   T   T   T
  0.1986967790743830  0.2517208242918848  0.6604661765966007   T   T   T
  0.8141011533980276  0.2499999997859135  0.2671765160246267   F   F   F
  0.4999999994478088  0.2499999997859135  0.2273691263583544   F   F   F
  0.1858988466019724  0.2499999997859135  0.2671765160246267   F   F   F
  0.3088456122590841  0.5000000004281731  0.3635413069267344   F   F   F
  0.0000000000000000  0.5000000004281731  0.3485649890092901   F   F   F
  0.6911543877409159  0.5000000004281731  0.3635413069267344   F   F   F
  0.8027869900548170  0.5004727083503513  0.4627180945562175   T   T   T
  0.5000003304476368  0.5003222137660027  0.4456947284642421   T   T   T
  0.1987304050834857  0.5003458763696712  0.4632057946078881   T   T   T
  0.3020815358684152  0.5009602798592954  0.5624778727320723   T   T   T
  0.0003534814707189  0.5007064117453386  0.5444723419960552   T   T   T
  0.6962203823676724  0.5011873148048891  0.5605272602090229   T   T   T
  0.7995454417575195  0.5016601445506407  0.6586009923405811   T   T   T
  0.5002697863157979  0.5006281334244675  0.6401280168421044   T   T   T
  0.1978224513293238  0.4994645138376375  0.6594104584281417   T   T   T
  0.8141011533980276  0.5000000004281731  0.2671765160246267   F   F   F
  0.4999999994478088  0.5000000004281731  0.2273691263583544   F   F   F
  0.1858988466019724  0.5000000004281731  0.2671765160246267   F   F   F
  0.3088456122590841  0.7500000002140865  0.3635413069267344   F   F   F
  0.0000000000000000  0.7500000002140865  0.3485649890092901   F   F   F
  0.6911543877409159  0.7500000002140865  0.3635413069267344   F   F   F
  0.8027470650401595  0.7503547945773158  0.4626375356613179   T   T   T
  0.5000399351746143  0.7502989422289769  0.4456304486271975   T   T   T
  0.1989288938990633  0.7504091101627939  0.4631909178978637   T   T   T
  0.3023617593969471  0.7501419604551351  0.5627770119051335   T   T   T
  0.0007999162158919  0.7506606898616505  0.5438394989160594   T   T   T
  0.6960534619980605  0.7504385964203939  0.5601889366229504   T   T   T
  0.8048977837335463  0.7529666132510935  0.6553240259529137   T   T   T
  0.5021741300366266  0.7511174796634232  0.6424523063963452   T   T   T
  0.1984394529696593  0.7517650841917343  0.6602376169715496   T   T   T
  0.8141011533980276  0.7500000002140865  0.2671765160246267   F   F   F
  0.4999999994478088  0.7500000002140865  0.2273691263583544   F   F   F
  0.1858988466019724  0.7500000002140865  0.2671765160246267   F   F   F
  0.3088456122590841  0.0000000000000000  0.3635413069267344   F   F   F
  0.0000000000000000  0.0000000000000000  0.3485649890092901   F   F   F
  0.6911543877409159  0.0000000000000000  0.3635413069267344   F   F   F
  0.8028556841907493  0.0005693443681339  0.4626279395332215   T   T   T
  0.5000380109954474  0.0002946529783059  0.4456604667562746   T   T   T
  0.1988658260794687  0.0003967874603160  0.4631939891463541   T   T   T
  0.3021508117772969  0.0008635959098514  0.5624937050115315   T   T   T
  0.0006148288892620  0.0007336241486933  0.5442492357979125   T   T   T
  0.6962721666766826  0.0014122996125396  0.5603011158147517   T   T   T
  0.8018427837280038  0.0013498029158262  0.6576501410745645   T   T   T
  0.5012348689304478  0.0009756788996398  0.6401570857977095   T   T   T
  0.1995205223828866  0.9994323865363484  0.6600927541728853   T   T   T
  0.0925043080388086  0.0111238179985846  0.7313807756893054   T   T   T
  0.5692045935097656  0.9851407390089173  0.7138202817585234   T   T   T
  0.8472430400318667  0.1331111981542588  0.7131815031585890   T   T   T
  0.0972211440909222  0.5109451947128715  0.7309894062234914   T   T   T
  0.5696775142169090  0.4971701036732317  0.7139584844862290   T   T   T
  0.8514200318981165  0.6348869274550297  0.7133916641293639   T   T   T
  0.1034293280012276  0.2443527845887798  0.7326311677082904   T   T   T
  0.5561292078162079  0.2645012287883990  0.7207197438317129   T   T   T
  0.8501315137433602  0.3687190159469487  0.7130273765757378   T   T   T
  0.1090237593078515  0.7412141472641737  0.7329481050153821   T   T   T
  0.5509692281593970  0.7575374563216630  0.7197305402809131   T   T   T
  0.8475332574346547  0.8699180401308013  0.7134365555286115   T   T   T
  0.3265206410183364  0.8926671661706137  0.7363481266137955   T   T   T
  0.3495729058460628  0.6123411886518135  0.7452785734272573   T   T   T
  0.3291333537219487  0.3879456355888294  0.7379186052651167   T   T   T
  0.3477895764350887  0.1161798405989677  0.7427744059860253   T   T   T
  0.1414210096214232  0.8819724261621831  0.8059542267200976   T   T   T
  0.6595794037817855  0.8803141813520408  0.7942661509761934   T   T   T
  0.8925406737419276  0.0190059729463110  0.7969464160319679   T   T   T
  0.1437155693311045  0.3805618946640510  0.8065373582043448   T   T   T
  0.6587733218401370  0.3939530058167404  0.7951154909937446   T   T   T
  0.8938538046893417  0.5170036895943283  0.7953098809629869   T   T   T
  0.1467386068765226  0.1216906341565352  0.8101054301368734   T   T   T
  0.6370946235402104  0.1105909686753406  0.7884554548468053   T   T   T
  0.8872633968359699  0.2422085676044451  0.7956228558262097   T   T   T
  0.1480056932867424  0.6186321324882466  0.8114933594440046   T   T   T
  0.6434680920214981  0.6193967097753249  0.7906708472530651   T   T   T
  0.8941472220127575  0.7422378511548889  0.7955297224031799   T   T   T
  0.4178513428779392  0.7694544860825716  0.8074682755638064   T   T   T
  0.3991366431131908  0.4774861199549656  0.8206596914322676   T   T   T
  0.4222566270159018  0.2615374368111693  0.8085587190751902   T   T   T
  0.3977297381405174  0.9850070646360014  0.8179633337944688   T   T   T
  0.6644983437092122  0.2406065226085741  0.8638047214356011   T   T   T
  0.5137534245886046  0.6350141813722036  0.8746486196734844   T   T   T
 
  0.00000000E+00  0.00000000E+00  0.00000000E+00
  0.00000000E+00  0.00000000E+00  0.00000000E+00
  0.00000000E+00  0.00000000E+00  0.00000000E+00
  0.00000000E+00  0.00000000E+00  0.00000000E+00
  0.00000000E+00  0.00000000E+00  0.00000000E+00
  0.00000000E+00  0.00000000E+00  0.00000000E+00
  0.00000000E+00  0.00000000E+00  0.00000000E+00
  0.00000000E+00  0.00000000E+00  0.00000000E+00
  0.00000000E+00  0.00000000E+00  0.00000000E+00
  0.00000000E+00  0.00000000E+00  0.00000000E+00
  0.00000000E+00  0.00000000E+00  0.00000000E+00
  0.00000000E+00  0.00000000E+00  0.00000000E+00
  0.00000000E+00  0.00000000E+00  0.00000000E+00
  0.00000000E+00  0.00000000E+00  0.00000000E+00
  0.00000000E+00  0.00000000E+00  0.00000000E+00
  0.00000000E+00  0.00000000E+00  0.00000000E+00
  0.00000000E+00  0.00000000E+00  0.00000000E+00
  0.00000000E+00  0.00000000E+00  0.00000000E+00
  0.00000000E+00  0.00000000E+00  0.00000000E+00
  0.00000000E+00  0.00000000E+00  0.00000000E+00
  0.00000000E+00  0.00000000E+00  0.00000000E+00
  0.00000000E+00  0.00000000E+00  0.00000000E+00
  0.00000000E+00  0.00000000E+00  0.00000000E+00
  0.00000000E+00  0.00000000E+00  0.00000000E+00
  0.00000000E+00  0.00000000E+00  0.00000000E+00
  0.00000000E+00  0.00000000E+00  0.00000000E+00
  0.00000000E+00  0.00000000E+00  0.00000000E+00
  0.00000000E+00  0.00000000E+00  0.00000000E+00
  0.00000000E+00  0.00000000E+00  0.00000000E+00
  0.00000000E+00  0.00000000E+00  0.00000000E+00
  0.00000000E+00  0.00000000E+00  0.00000000E+00
  0.00000000E+00  0.00000000E+00  0.00000000E+00
  0.00000000E+00  0.00000000E+00  0.00000000E+00
  0.00000000E+00  0.00000000E+00  0.00000000E+00
  0.00000000E+00  0.00000000E+00  0.00000000E+00
  0.00000000E+00  0.00000000E+00  0.00000000E+00
  0.00000000E+00  0.00000000E+00  0.00000000E+00
  0.00000000E+00  0.00000000E+00  0.00000000E+00
  0.00000000E+00  0.00000000E+00  0.00000000E+00
  0.00000000E+00  0.00000000E+00  0.00000000E+00
  0.00000000E+00  0.00000000E+00  0.00000000E+00
  0.00000000E+00  0.00000000E+00  0.00000000E+00
  0.00000000E+00  0.00000000E+00  0.00000000E+00
  0.00000000E+00  0.00000000E+00  0.00000000E+00
  0.00000000E+00  0.00000000E+00  0.00000000E+00
  0.00000000E+00  0.00000000E+00  0.00000000E+00
  0.00000000E+00  0.00000000E+00  0.00000000E+00
  0.00000000E+00  0.00000000E+00  0.00000000E+00
  0.00000000E+00  0.00000000E+00  0.00000000E+00
  0.00000000E+00  0.00000000E+00  0.00000000E+00
  0.00000000E+00  0.00000000E+00  0.00000000E+00
  0.00000000E+00  0.00000000E+00  0.00000000E+00
  0.00000000E+00  0.00000000E+00  0.00000000E+00
  0.00000000E+00  0.00000000E+00  0.00000000E+00
  0.00000000E+00  0.00000000E+00  0.00000000E+00
  0.00000000E+00  0.00000000E+00  0.00000000E+00
  0.00000000E+00  0.00000000E+00  0.00000000E+00
  0.00000000E+00  0.00000000E+00  0.00000000E+00
  0.00000000E+00  0.00000000E+00  0.00000000E+00
  0.00000000E+00  0.00000000E+00  0.00000000E+00
  0.00000000E+00  0.00000000E+00  0.00000000E+00
  0.00000000E+00  0.00000000E+00  0.00000000E+00
  0.00000000E+00  0.00000000E+00  0.00000000E+00
  0.00000000E+00  0.00000000E+00  0.00000000E+00
  0.00000000E+00  0.00000000E+00  0.00000000E+00
  0.00000000E+00  0.00000000E+00  0.00000000E+00
  0.00000000E+00  0.00000000E+00  0.00000000E+00
  0.00000000E+00  0.00000000E+00  0.00000000E+00
  0.00000000E+00  0.00000000E+00  0.00000000E+00
  0.00000000E+00  0.00000000E+00  0.00000000E+00
  0.00000000E+00  0.00000000E+00  0.00000000E+00
  0.00000000E+00  0.00000000E+00  0.00000000E+00
  0.00000000E+00  0.00000000E+00  0.00000000E+00
  0.00000000E+00  0.00000000E+00  0.00000000E+00
  0.00000000E+00  0.00000000E+00  0.00000000E+00
  0.00000000E+00  0.00000000E+00  0.00000000E+00
  0.00000000E+00  0.00000000E+00  0.00000000E+00
  0.00000000E+00  0.00000000E+00  0.00000000E+00
  0.00000000E+00  0.00000000E+00  0.00000000E+00
  0.00000000E+00  0.00000000E+00  0.00000000E+00
  0.00000000E+00  0.00000000E+00  0.00000000E+00
  0.00000000E+00  0.00000000E+00  0.00000000E+00
  0.00000000E+00  0.00000000E+00  0.00000000E+00
  0.00000000E+00  0.00000000E+00  0.00000000E+00
  0.00000000E+00  0.00000000E+00  0.00000000E+00
  0.00000000E+00  0.00000000E+00  0.00000000E+00
  0.00000000E+00  0.00000000E+00  0.00000000E+00
  0.00000000E+00  0.00000000E+00  0.00000000E+00
  0.00000000E+00  0.00000000E+00  0.00000000E+00
  0.00000000E+00  0.00000000E+00  0.00000000E+00
  0.00000000E+00  0.00000000E+00  0.00000000E+00
  0.00000000E+00  0.00000000E+00  0.00000000E+00
  0.00000000E+00  0.00000000E+00  0.00000000E+00
  0.00000000E+00  0.00000000E+00  0.00000000E+00
  0.00000000E+00  0.00000000E+00  0.00000000E+00
  0.00000000E+00  0.00000000E+00  0.00000000E+00
  0.00000000E+00  0.00000000E+00  0.00000000E+00
  0.00000000E+00  0.00000000E+00  0.00000000E+00
  0.00000000E+00  0.00000000E+00  0.00000000E+00
  0.00000000E+00  0.00000000E+00  0.00000000E+00
  0.00000000E+00  0.00000000E+00  0.00000000E+00
  0.00000000E+00  0.00000000E+00  0.00000000E+00
  0.00000000E+00  0.00000000E+00  0.00000000E+00
  0.00000000E+00  0.00000000E+00  0.00000000E+00
  0.00000000E+00  0.00000000E+00  0.00000000E+00
  0.00000000E+00  0.00000000E+00  0.00000000E+00
  0.00000000E+00  0.00000000E+00  0.00000000E+00
  0.00000000E+00  0.00000000E+00  0.00000000E+00
  0.00000000E+00  0.00000000E+00  0.00000000E+00
  0.00000000E+00  0.00000000E+00  0.00000000E+00
  0.00000000E+00  0.00000000E+00  0.00000000E+00
  0.00000000E+00  0.00000000E+00  0.00000000E+00
  0.00000000E+00  0.00000000E+00  0.00000000E+00
  0.00000000E+00  0.00000000E+00  0.00000000E+00
  0.00000000E+00  0.00000000E+00  0.00000000E+00
  0.00000000E+00  0.00000000E+00  0.00000000E+00
  0.00000000E+00  0.00000000E+00  0.00000000E+00
  0.00000000E+00  0.00000000E+00  0.00000000E+00
  0.00000000E+00  0.00000000E+00  0.00000000E+00
  0.00000000E+00  0.00000000E+00  0.00000000E+00
  0.00000000E+00  0.00000000E+00  0.00000000E+00
  0.00000000E+00  0.00000000E+00  0.00000000E+00
  0.00000000E+00  0.00000000E+00  0.00000000E+00
  0.00000000E+00  0.00000000E+00  0.00000000E+00
  0.00000000E+00  0.00000000E+00  0.00000000E+00
  0.00000000E+00  0.00000000E+00  0.00000000E+00
  0.00000000E+00  0.00000000E+00  0.00000000E+00
  0.00000000E+00  0.00000000E+00  0.00000000E+00
  0.00000000E+00  0.00000000E+00  0.00000000E+00
  0.00000000E+00  0.00000000E+00  0.00000000E+00
  0.00000000E+00  0.00000000E+00  0.00000000E+00
  0.00000000E+00  0.00000000E+00  0.00000000E+00
  0.00000000E+00  0.00000000E+00  0.00000000E+00
  0.00000000E+00  0.00000000E+00  0.00000000E+00
  0.00000000E+00  0.00000000E+00  0.00000000E+00
  0.00000000E+00  0.00000000E+00  0.00000000E+00
  0.00000000E+00  0.00000000E+00  0.00000000E+00
  0.00000000E+00  0.00000000E+00  0.00000000E+00
  0.00000000E+00  0.00000000E+00  0.00000000E+00
  0.00000000E+00  0.00000000E+00  0.00000000E+00
  0.00000000E+00  0.00000000E+00  0.00000000E+00
  0.00000000E+00  0.00000000E+00  0.00000000E+00
  0.00000000E+00  0.00000000E+00  0.00000000E+00
  0.00000000E+00  0.00000000E+00  0.00000000E+00
  0.00000000E+00  0.00000000E+00  0.00000000E+00
  0.00000000E+00  0.00000000E+00  0.00000000E+00
  0.00000000E+00  0.00000000E+00  0.00000000E+00
  0.00000000E+00  0.00000000E+00  0.00000000E+00
  0.00000000E+00  0.00000000E+00  0.00000000E+00
  0.00000000E+00  0.00000000E+00  0.00000000E+00
  0.00000000E+00  0.00000000E+00  0.00000000E+00
  0.00000000E+00  0.00000000E+00  0.00000000E+00
  0.00000000E+00  0.00000000E+00  0.00000000E+00
  0.00000000E+00  0.00000000E+00  0.00000000E+00
