Ta N Cu                                 
   1.00000000000000     
    18.1096308199999996    0.0000000000000000    0.0000000000000000
     0.0000000000000000   11.6775998899999998    0.0000000000000000
     0.0000000000000000    0.0000000000000000   23.4818170799999990
   Ta   N    Cu
   120   120     1
Direct
  0.9999624475978949  0.0000248227810005  0.2546493789172786
  0.3335314301607255  0.1249992720678534  0.2637307588584221
  0.1664688591875461  0.1249976202621994  0.2637251833258532
  0.2500120422414440  0.2499623997737643  0.3613355666045237
  0.0824935639995275  0.1249962441414851  0.3683117688339053
  0.4175006571898337  0.1249975943459063  0.3683414367081425
  0.0001083117241123  0.2500455523159671  0.4798381805299100
  0.3323666511752634  0.1250058713166311  0.4780028312963011
  0.1676365282601395  0.1249977462465353  0.4779634464795066
  0.2499772816918124  0.2499827628483473  0.5904865040674921
  0.0838659916696756  0.1249952504706400  0.5897139496167086
  0.4160273613051118  0.1250007715965396  0.5898576727683817
  0.9988136637254926  0.2501083914476112  0.7020170119893477
  0.3384265182275357  0.1250402836501579  0.7028402563569501
  0.1613775038884881  0.1250335495056021  0.7026724671250335
  0.9999630944592965  0.2499704556978983  0.2546497946830755
  0.3334635176370213  0.3749765154678641  0.2637595488938445
  0.1665310060526082  0.3749862405865443  0.2637519370626009
  0.2500138015917485  0.5000014425498236  0.3613903194807762
  0.0824762351787385  0.3749892553576544  0.3683189248616258
  0.4175193536683680  0.3749866494883776  0.3683401933479971
  0.0000800440429387  0.4999919063488961  0.4798107884361897
  0.3323668459573952  0.3750375976043188  0.4780188211514869
  0.1676458869272821  0.3750317749819417  0.4779817619963821
  0.2499902175991195  0.4998286240331709  0.5907530437012198
  0.0839510219214219  0.3751501242122046  0.5899025563006929
  0.4159863205381598  0.3751191115124613  0.5899954379772226
  0.9994903195077213  0.5000692255735403  0.7020872252221508
  0.3361526203948912  0.3766659237098651  0.7048774017544587
  0.1637519404009921  0.3766196270978597  0.7048152552942355
  0.9999691882996232  0.4999382590014818  0.2546386725504491
  0.3334189155259892  0.6249971601823247  0.2637769697252921
  0.1666007918360179  0.6249968559049890  0.2637840235518568
  0.2500122172193996  0.7499922034937968  0.3613912497914669
  0.0825048255940643  0.6249968589582551  0.3682920058557499
  0.4174904414402505  0.6249947070286338  0.3683079357331707
  0.0000834731408688  0.7500105660050665  0.4798107509955613
  0.3323487333456115  0.6249633037966617  0.4780624093024031
  0.1676704412302925  0.6249942351646213  0.4780422114464074
  0.2499894095666306  0.7501879460526694  0.5907557710063217
  0.0838219670426099  0.6250088887717880  0.5898382244277443
  0.4161424938760377  0.6249915717250188  0.5898750447470321
  0.9994860097255013  0.7499663071115137  0.7020754283008018
  0.3347783860260308  0.6250913251638366  0.7042572109607478
  0.1651608308486132  0.6250908804871712  0.7042495611521460
  0.9999684747020794  0.7500555551864493  0.2546381611069393
  0.3334635883695257  0.8750196970056409  0.2637589858672840
  0.1665307715945730  0.8750105417713384  0.2637515318526127
  0.2500140945462732  0.0000349929528554  0.3613339468346694
  0.0824735890873711  0.8750029745054774  0.3683174144898018
  0.4175226342131921  0.8750092397323357  0.3683386665690094
  0.0001081071541407  0.9999481899246802  0.4798455989332595
  0.3323703263335958  0.8749729421888403  0.4780176596106359
  0.1676480132882645  0.8749528112295123  0.4779789179114929
  0.2499728946134141  0.0000181718796668  0.5904870966494116
  0.0839744624265037  0.8748639710458547  0.5899133661415875
  0.4159689203400987  0.8748780699219056  0.5900016485444723
  0.9988070585855907 -0.0000753399398833  0.7020028180108255
  0.3361378200377700  0.8735422535122692  0.7049222988424262
  0.1637547178745251  0.8735738638954302  0.7048624939106318
  0.5000346452965304  0.0000303823216683  0.2546676292333032
  0.8335035449909115  0.1249967783738200  0.2637702018238031
  0.6664998383903581  0.1249983548907920  0.2637827479703247
  0.7499843792853227  0.2499813101310977  0.3614329554460554
  0.5825273634305502  0.1249973463129237  0.3683922213364568
  0.9174538019669640  0.1249948195885224  0.3683716463545466
  0.4998335208473463  0.2500271364247197  0.4798863489251701
  0.8323705363734887  0.1249755223361433  0.4780897422356319
  0.6675831909860648  0.1249926080681263  0.4781085072324628
  0.7499762014758886  0.2499818660668325  0.5908191892504108
  0.5834010870282641  0.1250033772178298  0.5898741901941663
  0.9165243781227943  0.1249950183919282  0.5898395546737021
  0.5009709702914904  0.2501249014769655  0.7021450158724675
  0.8347972157359179  0.1250030289194797  0.7041694538668041
  0.6651007928395744  0.1249958890910250  0.7041649787312849
  0.5000334430834670  0.2499649822933634  0.2546681454071446
  0.8334654845616215  0.3749569506930044  0.2637760614231226
  0.6665420682679722  0.3749523371622984  0.2637870724620015
  0.7499921589399677  0.4999736532153066  0.3614162265288030
  0.5825235707132776  0.3749877011747245  0.3683847433928661
  0.9174598305922855  0.3749969590193771  0.3683657786059556
  0.4998948073449868  0.4999680785030378  0.4798373889575772
  0.8323878113293333  0.3750062039291038  0.4780819441344164
  0.6675756765362522  0.3749881459002821  0.4780961973334641
  0.7499741295514114  0.4999795052704955  0.5907718633481096
  0.5834488937841300  0.3750261632872309  0.5898340106021536
  0.9164844862460130  0.3750434581443755  0.5898108154950634
  0.5004522268985099  0.5000770258774664  0.7021160521859926
  0.8349378414440379  0.3750631477692111  0.7041298506598821
  0.6650093140299091  0.3750525812688608  0.7041293295515986
  0.5000331844644421  0.4999434072897272  0.2546542339839917
  0.8333981740052323  0.6249972692213532  0.2637954764628603
  0.6666199470153414  0.6249966162931244  0.2638099050403682
  0.7499889205881657  0.7500242278393615  0.3614153024249163
  0.5825269543309090  0.6249962815315016  0.3683508314442605
  0.9174577562436073  0.6249997100335065  0.3683361914087158
  0.4998976696425359  0.7500349746631443  0.4798371120382399
  0.8323826397805761  0.6249920688631364  0.4780840719124910
  0.6675801086797081  0.6249990675966258  0.4780955212838265
  0.7499745866131705  0.7500140869599933  0.5907743499748577
  0.5835054164461583  0.6250004728408954  0.5898051706571010
  0.9164402458534440  0.6250016586031891  0.5897941021905596
  0.5004574480579437  0.7499672265730055  0.7021101622327706
  0.8350743860520781  0.6250035692810343  0.7041355373251221
  0.6649134044543105  0.6250039279606058  0.7041384810300571
  0.5000334658894515  0.7500500133451594  0.2546535810386175
  0.8334633421725712  0.8750399783991513  0.2637746269851036
  0.6665446442349036  0.8750424329692236  0.2637865373115318
  0.7499873890921619  0.0000198197883847  0.3614325101109799
  0.5825235916637439  0.8750073979036869  0.3683833235425595
  0.9174595186310269  0.8750082156887300  0.3683641879603315
  0.4998204670220687 -0.0000336746806155  0.4798920249599377
  0.8323865405768628  0.8750213733453477  0.4780793585626527
  0.6675742922329064  0.8750167570070105  0.4780948755422330
  0.7499735944338043  0.0000137488291116  0.5908153972235225
  0.5834454511689061  0.8749678496167377  0.5898291423747963
  0.9164860643844366  0.8749518053331115  0.5898093070587009
  0.5009798674942089 -0.0000875773396060  0.7021310317833100
  0.8349386364540619  0.8749187902394199  0.7041292240308364
  0.6650008653661813  0.8749382851958458  0.7041289046340894
  0.4069234750895632  0.0000186470456214  0.3010935565516561
  0.2500017479364374  0.0000400830210694  0.2576520796154824
  0.0930732740663984  0.0000102050816579  0.3010744695284870
  0.1543746106823534  0.2500335368882177  0.4097975077945222
  0.9999992177993350  0.2499882381251126  0.3931361505857681
  0.3456327505840875  0.2500241027578909  0.4098315814340481
  0.4007000884952703  0.2500482636535821  0.5220507513089884
  0.2499914633681115  0.2500118457199960  0.5024954127611777
  0.0992558424459915  0.2500835653659835  0.5219472208728746
  0.1521268127531741  0.2510117522628690  0.6334442356774089
  0.0001055029572612  0.2500662296871141  0.6131993247770707
  0.3477655413791112  0.2510024334817444  0.6335668745782074
  0.4039488796437709  0.2505188552467175  0.7405157420745994
  0.2498725516319098  0.2475860545535155  0.7287867720761909
  0.0958456050889609  0.2504923347826420  0.7403357770702356
  0.4069224729460146  0.2499782585724546  0.3010942597161232
  0.2500015403935194  0.2499563618730463  0.2576537142998276
  0.0930738000491758  0.2499858473386780  0.3010750855936592
  0.1543687291003764  0.5000225008664572  0.4098417816733928
  0.0000004280222186  0.5000199759783612  0.3930998275921453
  0.3456381307953010  0.5000236854221143  0.4098673669032422
  0.4008091536947447  0.4999680998656472  0.5220678359681585
  0.2499993441620205  0.5000190480707900  0.5026816199180290
  0.0991696778912185  0.4999848539874066  0.5220195379752326
  0.1519583419770285  0.5001107316431828  0.6334148544596517
  0.0001168685945672  0.5000364888650992  0.6132744606255542
  0.3479931947510266  0.5001099016762039  0.6334475794964760
  0.4032380773655007  0.5002048120603177  0.7404503315532622
  0.2499626894275125  0.4995997442400081  0.7246190244736681
  0.0967055477047296  0.5001636981979587  0.7404312037202345
  0.4069270745809632  0.4999590365540101  0.3010809051850387
  0.2500071285969980  0.4999637430720441  0.2575305516362647
  0.0930719808841758  0.4999650408943523  0.3010684768084175
  0.1543682340185697  0.7499676930656348  0.4098408318938169
  0.9999991965920502  0.7499740780656836  0.3931012949527144
  0.3456416234599402  0.7499751713979421  0.4098637333304608
  0.4008072536443308  0.7500472843059997  0.5220758162368070
  0.2499951597509735  0.7499765598298821  0.5026800244288767
  0.0991719072407236  0.7500201252946183  0.5220230411790112
  0.1519720639744335  0.7499442663984368  0.6334327619858301
  0.0001249520834108  0.7499705033087167  0.6132700623657927
  0.3479750992408555  0.7499431707576463  0.6334632253685298
  0.4032296020257177  0.7499560618779810  0.7404467043150474
  0.2499631698610329  0.7506107991512749  0.7246572970638853
  0.0967126370774949  0.7499858946524114  0.7404276825435120
  0.4069271441410152  0.7500346312384423  0.3010796983382490
  0.2500079374765463  0.7500313551533537  0.2575317084514097
  0.0930714707748024  0.7500280021529521  0.3010678564363545
  0.1543734018741105  0.9999575832825088  0.4097951287047650
  0.9999984830633011  0.0000091469958434  0.3931363486718809
  0.3456357209447276  0.9999688649143934  0.4098303767641484
  0.4006888406594555  0.9999355279948646  0.5220574236166229
  0.2499929710464599  0.9999740075486798  0.5024885087744835
  0.0992672229562643  0.9999012983664528  0.5219540991653134
  0.1521518655734866  0.9990055515357313  0.6334743285120369
  0.0001114000550970  0.9999256641390488  0.6131879787157858
  0.3477386905410356  0.9990226860975540  0.6335961451004550
  0.4039880152502490  0.9995690521973941  0.7405133012876705
  0.2498748763515124  0.0030310270370180  0.7289738234958135
  0.0957914351225142  0.9995839784497135  0.7403312602606674
  0.9068990269179409  0.0000141973077277  0.3011316940375650
  0.7499995578985333  0.0000268287822678  0.2576260648895854
  0.5930957344510190  0.0000143728364961  0.3011493443209333
  0.6543857601891362  0.2500096830232437  0.4099022540998050
  0.4999858003906041  0.2499871489450385  0.3931701033952634
  0.8456015646746877  0.2500219500153591  0.4098862459914372
  0.9010152248253505  0.2499858676923239  0.5219727955153033
  0.7499882417885146  0.2500089612928420  0.5027681066286647
  0.5989243429916939  0.2499625159274856  0.5220030928470862
  0.6515896269130153  0.2499955709329668  0.6331394062620957
  0.4998247163030456  0.2500445613835254  0.6133156894232813
  0.8483608831433073  0.2500011653504260  0.6331339549742907
  0.9025903223390159  0.2500051058744929  0.7406386126918604
  0.7499602540489434  0.2500372582785814  0.7236891467161115
  0.5973005060740775  0.2500072273208999  0.7406201870953453
  0.9068992587671617  0.2499832962790194  0.3011314324716849
  0.7499997607550881  0.2499703206830901  0.2576282856814629
  0.5930952176144615  0.2499811050993799  0.3011496603266437
  0.6543957517719504  0.4999962108365281  0.4098863685757053
  0.4999894471708685  0.5000161366948676  0.3931209884893647
  0.8455887212874770  0.5000085960458732  0.4098765184566418
  0.9010134282730888  0.4999992805674226  0.5219644974753379
  0.7499860638181417  0.4999647033029788  0.5027322100557967
  0.5989509199425670  0.4999740625668920  0.5219877856842245
  0.6516494850094076  0.4999896551687257  0.6331186456102316
  0.4998471004775666  0.5000159449866645  0.6133099815295040
  0.8483142808415424  0.5000040760458049  0.6331176516202744
  0.9030291666753528  0.5000115351275269  0.7403908674053242
  0.7499886152909313  0.5000581950983333  0.7237847326621251
  0.5969512953346481  0.5000132249938148  0.7403913684009709
  0.9069063228889219  0.4999793306040488  0.3011107263189032
  0.7500029368119315  0.4999505105154967  0.2575084785453682
  0.5930961166321821  0.4999763866860291  0.3011238552533655
  0.6543961453177046  0.7499972965612899  0.4098858716740921
  0.4999903982766298  0.7499776753652513  0.3931217170282793
  0.8455895558088499  0.7499943059137735  0.4098746144112511
  0.9010120209383956  0.7500026425451338  0.5219672919290873
  0.7499815126929548  0.7500367517465421  0.5027299215075162
  0.5989506721222425  0.7500188618408643  0.5219875831795378
  0.6516478051795431  0.7500043758102137  0.6331170883048074
  0.4998412286821577  0.7499910665887126  0.6133039341139438
  0.8483108378131021  0.7499885892694849  0.6331154613961729
  0.9030423734550864  0.7499779794327283  0.7403831904335975
  0.7499863525640720  0.7499371326692029  0.7237927459145935
  0.5969329449359364  0.7499775619135818  0.7403799378349804
  0.9069051267464802  0.7500156480451352  0.3011095179792065
  0.7500035506056194  0.7500445037589926  0.2575058255496146
  0.5930960658486198  0.7500163960041631  0.3011228669721148
  0.6543853251689812  0.9999885528587457  0.4099017671184342
  0.4999858003216176  0.0000097603818574  0.3931707243975495
  0.8455986857656795  0.9999849744208760  0.4098871983945856
  0.9010175683493883  0.0000188521663418  0.5219670700258305
  0.7499906572123933  0.9999960685798044  0.5027696928812874
  0.5989206151278593  0.0000372080644553  0.5219997079498953
  0.6515846147817187  0.9999983013168787  0.6331375277341847
  0.4998153174648295  0.9999475421495134  0.6133049399571034
  0.8483636670923788  0.9999888587732998  0.6331337062650987
  0.9025694349919107  0.9999898502820486  0.7406451949042604
  0.7499591682121363  0.9999600589469182  0.7236829677360676
  0.5973114694095757  0.9999884559212049  0.7406206302511934
  0.2497600848154135  0.1262130867790816  0.7922750810992483
 
  0.00000000E+00  0.00000000E+00  0.00000000E+00
  0.00000000E+00  0.00000000E+00  0.00000000E+00
  0.00000000E+00  0.00000000E+00  0.00000000E+00
  0.00000000E+00  0.00000000E+00  0.00000000E+00
  0.00000000E+00  0.00000000E+00  0.00000000E+00
  0.00000000E+00  0.00000000E+00  0.00000000E+00
  0.00000000E+00  0.00000000E+00  0.00000000E+00
  0.00000000E+00  0.00000000E+00  0.00000000E+00
  0.00000000E+00  0.00000000E+00  0.00000000E+00
  0.00000000E+00  0.00000000E+00  0.00000000E+00
  0.00000000E+00  0.00000000E+00  0.00000000E+00
  0.00000000E+00  0.00000000E+00  0.00000000E+00
  0.00000000E+00  0.00000000E+00  0.00000000E+00
  0.00000000E+00  0.00000000E+00  0.00000000E+00
  0.00000000E+00  0.00000000E+00  0.00000000E+00
  0.00000000E+00  0.00000000E+00  0.00000000E+00
  0.00000000E+00  0.00000000E+00  0.00000000E+00
  0.00000000E+00  0.00000000E+00  0.00000000E+00
  0.00000000E+00  0.00000000E+00  0.00000000E+00
  0.00000000E+00  0.00000000E+00  0.00000000E+00
  0.00000000E+00  0.00000000E+00  0.00000000E+00
  0.00000000E+00  0.00000000E+00  0.00000000E+00
  0.00000000E+00  0.00000000E+00  0.00000000E+00
  0.00000000E+00  0.00000000E+00  0.00000000E+00
  0.00000000E+00  0.00000000E+00  0.00000000E+00
  0.00000000E+00  0.00000000E+00  0.00000000E+00
  0.00000000E+00  0.00000000E+00  0.00000000E+00
  0.00000000E+00  0.00000000E+00  0.00000000E+00
  0.00000000E+00  0.00000000E+00  0.00000000E+00
  0.00000000E+00  0.00000000E+00  0.00000000E+00
  0.00000000E+00  0.00000000E+00  0.00000000E+00
  0.00000000E+00  0.00000000E+00  0.00000000E+00
  0.00000000E+00  0.00000000E+00  0.00000000E+00
  0.00000000E+00  0.00000000E+00  0.00000000E+00
  0.00000000E+00  0.00000000E+00  0.00000000E+00
  0.00000000E+00  0.00000000E+00  0.00000000E+00
  0.00000000E+00  0.00000000E+00  0.00000000E+00
  0.00000000E+00  0.00000000E+00  0.00000000E+00
  0.00000000E+00  0.00000000E+00  0.00000000E+00
  0.00000000E+00  0.00000000E+00  0.00000000E+00
  0.00000000E+00  0.00000000E+00  0.00000000E+00
  0.00000000E+00  0.00000000E+00  0.00000000E+00
  0.00000000E+00  0.00000000E+00  0.00000000E+00
  0.00000000E+00  0.00000000E+00  0.00000000E+00
  0.00000000E+00  0.00000000E+00  0.00000000E+00
  0.00000000E+00  0.00000000E+00  0.00000000E+00
  0.00000000E+00  0.00000000E+00  0.00000000E+00
  0.00000000E+00  0.00000000E+00  0.00000000E+00
  0.00000000E+00  0.00000000E+00  0.00000000E+00
  0.00000000E+00  0.00000000E+00  0.00000000E+00
  0.00000000E+00  0.00000000E+00  0.00000000E+00
  0.00000000E+00  0.00000000E+00  0.00000000E+00
  0.00000000E+00  0.00000000E+00  0.00000000E+00
  0.00000000E+00  0.00000000E+00  0.00000000E+00
  0.00000000E+00  0.00000000E+00  0.00000000E+00
  0.00000000E+00  0.00000000E+00  0.00000000E+00
  0.00000000E+00  0.00000000E+00  0.00000000E+00
  0.00000000E+00  0.00000000E+00  0.00000000E+00
  0.00000000E+00  0.00000000E+00  0.00000000E+00
  0.00000000E+00  0.00000000E+00  0.00000000E+00
  0.00000000E+00  0.00000000E+00  0.00000000E+00
  0.00000000E+00  0.00000000E+00  0.00000000E+00
  0.00000000E+00  0.00000000E+00  0.00000000E+00
  0.00000000E+00  0.00000000E+00  0.00000000E+00
  0.00000000E+00  0.00000000E+00  0.00000000E+00
  0.00000000E+00  0.00000000E+00  0.00000000E+00
  0.00000000E+00  0.00000000E+00  0.00000000E+00
  0.00000000E+00  0.00000000E+00  0.00000000E+00
  0.00000000E+00  0.00000000E+00  0.00000000E+00
  0.00000000E+00  0.00000000E+00  0.00000000E+00
  0.00000000E+00  0.00000000E+00  0.00000000E+00
  0.00000000E+00  0.00000000E+00  0.00000000E+00
  0.00000000E+00  0.00000000E+00  0.00000000E+00
  0.00000000E+00  0.00000000E+00  0.00000000E+00
  0.00000000E+00  0.00000000E+00  0.00000000E+00
  0.00000000E+00  0.00000000E+00  0.00000000E+00
  0.00000000E+00  0.00000000E+00  0.00000000E+00
  0.00000000E+00  0.00000000E+00  0.00000000E+00
  0.00000000E+00  0.00000000E+00  0.00000000E+00
  0.00000000E+00  0.00000000E+00  0.00000000E+00
  0.00000000E+00  0.00000000E+00  0.00000000E+00
  0.00000000E+00  0.00000000E+00  0.00000000E+00
  0.00000000E+00  0.00000000E+00  0.00000000E+00
  0.00000000E+00  0.00000000E+00  0.00000000E+00
  0.00000000E+00  0.00000000E+00  0.00000000E+00
  0.00000000E+00  0.00000000E+00  0.00000000E+00
  0.00000000E+00  0.00000000E+00  0.00000000E+00
  0.00000000E+00  0.00000000E+00  0.00000000E+00
  0.00000000E+00  0.00000000E+00  0.00000000E+00
  0.00000000E+00  0.00000000E+00  0.00000000E+00
  0.00000000E+00  0.00000000E+00  0.00000000E+00
  0.00000000E+00  0.00000000E+00  0.00000000E+00
  0.00000000E+00  0.00000000E+00  0.00000000E+00
  0.00000000E+00  0.00000000E+00  0.00000000E+00
  0.00000000E+00  0.00000000E+00  0.00000000E+00
  0.00000000E+00  0.00000000E+00  0.00000000E+00
  0.00000000E+00  0.00000000E+00  0.00000000E+00
  0.00000000E+00  0.00000000E+00  0.00000000E+00
  0.00000000E+00  0.00000000E+00  0.00000000E+00
  0.00000000E+00  0.00000000E+00  0.00000000E+00
  0.00000000E+00  0.00000000E+00  0.00000000E+00
  0.00000000E+00  0.00000000E+00  0.00000000E+00
  0.00000000E+00  0.00000000E+00  0.00000000E+00
  0.00000000E+00  0.00000000E+00  0.00000000E+00
  0.00000000E+00  0.00000000E+00  0.00000000E+00
  0.00000000E+00  0.00000000E+00  0.00000000E+00
  0.00000000E+00  0.00000000E+00  0.00000000E+00
  0.00000000E+00  0.00000000E+00  0.00000000E+00
  0.00000000E+00  0.00000000E+00  0.00000000E+00
  0.00000000E+00  0.00000000E+00  0.00000000E+00
  0.00000000E+00  0.00000000E+00  0.00000000E+00
  0.00000000E+00  0.00000000E+00  0.00000000E+00
  0.00000000E+00  0.00000000E+00  0.00000000E+00
  0.00000000E+00  0.00000000E+00  0.00000000E+00
  0.00000000E+00  0.00000000E+00  0.00000000E+00
  0.00000000E+00  0.00000000E+00  0.00000000E+00
  0.00000000E+00  0.00000000E+00  0.00000000E+00
  0.00000000E+00  0.00000000E+00  0.00000000E+00
  0.00000000E+00  0.00000000E+00  0.00000000E+00
  0.00000000E+00  0.00000000E+00  0.00000000E+00
  0.00000000E+00  0.00000000E+00  0.00000000E+00
  0.00000000E+00  0.00000000E+00  0.00000000E+00
  0.00000000E+00  0.00000000E+00  0.00000000E+00
  0.00000000E+00  0.00000000E+00  0.00000000E+00
  0.00000000E+00  0.00000000E+00  0.00000000E+00
  0.00000000E+00  0.00000000E+00  0.00000000E+00
  0.00000000E+00  0.00000000E+00  0.00000000E+00
  0.00000000E+00  0.00000000E+00  0.00000000E+00
  0.00000000E+00  0.00000000E+00  0.00000000E+00
  0.00000000E+00  0.00000000E+00  0.00000000E+00
  0.00000000E+00  0.00000000E+00  0.00000000E+00
  0.00000000E+00  0.00000000E+00  0.00000000E+00
  0.00000000E+00  0.00000000E+00  0.00000000E+00
  0.00000000E+00  0.00000000E+00  0.00000000E+00
  0.00000000E+00  0.00000000E+00  0.00000000E+00
  0.00000000E+00  0.00000000E+00  0.00000000E+00
  0.00000000E+00  0.00000000E+00  0.00000000E+00
  0.00000000E+00  0.00000000E+00  0.00000000E+00
  0.00000000E+00  0.00000000E+00  0.00000000E+00
  0.00000000E+00  0.00000000E+00  0.00000000E+00
  0.00000000E+00  0.00000000E+00  0.00000000E+00
  0.00000000E+00  0.00000000E+00  0.00000000E+00
  0.00000000E+00  0.00000000E+00  0.00000000E+00
  0.00000000E+00  0.00000000E+00  0.00000000E+00
  0.00000000E+00  0.00000000E+00  0.00000000E+00
  0.00000000E+00  0.00000000E+00  0.00000000E+00
  0.00000000E+00  0.00000000E+00  0.00000000E+00
  0.00000000E+00  0.00000000E+00  0.00000000E+00
  0.00000000E+00  0.00000000E+00  0.00000000E+00
  0.00000000E+00  0.00000000E+00  0.00000000E+00
  0.00000000E+00  0.00000000E+00  0.00000000E+00
  0.00000000E+00  0.00000000E+00  0.00000000E+00
  0.00000000E+00  0.00000000E+00  0.00000000E+00
  0.00000000E+00  0.00000000E+00  0.00000000E+00
  0.00000000E+00  0.00000000E+00  0.00000000E+00
  0.00000000E+00  0.00000000E+00  0.00000000E+00
  0.00000000E+00  0.00000000E+00  0.00000000E+00
  0.00000000E+00  0.00000000E+00  0.00000000E+00
  0.00000000E+00  0.00000000E+00  0.00000000E+00
  0.00000000E+00  0.00000000E+00  0.00000000E+00
  0.00000000E+00  0.00000000E+00  0.00000000E+00
  0.00000000E+00  0.00000000E+00  0.00000000E+00
  0.00000000E+00  0.00000000E+00  0.00000000E+00
  0.00000000E+00  0.00000000E+00  0.00000000E+00
  0.00000000E+00  0.00000000E+00  0.00000000E+00
  0.00000000E+00  0.00000000E+00  0.00000000E+00
  0.00000000E+00  0.00000000E+00  0.00000000E+00
  0.00000000E+00  0.00000000E+00  0.00000000E+00
  0.00000000E+00  0.00000000E+00  0.00000000E+00
  0.00000000E+00  0.00000000E+00  0.00000000E+00
  0.00000000E+00  0.00000000E+00  0.00000000E+00
  0.00000000E+00  0.00000000E+00  0.00000000E+00
  0.00000000E+00  0.00000000E+00  0.00000000E+00
  0.00000000E+00  0.00000000E+00  0.00000000E+00
  0.00000000E+00  0.00000000E+00  0.00000000E+00
  0.00000000E+00  0.00000000E+00  0.00000000E+00
  0.00000000E+00  0.00000000E+00  0.00000000E+00
  0.00000000E+00  0.00000000E+00  0.00000000E+00
  0.00000000E+00  0.00000000E+00  0.00000000E+00
  0.00000000E+00  0.00000000E+00  0.00000000E+00
  0.00000000E+00  0.00000000E+00  0.00000000E+00
  0.00000000E+00  0.00000000E+00  0.00000000E+00
  0.00000000E+00  0.00000000E+00  0.00000000E+00
  0.00000000E+00  0.00000000E+00  0.00000000E+00
  0.00000000E+00  0.00000000E+00  0.00000000E+00
  0.00000000E+00  0.00000000E+00  0.00000000E+00
  0.00000000E+00  0.00000000E+00  0.00000000E+00
  0.00000000E+00  0.00000000E+00  0.00000000E+00
  0.00000000E+00  0.00000000E+00  0.00000000E+00
  0.00000000E+00  0.00000000E+00  0.00000000E+00
  0.00000000E+00  0.00000000E+00  0.00000000E+00
  0.00000000E+00  0.00000000E+00  0.00000000E+00
  0.00000000E+00  0.00000000E+00  0.00000000E+00
  0.00000000E+00  0.00000000E+00  0.00000000E+00
  0.00000000E+00  0.00000000E+00  0.00000000E+00
  0.00000000E+00  0.00000000E+00  0.00000000E+00
  0.00000000E+00  0.00000000E+00  0.00000000E+00
  0.00000000E+00  0.00000000E+00  0.00000000E+00
  0.00000000E+00  0.00000000E+00  0.00000000E+00
  0.00000000E+00  0.00000000E+00  0.00000000E+00
  0.00000000E+00  0.00000000E+00  0.00000000E+00
  0.00000000E+00  0.00000000E+00  0.00000000E+00
  0.00000000E+00  0.00000000E+00  0.00000000E+00
  0.00000000E+00  0.00000000E+00  0.00000000E+00
  0.00000000E+00  0.00000000E+00  0.00000000E+00
  0.00000000E+00  0.00000000E+00  0.00000000E+00
  0.00000000E+00  0.00000000E+00  0.00000000E+00
  0.00000000E+00  0.00000000E+00  0.00000000E+00
  0.00000000E+00  0.00000000E+00  0.00000000E+00
  0.00000000E+00  0.00000000E+00  0.00000000E+00
  0.00000000E+00  0.00000000E+00  0.00000000E+00
  0.00000000E+00  0.00000000E+00  0.00000000E+00
  0.00000000E+00  0.00000000E+00  0.00000000E+00
  0.00000000E+00  0.00000000E+00  0.00000000E+00
  0.00000000E+00  0.00000000E+00  0.00000000E+00
  0.00000000E+00  0.00000000E+00  0.00000000E+00
  0.00000000E+00  0.00000000E+00  0.00000000E+00
  0.00000000E+00  0.00000000E+00  0.00000000E+00
  0.00000000E+00  0.00000000E+00  0.00000000E+00
  0.00000000E+00  0.00000000E+00  0.00000000E+00
  0.00000000E+00  0.00000000E+00  0.00000000E+00
  0.00000000E+00  0.00000000E+00  0.00000000E+00
  0.00000000E+00  0.00000000E+00  0.00000000E+00
  0.00000000E+00  0.00000000E+00  0.00000000E+00
  0.00000000E+00  0.00000000E+00  0.00000000E+00
  0.00000000E+00  0.00000000E+00  0.00000000E+00
  0.00000000E+00  0.00000000E+00  0.00000000E+00
  0.00000000E+00  0.00000000E+00  0.00000000E+00
  0.00000000E+00  0.00000000E+00  0.00000000E+00
  0.00000000E+00  0.00000000E+00  0.00000000E+00
  0.00000000E+00  0.00000000E+00  0.00000000E+00
  0.00000000E+00  0.00000000E+00  0.00000000E+00
  0.00000000E+00  0.00000000E+00  0.00000000E+00
  0.00000000E+00  0.00000000E+00  0.00000000E+00
  0.00000000E+00  0.00000000E+00  0.00000000E+00
  0.00000000E+00  0.00000000E+00  0.00000000E+00
  0.00000000E+00  0.00000000E+00  0.00000000E+00
  0.00000000E+00  0.00000000E+00  0.00000000E+00
  0.00000000E+00  0.00000000E+00  0.00000000E+00
  0.00000000E+00  0.00000000E+00  0.00000000E+00
  0.00000000E+00  0.00000000E+00  0.00000000E+00
