Ta  N Cu                                
   1.00000000000000     
    11.9754398999999996    0.0000000000000000    0.0000000000000000
    -1.7175315499999999   11.8516346499999994    0.0000000000000000
     0.0000000000000000    0.0000000000000000   22.7106327899999982
   Ta   N    Cu
    72    72     2
Selective dynamics
Direct
  0.9955339587019623  0.9955339540487174  0.2712224588739929   F   F   F
  0.2699333485827822  0.1030132974397020  0.3100259080635226   F   F   F
  0.1030132717436416  0.2699333822854797  0.3100259080635226   F   F   F
  0.3596205863249367  0.3596206399952564  0.3447007771003783   F   F   F
  0.1253409742651783  0.4593656738838163  0.3919418349552828   F   F   F
  0.4593656603424634  0.1253409739335112  0.3919418349552828   F   F   F
  0.2213940126785749  0.2213999983132926  0.4358033334367785   T   T   T
  0.4866521979111641  0.3201811903149280  0.4783556663134306   T   T   T
  0.3201880789847050  0.4866520348083579  0.4783507728546713   T   T   T
  0.0842482433625993  0.0842503948902636  0.5208490112239395   T   T   T
  0.3475759391643543  0.1818771623619465  0.5643889314489298   T   T   T
  0.1818630935351792  0.3475478116387533  0.5643771292697147   T   T   T
  0.4454647027466857  0.4454556137356604  0.6070829336853740   T   T   T
  0.2077888792145791  0.0421948548988986  0.6497553749468854   T   T   T
  0.0421783027817142  0.2077902798201318  0.6497452702216230   T   T   T
  0.3113065135223608  0.3113255555173297  0.6972646638515696   T   T   T
  0.0718582441409618  0.4004203407282393  0.7298206389562313   T   T   T
  0.4004288438665301  0.0718752014270812  0.7298230843223310   T   T   T
  0.9955339590589745  0.4955339536268326  0.2712224588739929   F   F   F
  0.2699333482257629  0.6030132978615868  0.3100259080635226   F   F   F
  0.1030132722216663  0.7699333827073573  0.3100259080635226   F   F   F
  0.3596205866819489  0.8596206395733716  0.3447007771003783   F   F   F
  0.1253409746221976  0.9593656734619316  0.3919418349552828   F   F   F
  0.4593656608204952  0.6253409743553888  0.3919418349552828   F   F   F
  0.2213602636840680  0.7213105181681728  0.4357733941591101   T   T   T
  0.4867207979316002  0.8202352534282976  0.4785313985719254   T   T   T
  0.3202546556054910  0.9866959288993604  0.4784135812624691   T   T   T
  0.0845742128777178  0.5844128793196143  0.5209502762160414   T   T   T
  0.3472087376131233  0.6818113617428413  0.5641083728029046   T   T   T
  0.1813368603536926  0.8471455976678846  0.5639901292735912   T   T   T
  0.4435925472275129  0.9442446503589994  0.6079525827820544   T   T   T
  0.2088319983782014  0.5436682356990655  0.6505310438760532   T   T   T
  0.0431858802088957  0.7070507514288051  0.6508108452149365   T   T   T
  0.3124205911241820  0.8123852256285201  0.6945011996735275   T   T   T
  0.0663085534586377  0.9022223433364123  0.7286692191766126   T   T   T
  0.4048092953967034  0.5716957954739218  0.7301372949350297   T   T   T
  0.4955339587019623  0.9955339540487174  0.2712224588739929   F   F   F
  0.7699333485827822  0.1030132974397020  0.3100259080635226   F   F   F
  0.6030132717436416  0.2699333822854797  0.3100259080635226   F   F   F
  0.8596205863249367  0.3596206399952564  0.3447007771003783   F   F   F
  0.6253409742651783  0.4593656738838163  0.3919418349552828   F   F   F
  0.9593656603424634  0.1253409739335112  0.3919418349552828   F   F   F
  0.7213088297689865  0.2213464639098580  0.4357726828372805   T   T   T
  0.9866895200518482  0.3202551794621029  0.4784079753084883   T   T   T
  0.8202278685274595  0.4867243883254356  0.4785250011403848   T   T   T
  0.5843989845652012  0.0845617291201750  0.5209552727968958   T   T   T
  0.8471344300842000  0.1813382662573340  0.5639911288367884   T   T   T
  0.6818082023110686  0.3472000315358310  0.5641104591030268   T   T   T
  0.9442368744029922  0.4436021306887870  0.6079445265610688   T   T   T
  0.7070324118107789  0.0431726569601669  0.6508069769491368   T   T   T
  0.5436465951801269  0.2088173768446543  0.6505250615091465   T   T   T
  0.8124049192116706  0.3124175414162551  0.6945081356105578   T   T   T
  0.5717317958400735  0.4048092756641377  0.7301393359410014   T   T   T
  0.9022165840567629  0.0663167881203518  0.7286655963968244   T   T   T
  0.4955339590589745  0.4955339536268326  0.2712224588739929   F   F   F
  0.7699333482257629  0.6030132978615868  0.3100259080635226   F   F   F
  0.6030132722216663  0.7699333827073573  0.3100259080635226   F   F   F
  0.8596205866819489  0.8596206395733716  0.3447007771003783   F   F   F
  0.6253409746221976  0.9593656734619316  0.3919418349552828   F   F   F
  0.9593656608204952  0.6253409743553888  0.3919418349552828   F   F   F
  0.7213590349211444  0.7213585621733961  0.4357285488980923   T   T   T
  0.9866015212392133  0.8201281269962222  0.4784199585497358   T   T   T
  0.8201439996049023  0.9865981785806716  0.4784230312148816   T   T   T
  0.5843798857450190  0.5843869033022326  0.5211316925664787   T   T   T
  0.8472267983058442  0.6814153572113574  0.5642410284386257   T   T   T
  0.6814000765306638  0.8472356780158428  0.5642508940962192   T   T   T
  0.9433231917253758  0.9433402511446389  0.6074962025712366   T   T   T
  0.7079111804626012  0.5436970494891850  0.6508787426311714   T   T   T
  0.5437077271010369  0.7079038046038184  0.6508849767237705   T   T   T
  0.8122411835831120  0.8122441520290051  0.6952392712420754   T   T   T
  0.5658364803297433  0.9063335955156794  0.7285878477947606   T   T   T
  0.9063417534538275  0.5658433025698691  0.7285826594894990   T   T   T
  0.4506180773709048  0.1400782132052782  0.2976725581183857   F   F   F
  0.2642075833142314  0.2642075209653356  0.2836189927733201   F   F   F
  0.1400781798198807  0.4506180903161052  0.2976725581183857   F   F   F
  0.3074132852265237  0.9999309000767909  0.3839488749030693   F   F   F
  0.1352939988863540  0.1352940283866033  0.3689431455789318   F   F   F
  0.9999308780646601  0.3074132624267207  0.3839488749030693   F   F   F
  0.1684562355441213  0.3643706568807690  0.4692771540374869   T   T   T
  0.4970488952532711  0.4970601387834918  0.4538640390585312   T   T   T
  0.3643654100364171  0.1684628908122338  0.4692790641368636   T   T   T
  0.0296862214766536  0.2252966720216053  0.5548294620450627   T   T   T
  0.3579728709353190  0.3579830751567770  0.5400721821426842   T   T   T
  0.2252962820994505  0.0297086216218829  0.5548387392541093   T   T   T
  0.3891829840669088  0.0877483248411817  0.6401105197897350   T   T   T
  0.2221821905961316  0.2221859659148343  0.6277996183741854   T   T   T
  0.0877305820929359  0.3891709254764687  0.6400921861487191   T   T   T
  0.2514191064171357  0.4568818226357998  0.7284000238274619   T   T   T
  0.0752686810791811  0.0752758703921858  0.7092252244318193   T   T   T
  0.4568794467515193  0.2514295929284128  0.7284142365272734   T   T   T
  0.4506180777279170  0.6400782127833935  0.2976725581183857   F   F   F
  0.2642075828362067  0.7642075205434509  0.2836189927733201   F   F   F
  0.1400781801769000  0.9506180898942276  0.2976725581183857   F   F   F
  0.3074132857045484  0.4999309004986756  0.3839488749030693   F   F   F
  0.1352939993643858  0.6352940288084810  0.3689431455789318   F   F   F
  0.9999308775866353  0.8074132620048431  0.3839488749030693   F   F   F
  0.1682729892596340  0.8643210674745123  0.4692022162281871   T   T   T
  0.4970147781450647  0.9970378357150121  0.4538146504298051   T   T   T
  0.3643718643129168  0.6683344572986629  0.4692972864065004   T   T   T
  0.0295595791096255  0.7250910898457981  0.5550870861185336   T   T   T
  0.3571865933887404  0.8574219896064634  0.5399281872808102   T   T   T
  0.2254882604556645  0.5298556620195167  0.5548153284402716   T   T   T
  0.3903909050704188  0.5879202731193497  0.6394649204645472   T   T   T
  0.2214102182922123  0.7216617974889064  0.6277084131406057   T   T   T
  0.0868433534317679  0.8896376550297991  0.6394035464667209   T   T   T
  0.2499956542920324  0.9497955345874773  0.7282303747884624   T   T   T
  0.0752637844637881  0.5737621331916619  0.7093090355299909   T   T   T
  0.4518386162613739  0.7519329745815481  0.7294977845999030   T   T   T
  0.9506180773709048  0.1400782132052782  0.2976725581183857   F   F   F
  0.7642075824791874  0.2642075209653356  0.2836189927733201   F   F   F
  0.6400781798198807  0.4506180903161052  0.2976725581183857   F   F   F
  0.8074132852265237  0.9999309000767909  0.3839488749030693   F   F   F
  0.6352939988863540  0.1352940283866033  0.3689431455789318   F   F   F
  0.4999308780646601  0.3074132624267207  0.3839488749030693   F   F   F
  0.6683257310329994  0.3643616090288152  0.4692921257542772   T   T   T
  0.9970451398957395  0.4970167088815923  0.4538132208472593   T   T   T
  0.8643246310050255  0.1682604880359381  0.4691979079756626   T   T   T
  0.5298491846397591  0.2254821772322675  0.5548233861958356   T   T   T
  0.8574129860327030  0.3571772852518463  0.5399243744661429   T   T   T
  0.7250858788078440  0.0295593223096039  0.5550846078891477   T   T   T
  0.8896311041669198  0.0868488421497663  0.6393999011996701   T   T   T
  0.7216848700623669  0.2214245730628881  0.6277099466093190   T   T   T
  0.5879192007814106  0.3903915300369969  0.6394750044812095   T   T   T
  0.7519581571788896  0.4518301772705775  0.7295015076286251   T   T   T
  0.5737466670257796  0.0752754140620642  0.7093213092986844   T   T   T
  0.9498294373313266  0.2499805036334464  0.7282292498328369   T   T   T
  0.9506180777279170  0.6400782127833935  0.2976725581183857   F   F   F
  0.7642075828362067  0.7642075205434509  0.2836189927733201   F   F   F
  0.6400781801769000  0.9506180898942276  0.2976725581183857   F   F   F
  0.8074132857045484  0.4999309004986756  0.3839488749030693   F   F   F
  0.6352939993643858  0.6352940288084810  0.3689431455789318   F   F   F
  0.4999308775866353  0.8074132620048431  0.3839488749030693   F   F   F
  0.6683047540210454  0.8643254109113199  0.4692484341906094   T   T   T
  0.9969374116130596  0.9969369942528384  0.4537348776220237   T   T   T
  0.8643270908061951  0.6683098215248210  0.4692508896822475   T   T   T
  0.5295892886663804  0.7251699547641575  0.5552621186099072   T   T   T
  0.8567654986939210  0.8567737090202538  0.5397573053735896   T   T   T
  0.7251685014913994  0.5295795333098994  0.5552608145086735   T   T   T
  0.8897382772772778  0.5871897974678016  0.6395735048641921   T   T   T
  0.7217755614874034  0.7217761540148455  0.6281437561651039   T   T   T
  0.5871830294241089  0.8897443284966724  0.6395749164050417   T   T   T
  0.7504975607073893  0.9517107242133643  0.7298980400824500   T   T   T
  0.5761854408025880  0.5761561782671298  0.7104115664242204   T   T   T
  0.9517145565152416  0.7505011041047285  0.7299049045528176   T   T   T
  0.1782768993791934  0.1783365304867025  0.7587806024870517   T   T   T
  0.4019118999511344  0.4018602299086049  0.8054797105188911   T   T   T
 
  0.00000000E+00  0.00000000E+00  0.00000000E+00
  0.00000000E+00  0.00000000E+00  0.00000000E+00
  0.00000000E+00  0.00000000E+00  0.00000000E+00
  0.00000000E+00  0.00000000E+00  0.00000000E+00
  0.00000000E+00  0.00000000E+00  0.00000000E+00
  0.00000000E+00  0.00000000E+00  0.00000000E+00
  0.00000000E+00  0.00000000E+00  0.00000000E+00
  0.00000000E+00  0.00000000E+00  0.00000000E+00
  0.00000000E+00  0.00000000E+00  0.00000000E+00
  0.00000000E+00  0.00000000E+00  0.00000000E+00
  0.00000000E+00  0.00000000E+00  0.00000000E+00
  0.00000000E+00  0.00000000E+00  0.00000000E+00
  0.00000000E+00  0.00000000E+00  0.00000000E+00
  0.00000000E+00  0.00000000E+00  0.00000000E+00
  0.00000000E+00  0.00000000E+00  0.00000000E+00
  0.00000000E+00  0.00000000E+00  0.00000000E+00
  0.00000000E+00  0.00000000E+00  0.00000000E+00
  0.00000000E+00  0.00000000E+00  0.00000000E+00
  0.00000000E+00  0.00000000E+00  0.00000000E+00
  0.00000000E+00  0.00000000E+00  0.00000000E+00
  0.00000000E+00  0.00000000E+00  0.00000000E+00
  0.00000000E+00  0.00000000E+00  0.00000000E+00
  0.00000000E+00  0.00000000E+00  0.00000000E+00
  0.00000000E+00  0.00000000E+00  0.00000000E+00
  0.00000000E+00  0.00000000E+00  0.00000000E+00
  0.00000000E+00  0.00000000E+00  0.00000000E+00
  0.00000000E+00  0.00000000E+00  0.00000000E+00
  0.00000000E+00  0.00000000E+00  0.00000000E+00
  0.00000000E+00  0.00000000E+00  0.00000000E+00
  0.00000000E+00  0.00000000E+00  0.00000000E+00
  0.00000000E+00  0.00000000E+00  0.00000000E+00
  0.00000000E+00  0.00000000E+00  0.00000000E+00
  0.00000000E+00  0.00000000E+00  0.00000000E+00
  0.00000000E+00  0.00000000E+00  0.00000000E+00
  0.00000000E+00  0.00000000E+00  0.00000000E+00
  0.00000000E+00  0.00000000E+00  0.00000000E+00
  0.00000000E+00  0.00000000E+00  0.00000000E+00
  0.00000000E+00  0.00000000E+00  0.00000000E+00
  0.00000000E+00  0.00000000E+00  0.00000000E+00
  0.00000000E+00  0.00000000E+00  0.00000000E+00
  0.00000000E+00  0.00000000E+00  0.00000000E+00
  0.00000000E+00  0.00000000E+00  0.00000000E+00
  0.00000000E+00  0.00000000E+00  0.00000000E+00
  0.00000000E+00  0.00000000E+00  0.00000000E+00
  0.00000000E+00  0.00000000E+00  0.00000000E+00
  0.00000000E+00  0.00000000E+00  0.00000000E+00
  0.00000000E+00  0.00000000E+00  0.00000000E+00
  0.00000000E+00  0.00000000E+00  0.00000000E+00
  0.00000000E+00  0.00000000E+00  0.00000000E+00
  0.00000000E+00  0.00000000E+00  0.00000000E+00
  0.00000000E+00  0.00000000E+00  0.00000000E+00
  0.00000000E+00  0.00000000E+00  0.00000000E+00
  0.00000000E+00  0.00000000E+00  0.00000000E+00
  0.00000000E+00  0.00000000E+00  0.00000000E+00
  0.00000000E+00  0.00000000E+00  0.00000000E+00
  0.00000000E+00  0.00000000E+00  0.00000000E+00
  0.00000000E+00  0.00000000E+00  0.00000000E+00
  0.00000000E+00  0.00000000E+00  0.00000000E+00
  0.00000000E+00  0.00000000E+00  0.00000000E+00
  0.00000000E+00  0.00000000E+00  0.00000000E+00
  0.00000000E+00  0.00000000E+00  0.00000000E+00
  0.00000000E+00  0.00000000E+00  0.00000000E+00
  0.00000000E+00  0.00000000E+00  0.00000000E+00
  0.00000000E+00  0.00000000E+00  0.00000000E+00
  0.00000000E+00  0.00000000E+00  0.00000000E+00
  0.00000000E+00  0.00000000E+00  0.00000000E+00
  0.00000000E+00  0.00000000E+00  0.00000000E+00
  0.00000000E+00  0.00000000E+00  0.00000000E+00
  0.00000000E+00  0.00000000E+00  0.00000000E+00
  0.00000000E+00  0.00000000E+00  0.00000000E+00
  0.00000000E+00  0.00000000E+00  0.00000000E+00
  0.00000000E+00  0.00000000E+00  0.00000000E+00
  0.00000000E+00  0.00000000E+00  0.00000000E+00
  0.00000000E+00  0.00000000E+00  0.00000000E+00
  0.00000000E+00  0.00000000E+00  0.00000000E+00
  0.00000000E+00  0.00000000E+00  0.00000000E+00
  0.00000000E+00  0.00000000E+00  0.00000000E+00
  0.00000000E+00  0.00000000E+00  0.00000000E+00
  0.00000000E+00  0.00000000E+00  0.00000000E+00
  0.00000000E+00  0.00000000E+00  0.00000000E+00
  0.00000000E+00  0.00000000E+00  0.00000000E+00
  0.00000000E+00  0.00000000E+00  0.00000000E+00
  0.00000000E+00  0.00000000E+00  0.00000000E+00
  0.00000000E+00  0.00000000E+00  0.00000000E+00
  0.00000000E+00  0.00000000E+00  0.00000000E+00
  0.00000000E+00  0.00000000E+00  0.00000000E+00
  0.00000000E+00  0.00000000E+00  0.00000000E+00
  0.00000000E+00  0.00000000E+00  0.00000000E+00
  0.00000000E+00  0.00000000E+00  0.00000000E+00
  0.00000000E+00  0.00000000E+00  0.00000000E+00
  0.00000000E+00  0.00000000E+00  0.00000000E+00
  0.00000000E+00  0.00000000E+00  0.00000000E+00
  0.00000000E+00  0.00000000E+00  0.00000000E+00
  0.00000000E+00  0.00000000E+00  0.00000000E+00
  0.00000000E+00  0.00000000E+00  0.00000000E+00
  0.00000000E+00  0.00000000E+00  0.00000000E+00
  0.00000000E+00  0.00000000E+00  0.00000000E+00
  0.00000000E+00  0.00000000E+00  0.00000000E+00
  0.00000000E+00  0.00000000E+00  0.00000000E+00
  0.00000000E+00  0.00000000E+00  0.00000000E+00
  0.00000000E+00  0.00000000E+00  0.00000000E+00
  0.00000000E+00  0.00000000E+00  0.00000000E+00
  0.00000000E+00  0.00000000E+00  0.00000000E+00
  0.00000000E+00  0.00000000E+00  0.00000000E+00
  0.00000000E+00  0.00000000E+00  0.00000000E+00
  0.00000000E+00  0.00000000E+00  0.00000000E+00
  0.00000000E+00  0.00000000E+00  0.00000000E+00
  0.00000000E+00  0.00000000E+00  0.00000000E+00
  0.00000000E+00  0.00000000E+00  0.00000000E+00
  0.00000000E+00  0.00000000E+00  0.00000000E+00
  0.00000000E+00  0.00000000E+00  0.00000000E+00
  0.00000000E+00  0.00000000E+00  0.00000000E+00
  0.00000000E+00  0.00000000E+00  0.00000000E+00
  0.00000000E+00  0.00000000E+00  0.00000000E+00
  0.00000000E+00  0.00000000E+00  0.00000000E+00
  0.00000000E+00  0.00000000E+00  0.00000000E+00
  0.00000000E+00  0.00000000E+00  0.00000000E+00
  0.00000000E+00  0.00000000E+00  0.00000000E+00
  0.00000000E+00  0.00000000E+00  0.00000000E+00
  0.00000000E+00  0.00000000E+00  0.00000000E+00
  0.00000000E+00  0.00000000E+00  0.00000000E+00
  0.00000000E+00  0.00000000E+00  0.00000000E+00
  0.00000000E+00  0.00000000E+00  0.00000000E+00
  0.00000000E+00  0.00000000E+00  0.00000000E+00
  0.00000000E+00  0.00000000E+00  0.00000000E+00
  0.00000000E+00  0.00000000E+00  0.00000000E+00
  0.00000000E+00  0.00000000E+00  0.00000000E+00
  0.00000000E+00  0.00000000E+00  0.00000000E+00
  0.00000000E+00  0.00000000E+00  0.00000000E+00
  0.00000000E+00  0.00000000E+00  0.00000000E+00
  0.00000000E+00  0.00000000E+00  0.00000000E+00
  0.00000000E+00  0.00000000E+00  0.00000000E+00
  0.00000000E+00  0.00000000E+00  0.00000000E+00
  0.00000000E+00  0.00000000E+00  0.00000000E+00
  0.00000000E+00  0.00000000E+00  0.00000000E+00
  0.00000000E+00  0.00000000E+00  0.00000000E+00
  0.00000000E+00  0.00000000E+00  0.00000000E+00
  0.00000000E+00  0.00000000E+00  0.00000000E+00
  0.00000000E+00  0.00000000E+00  0.00000000E+00
  0.00000000E+00  0.00000000E+00  0.00000000E+00
  0.00000000E+00  0.00000000E+00  0.00000000E+00
  0.00000000E+00  0.00000000E+00  0.00000000E+00
  0.00000000E+00  0.00000000E+00  0.00000000E+00
  0.00000000E+00  0.00000000E+00  0.00000000E+00
  0.00000000E+00  0.00000000E+00  0.00000000E+00
  0.00000000E+00  0.00000000E+00  0.00000000E+00
