Ta  N Ru                                
   1.00000000000000     
    10.4555999800000006    0.0000000000000000    0.0000000000000000
     0.0000000000000000   11.6775998899999998    0.0000000000000000
     0.0000000000000000    0.0000000000000000   24.0732377500000005
   Ta   N    Ru
    64    64     2
Selective dynamics
Direct
  0.4991785186325330  0.1250000003211298  0.3753726828051569   F   F   F
  0.2600588226580172  0.1250000003211298  0.3190980514078845   F   F   F
  0.2470962603561304  0.0000000000000000  0.4358978840493251   F   F   F
  0.2480261573787138  0.1249662418095170  0.5624523502667429   T   T   T
  0.9990870779670917  0.1250654958426433  0.5005944507690463   T   T   T
  0.9971495182490578  0.9997939640796129  0.6265425886520956   T   T   T
  0.5085312980155489  0.1250395831300791  0.7440125065343552   T   T   T
  0.2512075624462484  0.1246569606973813  0.6878736599992381   T   T   T
  0.4991785186325330  0.3750000001070433  0.3753726828051569   F   F   F
  0.2600588226580172  0.3750000001070433  0.3190980514078845   F   F   F
  0.2470962603561304  0.2499999997859135  0.4358978840493251   F   F   F
  0.2480268792877417  0.3750305094299085  0.5624522196475892   T   T   T
  0.9990872731189083  0.3749321994231457  0.5005949757034451   T   T   T
  0.9970884241524420  0.2499954677096667  0.6268992255900274   T   T   T
  0.5085254990269208  0.3749597129026935  0.7440098399713796   T   T   T
  0.2512094573320869  0.3753329463395890  0.6878735992911668   T   T   T
  0.4991785186325330  0.6249999998929567  0.3753726828051569   F   F   F
  0.2600588226580172  0.6249999998929567  0.3190980514078845   F   F   F
  0.2470962603561304  0.5000000004281731  0.4358978840493251   F   F   F
  0.2482313346893900  0.6250182166558461  0.5616861707629243   T   T   T
  0.9988126897095572  0.6249998950650457  0.5004900470632513   T   T   T
  0.9971477287669888  0.5001964642296932  0.6265435373072517   T   T   T
  0.5107718355188596  0.6260102572013091  0.7424566622003469   T   T   T
  0.2487803258022197  0.6258643900626158  0.6866829319401725   T   T   T
  0.4991785186325330  0.8750000005352163  0.3753726828051569   F   F   F
  0.2600588226580172  0.8750000005352163  0.3190980514078845   F   F   F
  0.2470962603561304  0.7500000002140865  0.4358978840493251   F   F   F
  0.2482319044154899  0.8749763048840825  0.5616844831935359   T   T   T
  0.9988110221175550  0.8750084448818209  0.5004857784226137   T   T   T
  0.9966225791722911  0.7499986178811433  0.6265852297722982   T   T   T
  0.5107738624893234  0.8739942951374010  0.7424592096814725   T   T   T
  0.2487829436808235  0.8741312402713121  0.6866823923275462   T   T   T
  0.9991784928090510  0.1250000003211298  0.3753726828051569   F   F   F
  0.7600587968345351  0.1250000003211298  0.3190980514078845   F   F   F
  0.7470962345326484  0.0000000000000000  0.4358978840493251   F   F   F
  0.7493215058887022  0.1252315494241276  0.5619414294391092   T   T   T
  0.4985403150758861  0.1250048080423617  0.5003838777145356   T   T   T
  0.4979832074786640  0.9992000409406824  0.6255337251854655   T   T   T
  0.0106116278731763  0.1235386825293617  0.7443308672781012   T   T   T
  0.7505936744677804  0.1236626309499486  0.6873907262762229   T   T   T
  0.9991784928090510  0.3750000001070433  0.3753726828051569   F   F   F
  0.7600587968345351  0.3750000001070433  0.3190980514078845   F   F   F
  0.7470962345326484  0.2499999997859135  0.4358978840493251   F   F   F
  0.7493202768440541  0.3747668681115834  0.5619418092668190   T   T   T
  0.4985389151263288  0.3749957173802679  0.5003862253288903   T   T   T
  0.5000142107874659  0.2499975312717237  0.6241934737159078   T   T   T
  0.0105982716797589  0.3764369714164769  0.7443259325791796   T   T   T
  0.7505915947603411  0.3763255917406022  0.6873902943255764   T   T   T
  0.9991784928090510  0.6249999998929567  0.3753726828051569   F   F   F
  0.7600587968345351  0.6249999998929567  0.3190980514078845   F   F   F
  0.7470962345326484  0.5000000004281731  0.4358978840493251   F   F   F
  0.7491313773078868  0.6249368284753347  0.5615842795865861   T   T   T
  0.4985431648734149  0.6249687132580296  0.5004679913935877   T   T   T
  0.4979810520607839  0.5008039435893393  0.6255315744269500   T   T   T
  0.0110332681048763  0.6245865786719905  0.7435720240580705   T   T   T
  0.7495584861873441  0.6243199174427478  0.6867511575330699   T   T   T
  0.9991784928090439  0.8750000005352163  0.3753726828051569   F   F   F
  0.7600587968345351  0.8750000005352163  0.3190980514078845   F   F   F
  0.7470962345326484  0.7500000002140865  0.4358978840493251   F   F   F
  0.7491327452654272  0.8750585635079828  0.5615846152743459   T   T   T
  0.4985433283881032  0.8750298284757309  0.5004674018995802   T   T   T
  0.4978985463459623  0.7499978306680276  0.6257013194524748   T   T   T
  0.0110416605695873  0.8754062052129818  0.7435738391954915   T   T   T
  0.7495630857666711  0.8756703963948359  0.6867531288365352   T   T   T
  0.1472195596423447  0.0000000000000000  0.3601606351366584   F   F   F
  0.4003222342624682  0.0000000000000000  0.3237632067519129   F   F   F
  0.4439214822817661  0.0000000000000000  0.4377276028165085   F   F   F
  0.4004702479089434  0.0000540158018451  0.5515897044194802   T   T   T
  0.1508103782657633 -0.0000161486144436  0.5103179430167050   T   T   T
  0.1937502715308105  0.9991773024910490  0.6244507342814624   T   T   T
  0.1509856259506733  0.9990651852146148  0.7383745281576629   T   T   T
  0.3971258032615871  0.9973634718633966  0.7010986442853133   T   T   T
  0.1472195596423447  0.2499999997859135  0.3601606351366584   F   F   F
  0.4003222342624682  0.2499999997859135  0.3237632067519129   F   F   F
  0.4439214822817661  0.2499999997859135  0.4377276028165085   F   F   F
  0.4001690122972663  0.2499986469722473  0.5511005047396053   T   T   T
  0.1508577814831547  0.2500001930381254  0.5104545542829124   T   T   T
  0.1939136442371195  0.2499960570627946  0.6251788888695654   T   T   T
  0.1544684928371051  0.2499922564515908  0.7405477321549745   T   T   T
  0.4007635289722964  0.2499946236019358  0.6973672278407695   T   T   T
  0.1472195596423447  0.5000000004281731  0.3601606351366584   F   F   F
  0.4003222342624682  0.5000000004281731  0.3237632067519129   F   F   F
  0.4439214822817661  0.5000000004281731  0.4377276028165085   F   F   F
  0.4004719957373168  0.4999438168877460  0.5515928144320374   T   T   T
  0.1508111683123619  0.5000139446256627  0.5103184879014226   T   T   T
  0.1937486486803904  0.5008156969273980  0.6244526039537165   T   T   T
  0.1509831892850831  0.5009238406568719  0.7383798674643869   T   T   T
  0.3971188925661021  0.5026375481993108  0.7011066277859872   T   T   T
  0.1472195596423447  0.7500000002140865  0.3601606351366584   F   F   F
  0.4003222342624682  0.7500000002140865  0.3237632067519129   F   F   F
  0.4439214822817661  0.7500000002140865  0.4377276028165085   F   F   F
  0.4005545963528058  0.7499984802605484  0.5517062431406572   T   T   T
  0.1506707147399307  0.7499981112030969  0.5102235398182654   T   T   T
  0.1932950166069564  0.7499963731598375  0.6241776716193322   T   T   T
  0.1510032409971004  0.7499921773085616  0.7389002798166930   T   T   T
  0.3977030183412213  0.7500018256662256  0.7010576443089794   T   T   T
  0.6472195338188556  0.0000000000000000  0.3601606351366584   F   F   F
  0.9003222591295312  0.0000000000000000  0.3237632067519129   F   F   F
  0.9439215071488221  0.0000000000000000  0.4377276028165085   F   F   F
  0.9011845204496395  0.0000623484537177  0.5518772072841750   T   T   T
  0.6509134281841555  0.0001632206625696  0.5103654738593690   T   T   T
  0.6948337075476012  0.0000387329022155  0.6243409768461601   T   T   T
  0.6522397018713940  0.9970464707598533  0.7389960425859510   T   T   T
  0.8980378914592302  0.9996759107613679  0.7025689564960461   T   T   T
  0.6472195338188556  0.2499999997859135  0.3601606351366584   F   F   F
  0.9003222591295312  0.2499999997859135  0.3237632067519129   F   F   F
  0.9439215071488221  0.2499999997859135  0.4377276028165085   F   F   F
  0.9013370714657171  0.2499980207781962  0.5519979110497010   T   T   T
  0.6510130534979599  0.2499992596378147  0.5104861605496186   T   T   T
  0.6967003254641451  0.2499962175142796  0.6252545590851725   T   T   T
  0.6560384182583645  0.2499987119478823  0.7420655532875938   T   T   T
  0.8992997911884555  0.2499964018829120  0.7028266361677473   T   T   T
  0.6472195338188556  0.5000000004281731  0.3601606351366584   F   F   F
  0.9003222591295312  0.5000000004281731  0.3237632067519129   F   F   F
  0.9439215071488221  0.5000000004281731  0.4377276028165085   F   F   F
  0.9011830916878024  0.4999351954001452  0.5518770821445823   T   T   T
  0.6509143983032502  0.4998362022182242  0.5103653595758730   T   T   T
  0.6948288390394998  0.4999562729104406  0.6243402731685623   T   T   T
  0.6522283430615191  0.5029541229377420  0.7389933462527581   T   T   T
  0.8980327866336790  0.5003101517425577  0.7025658895518768   T   T   T
  0.6472195338188556  0.7500000002140865  0.3601606351366584   F   F   F
  0.9003222591295312  0.7500000002140865  0.3237632067519129   F   F   F
  0.9439215071488221  0.7500000002140865  0.4377276028165085   F   F   F
  0.9010820954137597  0.7499996673811687  0.5519271364625223   T   T   T
  0.6508061142706871  0.7500002545721308  0.5103221792805246   T   T   T
  0.6952060885030874  0.7499993181219398  0.6242510495413719   T   T   T
  0.6497457570844801  0.7500009733523975  0.7370291727598709   T   T   T
  0.8971411185419965  0.7499963117394730  0.7027559233651737   T   T   T
  0.3236533958055100  0.2499663018392660  0.7877058405585121   T   T   T
  0.5804341433258617  0.2500668301438334  0.8210550390173084   T   T   T
 
  0.00000000E+00  0.00000000E+00  0.00000000E+00
  0.00000000E+00  0.00000000E+00  0.00000000E+00
  0.00000000E+00  0.00000000E+00  0.00000000E+00
  0.00000000E+00  0.00000000E+00  0.00000000E+00
  0.00000000E+00  0.00000000E+00  0.00000000E+00
  0.00000000E+00  0.00000000E+00  0.00000000E+00
  0.00000000E+00  0.00000000E+00  0.00000000E+00
  0.00000000E+00  0.00000000E+00  0.00000000E+00
  0.00000000E+00  0.00000000E+00  0.00000000E+00
  0.00000000E+00  0.00000000E+00  0.00000000E+00
  0.00000000E+00  0.00000000E+00  0.00000000E+00
  0.00000000E+00  0.00000000E+00  0.00000000E+00
  0.00000000E+00  0.00000000E+00  0.00000000E+00
  0.00000000E+00  0.00000000E+00  0.00000000E+00
  0.00000000E+00  0.00000000E+00  0.00000000E+00
  0.00000000E+00  0.00000000E+00  0.00000000E+00
  0.00000000E+00  0.00000000E+00  0.00000000E+00
  0.00000000E+00  0.00000000E+00  0.00000000E+00
  0.00000000E+00  0.00000000E+00  0.00000000E+00
  0.00000000E+00  0.00000000E+00  0.00000000E+00
  0.00000000E+00  0.00000000E+00  0.00000000E+00
  0.00000000E+00  0.00000000E+00  0.00000000E+00
  0.00000000E+00  0.00000000E+00  0.00000000E+00
  0.00000000E+00  0.00000000E+00  0.00000000E+00
  0.00000000E+00  0.00000000E+00  0.00000000E+00
  0.00000000E+00  0.00000000E+00  0.00000000E+00
  0.00000000E+00  0.00000000E+00  0.00000000E+00
  0.00000000E+00  0.00000000E+00  0.00000000E+00
  0.00000000E+00  0.00000000E+00  0.00000000E+00
  0.00000000E+00  0.00000000E+00  0.00000000E+00
  0.00000000E+00  0.00000000E+00  0.00000000E+00
  0.00000000E+00  0.00000000E+00  0.00000000E+00
  0.00000000E+00  0.00000000E+00  0.00000000E+00
  0.00000000E+00  0.00000000E+00  0.00000000E+00
  0.00000000E+00  0.00000000E+00  0.00000000E+00
  0.00000000E+00  0.00000000E+00  0.00000000E+00
  0.00000000E+00  0.00000000E+00  0.00000000E+00
  0.00000000E+00  0.00000000E+00  0.00000000E+00
  0.00000000E+00  0.00000000E+00  0.00000000E+00
  0.00000000E+00  0.00000000E+00  0.00000000E+00
  0.00000000E+00  0.00000000E+00  0.00000000E+00
  0.00000000E+00  0.00000000E+00  0.00000000E+00
  0.00000000E+00  0.00000000E+00  0.00000000E+00
  0.00000000E+00  0.00000000E+00  0.00000000E+00
  0.00000000E+00  0.00000000E+00  0.00000000E+00
  0.00000000E+00  0.00000000E+00  0.00000000E+00
  0.00000000E+00  0.00000000E+00  0.00000000E+00
  0.00000000E+00  0.00000000E+00  0.00000000E+00
  0.00000000E+00  0.00000000E+00  0.00000000E+00
  0.00000000E+00  0.00000000E+00  0.00000000E+00
  0.00000000E+00  0.00000000E+00  0.00000000E+00
  0.00000000E+00  0.00000000E+00  0.00000000E+00
  0.00000000E+00  0.00000000E+00  0.00000000E+00
  0.00000000E+00  0.00000000E+00  0.00000000E+00
  0.00000000E+00  0.00000000E+00  0.00000000E+00
  0.00000000E+00  0.00000000E+00  0.00000000E+00
  0.00000000E+00  0.00000000E+00  0.00000000E+00
  0.00000000E+00  0.00000000E+00  0.00000000E+00
  0.00000000E+00  0.00000000E+00  0.00000000E+00
  0.00000000E+00  0.00000000E+00  0.00000000E+00
  0.00000000E+00  0.00000000E+00  0.00000000E+00
  0.00000000E+00  0.00000000E+00  0.00000000E+00
  0.00000000E+00  0.00000000E+00  0.00000000E+00
  0.00000000E+00  0.00000000E+00  0.00000000E+00
  0.00000000E+00  0.00000000E+00  0.00000000E+00
  0.00000000E+00  0.00000000E+00  0.00000000E+00
  0.00000000E+00  0.00000000E+00  0.00000000E+00
  0.00000000E+00  0.00000000E+00  0.00000000E+00
  0.00000000E+00  0.00000000E+00  0.00000000E+00
  0.00000000E+00  0.00000000E+00  0.00000000E+00
  0.00000000E+00  0.00000000E+00  0.00000000E+00
  0.00000000E+00  0.00000000E+00  0.00000000E+00
  0.00000000E+00  0.00000000E+00  0.00000000E+00
  0.00000000E+00  0.00000000E+00  0.00000000E+00
  0.00000000E+00  0.00000000E+00  0.00000000E+00
  0.00000000E+00  0.00000000E+00  0.00000000E+00
  0.00000000E+00  0.00000000E+00  0.00000000E+00
  0.00000000E+00  0.00000000E+00  0.00000000E+00
  0.00000000E+00  0.00000000E+00  0.00000000E+00
  0.00000000E+00  0.00000000E+00  0.00000000E+00
  0.00000000E+00  0.00000000E+00  0.00000000E+00
  0.00000000E+00  0.00000000E+00  0.00000000E+00
  0.00000000E+00  0.00000000E+00  0.00000000E+00
  0.00000000E+00  0.00000000E+00  0.00000000E+00
  0.00000000E+00  0.00000000E+00  0.00000000E+00
  0.00000000E+00  0.00000000E+00  0.00000000E+00
  0.00000000E+00  0.00000000E+00  0.00000000E+00
  0.00000000E+00  0.00000000E+00  0.00000000E+00
  0.00000000E+00  0.00000000E+00  0.00000000E+00
  0.00000000E+00  0.00000000E+00  0.00000000E+00
  0.00000000E+00  0.00000000E+00  0.00000000E+00
  0.00000000E+00  0.00000000E+00  0.00000000E+00
  0.00000000E+00  0.00000000E+00  0.00000000E+00
  0.00000000E+00  0.00000000E+00  0.00000000E+00
  0.00000000E+00  0.00000000E+00  0.00000000E+00
  0.00000000E+00  0.00000000E+00  0.00000000E+00
  0.00000000E+00  0.00000000E+00  0.00000000E+00
  0.00000000E+00  0.00000000E+00  0.00000000E+00
  0.00000000E+00  0.00000000E+00  0.00000000E+00
  0.00000000E+00  0.00000000E+00  0.00000000E+00
  0.00000000E+00  0.00000000E+00  0.00000000E+00
  0.00000000E+00  0.00000000E+00  0.00000000E+00
  0.00000000E+00  0.00000000E+00  0.00000000E+00
  0.00000000E+00  0.00000000E+00  0.00000000E+00
  0.00000000E+00  0.00000000E+00  0.00000000E+00
  0.00000000E+00  0.00000000E+00  0.00000000E+00
  0.00000000E+00  0.00000000E+00  0.00000000E+00
  0.00000000E+00  0.00000000E+00  0.00000000E+00
  0.00000000E+00  0.00000000E+00  0.00000000E+00
  0.00000000E+00  0.00000000E+00  0.00000000E+00
  0.00000000E+00  0.00000000E+00  0.00000000E+00
  0.00000000E+00  0.00000000E+00  0.00000000E+00
  0.00000000E+00  0.00000000E+00  0.00000000E+00
  0.00000000E+00  0.00000000E+00  0.00000000E+00
  0.00000000E+00  0.00000000E+00  0.00000000E+00
  0.00000000E+00  0.00000000E+00  0.00000000E+00
  0.00000000E+00  0.00000000E+00  0.00000000E+00
  0.00000000E+00  0.00000000E+00  0.00000000E+00
  0.00000000E+00  0.00000000E+00  0.00000000E+00
  0.00000000E+00  0.00000000E+00  0.00000000E+00
  0.00000000E+00  0.00000000E+00  0.00000000E+00
  0.00000000E+00  0.00000000E+00  0.00000000E+00
  0.00000000E+00  0.00000000E+00  0.00000000E+00
  0.00000000E+00  0.00000000E+00  0.00000000E+00
  0.00000000E+00  0.00000000E+00  0.00000000E+00
  0.00000000E+00  0.00000000E+00  0.00000000E+00
  0.00000000E+00  0.00000000E+00  0.00000000E+00
  0.00000000E+00  0.00000000E+00  0.00000000E+00
  0.00000000E+00  0.00000000E+00  0.00000000E+00
  0.00000000E+00  0.00000000E+00  0.00000000E+00
