POSCAR                                  
   1.00000000000000     
     5.1378564254691614   -0.0015457190579780    0.0000000000000000
    -2.5702465682929097    4.4407001431193667    0.0000000000000000
     0.0000000000000000    0.0000000000000000   25.4857380279342856
   B    N    Al
    28    32     4
Direct
  0.1694961801145005  0.3297595664943272  0.0001837233656699
  0.6700227695758426  0.3300185464433950  0.0002972921767162
  0.1694961801145005  0.8297595664943269 -0.0001837233656699
  0.6700227695758426  0.8300185464433948 -0.0002972921767162
  0.1825664546818785  0.3515418024555731  0.2528759765056127
  0.6800557696718454  0.3578838951682961  0.2494561897956566
  0.1800557546718472  0.8578838951682967  0.2505438102043439
  0.6825664696818768  0.8515418024555736  0.2471240234943872
  0.1700227545758444  0.3300185464433950  0.5002972921767153
  0.6694961951144970  0.3297595664943272  0.5001837233656694
  0.1700227545758444  0.8300185464433948  0.4997027078232835
  0.6694961951144970  0.8297595664943269  0.4998162766343300
  0.1800557546718472  0.3578838951682961  0.7494561897956559
  0.1825664546818785  0.8515418024555736  0.7471240234943879
  0.3266647753196398  0.1623182888878986  0.1268894863317550
  0.8160234572586887  0.6534540924975953  0.1330850647897100
  0.3268534961905271  0.6532325129552164  0.1323171105566253
  0.8268534661905245  0.1532324979552188  0.3676828894433748
  0.3160234872586918  0.1534540774975978  0.3669149352102902
  0.8266647453196377  0.6623183038878970  0.3731105136682450
  0.8268534661905245  0.6532325129552164  0.6323171105566251
  0.3160234872586917  0.6534540924975953  0.6330850647897102
  0.8160234572586886  0.1534540774975978  0.8669149352102898
  0.3268534961905271  0.1532324979552188  0.8676828894433749
  0.3266647753196397  0.6623183038878970  0.8731105136682453
  0.6825664696818768  0.3515418024555730  0.7528759765056121
  0.8266647453196377  0.1623182888878986  0.6268894863317547
  0.6800557696718454  0.8578838951682967  0.7505438102043441
  0.3365151735574879  0.1633688426637783 -0.0001135781168450
  0.8363879566570449  0.1633322879429411 -0.0003798958899137
  0.3365151735574879  0.6633688576637753  0.0001135781168450
  0.8363879566570449  0.6633323029429390  0.0003798958899137
  0.3494905939256007  0.1892068394743496  0.2491282091593043
  0.8496302601664865  0.1907203026267472  0.2425163044400198
  0.3496302601664863  0.6907203176267448  0.2574836955599804
  0.8494905939256007  0.6892068544743467  0.2508717908406955
  0.3363879566570454  0.1633322879429411  0.4996201041100861
  0.8365151735574874  0.1633688426637783  0.4998864218831552
  0.3363879566570454  0.6633323029429390  0.5003798958899132
  0.8365151735574874  0.6633688576637753  0.5001135781168446
  0.3496302601664863  0.1907203026267472  0.7425163044400197
  0.8494905939256007  0.1892068394743496  0.7491282091593049
  0.3494905939256007  0.6892068544743467  0.7508717908406951
  0.8496302601664865  0.6907203176267448  0.7574836955599803
  0.1821732113672355  0.3364375578080895  0.1230902449799940
  0.6451671521525779  0.3361042059530501  0.1258946116869520
  0.1562329040415506  0.8232442751368686  0.1332176867440444
  0.6372233457997825  0.7864665362515619  0.1475267403301542
  0.1372233307997849  0.2864665362515620  0.3524732596698457
  0.6562329190415479  0.3232442751368683  0.3667823132559556
  0.1451671371525809  0.8361042059530505  0.3741053883130478
  0.6821732263672339  0.8364375578080898  0.3769097550200058
  0.1451671371525809  0.3361042059530501  0.6258946116869524
  0.6821732263672339  0.3364375578080895  0.6230902449799938
  0.1372233307997849  0.7864665362515619  0.6475267403301541
  0.6562329190415479  0.8232442751368686  0.6332176867440442
  0.1562329040415506  0.3232442751368683  0.8667823132559558
  0.6372233457997825  0.2864665362515620  0.8524732596698459
  0.1821732113672354  0.8364375578080898  0.8769097550200062
  0.6451671521525779  0.8361042059530505  0.8741053883130476
  0.8354924475193157  0.1729103572403264  0.1530131757430379
  0.3354924775193183  0.6729103722403241  0.3469868242569618
  0.3354924775193183  0.1729103572403264  0.6530131757430375
  0.8354924475193157  0.6729103722403241  0.8469868242569625
 
  0.00000000E+00  0.00000000E+00  0.00000000E+00
  0.00000000E+00  0.00000000E+00  0.00000000E+00
  0.00000000E+00  0.00000000E+00  0.00000000E+00
  0.00000000E+00  0.00000000E+00  0.00000000E+00
  0.00000000E+00  0.00000000E+00  0.00000000E+00
  0.00000000E+00  0.00000000E+00  0.00000000E+00
  0.00000000E+00  0.00000000E+00  0.00000000E+00
  0.00000000E+00  0.00000000E+00  0.00000000E+00
  0.00000000E+00  0.00000000E+00  0.00000000E+00
  0.00000000E+00  0.00000000E+00  0.00000000E+00
  0.00000000E+00  0.00000000E+00  0.00000000E+00
  0.00000000E+00  0.00000000E+00  0.00000000E+00
  0.00000000E+00  0.00000000E+00  0.00000000E+00
  0.00000000E+00  0.00000000E+00  0.00000000E+00
  0.00000000E+00  0.00000000E+00  0.00000000E+00
  0.00000000E+00  0.00000000E+00  0.00000000E+00
  0.00000000E+00  0.00000000E+00  0.00000000E+00
  0.00000000E+00  0.00000000E+00  0.00000000E+00
  0.00000000E+00  0.00000000E+00  0.00000000E+00
  0.00000000E+00  0.00000000E+00  0.00000000E+00
  0.00000000E+00  0.00000000E+00  0.00000000E+00
  0.00000000E+00  0.00000000E+00  0.00000000E+00
  0.00000000E+00  0.00000000E+00  0.00000000E+00
  0.00000000E+00  0.00000000E+00  0.00000000E+00
  0.00000000E+00  0.00000000E+00  0.00000000E+00
  0.00000000E+00  0.00000000E+00  0.00000000E+00
  0.00000000E+00  0.00000000E+00  0.00000000E+00
  0.00000000E+00  0.00000000E+00  0.00000000E+00
  0.00000000E+00  0.00000000E+00  0.00000000E+00
  0.00000000E+00  0.00000000E+00  0.00000000E+00
  0.00000000E+00  0.00000000E+00  0.00000000E+00
  0.00000000E+00  0.00000000E+00  0.00000000E+00
  0.00000000E+00  0.00000000E+00  0.00000000E+00
  0.00000000E+00  0.00000000E+00  0.00000000E+00
  0.00000000E+00  0.00000000E+00  0.00000000E+00
  0.00000000E+00  0.00000000E+00  0.00000000E+00
  0.00000000E+00  0.00000000E+00  0.00000000E+00
  0.00000000E+00  0.00000000E+00  0.00000000E+00
  0.00000000E+00  0.00000000E+00  0.00000000E+00
  0.00000000E+00  0.00000000E+00  0.00000000E+00
  0.00000000E+00  0.00000000E+00  0.00000000E+00
  0.00000000E+00  0.00000000E+00  0.00000000E+00
  0.00000000E+00  0.00000000E+00  0.00000000E+00
  0.00000000E+00  0.00000000E+00  0.00000000E+00
  0.00000000E+00  0.00000000E+00  0.00000000E+00
  0.00000000E+00  0.00000000E+00  0.00000000E+00
  0.00000000E+00  0.00000000E+00  0.00000000E+00
  0.00000000E+00  0.00000000E+00  0.00000000E+00
  0.00000000E+00  0.00000000E+00  0.00000000E+00
  0.00000000E+00  0.00000000E+00  0.00000000E+00
  0.00000000E+00  0.00000000E+00  0.00000000E+00
  0.00000000E+00  0.00000000E+00  0.00000000E+00
  0.00000000E+00  0.00000000E+00  0.00000000E+00
  0.00000000E+00  0.00000000E+00  0.00000000E+00
  0.00000000E+00  0.00000000E+00  0.00000000E+00
  0.00000000E+00  0.00000000E+00  0.00000000E+00
  0.00000000E+00  0.00000000E+00  0.00000000E+00
  0.00000000E+00  0.00000000E+00  0.00000000E+00
  0.00000000E+00  0.00000000E+00  0.00000000E+00
  0.00000000E+00  0.00000000E+00  0.00000000E+00
  0.00000000E+00  0.00000000E+00  0.00000000E+00
  0.00000000E+00  0.00000000E+00  0.00000000E+00
  0.00000000E+00  0.00000000E+00  0.00000000E+00
  0.00000000E+00  0.00000000E+00  0.00000000E+00
