Ta  N  W Cu                             
   1.00000000000000     
    18.1096308199999996    0.0000000000000000    0.0000000000000000
     0.0000000000000000   23.3551997799999995    0.0000000000000000
     0.0000000000000000    0.0000000000000000   30.4818171199999988
   Ta   N    W    Cu
   216   240    24     1
Direct
  0.0000089699205787  0.9999725154630426  0.1978700628133367
  0.3343624471503972  0.0624269160410975  0.2033285212145373
  0.1656658959140529  0.0624379507438135  0.2033300321205616
  0.2500029859178667  0.1250082715282588  0.2783865824105476
  0.0826722293191366  0.0624523494420544  0.2846563583293289
  0.4173248216313183  0.0624566227650547  0.2846598232220927
  0.9999853732437956  0.1251357865062843  0.3703746940974852
  0.3325568954838616  0.0624743682251463  0.3690371843416287
  0.1674452883043358  0.0624735298154420  0.3690357863709934
  0.2500170994123110  0.1252544924445331  0.4553297133609817
  0.0835292943769730  0.0626750657170376  0.4552885757359348
  0.4164683153695705  0.0626794782103985  0.4552896051294297
  0.9999622843862142  0.1284871024284442  0.5416486524093429
  0.3354271584754756  0.0634452046380503  0.5427521102885891
  0.1645748048133342  0.0634491461730633  0.5427526653409913
  0.0000233228909963  0.1248260566476773  0.1977436406106250
  0.3341169396198111  0.1872808373100341  0.2030533952969122
  0.1658952178528352  0.1872735747821466  0.2030526806249142
  0.2499993995643095  0.2499694905535748  0.2780197802502542
  0.0826652913735018  0.1874127686127949  0.2842851605053767
  0.4173364546930642  0.1874066255274585  0.2842846498004690
  0.9999884297576287  0.2501651491073247  0.3697911560192395
  0.3326932172992230  0.1874573402864428  0.3685621542311992
  0.1673034889391971  0.1874556308227753  0.3685612222058623
  0.2499920275103094  0.2505055588634093  0.4542377148709349
  0.0838078031370557  0.1878588311608596  0.4547713417238626
  0.4161889088186612  0.1878545899551725  0.4547697775417205
  0.0000129590585161  0.2526073814520373  0.5408890688133710
  0.0000252317420575  0.2498690269956825  0.1974312566600531
  0.3340426599004189  0.3123429905504835  0.2027063365269797
  0.1659556470289445  0.3123436791465721  0.2027096274567199
  0.2499998413780133  0.3750021255505800  0.2777103686998998
  0.0825968005930733  0.3124153183553346  0.2838917721103726
  0.4174085583283116  0.3124178296149225  0.2838857923396958
  0.9999801497817415  0.3751439046679934  0.3694143433250332
  0.3326878941549154  0.3125012407625647  0.3680568736960907
  0.1673162541015216  0.3124977712584780  0.3680598468984755
  0.2500056452791242  0.3752151766716736  0.4537795285934081
  0.0836099848397467  0.3128472198280150  0.4542051989785278
  0.4163889133115362  0.3128506789947139  0.4542045533129198
  0.0001269969830560  0.3759642682082642  0.5409142096279638
  0.0000130702965535  0.3749515182114820  0.1971034617113787
  0.3342436079485864  0.4374070178556977  0.2025174882027656
  0.1657564870081316  0.4374083254610781  0.2025180137327709
  0.2500030544173342  0.9999511218257098  0.2786194086027507
  0.0825422945974807  0.4374701120139477  0.2837156754863486
  0.4174688081231608  0.4374717737042104  0.2837075217591334
  0.9999957268171400  0.9999905693596816  0.3706532846080179
  0.3326322638936716  0.4375159549308449  0.3678339685380223
  0.1673749418858392  0.4375107139229328  0.3678355781184592
  0.2499919283133707  0.0000891524688598  0.4559718323018629
  0.0836834315416368  0.4375621385842550  0.4540468437373306
  0.4163114617937609  0.4375724819528344  0.4540466095594340
  0.0001472528133988  0.9999644737362416  0.5415428585205930
  0.9999948912895675  0.5000097463754116  0.1969963745476520
  0.3342485675930149  0.5625830345250904  0.2025115714015726
  0.1657392253297232  0.5625866741060221  0.2025086098084330
  0.2500054319007887  0.6250469282581790  0.2778053570471499
  0.0825250919679235  0.5625313457211973  0.2837343253461313
  0.4174817968349060  0.5625369145749843  0.2837274536346115
  0.0000845072943676  0.6249032339334235  0.3694167720774644
  0.3325594312841602  0.5624427805090093  0.3678482368599276
  0.1674506331838757  0.5624381594468630  0.3678461518261855
  0.2499737278145631  0.6246941146947691  0.4538580489788941
  0.0838153869564380  0.5621677706870472  0.4540093579924545
  0.4161458172609969  0.5621865033118567  0.4540346280634964
  0.9998181547091392  0.6239580782570044  0.5408891158994962
  0.9999873580468162  0.6250748372346990  0.1971035372885837
  0.3340318088314831  0.6876538001372126  0.2027003861805028
  0.1659800237798876  0.6876542586751668  0.2027041631053876
  0.2500022506946564  0.7500287557444949  0.2781330845460488
  0.0825157806664691  0.6875814470995181  0.2839234174518950
  0.4174898813514361  0.6875790350585973  0.2839212372181947
  0.0001033321078907  0.7498106239841817  0.3697856966547022
  0.3325623946797833  0.6874872047964260  0.3680681375240482
  0.1674264327776669  0.6874882767383568  0.3680698801354865
  0.2499873092365377  0.7494933406490603  0.4542752864287891
  0.0837913484988633  0.6871213659652469  0.4541481895913151
  0.4161669703466586  0.6871248993006560  0.4541868588849596
  0.9996870712949715  0.7474766830538115  0.5408706641648990
  0.9999842134725014  0.7501512595211111  0.1974112755509196
  0.3341017667375112  0.8127232701271865  0.2030595844253824
  0.1659036133754412  0.8127246570460898  0.2030576042732761
  0.2500014013838481  0.8748973402184603  0.2784761190710157
  0.0826165844230147  0.8125825083434961  0.2842964009808782
  0.4173830527428777  0.8125858270269148  0.2843007320177691
  0.0000282691624847  0.8748501622886238  0.3703587856068680
  0.3325806275402172  0.8125649044934633  0.3685450878251189
  0.1674248971272476  0.8125677187326019  0.3685372641166467
  0.2499910891662367  0.8748299056211266  0.4554161429735899
  0.0839400986908458  0.8122981229189961  0.4547135732191165
  0.4160222545619092  0.8122793862959057  0.4547398863590999
  0.9999812551439575  0.8717203353686855  0.5416367941027431
  0.9999964761459523  0.8751469484852450  0.1977328862931671
  0.3343580127681420  0.9375728265613361  0.2033322074880033
  0.1656650001169169  0.9375612240263891  0.2033290138989443
  0.2500045839537677  0.5000661962134032  0.2777293594149342
  0.0826606593969856  0.9375329922703912  0.2846662685648127
  0.4173425046007466  0.9375344572634106  0.2846751383794057
  0.0000272296226740  0.5000115578821891  0.3693429050756052
  0.3325226852472767  0.9375601187203912  0.3690515442940026
  0.1674766146112390  0.9375641855543222  0.3690476947165990
  0.2499907803853887  0.4998650783516823  0.4538092984754343
  0.0835376900103952  0.9374634449786470  0.4552852167835724
  0.4164601604672811  0.9374503779994825  0.4552816858417756
  0.0000989629649624  0.4998668225480927  0.5410432640472251
  0.3351583992510854  0.9372768227248969  0.5427975878735012
  0.1648293204250351  0.9372779497177959  0.5427999954517517
  0.4999842534124355  0.9999719828205755  0.1978693031024434
  0.8343802975010348  0.0624434498922000  0.2033159527123019
  0.6656235372835937  0.0624472297471712  0.2033133803865468
  0.7500003202935233  0.1249950305778498  0.2784010442080174
  0.5826839647635964  0.0624636993972700  0.2846646541577229
  0.9173191459902057  0.0624612947286138  0.2846618649764068
  0.5000120357950308  0.1251365274030647  0.3703796076224890
  0.8325433587772224  0.0624626077078716  0.3690553291414531
  0.6674597229729784  0.0624629922467506  0.3690582458781932
  0.7500027839411203  0.1252286202762818  0.4553567957311557
  0.5835982308297147  0.0626326690533716  0.4553079614776010
  0.9163965760264006  0.0626302907857124  0.4553106404507261
  0.5000219461951971  0.1284823667443220  0.5416524662644591
  0.8353949138954349  0.0632098949951470  0.5427865665661926
  0.6646095535365077  0.0632141811500659  0.5427869143499962
  0.4999839213675585  0.1248060165664882  0.1977457314234243
  0.8340986733268991  0.1872688045571920  0.2030674062101383
  0.6658994125620978  0.1872747518500759  0.2030675058595435
  0.7499994658141773  0.2499729451126100  0.2780184701429178
  0.5826730758146965  0.1874079829811279  0.2842865584768433
  0.9173287602285853  0.1874120214467396  0.2842845503772580
  0.5000100264781153  0.2501685438081793  0.3697880427800797
  0.8326796515798804  0.1874611636190551  0.3685602842358691
  0.6673222802632850  0.1874608506123678  0.3685626676701759
  0.7500090458170732  0.2505689051197493  0.4542484120649632
  0.5838533155739469  0.1878630585251102  0.4547708112448774
  0.9161455820589595  0.1878696406021021  0.4547694190962659
  0.4999897806680593  0.2526158281595983  0.5408880392757922
  0.4999824540097535  0.2498372843172518  0.1974245297642128
  0.8340225842017688  0.3123176851289955  0.2027100098282659
  0.6659789453335918  0.3123307702576881  0.2027086883848455
  0.7499951814807702  0.3749759211712771  0.2776936972740032
  0.5826164929275990  0.3124176069355542  0.2838679346266275
  0.9173791734718932  0.3124138613418665  0.2838732863034181
  0.5000204612650379  0.3751473620990211  0.3694101657180084
  0.8326856303767798  0.3125209727169604  0.3680806029489077
  0.6673111950004085  0.3125230076160719  0.3680780336204279
  0.7499966741253701  0.3753243395046368  0.4537991076598402
  0.5836545089255196  0.3129046281643397  0.4542567048022050
  0.9163422080300236  0.3129024428631411  0.4542563385766769
  0.4998712911035028  0.3759644684106433  0.5409121246967317
  0.4999870667739046  0.3749341649063567  0.1970833627183382
  0.8342209634240234  0.4374163087929617  0.2024809798740961
  0.6657752835742201  0.4374104593259531  0.2024898087419800
  0.7499991265285644  0.9999829327845333  0.2786529100810782
  0.5826068605820254  0.4374716981144431  0.2836540892209740
  0.9173869560562053  0.4374714542771372  0.2836627822695448
  0.5000167295530389  0.9999825094221535  0.3706444371295490
  0.8327344959181886  0.4375538965537515  0.3678800633334092
  0.6672682983924076  0.4375561663540424  0.3678770116021965
  0.7500087578508570  0.9999864302157135  0.4559794385655493
  0.5836914807991107  0.4376866006285738  0.4541204627528046
  0.9163007719420264  0.4376818008406431  0.4541204518561699
  0.4998516439219785  0.9999721166593361  0.5415384326871902
  0.5000062445366993  0.5000129395788022  0.1969655044284622
  0.8342622263250590  0.5626128120738016  0.2024854510945957
  0.6657325847291773  0.5626212611677701  0.2024852144890019
  0.7499969357501968  0.6250002544510096  0.2776679228409478
  0.5826519776561767  0.5625277656014447  0.2836503903203109
  0.9173414349166293  0.5625229045216926  0.2836562745844162
  0.4998989510128951  0.6249076146170509  0.3694157615692220
  0.8327383760652651  0.5624956775414631  0.3678917074536230
  0.6672553797154777  0.5624946284284462  0.3678873625577879
  0.7500076794342547  0.6247101054944011  0.4538406470186302
  0.5835931131855148  0.5623404309994555  0.4541264224512247
  0.9163920490351742  0.5623355010275333  0.4541250750692001
  0.5001382829662973  0.6239626257501385  0.5409098903907719
  0.5000139738945180  0.6250946784994085  0.1970815762084683
  0.8340839069218404  0.6876739145565409  0.2026890493099955
  0.6659160968989468  0.6876782181922820  0.2026854110300746
  0.7499983481116530  0.7500437501620567  0.2779843220625509
  0.5826638607574424  0.6875920219339449  0.2838714140083596
  0.9173340422059439  0.6875921894451125  0.2838767603825190
  0.4998729445261176  0.7498037785339164  0.3697932881247752
  0.8327284273378339  0.6874815979851832  0.3680937122832617
  0.6672710959613184  0.6874810590035096  0.3680898083336430
  0.7500015782583631  0.7494378273782019  0.4542963011539811
  0.5834265946907138  0.6871088223984785  0.4542954960069920
  0.9165616089018158  0.6871069427844247  0.4542943426399759
  0.5002640463934966  0.7474654997414376  0.5408882065130456
  0.5000137092979458  0.7501832727784290  0.1974048943160156
  0.8341275591078769  0.8127231603791643  0.2030479797389191
  0.6658819145269632  0.8127178109624396  0.2030461128295400
  0.7499987087275315  0.8750376978180512  0.2784129846977663
  0.5827350895717842  0.8126005206666278  0.2842794689147041
  0.9172715611934450  0.8125909360123984  0.2842755279400251
  0.4999663087138160  0.8748413315819761  0.3703695591283491
  0.8327348318523917  0.8125038500999722  0.3685993154898455
  0.6672610938414465  0.8125013803202563  0.3685999136015141
  0.7499867980328077  0.8747440636233108  0.4553333324021196
  0.5837721699460232  0.8121311728677725  0.4547869326330058
  0.9162142417718400  0.8121342488841279  0.4547815642282842
  0.5000224877996899  0.8717020967651123  0.5416357293638896
  0.5000083091091341  0.8751627155817019  0.1977347931996576
  0.8343685995381236  0.9375477125297422  0.2033035454969934
  0.6656206105789835  0.9375528704542120  0.2033026155314346
  0.7499970371449294  0.4999810627360688  0.2776545195538134
  0.5826967226318018  0.9375584154866914  0.2846572459621086
  0.9173032520793427  0.9375567184717539  0.2846480130615205
  0.4999683886629569  0.5000193356250762  0.3693547829529535
  0.8325537136439962  0.9375265315225008  0.3690449137604475
  0.6674502598205265  0.9375261231586407  0.3690493433192259
  0.7500061993850835  0.5000218268314001  0.4537460968552267
  0.5835888226888244  0.9373547411391883  0.4553109043640475
  0.9163996402430357  0.9373616958243005  0.4553133375382714
  0.4999021428480361  0.4998792117298194  0.5410415171513492
  0.8354112185910694  0.9369116782988485  0.5427487159050486
  0.6645948200597758  0.9369115136105890  0.5427436652297288
  0.4058789545141792  0.9999958571009770  0.2330166977065744
  0.2500111341661082  0.9999897746896664  0.2008293303026534
  0.0941266039433160  0.9999971904039100  0.2330164330270321
  0.1548918017771612  0.1249216155487503  0.3163017699592388
  0.9999908672045095  0.1249879285288316  0.3036990584582924
  0.3451079656029279  0.1249236442595816  0.3163059750533179
  0.4010124006659197  0.1251215350049364  0.4029232189267304
  0.2499989820721424  0.1250128929831007  0.3877448469591656
  0.0989877605035829  0.1251239488436795  0.4029218190082560
  0.1522774350876404  0.1258835546671051  0.4882663419998821
  0.9999610400628498  0.1258807375199709  0.4739030731225000
  0.3477064258000055  0.1258786165510628  0.4882617469281243
  0.4005749076027598  0.1296622220303618  0.5700331142115687
  0.2500002372627819  0.1308550302490090  0.5581129527017765
  0.0994277157104193  0.1296637302112060  0.5700357447976145
  0.4058567227056855  0.1248685687419808  0.2327979495622117
  0.2500084115895760  0.1247667066614540  0.2000765755500211
  0.0941483664717069  0.1248709467597564  0.2327963809555769
  0.1548145494583650  0.2499264056772645  0.3158376065711863
  0.9999839528805339  0.2499725008067131  0.3032170157582925
  0.3451871631890882  0.2499294308975379  0.3158355396543087
  0.4010665927821861  0.2502409201780367  0.4024343063938289
  0.2500003105840349  0.2500300023916324  0.3869905863846057
  0.0989337788372850  0.2502389883573102  0.4024328284412988
  0.1529437385406212  0.2508413922899280  0.4874276416911911
  0.9999704106151341  0.2508019242560522  0.4733664675534186
  0.3470641177272711  0.2508453456973783  0.4874278747505016
  0.3987008917743111  0.2521081973863417  0.5687926508893710
  0.2499998967280561  0.2530640805231030  0.5577169292083966
  0.1013027721943658  0.2521012941328067  0.5687956162133503
  0.4058009735538874  0.2498219806130848  0.2323870822680689
  0.2499973299598750  0.2497813684198107  0.1996087552622896
  0.0942080102417577  0.2498246079097086  0.2323897232244931
  0.1547301565804418  0.3749793822314231  0.3155304173217175
  0.9999566241264404  0.3749695693798358  0.3028903824263836
  0.3452794945260820  0.3749785758793749  0.3155264543403575
  0.4010696905408295  0.3751766342456406  0.4021237041639694
  0.2499998899731182  0.3750297594291396  0.3865846023614381
  0.0989302196741662  0.3751708397993596  0.4021226291430793
  0.1530462488851043  0.3753570765177869  0.4870425138302821
  0.0000099674910956  0.3754781307270889  0.4732566824894135
  0.3469439168218997  0.3753654444735659  0.4870403925374660
  0.3981002248110954  0.3756722529487959  0.5686189858665074
  0.2499982125732387  0.3758639642319821  0.5573655981671379
  0.1019016249890825  0.3756588320593224  0.5686188136482428
  0.4058345469862061  0.3748893591447313  0.2321027491303553
  0.2499962562799425  0.3749453320903342  0.1993711682618482
  0.0941813226922434  0.3748866172786123  0.2321084123981620
  0.1549075481158155  0.0000026813804368  0.3165498413014731
  0.9999797529573016  0.0000034372763764  0.3039268884758002
  0.3450932768199735  0.0000023245555241  0.3165552089583343
  0.4009487941482917  0.0000288350834552  0.4031494884807998
  0.2500005187818246  0.0000329012745581  0.3881506423311905
  0.0990479847971031  0.0000335141382308  0.4031462523594698
  0.1516914402171636  0.0001117368264545  0.4885867697457016
  0.9999934555093617  0.0000046883657916  0.4736532380066762
  0.3483140529552031  0.0001025768439931  0.4885889369688385
  0.4025101147803909  0.0003068599187017  0.5707785367351264
  0.2500018995317248  0.0002909348356397  0.5584128794444752
  0.0974874961427545  0.0003197554463057  0.5707764194080980
  0.4058665128594114  0.5000130003439054  0.2320573036099702
  0.2499887030911552  0.5000249148422213  0.2001412994028726
  0.0941608438708457  0.5000124047993424  0.2320662145754824
  0.1546655894991318  0.6250359015625619  0.3155609968973039
  0.9999358692492777  0.6250191227222857  0.3029024834401852
  0.3453481189802119  0.6250391237785138  0.3155592022181395
  0.4009212827064985  0.6248066784523729  0.4021981807006014
  0.2499997671054572  0.6249208907587018  0.3866120345425159
  0.0990594076620539  0.6247945303102185  0.4021797967110530
  0.1532394382570672  0.6240428243670948  0.4873058682911235
  0.0001468776303000  0.6244921791213187  0.4732455412913481
  0.3467202694309677  0.6240625755629736  0.4873340416330691
  0.3984911396722524  0.6233967395695075  0.5689352575620958
  0.2499370803768457  0.6234419045410959  0.5603723943592200
  0.1014458287924143  0.6233854742717924  0.5689014429372250
  0.4058371633917730  0.6251217948164580  0.2321146265822591
  0.2499962879186484  0.6250622509407506  0.1994629502206138
  0.0941781626389044  0.6251191080438474  0.2321230214040781
  0.1547100398204151  0.7500412589625824  0.3158656051453619
  0.9999399007614613  0.7500279929400051  0.3032183533027109
  0.3452916212876787  0.7500417505756829  0.3158676465901848
  0.4008687313777770  0.7497713923583547  0.4024943646851469
  0.2499978861559526  0.7499579458105785  0.3870106883976803
  0.0991081073381963  0.7497765393458025  0.4024754775736525
  0.1531449062300041  0.7496525070999667  0.4877122688447457
  0.0001351120899429  0.7492700672188306  0.4733464622712660
  0.3467964530006213  0.7496258577335482  0.4877463362305292
  0.3991057030433467  0.7483962437945877  0.5691202407005633
  0.2499221839770129  0.7472597877516236  0.5605414530581498
  0.1008199036306507  0.7484222280821768  0.5690880179497384
  0.4058055182960274  0.7501582372713003  0.2323871036366612
  0.2500015581035413  0.7502162857893282  0.1996673613303273
  0.0942040191773614  0.7501533657542794  0.2323874389960139
  0.1548037344461832  0.8750845951606863  0.3163170819893892
  0.9999567112171164  0.8750127631805924  0.3036977798110456
  0.3451946532854322  0.8750818530257618  0.3163254991885580
  0.4009395935350923  0.8749146075773240  0.4029291932307260
  0.2500036362047524  0.8750418745928101  0.3878115069742734
  0.0990545534831000  0.8749289344795912  0.4029205993022416
  0.1522757580663878  0.8744325399790540  0.4883479623489606
  0.0000352964319674  0.8741517185382293  0.4738967008862289
  0.3477236660192702  0.8744256839217996  0.4883602429084277
  0.4005199473098600  0.8709972645716846  0.5703618405043827
  0.2499995327453846  0.8699871755763340  0.5584483525688313
  0.0994893776868935  0.8710065542410277  0.5703600413114387
  0.4058585328089421  0.8751219138448150  0.2327937241461981
  0.2500107508476788  0.8752224952192762  0.2001440183311942
  0.0941462204143662  0.8751211635942013  0.2327917739361283
  0.1546000108788945  0.4999939198072667  0.3154790880851905
  0.9999344217823136  0.5000075950705209  0.3028098257752703
  0.3454111497088661  0.4999966104727704  0.3154763415602346
  0.4010084613817497  0.4999605832773071  0.4020681536279298
  0.2500025378125272  0.4999675446027823  0.3865720027540860
  0.0989877575779587  0.4999456346051190  0.4020560308894758
  0.1530538233090013  0.4996398161793891  0.4870795100843068
  0.0000644433943151  0.4999560817957729  0.4733913718442722
  0.3469376190375826  0.4996523887690785  0.4870902233776633
  0.3980768308101403  0.4993952053533022  0.5689861757056178
  0.2499975115436825  0.4992355145656830  0.5579553932197854
  0.1019306307100649  0.4993840011188126  0.5689846259753040
  0.9058786610056515  0.0000036697988648  0.2330011577567248
  0.7500001666960756  0.9999986271701573  0.2008845568389930
  0.5941309263066330  0.0000061961758178  0.2330026232101972
  0.6548935907634785  0.1249193330756881  0.3163206849730713
  0.5000089230407241  0.1249892173323133  0.3037023499573905
  0.8451105693545742  0.1249195161985384  0.3163178833554383
  0.9009814434832748  0.1251230551958784  0.4029332946444342
  0.7500008285371678  0.1250063165728932  0.3877634751532000
  0.5990185510399044  0.1251233203113600  0.4029341647041136
  0.6523374502858488  0.1258526528281863  0.4883088046803223
  0.5000392791472521  0.1258814983021352  0.4739007310914971
  0.8476609060535552  0.1258537200168135  0.4883102533872261
  0.9005276391959143  0.1295688901944700  0.5700505296211915
  0.7500008322251972  0.1308453992132428  0.5581509437091725
  0.5994743335372021  0.1295681848044694  0.5700489286332839
  0.9058751938414957  0.1248639286090167  0.2327905062382882
  0.7500038903519908  0.1247461641425929  0.2000681368194606
  0.5941321221662648  0.1248577814145051  0.2327916773217140
  0.6548195554413212  0.2499437712813304  0.3158454995913189
  0.5000156565116498  0.2499801165191187  0.3032169619160783
  0.8451780594948488  0.2499401039802223  0.3158451418606134
  0.9010430596633725  0.2502549210576603  0.4024505073452715
  0.7499980287913459  0.2500438236859992  0.3870046620393524
  0.5989568667403660  0.2502560895464825  0.4024503174260232
  0.6529892758342299  0.2508883480541684  0.4874830360478057
  0.5000262352866542  0.2508013461658436  0.4733652173242291
  0.8470049551792229  0.2508871360012606  0.4874832845350880
  0.8986531737959282  0.2522023569498160  0.5688045465824061
  0.7500015698579574  0.2532570582367555  0.5577456508297374
  0.6013479993860003  0.2522036892745092  0.5688037928198924
  0.9058073870532652  0.2498269619455940  0.2323746588600955
  0.7499980719590695  0.2497623743072594  0.1995553065353803
  0.5941914687679031  0.2498221015407580  0.2323720651405807
  0.6547797211476691  0.3749953134051438  0.3155278420483043
  0.5000433899598917  0.3749724464774573  0.3028875328650713
  0.8452095250476432  0.3749939099558688  0.3155317914448972
  0.9010967375440586  0.3752064515599614  0.4021554003792289
  0.7500003408816767  0.3750917368327009  0.3866062151163661
  0.5989059817728872  0.3752086017846352  0.4021566226884232
  0.6530934788860208  0.3755099671250548  0.4871016198499589
  0.4999860183113540  0.3754840299783808  0.4732545317527794
  0.8469104526842202  0.3755086245357901  0.4871053622450319
  0.8982384836104487  0.3760768724898753  0.5685214151200597
  0.7499999461931992  0.3762964027451829  0.5573904475010281
  0.6017592312003686  0.3760749762360476  0.5685196147749778
  0.9058116549864792  0.3748765573748116  0.2320844548786383
  0.7500024373317018  0.3749372556366168  0.1993669791414092
  0.5941771015114554  0.3748838264352088  0.2320771194519224
  0.6549146222210993  0.0000074797419387  0.3165701859321146
  0.5000197767210537  0.0000012097083513  0.3039388106944614
  0.8450895816959232  0.0000084141503578  0.3165648520613686
  0.9009365786089134  0.9999889171313967  0.4031628618360656
  0.7500003756627720  0.9999951095109267  0.3881584100206581
  0.5990675816718394  0.9999877971132918  0.4031641732865126
  0.6517209463366953  0.9999958268851259  0.4886241539843184
  0.5000034405958047  0.9999999845254237  0.4736500122969147
  0.8482733120010622  0.9999978990309657  0.4886247038047600
  0.9025848761112272  0.9999598629893853  0.5707005014306006
  0.7499970580244550  0.9999769890471697  0.5584864423387828
  0.5974129318230510  0.9999607701141073  0.5706984057587121
  0.9058085566483882  0.4999946362961651  0.2320298045172606
  0.7500077749604941  0.5000005758134165  0.2000417187077090
  0.5941673153923546  0.4999982569263324  0.2320192549175317
  0.6547968113384428  0.6250167243571667  0.3155451153020650
  0.5000625660008424  0.6250220693649169  0.3029074878051006
  0.8451982916249463  0.6250166835985738  0.3155515164713236
  0.9011538449615699  0.6248597817151378  0.4021556749805626
  0.7499993658087831  0.6249424381054709  0.3866447234292636
  0.5988351571243342  0.6248612222634549  0.4021548610948358
  0.6530196768056555  0.6245359478059953  0.4870925429574910
  0.4998325621974828  0.6244985875642755  0.4732695970062224
  0.8469722560231361  0.6245318880107078  0.4870959575006637
  0.8983067937416465  0.6239246407876067  0.5685447785597333
  0.7500066723909669  0.6238177184179534  0.5572603721216041
  0.6016745309255995  0.6239254216548460  0.5685295833097683
  0.9058058899992503  0.6251245782205359  0.2321020441102633
  0.7500016971722303  0.6250635183510269  0.1993895945201700
  0.5941730898168416  0.6251304767859978  0.2320956199044417
  0.6548486051191986  0.7500451547853899  0.3158562513062364
  0.5000622773088494  0.7500261128212387  0.3032266285550804
  0.8451510991722984  0.7500461267321512  0.3158577496843549
  0.9011375644480992  0.7496854630538223  0.4024587531170667
  0.7499999587169128  0.7499273068970140  0.3870387973496037
  0.5988506028299341  0.7496837294152314  0.4024568811859268
  0.6529262806253371  0.7490562388567668  0.4874780924999058
  0.4998493055445223  0.7492655778723218  0.4733707302713981
  0.8470671590437533  0.7490620559494374  0.4874822343288372
  0.8986448815868471  0.7477436301419544  0.5687978422549165
  0.7500027504913689  0.7467182477751280  0.5576218524648340
  0.6013382972346903  0.7477426482113430  0.5687808549891287
  0.9057892415093036  0.7501785812713280  0.2323844632508241
  0.7500005007534369  0.7502156524325869  0.1995953415786715
  0.5942071305592265  0.7501826913770557  0.2323824562917807
  0.6548983730997833  0.8750649807139439  0.3163250263847956
  0.5000471962225177  0.8750102027989186  0.3037055008134431
  0.8451045878143475  0.8750672391715923  0.3163211380598625
  0.9010244794959235  0.8748558062324037  0.4029338968129110
  0.7500006522063956  0.8749606666184775  0.3877635554929597
  0.5989711800618167  0.8748527921563820  0.4029347249141537
  0.6523189623824237  0.8740905900076257  0.4882926695907557
  0.4999518588791503  0.8741363622371026  0.4738959776534202
  0.8476727355844815  0.8740947830644572  0.4882945957882399
  0.9005975365831631  0.8704590727986670  0.5699540995640646
  0.7500015611891513  0.8689763742433385  0.5581286004330934
  0.5994073865769991  0.8704489912105728  0.5699493938025597
  0.9058289182915686  0.8751390024161978  0.2327821082273971
  0.7499941171686260  0.8752535110237432  0.2000616674824300
  0.5941748120238657  0.8751454147922857  0.2327837439997751
  0.6547156394482698  0.5000139419493763  0.3154619305437478
  0.5000661369100285  0.5000100719326781  0.3028088075866080
  0.8452746723347531  0.5000116515134323  0.3154660168094026
  0.9011269193676767  0.5000371678702393  0.4020756898018192
  0.7499991341709489  0.5000378142626829  0.3865493595796110
  0.5988708828033467  0.5000446430633971  0.4020793762244921
  0.6530711720661557  0.5000664404136330  0.4870576429403002
  0.4999225077910694  0.4999715103808242  0.4733914493476163
  0.8469198930120427  0.5000637998212767  0.4870585238524683
  0.8984309759534952  0.5000090641689425  0.5685171558354085
  0.7500002791587050  0.5001844438083793  0.5573638444567308
  0.6015694690463178  0.5000133328269882  0.5685129550618058
  0.3348411493282129  0.1889047041716054  0.5401787142665668
  0.1651626113749742  0.1889059392722174  0.5401789938411241
  0.3346057412478487  0.3132439388448134  0.5394484287029115
  0.1653971439359410  0.3132401992364748  0.5394450337281285
  0.3342561579750409  0.4374049451987077  0.5393056435138561
  0.1657434153591950  0.4374064893917620  0.5393058785794977
  0.3350817802574255  0.5610770521233945  0.5396130365274345
  0.1648790112655334  0.5610770514731769  0.5395904343725348
  0.3370358233883977  0.6864601456800372  0.5389409442478978
  0.1628427531284018  0.6864677850957293  0.5388797368336284
  0.3355102953199918  0.8120557979878100  0.5405591894849380
  0.1644637785133938  0.8120594914665489  0.5405384825394037
  0.8348426971392229  0.1888700020415328  0.5402085500687477
  0.6651591835702959  0.1888709400603261  0.5402074344188392
  0.8346160776109031  0.3133642890497512  0.5394702429848621
  0.6653870128566695  0.3133666079499946  0.5394682384162692
  0.8345173721687189  0.4377762595707324  0.5392458574573595
  0.6654793616012640  0.4377744232149894  0.5392429382388784
  0.8344729611058312  0.5620976346294384  0.5392601315389669
  0.6655235328714753  0.5620995436759557  0.5392575919546445
  0.8344716424132059  0.6865721389377981  0.5394855998140358
  0.6655280657892817  0.6865713271015323  0.5394799628897644
  0.8347852763167722  0.8111626990985812  0.5401769295673517
  0.6652054177954483  0.8111557148187600  0.5401712500152911
  0.2495046097640738  0.6854489160339199  0.6080496633219923
 
  0.00000000E+00  0.00000000E+00  0.00000000E+00
  0.00000000E+00  0.00000000E+00  0.00000000E+00
  0.00000000E+00  0.00000000E+00  0.00000000E+00
  0.00000000E+00  0.00000000E+00  0.00000000E+00
  0.00000000E+00  0.00000000E+00  0.00000000E+00
  0.00000000E+00  0.00000000E+00  0.00000000E+00