Ta  N Co Cu                             
   1.00000000000000     
    18.1096308199999996    0.0000000000000000    0.0000000000000000
     0.0000000000000000   23.3551997799999995    0.0000000000000000
     0.0000000000000000    0.0000000000000000   30.4818171199999988
   Ta   N    Co   Cu
   228   240    12     1
Direct
  0.0000107169633310  0.0000888110441011  0.1978510147833248
  0.3339008896080671  0.0624398999816478  0.2026927956661382
  0.1658162986545051  0.0624880546556952  0.2030483324653147
  0.2498550226700260  0.1250728858839452  0.2784493891066617
  0.0826131124373148  0.0625897774085615  0.2844674287790241
  0.4169856870539661  0.0625187257526463  0.2840976312787760
  0.0000145270741285  0.1251129886416678  0.3701371766337047
  0.3315960442180028  0.0625916996042335  0.3687098353373415
  0.1679168619012259  0.0626296759170017  0.3687715638031577
  0.2507962642296704  0.1274092183142130  0.4579151301247251
  0.0849404575660131  0.0627566806540756  0.4552161948323530
  0.4169757201568345  0.0621635569012824  0.4533563827212532
  0.0002139363703719  0.1254234856487955  0.5414659474915950
  0.3332942649382176  0.0606983991034582  0.5428694974461834
  0.0000126118331849  0.1250125356941112  0.1978716380598016
  0.3337943545583073  0.1876211689591543  0.2027167320760270
  0.1659130454563993  0.1876631466925289  0.2031036833198954
  0.2498986774765868  0.2500396561937990  0.2783816659245488
  0.0825389471443643  0.1875836912541686  0.2845520574808305
  0.4170945831104831  0.1875028310935676  0.2841186901880732
  0.0000389437683168  0.2502100390138864  0.3701691514355261
  0.3315474111192458  0.1874576703803541  0.3687442350608592
  0.1679938370041825  0.1876523660660823  0.3686526937975074
  0.2502843693431913  0.2483575765924328  0.4575225495172504
  0.0834558093773552  0.1879337830213643  0.4538572084388761
  0.4178391470217520  0.1878137668102937  0.4528235108847198
  0.0000312862961707  0.2491785284259862  0.5418350398620362
  0.3434630787572033  0.1872565209580443  0.5411512187139778
  0.1721487402961515  0.1867062903811458  0.5430214345099671
  0.0000146192356709  0.2500707889710085  0.1978422437141987
  0.3338589169403505  0.3124779392182759  0.2027063859112914
  0.1658153077897424  0.3124915211692993  0.2030664637673851
  0.2498587377393591  0.3750847490835554  0.2784637798453033
  0.0826135830154300  0.3126007540674607  0.2844654648538665
  0.4169837797761886  0.3125298411926138  0.2840975438122797
  0.0000272761447562  0.3751206873611181  0.3701573820900634
  0.3316255286919727  0.3125935191148201  0.3687534638478951
  0.1679456161907638  0.3126340187987111  0.3687868439129716
  0.2507946203022797  0.3773274818881518  0.4579194306094223
  0.0849471194750393  0.3127624246046494  0.4552346728548216
  0.4170845309653473  0.3121428378082101  0.4534017498287284
  0.0001495718483113  0.3753565596944028  0.5414588116569661
  0.3331374768568267  0.3106729946063496  0.5428746099559163
  0.0000069792133175  0.3750555549782604  0.1978663886787047
  0.3338276228827226  0.4376323416514438  0.2027071544099783
  0.1658796307052057  0.4376483724267430  0.2030979356704066
  0.2498837911460399  0.0000570627593603  0.2783603169499429
  0.0825137897002080  0.4375867637684792  0.2845517600054066
  0.4171042213922149  0.4375222858744507  0.2841291406062041
  0.0000088860659346  0.0002065905947433  0.3701450441093641
  0.3315334928502480  0.4374732297230608  0.3687320583941016
  0.1680037092318400  0.4376644799681770  0.3686298865642499
  0.2502400900352555  0.9983089892257340  0.4574948062764363
  0.0835044263600295  0.4379516693401015  0.4538605574692980
  0.4178519277045822  0.4378063020963978  0.4528368272404748
  0.9998262670264495  0.9992992734936692  0.5417948805960435
  0.3433827870968358  0.4372125109127794  0.5411210360353209
  0.1720902707152305  0.4367420166964138  0.5430390382066292
  0.0000071091610323  0.5000904621144926  0.1978453462881831
  0.3338613031734852  0.5624941497105382  0.2027363690924560
  0.1658287571929975  0.5624917448424611  0.2030698844681353
  0.2498929861714814  0.6250294882494529  0.2784297434410234
  0.0826255405978387  0.5626103146481540  0.2844685595692837
  0.4169862358454424  0.5625330183051247  0.2841081264595005
  0.9999929538254619  0.6251400627038990  0.3701687452597895
  0.3316336541900213  0.5625868521362634  0.3687490371733162
  0.1679594803054982  0.5626411612319018  0.3687617051373451
  0.2508015090307651  0.6273061384346903  0.4579115181157434
  0.0849200634436684  0.5627549124078257  0.4552117026215043
  0.4170967918141102  0.5621435530326764  0.4534236013752491
  0.0001861941970560  0.6253645017091003  0.5414554602622061
  0.3330063281107769  0.5607206230498818  0.5429198955496801
  0.0000016121191493  0.6250352908637566  0.1978773067174586
  0.3338140904863280  0.6876491105265856  0.2027633825113710
  0.1658910807324787  0.6876455112772959  0.2030951218118418
  0.2499167388932406  0.7500749279585577  0.2783852846766024
  0.0825180782942425  0.6876014837992059  0.2845735634564974
  0.4171375170122644  0.6875356929919931  0.2841888186600556
  0.0000532509181994  0.7501911198976288  0.3701516326980325
  0.3316506334072926  0.6874787832186797  0.3688484655845414
  0.1680333908065990  0.6876708074030375  0.3686776392897997
  0.2502025235411764  0.7482249000399364  0.4576518787499850
  0.0834379753704013  0.6879133980387664  0.4538144388865959
  0.4179669843319402  0.6878874859200508  0.4530330887391827
  0.9996530504107639  0.7492917839903512  0.5417906025264543
  0.3430620435479312  0.6875267505240785  0.5412289731466657
  0.1719560673470610  0.6865939999481512  0.5430157718006754
  0.9999921174203621  0.7500716976554855  0.1978725219245092
  0.3339090637256561  0.8124495494817339  0.2027699652800834
  0.1658069509578226  0.8124878657027708  0.2030729936332136
  0.2498361572727390  0.8750421496873102  0.2784648677105253
  0.0826523672678476  0.8125900330782017  0.2844786331802425
  0.4170009037783728  0.8125366893175467  0.2841366210132108
  0.0000957650948976  0.8751129154907176  0.3701499640702650
  0.3315887429829729  0.8125886273665799  0.3687033147726027
  0.1679921747394886  0.8126263765451611  0.3687508999315980
  0.2507299053209024  0.8775112776328839  0.4580210601170265
  0.0849741823389110  0.8127590708630592  0.4552173063445721
  0.4170672423692494  0.8120462165331759  0.4535538660975078
  0.9998167704432035  0.8754412700440213  0.5414818036644249
  0.3334043280111771  0.8109245725306877  0.5429015244032840
  0.9999987599194426  0.8750415278457808  0.1978806657884320
  0.3338219684726482  0.9376105990507710  0.2027341680029835
  0.1658822455528082  0.9376618800214942  0.2031094812324383
  0.2499025066626857  0.5000263036139785  0.2784040209812417
  0.0825227475675376  0.9375770587032264  0.2845620609261985
  0.4171158638273198  0.9375212573226150  0.2841608764647958
  0.9999980405449165  0.5002210996619283  0.3701718878986782
  0.3315119362831780  0.9374537747720098  0.3687490332195367
  0.1679880904085849  0.9376425069215273  0.3686788692789094
  0.2502630493148388  0.4984158146163793  0.4574946155675335
  0.0834416445891222  0.9379490927589842  0.4538203110957113
  0.4177040597788988  0.9378321433097199  0.4527393048453376
  0.9999884337084310  0.4991942397567612  0.5418250065279935
  0.3436249698459051  0.9373339283803830  0.5411551059467854
  0.1719641978222626  0.9366482125942497  0.5429947022356743
  0.5000519184420185  0.0000663324240193  0.1975247833959841
  0.8342095960032054  0.0624833009980037  0.2030798539081928
  0.6661432814501111  0.0624455857544746  0.2027192096774471
  0.7501627435967535  0.1250433347802513  0.2784764668308810
  0.5830759858672181  0.0625061602183123  0.2841255792358410
  0.9174074328204966  0.0625843106638300  0.2844873070123342
  0.5000360516393059  0.1250493292547219  0.3690929819844015
  0.8321097405797317  0.0626085620908228  0.3687964639376204
  0.6684420879759116  0.0625363503206202  0.3687951621682757
  0.7492023521054989  0.1273465806800331  0.4579958303128606
  0.5829578546525838  0.0621637386450757  0.4534600044295019
  0.9151291824172674  0.0627740403927390  0.4552344544657529
  0.5000675854398295  0.1120018371117979  0.5433551570830844
  0.6667286001788497  0.0608936789965142  0.5430164356316141
  0.5000370339787423  0.1249879874111173  0.1975443287785339
  0.8340897015881765  0.1876546788141553  0.2031291464283811
  0.6662459525763893  0.1876237332367694  0.2027239920087709
  0.7501171492014365  0.2500352151844680  0.2783965771147123
  0.5829507448556299  0.1874934544549944  0.2841341393088825
  0.9174904510307158  0.1875798067511667  0.2845618870650171
  0.5000418356379726  0.2498705812811224  0.3690498516622256
  0.8320473699369373  0.1876424912535342  0.3686365439169137
  0.6685299011294177  0.1874245857741386  0.3687610136974797
  0.7497681509815664  0.2482903143572059  0.4574888525217418
  0.5820783738234780  0.1878060853728769  0.4528433497881963
  0.9165892139088854  0.1879238219399539  0.4538714946437992
  0.8281223192273046  0.1869538718970958  0.5429654436722373
  0.6567121217700134  0.1872790707868219  0.5411208171124997
  0.5000203748802932  0.2500635178679929  0.1975022353798295
  0.8342053472437314  0.3124697741137865  0.2030869329561966
  0.6661582146618343  0.3124439641566994  0.2027193186464729
  0.7501662217645659  0.3750925433628041  0.2784897666761665
  0.5830548831477032  0.3125259563803482  0.2841018723413526
  0.9174080883368205  0.3125987919292683  0.2844864591802647
  0.5000190736217931  0.3750568739975506  0.3690957720618400
  0.8321161633850025  0.3126120614957273  0.3687813213971509
  0.6684221958966603  0.3125659952059578  0.3687497151654924
  0.7492713235286459  0.3773722603270571  0.4578670427502445
  0.5830137352237728  0.3121453453859715  0.4534178689294777
  0.9151035067014277  0.3127600654013563  0.4552282426384480
  0.4999076647509426  0.3620379031117835  0.5434142811253722
  0.6667701459233513  0.3105275254437245  0.5428825251806160
  0.5000323038228487  0.3750077250504162  0.1975433533512287
  0.8341203477016990  0.4376519447139771  0.2031096518711095
  0.6662068687919032  0.4376720145856723  0.2027147301538008
  0.7501192510862040  0.0000198957331037  0.2784092128892937
  0.5829381331997325  0.4375252268483720  0.2841248597192063
  0.9175034190466320  0.4375838075820724  0.2845539088261475
  0.5000664947863740  0.9998655868478536  0.3690518589739753
  0.8320327422560112  0.4376494039569252  0.3686136415471140
  0.6685191937277679  0.4374515637557792  0.3687122621700922
  0.7496539374045810  0.9983942682564475  0.4575166309469765
  0.5821370760679656  0.4377716104560108  0.4528214107940443
  0.9165395432364249  0.4379388057709050  0.4538603217425248
  0.8283027244555470  0.4365213583496867  0.5430145916411320
  0.6568679487727280  0.4368935494370376  0.5411720604770309
  0.5000071026599571  0.5000474668004458  0.1975173920072280
  0.8341709124091992  0.5624838889417916  0.2030914080974426
  0.6661808580201267  0.5624875087822190  0.2027501172798125
  0.7501375685529013  0.6250735416523199  0.2784569807301125
  0.5830422379062554  0.5625427109686427  0.2841292797110668
  0.9173804691792569  0.5626140284949344  0.2844906101499660
  0.4999996134681126  0.6250427193260819  0.3691510874424822
  0.8321000215884666  0.5626266619023070  0.3687963629424118
  0.6683721686794399  0.5625713931446938  0.3687816555048258
  0.7494860384187874  0.6274380223598186  0.4577048592628259
  0.5830327189219986  0.5620941632955976  0.4535251366743509
  0.9150235525607187  0.5627480700305938  0.4552381316790601
  0.4998627222500645  0.6118365220604645  0.5433324979482705
  0.6674596575528824  0.5597142013321772  0.5431074760143773
  0.5000605006611494  0.6250192677031094  0.1975631639637854
  0.8341340927560239  0.6876677448461876  0.2031363780844870
  0.6661818451627042  0.6876420350970491  0.2027934902220707
  0.7500916447182746  0.7500820108254160  0.2784584531068859
  0.5829172310752710  0.6875303407529572  0.2842506536410454
  0.9174975894534398  0.6876009018716971  0.2845843205532930
  0.5000258478575148  0.7499346062203429  0.3691820761954503
  0.8319643244874015  0.6876737275977547  0.3687501898274022
  0.6684750141956854  0.6875081560564666  0.3688855520707435
  0.7497164163753069  0.7479665092598040  0.4579307132030905
  0.5822500265319022  0.6878995525125617  0.4528599030912446
  0.9166785989460635  0.6879037666682564  0.4539470691051619
  0.8290425889990516  0.6870338186983957  0.5432847156223914
  0.6597354817272389  0.6859184437029171  0.5412910293266577
  0.5000883568094920  0.7500276098656329  0.1975790643344908
  0.8341695096664665  0.8125073857312657  0.2031274268851675
  0.6661335189408675  0.8124830289697158  0.2028040761869860
  0.7501129963126303  0.8750405373790073  0.2785455091915878
  0.5831013371106337  0.8125443121939426  0.2841973818024215
  0.9173232114071510  0.8125884291526333  0.2845164383531795
  0.5000749521603254  0.8750423596593535  0.3691901307229344
  0.8321091997370189  0.8126485862462900  0.3688329902356671
  0.6685130517582678  0.8126167779709093  0.3689067651180906
  0.7492707748154857  0.8775458401825773  0.4583429620822415
  0.5827858892439437  0.8118608275834234  0.4537080710121515
  0.9152113255105192  0.8127970204305370  0.4551013938245063
  0.5001002810731663  0.8635592248154182  0.5428104157977245
  0.6683826267043926  0.8124085235850558  0.5428629252478672
  0.5000647064207513  0.8749943387209314  0.1976047667594969
  0.8340871857495955  0.9376361049037456  0.2031408237037482
  0.6662432230912216  0.9375951250464425  0.2027754424224923
  0.7501198146580279  0.5000436049938131  0.2784043270300742
  0.5829719301125422  0.9375074124999969  0.2841975584952934
  0.9174756822241221  0.9375863961582311  0.2845622980118137
  0.5000507926474782  0.4998829021579780  0.3690644315008385
  0.8320739364347247  0.9376151450765065  0.3686739713153955
  0.6685028537596480  0.9374116440303553  0.3689055945504052
  0.7498298495064475  0.4982829576308987  0.4574262647044804
  0.5820104793056089  0.9377834575790658  0.4529628408665403
  0.9166518136035080  0.9379224193347184  0.4538851647841469
  0.8288201894015117  0.9375726919648883  0.5429188636578246
  0.6561712866172442  0.9378708991309352  0.5410782997659709
  0.4055394798531822  0.9999728059019404  0.2323186785144316
  0.2498447859013737  0.0000576995856321  0.1993411739633899
  0.0942465280407632  0.0000261370299839  0.2327796767551717
  0.1550211535749071  0.1250990076719205  0.3161822983619729
  0.0000223896352907  0.1250545247260604  0.3035407604405762
  0.3449704254644459  0.1250661395555426  0.3160952364536058
  0.4010647428918119  0.1248030657735413  0.4017436094641340
  0.2496847953813486  0.1249884690771239  0.3891416298083072
  0.0994043551739310  0.1251201963928636  0.4022498226831956
  0.1501831617381271  0.1269231041652148  0.4873532244707306
  0.0000542814956788  0.1251827012677467  0.4731293593637034
  0.3524612813576127  0.1250510405559879  0.4874246768834354
  0.4063612686710769  0.1258443964657019  0.5713013370993991
  0.2567947816199521  0.1294624791211305  0.5542924341540214
  0.0979477430363715  0.1271565737597911  0.5695322025535177
  0.4054072459667424  0.1250553289037910  0.2323295834588777
  0.2498451159511674  0.1250300491250442  0.1996782930266576
  0.0943500204649013  0.1251070073462870  0.2328068052626335
  0.1549603674140911  0.2501163129417634  0.3161288036827727
  0.0000256941819430  0.2501315817791365  0.3035676962867413
  0.3449836831657009  0.2499942498711647  0.3160192708591794
  0.4010303140800673  0.2501120010914377  0.4015170259635070
  0.2496926711652350  0.2502075272585671  0.3889273410855907
  0.0995254360598281  0.2503165336467816  0.4023180126195740
  0.1503325361388477  0.2490311141722188  0.4880844741279731
  0.0000061678621819  0.2503779796367240  0.4733185076168169
  0.3511606226471713  0.2503553633790574  0.4869221386857987
  0.4110479804298848  0.2541000560474771  0.5648958427852406
  0.2587038279412113  0.2470726050884977  0.5552689065466367
  0.0975958310920717  0.2475682425410142  0.5698401320662541
  0.4055147379819317  0.2499837093832582  0.2323020863187963
  0.2498538243923250  0.2500665641881383  0.1993012074395182
  0.0942487454945180  0.2500403606930988  0.2327758665019672
  0.1549996007472529  0.3750980072586785  0.3161810960859981
  0.0000064373030924  0.3750609354803203  0.3035522564716473
  0.3449784093241632  0.3750647431883891  0.3161023546905497
  0.4010711401381855  0.3748147148762868  0.4017653847909699
  0.2496972292822406  0.3749938798555092  0.3891454579432505
  0.0994345568593076  0.3751376573255101  0.4022541510798874
  0.1501852164646493  0.3769114745437321  0.4873746745102423
  0.0000386695760994  0.3752108861681336  0.4731168081929908
  0.3524930508358537  0.3750644832030829  0.4874397350069373
  0.4061728163746210  0.3759112203376631  0.5713695738150264
  0.2567032368656541  0.3795360197719262  0.5543775341140460
  0.0977975197498608  0.3773275358181891  0.5695562483341163
  0.4054044273128952  0.3750704881718718  0.2323361589788178
  0.2498407778091192  0.3750621025292560  0.1996786385618279
  0.0943316713734106  0.3751235383839315  0.2328049637303806
  0.1549636639539003  0.0000900007675284  0.3161355009762019
  0.0000068214445861  0.0001149757574339  0.3035568596587979
  0.3449698138670811  0.9999880693858643  0.3160098417550969
  0.4009947104344675  0.0001338169737437  0.4014579487184378
  0.2496614850012193  0.0002028324040921  0.3888828177028287
  0.0994801135472230  0.0003327555668093  0.4022952468516294
  0.1502946955692579  0.9990075249121588  0.4880201445810073
  0.0000149026711611  0.0003848112819895  0.4733216635770745
  0.3511354784285814  0.0003697649787071  0.4868823100534314
  0.4110477837834949  0.0041415248673857  0.5649692013947671
  0.2586951860108329  0.9971357580479889  0.5550957153734686
  0.0974376391476000  0.9975955297550954  0.5697411028988100
  0.4055083778324189  0.4999953206925341  0.2323144371687746
  0.2498443397429000  0.5000650301607337  0.1993640509184615
  0.0942491791486617  0.5000456868756089  0.2327717826958420
  0.1550524484818609  0.6251432030735700  0.3161842878761973
  0.9999907254188471  0.6250674448080744  0.3035689399103916
  0.3449746537409766  0.6251225715955115  0.3161350754042616
  0.4010976292130977  0.6248139806841237  0.4018486544340476
  0.2497361139145013  0.6250001966373731  0.3891311834152376
  0.0994196563451268  0.6251080095891197  0.4022324064074567
  0.1501717504938753  0.6268919306489593  0.4873681438891921
  0.0000563050530289  0.6251677200103956  0.4731043489092173
  0.3524241086770346  0.6250311917415843  0.4874911560480513
  0.4063714242943419  0.6258617870520382  0.5713964930043929
  0.2566036631228670  0.6296044876732054  0.5545415742784172
  0.0977724919883300  0.6271650680799326  0.5696012144297100
  0.4054517968313434  0.6251052323837669  0.2323670041018104
  0.2498244519190536  0.6250604900309114  0.1996481829403933
  0.0943162924953924  0.6251448725505568  0.2328096688402255
  0.1549723259982798  0.7500859318971322  0.3161393227538269
  0.9999943377926073  0.7501714810655216  0.3035641689811399
  0.3449945746508050  0.7499745735390491  0.3160724917610693
  0.4009794059172904  0.7501503628321800  0.4016120728660724
  0.2497068777959299  0.7502303653719622  0.3889727600566815
  0.0995370318944282  0.7503317474239708  0.4023001896606857
  0.1501294868165246  0.7490086107315861  0.4880381632545436
  0.0000386287742273  0.7503996445186871  0.4732897219075838
  0.3510637036003743  0.7502383035468796  0.4870013891603620
  0.4088164318783996  0.7538657057113980  0.5662858784972755
  0.2578751984136929  0.7474273156818967  0.5546091769365162
  0.0972068962591663  0.7474189954270258  0.5698107168816051
  0.4055785209429814  0.7499678525146223  0.2323640836825263
  0.2498254029353220  0.7500858069952017  0.1993167771186961
  0.0942440921088945  0.7500266272786789  0.2327812773836229
  0.1549941870353706  0.8751083617545490  0.3161945915132662
  0.0000023238879336  0.8750231280081948  0.3035396207577037
  0.3449538466110553  0.8750711961131756  0.3161017475098333
  0.4009621713162801  0.8747617577777191  0.4017387349135717
  0.2497252778341164  0.8749244349470402  0.3891890927869994
  0.0994987774663514  0.8751165030797026  0.4022544218176662
  0.1501322114626475  0.8769657656137255  0.4873700753390082
  0.0000965543408924  0.8752065273596088  0.4731409582717205
  0.3524458914346553  0.8751486006971447  0.4875117503239181
  0.4063772998409405  0.8758159929757596  0.5714958150242353
  0.2567295325921606  0.8795998456645009  0.5542477011446536
  0.0976437826502448  0.8772458195366681  0.5694887821686763
  0.4054328644930649  0.8750907254006748  0.2323681984272525
  0.2498445626649612  0.8750378390256941  0.1996915230380836
  0.0943291735717224  0.8751186638075836  0.2328065342175805
  0.1549242246611797  0.5001160220829064  0.3161183919001331
  0.9999940373276743  0.5001605167790260  0.3035715256930160
  0.3450174102568369  0.5000012652218402  0.3160258200021175
  0.4010350281678257  0.5001296102870469  0.4015038416430201
  0.2496831321183706  0.5002104517960007  0.3889023484061056
  0.0995066321897369  0.5003333513858621  0.4022999955115409
  0.1503151661698610  0.4990790344117357  0.4880999883369981
  0.9999907950394515  0.5003747583979674  0.4733025377405014
  0.3510972152069485  0.5004063565113768  0.4868873590109786
  0.4108179372842287  0.5041549250300292  0.5649391397240748
  0.2586759475785669  0.4971404467628133  0.5552480569621636
  0.0975549954555817  0.4976135012456311  0.5698549657140077
  0.9057720652325543  0.0000325482034427  0.2327955901151668
  0.7501793629818039  0.0000664445558485  0.1993639392467301
  0.5945331443097501  0.9999753094600194  0.2323610628243102
  0.6550648776863923  0.1250266397107964  0.3161331476779310
  0.5000263299501242  0.1249995866104854  0.3026649881138894
  0.8450260127860716  0.1250717843708031  0.3161951019937632
  0.9006248793915859  0.1251220591537745  0.4022577052407215
  0.7503626269020884  0.1249659875341109  0.3891737286141677
  0.5989882313123474  0.1247803548509765  0.4017824551613245
  0.6474315388616390  0.1250808764885036  0.4874327781441110
  0.4999596597611955  0.1244656061538052  0.4744177327062786
  0.8499307234232631  0.1268668867403377  0.4874452095338810
  0.9025014036568990  0.1275565257291547  0.5695611852083076
  0.7434343761207245  0.1291951602480879  0.5540364393128314
  0.5939788252418197  0.1257533905289492  0.5713559025538899
  0.9056963077414935  0.1251041382271083  0.2328088592494666
  0.7501825339606327  0.1250320779128913  0.1996834232414813
  0.5946460991115217  0.1250444591579765  0.2323537289480626
  0.6550333896384899  0.2499704699317675  0.3160410964397329
  0.5000184427596466  0.2500057256531392  0.3026334779611162
  0.8450821061974239  0.2500912531836477  0.3161255980028841
  0.9005515182801673  0.2503168651308059  0.4023021808532405
  0.7503573186585797  0.2501728212540826  0.3889135703995734
  0.5990464977575627  0.2500931360606842  0.4015353716874586
  0.6489311187354900  0.2503440338713361  0.4869324803294290
  0.5000072427504776  0.2501576591921193  0.4734340523027427
  0.8496775887694668  0.2490409895713910  0.4880587845646076
  0.9024186356696973  0.2477880990762387  0.5698267327994770
  0.7413158359863630  0.2469541764812035  0.5553482816964390
  0.5890211818608009  0.2540269957495980  0.5649617313655568
  0.9057954228879552  0.2500327189447873  0.2327847837391488
  0.7501821010835030  0.2500672768148249  0.1992462258678316
  0.5945107226619086  0.2499758329916233  0.2323150152342208
  0.6550312140422960  0.3750610011988300  0.3161155449142043
  0.5000235642145938  0.3750232646998981  0.3026707853288286
  0.8450369076402851  0.3750919775192685  0.3161866828664444
  0.9006125660321871  0.3751279418297457  0.4022496111472478
  0.7503476401693661  0.3749710683158156  0.3891244073135951
  0.5989891481094460  0.3748198298587155  0.4017730535450923
  0.6476242781281414  0.3750547010478229  0.4874493558128137
  0.5000533605569260  0.3744865015709351  0.4744703325393118
  0.8498615002695828  0.3768695557203685  0.4874074359955145
  0.9024834701422861  0.3773075384919622  0.5695966517490945
  0.7433603115131575  0.3794197366908634  0.5544717628482374
  0.5937488339851029  0.3759708614203632  0.5713857186016185
  0.9056766061556303  0.3751143716424963  0.2328150500054633
  0.7501712561905549  0.3750531589111574  0.1997839062871805
  0.5946504438043476  0.3750664625655773  0.2323408705447463
  0.6550658968078409  0.9999412681878326  0.3161128458923415
  0.5000357588898297  0.0000070052884951  0.3026428154473777
  0.8450643128263948  0.0000718217348634  0.3161584017160308
  0.9005376810332066  0.0003104726047738  0.4023113467447317
  0.7503855556208237  0.0001114464392771  0.3889494767965687
  0.5990662642247244  0.0000824041994960  0.4016136183046584
  0.6489835307920586  0.0005441506918800  0.4870806954077764
  0.4998840501437769  0.0002362216831457  0.4733326243087674
  0.8495879377558637  0.9990902934347332  0.4880679758384261
  0.9022258805227281  0.9980839312000569  0.5699643480744143
  0.7410198993752957  0.9965011030007460  0.5558623634548638
  0.5888827047754148  0.0039347714201341  0.5651991308488107
  0.9057670824814323  0.5000534210699001  0.2327801094915927
  0.7501782188334900  0.5000697366060507  0.1992510811823891
  0.5944970343978824  0.5000171678378109  0.2323238957502554
  0.6550922140768236  0.6251210226895836  0.3161906353067252
  0.5000255137218801  0.6250341323005557  0.3027370511426426
  0.8449546444881832  0.6251747732784878  0.3162335298504573
  0.9005928625149906  0.6251713085337940  0.4023161040353429
  0.7503030771621937  0.6249417650679021  0.3890864981247830
  0.5988736180099394  0.6249088361651687  0.4019019794432026
  0.6479279438775620  0.6252218995785057  0.4874958298835566
  0.5002235807863471  0.6244500194596583  0.4745265345111633
  0.8497927353354342  0.6268501358047089  0.4875796728446176
  0.9026960408394231  0.6273621836947925  0.5697035801213417
  0.7434397023222061  0.6297623481653645  0.5559776030036829
  0.5933655844852197  0.6269563792199904  0.5714604145969133
  0.9056712132896365  0.6251446361611244  0.2328342896410760
  0.7501916340396590  0.6250765182862068  0.1997579266036382
  0.5946155561237703  0.6251178307358032  0.2324266869387941
  0.6550714130157189  0.7500158614258083  0.3162167549373507
  0.5000376146002594  0.7500520576925283  0.3027576642677303
  0.8450021922547677  0.7500718187612208  0.3162118495059545
  0.9005937950401659  0.7502698514987998  0.4023280215842249
  0.7503620229341976  0.7503336515917098  0.3892412539924237
  0.5990995048727399  0.7500439048772876  0.4017322736386149
  0.6485325065097101  0.7500457861381733  0.4877730943446039
  0.5000231146266643  0.7503094188084773  0.4736340668020773
  0.8498707257222549  0.7490918200933834  0.4879866402874029
  0.9022406952314554  0.7480298247827264  0.5699179109069732
  0.7414382612007060  0.7472915901492101  0.5559759951250456
  0.5880979518313225  0.7534301024859360  0.5662211761964215
  0.9057456140840472  0.7500286334367559  0.2328256497146270
  0.7501722389955319  0.7500756197388156  0.1994430512453107
  0.5945304130121443  0.7499634461075502  0.2324466927547491
  0.6550770327514428  0.8750598197834876  0.3162507321226045
  0.5000453321852802  0.8750073802552194  0.3027493110601469
  0.8449993373555671  0.8750915604085847  0.3162164527450528
  0.9007016229720222  0.8751532909988669  0.4022245697192943
  0.7503854493782498  0.8749466132737140  0.3893775817120400
  0.5990166387163285  0.8747707333164172  0.4019084029851925
  0.6472083512867997  0.8749096945953170  0.4876683362172898
  0.4999018707817555  0.8746298895851226  0.4739033285187233
  0.8501892979283880  0.8768569425296633  0.4873884231236616
  0.9020723079022162  0.8775696355864611  0.5695115187107049
  0.7434789724773125  0.8787285945494858  0.5527436989797465
  0.5949370535522505  0.8745029521047840  0.5716257721842410
  0.9056606701324981  0.8751047636079008  0.2328266434779067
  0.7501829503906237  0.8750309874321545  0.1995772471351245
  0.5946531603781793  0.8750778643251564  0.2324262528652454
  0.6550146649990793  0.5000109681636573  0.3160418303410353
  0.5000301441379520  0.5000501032248863  0.3026401377935244
  0.8450842290109151  0.5001237354434593  0.3161272743456394
  0.9005135217479747  0.5003195209868139  0.4023064490890960
  0.7503242242142250  0.5001707769301049  0.3888567730934440
  0.5990227369288874  0.5000951459435328  0.4015982107947096
  0.6490773198352358  0.5002601369996214  0.4870687414623589
  0.5000482576439396  0.5001023116881029  0.4734488525241431
  0.8496225778557758  0.4990102958749247  0.4880476818971360
  0.9024032537871136  0.4977611998079112  0.5697612228051767
  0.7414970474695792  0.4969189015453921  0.5555243644285781
  0.5889627527301045  0.5044878609197880  0.5648727451009776
  0.1269255066879538  0.0618831256249379  0.5365859418351491
  0.1269840636970372  0.3119511707613967  0.5366729934919192
  0.1270282459089032  0.5618479849719549  0.5366114207350208
  0.1266671267454313  0.8116558910452198  0.5366876580608135
  0.8730241259724849  0.0624523203177247  0.5365656181592513
  0.5000734976802761  0.2608447483692942  0.5363362614465146
  0.8730078838984809  0.3120553383635567  0.5366003930614340
  0.5002070029707326  0.0104682486375509  0.5362239837921265
  0.8729504543630355  0.5621372910899041  0.5365631980554255
  0.4960860485192740  0.7624693963864360  0.5363091032119556
  0.8721949172278158  0.8123312382741332  0.5360761977436042
  0.4997684002713854  0.5107970308232908  0.5363709751948988
  0.5838513324617338  0.7481349259493086  0.6249747214896431
 
  0.00000000E+00  0.00000000E+00  0.00000000E+00
  0.00000000E+00  0.00000000E+00  0.00000000E+00
  0.00000000E+00  0.00000000E+00  0.00000000E+00
  0.00000000E+00  0.00000000E+00  0.00000000E+00
  0.00000000E+00  0.00000000E+00  0.00000000E+00
  0.00000000E+00  0.00000000E+00  0.00000000E+00