Ta  N  W Cu                             
   1.00000000000000     
    18.1096308199999996    0.0000000000000000    0.0000000000000000
     0.0000000000000000   23.3551997799999995    0.0000000000000000
     0.0000000000000000    0.0000000000000000   30.4818171199999988
   Ta   N    W    Cu
   216   240    24     1
Direct
  0.9999837202685598  0.9999957274062865  0.1978771396269821
  0.3343716026225536  0.0624542750724757  0.2033298801977566
  0.1656254112097955  0.0624549301985340  0.2033298641573538
  0.2499992795293906  0.1250064460881433  0.2783947335275627
  0.0826694124880945  0.0624578930597792  0.2846607075610095
  0.4173315363991961  0.0624576620618598  0.2846613413802643
  0.0000274209833790  0.1251597629867476  0.3703559690588349
  0.3325396353396997  0.0624771139567244  0.3690537552193547
  0.1674582585433271  0.0624775893469049  0.3690534117297162
  0.2499999712174414  0.1252657606983689  0.4553417527711261
  0.0836156211380015  0.0626378517999200  0.4553140629650514
  0.4163824279456279  0.0626381431251417  0.4553137470922124
  0.9999711923156411  0.1284016674542201  0.5416562860436187
  0.3353658078850330  0.0631783228742009  0.5428006715919054
  0.1646285767960549  0.0631781736399972  0.5428014090626831
  0.9999853922701334  0.1248337792041667  0.1977220106297892
  0.3340867121292490  0.1872676840250023  0.2030368443608737
  0.1659112126732722  0.1872679371399215  0.2030372663250546
  0.2499988995803264  0.2499724804726284  0.2779731362410587
  0.0826867572718513  0.1874252605644813  0.2842566784698022
  0.4173107066044537  0.1874249575726594  0.2842563810229422
  0.9999978998637573  0.2502156815029721  0.3697679665546048
  0.3326921111534489  0.1875003460596147  0.3685531361102221
  0.1673051579870375  0.1875001506992646  0.3685527298047973
  0.2499973490526131  0.2505971700801695  0.4542501441392304
  0.0838307968960166  0.1878821627161358  0.4547812239412039
  0.4161656132522680  0.1878810683759937  0.4547825350173653
  0.9998009323310981  0.2526128379967005  0.5409160986798867
  0.9999907078447094  0.2498572011690285  0.1973871968441188
  0.3340446052742863  0.3123467826320550  0.2026684789212183
  0.1659525986754105  0.3123469548741937  0.2026686802585829
  0.2499993234344373  0.3749926126448884  0.2776545852053829
  0.0826410282899985  0.3124310945176347  0.2838408616719477
  0.4173583219460397  0.3124276513777531  0.2838402643302729
  0.9999254563529973  0.3751459447885495  0.3694260421227256
  0.3327287475118226  0.3125612328294949  0.3680774412464487
  0.1672684596965794  0.3125608939901028  0.3680775982871793
  0.2499982402400676  0.3753474099816785  0.4538341054942450
  0.0836134793961492  0.3129288122017329  0.4542651002627878
  0.4163811098804473  0.3129276208627374  0.4542648640794056
  0.0001623698788649  0.3758153779548863  0.5409699430085055
  0.0000120108948494  0.3749174859080711  0.1970489052707194
  0.3342838921349838  0.4373874070523200  0.2024580512117069
  0.1657157817961092  0.4373881105626651  0.2024591834496121
  0.2499990413499020  0.9999985354665526  0.2786551435090914
  0.0826378929612090  0.4374861989361776  0.2836493692784572
  0.4173585571263914  0.4374858688608043  0.2836487569064587
  0.0000279592792722  0.0000001191381003  0.3706579431457868
  0.3327716402227168  0.4375530155083212  0.3678964486873681
  0.1672273925467209  0.4375535466080365  0.3678954176041245
  0.2499971751569134  0.9999998149090388  0.4559795471851587
  0.0835542187156832  0.4377067409583120  0.4541592508465655
  0.4164418563527619  0.4377065930119812  0.4541640310010138
  0.0000235938505639  0.0000107359073098  0.5415373696933727
  0.9999994644533317  0.4999988854526123  0.1969501512169813
  0.3342830046393743  0.5626115109756213  0.2024584848365691
  0.1657160467195666  0.5626112400254897  0.2024585870621536
  0.2499990900119613  0.6250097100558278  0.2776578747878133
  0.0826358147420621  0.5625133215504405  0.2836503215689916
  0.4173609413250077  0.5625128088142972  0.2836497689527846
  0.9999188409168909  0.6248501580569084  0.3694262023768857
  0.3327722094658228  0.5624460050621209  0.3678952314173998
  0.1672267008453048  0.5624466413065221  0.3678935207896572
  0.2499989895306740  0.6246498116603405  0.4538357507909296
  0.0835556865129234  0.5622946123057346  0.4541588225430715
  0.4164405681429955  0.5622932610042000  0.4541633477053182
  0.0001769076821532  0.6241713007711240  0.5409699548263518
  0.0000091749501294  0.6250826681206689  0.1970515488029818
  0.3340400695585473  0.6876471651103557  0.2026717487099106
  0.1659529770064267  0.6876519772396747  0.2026720529752737
  0.2499993514158874  0.7500258609832926  0.2779734767099171
  0.0826402013576910  0.6875711824604878  0.2838402575029093
  0.4173566224628260  0.6875721136154738  0.2838397531460970
  0.9999954295760674  0.7497846697202917  0.3697654580201899
  0.3327294324896215  0.6874391704149971  0.3680780877376009
  0.1672678254444193  0.6874372971932203  0.3680778928271451
  0.2499971900245583  0.7494039305661246  0.4542490028430279
  0.0836129118300448  0.6870719106751366  0.4542647435449325
  0.4163833653293381  0.6870724307072038  0.4542642404933872
  0.9998108262688348  0.7474106709726556  0.5409165798787896
  0.9999903477266372  0.7501462055037251  0.1973892330596883
  0.3340892588899322  0.8127322259447425  0.2030383823992636
  0.1659090557479814  0.8127314479842838  0.2030387545312351
  0.2499991498122256  0.8749899126584353  0.2783951307897468
  0.0826828419113426  0.8125759503818912  0.2842567054487830
  0.4173149614695859  0.8125769699219632  0.2842569795262477
  0.0000262489977985  0.8748390939040576  0.3703543852502165
  0.3326926184855452  0.8124995973170215  0.3685518580905622
  0.1673060871083933  0.8124999961096577  0.3685511048749888
  0.2500169886870012  0.8747369414538113  0.4553470145558904
  0.0838300312623232  0.8121187923573387  0.4547815718034158
  0.4161670561322595  0.8121215649184279  0.4547832617997329
  0.9999657969287341  0.8715793842927582  0.5416590849219460
  0.9999847936121000  0.8751657745368533  0.1977210156494635
  0.3343720312477743  0.9375465521296462  0.2033307403590427
  0.1656245534845127  0.9375464062240155  0.2033307614936888
  0.2499993519735995  0.5000015075492072  0.2776459232899029
  0.0826736735988192  0.9375358992245140  0.2846628642818061
  0.4173243069323789  0.9375362819618331  0.2846624926052783
  0.9998721730666063  0.5000022203455927  0.3693395762224654
  0.3325409615443746  0.9375222438991102  0.3690537402701466
  0.1674570338918144  0.9375220479371151  0.3690531867263189
  0.2499986519196113  0.4999980599974236  0.4537622670539392
  0.0836152291564503  0.9373630733990339  0.4553149135435106
  0.4163826724113591  0.9373615143718936  0.4553155368846760
  0.9999427973015713  0.5000055096704727  0.5412721190208956
  0.3353693726705771  0.9368238049868580  0.5428021335588085
  0.1646315097517643  0.9368224728593972  0.5428007537551665
  0.5000138773861877  0.9999973152559107  0.1978766103063876
  0.8343861909522019  0.0624527861378610  0.2033251031306875
  0.6656087216457252  0.0624534551200995  0.2033237256706641
  0.7499988434045832  0.1250361283874781  0.2784052866667253
  0.5826723524381592  0.0624763540678330  0.2846625558730764
  0.9173241442796183  0.0624759359562077  0.2846625427692757
  0.4999705761621698  0.1251592995395399  0.3703556895695854
  0.8325427355716783  0.0624653243326989  0.3690256601031976
  0.6674537584177216  0.0624651268454173  0.3690259886378016
  0.7499823267676859  0.1251811639749363  0.4553157065050826
  0.5835300582993384  0.0626074089185025  0.4552792744923266
  0.9164669323669585  0.0626067723264754  0.4552793438093445
  0.5000286126937539  0.1284030979846307  0.5416582068453195
  0.8353702038140298  0.0631161137382108  0.5427575115647230
  0.6646281624194046  0.0631167455835495  0.5427565362176807
  0.5000126371343256  0.1248339913321601  0.1977218982711832
  0.8340915051503259  0.1872709219512316  0.2030610472982133
  0.6659048696268002  0.1872701261702758  0.2030609959522849
  0.7499994867912037  0.2500482636987229  0.2780581085645366
  0.5826421442500234  0.1874373340973108  0.2842856165238459
  0.9173544809539820  0.1874368741672114  0.2842854784623228
  0.4999987147781439  0.2502174827394796  0.3697654930149241
  0.8326591256005642  0.1874753760483756  0.3685351115495763
  0.6673379438168965  0.1874748556253820  0.3685350229672082
  0.7499997992036356  0.2504372847603520  0.4542654810725466
  0.5838056711194142  0.1877827935436969  0.4547260616998940
  0.9161899688822217  0.1877859783777680  0.4547265780897405
  0.5001927101286867  0.2526071706949651  0.5409150218212702
  0.5000062824367006  0.2498568846365927  0.1973873107994137
  0.8340359293870918  0.3123738919316281  0.2027005025106661
  0.6659612971800968  0.3123740472706089  0.2027007695738661
  0.7499988043768440  0.3750257539959279  0.2777633537085507
  0.5825480206387894  0.3124412507891137  0.2838872655688931
  0.9174489411878071  0.3124414198414343  0.2838877293245474
  0.5000706756998241  0.3751461558187117  0.3694264467936037
  0.8325981913846618  0.3125281904365877  0.3680622994704166
  0.6673984193824651  0.3125280549128817  0.3680619517873041
  0.7500117126134995  0.3751751981623812  0.4539322237345544
  0.5835521231832743  0.3127764929206691  0.4541699745338619
  0.9164400865553901  0.3127774780224470  0.4541697777040028
  0.4998565265287453  0.3758227677106092  0.5409746797254371
  0.4999858224484655  0.3749196418511076  0.1970484135236532
  0.8342535331125376  0.4373931518849332  0.2024914390344890
  0.6657432348749879  0.4373934721654109  0.2024914277871090
  0.7499982809371986  0.0000001968752059  0.2786565959084015
  0.5825407490889347  0.4374905577304204  0.2837194194322734
  0.9174546888241721  0.4374901599398626  0.2837210123787912
  0.4999682457114076  0.9999986506024001  0.3706572873512286
  0.8325961409088691  0.4375391261640047  0.3678976347613059
  0.6673955322316516  0.4375382704499202  0.3678963840294784
  0.7500004703657552  0.9999989655917574  0.4559566322073536
  0.5839208804205711  0.4376396135106333  0.4541775994430282
  0.9160653896284714  0.4376389215608469  0.4541723047076474
  0.4999728071492484  0.0000130016739419  0.5415363428571567
  0.4999987220474864  0.4999978447251081  0.1969492784729354
  0.8342572721389558  0.5626112883342600  0.2024938501476328
  0.6657398414820292  0.5626109976142288  0.2024938300035117
  0.7499982725762777  0.6249812471912719  0.2777599719767423
  0.5825347893064077  0.5625081433388530  0.2837232318583958
  0.9174599512408577  0.5625096572563564  0.2837247886754000
  0.5000773574815298  0.6248496206807843  0.3694275018414146
  0.8326019096365940  0.5624647485026912  0.3678958330609206
  0.6673881041159859  0.5624643784445524  0.3678948011325360
  0.7500150563363519  0.6248139523231941  0.4539412523530828
  0.5839231073471112  0.5623528754659262  0.4541967101011792
  0.9160600883565024  0.5623569390859799  0.4541912262376329
  0.4998350934736706  0.6241582580608593  0.5409743148237354
  0.4999881073233325  0.6250827340529881  0.1970511463643021
  0.8340346065171644  0.6876277241680313  0.2026983870056185
  0.6659611493981998  0.6876275315593290  0.2026988284569669
  0.7499972486575714  0.7499520712260335  0.2780572172443243
  0.5825554242234858  0.6875565946343940  0.2838859287406450
  0.9174410799741750  0.6875569792821707  0.2838852492326325
  0.5000017804389429  0.7497851729250655  0.3697654004880064
  0.8325978199298163  0.6874732233955996  0.3680646830515499
  0.6674000628688930  0.6874718159181583  0.3680637562414830
  0.7499971337875593  0.7495675488933173  0.4542694974889656
  0.5835660990135949  0.6872160347030984  0.4541755099448181
  0.9164267763667695  0.6872170679138421  0.4541762866535279
  0.5001855706132829  0.7474136382368357  0.5409169103393197
  0.5000074205462042  0.7501470275423472  0.1973894975410957
  0.8340904648963487  0.8127292413235381  0.2030605501564509
  0.6659044900295612  0.8127290366898663  0.2030605494984812
  0.7499977807896911  0.8749613493650301  0.2784027672121496
  0.5826433805727760  0.8125630549011404  0.2842843360400380
  0.9173526503252134  0.8125648186837822  0.2842840543441625
  0.4999701731875916  0.8748384983788640  0.3703543392431641
  0.8326575008487040  0.8125251537917393  0.3685361501081132
  0.6673384225345700  0.8125247841052712  0.3685365626248114
  0.7499979413582025  0.8748173101312062  0.4553191143166444
  0.5838061673119128  0.8122147457642370  0.4547279796832910
  0.9161885659449709  0.8122133615687872  0.4547282014188099
  0.5000291133734720  0.8715765163071083  0.5416606621073967
  0.5000125261899413  0.8751663039404818  0.1977209685856920
  0.8343862500237123  0.9375498239078510  0.2033249994463660
  0.6656203411698343  0.9375393791576201  0.2033237820449827
  0.7499982813856931  0.5000010633792229  0.2777906459468156
  0.5826656955801894  0.9375302599460085  0.2846620547054712
  0.9173312219929812  0.9375309092479682  0.2846619384081350
  0.5001268259629512  0.5000021764898932  0.3693404480365743
  0.8325426266662035  0.9375335066525352  0.3690247341265476
  0.6674527304274918  0.9375331372292592  0.3690252286196412
  0.7499915932911136  0.5000087047685327  0.4537830928190445
  0.5835320047573376  0.9373933324657528  0.4552792788735047
  0.9164658322604637  0.9373934354942151  0.4552791078252625
  0.5001146789727073  0.5000031939795804  0.5413028752705529
  0.8353732490803196  0.9368907217845219  0.5427599099534746
  0.6646225549044757  0.9368897080335969  0.5427597178659482
  0.4059125791609972  0.0000007783817111  0.2330168454835260
  0.2499977562528315  0.9999997293602760  0.2009570576226878
  0.0940873961708704  0.0000005022577909  0.2330178671225056
  0.1548959402072683  0.1249445375019036  0.3163112263267962
  0.0000252370382157  0.1250059456661248  0.3036893212285108
  0.3451023228586720  0.1249443456946082  0.3163113880780912
  0.4009825720333708  0.1251589172204106  0.4029352001643360
  0.2499985577255472  0.1250421388051279  0.3877558869478079
  0.0990141275658942  0.1251588063978559  0.4029348435841698
  0.1523403788182094  0.1258829366445653  0.4883202729763241
  0.0000321166311039  0.1258886176242129  0.4739085013130264
  0.3476549771216355  0.1258822923449046  0.4883202749797704
  0.4005352952285293  0.1296197933214955  0.5700290200945233
  0.2499979704429549  0.1309238989664863  0.5581650312292652
  0.0994599892751538  0.1296192564101588  0.5700295327760330
  0.4058760312110792  0.1248644793598785  0.2327806535130605
  0.2499983016823464  0.1247355643958628  0.1999893210458339
  0.0941217211206720  0.1248646234349593  0.2327806289259797
  0.1548463686435468  0.2499795246093655  0.3158250342590208
  0.0000462675691608  0.2500107005053422  0.3031992189518533
  0.3451513430832733  0.2499797399705130  0.3158249408136626
  0.4010609643825518  0.2503107013969199  0.4024389174379266
  0.2499985312818751  0.2500977049761062  0.3870011851929078
  0.0989356401319696  0.2503114883736899  0.4024389568099167
  0.1529740231986096  0.2509360094805402  0.4874707817320285
  0.9999908221327232  0.2507740172869362  0.4733758490163211
  0.3470212825232721  0.2509359626411438  0.4874708291939740
  0.3987687972980396  0.2522357217148183  0.5687194734454906
  0.2499996926343897  0.2533964251161862  0.5577225621040895
  0.1012258253414657  0.2522367721300540  0.5687208238436483
  0.4058022542970221  0.2498287566922741  0.2323506928646069
  0.2499981471573847  0.2497657866404879  0.1995666132511076
  0.0941951910265857  0.2498287293930304  0.2323508730942763
  0.1548059178292647  0.3750047088895840  0.3155285253992801
  0.0000517010954368  0.3750102882526036  0.3028894729192331
  0.3451930023892800  0.3750052567979694  0.3155284155547164
  0.4011836243113081  0.3752480744151967  0.4021576411452870
  0.2499987539324380  0.3751008379611349  0.3866356609439521
  0.0988145508523388  0.3752479573308136  0.4021565982748854
  0.1530479132662137  0.3755516183346614  0.4870932018858980
  0.9999436122755725  0.3754810537237603  0.4733093486757483
  0.3469475656200913  0.3755514282249592  0.4870939715663312
  0.3982338335384341  0.3760295669248137  0.5685584902394112
  0.2500012662630979  0.3764061046153202  0.5572769192134359
  0.1017779155361254  0.3760310009990349  0.5685603737114633
  0.4058257554834128  0.3748908539161420  0.2320606537312671
  0.2499988392334700  0.3749537958305353  0.1992538087888462
  0.0941724690893722  0.3748906122790743  0.2320605965367832
  0.1549006248643607  0.9999989374824878  0.3165673726253146
  0.0000128458388744  0.0000005737086894  0.3039276425850232
  0.3450974733157537  0.9999992075101574  0.3165672891009663
  0.4009309794718590  0.9999994371902972  0.4031641375828698
  0.2499987065544502  0.9999997443952822  0.3881634722056546
  0.0990684738824967  0.9999990429946308  0.4031654829247557
  0.1517371558631027  0.0000001826904636  0.4886453031221194
  0.0000340762403113  0.9999999871806438  0.4736609155494165
  0.3482610586310315  0.0000005964147576  0.4886451824799991
  0.4025242654307419  0.0000018346608499  0.5707589779544406
  0.2499980298439581  0.9999996328428722  0.5585030921813683
  0.0974703863525690  0.0000012388971982  0.5707598587627274
  0.4058539860719534  0.5000002856630417  0.2320131598064989
  0.2500000880305464  0.5000028759209343  0.2001310660537499
  0.0941430215982706  0.4999992728857663  0.2320142780092098
  0.1548035179900822  0.6249936834991274  0.3155286628737812
  0.0000482669708930  0.6249922505534329  0.3028907024347873
  0.3451950017579222  0.6249928621532206  0.3155290179468082
  0.4011886284139337  0.6247510487881840  0.4021570639262038
  0.2499972482727202  0.6248984922165377  0.3866354114098129
  0.0988080626775627  0.6247519458921218  0.4021557830096114
  0.1530480178834921  0.6244475735317465  0.4870940207925756
  0.9999372624755409  0.6245199127965577  0.4733101973518714
  0.3469483776997606  0.6244484858277204  0.4870949033770060
  0.3982301493677198  0.6239628917939157  0.5685600301891611
  0.2500033035849185  0.6236050178320340  0.5572764845654135
  0.1017749851863954  0.6239628277526563  0.5685617783077603
  0.4058258438042159  0.6251063910495134  0.2320625014768751
  0.2499993700003245  0.6250413490176925  0.1992548620131558
  0.0941712238336265  0.6251054146505268  0.2320627785069007
  0.1548459482927314  0.7500224745486719  0.3158228828787983
  0.0000422583154460  0.7499859406782363  0.3031988998563619
  0.3451514211119004  0.7500210920417842  0.3158232579019113
  0.4010647612773113  0.7496901729350043  0.4024363173738621
  0.2499988227190784  0.7499023903680921  0.3870018065444327
  0.0989301589008704  0.7496915339360939  0.4024370801196753
  0.1529753638360987  0.7490630963124616  0.4874699392426294
  0.9999896058655153  0.7492246146875345  0.4733760575619357
  0.3470232343799040  0.7490649621083563  0.4874704307439117
  0.3987713934126731  0.7477732663357557  0.5687226825770537
  0.2500008012003150  0.7465987142671864  0.5577181823188511
  0.1012286475472237  0.7477705051318395  0.5687221312931996
  0.4058038243578750  0.7501697707707109  0.2323509406526227
  0.2499979108603085  0.7502316330717136  0.1995737472312626
  0.0941960802432291  0.7501681986985034  0.2323497744241294
  0.1548961920600718  0.8750556783282377  0.3163100226061957
  0.0000208627741287  0.8749972597001943  0.3036885464244605
  0.3451016812350574  0.8750557557340457  0.3163098793911772
  0.4009846581024874  0.8748418408028797  0.4029346774491458
  0.2499976696579864  0.8749589494110666  0.3877548038605738
  0.0990130123430077  0.8748421807892086  0.4029341900810408
  0.1523375286994266  0.8741199866749554  0.4883211523544162
  0.0000319832811968  0.8741143575510861  0.4739096565048015
  0.3476466649770842  0.8741204100538624  0.4883175663118493
  0.4005323464288253  0.8703801700815319  0.5700318181872461
  0.2499978888288084  0.8690780861478871  0.5581666821250479
  0.0994640639290481  0.8703801041442745  0.5700300366052602
  0.4058774366145812  0.8751375433629889  0.2327820650529802
  0.2499971243744596  0.8752625531409564  0.1999963226743802
  0.0941208021381215  0.8751369117805154  0.2327817214950159
  0.1547025159581779  0.4999990295665384  0.3154709949173622
  0.0000464354347045  0.4999977405096274  0.3028250546586477
  0.3452970038822016  0.4999986961899836  0.3154715230262610
  0.4012353643380067  0.5000012869371844  0.4021140861728583
  0.2499988465475980  0.5000000376883946  0.3865828485431706
  0.0987630905697330  0.5000018205345853  0.4021097843307757
  0.1530349338893373  0.4999990147846916  0.4870804102055502
  0.9998473634245713  0.5000013486048900  0.4736053218423208
  0.3469614866696773  0.4999976254844398  0.4870810331247313
  0.3983789994006841  0.4999973147017442  0.5686596537302862
  0.2500066518062951  0.5000037678944054  0.5572673578261345
  0.1016575476071466  0.4999979604711626  0.5686672303798588
  0.9059044456617400  0.0000033336422476  0.2330249934890460
  0.7499986640586513  0.0000013428767502  0.2009965115575554
  0.5940936851048448  0.0000033798882839  0.2330259379750999
  0.6548658885307859  0.1249462355392197  0.3163062923196662
  0.4999723193261261  0.1250057244592284  0.3036889540941203
  0.8451311778022443  0.1249461055245860  0.3163062026246450
  0.9010049527684316  0.1251067289983112  0.4028921880374341
  0.7499998507552377  0.1250123763400666  0.3877342417542238
  0.5989917819576078  0.1251038524214820  0.4028907234719838
  0.6522837456662742  0.1257572075757949  0.4882478136237438
  0.4999636445399958  0.1258859162196728  0.4739085899643527
  0.8477245475010093  0.1257578777400781  0.4882520792966929
  0.9005325651329557  0.1293430852784567  0.5700528051828400
  0.7500007851424186  0.1305881708786742  0.5581129555569433
  0.5994683178858153  0.1293402122140179  0.5700525922326065
  0.9058736480691891  0.1248745605861572  0.2327989835965454
  0.7499990315535427  0.1247511804919554  0.1999960051022853
  0.5941238507926698  0.1248753475568023  0.2327993592822537
  0.6547549470529432  0.2499853573599040  0.3158420323915294
  0.4999504358121598  0.2500106577768264  0.3031996094113296
  0.8452424017076368  0.2499855054382394  0.3158424441958090
  0.9010091567328544  0.2502430578076371  0.4024193430011564
  0.7499976971131801  0.2500472778008458  0.3870068458319196
  0.5989878161340343  0.2502432147940752  0.4024190661127278
  0.6529479433287690  0.2507181751466376  0.4874748123507544
  0.5000041638576675  0.2507717501796591  0.4733740689807888
  0.8470407899302259  0.2507253861754890  0.4874756009882333
  0.8984962610723883  0.2517604031000076  0.5689256955774482
  0.7499982482260208  0.2527824161623471  0.5578049902809141
  0.6014959844123027  0.2517491286182576  0.5689266380054292
  0.9058138160904008  0.2498493632246479  0.2323778263012599
  0.7499988034265286  0.2497852136993970  0.1996899412187574
  0.5941835997393667  0.2498490782610290  0.2323775541244899
  0.6547029100495081  0.3750039835905312  0.3155610183134812
  0.4999461841264505  0.3750100938146232  0.3028890115741518
  0.8452954852299328  0.3750045128678039  0.3155614897677594
  0.9009894870200057  0.3751982904998741  0.4021732465969805
  0.7499966304395471  0.3750855107036060  0.3866978595226058
  0.5990052631267559  0.3751979748373913  0.4021742608188461
  0.6529969231526067  0.3749070195847466  0.4871593847695195
  0.5000531310224048  0.3754821072777901  0.4733129648014014
  0.8469974445937751  0.3749067805343174  0.4871582747657399
  0.8983384150373865  0.3753862881188468  0.5690302517515988
  0.7500118791391444  0.3755559556086467  0.5580277434930920
  0.6016932635697714  0.3753688403985080  0.5690303755583770
  0.9058561750920475  0.3749127620756525  0.2320981888427269
  0.7499992112735043  0.3749659840500001  0.1992872459010968
  0.5941421186652249  0.3749123431268515  0.2320983469451647
  0.6548919514647906  0.0000003693630433  0.3165563395906403
  0.4999851915073847  0.0000010149276903  0.3039250540424234
  0.8451050210133957  0.0000004044988771  0.3165559591762701
  0.9009726972012828  0.0000000644384031  0.4031346733826240
  0.7499978580453472  0.9999993445778301  0.3881431889823972
  0.5990241444720183  0.9999992093362380  0.4031336601101074
  0.6516929044061470  0.0000004273699261  0.4885822009369036
  0.4999637464665341  0.0000003659806964  0.4736600276903218
  0.8483033235507165  0.9999995856080162  0.4885832121330722
  0.9026126198038682  0.0000028459477406  0.5707471945927338
  0.7499995300956641  0.0000026483169009  0.5584660142177356
  0.5973851811254036  0.0000059121117246  0.5707445363255630
  0.9058683532178691  0.4999998489309121  0.2320601864796998
  0.7499997070904953  0.5000097820683536  0.2002869463185917
  0.5941286172932934  0.4999995431596531  0.2320600187001673
  0.6547046592632668  0.6249914588698076  0.3155634723862875
  0.4999474689823344  0.6249909436785117  0.3028909785396934
  0.8452907198639110  0.6249931649320857  0.3155630124423894
  0.9009804518386559  0.6247981338778317  0.4021822691323038
  0.7499964447804857  0.6249132250850735  0.3867068772386872
  0.5990134132768006  0.6247958524655530  0.4021839645456851
  0.6530040284040197  0.6250744302905176  0.4871833939003949
  0.5000586243850691  0.6245176419539860  0.4733122113935551
  0.8469867970646234  0.6250777634981191  0.4871839320139131
  0.8983553550716366  0.6246119973675590  0.5690368415221343
  0.7500096023959770  0.6243839032204406  0.5580804044820482
  0.6016653541686239  0.6246300230105817  0.5690419346988733
  0.9058524924842644  0.6250886652806784  0.2321002434204544
  0.7499994706265483  0.6250365589498585  0.1992868110120085
  0.5941445511849679  0.6250876066431914  0.2321000425690372
  0.6547555597021884  0.7500160925426371  0.3158427825526005
  0.4999555016563946  0.7499848856583284  0.3031996217866251
  0.8452394346299315  0.7500172759613477  0.3158426774479750
  0.9010082636909402  0.7497570925426373  0.4024206434493323
  0.7499981452288296  0.7499537326892920  0.3870124137805675
  0.5989876265661067  0.7497570349332392  0.4024207224480278
  0.6529518391515552  0.7492777245793505  0.4874794619354645
  0.5000076431068052  0.7492245813243130  0.4733771712540573
  0.8470405714733076  0.7492746380931621  0.4874812871327379
  0.8985013164556932  0.7482416584385518  0.5689315131855395
  0.7499973719615554  0.7472136145443073  0.5578160219206509
  0.6014965589954002  0.7482462820786324  0.5689312381835379
  0.9058105421761837  0.7501509852957327  0.2323757152662793
  0.7499987194102786  0.7502124588199806  0.1996871445680100
  0.5941860330098905  0.7501489482579302  0.2323772748126629
  0.6548663496838927  0.8750534721273411  0.3163048747263844
  0.4999757240178582  0.8749970730373633  0.3036884951026551
  0.8451296426250536  0.8750536818505665  0.3163041459292160
  0.9010045337017658  0.8748933957473000  0.4028919156904252
  0.7499983315714616  0.8749889273265197  0.3877346909350834
  0.5989917855106413  0.8748945255795633  0.4028916310986403
  0.6522786967380156  0.8742437611774747  0.4882532087436431
  0.4999652630550599  0.8741161084358851  0.4739106298467206
  0.8477194818709108  0.8742433017738804  0.4882531958890013
  0.9005335422598151  0.8706606309631937  0.5700540924481032
  0.7499992242301943  0.8694136659223162  0.5581150408523214
  0.5994662420628813  0.8706614051519779  0.5700534957752268
  0.9058724042783837  0.8751255005238505  0.2327980561741470
  0.7499984249562957  0.8752495743133295  0.2000006248148125
  0.5941241216147048  0.8751254527138457  0.2327987264689071
  0.6545931834278207  0.5000030985902626  0.3155138404654636
  0.4999510865379619  0.4999972956481855  0.3028245667275229
  0.8454013894005570  0.5000030784924689  0.3155136838320587
  0.9009361634867261  0.5000022069812786  0.4022157393323553
  0.7499924335612249  0.5000038487945204  0.3866000386108297
  0.5990563091002912  0.5000017930035696  0.4022214726840900
  0.6534279430296834  0.4999979351339832  0.4875479786489691
  0.5001536100325410  0.4999994846944986  0.4736306343742172
  0.8465650485124172  0.4999973859048552  0.4875246365589874
  0.8980654700816473  0.4999599508968728  0.5691463113908029
  0.7501038242603570  0.4997051853932817  0.5582729823544952
  0.6020504633117483  0.4999526224957904  0.5692245406434893
  0.3348810495278798  0.1888528730004779  0.5402000033267385
  0.1651129268039782  0.1888519848046499  0.5402012488576773
  0.3345619829666262  0.3133474610441169  0.5394359458845699
  0.1654365306655805  0.3133500154581554  0.5394371303060694
  0.3344950855743107  0.4378684064519263  0.5392722305372715
  0.1655193946192242  0.4378715230824284  0.5392724550898151
  0.3344856843381407  0.5621326665412667  0.5392677653849205
  0.1655228052013129  0.5621280185720607  0.5392715304142257
  0.3345657514508460  0.6866558499705633  0.5394359121929568
  0.1654368214800570  0.6866533845576583  0.5394361690086811
  0.3348803125048860  0.8111529652097644  0.5401990702801953
  0.1651171464876739  0.8111508755530323  0.5401991701555673
  0.8348393716973703  0.1885688078507144  0.5401777241272683
  0.6651564394316409  0.1885616237758185  0.5401757445064703
  0.8343752303889431  0.3128280948333426  0.5395099115988415
  0.6656138606350552  0.3128154917342911  0.5395099071704550
  0.8361160477640155  0.4363776454038160  0.5392870078887100
  0.6639606921999928  0.4363442981781702  0.5392826496967160
  0.8361303340145767  0.5635705308379713  0.5393326312373574
  0.6639552291039692  0.5636115627949465  0.5393303069785276
  0.8343879700520134  0.6871721404429110  0.5395221031276165
  0.6656025888648642  0.6871821501149071  0.5395270168400543
  0.8348348328938329  0.8114331364013765  0.5401814684339286
  0.6651642484654019  0.8114401064452039  0.5401793603790139
  0.7479882782073872  0.5026265449427854  0.6183561761653209
 
  0.00000000E+00  0.00000000E+00  0.00000000E+00
  0.00000000E+00  0.00000000E+00  0.00000000E+00
  0.00000000E+00  0.00000000E+00  0.00000000E+00
  0.00000000E+00  0.00000000E+00  0.00000000E+00
  0.00000000E+00  0.00000000E+00  0.00000000E+00
  0.00000000E+00  0.00000000E+00  0.00000000E+00