Ta  N Ru Cu                             
   1.00000000000000     
    18.1096308199999996    0.0000000000000000    0.0000000000000000
     0.0000000000000000   23.3551997799999995    0.0000000000000000
     0.0000000000000000    0.0000000000000000   30.4818171199999988
   Ta   N    Ru   Cu
   228   240    12    29
Selective dynamics
Direct
  0.0000000000000000  0.0000718856546769  0.1971343718284118   F   F   F
  0.3342926847814240  0.0624132518977021  0.2026937805440667   F   F   F
  0.1663206548061567  0.0625684459108768  0.2026879703893130   F   F   F
  0.2502067873593177  0.1250918040142253  0.2779408447657588   F   F   F
  0.0826029581595549  0.0626929404336494  0.2836274496812337   F   F   F
  0.4173382514782702  0.0622475047871944  0.2840383744896471   F   F   F
  0.0025126844864259  0.1253993888625272  0.3707191772295352   T   T   T
  0.3309445251160110  0.0615834326940845  0.3670462632178735   T   T   T
  0.1605919036707479  0.0636126749067620  0.3685876598361083   T   T   T
  0.2499987137129738  0.1306362321383222  0.4532515678659176   T   T   T
  0.0813381758840346  0.0629992243678255  0.4551150370826474   T   T   T
  0.4114559184321561  0.0636382010388207  0.4537762389838635   T   T   T
  0.0179738893065654  0.1273263890800347  0.5424392932559078   T   T   T
  0.3271233781017800  0.0630471905415751  0.5457274946437444   T   T   T
  0.0000000000000000  0.1251997475754436  0.1971274192404451   F   F   F
  0.3343369412500081  0.1874555756944787  0.2027209845130571   F   F   F
  0.1662604173406379  0.1876312578509030  0.2027221982441247   F   F   F
  0.2501999816055047  0.2498887646067161  0.2779024730234809   F   F   F
  0.0825727650861410  0.1876830281330939  0.2837096283809757   F   F   F
  0.4172972896996328  0.1872504991250779  0.2840867748275429   F   F   F
  0.9977480546462087  0.2498717864353688  0.3719511659134660   T   T   T
  0.3304822919047518  0.1885273123119582  0.3690663412099077   T   T   T
  0.1683037380250529  0.1884580168465323  0.3703826512190280   T   T   T
  0.2484591242155277  0.2518563267155846  0.4585673984530753   T   T   T
  0.0778557507623337  0.1875118969073025  0.4555509123420010   T   T   T
  0.4109772233583405  0.1871806079898024  0.4526746504460297   T   T   T
  0.9736258753342421  0.2427600340772740  0.5434733134057341   T   T   T
  0.3380951515173627  0.1824839972544275  0.5423168655752075   T   T   T
  0.1802511937086364  0.1890251986095037  0.5370980663480815   T   T   T
  0.0000000000000000  0.2500718858687634  0.1971343718284118   F   F   F
  0.3342926847814240  0.3124132516836227  0.2026937805440667   F   F   F
  0.1663206548061567  0.3125684456967974  0.2026879703893130   F   F   F
  0.2502067873593177  0.3750918042283047  0.2779408447657588   F   F   F
  0.0826029581595549  0.3126929402195699  0.2836274496812337   F   F   F
  0.4173382514782702  0.3122475045731150  0.2840383744896471   F   F   F
  0.9933153340828154  0.3779228519795221  0.3701527026794231   T   T   T
  0.3295665482707059  0.3107173168617876  0.3682215348384258   T   T   T
  0.1639572343377301  0.3126652189351961  0.3705415494554491   T   T   T
  0.2513948126912857  0.3771227120453058  0.4510722015727768   T   T   T
  0.0811405077153440  0.3137284612550367  0.4578143259462195   T   T   T
  0.4151171445473203  0.3138036568774644  0.4565916211072050   T   T   T
  0.9843986771008377  0.3749396618710911  0.5423916470589819   T   T   T
  0.3271574793437056  0.3131342403540729  0.5445482911730448   T   T   T
  0.0000000000000000  0.3751997477895301  0.1971274192404451   F   F   F
  0.3343369412500081  0.4374555759085652  0.2027209845130571   F   F   F
  0.1662604173406379  0.4376312580649895  0.2027221982441247   F   F   F
  0.2501999816055047  0.9998887643926295  0.2779024730234809   F   F   F
  0.0825727650861410  0.4376830283471804  0.2837096283809757   F   F   F
  0.4172972896996328  0.4372504993391644  0.2840867748275429   F   F   F
  0.9987271886374484  0.0017817444224409  0.3692950544158915   T   T   T
  0.3320709598607681  0.4422894665712972  0.3682805231517436   T   T   T
  0.1639320290562466  0.4392216285113496  0.3681687509503644   T   T   T
  0.2447294946228227  0.0009085982637421  0.4549161109029988   T   T   T
  0.0804554725801616  0.4373031484831749  0.4539392753457764   T   T   T
  0.4139852437391695  0.4394078451973547  0.4506670218468231   T   T   T
  0.9927675595081323  0.9961842317405364  0.5454899811234576   T   T   T
  0.3348266367137003  0.4384088593292562  0.5398085968344901   T   T   T
  0.1705583742573436  0.4362049416365052  0.5407631208771481   T   T   T
  0.0000000000000000  0.5000718856546769  0.1971343718284118   F   F   F
  0.3342926847814240  0.5624132518977021  0.2026937805440667   F   F   F
  0.1663206548061567  0.5625684459108768  0.2026879703893130   F   F   F
  0.2502067873593177  0.6250918040142253  0.2779408447657588   F   F   F
  0.0826029581595549  0.5626929404336494  0.2836274496812337   F   F   F
  0.4173382514782702  0.5622475047871944  0.2840383744896471   F   F   F
  0.0009644449613691  0.6279389899148128  0.3701601196004097   T   T   T
  0.3311164864799174  0.5628126541548217  0.3663917284863328   T   T   T
  0.1625590117598678  0.5588431052065288  0.3687129063234283   T   T   T
  0.2503111643084943  0.6232380299256591  0.4531005187479785   T   T   T
  0.0854662692550913  0.5612815890988798  0.4551235373422182   T   T   T
  0.4139912869066116  0.5632509233461933  0.4526229039109530   T   T   T
  0.0055283552632131  0.6458033975106447  0.5461163085573231   T   T   T
  0.3322983125265120  0.5684347138981630  0.5433510899520487   T   T   T
  0.0000000000000000  0.6251997475754436  0.1971274192404451   F   F   F
  0.3343369412500081  0.6874555756944787  0.2027209845130571   F   F   F
  0.1662604173406379  0.6876312578509030  0.2027221982441247   F   F   F
  0.2501999816055047  0.7498887646067161  0.2779024730234809   F   F   F
  0.0825727650861410  0.6876830281330939  0.2837096283809757   F   F   F
  0.4172972896996328  0.6872504991250779  0.2840867748275429   F   F   F
  0.0006950782198797  0.7532477670255491  0.3696754547280670   T   T   T
  0.3296776758752080  0.6881812188447672  0.3693219808104605   T   T   T
  0.1727487100167833  0.6868606235000653  0.3653455303115636   T   T   T
  0.2428758779198885  0.7488340701520553  0.4537244993238883   T   T   T
  0.0810347321215390  0.6875575800612467  0.4529615995500449   T   T   T
  0.4172263015049274  0.6889590808186501  0.4562500302083560   T   T   T
  0.9831772452731323  0.7631193076707614  0.5808774775256289   T   T   T
  0.3387537484229919  0.6914976266534349  0.5404316192096027   T   T   T
  0.1697100382954510  0.6817737801277542  0.5382341931398030   T   T   T
  0.0000000000000000  0.7500718858687634  0.1971343718284118   F   F   F
  0.3342926847814240  0.8124132516836227  0.2026937805440667   F   F   F
  0.1663206548061567  0.8125684456967974  0.2026879703893130   F   F   F
  0.2502067873593177  0.8750918042283118  0.2779408447657588   F   F   F
  0.0826029581595549  0.8126929402195699  0.2836274496812337   F   F   F
  0.4173382514782702  0.8122475045731150  0.2840383744896471   F   F   F
  0.9980643929602059  0.8793783832674362  0.3698381851811585   T   T   T
  0.3292703890324835  0.8136047606780632  0.3661614783239914   T   T   T
  0.1709789903823930  0.8129513484450248  0.3667481768836250   T   T   T
  0.2451956093213560  0.8817504008445670  0.4565858142596166   T   T   T
  0.0840013592647802  0.8122290179739440  0.4504818527525862   T   T   T
  0.4152402793021790  0.8155359240889244  0.4516640162208601   T   T   T
  0.9787577951227161  0.8820590728418737  0.5811057998985046   T   T   T
  0.3322552767013593  0.8128919620422442  0.5427205004817216   T   T   T
  0.0000000000000000  0.8751997477895301  0.1971274192404451   F   F   F
  0.3343369412500081  0.9374555759085652  0.2027209845130571   F   F   F
  0.1662604173406379  0.9376312580649895  0.2027221982441247   F   F   F
  0.2501999816055047  0.4998887643926295  0.2779024730234809   F   F   F
  0.0825727650861410  0.9376830283471804  0.2837096283809757   F   F   F
  0.4172972896996328  0.9372504993391644  0.2840867748275429   F   F   F
  0.9997384296247814  0.4984446484878395  0.3714352560620275   T   T   T
  0.3319592751791708  0.9404899885824920  0.3713795102966719   T   T   T
  0.1675291237761733  0.9412457001042843  0.3684608744755058   T   T   T
  0.2474280710544160  0.5019011761059642  0.4549142268278321   T   T   T
  0.0772582060672067  0.9350568528237770  0.4547506987338766   T   T   T
  0.4134778812181431  0.9404044401617865  0.4566369624313109   T   T   T
  0.0095587232775782  0.5124422881136087  0.5466883217316596   T   T   T
  0.3328375896493189  0.9382082295987375  0.5417006706043199   T   T   T
  0.1706505634982707  0.9364927064838149  0.5363389899723847   T   T   T
  0.5000000000000000  0.9997488470195677  0.1972621268646009   F   F   F
  0.8336793153754556  0.0625684459108768  0.2026879703893130   F   F   F
  0.6657072859523794  0.0624132518977021  0.2026937805440667   F   F   F
  0.7497932120884911  0.1250918040142253  0.2779408447657588   F   F   F
  0.5826617485217298  0.0622475047871944  0.2840383744896471   F   F   F
  0.9173970418404451  0.0626929404336494  0.2836274496812337   F   F   F
  0.5002335506499992  0.1237586789062957  0.3688903183418620   T   T   T
  0.8292901199984619  0.0622298833849447  0.3705991962482236   T   T   T
  0.6671482690810073  0.0615191694269434  0.3695190428751262   T   T   T
  0.7433685588092319  0.1233906776330382  0.4556211823873699   T   T   T
  0.5819195194199757  0.0635650266171266  0.4537388091581875   T   T   T
  0.9159361486668341  0.0603027755294049  0.4575184863406823   T   T   T
  0.4914980202811928  0.1141046654519165  0.5446297436621482   T   T   T
  0.6509876072444452  0.0604927942964192  0.5449353475043776   T   T   T
  0.5000000000000000  0.1249314217885598  0.1972730821371940   F   F   F
  0.8337395528409743  0.1876312578509030  0.2027221982441247   F   F   F
  0.6656630294837953  0.1874555756944787  0.2027209845130571   F   F   F
  0.7498000178423041  0.2498887646067161  0.2779024730234809   F   F   F
  0.5827027103003743  0.1872504991250779  0.2840867748275429   F   F   F
  0.9174272349138590  0.1876830281330939  0.2837096283809757   F   F   F
  0.4975102693855243  0.2517168673314261  0.3707385131151493   T   T   T
  0.8347220589836370  0.1888358274274797  0.3691841914161340   T   T   T
  0.6679547063234386  0.1866507110010053  0.3652466246357231   T   T   T
  0.7463619341177762  0.2488872015252162  0.4572336681709007   T   T   T
  0.5813852779235658  0.1883583798445864  0.4541461803135503   T   T   T
  0.9086222718736211  0.1828127558551937  0.4538501213522267   T   T   T
  0.8102083322748976  0.1853392454543217  0.5428258934392091   T   T   T
  0.6471639880368542  0.1829252824515603  0.5461929256296727   T   T   T
  0.5000000000000000  0.2497488472336542  0.1972621268646009   F   F   F
  0.8336793153754556  0.3125684456967974  0.2026879703893130   F   F   F
  0.6657072859523794  0.3124132516836227  0.2026937805440667   F   F   F
  0.7497932120884911  0.3750918042283047  0.2779408447657588   F   F   F
  0.5826617485217298  0.3122475045731150  0.2840383744896471   F   F   F
  0.9173970418404451  0.3126929402195699  0.2836274496812337   F   F   F
  0.4978789327986665  0.3738956370293279  0.3692809102045543   T   T   T
  0.8327417099958969  0.3142545239123361  0.3685384236309890   T   T   T
  0.6671565839840542  0.3135450995797108  0.3675988376534124   T   T   T
  0.7472103147348729  0.3792671981926087  0.4565180200597551   T   T   T
  0.5795209927225585  0.3150121461162027  0.4543129672267289   T   T   T
  0.9097943670180816  0.3154440920260626  0.4554229558350147   T   T   T
  0.4965446821944742  0.3717211850982487  0.5396581956230030   T   T   T
  0.6659489829384585  0.3117858566923016  0.5435570614723192   T   T   T
  0.5000000000000000  0.3749314220026463  0.1972730821371940   F   F   F
  0.8337395528409743  0.4376312580649895  0.2027221982441247   F   F   F
  0.6656630294837953  0.4374555759085652  0.2027209845130571   F   F   F
  0.7498000178423041  0.9998887643926295  0.2779024730234809   F   F   F
  0.5827027103003743  0.4372504993391644  0.2840867748275429   F   F   F
  0.9174272349138590  0.4376830283471804  0.2837096283809757   F   F   F
  0.4980327855746143  0.0019948787630901  0.3695372442883818   T   T   T
  0.8276534300602255  0.4370710943831749  0.3640615174486246   T   T   T
  0.6692966775241538  0.4342938113744084  0.3676417325813818   T   T   T
  0.7519232251878971  0.9965518409250719  0.4530119682962778   T   T   T
  0.5868188370599522  0.4387346304131562  0.4531225658337686   T   T   T
  0.9179256775404122  0.4383185609257189  0.4529748558580701   T   T   T
  0.8298540113663342  0.4299573091079472  0.5442152695919473   T   T   T
  0.6563888616706277  0.4406851422013636  0.5455601250666570   T   T   T
  0.5000000000000000  0.4997488470195677  0.1972621268646009   F   F   F
  0.8336793153754556  0.5625684459108768  0.2026879703893130   F   F   F
  0.6657072859523794  0.5624132518977021  0.2026937805440667   F   F   F
  0.7497932120884911  0.6250918040142253  0.2779408447657588   F   F   F
  0.5826617485217298  0.5622475047871944  0.2840383744896471   F   F   F
  0.9173970418404451  0.5626929404336494  0.2836274496812337   F   F   F
  0.4985075132833464  0.6264879837127414  0.3718672144476478   T   T   T
  0.8291826267690334  0.5637894668028496  0.3672583721970605   T   T   T
  0.6636068622534310  0.5620622843392326  0.3678480186845834   T   T   T
  0.7499723737579902  0.6274451019754036  0.4547953895088586   T   T   T
  0.5822996140791928  0.5595912971401997  0.4556179167478960   T   T   T
  0.9158473194489261  0.5665906648748088  0.4525917192213980   T   T   T
  0.4976963866196221  0.6223414136368722  0.5423307056001697   T   T   T
  0.6636113345978151  0.5607328618372375  0.5458346482549393   T   T   T
  0.5000000000000000  0.6249314217885598  0.1972730821371940   F   F   F
  0.8337395528409743  0.6876312578509030  0.2027221982441247   F   F   F
  0.6656630294837953  0.6874555756944787  0.2027209845130571   F   F   F
  0.7498000178423041  0.7498887646067161  0.2779024730234809   F   F   F
  0.5827027103003743  0.6872504991250779  0.2840867748275429   F   F   F
  0.9174272349138590  0.6876830281330939  0.2837096283809757   F   F   F
  0.5004541926819527  0.7485049701294250  0.3696704454218437   T   T   T
  0.8311798287784675  0.6892248467857351  0.3688972251764133   T   T   T
  0.6638834920371116  0.6889056180328287  0.3704265168538265   T   T   T
  0.7427754232484536  0.7526613579013148  0.4562040113602131   T   T   T
  0.5731478965797073  0.6863966674045667  0.4547330734054651   T   T   T
  0.9156388138527111  0.6919584317753500  0.4506961971388590   T   T   T
  0.8142985444883885  0.6900981895696155  0.5384351277668532   T   T   T
  0.6490464482287693  0.6866145739121181  0.5423112543935010   T   T   T
  0.5000000000000000  0.7497488472336542  0.1972621268646009   F   F   F
  0.8336793153754556  0.8125684456967974  0.2026879703893130   F   F   F
  0.6657072859523794  0.8124132516836227  0.2026937805440667   F   F   F
  0.7497932120884911  0.8750918042283118  0.2779408447657588   F   F   F
  0.5826617485217298  0.8122475045731150  0.2840383744896471   F   F   F
  0.9173970418404451  0.8126929402195699  0.2836274496812337   F   F   F
  0.4927956272830213  0.8777352505362069  0.3689067319464003   T   T   T
  0.8287500684290845  0.8139668810272893  0.3651344383930204   T   T   T
  0.6614314618238640  0.8136254354868977  0.3703269577072272   T   T   T
  0.7469888238651616  0.8749451029903171  0.4544602421552139   T   T   T
  0.5852197925558026  0.8141589383125445  0.4554503836999361   T   T   T
  0.9155047575984243  0.8137147206066283  0.4595190148761458   T   T   T
  0.4883134477393268  0.8658300991375618  0.5430496921968634   T   T   T
  0.6537937660530628  0.8124344556094186  0.5449251028123897   T   T   T
  0.5000000000000000  0.8749314220026463  0.1972730821371940   F   F   F
  0.8337395528409743  0.9376312580649895  0.2027221982441247   F   F   F
  0.6656630294837953  0.9374555759085652  0.2027209845130571   F   F   F
  0.7498000178423041  0.4998887643926295  0.2779024730234809   F   F   F
  0.5827027103003743  0.9372504993391644  0.2840867748275429   F   F   F
  0.9174272349138590  0.9376830283471804  0.2837096283809757   F   F   F
  0.5027169599883391  0.5003045975034429  0.3693080083474626   T   T   T
  0.8268251507466445  0.9382683405016363  0.3674216880184841   T   T   T
  0.6646381584105568  0.9391193287794173  0.3692609379244379   T   T   T
  0.7533295217578667  0.4988914370738184  0.4533322539681606   T   T   T
  0.5820386080731984  0.9398687190611232  0.4563336369332849   T   T   T
  0.9130163876373557  0.9359367475296995  0.4554660326615061   T   T   T
  0.8181797204849757  0.9399296093070195  0.5438533060667833   T   T   T
  0.6467272875717396  0.9360610464772466  0.5430906576353457   T   T   T
  0.4059506995368949  0.9998103569988004  0.2323399901924574   F   F   F
  0.2502818136972422  0.0000100120603932  0.1992701427820052   F   F   F
  0.0942451913851556  0.0001403620404119  0.2320193079771755   F   F   F
  0.1548500728727760  0.1251896284821186  0.3155471504414038   F   F   F
  0.0000000000000000  0.1252068311979144  0.3027729437307727   F   F   F
  0.3452374976173260  0.1246790180981137  0.3159667219502040   F   F   F
  0.3961917408364358  0.1215995448304704  0.4000396131781335   T   T   T
  0.2484150765445710  0.1240577529353672  0.3866971763589398   T   T   T
  0.0948924660753179  0.1247039257756292  0.4044284475083856   T   T   T
  0.1479358599361734  0.1303297397414025  0.4863014580143064   T   T   T
  0.9959272885718884  0.1208673491037391  0.4733873457850499   T   T   T
  0.3452883563516758  0.1267323998856004  0.4863074351845230   T   T   T
  0.3953628200426778  0.1254063478801752  0.5741455885536351   T   T   T
  0.2479840989726883  0.1237087541477897  0.5583431369637566   T   T   T
  0.0207411780051912  0.0586371696153692  0.5805028772520027   T   T   T
  0.4058965650769153  0.1248444725173243  0.2323487498080610   F   F   F
  0.2502659080337395  0.1250292587474817  0.1993221158785232   F   F   F
  0.0942835749489959  0.1251516263229604  0.2320045250220701   F   F   F
  0.1548192101321320  0.2501939211492825  0.3155011134344150   F   F   F
  0.0000000000000000  0.2502658028626925  0.3027806051347781   F   F   F
  0.3452603591557377  0.2497083480957656  0.3159103143480522   F   F   F
  0.3961960694411529  0.2521457658242119  0.4024333002253704   T   T   T
  0.2459574022556698  0.2541138503281832  0.3889786130731011   T   T   T
  0.0973966102988108  0.2546082908560057  0.4046644304024463   T   T   T
  0.1441409133912191  0.2499688545525518  0.4891328528537203   T   T   T
  0.9905589938871753  0.2498067893650547  0.4738685433786152   T   T   T
  0.3457944822306327  0.2483142221408539  0.4874784445306812   T   T   T
  0.3994033362295107  0.2455568091260418  0.5734333940286789   T   T   T
  0.2531580787622105  0.2438450726639636  0.5559117637345126   T   T   T
  0.0721552761273110  0.2010211864344549  0.5601965262034234   T   T   T
  0.4059506995368949  0.2498103572128869  0.2323399901924574   F   F   F
  0.2502818136972422  0.2500100122744797  0.1992701427820052   F   F   F
  0.0942451913851556  0.2501403622544984  0.2320193079771755   F   F   F
  0.1548500728727760  0.3751896286962122  0.3155471504414038   F   F   F
  0.0000000000000000  0.3752068314120010  0.3027729437307727   F   F   F
  0.3452374976173260  0.3746790183122002  0.3159667219502040   F   F   F
  0.3961740382172168  0.3752311764062567  0.4017130370951406   T   T   T
  0.2521414009055870  0.3750882861415635  0.3846826574215102   T   T   T
  0.0958577669637750  0.3765489486425157  0.4024761830308433   T   T   T
  0.1526271233845125  0.3802598114000119  0.4846321726401297   T   T   T
  0.9973662157855091  0.3763292713418966  0.4729723916758771   T   T   T
  0.3494344226773320  0.3765692832752166  0.4849775292227702   T   T   T
  0.4018140806289826  0.3771243327419321  0.5705442332521981   T   T   T
  0.2468272397996464  0.3810191986890016  0.5594095520860615   T   T   T
  0.0890571863971783  0.3682814569589284  0.5644433806181725   T   T   T
  0.4058965650769153  0.3748444727314109  0.2323487498080610   F   F   F
  0.2502659080337395  0.3750292589615682  0.1993221158785232   F   F   F
  0.0942835749489959  0.3751516265370469  0.2320045250220701   F   F   F
  0.1548192101321320  0.0001939209351960  0.3155011134344150   F   F   F
  0.0000000000000000  0.0002658026486060  0.3027806051347781   F   F   F
  0.3452603591557377  0.9997083478816791  0.3159103143480522   F   F   F
  0.3965980452257628  0.0003252564187755  0.4007403220397389   T   T   T
  0.2483253091675290  0.0029379080273184  0.3873970031986607   T   T   T
  0.0962666055067474  0.0019252411607583  0.4023613607218829   T   T   T
  0.1481255478521904  0.0001063554495750  0.4869210754087633   T   T   T
  0.9948011887000641  0.9978154627156609  0.4775047994559603   T   T   T
  0.3484733008306671  0.0028082050268524  0.4901201141333712   T   T   T
  0.3963952255110170  0.0044449993631385  0.5738810799892881   T   T   T
  0.2460038258958008  0.9994809996375555  0.5548680364231694   T   T   T
  0.0649015529662021  0.9309158634345607  0.5590516174379518   T   T   T
  0.4059506995368949  0.4998103569988004  0.2323399901924574   F   F   F
  0.2502818136972422  0.5000100120603932  0.1992701427820052   F   F   F
  0.0942451913851556  0.5001403620404119  0.2320193079771755   F   F   F
  0.1548500728727760  0.6251896284821186  0.3155471504414038   F   F   F
  0.0000000000000000  0.6252068311979144  0.3027729437307727   F   F   F
  0.3452374976173260  0.6246790180981137  0.3159667219502040   F   F   F
  0.3961071488057043  0.6292890376260305  0.4046015834238876   T   T   T
  0.2465140113734103  0.6226356663616018  0.3840809963439411   T   T   T
  0.0997590974587916  0.6240936956988195  0.4009724778209202   T   T   T
  0.1525933322688842  0.6243564114287757  0.4814748247625171   T   T   T
  0.9986335755517436  0.6288652668122215  0.4751278252136030   T   T   T
  0.3473730179811765  0.6241820331603556  0.4923340768396773   T   T   T
  0.4035843777605717  0.6285656083322544  0.5777333140298500   T   T   T
  0.2592745308052070  0.6315050927907370  0.5615769292940409   T   T   T
  0.1082793172808669  0.6184168758867039  0.5651143003168411   T   T   T
  0.4058965650769153  0.6248444725173243  0.2323487498080610   F   F   F
  0.2502659080337395  0.6250292587474817  0.1993221158785232   F   F   F
  0.0942835749489959  0.6251516263229604  0.2320045250220701   F   F   F
  0.1548192101321320  0.7501939211492825  0.3155011134344150   F   F   F
  0.0000000000000000  0.7502658028626925  0.3027806051347781   F   F   F
  0.3452603591557377  0.7497083480957656  0.3159103143480522   F   F   F
  0.3956893523772613  0.7481361483599784  0.4006384053347559   T   T   T
  0.2455023185660117  0.7473871891916711  0.3855328350185120   T   T   T
  0.1024472081372954  0.7502157022787241  0.3979288233783685   T   T   T
  0.1427783317257675  0.7436758454730714  0.4834455530168538   T   T   T
  0.9958964594431775  0.7491358977719624  0.4705747536927063   T   T   T
  0.3434775587371184  0.7515892238925921  0.4871675316320024   T   T   T
  0.3945292637967616  0.7576197847310119  0.5801488710529232   T   T   T
  0.2497750205208020  0.7496257119506720  0.5575962525837347   T   T   T
  0.0689420874489688  0.7176972619084364  0.5652958290599023   T   T   T
  0.4059506995368949  0.7498103572128869  0.2323399901924574   F   F   F
  0.2502818136972422  0.7500100122744797  0.1992701427820052   F   F   F
  0.0942451913851556  0.7501403622544984  0.2320193079771755   F   F   F
  0.1548500728727760  0.8751896286962051  0.3155471504414038   F   F   F
  0.0000000000000000  0.8752068314120010  0.3027729437307727   F   F   F
  0.3452374976173260  0.8746790183122002  0.3159667219502040   F   F   F
  0.3996247709256724  0.8795965620690833  0.4062196244246499   T   T   T
  0.2482810208436834  0.8728150436864560  0.3898665411404325   T   T   T
  0.0949640419554926  0.8750922918782990  0.3988371543726439   T   T   T
  0.1451814997955840  0.8778210398708648  0.4845525477581283   T   T   T
  0.9934033226055482  0.8755231358902428  0.4638962960897262   T   T   T
  0.3431540480626956  0.8711807584670133  0.4870196211486859   T   T   T
  0.3913046672061425  0.8796644548816859  0.5734657921874441   T   T   T
  0.2438484936666683  0.8775248235181968  0.5596245516794875   T   T   T
  0.9783925131070008  0.8237041322426318  0.6237065066559289   T   T   T
  0.4058965650769153  0.8748444727314109  0.2323487498080610   F   F   F
  0.2502659080337395  0.8750292589615682  0.1993221158785232   F   F   F
  0.0942835749489959  0.8751516265370469  0.2320045250220701   F   F   F
  0.1548192101321320  0.5001939209351960  0.3155011134344150   F   F   F
  0.0000000000000000  0.5002658026486060  0.3027806051347781   F   F   F
  0.3452603591557377  0.4997083478816791  0.3159103143480522   F   F   F
  0.4039587639213623  0.4934365142304991  0.3997380501859676   T   T   T
  0.2472524993240685  0.5010765481211727  0.3896069181497959   T   T   T
  0.0975683220685376  0.4965687882134590  0.4032768626447811   T   T   T
  0.1499047281917862  0.4974778250126145  0.4828963178962210   T   T   T
  0.0036315994076306  0.5067357984191115  0.4746011453558323   T   T   T
  0.3407821325295539  0.5051306958520753  0.4875201676799917   T   T   T
  0.4031616157047685  0.5034099220329450  0.5655741052423027   T   T   T
  0.2508597288555454  0.4954184594468571  0.5582526791530685   T   T   T
  0.1058355155138270  0.4916597210555447  0.5704664164663802   T   T   T
  0.9057548086148444  0.0001403620404119  0.2320193079771755   F   F   F
  0.7497181857505666  0.0000100120603932  0.1992701427820052   F   F   F
  0.5940493004631051  0.9998103569988004  0.2323399901924574   F   F   F
  0.6547625023826740  0.1246790180981137  0.3159667219502040   F   F   F
  0.5000000000000000  0.1247350155864240  0.3031143998011601   F   F   F
  0.8451499271272240  0.1251896284821186  0.3155471504414038   F   F   F
  0.9010355687157102  0.1220157757291655  0.4034230157693691   T   T   T
  0.7512500852002318  0.1248832405067801  0.3852762691201327   T   T   T
  0.5983555378782666  0.1257034308372766  0.4015344858378300   T   T   T
  0.6451516301583541  0.1248723147399890  0.4890710336202078   T   T   T
  0.4969895577524240  0.1229269602429687  0.4751482188916054   T   T   T
  0.8391854871087486  0.1186326101919659  0.4847340162123340   T   T   T
  0.9200468765696531  0.1627867482887905  0.5502724203022463   T   T   T
  0.7359559692975727  0.1249344807201635  0.5583040893528104   T   T   T
  0.5826631579755789  0.1193921668784560  0.5765334952570826   T   T   T
  0.9057164250510041  0.1251516263229604  0.2320045250220701   F   F   F
  0.7497340914140693  0.1250292587474817  0.1993221158785232   F   F   F
  0.5941034349230847  0.1248444725173243  0.2323487498080610   F   F   F
  0.6547396408442623  0.2497083480957656  0.3159103143480522   F   F   F
  0.5000000000000000  0.2496370424515106  0.3031199056982175   F   F   F
  0.8451807898678680  0.2501939211492825  0.3155011134344150   F   F   F
  0.8978567152883302  0.2489852154846061  0.4027013067545514   T   T   T
  0.7500065025635348  0.2505998178428628  0.3893207029009576   T   T   T
  0.6029781196219692  0.2488755351286365  0.4014611753449834   T   T   T
  0.6435671529399698  0.2520871122736647  0.4921202073511672   T   T   T
  0.5017079874098536  0.2524932538911908  0.4698176926100949   T   T   T
  0.8451134277694603  0.2415246106686433  0.4900840306655846   T   T   T
  0.8707138116359814  0.2524433148833236  0.5795558796287120   T   T   T
  0.7321069997355230  0.2410489627402719  0.5670854088986558   T   T   T
  0.5847854391159145  0.2496219325931172  0.5743448202145229   T   T   T
  0.9057548086148444  0.2501403622544984  0.2320193079771755   F   F   F
  0.7497181857505666  0.2500100122744797  0.1992701427820052   F   F   F
  0.5940493004631051  0.2498103572128869  0.2323399901924574   F   F   F
  0.6547625023826740  0.3746790183122002  0.3159667219502040   F   F   F
  0.5000000000000000  0.3747350158005176  0.3031143998011601   F   F   F
  0.8451499271272240  0.3751896286962122  0.3155471504414038   F   F   F
  0.8970907603877231  0.3800619361432506  0.4021471443155658   T   T   T
  0.7495408133151171  0.3800375795211628  0.3899639397900562   T   T   T
  0.6012624281564685  0.3737632029115513  0.4009771954635901   T   T   T
  0.6468137710965272  0.3781283155279874  0.4917965864360247   T   T   T
  0.5001481544965980  0.3778260324241605  0.4688650961020890   T   T   T
  0.8474424413807441  0.3840522615375609  0.4855099123896719   T   T   T
  0.8967535913073639  0.3664198720437140  0.5859542275451480   T   T   T
  0.7433908779242061  0.3754764389007947  0.5629933397569465   T   T   T
  0.5850277152651496  0.3737156736922204  0.5731649035094596   T   T   T
  0.9057164250510041  0.3751516265370469  0.2320045250220701   F   F   F
  0.7497340914140693  0.3750292589615682  0.1993221158785232   F   F   F
  0.5941034349230847  0.3748444727314109  0.2323487498080610   F   F   F
  0.6547396408442623  0.9997083478816791  0.3159103143480522   F   F   F
  0.5000000000000000  0.9996370422374241  0.3031199056982175   F   F   F
  0.8451807898678680  0.0001939209351960  0.3155011134344150   F   F   F
  0.8978848980924065  0.9990231788868154  0.4035534631945497   T   T   T
  0.7518419471062475  0.9975172114276776  0.3858798710971205   T   T   T
  0.5954457764691803  0.0002124573386606  0.4026222798492316   T   T   T
  0.6476741095590960  0.0027865982142592  0.4885866144663548   T   T   T
  0.4930038638785321  0.0057603425071909  0.4732696959293040   T   T   T
  0.8454140835659918  0.9948934226642506  0.4898200147564131   T   T   T
  0.9183881416550131  0.9512953667716878  0.5788913514222006   T   T   T