Mo  S Ru                                
   1.00000000000000     
    15.9215000000000000    0.0000000000000000    0.0000000000000000
    -7.9622500000000000   13.7910219999999999    0.0000000000000000
     0.0000000000000000    0.0000000000000000   13.5822000000000003
   Mo   S    Ru
    25    50     2
Direct
  0.1321347762488685  0.0648477120663316  0.6757864444720951
  0.1307504313724834  0.2634370932086227  0.6758584318226397
  0.1343152555962774  0.4664200895954309  0.6780873059383481
  0.1330369329562942  0.6654387358859211  0.6774824340854266
  0.1326001485434958  0.8650991693720371  0.6761530990462319
  0.3323729456821809  0.0642517391387116  0.6759263368276152
  0.3323812973845577  0.2647977923476645  0.6817904818521185
  0.3309591429247689  0.4618489710404461  0.6846494157954979
  0.3344468210760141  0.6657867464636809  0.6802568746146562
  0.3328694922483422  0.8654765461837215  0.6759511393348632
  0.5329443427381406  0.0648992704605078  0.6737707887101152
  0.5315802009641999  0.2621617601523241  0.6757095988486199
  0.5313862231431870  0.4535957651343310  0.6859986593355458
  0.5405864251093107  0.6761408134786393  0.6821976708900621
  0.5331241818489261  0.8669293796131754  0.6749537204884746
  0.7336478652243414  0.0672936534016557  0.6725813336043842
  0.7332118983640683  0.2660139565623112  0.6741307600502253
  0.7332656584243153  0.4657786083512079  0.6786206040005922
  0.7343454946969530  0.6689632411010535  0.6842935061552282
  0.7352408051252368  0.8698063347292617  0.6755899009819828
  0.9337179570954675  0.0669244656961041  0.6732320459721421
  0.9331173348000164  0.2665649463119948  0.6737710755770152
  0.9335655576659789  0.4661183388347609  0.6764169667880395
  0.9326558340191937  0.6655197562757138  0.6783988431957084
  0.9331155578128190  0.8660856710817200  0.6765820201568147
  0.0674585006856461  0.1325430984235823  0.5588949298943717
  0.0641802043752691  0.1304222027128787  0.7903030900478427
  0.0684355746313372  0.3345811013932760  0.5608482672418660
  0.0640363639462933  0.3312500333990869  0.7906103942611864
  0.0678229231144201  0.5327459897926872  0.5620936766054072
  0.0663167150383970  0.5322411165956282  0.7924682535418412
  0.0652901876482588  0.7310491714381442  0.5622602945345534
  0.0667619712836682  0.7326061151773970  0.7923617228494422
  0.0657964542720748  0.9314551133679672  0.5607661234248127
  0.0663626665020018  0.9322078709916752  0.7912381288221439
  0.2670723473127126  0.1341127658337982  0.5630983841478425
  0.2642232490462817  0.1290139493300018  0.7924737643565862
  0.2682422175025181  0.3343558845634433  0.5661128923141376
  0.2561322653500184  0.3267786974085567  0.7989442871324570
  0.2703750365061950  0.5325284612395222  0.5660796598889988
  0.2667618680046004  0.5326450740146811  0.7958153067716580
  0.2669326173423130  0.7305191837981795  0.5633616695926236
  0.2663010921173949  0.7332914840623488  0.7927134272054559
  0.2654715781095121  0.9312678622937725  0.5605805438707065
  0.2658972541365898  0.9315658469435419  0.7912073795546775
  0.4651537311041452  0.1308245364117369  0.5595351613639536
  0.4659823326041845  0.1287240494575030  0.7902397726636252
  0.4633771213291382  0.3293367750194633  0.5627434639194462
  0.4652755247916076  0.3206208951327625  0.8039529272030705
  0.4695410416526045  0.5321016900799265  0.5799136392146096
  0.4636654834406926  0.5414463762700876  0.9576163884408899
  0.4648894447905789  0.7311356870278374  0.5617044841912815
  0.4678881388123202  0.7373346303931498  0.7942015495186823
  0.4652067164045732  0.9312657673184788  0.5593451897764652
  0.4668065175436382  0.9331688430834859  0.7901780489790298
  0.6662305217679290  0.1334264351774550  0.5579213996033872
  0.6668189974550245  0.1326204591275726  0.7883942280237051
  0.6658871784940601  0.3339847754432981  0.5613711311811969
  0.6665909338454981  0.3302364810942322  0.7909029087699864
  0.6641737620674562  0.5333153327357110  0.5691795544590548
  0.6661202751822373  0.5329710540606101  0.8014580157984170
  0.6684988171050961  0.7339590365247446  0.5645774108099246
  0.6798934771116620  0.7471988406495242  0.8031920463950186
  0.6664497305686083  0.9327832087275354  0.5588796584508273
  0.6674828584731216  0.9365680355710282  0.7890547133075785
  0.8674161651107113  0.1340230761727170  0.5575678047917023
  0.8663692153077776  0.1332795548047301  0.7880191407600279
  0.8670435762370801  0.3342758392662191  0.5593665797312468
  0.8660219486174512  0.3317736167412875  0.7896988464227448
  0.8654488541175809  0.5325185762525422  0.5627211326316228
  0.8669469106265169  0.5317796950234595  0.7929702966366392
  0.8635099343390280  0.7306539630590265  0.5645902464664445
  0.8697612951635065  0.7349513956125833  0.7950365926477900
  0.8669553348025545  0.9328069995695287  0.5594469873957948
  0.8689092882227030  0.9365521714546077  0.7899388635383744
  0.4092986473082405  0.4191480103505967  0.8540550295172196
  0.5528745254616183  0.5849062273659342  0.8222541319937733
 
  0.00000000E+00  0.00000000E+00  0.00000000E+00
  0.00000000E+00  0.00000000E+00  0.00000000E+00
  0.00000000E+00  0.00000000E+00  0.00000000E+00
  0.00000000E+00  0.00000000E+00  0.00000000E+00
  0.00000000E+00  0.00000000E+00  0.00000000E+00
  0.00000000E+00  0.00000000E+00  0.00000000E+00
  0.00000000E+00  0.00000000E+00  0.00000000E+00
  0.00000000E+00  0.00000000E+00  0.00000000E+00
  0.00000000E+00  0.00000000E+00  0.00000000E+00
  0.00000000E+00  0.00000000E+00  0.00000000E+00
  0.00000000E+00  0.00000000E+00  0.00000000E+00
  0.00000000E+00  0.00000000E+00  0.00000000E+00
  0.00000000E+00  0.00000000E+00  0.00000000E+00
  0.00000000E+00  0.00000000E+00  0.00000000E+00
  0.00000000E+00  0.00000000E+00  0.00000000E+00
  0.00000000E+00  0.00000000E+00  0.00000000E+00
  0.00000000E+00  0.00000000E+00  0.00000000E+00
  0.00000000E+00  0.00000000E+00  0.00000000E+00
  0.00000000E+00  0.00000000E+00  0.00000000E+00
  0.00000000E+00  0.00000000E+00  0.00000000E+00
  0.00000000E+00  0.00000000E+00  0.00000000E+00
  0.00000000E+00  0.00000000E+00  0.00000000E+00
  0.00000000E+00  0.00000000E+00  0.00000000E+00
  0.00000000E+00  0.00000000E+00  0.00000000E+00
  0.00000000E+00  0.00000000E+00  0.00000000E+00
  0.00000000E+00  0.00000000E+00  0.00000000E+00
  0.00000000E+00  0.00000000E+00  0.00000000E+00
  0.00000000E+00  0.00000000E+00  0.00000000E+00
  0.00000000E+00  0.00000000E+00  0.00000000E+00
  0.00000000E+00  0.00000000E+00  0.00000000E+00
  0.00000000E+00  0.00000000E+00  0.00000000E+00
  0.00000000E+00  0.00000000E+00  0.00000000E+00
  0.00000000E+00  0.00000000E+00  0.00000000E+00
  0.00000000E+00  0.00000000E+00  0.00000000E+00
  0.00000000E+00  0.00000000E+00  0.00000000E+00
  0.00000000E+00  0.00000000E+00  0.00000000E+00
  0.00000000E+00  0.00000000E+00  0.00000000E+00
  0.00000000E+00  0.00000000E+00  0.00000000E+00
  0.00000000E+00  0.00000000E+00  0.00000000E+00
  0.00000000E+00  0.00000000E+00  0.00000000E+00
  0.00000000E+00  0.00000000E+00  0.00000000E+00
  0.00000000E+00  0.00000000E+00  0.00000000E+00
  0.00000000E+00  0.00000000E+00  0.00000000E+00
  0.00000000E+00  0.00000000E+00  0.00000000E+00
  0.00000000E+00  0.00000000E+00  0.00000000E+00
  0.00000000E+00  0.00000000E+00  0.00000000E+00
  0.00000000E+00  0.00000000E+00  0.00000000E+00
  0.00000000E+00  0.00000000E+00  0.00000000E+00
  0.00000000E+00  0.00000000E+00  0.00000000E+00
  0.00000000E+00  0.00000000E+00  0.00000000E+00
  0.00000000E+00  0.00000000E+00  0.00000000E+00
  0.00000000E+00  0.00000000E+00  0.00000000E+00
  0.00000000E+00  0.00000000E+00  0.00000000E+00
  0.00000000E+00  0.00000000E+00  0.00000000E+00
  0.00000000E+00  0.00000000E+00  0.00000000E+00
  0.00000000E+00  0.00000000E+00  0.00000000E+00
  0.00000000E+00  0.00000000E+00  0.00000000E+00
  0.00000000E+00  0.00000000E+00  0.00000000E+00
  0.00000000E+00  0.00000000E+00  0.00000000E+00
  0.00000000E+00  0.00000000E+00  0.00000000E+00
  0.00000000E+00  0.00000000E+00  0.00000000E+00
  0.00000000E+00  0.00000000E+00  0.00000000E+00
  0.00000000E+00  0.00000000E+00  0.00000000E+00
  0.00000000E+00  0.00000000E+00  0.00000000E+00
  0.00000000E+00  0.00000000E+00  0.00000000E+00
  0.00000000E+00  0.00000000E+00  0.00000000E+00
  0.00000000E+00  0.00000000E+00  0.00000000E+00
  0.00000000E+00  0.00000000E+00  0.00000000E+00
  0.00000000E+00  0.00000000E+00  0.00000000E+00
  0.00000000E+00  0.00000000E+00  0.00000000E+00
  0.00000000E+00  0.00000000E+00  0.00000000E+00
  0.00000000E+00  0.00000000E+00  0.00000000E+00
  0.00000000E+00  0.00000000E+00  0.00000000E+00
  0.00000000E+00  0.00000000E+00  0.00000000E+00
  0.00000000E+00  0.00000000E+00  0.00000000E+00
  0.00000000E+00  0.00000000E+00  0.00000000E+00
  0.00000000E+00  0.00000000E+00  0.00000000E+00
