Ta  N Co Cu                             
   1.00000000000000     
    18.1096308199999996    0.0000000000000000    0.0000000000000000
     0.0000000000000000   23.3551997799999995    0.0000000000000000
     0.0000000000000000    0.0000000000000000   30.4818171199999988
   Ta   N    Co   Cu
   192   240    48     2
Direct
  0.0005545144375461  0.9999280061277958  0.1970312738376165
  0.3342969183561664  0.0624138423469489  0.2033484785603434
  0.1656111577266302  0.0624331106441289  0.2028379099516400
  0.2496396965554197  0.1250247561868036  0.2787056451503886
  0.0825014582577168  0.0624919435752744  0.2840925259759359
  0.4161786929293072  0.0624628795735092  0.2854571062041487
  0.9991529382299120  0.1251285253860956  0.3694872951339789
  0.3313098661773068  0.0625561492399740  0.3704499726208326
  0.1666728904370984  0.0626994381493375  0.3691830171498722
  0.2454187649883295  0.1268053077567615  0.4570513948238002
  0.0819741385544930  0.0633684699286263  0.4544084469167089
  0.4116185910213090  0.0623938925419978  0.4585066405730558
  0.0005333905041525  0.1248681362825295  0.1969656992338003
  0.3342188134793105  0.1873426417100816  0.2031820798967559
  0.1656248280579078  0.1874124758731028  0.2026565721704188
  0.2496453849643672  0.2499195771136584  0.2782709595499213
  0.0824268748774273  0.1874974927672213  0.2839244869024213
  0.4162118392050758  0.1873796386156030  0.2850385125613641
  0.9994555441063895  0.2501301376311602  0.3692583330262522
  0.3315529088049090  0.1876082595894601  0.3693460399517292
  0.1668110715070483  0.1877805874064933  0.3686349379016036
  0.2462847925991625  0.2497753101439741  0.4565742872459353
  0.0815594678318305  0.1885222549549823  0.4545012074854000
  0.4136231921574876  0.1878222249675190  0.4549925801199990
  0.0004253888573871  0.2497294292496761  0.1968479162857975
  0.3342089721970680  0.3122885198510730  0.2029784598978850
  0.1657350032744347  0.3123703800528332  0.2024464259242436
  0.2499530991291223  0.3749944518193331  0.2780773313004090
  0.0826350045877575  0.3124982992275704  0.2836647993308290
  0.4164202865527216  0.3124015598676522  0.2847370874833857
  0.9995947755820538  0.3751330563247706  0.3690990735026674
  0.3318135900936596  0.3126077483510699  0.3693470421350398
  0.1672069786082560  0.3127499940043208  0.3684913977595770
  0.2486131059837930  0.3770301479866802  0.4568282380969180
  0.0828066649113239  0.3134262616256507  0.4540047763732460
  0.4127350371788694  0.3123491529314748  0.4566914725037492
  0.0004376694515997  0.3748296244324933  0.1966628379300488
  0.3343486441808281  0.4373912675510994  0.2027072431538954
  0.1658434699641447  0.4373904376626427  0.2022200277742598
  0.2496094540703169  0.0000329790999558  0.2787758319208535
  0.0826824020747452  0.4374130398286979  0.2834718737902264
  0.4167037111884184  0.4373907012321609  0.2845419537708835
  0.9993618198375174  0.0000103109602279  0.3694774733030712
  0.3323008136658387  0.4374743075048997  0.3693585035705667
  0.1676526136224510  0.4376507351956604  0.3681885844799311
  0.2453903831292266  0.9998106956125312  0.4577589408097680
  0.0827283164108721  0.4382543287708032  0.4536249369646654
  0.4171329907362420  0.4366607905007029  0.4558868103378373
  0.0003961153969101  0.4998999205096197  0.1965664648218350
  0.3344603980328955  0.5623909733049857  0.2025694480631657
  0.1658373383807827  0.5623118439210515  0.2021432893378545
  0.2501375398196970  0.6248152252958050  0.2778421322396980
  0.0827056480734853  0.5624070652924544  0.2833538815522090
  0.4168154539247055  0.5623478683867305  0.2844094140033775
  0.9998286090765518  0.6248994847359910  0.3687390090349325
  0.3325090716905663  0.5621092848349178  0.3691376071171248
  0.1674279782595818  0.5624430815698744  0.3678203562169386
  0.2498633104892960  0.6240727662966137  0.4562596513045705
  0.0831690766087831  0.5629657289340528  0.4534548669481495
  0.4198393416317785  0.5622808819899703  0.4550527318752486
  0.0005391218371997  0.6248978213037404  0.1965317757245089
  0.3344089622363526  0.6875429352537168  0.2026385915204187
  0.1657585538479864  0.6875983057168540  0.2021749650769422
  0.2497478599849856  0.7499614056410877  0.2779018546796976
  0.0827249845027467  0.6874180325349357  0.2833895989482400
  0.4163899354250660  0.6873312825658076  0.2845090594536543
  0.0001840861652340  0.7497949538770428  0.3688553534390948
  0.3317912596300587  0.6871652013905631  0.3689106463920027
  0.1675095182620865  0.6873897046461934  0.3680473668982387
  0.2510007561432559  0.7477342181671958  0.4570962228247666
  0.0833789300024321  0.6874132172718106  0.4533422030810996
  0.4166584298994920  0.6868396819392544  0.4534314952406930
  0.0004703541943840  0.7500113380031479  0.1966886567392976
  0.3342631256025115  0.8125174108447339  0.2028859447350513
  0.1658513083794944  0.8124946952463006  0.2025303527510331
  0.2495087789505632  0.8751616877239741  0.2784843121598257
  0.0827378422540406  0.8124852520814585  0.2837298829997295
  0.4160706007291495  0.8124535874899763  0.2847516771408323
  0.9997647992997472  0.8749100393818523  0.3693848635211197
  0.3311044704825648  0.8125820632788106  0.3694660611399314
  0.1667881224381844  0.8124151087709919  0.3688966053910434
  0.2445896761867488  0.8753994670559919  0.4565475057182198
  0.0827115015833826  0.8122501231805330  0.4552196666028649
  0.4130618879634014  0.8127071180705201  0.4562176809458265
  0.0006695472818237  0.8750809354653768  0.1969220790822845
  0.3342521240574854  0.9376176489630410  0.2032700456601049
  0.1656915383829514  0.9375769028360992  0.2027946556988311
  0.2502161310538256  0.4999366702822314  0.2778262530051592
  0.0824372167222691  0.9374979485929842  0.2841040665769654
  0.4159975644667924  0.9375526734958726  0.2851241296253448
  0.9994034572947612  0.5000691938956976  0.3688641928496708
  0.3314652987568323  0.9377371455525463  0.3697216740773044
  0.1666837162278512  0.9376262515613973  0.3690890122437409
  0.2485868425076845  0.4996556705306716  0.4564116455282061
  0.0813228683676996  0.9378132829682713  0.4553503514481747
  0.4136980209797585  0.9377526625739705  0.4563294335370429
  0.4981102679820992  0.9999155129080819  0.1978748590092323
  0.8331645766662206  0.0622958538678873  0.2018526012869515
  0.6638975583632245  0.0622860018039688  0.2024224916119692
  0.7483197827640140  0.1247297175394593  0.2770563224420712
  0.5813310394689850  0.0623252028872656  0.2841900040583880
  0.9169812162717292  0.0623914577241038  0.2827526106396974
  0.4991798997837122  0.1246153783546973  0.3712621891280250
  0.8313446043492192  0.0622257593365276  0.3662451230757711
  0.6648727067527389  0.0621374054974666  0.3687094346220334
  0.7492496726606319  0.1233269823693490  0.4522930696023337
  0.5840735859082145  0.0617438580261123  0.4595594244109620
  0.9127606314910395  0.0618877494106016  0.4535188228161857
  0.4981911774248715  0.1246969287823063  0.1978442694801927
  0.8331608292354815  0.1872330482941607  0.2017303214850372
  0.6641717147508004  0.1871530207365524  0.2022300241494008
  0.7487383868667195  0.2498509746860904  0.2769402086773454
  0.5814498955451626  0.1872313559587724  0.2839798008712506
  0.9169016735340918  0.1873940073853646  0.2827442510383520
  0.4992181693502857  0.2499284435109601  0.3705482031625564
  0.8313553714953770  0.1874491444680331  0.3667208879810815
  0.6660372313065253  0.1872473948340527  0.3683312509617522
  0.7473208927793635  0.2489666575972294  0.4543423870600236
  0.5824001504138252  0.1880819864484522  0.4553280040543228
  0.9132913584003646  0.1871156058852463  0.4531021102229928
  0.4984401273067078  0.2497188145810583  0.1976242712313692
  0.8332931189882657  0.3121615584433144  0.2015758190849795
  0.6644508680021062  0.3120740628982190  0.2020555402177564
  0.7490583930661003  0.3747236701406607  0.2767578313386281
  0.5817801569425711  0.3122793585440391  0.2836175583230016
  0.9169650912389216  0.3123760949277923  0.2826215132670100
  0.4997443792244241  0.3752086139270645  0.3702927194802257
  0.8316758543001015  0.3122734356090220  0.3664783912904710
  0.6664006495836503  0.3122921218374728  0.3674547396981538
  0.7513089143622764  0.3734396969717793  0.4518191672503491
  0.5825220698211169  0.3121972176607031  0.4542868004809151
  0.9138011284498404  0.3123123175027160  0.4532201126556927
  0.4985859051202723  0.3748277519064303  0.1973682711338824
  0.8333010697176988  0.4372882204676145  0.2015271309154869
  0.6646530775881132  0.4372715993480867  0.2019036605449074
  0.7481820130791306  0.9998428209452612  0.2771379574801998
  0.5819611265152815  0.4373770852298620  0.2834577127014413
  0.9170779267085649  0.4373841687506967  0.2825191491744121
  0.4991356837207022  0.9999827729481794  0.3715669186595179
  0.8320263906186298  0.4375420684165690  0.3666141220417174
  0.6664106766806910  0.4376155612655523  0.3676523980841893
  0.7499816469934117  0.9983506171006198  0.4521880615042235
  0.5883396921237818  0.4386660114072072  0.4567079607502222
  0.9142822549716385  0.4377289929873669  0.4534078884853514
  0.4988478390160367  0.4998818846011375  0.1972151850989974
  0.8333178773426937  0.5624191469260680  0.2015012048733453
  0.6646288096198703  0.5624053059892162  0.2018334911932627
  0.7491050876649012  0.6248892316666996  0.2768709066952297
  0.5823436126613473  0.5624318658953200  0.2834988103506149
  0.9170783346006885  0.5623578884897000  0.2825003355337898
  0.5010846681848591  0.6246109090174059  0.3700468776350405
  0.8321488792799414  0.5624944464713337  0.3667118732962606
  0.6666993400248060  0.5625326164716213  0.3680344394639263
  0.7519120023674262  0.6256896329080206  0.4538416750518053
  0.5909890671128295  0.5626559078707345  0.4565848834094481
  0.9131491947044950  0.5625195517339705  0.4538368084149198
  0.4987913792676082  0.6249667701710990  0.1972669651750749
  0.8332342834140007  0.6874426682447918  0.2015266476772126
  0.6643772698864296  0.6874721432686925  0.2018812608987091
  0.7488167566500650  0.7499475177280175  0.2769367624944863
  0.5819310912429572  0.6874110854850812  0.2836948404743964
  0.9171398555080827  0.6873794429618485  0.2823911863041246
  0.4988390494820365  0.7497893841741572  0.3699918901670358
  0.8322098102248461  0.6873227880772248  0.3665340285830467
  0.6667199037287403  0.6874119115139408  0.3682011147429733
  0.7494783092859549  0.7494360576900263  0.4541844680890321
  0.5861839388423178  0.6874360737327692  0.4559335439252052
  0.9138040249208714  0.6877259543902881  0.4533821378441729
  0.4985807339765316  0.7499893543022793  0.1974662431969065
  0.8330802660852612  0.8125839902765222  0.2016635853264646
  0.6641949682147299  0.8125742561429803  0.2021010033959456
  0.7483958727784810  0.8747449840035628  0.2769679053264582
  0.5815533502008066  0.8124321094963776  0.2837525957948515
  0.9172099550202688  0.8123753014602215  0.2824822437511969
  0.4982767397915211  0.8751650056797828  0.3703650438988859
  0.8317350618892405  0.8121207393127747  0.3661742833007793
  0.6661471133578374  0.8122326658040748  0.3678140600977287
  0.7469278669060273  0.8725843947008514  0.4531019385686648
  0.5811571014257453  0.8138521380942265  0.4535776756845280
  0.9134930283859504  0.8108768389745364  0.4530762227643805
  0.4981315900856842  0.8750355926008240  0.1976456394312436
  0.8330555866273528  0.9374103545750643  0.2017708382746406
  0.6639809068949489  0.9374929949999071  0.2022540425727826
  0.7491272651201442  0.4999457387388091  0.2767317973589982
  0.5810677695009687  0.9374287131329808  0.2840859150223594
  0.9170595541398612  0.9373513926458799  0.2827089951683561
  0.5005859212019104  0.4996578707461268  0.3700481775669928
  0.8313629324729916  0.9371021559824655  0.3662724030798898
  0.6655641332152982  0.9373143078234278  0.3684556148575524
  0.7509073225811065  0.4998108699392318  0.4531159514189014
  0.5854911446342186  0.9368068554489852  0.4570838811676197
  0.9138735990146358  0.9367957137108718  0.4524027284523342
  0.4046960192550557  0.0001331640512845  0.2336709772118439
  0.2499205466453773  0.0000776847044506  0.2002093551651853
  0.0944375543163147  0.9999750154905769  0.2324784543442036
  0.1542896452691735  0.1250467563693789  0.3161415996901766
  0.9993909065776805  0.1249469560777072  0.3026813903684342
  0.3440892249970489  0.1248326137356983  0.3171032719213329
  0.4003367730597773  0.1244532776719822  0.4035953382774551
  0.2485969772224550  0.1255535905621841  0.3889460710542565
  0.0984758662981164  0.1257483289729606  0.4022022691881304
  0.1464350650681965  0.1265887675140362  0.4894981166815526
  0.9962228248868499  0.1257585123695790  0.4713493885588207
  0.3440939360263613  0.1282609289591434  0.4855615228269414
  0.4485249016664881  0.1315853170947889  0.5796310563801512
  0.2884889803171262  0.1376760301588149  0.5665409787063425
  0.0690650363100644  0.1312859910255213  0.5620080064775337
  0.4047615979587391  0.1247972358942704  0.2335885351939382
  0.2499001857200156  0.1248667304904743  0.2004901130621803
  0.0943583216967028  0.1249481748056454  0.2323713282908457
  0.1543935870702740  0.2501458118306630  0.3158528366890465
  0.9994823245409918  0.2499900417404248  0.3024774929963172
  0.3441556768988789  0.2500732939497823  0.3165859869419592
  0.4001473422574406  0.2504730483171898  0.4023383504461009
  0.2488813833463581  0.2501272119226456  0.3885399451827070
  0.0988454276565562  0.2503865682586053  0.4019064257933849
  0.1476398855117154  0.2515785067723044  0.4889866995249861
  0.9970510994163178  0.2514193355307341  0.4714216584879267
  0.3458150986785498  0.2485768389465193  0.4842366909451812
  0.4760831302160327  0.2606692233761478  0.5707633027813799
  0.3195628610063963  0.2496793749777595  0.5666514566231484
  0.0730381943399010  0.2560425756359876  0.5621160550381177
  0.4048714026121090  0.2497936967885224  0.2331746453389272
  0.2499498213770224  0.2498197333333323  0.1996749766631680
  0.0944310509806314  0.2498722640635620  0.2321269888684796
  0.1547078144234675  0.3750620368192941  0.3155486814772601
  0.9996169420964378  0.3749607039918388  0.3023184451816192
  0.3444428293572628  0.3750459234133245  0.3165453984096231
  0.4010552129281777  0.3748837293259442  0.4029347394509486
  0.2494731055072563  0.3752942135870398  0.3885497141422150
  0.0991329809419241  0.3755997033910248  0.4015407268582152
  0.1496585856693002  0.3763429054786371  0.4885094546350857
  0.9976002791496938  0.3760382584627138  0.4710889393976174
  0.3476341127664497  0.3772438882307796  0.4856746100327811
  0.4518972028220105  0.3100261636319530  0.5647261533285715
  0.3241319291976552  0.3836938183087355  0.5726430980650221
  0.0739604961918658  0.3793528471275707  0.5609124159983949
  0.4049766035281195  0.3748744518207374  0.2329444951919726
  0.2500495672549121  0.3748470210932524  0.1996406656831198
  0.0944288937776463  0.3749214359889095  0.2318645950419551
  0.1543248582464329  0.0000479894816792  0.3163366131156522
  0.9994426056439778  0.9999573526583561  0.3026702382819479
  0.3440347270891095  0.0002142029558740  0.3173003719521219
  0.4003374287924899  0.0005400514523828  0.4040632983595387
  0.2486214641503537  0.9999761966543730  0.3893674509435598
  0.0985039009199724  0.9999071113142080  0.4025543979200847
  0.1465113891225585  0.0013628515402004  0.4899990629793862
  0.9964882899526444  0.0010624860917474  0.4713501154064872
  0.3448621616568701  0.9996227885794937  0.4879184692465159
  0.4357433153461940  0.9993319953804445  0.5744318745071411
  0.3887042504860929  0.0290342725605015  0.5873227299992578
  0.0665710726489124  0.0070961013641124  0.5618419211770984
  0.4051914445246467  0.4998969957310990  0.2327300434627091
  0.2501413042659308  0.4999065789080461  0.1992125799685596
  0.0944806477106326  0.4998636507744365  0.2317264632338123
  0.1548840036618131  0.6249573872644660  0.3152582470293908
  0.9997494327952552  0.6248624669767366  0.3019925137752963
  0.3446754666714114  0.6246283334069602  0.3162220147868950
  0.4022192940290807  0.6236390738272988  0.4019420334733681
  0.2496412935903365  0.6245105092066154  0.3881886431078527
  0.0991465627284143  0.6249430257491397  0.4010213080423384
  0.1502316636048633  0.6256677436018165  0.4865938513257575
  0.9991620987998431  0.6246418340655993  0.4715785715482070
  0.3504981603389936  0.6223945368398063  0.4841804674670485
  0.4470903798935595  0.6101299427394551  0.5668020140092054
  0.2823064032974898  0.6215307611070955  0.5553433220940107
  0.0908202225797936  0.6283224911145240  0.5612049740036511
  0.4050733042396715  0.6248530006979820  0.2327489807635601
  0.2500393243605714  0.6249475511856204  0.1999361933299966
  0.0946242475520975  0.6248970344445866  0.2316819805796726
  0.1548164242369481  0.7500143429874981  0.3156855049917908
  0.9998028172920570  0.7498921527663427  0.3021060941260529
  0.3438920238466068  0.7499716142107147  0.3163726673840515
  0.3994983230943419  0.7501985497861767  0.4019611138982242
  0.2493382470067758  0.7495309505948526  0.3889116015698875
  0.0989788090698127  0.7499334819797596  0.4016446473975748
  0.1520056619976771  0.7489463652201067  0.4868309278917025
  0.9982975824278313  0.7493099927543838  0.4726030897070643
  0.3509463270513322  0.7466158063272701  0.4873013831932695
  0.3651243912799274  0.7418643905817177  0.5710894923011125
  0.3343481343352366  0.7804223540578334  0.5881228005292201
  0.0771821299611020  0.7553819864620408  0.5578055449806385
  0.4048354959650808  0.7499863641940507  0.2329350626273410
  0.2500865205276881  0.7500231918981299  0.1991196164910960
  0.0945482251241643  0.7500298591068102  0.2318888404405826
  0.1542821660502796  0.8750618431068133  0.3161810670324030
  0.9995923411183654  0.8748873162999047  0.3025173299836368
  0.3439620425362122  0.8750423304778536  0.3168223152528782
  0.3999709544930425  0.8754060420545713  0.4028258483015321
  0.2484707913929824  0.8752389791077491  0.3885919360307639
  0.0986267869830755  0.8749802979134742  0.4027565556135713
  0.1460082164450469  0.8747330730285157  0.4900234634134364
  0.9962243605389318  0.8750342828560704  0.4725851808942778
  0.3442472299602599  0.8752534578595643  0.4843326986697534
  0.4204771363704722  0.8724149945290094  0.5712636826344379
  0.2723577565566728  0.9023319840758219  0.5646288310254377
  0.0605406477414832  0.8826329026842572  0.5600179495340001
  0.4046475806351424  0.8750390942199289  0.2333198550294071
  0.2500271984536084  0.8751120846152318  0.2002315908646892
  0.0945692567446912  0.8750860817975266  0.2322946300068480
  0.1549354371200309  0.4998756935300577  0.3153167352185449
  0.9996622961471360  0.4998981508053291  0.3021170615799420
  0.3447989836103744  0.4998467248932599  0.3163557289478263
  0.4022118500015353  0.4997307203952275  0.4029132511029090
  0.2496013615295567  0.5001204109552333  0.3882497204851347
  0.0988810503294033  0.5002274478608655  0.4011012470278530
  0.1486191425309542  0.5006472770216490  0.4869702696775491
  0.9980599101478163  0.5010220650918598  0.4714861745224397
  0.3496225049607560  0.5015055234032246  0.4847272944068379
  0.4227251271360473  0.4607593218363775  0.5578172924449163
  0.2699305474271085  0.4973802530696645  0.5537604877189324
  0.0868053561350735  0.5037910635490519  0.5622808370521781
  0.9054178513317694  0.9998757557274089  0.2309814333672833
  0.7486298845438029  0.9998902012951589  0.1992198219445882
  0.5927718090133425  0.9998482483136755  0.2324240615258972
  0.6533873364646539  0.1247475005419716  0.3156473384798062
  0.4990317589130981  0.1248887607260514  0.3042412990978107
  0.8441238325298244  0.1249583740462086  0.3140392410306063
  0.8989990546065556  0.1246289213949723  0.4003453821492542
  0.7489496997546112  0.1244388371381291  0.3852327558479089
  0.5981555142905961  0.1243827366518175  0.4032638831066251
  0.6547613226077189  0.1283211077926865  0.4836701993187944
  0.4978472919209480  0.1255273364529970  0.4760153752057974
  0.8451717960752205  0.1236555486549094  0.4838402227310681
  0.9022209461657766  0.1532959273658960  0.5636684231291440
  0.7474751327589360  0.0903879581671134  0.5529778940180066
  0.5773939089922919  0.0644964789364053  0.5336895297635138
  0.9053435334867785  0.1248265458728994  0.2309815086042519
  0.7487034574540985  0.1246842624173894  0.1990094471149959
  0.5928810291864082  0.1247713666934729  0.2323523606798545
  0.6538356682892612  0.2495820870901895  0.3152629184386697
  0.4992495797898400  0.2498729601922278  0.3036760126686673
  0.8443129512662040  0.2497826673735233  0.3141343857706289
  0.8995787135420059  0.2499059283785243  0.4002749845140343
  0.7489529854895380  0.2499512721694188  0.3863127591385549
  0.5989322592064070  0.2498581710869701  0.4020731798304453
  0.6482236266906583  0.2508375942468675  0.4869457414602962
  0.4992276960913671  0.2494865999782689  0.4728697940025484
  0.8468681193464107  0.2480931555435433  0.4830594499900442
  0.9060396254339409  0.2812326557253328  0.5645777969471339
  0.7686490095831005  0.2246796629636947  0.5542596459693314
  0.5919179013717013  0.1781691582014915  0.5552412782926552
  0.9053383862799436  0.2497723465356927  0.2309083566114296
  0.7488337341100717  0.2496129228796633  0.1987458366975901
  0.5931253387863933  0.2496153099599283  0.2320721134345618
  0.6540169790091070  0.3749120154248686  0.3149108592468721
  0.4995075132561979  0.3748913571338406  0.3033994977134142
  0.8446557546345517  0.3749169760116970  0.3139906769544538
  0.8996002896288786  0.3749263377644851  0.4003760239792555
  0.7495325137107969  0.3746519749071524  0.3848703211063480
  0.5990763348512900  0.3756080015877572  0.4019433488260731
  0.6559246376503012  0.3735267129105750  0.4823613266114748
  0.4999489741132166  0.3722055161686555  0.4738882013542494
  0.8468874823446626  0.3741206908447055  0.4837163313062049
  0.9037933611352926  0.4031246093583860  0.5624810994159972
  0.7532904715236626  0.3404007724730178  0.5516985137412291
  0.6031766403712169  0.3134524501683771  0.5622613615592940
  0.9053695997789717  0.3747799020529641  0.2307539965639762
  0.7489485007824399  0.3746652108224424  0.1985525704658784
  0.5933719090227498  0.3747667580725462  0.2317335287149618
  0.6531360379369673  0.9997904036161458  0.3157187312386114
  0.4989088054755797  0.0000049707796066  0.3044628725782772
  0.8441984039639934  0.9997426066051034  0.3138576815353957
  0.8991866413577867  0.9999260587131715  0.4000607087264001
  0.7489505582651006  0.9997704243535352  0.3847203901068852
  0.5981499268263590  0.9998278703847419  0.4039618294657714
  0.6563875465512723  0.9966126117937648  0.4859015947999410
  0.4983028165900336  0.9985488725988318  0.4770106536317442
  0.8469355629945596  0.9965187104586306  0.4836652416937142
  0.9004931691289073  0.0325714357228435  0.5641859596640799
  0.7579822679618360  0.9704827655993000  0.5691309001841844
  0.5811239817014950  0.9470708099501408  0.5678460339621836
  0.9053836214686797  0.4998342447094686  0.2307077113956737
  0.7490024305709539  0.4998443794339948  0.1985464647735142
  0.5934930832039313  0.4998747616847083  0.2317261209220263
  0.6542485220706311  0.6250459819610796  0.3152594662605850
  0.4997015074697089  0.6248143979198773  0.3032335972116726
  0.8447168167557919  0.6248712396766791  0.3139977957970714
  0.9005019335930484  0.6245285016667808  0.4003265607291766
  0.7500348289045888  0.6250428816938012  0.3858986994536622
  0.6000210548471969  0.6250358682992854  0.4028182876236386
  0.6573996459823093  0.6257294469202606  0.4866571800034905
  0.5033832062434556  0.6254408042078694  0.4756494012360051
  0.8496083556942224  0.6250933785295558  0.4841224665871735
  0.9287464259200107  0.6193686783469232  0.5695375832171976
  0.7845295630897766  0.6334074445216373  0.5612172247319975
  0.5946151520733238  0.6617996574626517  0.5575164109762056
  0.9054335572860879  0.6248732701687132  0.2306517948433680
  0.7489306187712330  0.6249758723142946  0.1985203579391808
  0.5934779469812455  0.6249745935897693  0.2318239953735883
  0.6539017485415783  0.7498001042457645  0.3152261354559300
  0.4990950480557999  0.7498795956420423  0.3033198398821995
  0.8446530405295718  0.7497686915631334  0.3139005654787681
  0.9006820213039148  0.7496914146176010  0.3996008408905780
  0.7496229762999320  0.7498927617266986  0.3862013891183764
  0.5979317287530108  0.7497533401226733  0.4018138308648105
  0.6486852508141254  0.7549513735132436  0.4839860672843344
  0.4967721215549474  0.7496858897152521  0.4706293421489107
  0.8470868834527252  0.7502077442025623  0.4820106167050255
  0.9124962394533114  0.7313968894083942  0.5643384217576468
  0.7009781314861954  0.7413573503334447  0.5558718705069907
  0.5258289123777331  0.7793146922669933  0.5518382930299595
  0.9053175622526695  0.7499775210015827  0.2306759462381862
  0.7488064722047838  0.7500031139889458  0.1991008912081398
  0.5932829836955094  0.7499418276281418  0.2319647513449894
  0.6533884243405836  0.8749417848118028  0.3153521696159345
  0.4988721180914837  0.8749047762330022  0.3035975994949780
  0.8442494446605764  0.8746934610248971  0.3138195688428453
  0.8998001257628871  0.8744008352076378  0.3997331533968733
  0.7489084064415934  0.8742466681942815  0.3856133080682511
  0.5973971045726572  0.8755151114319162  0.4022179011904683
  0.6502560164557423  0.8717505751542305  0.4854247949057893
  0.4982032741863165  0.8746196656415606  0.4765929039225583
  0.8465710026949083  0.8732042823031563  0.4810357916054997
  0.8920728050391773  0.9041710785945440  0.5659679432770304
  0.7393400529577008  0.8608181962129962  0.5623016210105760
  0.5753934493596660  0.8955565486804886  0.5700028890941766
  0.9053924770197241  0.8750012688955451  0.2308293987826815
  0.7485966063214704  0.8750483699892371  0.1986493774758884
  0.5929311219671760  0.8750572446313427  0.2321093336236615
  0.6541807938727828  0.4999832750066986  0.3150925268403668
  0.4997347020239928  0.4999429591721096  0.3032169307155286
  0.8446991090049423  0.4999284188587083  0.3140380436531629
  0.8998617721759246  0.5001165384380926  0.4006900829654327
  0.7497312408497407  0.5000077439891157  0.3855018036489710
  0.5992815816130843  0.4997755356787934  0.4022478134432106
  0.6566695031718197  0.5009091758901647  0.4840425395596384
  0.5031295619754772  0.5001896647152435  0.4750742303793416
  0.8474035725576101  0.4984637709121174  0.4854235361272430
  0.9292785392708964  0.5199002379362909  0.5717065932508945
  0.8011657965092738  0.5094452673192649  0.5752111972735179
  0.5826842615645589  0.4241305709903855  0.5419635430110432
  0.9831969679603958  0.1352857015634967  0.5348908535577408
  0.3622666634581790  0.1052876515865648  0.5894045711417348
  0.1064276545499396  0.0687196659949478  0.5371232077193966
  0.9875411586364962  0.2646888730595123  0.5352574796345380
  0.3120869505429269  0.1896764671201581  0.5290819576813703
  0.1086579286229394  0.1930483796486939  0.5369925336825645
  0.9869281185478371  0.3862958209369296  0.5344915679467590
  0.3495329550161088  0.3166932100427360  0.5783864124560907
  0.1117458177532953  0.3172087092602354  0.5362467253487182
  0.9810797607372450  0.0122682588382332  0.5344355342389022
  0.3295935851017902  0.4408859549895325  0.5352774302524139
  0.1152133098431847  0.4399772399917268  0.5354563538098134
  0.0043262225634351  0.6277601597044580  0.5361393890191053
  0.3063811290274145  0.5578005198240561  0.5295027827911483
  0.1238264920679839  0.5649208224867763  0.5353215297962493
  0.9915021405520861  0.7343914444181081  0.5360828151973251
  0.3302631756648751  0.6758170376744772  0.5314668251662056
  0.1215122214871656  0.6923215597649417  0.5336765326483786
  0.9742008923098879  0.8924641054042439  0.5347189481151275
  0.3361978815275890  0.8585156498923112  0.5897303839630226
  0.1096101182289786  0.8229114010171017  0.5388910470850590
  0.0008175737629657  0.5065221900391990  0.5360200516817528
  0.3084935632055519  0.9330598200161617  0.5210057826775767
  0.1053446234982829  0.9442690279335864  0.5380697169012052
  0.5210350344113976  0.1285099354117705  0.5420470607811936
  0.8503003302641190  0.0936757672207236  0.5433632314986596
  0.7167038716770691  0.0226462790890452  0.5371359414470191
  0.5660830727307697  0.2489183663978380  0.5387370106384495
  0.8620538177830781  0.2184694944380894  0.5427769749362952
  0.6543739611411610  0.1183079831522349  0.5460045589953850
  0.5295310586926192  0.3555825911262858  0.5388146178437196
  0.8559813085789827  0.3424279068373792  0.5419807891774724
  0.7096024159102967  0.2754021222925971  0.5390835683417308
  0.5207536751174899  0.0039173981540301  0.5419256549042970
  0.8681965506362701  0.4711399679870283  0.5462215638360775
  0.6602063017708204  0.3723506060312829  0.5441826174393469
  0.5073361842603887  0.6469398175230197  0.5386385390680530
  0.8458374337052987  0.5739952540638882  0.5752708743601431
  0.7022535968150549  0.6647625469560055  0.5423381571648562
  0.4466334063143407  0.7478865152362033  0.5280848660860542
  0.8722829597641208  0.6700613242836084  0.5427623553072749
  0.6038676155432796  0.7336678314913812  0.5430973743045158
  0.4942243936393282  0.8486895283688440  0.5436253742807793
  0.8276396471921004  0.8611320513631000  0.5399394134506466
  0.6975540572025523  0.8088186416685943  0.5278182659736785
  0.5049797710953783  0.4647394068626127  0.5322280975502451
  0.8515892639921390  0.9704489074615879  0.5470637146543282
  0.6859894121707555  0.9230172119068740  0.5726103524091926
  0.4232979495826754  0.5370763857493088  0.5726169328763788
  0.4043871690884444  0.2034159709661409  0.5875926445507389
 
  0.00000000E+00  0.00000000E+00  0.00000000E+00
  0.00000000E+00  0.00000000E+00  0.00000000E+00
  0.00000000E+00  0.00000000E+00  0.00000000E+00
  0.00000000E+00  0.00000000E+00  0.00000000E+00
  0.00000000E+00  0.00000000E+00  0.00000000E+00