Ta N Cu Ru                              
   1.00000000000000     
    18.1096308199999996    0.0000000000000000    0.0000000000000000
     0.0000000000000000   11.6775998899999998    0.0000000000000000
     0.0000000000000000    0.0000000000000000   23.4818170799999990
   Ta   N    Cu   Ru
   119   120     2     1
Direct
  0.0004858504796020  0.0001015088161896  0.2552330943139631
  0.3333209877082175  0.1256633534645882  0.2635283081490751
  0.1662219680564158  0.1255170933785220  0.2639477876918573
  0.2497858152388059  0.2502647693432890  0.3614761673415923
  0.0825824052096928  0.1251921443437055  0.3689479000269921
  0.4175497094858199  0.1255078763691359  0.3681577665685648
  0.0003956664475791  0.2503707425426276  0.4803495844070206
  0.3324772249869610  0.1253888786398714  0.4777237896128944
  0.1681451170672082  0.1252063906510384  0.4785014222111486
  0.2503442859115995  0.2531764146531609  0.5920901370010793
  0.0845972552522722  0.1249114550047828  0.5901116472804651
  0.4149221989512585  0.1255332345780699  0.5891953753815181
  0.9963146676527511  0.2506645354761881  0.7016228208748421
  0.1591450080319673  0.1247864287460851  0.7074245798993828
  0.0002085108942895  0.2505122694065045  0.2552155697197324
  0.3330101295472302  0.3752067067743050  0.2636627183721971
  0.1663259573228499  0.3750866477813547  0.2639729861848409
  0.2497957650940288  0.5003452850799466  0.3614607967249882
  0.0824765429695375  0.3751433106774033  0.3689573055970394
  0.4176007903891881  0.3755127657066533  0.3680969276024899
  0.0000684555106980  0.5000018282462354  0.4801359517438672
  0.3324368738754467  0.3755043578336011  0.4778066328971228
  0.1680863884040104  0.3751925056948476  0.4785645206778713
  0.2495367723786794  0.4999644681387843  0.5911808953214720
  0.0834481646501208  0.3749835680208842  0.5901140922696249
  0.4165012927199007  0.3771251622526435  0.5891899571736975
  0.9984626796468385  0.5000065058578587  0.7024143363734056
  0.3317952860939813  0.3740686147350843  0.7052871623775204
  0.1613037329649462  0.3766200742069170  0.7061075790740375
  0.0004467656788574  0.5001263928999157  0.2550165819860901
  0.3332288540493948  0.6257008024898884  0.2634722369757275
  0.1662749152457385  0.6255258919634744  0.2639399109671314
  0.2498179784120084  0.7503432670959118  0.3613904166017840
  0.0826133044873081  0.6252091444957213  0.3688546173976995
  0.4174513937616990  0.6254729740223147  0.3678921004613539
  0.0000799517672681  0.7502443673027169  0.4801780184574648
  0.3322888107827873  0.6253214840980741  0.4776438539712398
  0.1677245200876705  0.6251682227351480  0.4784552744514945
  0.2497513652368122  0.7504683906828071  0.5914035619846089
  0.0832925479529367  0.6249313421816253  0.5899033184479936
  0.4163717151632310  0.6254725937583396  0.5895656928218751
  0.9986321320903164  0.7495192252100104  0.7024072365671438
  0.3340326450598778  0.6270799115083112  0.7038231206320618
  0.1642551994418281  0.6243463208158703  0.7037964044913043
  0.0001877191831577  0.7505411163612471  0.2550296239785573
  0.3330712925565168  0.8752605023252001  0.2636765538235576
  0.1662237808386263  0.8751178140876139  0.2639666538747559
  0.2497751354981304  0.0004228739931520  0.3615616425634902
  0.0824533274692885  0.8752624871969359  0.3689931976500185
  0.4176558774282365  0.8755045029196700  0.3681311704019609
  0.0004683987776882  0.9997973297175692  0.4803725969492323
  0.3323807983681967  0.8752588967735985  0.4777166386380216
  0.1681997037083355  0.8751826699500248  0.4785285539761559
  0.2502067769098784  0.9973929317303767  0.5920315797043744
  0.0834166723115345  0.8749274521304857  0.5900777478160972
  0.4163931603682616  0.8739710488808582  0.5887213460839872
  0.9965616888004408  0.9992542465412185  0.7017406566751251
  0.3337097143379152  0.8825067559700396  0.7064018306327127
  0.1618602767285396  0.8717863240584690  0.7062879454529233
  0.4997098163895340  0.0004923755128605  0.2545913505650003
  0.8337298153573395  0.1250714674078583  0.2639786102491241
  0.6668784723374196  0.1252024902067897  0.2636523680217663
  0.7502403008107388  0.2504273943341596  0.3614511653274873
  0.5826187916232586  0.1254916873806905  0.3679846586089431
  0.9174858268252961  0.1251772026679978  0.3687375309408401
  0.5000647563962007  0.2505320793818312  0.4794550340666179
  0.8325524774823200  0.1251487579104019  0.4783636916140607
  0.6675997152269634  0.1252866470295091  0.4777723501462800
  0.7498337590751802  0.2503393272798363  0.5907034389845748
  0.5828661428341969  0.1252053965757176  0.5897339586987767
  0.9162065310053947  0.1250238557166982  0.5903565485421174
  0.5041047885893701  0.2510390053769924  0.7018416874123568
  0.8348884936336424  0.1248666942482977  0.7040127264690917
  0.6660725514077959  0.1246163357755538  0.7039481168363956
  0.4999999963211776  0.2503524239863369  0.2546057986098769
  0.8337197129778804  0.3755014704909858  0.2639231509264888
  0.6669642065994236  0.3756808775357797  0.2636313213383013
  0.7501710645194469  0.5002355079765411  0.3613703631819748
  0.5825780920884581  0.3755305162689220  0.3680177456677799
  0.9176357112010217  0.3751932386747881  0.3686456578297904
  0.4999984380950951  0.5005521607087600  0.4793019961672786
  0.8323858159822314  0.3751795768843013  0.4781518755780058
  0.6675968303476341  0.3752957315969921  0.4777658070820238
  0.7499409426155109  0.4999632361638177  0.5906687051396686
  0.5838376245693740  0.3754804109025343  0.5894720167412693
  0.9160828744556295  0.3751587361543133  0.5899320173198686
  0.4990134486170694  0.5000955829147317  0.7022800303298510
  0.8344520900959936  0.3750363799220138  0.7043245092291753
  0.6651695467566393  0.3755219690945134  0.7037130892703330
  0.4998365798551758  0.5004760626064405  0.2544700635849217
  0.8337752345233107  0.6251274209471392  0.2639392324440746
  0.6668362269550481  0.6251587331239944  0.2635416851978165
  0.7501701875564525  0.7503469788498838  0.3614786832312541
  0.5825015488866246  0.6254750462581489  0.3679156316290699
  0.9176023406005063  0.6251839604010295  0.3686046611779809
  0.5000570647308977  0.7502050910497093  0.4792978997477643
  0.8323783242603485  0.6251458443629033  0.4781763178736270
  0.6676118437710821  0.6252819158393185  0.4777371277041983
  0.7499296627512008  0.7503070805634986  0.5906815649428950
  0.5836700970225092  0.6252948755789467  0.5895580944876411
  0.9160111322398632  0.6250173432828694  0.5900425936416513
  0.4991414705967506  0.7493655549580390  0.7023759424942153
  0.8344665032330238  0.6250330721746995  0.7043595804539913
  0.6640475300030555  0.6251772780757247  0.7040464866761714
  0.5000967149718210  0.7505286699486283  0.2544757239358132
  0.8337051495368621  0.8755760423053153  0.2639594291995546
  0.6669490777129794  0.8757401644861548  0.2636213273103436
  0.7502264238407600  0.0002108051204976  0.3613669373661632
  0.5826181798857313  0.8754541910640858  0.3680276834732176
  0.9176349511106059  0.8752092463782323  0.3687102120506582
  0.5001414100622688  0.0003182373297236  0.4794346835753944
  0.8324365552916905  0.8751520389777283  0.4782313096466508
  0.6675928557998186  0.8753288575859304  0.4777864729057270
  0.7497926189785189  0.0000521575256767  0.5908057021767892
  0.5838708635242077  0.8750429985185285  0.5895531357799335
  0.9160704190633373  0.8749052485214294  0.5900242017451264
  0.5038062668757967  0.9984845806918478  0.7019149951897624
  0.8346958521171929  0.8748961726854626  0.7043532770146456
  0.6648972080499855  0.8749624142535790  0.7039037338613350
  0.4065454664437479  0.0005437795990225  0.3009160115047175
  0.2497077478581417  0.0004973267306064  0.2583388012523858
  0.0933989898452323  0.0002622595086634  0.3018044131265836
  0.1545424979691661  0.2503342429849071  0.4104460034656602
  0.0000735526922183  0.2501863787248192  0.3936496896911618
  0.3455003586594331  0.2504925832578186  0.4096661741603445
  0.4008750381305684  0.2509779748984837  0.5215395425399334
  0.2503818863292616  0.2502628412657891  0.5037064730252705
  0.0995215454498410  0.2502099746328919  0.5225582246125670
  0.1521937440222094  0.2497279695838309  0.6348222770301492
  0.0001210081185561  0.2498648165907111  0.6131563123502699
  0.3489076226830813  0.2576110810090212  0.6331216065830474
  0.4085885177255629  0.2600422696248884  0.7458649108254441
  0.2432414419790228  0.2627501386013242  0.7329075341851595
  0.0921028469081875  0.2480061086108218  0.7409629188126298
  0.4067331217332732  0.2504085636707992  0.3008426388538554
  0.2497200018998173  0.2502035237060423  0.2571858007207807
  0.0932124987853502  0.2502362114276696  0.3017395984892719
  0.1544943561878913  0.5000711596197184  0.4103251205037174
  0.0000975583626624  0.5001981459207788  0.3934628586818088
  0.3455920121696068  0.5004528958510835  0.4095946439021564
  0.4009931290487628  0.5008801700212248  0.5214715516111424
  0.2502095432576394  0.5003915610193288  0.5030198679941017
  0.0991561911657635  0.4997568132716297  0.5222966321330635
  0.1510140746578265  0.4997211928756848  0.6335686214596702
  0.9997331475176503  0.4999175746533734  0.6134384073358190
  0.3478443839970213  0.5007132584000353  0.6329101221361025
  0.4011165751489583  0.4997169447355890  0.7398077323953081
  0.2491951300561114  0.5008106157201772  0.7229488400320756
  0.0950207376983702  0.5006287203277482  0.7414510431410555
  0.4066038360469116  0.5004419452104284  0.3007337446256758
  0.2497145997118484  0.5004763413543810  0.2579632076020789
  0.0932948963185663  0.5001368923755615  0.3016918095085669
  0.1544945926424626  0.7503396704005019  0.4103385499761921
  0.0000586115047255  0.7501291129016705  0.3934990369973841
  0.3455942146793241  0.7503341584815745  0.4095717028604393
  0.4010310548009772  0.7499139055231451  0.5213946107222691
  0.2502551460725008  0.7500782539925135  0.5031346688321119
  0.0992189772742960  0.7503581459953997  0.5223232315069530
  0.1510645720639069  0.7499830400681505  0.6335268523228782
  0.9997764148038306  0.7500677060369788  0.6134735234467344
  0.3482249931698893  0.7508101503455774  0.6328573821142142
  0.4013381744887612  0.7515465584413800  0.7398956561598473
  0.2490394885646088  0.7485928883621015  0.7231637140334922
  0.0951496445935957  0.7488677540007023  0.7414755711818899
  0.4068087893243996  0.7505710365071536  0.3007298436844544
  0.2496774112088945  0.7503502983841309  0.2571680259406305
  0.0931045897019842  0.7504032014959205  0.3016840524562101
  0.1545163934275520  0.0001098708341077  0.4104800847873128
  0.0001029173069994  0.0002144316293777  0.3936676294286042
  0.3455211871847371  0.0004155239217839  0.4096501800400790
  0.4008849770600463 -0.0000175236195418  0.5215042812601693
  0.2503549788253508  0.0003359141732354  0.5036850947597440
  0.0996051414781906  0.9999011561976047  0.5225906719172052
  0.1523195248826457  0.9997709415230052  0.6349042234272766
  0.0002355412938744  0.9999983712386542  0.6132532767569713
  0.3490362834781189  0.9940757290101061  0.6328951819391965
  0.4094284329262851  0.9907061365314672  0.7437510601262589
  0.2430571326134101  0.9863043224551001  0.7333824099166083
  0.0921945578945873  0.0008778221451498  0.7410185286907685
  0.9072079122332405  0.0002602328974920  0.3014460420069264
  0.7503189256326822  0.0004035472196614  0.2568553277395548
  0.5931399702440886  0.0004525411425447  0.3007264930168124
  0.6544336792629001  0.2503421694773648  0.4095864849808825
  0.5000714986098352  0.2505656901379871  0.3927635775185491
  0.8456821564965024  0.2502370384669484  0.4100758641293679
  0.9010443725122153  0.2501186448816802  0.5220892232373059
  0.7499070025643975  0.2502069773494812  0.5026547851280372
  0.5989714174831805  0.2502020494240527  0.5216822172615116
  0.6516505033297588  0.2502388207886453  0.6329085833214746
  0.4998669612979140  0.2517426770073347  0.6129588095384674
  0.8480847490282839  0.2504171137397454  0.6332664033982117
  0.9014488553491353  0.2503769687490781  0.7414638209687036
  0.7500749520915505  0.2501253938593820  0.7237150536800143
  0.5986424962390444  0.2494676954928462  0.7407817662596424
  0.9069974926987671  0.2502332495804571  0.3014568582215995
  0.7503125896162334  0.2503532510120162  0.2578298851377554
  0.5933661670119473  0.2504987125137810  0.3007731639239786
  0.6543562100273377  0.5003884336213461  0.4095392599050895
  0.4999745686166226  0.5005664238315213  0.3925862927525982
  0.8456985318747560  0.5001463599151268  0.4099901796521692
  0.9008628126627402  0.5000501705002245  0.5221544194986442
  0.7498895590748230  0.5001627720366806  0.5025386898762136
  0.5989100260983096  0.5003676896592471  0.5216644489960022
  0.6517348582501619  0.5003797945685505  0.6327920544352613
  0.4998608652945028  0.5008771140705985  0.6134568229627676
  0.8480100469776938  0.4999013745265089  0.6333023006159286
  0.9020779606517625  0.5003734268593915  0.7408967760633505
  0.7493153243839795  0.5001830114722958  0.7236720088213948
  0.5961789761189469  0.4999175364700639  0.7400268243972757
  0.9072173162351661  0.5002066974620922  0.3013798225982520
  0.7503812109701995  0.5004209869671528  0.2569803237679230
  0.5931627132979790  0.5004707389421533  0.3006947564220657
  0.6543722033001340  0.7503965005882877  0.4095627731085295
  0.5000393309637907  0.7503587009922644  0.3925871422201236
  0.8456832055398783  0.7502613798033333  0.4100236187035433
  0.9008625946541972  0.7501063330940223  0.5221943378947790
  0.7498987626749987  0.7502626807521563  0.5025749877100414
  0.5989813676801069  0.7501798223381392  0.5216631134058388
  0.6517824872707383  0.7499358018772131  0.6328578957985667
  0.4997867485571059  0.7498245146453503  0.6134779062422413
  0.8480038160263248  0.7500568917137409  0.6333711063820846
  0.9022887700193197  0.7494262688406936  0.7409069082519106
  0.7494143665133358  0.7499305955784854  0.7238698938016083
  0.5960381130758530  0.7499228366586533  0.7401078341603796
  0.9070490837619675  0.7503672884282895  0.3014403053049742
  0.7503220171060418  0.7503493345782455  0.2580499004198479
  0.5933762115982518  0.7504729639414532  0.3007305074180949
  0.6544382626825253  0.0004098239333773  0.4095917652309131
  0.5000714732584309  0.0004575737575313  0.3927667190293537
  0.8456619211910608  0.0001114157569058  0.4100883066169296
  0.9010911789664635  0.0000876898151255  0.5221149068196284
  0.7499197738504799  0.0002275893925273  0.5027156655492619
  0.5990281321431433  0.0003709320989387  0.5217025347133922
  0.6515542410879307  0.0002571700680375  0.6330256591560564
  0.4997301129149127  0.9986276921131182  0.6129266472142698
  0.8481258513156460  0.9997616971404116  0.6332673592723710
  0.9014807997053740  0.9996755332511328  0.7414915052261025
  0.7502785828895382  0.0000905463716979  0.7235021366370515
  0.5994491055041481  0.0008415225725779  0.7413411714478290
  0.2730079927804086  0.1234320031142860  0.7735269440506153
  0.3840299968897121  0.2107478034828861  0.8171629480356110
  0.3732017472037348  0.1248170519359163  0.6943140956210488
 
  0.00000000E+00  0.00000000E+00  0.00000000E+00
  0.00000000E+00  0.00000000E+00  0.00000000E+00
  0.00000000E+00  0.00000000E+00  0.00000000E+00
  0.00000000E+00  0.00000000E+00  0.00000000E+00
  0.00000000E+00  0.00000000E+00  0.00000000E+00
  0.00000000E+00  0.00000000E+00  0.00000000E+00
  0.00000000E+00  0.00000000E+00  0.00000000E+00
  0.00000000E+00  0.00000000E+00  0.00000000E+00
  0.00000000E+00  0.00000000E+00  0.00000000E+00
  0.00000000E+00  0.00000000E+00  0.00000000E+00
  0.00000000E+00  0.00000000E+00  0.00000000E+00
  0.00000000E+00  0.00000000E+00  0.00000000E+00
  0.00000000E+00  0.00000000E+00  0.00000000E+00
  0.00000000E+00  0.00000000E+00  0.00000000E+00
  0.00000000E+00  0.00000000E+00  0.00000000E+00
  0.00000000E+00  0.00000000E+00  0.00000000E+00
  0.00000000E+00  0.00000000E+00  0.00000000E+00
  0.00000000E+00  0.00000000E+00  0.00000000E+00
  0.00000000E+00  0.00000000E+00  0.00000000E+00
  0.00000000E+00  0.00000000E+00  0.00000000E+00
  0.00000000E+00  0.00000000E+00  0.00000000E+00
  0.00000000E+00  0.00000000E+00  0.00000000E+00
  0.00000000E+00  0.00000000E+00  0.00000000E+00
  0.00000000E+00  0.00000000E+00  0.00000000E+00
  0.00000000E+00  0.00000000E+00  0.00000000E+00
  0.00000000E+00  0.00000000E+00  0.00000000E+00
  0.00000000E+00  0.00000000E+00  0.00000000E+00
  0.00000000E+00  0.00000000E+00  0.00000000E+00
  0.00000000E+00  0.00000000E+00  0.00000000E+00
  0.00000000E+00  0.00000000E+00  0.00000000E+00
  0.00000000E+00  0.00000000E+00  0.00000000E+00
  0.00000000E+00  0.00000000E+00  0.00000000E+00
  0.00000000E+00  0.00000000E+00  0.00000000E+00
  0.00000000E+00  0.00000000E+00  0.00000000E+00
  0.00000000E+00  0.00000000E+00  0.00000000E+00
  0.00000000E+00  0.00000000E+00  0.00000000E+00
  0.00000000E+00  0.00000000E+00  0.00000000E+00
  0.00000000E+00  0.00000000E+00  0.00000000E+00
  0.00000000E+00  0.00000000E+00  0.00000000E+00
  0.00000000E+00  0.00000000E+00  0.00000000E+00
  0.00000000E+00  0.00000000E+00  0.00000000E+00
  0.00000000E+00  0.00000000E+00  0.00000000E+00
  0.00000000E+00  0.00000000E+00  0.00000000E+00
  0.00000000E+00  0.00000000E+00  0.00000000E+00
  0.00000000E+00  0.00000000E+00  0.00000000E+00
  0.00000000E+00  0.00000000E+00  0.00000000E+00
  0.00000000E+00  0.00000000E+00  0.00000000E+00
  0.00000000E+00  0.00000000E+00  0.00000000E+00
  0.00000000E+00  0.00000000E+00  0.00000000E+00
  0.00000000E+00  0.00000000E+00  0.00000000E+00
  0.00000000E+00  0.00000000E+00  0.00000000E+00
  0.00000000E+00  0.00000000E+00  0.00000000E+00
  0.00000000E+00  0.00000000E+00  0.00000000E+00
  0.00000000E+00  0.00000000E+00  0.00000000E+00
  0.00000000E+00  0.00000000E+00  0.00000000E+00
  0.00000000E+00  0.00000000E+00  0.00000000E+00
  0.00000000E+00  0.00000000E+00  0.00000000E+00
  0.00000000E+00  0.00000000E+00  0.00000000E+00
  0.00000000E+00  0.00000000E+00  0.00000000E+00
  0.00000000E+00  0.00000000E+00  0.00000000E+00
  0.00000000E+00  0.00000000E+00  0.00000000E+00
  0.00000000E+00  0.00000000E+00  0.00000000E+00
  0.00000000E+00  0.00000000E+00  0.00000000E+00
  0.00000000E+00  0.00000000E+00  0.00000000E+00
  0.00000000E+00  0.00000000E+00  0.00000000E+00
  0.00000000E+00  0.00000000E+00  0.00000000E+00
  0.00000000E+00  0.00000000E+00  0.00000000E+00
  0.00000000E+00  0.00000000E+00  0.00000000E+00
  0.00000000E+00  0.00000000E+00  0.00000000E+00
  0.00000000E+00  0.00000000E+00  0.00000000E+00
  0.00000000E+00  0.00000000E+00  0.00000000E+00
  0.00000000E+00  0.00000000E+00  0.00000000E+00
  0.00000000E+00  0.00000000E+00  0.00000000E+00
  0.00000000E+00  0.00000000E+00  0.00000000E+00
  0.00000000E+00  0.00000000E+00  0.00000000E+00
  0.00000000E+00  0.00000000E+00  0.00000000E+00
  0.00000000E+00  0.00000000E+00  0.00000000E+00
  0.00000000E+00  0.00000000E+00  0.00000000E+00
  0.00000000E+00  0.00000000E+00  0.00000000E+00
  0.00000000E+00  0.00000000E+00  0.00000000E+00
  0.00000000E+00  0.00000000E+00  0.00000000E+00
  0.00000000E+00  0.00000000E+00  0.00000000E+00
  0.00000000E+00  0.00000000E+00  0.00000000E+00
  0.00000000E+00  0.00000000E+00  0.00000000E+00
  0.00000000E+00  0.00000000E+00  0.00000000E+00
  0.00000000E+00  0.00000000E+00  0.00000000E+00
  0.00000000E+00  0.00000000E+00  0.00000000E+00
  0.00000000E+00  0.00000000E+00  0.00000000E+00
  0.00000000E+00  0.00000000E+00  0.00000000E+00
  0.00000000E+00  0.00000000E+00  0.00000000E+00
  0.00000000E+00  0.00000000E+00  0.00000000E+00
  0.00000000E+00  0.00000000E+00  0.00000000E+00
  0.00000000E+00  0.00000000E+00  0.00000000E+00
  0.00000000E+00  0.00000000E+00  0.00000000E+00
  0.00000000E+00  0.00000000E+00  0.00000000E+00
  0.00000000E+00  0.00000000E+00  0.00000000E+00
  0.00000000E+00  0.00000000E+00  0.00000000E+00
  0.00000000E+00  0.00000000E+00  0.00000000E+00
  0.00000000E+00  0.00000000E+00  0.00000000E+00
  0.00000000E+00  0.00000000E+00  0.00000000E+00
  0.00000000E+00  0.00000000E+00  0.00000000E+00
  0.00000000E+00  0.00000000E+00  0.00000000E+00
  0.00000000E+00  0.00000000E+00  0.00000000E+00
  0.00000000E+00  0.00000000E+00  0.00000000E+00
  0.00000000E+00  0.00000000E+00  0.00000000E+00
  0.00000000E+00  0.00000000E+00  0.00000000E+00
  0.00000000E+00  0.00000000E+00  0.00000000E+00
  0.00000000E+00  0.00000000E+00  0.00000000E+00
  0.00000000E+00  0.00000000E+00  0.00000000E+00
  0.00000000E+00  0.00000000E+00  0.00000000E+00
  0.00000000E+00  0.00000000E+00  0.00000000E+00
  0.00000000E+00  0.00000000E+00  0.00000000E+00
  0.00000000E+00  0.00000000E+00  0.00000000E+00
  0.00000000E+00  0.00000000E+00  0.00000000E+00
  0.00000000E+00  0.00000000E+00  0.00000000E+00
  0.00000000E+00  0.00000000E+00  0.00000000E+00
  0.00000000E+00  0.00000000E+00  0.00000000E+00
  0.00000000E+00  0.00000000E+00  0.00000000E+00
  0.00000000E+00  0.00000000E+00  0.00000000E+00
  0.00000000E+00  0.00000000E+00  0.00000000E+00
  0.00000000E+00  0.00000000E+00  0.00000000E+00
  0.00000000E+00  0.00000000E+00  0.00000000E+00
  0.00000000E+00  0.00000000E+00  0.00000000E+00
  0.00000000E+00  0.00000000E+00  0.00000000E+00
  0.00000000E+00  0.00000000E+00  0.00000000E+00
  0.00000000E+00  0.00000000E+00  0.00000000E+00
  0.00000000E+00  0.00000000E+00  0.00000000E+00
  0.00000000E+00  0.00000000E+00  0.00000000E+00
  0.00000000E+00  0.00000000E+00  0.00000000E+00
  0.00000000E+00  0.00000000E+00  0.00000000E+00
  0.00000000E+00  0.00000000E+00  0.00000000E+00
  0.00000000E+00  0.00000000E+00  0.00000000E+00
  0.00000000E+00  0.00000000E+00  0.00000000E+00
  0.00000000E+00  0.00000000E+00  0.00000000E+00
  0.00000000E+00  0.00000000E+00  0.00000000E+00
  0.00000000E+00  0.00000000E+00  0.00000000E+00
  0.00000000E+00  0.00000000E+00  0.00000000E+00
  0.00000000E+00  0.00000000E+00  0.00000000E+00
  0.00000000E+00  0.00000000E+00  0.00000000E+00
  0.00000000E+00  0.00000000E+00  0.00000000E+00
  0.00000000E+00  0.00000000E+00  0.00000000E+00
  0.00000000E+00  0.00000000E+00  0.00000000E+00
  0.00000000E+00  0.00000000E+00  0.00000000E+00
  0.00000000E+00  0.00000000E+00  0.00000000E+00
  0.00000000E+00  0.00000000E+00  0.00000000E+00
  0.00000000E+00  0.00000000E+00  0.00000000E+00
  0.00000000E+00  0.00000000E+00  0.00000000E+00
  0.00000000E+00  0.00000000E+00  0.00000000E+00
  0.00000000E+00  0.00000000E+00  0.00000000E+00
  0.00000000E+00  0.00000000E+00  0.00000000E+00
  0.00000000E+00  0.00000000E+00  0.00000000E+00
  0.00000000E+00  0.00000000E+00  0.00000000E+00
  0.00000000E+00  0.00000000E+00  0.00000000E+00
  0.00000000E+00  0.00000000E+00  0.00000000E+00
  0.00000000E+00  0.00000000E+00  0.00000000E+00
  0.00000000E+00  0.00000000E+00  0.00000000E+00
  0.00000000E+00  0.00000000E+00  0.00000000E+00
  0.00000000E+00  0.00000000E+00  0.00000000E+00
  0.00000000E+00  0.00000000E+00  0.00000000E+00
  0.00000000E+00  0.00000000E+00  0.00000000E+00
  0.00000000E+00  0.00000000E+00  0.00000000E+00
  0.00000000E+00  0.00000000E+00  0.00000000E+00
  0.00000000E+00  0.00000000E+00  0.00000000E+00
  0.00000000E+00  0.00000000E+00  0.00000000E+00
  0.00000000E+00  0.00000000E+00  0.00000000E+00
  0.00000000E+00  0.00000000E+00  0.00000000E+00
  0.00000000E+00  0.00000000E+00  0.00000000E+00
  0.00000000E+00  0.00000000E+00  0.00000000E+00
  0.00000000E+00  0.00000000E+00  0.00000000E+00
  0.00000000E+00  0.00000000E+00  0.00000000E+00
  0.00000000E+00  0.00000000E+00  0.00000000E+00
  0.00000000E+00  0.00000000E+00  0.00000000E+00
  0.00000000E+00  0.00000000E+00  0.00000000E+00
  0.00000000E+00  0.00000000E+00  0.00000000E+00
  0.00000000E+00  0.00000000E+00  0.00000000E+00
  0.00000000E+00  0.00000000E+00  0.00000000E+00
  0.00000000E+00  0.00000000E+00  0.00000000E+00
  0.00000000E+00  0.00000000E+00  0.00000000E+00
  0.00000000E+00  0.00000000E+00  0.00000000E+00
  0.00000000E+00  0.00000000E+00  0.00000000E+00
  0.00000000E+00  0.00000000E+00  0.00000000E+00
  0.00000000E+00  0.00000000E+00  0.00000000E+00
  0.00000000E+00  0.00000000E+00  0.00000000E+00
  0.00000000E+00  0.00000000E+00  0.00000000E+00
  0.00000000E+00  0.00000000E+00  0.00000000E+00
  0.00000000E+00  0.00000000E+00  0.00000000E+00
  0.00000000E+00  0.00000000E+00  0.00000000E+00
  0.00000000E+00  0.00000000E+00  0.00000000E+00
  0.00000000E+00  0.00000000E+00  0.00000000E+00
  0.00000000E+00  0.00000000E+00  0.00000000E+00
  0.00000000E+00  0.00000000E+00  0.00000000E+00
  0.00000000E+00  0.00000000E+00  0.00000000E+00
  0.00000000E+00  0.00000000E+00  0.00000000E+00
  0.00000000E+00  0.00000000E+00  0.00000000E+00
  0.00000000E+00  0.00000000E+00  0.00000000E+00
  0.00000000E+00  0.00000000E+00  0.00000000E+00
  0.00000000E+00  0.00000000E+00  0.00000000E+00
  0.00000000E+00  0.00000000E+00  0.00000000E+00
  0.00000000E+00  0.00000000E+00  0.00000000E+00
  0.00000000E+00  0.00000000E+00  0.00000000E+00
  0.00000000E+00  0.00000000E+00  0.00000000E+00
  0.00000000E+00  0.00000000E+00  0.00000000E+00
  0.00000000E+00  0.00000000E+00  0.00000000E+00
  0.00000000E+00  0.00000000E+00  0.00000000E+00
  0.00000000E+00  0.00000000E+00  0.00000000E+00
  0.00000000E+00  0.00000000E+00  0.00000000E+00
  0.00000000E+00  0.00000000E+00  0.00000000E+00
  0.00000000E+00  0.00000000E+00  0.00000000E+00
  0.00000000E+00  0.00000000E+00  0.00000000E+00
  0.00000000E+00  0.00000000E+00  0.00000000E+00
  0.00000000E+00  0.00000000E+00  0.00000000E+00
  0.00000000E+00  0.00000000E+00  0.00000000E+00
  0.00000000E+00  0.00000000E+00  0.00000000E+00
  0.00000000E+00  0.00000000E+00  0.00000000E+00
  0.00000000E+00  0.00000000E+00  0.00000000E+00
  0.00000000E+00  0.00000000E+00  0.00000000E+00
  0.00000000E+00  0.00000000E+00  0.00000000E+00
  0.00000000E+00  0.00000000E+00  0.00000000E+00
  0.00000000E+00  0.00000000E+00  0.00000000E+00
  0.00000000E+00  0.00000000E+00  0.00000000E+00
  0.00000000E+00  0.00000000E+00  0.00000000E+00
  0.00000000E+00  0.00000000E+00  0.00000000E+00
  0.00000000E+00  0.00000000E+00  0.00000000E+00
  0.00000000E+00  0.00000000E+00  0.00000000E+00
  0.00000000E+00  0.00000000E+00  0.00000000E+00
  0.00000000E+00  0.00000000E+00  0.00000000E+00
  0.00000000E+00  0.00000000E+00  0.00000000E+00
  0.00000000E+00  0.00000000E+00  0.00000000E+00
  0.00000000E+00  0.00000000E+00  0.00000000E+00
  0.00000000E+00  0.00000000E+00  0.00000000E+00
  0.00000000E+00  0.00000000E+00  0.00000000E+00
  0.00000000E+00  0.00000000E+00  0.00000000E+00
  0.00000000E+00  0.00000000E+00  0.00000000E+00
  0.00000000E+00  0.00000000E+00  0.00000000E+00
  0.00000000E+00  0.00000000E+00  0.00000000E+00
  0.00000000E+00  0.00000000E+00  0.00000000E+00
  0.00000000E+00  0.00000000E+00  0.00000000E+00
  0.00000000E+00  0.00000000E+00  0.00000000E+00
  0.00000000E+00  0.00000000E+00  0.00000000E+00
  0.00000000E+00  0.00000000E+00  0.00000000E+00
  0.00000000E+00  0.00000000E+00  0.00000000E+00
  0.00000000E+00  0.00000000E+00  0.00000000E+00
