Mo  S Co                                
   1.00000000000000     
    15.9214998300000001    0.0000000000000000    0.0000000000000000
    -7.9622501300000001   13.7910221699999997    0.0000000000000000
     0.0000000000000000    0.0000000000000000   13.5821998300000004
   Mo   S    Co
    25    49     4
Direct
  0.1324331337640317  0.0689229715001929  0.6787264075645183
  0.1342044332093195  0.2669873509719309  0.6727893812320289
  0.1331464562542379  0.4645315413231970  0.6774453768953279
  0.1325263241043118  0.6656955694911204  0.6804702281251807
  0.1323356454577649  0.8664486226932908  0.6811609746711724
  0.3318293295608612  0.0662296202185431  0.6819847077022629
  0.3293108386268884  0.2672430954403850  0.6742654553239262
  0.3293497973163397  0.4607999729508592  0.6758381783680747
  0.3321574628599606  0.6644000835065640  0.6809199365539982
  0.3321720088418090  0.8654996121935383  0.6819683044240037
  0.5329421991844541  0.0658949021968240  0.6822501360874043
  0.5335026328881227  0.2639281303015650  0.6752145832553254
  0.5320251320269733  0.4688356376279472  0.6731747644283814
  0.5317964178449586  0.6653899952882441  0.6814275579432092
  0.5322211266629182  0.8655746985220887  0.6824183849742056
  0.7326886935872778  0.0660248670387915  0.6824306174573636
  0.7326481771155500  0.2650865203479214  0.6820782202169440
  0.7325431469119579  0.4662713066306239  0.6822211046648050
  0.7319913421196489  0.6669871983515918  0.6813030968090743
  0.7324048003331214  0.8661515885529951  0.6824549678490754
  0.9330685270911587  0.0668914442142068  0.6808026496183217
  0.9336339417010180  0.2662120808755759  0.6802490176824492
  0.9327009957806496  0.4657180073256484  0.6808620996111472
  0.9324574154570158  0.6663245828085280  0.6812814225465047
  0.9325526592667188  0.8667471457395663  0.6811481505934580
  0.0642160140243959  0.1323045940261522  0.5623051610418059
  0.0707493728967208  0.1390621215301238  0.7936349168500456
  0.0646682339625713  0.3314043218252465  0.5612768163643338
  0.0715715979570817  0.3327379299649920  0.7924090971639117
  0.0654329639803706  0.5326866125909149  0.5647745898166434
  0.0671743120257062  0.5314843491951891  0.7941913757694152
  0.0656581817481054  0.7329838988248980  0.5659999597831344
  0.0660363073788517  0.7327175073456473  0.7958360717922730
  0.0656160826490932  0.9332588908364627  0.5657069204752716
  0.0665546064423381  0.9351246217084253  0.7949326495697804
  0.2660065223851262  0.1325204759364098  0.5640882927007596
  0.2650131571097631  0.1358824892650503  0.7988394940890231
  0.2654365403990298  0.3322227438856089  0.5586633692675846
  0.2672630878770903  0.5324493558390699  0.5628594741685191
  0.2643164048181816  0.5262742249271497  0.7931480527685224
  0.2663333067135696  0.7325429572622255  0.5661881955511987
  0.2652306275262148  0.7309279567601905  0.7961414304394694
  0.2658020430176222  0.9325238650193484  0.5666495676267331
  0.2647990798318105  0.9321666811570495  0.7965771313335495
  0.4643141491009288  0.1293560542632690  0.5652966170285367
  0.4640090881677352  0.1310029504059003  0.8008297363276498
  0.4651872938942603  0.3320703732555828  0.5605002075292163
  0.4645597521176086  0.3339628154355339  0.7809385382962901
  0.4630471565155645  0.5342340946249777  0.5624048771404304
  0.4585141771630603  0.5270817063473601  0.7984386228635643
  0.4659053050120150  0.7328122129357695  0.5668845931610491
  0.4647350714243856  0.7313867747133784  0.7968149064902477
  0.4658868416447746  0.9323173987249262  0.5673186053737780
  0.4653438511246009  0.9320430135419926  0.7973235427996244
  0.6659145931171153  0.1323741155939686  0.5671680352729993
  0.6660984082554080  0.1324596592520351  0.7978654398717566
  0.6687683849991330  0.3336084622356381  0.5653892710227453
  0.6642000987286991  0.3321946597499448  0.7982578198474712
  0.6685728789529719  0.5346267264778817  0.5646764494583749
  0.6642735667343374  0.5324548269536464  0.7979389131005945
  0.6652759808268272  0.7331764334198638  0.5668226049103424
  0.6647663236049794  0.7321396891898928  0.7972680540906012
  0.6656678944204302  0.9326534079620856  0.5674511883420621
  0.6658546546592419  0.9326374999982363  0.7975544980233238
  0.8652343286477873  0.1323399327137906  0.5663630344988704
  0.8672770735577160  0.1337114238260924  0.7963842072942668
  0.8655585419146377  0.3321833598286545  0.5662520570568361
  0.8674812855342466  0.3327274288727153  0.7962283403754924
  0.8658404826221826  0.5328654497189405  0.5664222196611775
  0.8668789440192768  0.5330794599844850  0.7960873960992672
  0.8657394801350122  0.7332637413741665  0.5663877106335704
  0.8659705811401324  0.7334262392862669  0.7962159112095861
  0.8651584225400413  0.9327874495492523  0.5665099049620821
  0.8669277874543297  0.9339961253262246  0.7966506581065005
  0.3582960824030792  0.2632370703227522  0.8828915087988065
  0.5228224333303686  0.2709359001404863  0.8724100443429066
  0.5241240668943590  0.4529626835656089  0.8726970666371869
  0.4919489897167111  0.3473435478353650  0.9979373977639554
 
  0.00000000E+00  0.00000000E+00  0.00000000E+00
  0.00000000E+00  0.00000000E+00  0.00000000E+00
  0.00000000E+00  0.00000000E+00  0.00000000E+00
  0.00000000E+00  0.00000000E+00  0.00000000E+00
  0.00000000E+00  0.00000000E+00  0.00000000E+00
  0.00000000E+00  0.00000000E+00  0.00000000E+00
  0.00000000E+00  0.00000000E+00  0.00000000E+00
  0.00000000E+00  0.00000000E+00  0.00000000E+00
  0.00000000E+00  0.00000000E+00  0.00000000E+00
  0.00000000E+00  0.00000000E+00  0.00000000E+00
  0.00000000E+00  0.00000000E+00  0.00000000E+00
  0.00000000E+00  0.00000000E+00  0.00000000E+00
  0.00000000E+00  0.00000000E+00  0.00000000E+00
  0.00000000E+00  0.00000000E+00  0.00000000E+00
  0.00000000E+00  0.00000000E+00  0.00000000E+00
  0.00000000E+00  0.00000000E+00  0.00000000E+00
  0.00000000E+00  0.00000000E+00  0.00000000E+00
  0.00000000E+00  0.00000000E+00  0.00000000E+00
  0.00000000E+00  0.00000000E+00  0.00000000E+00
  0.00000000E+00  0.00000000E+00  0.00000000E+00
  0.00000000E+00  0.00000000E+00  0.00000000E+00
  0.00000000E+00  0.00000000E+00  0.00000000E+00
  0.00000000E+00  0.00000000E+00  0.00000000E+00
  0.00000000E+00  0.00000000E+00  0.00000000E+00
  0.00000000E+00  0.00000000E+00  0.00000000E+00
  0.00000000E+00  0.00000000E+00  0.00000000E+00
  0.00000000E+00  0.00000000E+00  0.00000000E+00
  0.00000000E+00  0.00000000E+00  0.00000000E+00
  0.00000000E+00  0.00000000E+00  0.00000000E+00
  0.00000000E+00  0.00000000E+00  0.00000000E+00
  0.00000000E+00  0.00000000E+00  0.00000000E+00
  0.00000000E+00  0.00000000E+00  0.00000000E+00
  0.00000000E+00  0.00000000E+00  0.00000000E+00
  0.00000000E+00  0.00000000E+00  0.00000000E+00
  0.00000000E+00  0.00000000E+00  0.00000000E+00
  0.00000000E+00  0.00000000E+00  0.00000000E+00
  0.00000000E+00  0.00000000E+00  0.00000000E+00
  0.00000000E+00  0.00000000E+00  0.00000000E+00
  0.00000000E+00  0.00000000E+00  0.00000000E+00
  0.00000000E+00  0.00000000E+00  0.00000000E+00
  0.00000000E+00  0.00000000E+00  0.00000000E+00
  0.00000000E+00  0.00000000E+00  0.00000000E+00
  0.00000000E+00  0.00000000E+00  0.00000000E+00
  0.00000000E+00  0.00000000E+00  0.00000000E+00
  0.00000000E+00  0.00000000E+00  0.00000000E+00
  0.00000000E+00  0.00000000E+00  0.00000000E+00
  0.00000000E+00  0.00000000E+00  0.00000000E+00
  0.00000000E+00  0.00000000E+00  0.00000000E+00
  0.00000000E+00  0.00000000E+00  0.00000000E+00
  0.00000000E+00  0.00000000E+00  0.00000000E+00
  0.00000000E+00  0.00000000E+00  0.00000000E+00
  0.00000000E+00  0.00000000E+00  0.00000000E+00
  0.00000000E+00  0.00000000E+00  0.00000000E+00
  0.00000000E+00  0.00000000E+00  0.00000000E+00
  0.00000000E+00  0.00000000E+00  0.00000000E+00
  0.00000000E+00  0.00000000E+00  0.00000000E+00
  0.00000000E+00  0.00000000E+00  0.00000000E+00
  0.00000000E+00  0.00000000E+00  0.00000000E+00
  0.00000000E+00  0.00000000E+00  0.00000000E+00
  0.00000000E+00  0.00000000E+00  0.00000000E+00
  0.00000000E+00  0.00000000E+00  0.00000000E+00
  0.00000000E+00  0.00000000E+00  0.00000000E+00
  0.00000000E+00  0.00000000E+00  0.00000000E+00
  0.00000000E+00  0.00000000E+00  0.00000000E+00
  0.00000000E+00  0.00000000E+00  0.00000000E+00
  0.00000000E+00  0.00000000E+00  0.00000000E+00
  0.00000000E+00  0.00000000E+00  0.00000000E+00
  0.00000000E+00  0.00000000E+00  0.00000000E+00
  0.00000000E+00  0.00000000E+00  0.00000000E+00
  0.00000000E+00  0.00000000E+00  0.00000000E+00
  0.00000000E+00  0.00000000E+00  0.00000000E+00
  0.00000000E+00  0.00000000E+00  0.00000000E+00
  0.00000000E+00  0.00000000E+00  0.00000000E+00
  0.00000000E+00  0.00000000E+00  0.00000000E+00
  0.00000000E+00  0.00000000E+00  0.00000000E+00
  0.00000000E+00  0.00000000E+00  0.00000000E+00
  0.00000000E+00  0.00000000E+00  0.00000000E+00
  0.00000000E+00  0.00000000E+00  0.00000000E+00
