Ta  N Cu                                
   1.00000000000000     
    18.1096308199999996    0.0000000000000000    0.0000000000000000
     0.0000000000000000   23.3551997799999995    0.0000000000000000
     0.0000000000000000    0.0000000000000000   30.4818170799999990
   Ta   N    Cu
   240   240    29
Selective dynamics
Direct
  0.9965297017578862  0.9992239509757681  0.1949660672919435   F   F   F
  0.3276575905372354  0.0581105712125947  0.2013769711920332   F   F   F
  0.1683724549830430  0.0580319163512613  0.2013846150932963   F   F   F
  0.2478559637473623  0.1239596761008741  0.2800338633880415   F   F   F
  0.0807092101726212  0.0616415622029010  0.2828871053641251   F   F   F
  0.4150974735331445  0.0616640839541560  0.2828977018452719   F   F   F
  0.9978461283729274  0.1239114213220418  0.3687222441661575   F   F   F
  0.3304600772640143  0.0615066457804474  0.3678983759586316   F   F   F
  0.1654402582680561  0.0614730772386451  0.3678906008315934   F   F   F
  0.2479486768466330  0.1239710654275541  0.4552824381688723   F   F   F
  0.0817181208556548  0.0613998601385575  0.4539152952623127   F   F   F
  0.4141933689623372  0.0614564214188036  0.4539441649323095   F   F   F
  0.9981926290864038  0.1239541527056005  0.5403646690999722   F   F   F
  0.3332471578236209  0.0613862871439750  0.5422146244307839   F   F   F
  0.1630312638256228  0.0614385239054442  0.5420511171179854   F   F   F
  0.9997289387040098  0.1240106283518188  0.1949596372290827   F   F   F
  0.3276241276794849  0.1899829606167458  0.2013760526116215   F   F   F
  0.1683613006971285  0.1900246215748709  0.2014777525854754   F   F   F
  0.2477454148344691  0.2488412454076609  0.2806961598629201   F   F   F
  0.0805849116696677  0.1862680705358528  0.2829396284796530   F   F   F
  0.4150548995012571  0.1862842553685056  0.2828917966855045   F   F   F
  0.9976805258805399  0.2488734438048965  0.3689200998249689   F   F   F
  0.3303478165547702  0.1863650082636994  0.3679116625681189   F   F   F
  0.1653035354367347  0.1863871018447796  0.3679347911105566   F   F   F
  0.2475866595274994  0.2486947255734435  0.4552260110866087   F   F   F
  0.0814601917986550  0.1862594214982991  0.4539153280687529   F   F   F
  0.4142128613530716  0.1862596784004040  0.4540280510075121   F   F   F
  0.9974241981814203  0.2490862871993826  0.5403941292859429   F   F   F
  0.3320313958780048  0.1852033825762476  0.5422522862275514   F   F   F
  0.1621321289861584  0.1863152977062654  0.5419149375723507   F   F   F
  0.9964410196629316  0.2488042943214737  0.1950967681615623   F   F   F
  0.3277044164503877  0.3080481035388516  0.2013556798104119   F   F   F
  0.1682924423083278  0.3079140862737688  0.2014538694948413   F   F   F
  0.2476864406891295  0.3738679644041127  0.2800391452253947   F   F   F
  0.0805471417114205  0.3114455482512710  0.2829429747368621   F   F   F
  0.4150303821599408  0.3114699111342816  0.2828838575262509   F   F   F
  0.9978795360114390  0.3738552477498871  0.3689638308137262   F   F   F
  0.3303607378562816  0.3113313124483170  0.3678167535280039   F   F   F
  0.1651322453629120  0.3113839345629472  0.3678850237362568   F   F   F
  0.2470188401112878  0.3738205659656302  0.4547901446825406   F   F   F
  0.0810862471242828  0.3113187242451403  0.4540531479365484   F   F   F
  0.4141201482538008  0.3112171622793980  0.4536815821611100   F   F   F
  0.9961272639571135  0.3743662688549279  0.5410847705277320   F   F   F
  0.3282124886519355  0.3098915474145443  0.5399903475833057   F   F   F
  0.1606021143616019  0.3108267138959135  0.5417956533449555   F   F   F
  0.9999742777749248  0.3735719275444396  0.1951421394724804   F   F   F
  0.3274681333343707  0.4398604206673156  0.2013047642105974   F   F   F
  0.1684388837254076  0.4399420727198731  0.2014319547907988   F   F   F
  0.2479529287278979  0.9990880497619088  0.2806428165863153   F   F   F
  0.0804600609743389  0.4361783284219030  0.2829284742889726   F   F   F
  0.4150467270541540  0.4362045752536901  0.2827923931626728   F   F   F
  0.9980402239917083  0.9990303752392080  0.3686571233764511   F   F   F
  0.3303617870217863  0.4363872326507661  0.3676786055957777   F   F   F
  0.1649927615697280  0.4364124518741335  0.3678005799515134   F   F   F
  0.2481544789437038  0.9990390670937757  0.4553413585408208   F   F   F
  0.0815237491406791  0.4364544125513774  0.4544327184841208   F   F   F
  0.4138383644863310  0.4363415897100040  0.4532912182937352   F   F   F
  0.9981591662286604  0.9990594479941564  0.5403319282696799   F   F   F
  0.3289715875058334  0.4354132311344330  0.5394801089725618   F   F   F
  0.1604302720954109  0.4352553219735285  0.5418779647108920   F   F   F
  0.9973874221694388  0.4987710278537349  0.1947320261263101   F   F   F
  0.3275947510452895  0.5580481915278241  0.2013085041451177   F   F   F
  0.1684901271775345  0.5578912243413043  0.2014257543730409   F   F   F
  0.2478008549486290  0.6240097767213371  0.2798818055239138   F   F   F
  0.0804374210870833  0.5615476691931747  0.2828104038999797   F   F   F
  0.4151729582304071  0.5615788399819905  0.2827191363750572   F   F   F
  0.9984416678462154  0.6240661239164993  0.3688216804954365   F   F   F
  0.3304984546338758  0.5615701481274158  0.3676692885659136   F   F   F
  0.1652520711076519  0.5615016837162727  0.3677279136798788   F   F   F
  0.2476903612549748  0.6241148068655065  0.4546304757235973   F   F   F
  0.0824954972770655  0.5615478832782657  0.4545823158650109   F   F   F
  0.4136893829843373  0.5617058352561841  0.4534246420981418   F   F   F
  0.9981435944037642  0.6240386782082155  0.5400338817334074   F   F   F
  0.3308543978369158  0.5613455300530958  0.5395961453620828   F   F   F
  0.1600134772929636  0.5612117696901180  0.5429347258585437   F   F   F
  0.0007024991357625  0.6240550771259521  0.1950159986984588   F   F   F
  0.3276678613153550  0.6900040312992743  0.2012867534732905   F   F   F
  0.1685079629911499  0.6900610635667164  0.2013883878342568   F   F   F
  0.2479033418528829  0.7491026051929595  0.2804688768245853   F   F   F
  0.0805643148941897  0.6864728262238842  0.2827810749397770   F   F   F
  0.4151949354868165  0.6864838301974032  0.2827480388514942   F   F   F
  0.9983064911535280  0.7491822876627126  0.3686225453853424   F   F   F
  0.3305149651857988  0.6866063725017710  0.3677276184218883   F   F   F
  0.1653844316192448  0.6865352962525577  0.3677300789051259   F   F   F
  0.2480513294086037  0.7490821814755648  0.4552067537044593   F   F   F
  0.0823209492682508  0.6866049595401904  0.4541911974494397   F   F   F
  0.4139147326913886  0.6868172463134457  0.4538033924846303   F   F   F
  0.9981866654087881  0.7491237996166689  0.5398982598973063   F   F   F
  0.3305134742663967  0.6881270188817865  0.5408173652093851   F   F   F
  0.1610134424595628  0.6872610018838401  0.5425047646142502   F   F   F
  0.9975016707712214  0.7492677504298371  0.1946013252566914   F   F   F
  0.3276452766473312  0.8081567350223722  0.2012242571990370   F   F   F
  0.1685743365142756  0.8080788080503396  0.2012857364735581   F   F   F
  0.2479789922078623  0.8741492341025889  0.2799870814000727   F   F   F
  0.0807412373302014  0.8117808102089370  0.2828019070311925   F   F   F
  0.4151356852452963  0.8118075708449339  0.2828012837087712   F   F   F
  0.9981973779408051  0.8741382729460838  0.3685804219122986   F   F   F
  0.3304803427240728  0.8115930147697483  0.3678149163671804   F   F   F
  0.1655129267842241  0.8115587183386523  0.3677937562113343   F   F   F
  0.2480759019691590  0.8741467935325886  0.4551288055954714   F   F   F
  0.0819743381162965  0.8117107187511294  0.4538394467656843   F   F   F
  0.4141505740535010  0.8118587799979835  0.4538499120210560   F   F   F
  0.9982947846752381  0.8741130109057025  0.5402030645608775   F   F   F
  0.3317622573158587  0.8132843725989289  0.5419142814434892   F   F   F
  0.1627073477801559  0.8118570245002630  0.5419802223942725   F   F   F
  0.0000861972292796  0.8744590152249145  0.1949679372592072   F   F   F
  0.3277748761970614  0.9401029837818839  0.2012937412456921   F   F   F
  0.1683399860715653  0.9400706141165784  0.2013484623929145   F   F   F
  0.2476233251010029  0.4989433663495717  0.2804974840430319   F   F   F
  0.0807935851670791  0.9364753547828570  0.2828595479518583   F   F   F
  0.4150967004638275  0.9364992466786788  0.2828595151454110   F   F   F
  0.9981773885769343  0.4989091983695317  0.3689733118758056   F   F   F
  0.3304738820733206  0.9365715218043817  0.3678532342928165   F   F   F
  0.1655325296134365  0.9365438191940001  0.3678369622969981   F   F   F
  0.2472481656034091  0.4989327905462275  0.4544595213481912   F   F   F
  0.0818381122581044  0.9365819691566770  0.4538741231761207   F   F   F
  0.4142300345358478  0.9366736832083760  0.4538881971402446   F   F   F
  0.9986177619936711  0.4989175905049805  0.5405374606361875   F   F   F
  0.3333627869063349  0.9370614769367620  0.5422014690470647   F   F   F
  0.1630955390177320  0.9367436033981136  0.5420429811200762   F   F   F
  0.4993742329640725  0.9992254923884047  0.1949140034666215   F   F   F
  0.8277377462297721  0.0649781639333114  0.2014510153342854   F   F   F
  0.6680837461710354  0.0648875203070531  0.2014459631420351   F   F   F
  0.7479650543201970  0.1239651994961406  0.2805916385349576   F   F   F
  0.5804844452372961  0.0613638938437688  0.2828905828471022   F   F   F
  0.9153584722275383  0.0613794792381768  0.2828607289838132   F   F   F
  0.4979039655541726  0.1239476873359493  0.3687184714251970   F   F   F
  0.8304699388675871  0.0614745330172468  0.3678295808472853   F   F   F
  0.6653634256692129  0.0614795854253245  0.3678366014261272   F   F   F
  0.7479941548582048  0.1239091092030904  0.4552326379881322   F   F   F
  0.5817980004520038  0.0613713440048329  0.4539201178094601   F   F   F
  0.9141693259542691  0.0613651355372795  0.4539148031656666   F   F   F
  0.4976210221827131  0.1243735882099983  0.5401893514676246   F   F   F
  0.8328729696324118  0.0610199447414033  0.5420178185781594   F   F   F
  0.6629150599106453  0.0607583327638750  0.5421593127675806   F   F   F
  0.4961035975442343  0.1239855803965213  0.1949264371085846   F   F   F
  0.8277043385912606  0.1831635370408264  0.2015204009616056   F   F   F
  0.6680571304986955  0.1831619099941619  0.2014603323641495   F   F   F
  0.7478961407121574  0.2487864824421564  0.2802293569829430   F   F   F
  0.5804566699609808  0.1865512622902514  0.2829175497433951   F   F   F
  0.9152866872191723  0.1865891125338095  0.2829250296124428   F   F   F
  0.4978835344364043  0.2487780903067076  0.3688063598864701   F   F   F
  0.8305212927581920  0.1863902274870597  0.3679139590191411   F   F   F
  0.6653661314118366  0.1863891998786400  0.3679392527868259   F   F   F
  0.7477716765514941  0.2487611347677401  0.4550121458835292   F   F   F
  0.5819226854896229  0.1862134360213972  0.4540879227663126   F   F   F
  0.9138081921429233  0.1862003340140106  0.4541516328789683   F   F   F
  0.4973159358971415  0.2500391371090203  0.5400942127824067   F   F   F
  0.8345330807798348  0.1852024834188768  0.5423783613886854   F   F   F
  0.6629231219192775  0.1841376670082155  0.5422362766832762   F   F   F
  0.4993602624970563  0.2487950458456751  0.1949755483540230   F   F   F
  0.8275262565512662  0.3144206459020893  0.2014915640980561   F   F   F
  0.6681363148848547  0.3143455020362040  0.2014124677635536   F   F   F
  0.7480048121709828  0.3736761869822871  0.2804944330438204   F   F   F
  0.5804362388432196  0.3110775788020277  0.2828855634612992   F   F   F
  0.9152803370068909  0.3111024126722342  0.2829055753916379   F   F   F
  0.4979013702500197  0.3738134155236921  0.3686458051535553   F   F   F
  0.8306406767490344  0.3113459558683331  0.3679808513567764   F   F   F
  0.6652171499098500  0.3113392335965699  0.3679330851755083   F   F   F
  0.7482045401519670  0.3739557392901887  0.4547884059410521   F   F   F
  0.5817955155863288  0.3112397696646880  0.4539762824401805   F   F   F
  0.9138697615924087  0.3113002272935361  0.4542955875516341   F   F   F
  0.4972613792907765  0.3737084281965437  0.5392507919347409   F   F   F
  0.8347985748723303  0.3104935118649621  0.5416490741568367   F   F   F
  0.6632511794075313  0.3106626819014977  0.5402898704095236   F   F   F
  0.4959239693655988  0.3735860143432248  0.1950267920182682   F   F   F
  0.8276099689148708  0.4321904798538156  0.2010858468152747   F   F   F
  0.6683322879577034  0.4321985722701456  0.2010153129624399   F   F   F
  0.7479279469927889  0.9991563429049819  0.2801595120654170   F   F   F
  0.5806446914636751  0.4363190679587490  0.2828299565401124   F   F   F
  0.9151682971745956  0.4363409902717592  0.2829144003248487   F   F   F
  0.4979210835177028  0.9990431347104476  0.3686648656970419   F   F   F
  0.8309272093709055  0.4363837644723390  0.3678789217378267   F   F   F
  0.6653715981163231  0.4364052586151743  0.3676912032699562   F   F   F
  0.7480194452688451  0.9989887570980969  0.4551251968867192   F   F   F
  0.5815096455953039  0.4367018520960784  0.4534264464525180   F   F   F
  0.9143637528884767  0.4366137774908836  0.4542433268876493   F   F   F
  0.4980368782581266  0.9990564936199391  0.5403542366510408   F   F   F
  0.8340606802055177  0.4369481355813107  0.5402855727654696   F   F   F
  0.6654074354012707  0.4376406152069308  0.5389403773693928   F   F   F
  0.4986541188916433  0.4987896532563951  0.1946069679649156   F   F   F
  0.8321550643294700  0.5619487790140383  0.2024291394376405   F   F   F
  0.6639459478500811  0.5618624170895430  0.2023636577770560   F   F   F
  0.7480145307567341  0.6240416325824327  0.2774216175435456   F   F   F
  0.5805203929607217  0.5612784786035334  0.2828258229282667   F   F   F
  0.9154165628650830  0.5612858003135415  0.2828867772996944   F   F   F
  0.4978829822440289  0.6241756498475155  0.3685316059248507   F   F   F
  0.8307815410231569  0.5615713898209265  0.3674974156101030   F   F   F
  0.6657220746148838  0.5615922845255170  0.3673910571213241   F   F   F
  0.7487343687329755  0.6244083603381654  0.4544295362591271   F   F   F
  0.5816798865036148  0.5619483508438634  0.4532607411080249   F   F   F
  0.9147616627117969  0.5618522266393526  0.4537336787928794   F   F   F
  0.5001757954113799  0.6246704861199035  0.5393012482443496   F   F   F
  0.8352275179069579  0.5639390852600954  0.5414377350498825   F   F   F
  0.6671392211185889  0.5634832124737201  0.5397094588168159   F   F   F
  0.4954029758625396  0.6240224505585488  0.1949619992929925   F   F   F
  0.8321151960402062  0.6860443563287717  0.2023580806817193   F   F   F
  0.6638711810029037  0.6860901277205826  0.2023046717922270   F   F   F
  0.7479448992986164  0.7502181597694744  0.2783747431371992   F   F   F
  0.5805547945455061  0.6867753284532156  0.2828140454151722   F   F   F
  0.9154074516909461  0.6868061567058845  0.2828083370940533   F   F   F
  0.4979093770394130  0.7492567036392970  0.3685667088190527   F   F   F
  0.8305792177380198  0.6867068640420797  0.3673204576556017   F   F   F
  0.6655894932263422  0.6867342669333425  0.3674334102394639   F   F   F
  0.7482788652452470  0.7493600211027598  0.4547709201068386   F   F   F
  0.5817574143126549  0.6869268150614829  0.4535306069096094   F   F   F
  0.9147918676345483  0.6868668712368446  0.4534731300211590   F   F   F
  0.4981507955444897  0.7486411233772827  0.5395283344440287   F   F   F
  0.8351910179911641  0.6876784678054264  0.5414464615637655   F   F   F
  0.6673664482797008  0.6880984599310480  0.5401300046119175   F   F   F
  0.4986236930919361  0.7492135012685353  0.1945332190806539   F   F   F
  0.8276357010794086  0.8158506533657217  0.2009147612141007   F   F   F
  0.6683275391033092  0.8158087783225128  0.2008649282269133   F   F   F
  0.7479596428349495  0.8743107398929766  0.2803986382297410   F   F   F
  0.5807212805456814  0.8116704279375710  0.2827763836183976   F   F   F
  0.9152192645305419  0.8117019412625197  0.2827510242378253   F   F   F
  0.4978928112682510  0.8741225591006270  0.3685988919398113   F   F   F
  0.8305083714566877  0.8117360236085318  0.3675906515216170   F   F   F
  0.6655474161675912  0.8117200100439490  0.3676855933681793   F   F   F
  0.7482243638581281  0.8740966119879658  0.4550040426920603   F   F   F
  0.5818453233382925  0.8118515439220104  0.4537219668926653   F   F   F
  0.9144987087042153  0.8117951110928132  0.4534934700159283   F   F   F
  0.4979869048484531  0.8738022021749572  0.5401568730888826   F   F   F
  0.8338846964965327  0.8121043355939150  0.5416493038019397   F   F   F
  0.6640791918694688  0.8131806697823052  0.5418464049125546   F   F   F
  0.4959214844999238  0.8744631684756214  0.1949622289380883   F   F   F
  0.8276884906701838  0.9336503307787183  0.2013221188190428   F   F   F
  0.6682430536703805  0.9336750361978687  0.2012975467931000   F   F   F
  0.7480481592721944  0.4978969612564796  0.2785079044900556   F   F   F
  0.5805247000612255  0.9368454222659608  0.2827847164549695   F   F   F
  0.9153807255801354  0.9368952184574297  0.2827726108774371   F   F   F
  0.4978977809996010  0.4989385708435989  0.3685393810518889   F   F   F
  0.8305045061100813  0.9366373315604335  0.3677344093556272   F   F   F
  0.6654132334211766  0.9366092007798699  0.3677846032136856   F   F   F
  0.7490279141979741  0.4995221239764547  0.4542937175843704   F   F   F
  0.5818647605097880  0.9366165224898779  0.4538482716989023   F   F   F
  0.9143268664380173  0.9365841956415935  0.4537405025330585   F   F   F
  0.4992275706700440  0.4992388037710001  0.5387903206982969   F   F   F
  0.8332675110822620  0.9366605812009894  0.5419436760165723   F   F   F
  0.6628044005592812  0.9367358963349446  0.5420180154168150   F   F   F
  0.4046385634712806  0.9991313805837194  0.2312096415218008   F   F   F
  0.2480666803565441  0.9990826548176912  0.1761194874278829   F   F   F
  0.0913857944675627  0.9991104430621149  0.2312035723298180   F   F   F
  0.1508284750334852  0.1239518834036701  0.3155255139402584   F   F   F
  0.9978695413295000  0.1239716648657989  0.3016293279324387   F   F   F
  0.3449007360824794  0.1239877212474028  0.3155049114939459   F   F   F
  0.3992550743781536  0.1239826688393251  0.4017086962979732   F   F   F
  0.2479165392505749  0.1239248230485472  0.3871594324258041   F   F   F
  0.0965062191146302  0.1239210123339802  0.4016541063765189   F   F   F
  0.1494541786578480  0.1238140554240204  0.4873026421297553   F   F   F
  0.9978541351623207  0.1238848747711288  0.4723627847451155   F   F   F
  0.3465562088139791  0.1239356557540034  0.4874338022895870   F   F   F
  0.4009790189637883  0.1245031096882343  0.5702701369271495   F   F   F
  0.2481505031586266  0.1244447929102677  0.5573931486895489   F   F   F
  0.0948813930597865  0.1237421656514712  0.5699620516192638   F   F   F
  0.4032142384667310  0.1240064322840908  0.2308340733602989   F   F   F
  0.2479793787425209  0.1240269416355204  0.2098620296556177   F   F   F
  0.0927039328789618  0.1240148244195396  0.2308317441028365   F   F   F
  0.1504261476711903  0.2488621401122515  0.3158202142193289   F   F   F
  0.9979854465084017  0.2488816218552614  0.3017822715705378   F   F   F
  0.3451793171341961  0.2488845334124576  0.3157513863015424   F   F   F
  0.3991645700483701  0.2487510299515847  0.4016956393335818   F   F   F
  0.2478585038322692  0.2489112512314406  0.3871800020656764   F   F   F
  0.0963365303986876  0.2488877018717588  0.4017590869946943   F   F   F
  0.1489808945757432  0.2486442871267087  0.4872997551627591   F   F   F
  0.9974903508275901  0.2488513930408374  0.4724325640497540   F   F   F
  0.3464675819382634  0.2483116417169882  0.4876040677296771   F   F   F
  0.3996426029848763  0.2503300359265879  0.5715789499777415   F   F   F
  0.2466029840358743  0.2489760333790656  0.5575872972202731   F   F   F
  0.0939157190394866  0.2486379073910854  0.5701435696693693   F   F   F
  0.4046115060450504  0.2488964793603685  0.2312286364524070   F   F   F
  0.2480659072872271  0.2490149540480644  0.1762087537597665   F   F   F
  0.0912294688070290  0.2488618403931255  0.2313070110451534   F   F   F
  0.1506503377742519  0.3738561897242718  0.3155372586469198   F   F   F
  0.9977541331237347  0.3738158132766785  0.3017939834707519   F   F   F
  0.3447770449911332  0.3738457851889976  0.3154205333220901   F   F   F
  0.3990350809371179  0.3738163270808883  0.4013519262284078   F   F   F
  0.2476571192741730  0.3738972084271310  0.3868960622999680   F   F   F
  0.0964323357752477  0.3739367285343747  0.4018520604546580   F   F   F
  0.1487033626895311  0.3735724841656634  0.4873864953985247   F   F   F
  0.9974992963440243  0.3739465764484251  0.4729478220463079   F   F   F
  0.3458973880948477  0.3734742191102782  0.4865526540322662   F   F   F
  0.3967217814327597  0.3730847127011785  0.5682360062243390   F   F   F
  0.2457262682067167  0.3735557855288008  0.5572732411397325   F   F   F
  0.0927526914654138  0.3739252535736597  0.5700748073644704   F   F   F
  0.4031727688195943  0.3738442009593470  0.2308910581521033   F   F   F
  0.2479179749507452  0.3738282730287992  0.2100041471674601   F   F   F
  0.0927426415642429  0.3738300713435407  0.2309759612270454   F   F   F
  0.1505832464010410  0.9990513555778264  0.3157452843031123   F   F   F
  0.9981362502452171  0.9990586772878345  0.3015729664630626   F   F   F
  0.3452966580132610  0.9990657420957447  0.3157476135605748   F   F   F
  0.3993175825546729  0.9990547381222186  0.4017223437783315   F   F   F
  0.2479926313594518  0.9990223256398991  0.3872392176956154   F   F   F
  0.0966420584381638  0.9989995041695181  0.4016796297893137   F   F   F
  0.1495753848835193  0.9990112788493590  0.4872921440679434   F   F   F
  0.9979708134105394  0.9989667491510517  0.4722864113453937   F   F   F
  0.3467736621701079  0.9990963990803436  0.4874042436842814   F   F   F
  0.4011765381752852  0.9991651632106056  0.5701229344166094   F   F   F
  0.2482527139666999  0.9991020081096451  0.5574800201510826   F   F   F
  0.0951679809008965  0.9990214692995423  0.5698203933976203   F   F   F
  0.4044245889270996  0.4985822904401616  0.2311506555369718   F   F   F
  0.2480913081363383  0.4989160919093649  0.1760910442416446   F   F   F
  0.0914792254169186  0.4985680323733064  0.2313075359482468   F   F   F
  0.1506942922870707  0.6240236494350384  0.3153924838131701   F   F   F
  0.9977706988948967  0.6240307998769765  0.3017463813216992   F   F   F
  0.3449951057588692  0.6240549914919171  0.3153072526737972   F   F   F
  0.3990693720834244  0.6242234764561729  0.4014363044002636   F   F   F
  0.2478952246250188  0.6240692923758004  0.3867183826037177   F   F   F
  0.0971316321952500  0.6239387432891377  0.4018571782597959   F   F   F
  0.1503823588160813  0.6241997558284211  0.4882661673659001   F   F   F
  0.9984407291191815  0.6241568959938064  0.4719912189696771   F   F   F
  0.3456755724189833  0.6244224899539716  0.4872709839120901   F   F   F
  0.4003082708894254  0.6236882637361845  0.5677313119024845   F   F   F
  0.2480995910219193  0.6231986511399441  0.5622499785698452   F   F   F
  0.0942889458637808  0.6239741101456744  0.5706400951868744   F   F   F
  0.4027606124330703  0.6240237778860944  0.2308215084925607   F   F   F
  0.2480147742735710  0.6240206522438072  0.2096335327788807   F   F   F
  0.0932993619137719  0.6239775783241015  0.2308774762846255   F   F   F
  0.1505490656932125  0.7489988595593147  0.3156637602918124   F   F   F
  0.9979504375120101  0.7491530436396872  0.3015774937522195   F   F   F
  0.3453069287913877  0.7490226658211014  0.3156408285880303   F   F   F
  0.3992221084935395  0.7491568543542542  0.4016242197067896   F   F   F
  0.2480479610351338  0.7490384224835793  0.3871136018246872   F   F   F
  0.0968878392629762  0.7490340979648025  0.4016839274333677   F   F   F
  0.1496813505997281  0.7493051725032203  0.4874270769687357   F   F   F
  0.9982511062586070  0.7491725681997110  0.4718754122252591   F   F   F
  0.3467493104864943  0.7496344353685487  0.4877258124403099   F   F   F
  0.3999114102316099  0.7492921561298687  0.5711514492166856   F   F   F
  0.2474898049854346  0.7487613535626991  0.5579294684226213   F   F   F
  0.0948187192255503  0.7491099269029675  0.5700472499521965   F   F   F
  0.4044614753775519  0.7494360213090019  0.2311466531509012   F   F   F
  0.2481684494107199  0.7490820530245088  0.1760722461497011   F   F   F
  0.0916110337361360  0.7494207784507338  0.2312027193622939   F   F   F
  0.1509187032670809  0.8740872778781252  0.3154495670243023   F   F   F
  0.9979376266489766  0.8741375022397690  0.3014953464184984   F   F   F
  0.3450247032700133  0.8740825251891735  0.3154569812804624   F   F   F
  0.3992420978574103  0.8741180633137802  0.4015901010058798   F   F   F
  0.2480311191677842  0.8740492991835183  0.3870609802898244   F   F   F
  0.0968304112562777  0.8740823967381175  0.4015735993649656   F   F   F
  0.1496542931734908  0.8741830167294751  0.4872452964670799   F   F   F
  0.9981026217297568  0.8740865499888244  0.4721258566124860   F   F   F
  0.3466271103145573  0.8743258971172025  0.4873035935166072   F   F   F
  0.4009850930798819  0.8738723792667997  0.5700780552023446   F   F   F
  0.2481737504574895  0.8738350428274515  0.5573276998354046   F   F   F
  0.0951511390335469  0.8741861851887762  0.5698687829013096   F   F   F
  0.4031657559764668  0.8741741107898164  0.2308511655171941   F   F   F
  0.2480908663824408  0.8742033119958208  0.2099210812533343   F   F   F
  0.0928941079319046  0.8741521028427712  0.2308325314574731   F   F   F
  0.1503217833128616  0.4989875535117321  0.3157267814691593   F   F   F
  0.9978717500989873  0.4988886462010811  0.3018652062588885   F   F   F
  0.3451540267235558  0.4990180820452821  0.3155253171016028   F   F   F
  0.3990043790412301  0.4990092617396584  0.4013153470442674   F   F   F
  0.2477377945797343  0.4989525720083563  0.3866117288569484   F   F   F
  0.0968511184702336  0.4990363220947813  0.4019957526757807   F   F   F
  0.1500231576780422  0.4988214234834487  0.4882325079551961   F   F   F
  0.9981551904435761  0.4992283136016908  0.4724757045225303   F   F   F
  0.3454044459642915  0.4987470075068643  0.4866669188738513   F   F   F
  0.3997472986586246  0.4986710073006293  0.5673895671839020   F   F   F
  0.2478858373546871  0.4981870037336904  0.5618107659085823   F   F   F
  0.0939590109214592  0.4986058397998434  0.5707648908967187   F   F   F
  0.9035709873184459  0.9991991599225756  0.2308142910750632   F   F   F
  0.7479689748860352  0.9992764446393423  0.2102224412403686   F   F   F
  0.5923111358048132  0.9991707722399141  0.2308342373925143   F   F   F
  0.6505150280032055  0.1239885347707386  0.3157140853756459   F   F   F
  0.4978769633471742  0.1239878068814377  0.3016283109326992   F   F   F
  0.8453289386271408  0.1239708085254492  0.3157242881794744   F   F   F
  0.8991991146509761  0.1239059407437892  0.4017646312835907   F   F   F
  0.7479307079546516  0.1239122348453776  0.3871403718823174   F   F   F
  0.5965509240568849  0.1239569786287618  0.4017511806418881   F   F   F
  0.6495248366415893  0.1236175253132430  0.4874131014239396   F   F   F
  0.4979784563051624  0.1239276917887295  0.4723255494321066   F   F   F
  0.8463281859436620  0.1235589516331714  0.4874478762537109   F   F   F
  0.9010562480367525  0.1234048960038479  0.5700862896195815   F   F   F
  0.7477925494231599  0.1242455225103640  0.5578013592620081   F   F   F
  0.5947870007435085  0.1238318244863237  0.5701340886072899   F   F   F
  0.9049157966214167  0.1240179928788407  0.2311979296215867   F   F   F
  0.7478830537529433  0.1240580267903013  0.1767268331104361   F   F   F
  0.5909620194013456  0.1239948716893409  0.2311924181391376   F   F   F
  0.6507126024339343  0.2489312039616394  0.3155627820597076   F   F   F
  0.4976299124799084  0.2488823925615762  0.3017242041661135   F   F   F
  0.8450477070520392  0.2489673843415119  0.3156015264691021   F   F   F
  0.8989240676304391  0.2488903137098291  0.4018711866110323   F   F   F
  0.7478785809947297  0.2489561234658808  0.3870351288126059   F   F   F
  0.5966895795615130  0.2488264735365959  0.4017950756628608   F   F   F
  0.6495589069109471  0.2482920315229293  0.4881408139465151   F   F   F
  0.4979732656968636  0.2489456332965716  0.4723880128999198   F   F   F
  0.8456875323535726  0.2483498344966861  0.4878204918353219   F   F   F
  0.9009884388134637  0.2483430694079019  0.5707145330064449   F   F   F
  0.7479235294538142  0.2491387808629568  0.5609857166690944   F   F   F
  0.5955047956079724  0.2484091788830796  0.5717217564248926   F   F   F
  0.9035031228759181  0.2488525919173270  0.2309464026217398   F   F   F
  0.7478713472746534  0.2487769342472319  0.2102678125512867   F   F   F
  0.5922264847141676  0.2488335811615130  0.2309286215295430   F   F   F
  0.6505610256278018  0.3738498956226834  0.3156520811980386   F   F   F
  0.4978786199242933  0.3738506235119843  0.3016088895183415   F   F   F
  0.8453351231817123  0.3738400477086401  0.3157602112347533   F   F   F
  0.8991848680877723  0.3739291499222617  0.4018834234143398   F   F   F
  0.7480031555938709  0.3739957732016421  0.3869986152413460   F   F   F
  0.5966193959110200  0.3739355296578850  0.4015302620535266   F   F   F
  0.6493119112629131  0.3740392324745088  0.4871067548575425   F   F   F
  0.4978185413942100  0.3741705094504653  0.4717668885112261   F   F   F
  0.8465386816758951  0.3738519936565510  0.4876280492396390   F   F   F
  0.8981179219864401  0.3741518412307911  0.5729773246182077   F   F   F
  0.7486455761995501  0.3748888077376975  0.5571552691700603   F   F   F
  0.5963839963028050  0.3759833819755940  0.5705176287344855   F   F   F
  0.9048814502558713  0.3736213811997615  0.2311344163475937   F   F   F