Mo  S Cu                                
   1.00000000000000     
    15.9214998300000001    0.0000000000000000    0.0000000000000000
    -7.9622501300000001   13.7910221699999997    0.0000000000000000
     0.0000000000000000    0.0000000000000000   13.5821998300000004
   Mo   S    Cu
    25    50     3
Direct
  0.1322447582535560  0.0656048573250274  0.6755277669108182
  0.1323278277899291  0.2653710600916881  0.6768861755089972
  0.1322598828840000  0.4649179690022649  0.6774919585322365
  0.1323100311701353  0.6655164086757637  0.6771863644540446
  0.1325953586514075  0.8656707811110138  0.6758084584717139
  0.3320600085253815  0.0651355201498518  0.6762689511449693
  0.3322566909258740  0.2649243328180404  0.6785823547927023
  0.3327838176921745  0.4654947329486703  0.6799302485029699
  0.3327769580960620  0.6654763317659373  0.6771706362917058
  0.3325454501813923  0.8654858767899896  0.6761259094899117
  0.5326512406824975  0.0651461426489561  0.6763135687522777
  0.5317508474729209  0.2638721647774602  0.6762030231998679
  0.5318538207737333  0.4635278479842952  0.6826988648414201
  0.5339146435415643  0.6666115503944994  0.6771649280960688
  0.5326475455269133  0.8656392559016197  0.6758463187567969
  0.7329707300422257  0.0656464201465639  0.6755768273199365
  0.7322267169098211  0.2649560016008081  0.6786983603485695
  0.7313280155512629  0.4635690778881099  0.6827261314027879
  0.7330964032394292  0.6664977079494037  0.6775667781696697
  0.7329559386720135  0.8661058487838531  0.6752000778258775
  0.9325862532131168  0.0655389834052045  0.6745975041475845
  0.9327639854307037  0.2653166693309430  0.6767292471760840
  0.9323352091946191  0.4655569666374788  0.6800001677887479
  0.9322738191399651  0.6666476671819552  0.6771050538892140
  0.9327361861963652  0.8660997703336122  0.6751900421544121
  0.0666272500031724  0.1332996305492316  0.5603687193351377
  0.0648324725609157  0.1312088820819568  0.7906703728429392
  0.0658745462886188  0.3318731140583822  0.5618051921970775
  0.0655406863539127  0.3314435743407600  0.7923156317170310
  0.0645940051112603  0.5314226274804739  0.5632052428187890
  0.0671606212712703  0.5328693352456995  0.7931241915226366
  0.0650581262625423  0.7315761470564226  0.5616523033880156
  0.0663248410800392  0.7332964217700351  0.7918229653031759
  0.0661641296600592  0.9323459050581704  0.5602027026629912
  0.0657394957608943  0.9324716050991313  0.7905012967518630
  0.2665611933951979  0.1334164515812972  0.5617689344616750
  0.2642725501632910  0.1300807152344845  0.7922476775714316
  0.2670168383323812  0.3328419836840837  0.5641181142522811
  0.2666497973594204  0.3322177919343687  0.7970139863761148
  0.2663748387056586  0.5313845472082477  0.5631504923258603
  0.2653146243666384  0.5328140913781070  0.7930577857448426
  0.2655522296685362  0.7315166364695074  0.5618137733250137
  0.2661696367900248  0.7327060160735428  0.7917580534764213
  0.2659336195207231  0.9322004436707303  0.5608477845364561
  0.2656059290105759  0.9318677451313846  0.7911998654719739
  0.4658039645038343  0.1320292243870824  0.5610244457880995
  0.4646107845148251  0.1296971967817484  0.7918172639702732
  0.4658341145744060  0.3325341147565197  0.5643714747900646
  0.4652279947870284  0.3289395736838046  0.7988497039931488
  0.4668445372985062  0.5308630048035639  0.5657376670173164
  0.4654210126443630  0.5330585361078590  0.7974635885096220
  0.4661133020063204  0.7315155440960481  0.5616705734862961
  0.4664742069921317  0.7332630593192206  0.7918719262459319
  0.4658939138872782  0.9322197752155148  0.5608701903578606
  0.4658615039493199  0.9318627269054005  0.7912031994363531
  0.6664756663887914  0.1335402953934235  0.5618870099084461
  0.6653489554041130  0.1300420516553515  0.7923889638232282
  0.6663865304550498  0.3326411565316647  0.5643235157163176
  0.6633410922864584  0.3290549881676270  0.7987858028255488
  0.6648439579147762  0.5300170550321681  0.5672383518320174
  0.6657583839385595  0.5319552044433280  0.7997179087496846
  0.6661481336353816  0.7314855479759927  0.5616110991222385
  0.6672874225762655  0.7346264912287097  0.7923086689103016
  0.6657661395139343  0.9323750784358324  0.5602436826640371
  0.6663200910778571  0.9324657436387156  0.7904995033673572
  0.8662346186599379  0.1331594609615721  0.5602736023229866
  0.8660786866934629  0.1312633506132030  0.7906064838452664
  0.8653753169844762  0.3328425294350126  0.5642626187584696
  0.8652821428985007  0.3322174372376026  0.7970226305741548
  0.8636436384737181  0.5308935507391723  0.5657571481121408
  0.8672024727252108  0.5329961602522886  0.7976648054221300
  0.8649564349988665  0.7315908542132590  0.5614955994972135
  0.8670300703327030  0.7346718901460676  0.7923665641909921
  0.8658664849836839  0.9321439208823818  0.5594636004253672
  0.8662325921503964  0.9328771658966417  0.7900161114816555
  0.4067745913841563  0.4009104216373984  0.9047860197009285
  0.6048713450586263  0.4108453780037280  0.9173004318155265
  0.7941180067987545  0.3997114928253040  0.9051071661562986
 
  0.00000000E+00  0.00000000E+00  0.00000000E+00
  0.00000000E+00  0.00000000E+00  0.00000000E+00
  0.00000000E+00  0.00000000E+00  0.00000000E+00
  0.00000000E+00  0.00000000E+00  0.00000000E+00
  0.00000000E+00  0.00000000E+00  0.00000000E+00
  0.00000000E+00  0.00000000E+00  0.00000000E+00
  0.00000000E+00  0.00000000E+00  0.00000000E+00
  0.00000000E+00  0.00000000E+00  0.00000000E+00
  0.00000000E+00  0.00000000E+00  0.00000000E+00
  0.00000000E+00  0.00000000E+00  0.00000000E+00
  0.00000000E+00  0.00000000E+00  0.00000000E+00
  0.00000000E+00  0.00000000E+00  0.00000000E+00
  0.00000000E+00  0.00000000E+00  0.00000000E+00
  0.00000000E+00  0.00000000E+00  0.00000000E+00
  0.00000000E+00  0.00000000E+00  0.00000000E+00
  0.00000000E+00  0.00000000E+00  0.00000000E+00
  0.00000000E+00  0.00000000E+00  0.00000000E+00
  0.00000000E+00  0.00000000E+00  0.00000000E+00
  0.00000000E+00  0.00000000E+00  0.00000000E+00
  0.00000000E+00  0.00000000E+00  0.00000000E+00
  0.00000000E+00  0.00000000E+00  0.00000000E+00
  0.00000000E+00  0.00000000E+00  0.00000000E+00
  0.00000000E+00  0.00000000E+00  0.00000000E+00
  0.00000000E+00  0.00000000E+00  0.00000000E+00
  0.00000000E+00  0.00000000E+00  0.00000000E+00
  0.00000000E+00  0.00000000E+00  0.00000000E+00
  0.00000000E+00  0.00000000E+00  0.00000000E+00
  0.00000000E+00  0.00000000E+00  0.00000000E+00
  0.00000000E+00  0.00000000E+00  0.00000000E+00
  0.00000000E+00  0.00000000E+00  0.00000000E+00
  0.00000000E+00  0.00000000E+00  0.00000000E+00
  0.00000000E+00  0.00000000E+00  0.00000000E+00
  0.00000000E+00  0.00000000E+00  0.00000000E+00
  0.00000000E+00  0.00000000E+00  0.00000000E+00
  0.00000000E+00  0.00000000E+00  0.00000000E+00
  0.00000000E+00  0.00000000E+00  0.00000000E+00
  0.00000000E+00  0.00000000E+00  0.00000000E+00
  0.00000000E+00  0.00000000E+00  0.00000000E+00
  0.00000000E+00  0.00000000E+00  0.00000000E+00
  0.00000000E+00  0.00000000E+00  0.00000000E+00
  0.00000000E+00  0.00000000E+00  0.00000000E+00
  0.00000000E+00  0.00000000E+00  0.00000000E+00
  0.00000000E+00  0.00000000E+00  0.00000000E+00
  0.00000000E+00  0.00000000E+00  0.00000000E+00
  0.00000000E+00  0.00000000E+00  0.00000000E+00
  0.00000000E+00  0.00000000E+00  0.00000000E+00
  0.00000000E+00  0.00000000E+00  0.00000000E+00
  0.00000000E+00  0.00000000E+00  0.00000000E+00
  0.00000000E+00  0.00000000E+00  0.00000000E+00
  0.00000000E+00  0.00000000E+00  0.00000000E+00
  0.00000000E+00  0.00000000E+00  0.00000000E+00
  0.00000000E+00  0.00000000E+00  0.00000000E+00
  0.00000000E+00  0.00000000E+00  0.00000000E+00
  0.00000000E+00  0.00000000E+00  0.00000000E+00
  0.00000000E+00  0.00000000E+00  0.00000000E+00
  0.00000000E+00  0.00000000E+00  0.00000000E+00
  0.00000000E+00  0.00000000E+00  0.00000000E+00
  0.00000000E+00  0.00000000E+00  0.00000000E+00
  0.00000000E+00  0.00000000E+00  0.00000000E+00
  0.00000000E+00  0.00000000E+00  0.00000000E+00
  0.00000000E+00  0.00000000E+00  0.00000000E+00
  0.00000000E+00  0.00000000E+00  0.00000000E+00
  0.00000000E+00  0.00000000E+00  0.00000000E+00
  0.00000000E+00  0.00000000E+00  0.00000000E+00
  0.00000000E+00  0.00000000E+00  0.00000000E+00
  0.00000000E+00  0.00000000E+00  0.00000000E+00
  0.00000000E+00  0.00000000E+00  0.00000000E+00
  0.00000000E+00  0.00000000E+00  0.00000000E+00
  0.00000000E+00  0.00000000E+00  0.00000000E+00
  0.00000000E+00  0.00000000E+00  0.00000000E+00
  0.00000000E+00  0.00000000E+00  0.00000000E+00
  0.00000000E+00  0.00000000E+00  0.00000000E+00
  0.00000000E+00  0.00000000E+00  0.00000000E+00
  0.00000000E+00  0.00000000E+00  0.00000000E+00
  0.00000000E+00  0.00000000E+00  0.00000000E+00
  0.00000000E+00  0.00000000E+00  0.00000000E+00
  0.00000000E+00  0.00000000E+00  0.00000000E+00
  0.00000000E+00  0.00000000E+00  0.00000000E+00
