Ru Ta  N  Cu                            
   1.00000000000000     
    18.1096308199999996    0.0000000000000000    0.0000000000000000
     0.0000000000000000   23.3551997799999995    0.0000000000000000
     0.0000000000000000    0.0000000000000000   32.4818170799999990
   Ru   Ta   N    Cu
   128   240   240     4
Selective dynamics
Direct
  0.0299362844945227  0.0071742865416463  0.4473038537460798   T   T   T
  0.2801283051866786  0.5009306338345096  0.4392827781475117   T   T   T
  0.4253948336940884  0.0640728315322824  0.4335200202509288   T   T   T
  0.0451260394275752  0.2550140516946459  0.4477004796806782   T   T   T
  0.2755932997679463  0.2410060086245669  0.4395527745488860   T   T   T
  0.4147404049559344  0.3162556453465883  0.4345016924410460   T   T   T
  0.0321335983240486  0.1238299668523099  0.4489403562162337   T   T   T
  0.2781355382440016  0.1255085687713924  0.4395828609200013   T   T   T
  0.4231221004428474  0.1895189382194237  0.4336331563460091   T   T   T
  0.0483039263678015  0.3696732569737090  0.4482524724752908   T   T   T
  0.2723622767164478  0.3847149216290712  0.4391117861547015   T   T   T
  0.4200697000266246  0.4353650840075987  0.4329418702800129   T   T   T
  0.1534858737143285  0.4467298891173477  0.4475745446986232   T   T   T
  0.1721244482453067  0.3104921311170080  0.4588205952700667   T   T   T
  0.1543336275139469  0.1825025126751552  0.4497790272224819   T   T   T
  0.1540166816170045  0.0657452313248066  0.4493024695495315   T   T   T
  0.0649546825067041  0.4390212223678495  0.5072136281229186   T   T   T
  0.3266914593404039  0.4372377012226105  0.4998002971927081   T   T   T
  0.4496109716581140  0.0082328378063100  0.5012747904640849   T   T   T
  0.0649534953176613  0.1922652938871025  0.5085438775198793   T   T   T
  0.3312288952551787  0.1830422294158167  0.5000472456034643   T   T   T
  0.4399811795491066  0.2581787664399663  0.5011145371778938   T   T   T
  0.0628207322103822  0.0613206369276162  0.5097851649071620   T   T   T
  0.3254728092719433  0.0638432957033390  0.4990477105459550   T   T   T
  0.4516329680398628  0.1186835854528068  0.5010734161796011   T   T   T
  0.0710576988255756  0.3105506067772419  0.5121853246720068   T   T   T
  0.3131929337401371  0.3149678753957862  0.4957038271974145   T   T   T
  0.4414863098831756  0.3703258602783739  0.5011591798280036   T   T   T
  0.1983346122079276  0.3908413064108573  0.5084678940290601   T   T   T
  0.2032673297797692  0.2343191594903267  0.5113060267439837   T   T   T
  0.2076644477787424  0.1250741821719841  0.5068576164367097   T   T   T
  0.2068660914800103  0.5014601388938558  0.5065446967562649   T   T   T
  0.0324787592405129  0.5050061111524214  0.4479113406565739   T   T   T
  0.2777532394891113  0.0044589532435573  0.4394416803874713   T   T   T
  0.4265802510212293  0.5642055798111675  0.4333354051882275   T   T   T
  0.0488939519963434  0.7536088864696490  0.4472903899173079   T   T   T
  0.2765748691434316  0.7370349113698549  0.4403551623904551   T   T   T
  0.4038901858580229  0.8160265751106947  0.4356113919220940   T   T   T
  0.0345153053991402  0.6220459772253931  0.4490277399449028   T   T   T
  0.2797190788858515  0.6216035578036637  0.4399214635457847   T   T   T
  0.4200561398949162  0.6847194902797780  0.4335668476061588   T   T   T
  0.0515548328784217  0.8684020031907457  0.4482342489008564   T   T   T
  0.2707143815381974  0.8889662856785764  0.4394237243689004   T   T   T
  0.4148488565654288  0.9377860278763781  0.4339393887147793   T   T   T
  0.1514888370554594  0.9509263003278000  0.4474347214807991   T   T   T
  0.1763576481089065  0.8106444759072028  0.4579185989147461   T   T   T
  0.1559329830792462  0.6780648250101060  0.4492747918053422   T   T   T
  0.1560518501982783  0.5616126247367683  0.4492734160765212   T   T   T
  0.0649693956816354  0.9411341466738978  0.5071174304010960   T   T   T
  0.3254034983003402  0.9426060841724785  0.4999934752379440   T   T   T
  0.4478147403051351  0.5031721648745098  0.4997961205195171   T   T   T
  0.0682025435024707  0.6882501040439752  0.5086336110352943   T   T   T
  0.3306354931660770  0.6791086717573420  0.5007555419939715   T   T   T
  0.4347609931853583  0.7587305206392667  0.5017745107808483   T   T   T
  0.0651458369625875  0.5599913667231132  0.5100059453120701   T   T   T
  0.3269092000803515  0.5619118762407637  0.4994958045829906   T   T   T
  0.4519681059078792  0.6162961428612755  0.5017320278816421   T   T   T
  0.0789842076564152  0.8047343536808013  0.5121411759487494   T   T   T
  0.3069646810978874  0.8152615508512205  0.4947652461645690   T   T   T
  0.4362547191294084  0.8690951255291887  0.5030137315316646   T   T   T
  0.1975626965027392  0.8932101192245085  0.5076857704135116   T   T   T
  0.2034175083950030  0.7322105912367944  0.5102651406881971   T   T   T
  0.2086248160954453  0.6213809483884098  0.5069770061650561   T   T   T
  0.2039852556830918  0.0054189150711980  0.5067163515951069   T   T   T
  0.5487303095275363  0.0043136373759385  0.4470564170783009   T   T   T
  0.7806454035473110  0.4950547930283913  0.4331090112232145   T   T   T
  0.9044755175114515  0.0666192531228949  0.4347744480153844   T   T   T
  0.5410168992899093  0.2596942426099373  0.4483950362364320   T   T   T
  0.7790694393591209  0.2546341154107783  0.4358930488572579   T   T   T
  0.9234083222960022  0.3156994783353190  0.4316206377056235   T   T   T
  0.5539468208003514  0.1216885306178176  0.4484337850542542   T   T   T
  0.7712911602738093  0.1398876208919113  0.4393503398418594   T   T   T
  0.9143764961615639  0.1873542037803205  0.4323242753575052   T   T   T
  0.5493181663463209  0.3744059355559504  0.4487477381170769   T   T   T
  0.7813638053988972  0.3769995027391500  0.4332723988916891   T   T   T
  0.9233640480777537  0.4360462650775849  0.4319047186935370   T   T   T
  0.6765603711359290  0.4365245840033868  0.4637595581963709   T   T   T
  0.6733426220102730  0.3179268483175308  0.4614511239941987   T   T   T
  0.6573187062447228  0.2035625572741562  0.4510308100653220   T   T   T
  0.6762025192578570  0.0596889981084560  0.4568475549142038   T   T   T
  0.5653659637737113  0.4361936116187695  0.5116063038620194   T   T   T
  0.8134247639825036  0.4360542911687221  0.4974617100869877   T   T   T
  0.9334099048332486  0.0096438372287714  0.5014159438024872   T   T   T
  0.5669434716078072  0.1930106660235301  0.5083278160435228   T   T   T
  0.8237408690285341  0.1981456145606451  0.4999590904107861   T   T   T
  0.9418939770033010  0.2616170760131636  0.4999505678366262   T   T   T
  0.5788556081535210  0.0577372728857266  0.5115006832971745   T   T   T
  0.8065341431637982  0.0636695254234248  0.4935636383088728   T   T   T
  0.9333140513086704  0.1208440700697812  0.5017499635651628   T   T   T
  0.5687447967216888  0.3139691535362494  0.5142367619829282   T   T   T
  0.8101776855185324  0.3183622315276461  0.4973092074847610   T   T   T
  0.9418807636794738  0.3719468648145374  0.4994068467482770   T   T   T
  0.6976591874305574  0.3785935838116913  0.5274902985149407   T   T   T
  0.6963052619732458  0.2460171021332061  0.5180467075733648   T   T   T
  0.7004682969187206  0.1388622740088427  0.5083242667634773   T   T   T
  0.7006193663200270  0.4920709207835942  0.5282896959135678   T   T   T
  0.5526499422028097  0.4991659929745423  0.4481007349725752   T   T   T
  0.7764308733041241  0.9856997268075888  0.4394022076562780   T   T   T
  0.9116909187156949  0.5641474506373763  0.4334963168396882   T   T   T
  0.5303893371245404  0.7551336397398620  0.4469420706218680   T   T   T
  0.7785511506822047  0.7498193904188608  0.4390640555068476   T   T   T
  0.9245891987766951  0.8119935657875857  0.4336227394532450   T   T   T
  0.5548095981153203  0.6152137540946652  0.4496546155709655   T   T   T
  0.7704191729810352  0.6300417837462213  0.4393302917747609   T   T   T
  0.9167721417472261  0.6871139794198874  0.4334505053714616   T   T   T
  0.5327178957439558  0.8726343723686001  0.4487538989237844   T   T   T
  0.7791490970461483  0.8709300785420547  0.4396609724025811   T   T   T
  0.9186002225315786  0.9369888587356834  0.4330850795181621   T   T   T
  0.6555748001139926  0.9283208552088054  0.4489758754501444   T   T   T
  0.6546143975009822  0.8119267814031130  0.4487984134634127   T   T   T
  0.6523595029638988  0.6969762314343184  0.4466716157899759   T   T   T
  0.6759242343110806  0.5533900896098074  0.4614066734180562   T   T   T
  0.5684827767493964  0.9397967720977485  0.5082171392286399   T   T   T
  0.8315883360573250  0.9273631346916320  0.5003088274575590   T   T   T
  0.9347591801007626  0.5048701428188758  0.5012108782247614   T   T   T
  0.5662961414673801  0.6917066304936423  0.5068972108158486   T   T   T
  0.8246737337035646  0.6878749825711405  0.4991481210377311   T   T   T
  0.9503825894762917  0.7558703863735778  0.5017081921289759   T   T   T
  0.5730152908191720  0.5518281113008235  0.5144664163455013   T   T   T
  0.8071673966392747  0.5571045238305512  0.4966794740123540   T   T   T
  0.9363360540443623  0.6159289684436141  0.5021371722470470   T   T   T
  0.5655035246178871  0.8092285236564800  0.5094731874715427   T   T   T
  0.8254233389447797  0.8092038179422182  0.4989906149851487   T   T   T
  0.9519213771223085  0.8658250431371711  0.5018151149599517   T   T   T
  0.7074175520634099  0.8711353604719275  0.5065683793868817   T   T   T
  0.7035701929406631  0.7516268727118511  0.5063504398483859   T   T   T
  0.6988331769439955  0.6387473281727563  0.5072084877560383   T   T   T
  0.7050467569854052  0.9818015766814351  0.5098171215689888   T   T   T
  0.0002112439569970  0.0001379294448540  0.0373463921698374   F   F   F
  0.3342257926207992  0.0625994154237475  0.0423987318545187   F   F   F
  0.1660626269271432  0.0626581163633873  0.0424061668450690   F   F   F
  0.2502202084754828  0.1252178855354416  0.1130358333669221   F   F   F
  0.0828588434925734  0.0627073156657261  0.1186643004524512   F   F   F
  0.4176999472490408  0.0627059576615423  0.1186271515872050   F   F   F
  0.0011745035624150  0.1251915893671104  0.1991718905722554   T   T   T
  0.3329281361065981  0.0627805928782793  0.1978054093912072   T   T   T
  0.1682085332107836  0.0627706974359079  0.1978079358299031   T   T   T
  0.2496042019463244  0.1253821396962241  0.2789972584131460   T   T   T
  0.0844045102925995  0.0627204143710519  0.2790700271919783   T   T   T
  0.4173609627532173  0.0628283573899995  0.2784952292334338   T   T   T
  0.0038789674615236  0.1252720144748349  0.3598535929561646   T   T   T
  0.3337570758578591  0.0631488601273738  0.3590008231809803   T   T   T
  0.1662163366559658  0.0629055112452992  0.3609628024786103   T   T   T
  0.0001993579241457  0.1251124241418680  0.0373673238785415   F   F   F
  0.3342248374093941  0.1876083518869578  0.0424180467130881   F   F   F
  0.1660568042752573  0.1876606967942038  0.0424146876443743   F   F   F
  0.2502332970886698  0.2502158349488468  0.1130222857832806   F   F   F
  0.0828712378028129  0.1877169521294775  0.1186661494224168   F   F   F
  0.4176644359050954  0.1877065482458207  0.1186607550294028   F   F   F
  0.0012816963803557  0.2501655632890240  0.1991013991806742   T   T   T
  0.3329435275484873  0.1877366171123259  0.1977919674533904   T   T   T
  0.1682305323096829  0.1877269430616894  0.1977525344694635   T   T   T
  0.2493868012554206  0.2502392281596081  0.2789324637024776   T   T   T
  0.0843592035347278  0.1877577151004793  0.2790881812860184   T   T   T
  0.4172099341051209  0.1877779206288044  0.2785044789594487   T   T   T
  0.0012635904563691  0.2502075527475206  0.3594677083471068   T   T   T
  0.3338507799500297  0.1881537686700673  0.3585827580903030   T   T   T
  0.1662923005302024  0.1880651669347572  0.3609454038138230   T   T   T
  0.0002122078768210  0.2501392066830732  0.0373456541597363   F   F   F
  0.3342232035055162  0.3125992309382539  0.0423967923009556   F   F   F
  0.1660586660861370  0.3126582257413517  0.0424062846115874   F   F   F
  0.2502173161139041  0.3752178897059935  0.1130360339591618   F   F   F
  0.0828568376004242  0.3127060748111887  0.1186645141734175   F   F   F
  0.4176984722473520  0.3127078846600213  0.1186298408889357   F   F   F
  0.0013890723904460  0.3751526699735718  0.1990514034162481   T   T   T
  0.3328575060348545  0.3127147372305920  0.1977701099333632   T   T   T
  0.1682450681068319  0.3127270986412220  0.1977413189692107   T   T   T
  0.2492668881299617  0.3752471810292212  0.2788109360758371   T   T   T
  0.0845585702386575  0.3127047162547612  0.2790514381231644   T   T   T
  0.4169314933508587  0.3127134299444099  0.2783238239223305   T   T   T
  0.0020645567807185  0.3757590169791566  0.3591977810700220   T   T   T
  0.3330628755523869  0.3127732104866590  0.3585165523897999   T   T   T
  0.1655853002311692  0.3128780465984309  0.3623559484969807   T   T   T
  0.0001993469486266  0.3751125453592721  0.0373668329409540   F   F   F
  0.3342265491584655  0.4376091382735581  0.0424193945147948   F   F   F
  0.1660559599480962  0.4376604044393986  0.0424156771225839   F   F   F
  0.2502327017382058  0.0002164962773534  0.1130220722767348   F   F   F
  0.0828707196508915  0.4377156099338606  0.1186668391713255   F   F   F
  0.4176643738564039  0.4377089816271393  0.1186614737223408   F   F   F
  0.0010659578255599  0.0002216396759770  0.1991757793174369   T   T   T
  0.3328636200423795  0.4377659238778894  0.1977125055290458   T   T   T
  0.1682509648473819  0.4377900177904111  0.1977126782484969   T   T   T
  0.2496661520507554  0.0003688581300800  0.2788945663511964   T   T   T
  0.0842910700604543  0.4377941471134879  0.2788820348193368   T   T   T
  0.4169599630920696  0.4377571952231840  0.2783046406078708   T   T   T
  0.0030210251645707  0.0001100689164192  0.3597683052254259   T   T   T
  0.3332751361978521  0.4379908179318827  0.3581891619977054   T   T   T
  0.1661644279959258  0.4377722568665874  0.3602516760003479   T   T   T
  0.0002112439569970  0.5001379294448540  0.0373463921698374   F   F   F
  0.3342257926207992  0.5625994154237475  0.0423987318545187   F   F   F
  0.1660626269271432  0.5626581163633873  0.0424061668450690   F   F   F
  0.2502202084754828  0.6252178855354416  0.1130358333669221   F   F   F
  0.0828588434925734  0.5627073156657261  0.1186643004524512   F   F   F
  0.4176999472490408  0.5627059576615423  0.1186271515872050   F   F   F
  0.0012413215236402  0.6253342254277849  0.1991238858252548   T   T   T
  0.3329271233498174  0.5628218148734270  0.1977775406212149   T   T   T
  0.1682672093561134  0.5628100141914463  0.1977685030987124   T   T   T
  0.2496566595667994  0.6253185771031964  0.2788801390361082   T   T   T
  0.0843688086769602  0.5628604860454066  0.2789485577054510   T   T   T
  0.4170994358545448  0.5628262298008373  0.2784326178403587   T   T   T
  0.0033231986816185  0.6251336060526776  0.3598826059723394   T   T   T
  0.3334356688782261  0.5627852873924891  0.3587008546103091   T   T   T
  0.1661951190021554  0.5627698114445228  0.3607941435955573   T   T   T
  0.0001993579241457  0.6251124241418680  0.0373673238785415   F   F   F
  0.3342248374093941  0.6876083518869507  0.0424180467130881   F   F   F
  0.1660568042752573  0.6876606967941967  0.0424146876443743   F   F   F
  0.2502332970886698  0.7502158349488468  0.1130222857832806   F   F   F
  0.0828712378028129  0.6877169521294704  0.1186661494224168   F   F   F
  0.4176644359050954  0.6877065482458136  0.1186607550294028   F   F   F
  0.0011908115777111  0.7503110795052977  0.1991688754334529   T   T   T
  0.3328863713780758  0.6878262096252098  0.1977616534455890   T   T   T
  0.1682516596859318  0.6878045998830338  0.1977400696645884   T   T   T
  0.2496981866293645  0.7503147416633487  0.2789604812709064   T   T   T
  0.0845649650206584  0.6878477255465353  0.2790611315441207   T   T   T
  0.4171468661515278  0.6878657552494813  0.2784042568572252   T   T   T
  0.0018691275692688  0.7498622451232360  0.3593779207879566   T   T   T
  0.3339917162861267  0.6880431968872721  0.3584870420418832   T   T   T
  0.1666129535532960  0.6877956529143892  0.3607738282722490   T   T   T
  0.0002122078768210  0.7501392066830732  0.0373456541597363   F   F   F
  0.3342232035055162  0.8125992309382539  0.0423967923009556   F   F   F
  0.1660586660861370  0.8126582257413517  0.0424062846115874   F   F   F
  0.2502173161139041  0.8752178897059935  0.1130360339591618   F   F   F
  0.0828568376004242  0.8127060748111887  0.1186645141734175   F   F   F
  0.4176984722473520  0.8127078846600213  0.1186298408889357   F   F   F
  0.0011545920659815  0.8752111745061814  0.1991905296541847   T   T   T
  0.3329183376702888  0.8127989826681374  0.1978047999003953   T   T   T
  0.1682747182261420  0.8127778627472645  0.1977461291375014   T   T   T
  0.2495895232919341  0.8753657573320810  0.2789079475376858   T   T   T
  0.0848646887421195  0.8127204452154512  0.2790839818542757   T   T   T
  0.4171765067668970  0.8128551209821170  0.2784285157902299   T   T   T
  0.0020430565173650  0.8752789475605797  0.3596070441225907   T   T   T
  0.3333083611585009  0.8128809810619698  0.3585043622389298   T   T   T
  0.1661931227803142  0.8126297697231821  0.3623413461121466   T   T   T
  0.0001993469486266  0.8751125453592721  0.0373668329409540   F   F   F
  0.3342265491584655  0.9376091382735510  0.0424193945147948   F   F   F
  0.1660559599480962  0.9376604044393915  0.0424156771225839   F   F   F
  0.2502327017382058  0.5002164962773534  0.1130220722767348   F   F   F
  0.0828707196508915  0.9377156099338535  0.1186668391713255   F   F   F
  0.4176643738564039  0.9377089816271322  0.1186614737223408   F   F   F
  0.0013255040716656  0.5003396306426037  0.1990431253269523   T   T   T
  0.3329589120433179  0.9377909922430140  0.1977777206388489   T   T   T
  0.1682703730066513  0.9378011869369732  0.1977462822930794   T   T   T
  0.2495645842024526  0.5002947139585965  0.2787734206102911   T   T   T
  0.0843170412763770  0.9376841352363956  0.2789534644238802   T   T   T
  0.4173105055905223  0.9378017121798732  0.2783762585906307   T   T   T
  0.0024349000142723  0.5002514195086849  0.3598530174765125   T   T   T
  0.3336130119450862  0.9380944710450068  0.3580887774653622   T   T   T
  0.1665167472142119  0.9375894231192305  0.3604564843282673   T   T   T
  0.5002112439569970  0.0001379294448540  0.0373463921698374   F   F   F
  0.8342257926207992  0.0625994154237475  0.0423987318545187   F   F   F
  0.6660626269271432  0.0626581163633873  0.0424061668450690   F   F   F
  0.7502202084754828  0.1252178855354416  0.1130358333669221   F   F   F
  0.5828588434925734  0.0627073156657261  0.1186643004524512   F   F   F
  0.9176999472490408  0.0627059576615423  0.1186271515872050   F   F   F
  0.5009070994851431  0.1251917291419542  0.1992312865736367   T   T   T
  0.8328614173953606  0.0627147681275913  0.1977245415736561   T   T   T
  0.6681287780050157  0.0627235883203568  0.1977133279044623   T   T   T
  0.7492998956438220  0.1252738371045279  0.2786922472014114   T   T   T
  0.5845867917295937  0.0626972807653023  0.2790273841558278   T   T   T
  0.9173437543775614  0.0626972570400457  0.2782495872129261   T   T   T
  0.5018030231577821  0.1254610414127251  0.3598656619512964   T   T   T
  0.8330192590460384  0.0628402262008236  0.3581981409464381   T   T   T
  0.6661111253948111  0.0626439004201680  0.3619521357180154   T   T   T
  0.5001993579241457  0.1251124241418680  0.0373673238785415   F   F   F
  0.8342248374093941  0.1876083518869578  0.0424180467130881   F   F   F
  0.6660568042752573  0.1876606967942038  0.0424146876443743   F   F   F
  0.7502332970886698  0.2502158349488468  0.1130222857832806   F   F   F
  0.5828712378028129  0.1877169521294775  0.1186661494224168   F   F   F
  0.9176644359050954  0.1877065482458207  0.1186607550294028   F   F   F
  0.5007673259402318  0.2501881693724148  0.1991919303094163   T   T   T
  0.8328443527417059  0.1877265900578914  0.1976343769473877   T   T   T
  0.6679853996469127  0.1877234453498134  0.1976946052319881   T   T   T
  0.7489578905666331  0.2502388421127656  0.2785182354094862   T   T   T
  0.5839566919043137  0.1876841587346596  0.2790156478161159   T   T   T
  0.9175896453608212  0.1875926351110926  0.2779696025182682   T   T   T
  0.5029047417933797  0.2499442281182006  0.3599301513179199   T   T   T
  0.8331825620435167  0.1880984413248862  0.3571815504222383   T   T   T
  0.6659281562625163  0.1874385832790601  0.3605332719295762   T   T   T
  0.5002122078768210  0.2501392066830732  0.0373456541597363   F   F   F
  0.8342232035055162  0.3125992309382539  0.0423967923009556   F   F   F
  0.6660586660861370  0.3126582257413517  0.0424062846115874   F   F   F
  0.7502173161139041  0.3752178897059935  0.1130360339591618   F   F   F
  0.5828568376004242  0.3127060748111887  0.1186645141734175   F   F   F
  0.9176984722473520  0.3127078846600213  0.1186298408889357   F   F   F
  0.5007010034963337  0.3752102058205416  0.1991755325282751   T   T   T
  0.8327709224927534  0.3127376823154271  0.1976028026742819   T   T   T
  0.6678720654618348  0.3127157660746097  0.1976738661342341   T   T   T
  0.7487222125870958  0.3752082540044377  0.2783481842166335   T   T   T
  0.5837040203199575  0.3126675394160399  0.2788882831969630   T   T   T
  0.9178266308504502  0.3127022636832926  0.2776668412805944   T   T   T
  0.5024609921445962  0.3752528425750412  0.3592654639646834   T   T   T
  0.8326068463437422  0.3130125618681286  0.3567207255741126   T   T   T
  0.6650088663505325  0.3127372898842034  0.3613771611076195   T   T   T
  0.5001993469486266  0.3751125453592721  0.0373668329409540   F   F   F
  0.8342265491584655  0.4376091382735581  0.0424193945147948   F   F   F
  0.6660559599480962  0.4376604044393986  0.0424156771225839   F   F   F
  0.7502327017382058  0.0002164962773534  0.1130220722767348   F   F   F
  0.5828707196508915  0.4377156099338606  0.1186668391713255   F   F   F
  0.9176643738564039  0.4377089816271393  0.1186614737223408   F   F   F
  0.5009856247265581  0.0002953375501722  0.1992046938106092   T   T   T
  0.8328285281639433  0.4377813674760088  0.1975921260376494   T   T   T
  0.6679134793606111  0.4377310636158698  0.1976271385511145   T   T   T
  0.7496308012599180  0.0001032264492839  0.2788482394247426   T   T   T
  0.5836093739467122  0.4377444415613139  0.2787635176828970   T   T   T
  0.9178791580644124  0.4379109941618420  0.2775400741870760   T   T   T
  0.5018378167618371  0.0000308281653811  0.3595310073948534   T   T   T
  0.8328672012177386  0.4379412369687080  0.3559954303433725   T   T   T
  0.6644565522074294  0.4375941342613378  0.3608933790040098   T   T   T
  0.5002112439569970  0.5001379294448540  0.0373463921698374   F   F   F
  0.8342257926207992  0.5625994154237475  0.0423987318545187   F   F   F
  0.6660626269271432  0.5626581163633873  0.0424061668450690   F   F   F
  0.7502202084754828  0.6252178855354416  0.1130358333669221   F   F   F
  0.5828588434925734  0.5627073156657261  0.1186643004524512   F   F   F
  0.9176999472490408  0.5627059576615423  0.1186271515872050   F   F   F
  0.5008345846363477  0.6252624735862343  0.1991757553436221   T   T   T
  0.8328324768908371  0.5628203819612948  0.1976157541832356   T   T   T
  0.6680264917866710  0.5627706212004008  0.1976462345836286   T   T   T
  0.7491184837957289  0.6252909448737003  0.2785696799914156   T   T   T
  0.5838802298938163  0.5626791042097683  0.2788412825805768   T   T   T
  0.9177256191323654  0.5629650900889338  0.2778745814974012   T   T   T
  0.5027496958223910  0.6256503827999635  0.3596602112548561   T   T   T
  0.8329024346670593  0.5628310162064922  0.3571438781078379   T   T   T
  0.6649850470222544  0.5627656081089831  0.3615852261570901   T   T   T
  0.5001993579241457  0.6251124241418680  0.0373673238785415   F   F   F
  0.8342248374093941  0.6876083518869507  0.0424180467130881   F   F   F
  0.6660568042752573  0.6876606967941967  0.0424146876443743   F   F   F
  0.7502332970886698  0.7502158349488468  0.1130222857832806   F   F   F
  0.5828712378028129  0.6877169521294704  0.1186661494224168   F   F   F
  0.9176644359050954  0.6877065482458136  0.1186607550294028   F   F   F
  0.5008381182864213  0.7502670641416419  0.1991653126520332   T   T   T
  0.8329505689595230  0.6878013892192293  0.1976714264121372   T   T   T
  0.6680995472272572  0.6877922910547485  0.1976854710763927   T   T   T
  0.7495066063632820  0.7502509298871358  0.2786908735578586   T   T   T
  0.5839202571781084  0.6877289539678614  0.2787742061871092   T   T   T
  0.9174493711633909  0.6877968131375400  0.2781872634430213   T   T   T
  0.5028277269120819  0.7500830225933767  0.3598364142328030   T   T   T
  0.8331873333515674  0.6877229027517605  0.3578239872936080   T   T   T
  0.6660877913063682  0.6874410707372506  0.3599574995676802   T   T   T
  0.5002122078768210  0.7501392066830732  0.0373456541597363   F   F   F
  0.8342232035055162  0.8125992309382539  0.0423967923009556   F   F   F
  0.6660586660861370  0.8126582257413517  0.0424062846115874   F   F   F
  0.7502173161139041  0.8752178897059935  0.1130360339591618   F   F   F
  0.5828568376004242  0.8127060748111887  0.1186645141734175   F   F   F
  0.9176984722473520  0.8127078846600213  0.1186298408889357   F   F   F
  0.5009407559744710  0.8752837658497682  0.1991833985884483   T   T   T
  0.8329868938971378  0.8128009852995095  0.1977505191245781   T   T   T
  0.6681440117870270  0.8127650893576767  0.1977805998045127   T   T   T
  0.7496784475448650  0.8751787457009947  0.2788420176512559   T   T   T
  0.5841048332538156  0.8127664185607170  0.2789067703430972   T   T   T
  0.9174501637243766  0.8127191312340835  0.2783495357821248   T   T   T
  0.5039181416393084  0.8751102958396749  0.3600185819783755   T   T   T
  0.8336733656436590  0.8125357773018871  0.3585908179108838   T   T   T
  0.6663125487459000  0.8125209578119599  0.3606675252037907   T   T   T
  0.5001993469486266  0.8751125453592721  0.0373668329409540   F   F   F
  0.8342265491584655  0.9376091382735510  0.0424193945147948   F   F   F
  0.6660559599480962  0.9376604044393915  0.0424156771225839   F   F   F
  0.7502327017382058  0.5002164962773534  0.1130220722767348   F   F   F
  0.5828707196508915  0.9377156099338535  0.1186668391713255   F   F   F
  0.9176643738564039  0.9377089816271322  0.1186614737223408   F   F   F
  0.5006996530945604  0.5002796112930504  0.1991701764496593   T   T   T
  0.8329081382699635  0.9377505401328942  0.1977315817489827   T   T   T
  0.6681715445131298  0.9377428530167339  0.1977412363283892   T   T   T
  0.7488668814866206  0.5003425028469929  0.2784270913484264   T   T   T
  0.5843070988569523  0.9377727345261532  0.2789883393120808   T   T   T
  0.9173982539578290  0.9377008682288306  0.2783185265361006   T   T   T
  0.5008127794340120  0.5003521730785755  0.3597243764576019   T   T   T
  0.8342266277564778  0.9378078637974269  0.3582673019258970   T   T   T
  0.6668569131780427  0.9376982488039435  0.3606066955751966   T   T   T
  0.4059663601692378  0.0001462046730154  0.0700885167279779   F   F   F
  0.2501335306342440  0.0001313415364734  0.0393543396202674   F   F   F
  0.0944334762619548  0.0001738881651363  0.0701382961740649   F   F   F
  0.1549947328934422  0.1252546000618224  0.1485264565477067   F   F   F
  0.0003044512358912  0.1252329358346600  0.1366467142038701   F   F   F
  0.3454752489896649  0.1252525403775380  0.1484231789215542   F   F   F
  0.4016019659880111  0.1252898676507818  0.2295202120492519   T   T   T
  0.2504592010723101  0.1252860650624112  0.2155612418898699   T   T   T
  0.1001819978344367  0.1252176328355952  0.2299853516810953   T   T   T
  0.1517238584757963  0.1253876985444710  0.3113380214173887   T   T   T
  0.0010107615867478  0.1251843642511303  0.2956920069471015   T   T   T
  0.3484914033451084  0.1253232396211584  0.3094326972338937   T   T   T
  0.4025659061657024  0.1262636100255225  0.3875116246317521   T   T   T
  0.2519616394060840  0.1254104787636656  0.3765935627837361   T   T   T
  0.1017232798710554  0.1256871515320253  0.3926232767221626   T   T   T
  0.4059504510021199  0.1251528418496832  0.0701137697057277   F   F   F
  0.2501484584581348  0.1251294756807368  0.0393952583647277   F   F   F
  0.0944439778587522  0.1251741239827453  0.0701534912843229   F   F   F
  0.1549877250862224  0.2502614546838657  0.1485179043880294   F   F   F
  0.0002974674814880  0.2502100279361912  0.1366324893501272   F   F   F
  0.3454803331882346  0.2503006024972620  0.1484139149937889   F   F   F
  0.4014928606970414  0.2501907442330182  0.2294526394962800   T   T   T
  0.2503876574718821  0.2501835425926628  0.2155109601547853   T   T   T
  0.1002974456626026  0.2502053821773910  0.2299592280939712   T   T   T
  0.1518148239081172  0.2505936120222139  0.3114211626851629   T   T   T
  0.0008545741161419  0.2501828470490701  0.2954221487329561   T   T   T
  0.3481074331288750  0.2504361868489277  0.3093890549922240   T   T   T
  0.4034170705617155  0.2510644355907066  0.3868783177817277   T   T   T
  0.2520061857937622  0.2500767263523165  0.3770064955021251   T   T   T
  0.0985693537329390  0.2500954801914088  0.3904723215470726   T   T   T
  0.4059628358367533  0.2501443164155361  0.0700852243531500   F   F   F
  0.2501309939231433  0.2501318371526651  0.0393519425499136   F   F   F
  0.0944333317481849  0.2501740935465691  0.0701386596889861   F   F   F
  0.1549942609652177  0.3752545226085218  0.1485264414225469   F   F   F
  0.0003019335461047  0.3752315664304433  0.1366474736751755   F   F   F
  0.3454762333887373  0.3752493953370220  0.1484229723695165   F   F   F
  0.4014070256584682  0.3751972925724280  0.2293841904369360   T   T   T
  0.2503947509274176  0.3752581676042674  0.2154379586642050   T   T   T