Mo  S Cu                                
   1.00000000000000     
    15.9214998300000001    0.0000000000000000    0.0000000000000000
    -7.9622501300000001   13.7910221699999997    0.0000000000000000
     0.0000000000000000    0.0000000000000000   13.5821998300000004
   Mo   S    Cu
    25    49     4
Direct
  0.1327812553821559  0.0669790370845007  0.6754210465762185
  0.1324615309487314  0.2655728974291165  0.6704262029143990
  0.1327581434999843  0.4645819227270920  0.6749365782754921
  0.1329006124865444  0.6654914671248946  0.6765367359667991
  0.1329146010510840  0.8661673343287930  0.6768272772242199
  0.3329353649389049  0.0669293968091793  0.6765296686668520
  0.3317179313980390  0.2679717604934879  0.6721358660419767
  0.3308959455851266  0.4621834119136352  0.6717599172233903
  0.3328624758907850  0.6647359050492696  0.6761148949241615
  0.3328031471000585  0.8658032332141019  0.6774366851682032
  0.5331371940873950  0.0660242546810395  0.6786668794822290
  0.5328260445492390  0.2654115862078115  0.6765362936709636
  0.5312954166395656  0.4647937707411103  0.6738436662888532
  0.5327148996865247  0.6662046283511529  0.6760433184942940
  0.5330873997814507  0.8657908728915373  0.6786545602642278
  0.7334445646500498  0.0660083221282832  0.6799854250046025
  0.7332563216644701  0.2659807249317083  0.6799708362660297
  0.7339134177298519  0.4653807382880117  0.6759107341998245
  0.7336975524783469  0.6667120519847956  0.6767309286214882
  0.7330966603301476  0.8655990428110698  0.6808908084311227
  0.9336268132194689  0.0662482178325732  0.6784283440520014
  0.9336720269455938  0.2660244428325527  0.6780198834538140
  0.9332106903520057  0.4656831831054120  0.6772213628009212
  0.9328652235599861  0.6657301871297250  0.6767408970011246
  0.9331184060605580  0.8661146375150963  0.6778993268312732
  0.0640863522323727  0.1309732987197521  0.5593671915740828
  0.0714254456196386  0.1376414636653038  0.7907956320117364
  0.0641795902570195  0.3316621951047125  0.5590460235008763
  0.0713687979179980  0.3326548288015090  0.7905043518441133
  0.0659140538609719  0.5321802526701731  0.5612203641119038
  0.0672969715573757  0.5319195680316042  0.7910732467046842
  0.0664283774264831  0.7327036214954106  0.5617726382244825
  0.0664646428772002  0.7324964405101255  0.7915800803191644
  0.0657706624695251  0.9324892402100673  0.5617616556800158
  0.0674076560193697  0.9341173374687344  0.7915553230650616
  0.2663817613614512  0.1334532776419053  0.5599063445611989
  0.2656744968094600  0.1373689178218171  0.7894502519137063
  0.2644905766140297  0.3313487127830754  0.5575395598932644
  0.2662305454235110  0.5316953546648122  0.5593451433795877
  0.2653640314451877  0.5271021132180422  0.7891968737963779
  0.2666021143915458  0.7325653218169066  0.5618426505909682
  0.2660129662089474  0.7312722199799140  0.7916455195983332
  0.2665844879428079  0.9330007650919185  0.5620869286885295
  0.2660727513286147  0.9334338156674633  0.7919179365900035
  0.4664878805686428  0.1319952109257443  0.5624126301517904
  0.4654468886810932  0.1325976622225440  0.7923982391811109
  0.4658609114201298  0.3310047230007100  0.5597253071303854
  0.4622671360509116  0.3318576111457219  0.7913415610313379
  0.4656940396649958  0.5333265811237453  0.5595831937106936
  0.4614127321981840  0.5291355115745944  0.7898938899205987
  0.4665158872451585  0.7334105963343305  0.5620515764155130
  0.4652246491829928  0.7314055071577528  0.7921060134014226
  0.4669794118360926  0.9328878183824614  0.5633405770703135
  0.4655920804420717  0.9321610528061797  0.7932041680869730
  0.6672352708309077  0.1328235749350029  0.5646849108765366
  0.6661716123989549  0.1324836447303213  0.7946094610023948
  0.6667116533885391  0.3312317025071536  0.5626176131527671
  0.6645908536275016  0.3340062604921599  0.7941292800026005
  0.6671331787562664  0.5329637756050545  0.5614383211249319
  0.6661922605525206  0.5315807707987688  0.7905958255342043
  0.6671002974131213  0.7341187084984284  0.5632090596963053
  0.6634473018320506  0.7277393414177169  0.7953741432793393
  0.6674385747129321  0.9327332316276653  0.5650589751123718
  0.6659528866316791  0.9324238205934066  0.7948729506858214
  0.8659695472871007  0.1321507655979772  0.5641540235848623
  0.8679174528955684  0.1334204131084249  0.7940656832843942
  0.8654522971590026  0.3313764051069370  0.5635345709498338
  0.8680275227767282  0.3332960802716443  0.7936216425681408
  0.8670093130715486  0.5322987360837033  0.5613682674417149
  0.8668549297934760  0.5325244612866484  0.7918036694684290
  0.8667094629560310  0.7333824571330325  0.5619609612363448
  0.8669004836496654  0.7326679700846981  0.7922594471349456
  0.8651741064181380  0.9324555814775195  0.5642887129707006
  0.8680201174371902  0.9334280298405844  0.7942901741675286
  0.4272047123499476  0.4155069538851635  0.9127742129221375
  0.5817205164752437  0.4170759925051684  0.9188752908196562
  0.5801967829123882  0.5759166619072431  0.9177987321182499
  0.5245230788701036  0.4676069243375025  0.0584873578177607
 
  0.00000000E+00  0.00000000E+00  0.00000000E+00
  0.00000000E+00  0.00000000E+00  0.00000000E+00
  0.00000000E+00  0.00000000E+00  0.00000000E+00
  0.00000000E+00  0.00000000E+00  0.00000000E+00
  0.00000000E+00  0.00000000E+00  0.00000000E+00
  0.00000000E+00  0.00000000E+00  0.00000000E+00
  0.00000000E+00  0.00000000E+00  0.00000000E+00
  0.00000000E+00  0.00000000E+00  0.00000000E+00
  0.00000000E+00  0.00000000E+00  0.00000000E+00
  0.00000000E+00  0.00000000E+00  0.00000000E+00
  0.00000000E+00  0.00000000E+00  0.00000000E+00
  0.00000000E+00  0.00000000E+00  0.00000000E+00
  0.00000000E+00  0.00000000E+00  0.00000000E+00
  0.00000000E+00  0.00000000E+00  0.00000000E+00
  0.00000000E+00  0.00000000E+00  0.00000000E+00
  0.00000000E+00  0.00000000E+00  0.00000000E+00
  0.00000000E+00  0.00000000E+00  0.00000000E+00
  0.00000000E+00  0.00000000E+00  0.00000000E+00
  0.00000000E+00  0.00000000E+00  0.00000000E+00
  0.00000000E+00  0.00000000E+00  0.00000000E+00
  0.00000000E+00  0.00000000E+00  0.00000000E+00
  0.00000000E+00  0.00000000E+00  0.00000000E+00
  0.00000000E+00  0.00000000E+00  0.00000000E+00
  0.00000000E+00  0.00000000E+00  0.00000000E+00
  0.00000000E+00  0.00000000E+00  0.00000000E+00
  0.00000000E+00  0.00000000E+00  0.00000000E+00
  0.00000000E+00  0.00000000E+00  0.00000000E+00
  0.00000000E+00  0.00000000E+00  0.00000000E+00
  0.00000000E+00  0.00000000E+00  0.00000000E+00
  0.00000000E+00  0.00000000E+00  0.00000000E+00
  0.00000000E+00  0.00000000E+00  0.00000000E+00
  0.00000000E+00  0.00000000E+00  0.00000000E+00
  0.00000000E+00  0.00000000E+00  0.00000000E+00
  0.00000000E+00  0.00000000E+00  0.00000000E+00
  0.00000000E+00  0.00000000E+00  0.00000000E+00
  0.00000000E+00  0.00000000E+00  0.00000000E+00
  0.00000000E+00  0.00000000E+00  0.00000000E+00
  0.00000000E+00  0.00000000E+00  0.00000000E+00
  0.00000000E+00  0.00000000E+00  0.00000000E+00
  0.00000000E+00  0.00000000E+00  0.00000000E+00
  0.00000000E+00  0.00000000E+00  0.00000000E+00
  0.00000000E+00  0.00000000E+00  0.00000000E+00
  0.00000000E+00  0.00000000E+00  0.00000000E+00
  0.00000000E+00  0.00000000E+00  0.00000000E+00
  0.00000000E+00  0.00000000E+00  0.00000000E+00
  0.00000000E+00  0.00000000E+00  0.00000000E+00
  0.00000000E+00  0.00000000E+00  0.00000000E+00
  0.00000000E+00  0.00000000E+00  0.00000000E+00
  0.00000000E+00  0.00000000E+00  0.00000000E+00
  0.00000000E+00  0.00000000E+00  0.00000000E+00
  0.00000000E+00  0.00000000E+00  0.00000000E+00
  0.00000000E+00  0.00000000E+00  0.00000000E+00
  0.00000000E+00  0.00000000E+00  0.00000000E+00
  0.00000000E+00  0.00000000E+00  0.00000000E+00
  0.00000000E+00  0.00000000E+00  0.00000000E+00
  0.00000000E+00  0.00000000E+00  0.00000000E+00
  0.00000000E+00  0.00000000E+00  0.00000000E+00
  0.00000000E+00  0.00000000E+00  0.00000000E+00
  0.00000000E+00  0.00000000E+00  0.00000000E+00
  0.00000000E+00  0.00000000E+00  0.00000000E+00
  0.00000000E+00  0.00000000E+00  0.00000000E+00
  0.00000000E+00  0.00000000E+00  0.00000000E+00
  0.00000000E+00  0.00000000E+00  0.00000000E+00
  0.00000000E+00  0.00000000E+00  0.00000000E+00
  0.00000000E+00  0.00000000E+00  0.00000000E+00
  0.00000000E+00  0.00000000E+00  0.00000000E+00
  0.00000000E+00  0.00000000E+00  0.00000000E+00
  0.00000000E+00  0.00000000E+00  0.00000000E+00
  0.00000000E+00  0.00000000E+00  0.00000000E+00
  0.00000000E+00  0.00000000E+00  0.00000000E+00
  0.00000000E+00  0.00000000E+00  0.00000000E+00
  0.00000000E+00  0.00000000E+00  0.00000000E+00
  0.00000000E+00  0.00000000E+00  0.00000000E+00
  0.00000000E+00  0.00000000E+00  0.00000000E+00
  0.00000000E+00  0.00000000E+00  0.00000000E+00
  0.00000000E+00  0.00000000E+00  0.00000000E+00
  0.00000000E+00  0.00000000E+00  0.00000000E+00
  0.00000000E+00  0.00000000E+00  0.00000000E+00
