POSCAR                                  
   1.00000000000000     
     6.3766857288803651    0.0000000000000000    0.0000000000000000
    -3.1883428644401826    5.6031209305772176   -0.0067135515809966
     0.0000000000000000   -0.0112287360256809    9.8800146407503906
   Al   N    Li   Nb
    12    16     2     2
Direct
  0.1668828999500273  0.3326572635258179  0.9895513730204499
  0.6657743635757835  0.3326572635258179  0.9895513730204499
  0.1674675870573460  0.8349351741146991  0.9927144333650314
  0.6680179620872033  0.8360359241744139  0.9967103118944363
  0.1475716587986662  0.7951433175973392  0.4925911039412313
  0.6694718875850392  0.8389437751700846  0.4912808161270783
  0.8317286520087159  0.1634573040174246  0.7434981130880498
  0.3406918347678023  0.6707067810268973  0.7487026649409011
  0.8300149462591023  0.6707067810268973  0.7487026649409011
  0.8308263042914663  0.1616526085829263  0.2585037433748037
  0.3414430630959068  0.6702489985593489  0.2522895946849676
  0.8288059354634493  0.6702489985593489  0.2522895946849676
  0.1678717115624977  0.3388131195615185  0.1878621371839232
  0.6709414079990136  0.3388131195615185  0.1878621371839232
  0.1664484598765968  0.8328969197532010  0.1894585527587499
  0.6672692855706356  0.8345385711412779  0.1861743615520344
  0.1637626391847058  0.3463721987132525  0.7043686790110085
  0.6826095595285394  0.3463721987132525  0.7043686790110085
  0.1550828527586549  0.8101657055173173  0.6903371006168836
  0.6677195530446944  0.8354391060893962  0.6930922822584338
  0.3308486804175647  0.1616973608351228  0.9337954240248328
  0.8326666469660908  0.1653332939321746  0.9397108843401163
  0.3333987048664772  0.6675895648989466  0.9416809021283118
  0.8341908600324769  0.6675895648989466  0.9416809021283118
  0.3221999422201413  0.1443998844402753  0.4672785903430426
  0.8243207712105685  0.1486415424211290  0.4385535109995812
  0.3428092312478404  0.6779841629790360  0.4373047720439098
  0.8351749317312026  0.6779841629790360  0.4373047720439098
  0.1473634534297101  0.3447550486794241  0.4935283251464105
  0.6973915952497070  0.3447550486794241  0.4935283251464105
  0.3355904997910382  0.1711809995820691  0.7034666956245460
  0.3336421183713363  0.1672842367426652  0.2722571793713979
 
  0.00000000E+00  0.00000000E+00  0.00000000E+00
  0.00000000E+00  0.00000000E+00  0.00000000E+00
  0.00000000E+00  0.00000000E+00  0.00000000E+00
  0.00000000E+00  0.00000000E+00  0.00000000E+00
  0.00000000E+00  0.00000000E+00  0.00000000E+00
  0.00000000E+00  0.00000000E+00  0.00000000E+00
  0.00000000E+00  0.00000000E+00  0.00000000E+00
  0.00000000E+00  0.00000000E+00  0.00000000E+00
  0.00000000E+00  0.00000000E+00  0.00000000E+00
  0.00000000E+00  0.00000000E+00  0.00000000E+00
  0.00000000E+00  0.00000000E+00  0.00000000E+00
  0.00000000E+00  0.00000000E+00  0.00000000E+00
  0.00000000E+00  0.00000000E+00  0.00000000E+00
  0.00000000E+00  0.00000000E+00  0.00000000E+00
  0.00000000E+00  0.00000000E+00  0.00000000E+00
  0.00000000E+00  0.00000000E+00  0.00000000E+00
  0.00000000E+00  0.00000000E+00  0.00000000E+00
  0.00000000E+00  0.00000000E+00  0.00000000E+00
  0.00000000E+00  0.00000000E+00  0.00000000E+00
  0.00000000E+00  0.00000000E+00  0.00000000E+00
  0.00000000E+00  0.00000000E+00  0.00000000E+00
  0.00000000E+00  0.00000000E+00  0.00000000E+00
  0.00000000E+00  0.00000000E+00  0.00000000E+00
  0.00000000E+00  0.00000000E+00  0.00000000E+00
  0.00000000E+00  0.00000000E+00  0.00000000E+00
  0.00000000E+00  0.00000000E+00  0.00000000E+00
  0.00000000E+00  0.00000000E+00  0.00000000E+00
  0.00000000E+00  0.00000000E+00  0.00000000E+00
  0.00000000E+00  0.00000000E+00  0.00000000E+00
  0.00000000E+00  0.00000000E+00  0.00000000E+00
  0.00000000E+00  0.00000000E+00  0.00000000E+00
  0.00000000E+00  0.00000000E+00  0.00000000E+00
