Ta  N Ru                                
   1.00000000000000     
    11.9754398999999996    0.0000000000000000    0.0000000000000000
    -1.7175315499999999   11.8516346499999994    0.0000000000000000
     0.0000000000000000    0.0000000000000000   22.7106327899999982
   Ta   N    Ru
    72    72     2
Selective dynamics
Direct
  0.9955339587019623  0.9955339540487174  0.2712224588739929   F   F   F
  0.2699333485827822  0.1030132974397020  0.3100259080635226   F   F   F
  0.1030132717436416  0.2699333822854797  0.3100259080635226   F   F   F
  0.3596205863249367  0.3596206399952564  0.3447007771003783   F   F   F
  0.1253409742651783  0.4593656738838163  0.3919418349552828   F   F   F
  0.4593656603424634  0.1253409739335112  0.3919418349552828   F   F   F
  0.2214407733767105  0.2214381788314562  0.4357399715071672   T   T   T
  0.4865689335066083  0.3203591601144740  0.4783861348965529   T   T   T
  0.3203603180625235  0.4865717962509487  0.4783892406934018   T   T   T
  0.0842592182892502  0.0842568669404861  0.5207738514387694   T   T   T
  0.3470689214794462  0.1822404832211491  0.5646526479279402   T   T   T
  0.1822537373012169  0.3470823241877977  0.5646438825788468   T   T   T
  0.4483937134657502  0.4483793666764272  0.6068476070666907   T   T   T
  0.2064060470171437  0.0416707529328725  0.6495306952786054   T   T   T
  0.0416656652049090  0.2063964741979686  0.6495273246021966   T   T   T
  0.3147545207539755  0.3146232245925398  0.6992895091660939   T   T   T
  0.0740908493721307  0.3995211923090904  0.7309981608641968   T   T   T
  0.3993917390452865  0.0743536957672339  0.7310942692390260   T   T   T
  0.9955339590589745  0.4955339536268326  0.2712224588739929   F   F   F
  0.2699333482257629  0.6030132978615868  0.3100259080635226   F   F   F
  0.1030132722216663  0.7699333827073573  0.3100259080635226   F   F   F
  0.3596205866819489  0.8596206395733716  0.3447007771003783   F   F   F
  0.1253409746221976  0.9593656734619316  0.3919418349552828   F   F   F
  0.4593656608204952  0.6253409743553888  0.3919418349552828   F   F   F
  0.2214166673996451  0.7214581120795565  0.4357059791118343   T   T   T
  0.4866151507210828  0.8204580986495983  0.4784108091292671   T   T   T
  0.3201095331402695  0.9868767233370400  0.4783948400020831   T   T   T
  0.0845029576716245  0.5845717926673835  0.5207081446077400   T   T   T
  0.3471806563158694  0.6825385508583814  0.5639407258693848   T   T   T
  0.1814174016303850  0.8471319905766916  0.5639279481763217   T   T   T
  0.4432097661674465  0.9452197334285898  0.6077774291085709   T   T   T
  0.2066309484307433  0.5449286936870238  0.6487625742363532   T   T   T
  0.0422955542638120  0.7067657575106481  0.6506142386349961   T   T   T
  0.3138465317909372  0.8165202297406693  0.6940150625709828   T   T   T
  0.0648000019763176  0.9036646112843790  0.7278808399534689   T   T   T
  0.4049961335569728  0.5636906336697149  0.7346560178732910   T   T   T
  0.4955339587019623  0.9955339540487174  0.2712224588739929   F   F   F
  0.7699333485827822  0.1030132974397020  0.3100259080635226   F   F   F
  0.6030132717436416  0.2699333822854797  0.3100259080635226   F   F   F
  0.8596205863249367  0.3596206399952564  0.3447007771003783   F   F   F
  0.6253409742651783  0.4593656738838163  0.3919418349552828   F   F   F
  0.9593656603424634  0.1253409739335112  0.3919418349552828   F   F   F
  0.7214623985566893  0.2214069444858905  0.4357038843215438   T   T   T
  0.9868804365814769  0.3200956604613396  0.4783883923200501   T   T   T
  0.8204707720382247  0.4866121260977487  0.4784030636799567   T   T   T
  0.5845846515617926  0.0844772481597425  0.5207063009565599   T   T   T
  0.8471370210873834  0.1814128147599058  0.5639214485804696   T   T   T
  0.6825549416876824  0.3471814903226788  0.5639254153155850   T   T   T
  0.9452408964277073  0.4432106754901840  0.6077662300849872   T   T   T
  0.7067691356723380  0.0422750048124491  0.6506231149866909   T   T   T
  0.5449753526505485  0.2065558784813452  0.6487196582103885   T   T   T
  0.8165620337705086  0.3138336357741933  0.6940053497525985   T   T   T
  0.5638876855601227  0.4049946164583436  0.7347028723828131   T   T   T
  0.9036866235281124  0.0648127813332868  0.7278861209112710   T   T   T
  0.4955339590589745  0.4955339536268326  0.2712224588739929   F   F   F
  0.7699333482257629  0.6030132978615868  0.3100259080635226   F   F   F
  0.6030132722216663  0.7699333827073573  0.3100259080635226   F   F   F
  0.8596205866819489  0.8596206395733716  0.3447007771003783   F   F   F
  0.6253409746221976  0.9593656734619316  0.3919418349552828   F   F   F
  0.9593656608204952  0.6253409743553888  0.3919418349552828   F   F   F
  0.7215193471969533  0.7215165366279275  0.4356975657688970   T   T   T
  0.9862770997997867  0.8199907611640986  0.4785259362162265   T   T   T
  0.8199885623724242  0.9862687660778161  0.4785278039012920   T   T   T
  0.5844559912263183  0.5844407645652367  0.5213497047595631   T   T   T
  0.8466954401815154  0.6808453972611629  0.5646011617920933   T   T   T
  0.6808519451992626  0.8466718997964469  0.5646071443047628   T   T   T
  0.9433657240885622  0.9433504698123921  0.6074584924342989   T   T   T
  0.7065298039886522  0.5404138585590591  0.6510777655328895   T   T   T
  0.5404089869420751  0.7064895905305576  0.6510997362530340   T   T   T
  0.8129676438412941  0.8129610027845862  0.6947330005340416   T   T   T
  0.5636053436721135  0.9069343144699072  0.7287802880304031   T   T   T
  0.9069608945434701  0.5636004626491136  0.7287669940548788   T   T   T
  0.4506180773709048  0.1400782132052782  0.2976725581183857   F   F   F
  0.2642075833142314  0.2642075209653356  0.2836189927733201   F   F   F
  0.1400781798198807  0.4506180903161052  0.2976725581183857   F   F   F
  0.3074132852265237  0.9999309000767909  0.3839488749030693   F   F   F
  0.1352939988863540  0.1352940283866033  0.3689431455789318   F   F   F
  0.9999308780646601  0.3074132624267207  0.3839488749030693   F   F   F
  0.1687290424491496  0.3642536078011663  0.4693224035235932   T   T   T
  0.4971108429259689  0.4971123143546674  0.4538762283249635   T   T   T
  0.3642519602433230  0.1687191161340049  0.4693213712952511   T   T   T
  0.0297684645286258  0.2248801918718382  0.5548434705247752   T   T   T
  0.3589437682101426  0.3589451094285810  0.5407886472668908   T   T   T
  0.2248793153007650  0.0297663485119984  0.5548491788310037   T   T   T
  0.3883107249898621  0.0883119585307777  0.6403397544654325   T   T   T
  0.2213203091237574  0.2213180215261246  0.6293274942373610   T   T   T
  0.0883188765749084  0.3883304977612406  0.6403163913261946   T   T   T
  0.2491059211646739  0.4615310093471284  0.7247240173864011   T   T   T
  0.0751372025431422  0.0751384564262748  0.7082098574740372   T   T   T
  0.4618924460040964  0.2492237703662515  0.7246021597761598   T   T   T
  0.4506180777279170  0.6400782127833935  0.2976725581183857   F   F   F
  0.2642075828362067  0.7642075205434509  0.2836189927733201   F   F   F
  0.1400781801769000  0.9506180898942276  0.2976725581183857   F   F   F
  0.3074132857045484  0.4999309004986756  0.3839488749030693   F   F   F
  0.1352939993643858  0.6352940288084810  0.3689431455789318   F   F   F
  0.9999308775866353  0.8074132620048431  0.3839488749030693   F   F   F
  0.1681149521166160  0.8643619200516327  0.4691891497292721   T   T   T
  0.4969105966571964  0.9970930732043503  0.4536899000477724   T   T   T
  0.3644106805974355  0.6683654473974292  0.4690409920960649   T   T   T
  0.0291653001936430  0.7249465086146555  0.5550187815505402   T   T   T
  0.3572812042816034  0.8583061998689946  0.5396843479101936   T   T   T
  0.2254468213048105  0.5301547239870249  0.5542996361368416   T   T   T
  0.3889415011837906  0.5898193097545906  0.6390266765770873   T   T   T
  0.2217449158638560  0.7229074206144678  0.6280675183807926   T   T   T
  0.0872040173886544  0.8893045277367483  0.6390949701655299   T   T   T
  0.2487027908317996  0.9523861920849308  0.7284116897839360   T   T   T
  0.0749318780874437  0.5734329764747873  0.7088234101105000   T   T   T
  0.4498817250674049  0.7527016262234868  0.7289909210193491   T   T   T
  0.9506180773709048  0.1400782132052782  0.2976725581183857   F   F   F
  0.7642075824791874  0.2642075209653356  0.2836189927733201   F   F   F
  0.6400781798198807  0.4506180903161052  0.2976725581183857   F   F   F
  0.8074132852265237  0.9999309000767909  0.3839488749030693   F   F   F
  0.6352939988863540  0.1352940283866033  0.3689431455789318   F   F   F
  0.4999308780646601  0.3074132624267207  0.3839488749030693   F   F   F
  0.6683670884175290  0.3644063339114383  0.4690300022019277   T   T   T
  0.9971014823313560  0.4969149839816034  0.4536877133966611   T   T   T
  0.8643681234171645  0.1681104094611796  0.4691866219573941   T   T   T
  0.5301639989761262  0.2254425448774123  0.5542781300716944   T   T   T
  0.8583182075907576  0.3572727688914504  0.5396722696026111   T   T   T
  0.7249486794542260  0.0291482843709612  0.5550237785358300   T   T   T
  0.8892977598567933  0.0871949235501291  0.6390956627807987   T   T   T
  0.7229289648679440  0.2217265833217254  0.6280563501727781   T   T   T
  0.5898800957767678  0.3889166752922502  0.6389933883983742   T   T   T
  0.7527582593837219  0.4498968568219588  0.7289789495425874   T   T   T
  0.5733601928379273  0.0748402224235531  0.7088271471008990   T   T   T
  0.9523961332244057  0.2487477256754490  0.7284119593919219   T   T   T
  0.9506180777279170  0.6400782127833935  0.2976725581183857   F   F   F
  0.7642075828362067  0.7642075205434509  0.2836189927733201   F   F   F
  0.6400781801769000  0.9506180898942276  0.2976725581183857   F   F   F
  0.8074132857045484  0.4999309004986756  0.3839488749030693   F   F   F
  0.6352939993643858  0.6352940288084810  0.3689431455789318   F   F   F
  0.4999308775866353  0.8074132620048431  0.3839488749030693   F   F   F
  0.6682577284119395  0.8642307531770735  0.4693257872769909   T   T   T
  0.9968175122227008  0.9968169275272403  0.4537082597430305   T   T   T
  0.8642396663527808  0.6682561820885756  0.4693234343513298   T   T   T
  0.5294253659251265  0.7254699356230876  0.5551424710527779   T   T   T
  0.8564361386730168  0.8564265929664513  0.5399981825898006   T   T   T
  0.7254826152331346  0.5294285289994940  0.5551282389116408   T   T   T
  0.8891262248939514  0.5857628220302732  0.6397818008103514   T   T   T
  0.7209933333155989  0.7209827381023292  0.6289344749108741   T   T   T
  0.5857691405204233  0.8890745556760314  0.6397953518629139   T   T   T
  0.7493939089346474  0.9506618746555603  0.7295234374288710   T   T   T
  0.5762588793083859  0.5762267950277592  0.7094824132747853   T   T   T
  0.9506567396157963  0.7493764424127147  0.7295194213760461   T   T   T
  0.2647058893488435  0.2627336606199540  0.7912812760741494   T   T   T
  0.4263061390230624  0.4257635885255105  0.8127642035643033   T   T   T
 
  0.00000000E+00  0.00000000E+00  0.00000000E+00
  0.00000000E+00  0.00000000E+00  0.00000000E+00
  0.00000000E+00  0.00000000E+00  0.00000000E+00
  0.00000000E+00  0.00000000E+00  0.00000000E+00
  0.00000000E+00  0.00000000E+00  0.00000000E+00
  0.00000000E+00  0.00000000E+00  0.00000000E+00
  0.00000000E+00  0.00000000E+00  0.00000000E+00
  0.00000000E+00  0.00000000E+00  0.00000000E+00
  0.00000000E+00  0.00000000E+00  0.00000000E+00
  0.00000000E+00  0.00000000E+00  0.00000000E+00
  0.00000000E+00  0.00000000E+00  0.00000000E+00
  0.00000000E+00  0.00000000E+00  0.00000000E+00
  0.00000000E+00  0.00000000E+00  0.00000000E+00
  0.00000000E+00  0.00000000E+00  0.00000000E+00
  0.00000000E+00  0.00000000E+00  0.00000000E+00
  0.00000000E+00  0.00000000E+00  0.00000000E+00
  0.00000000E+00  0.00000000E+00  0.00000000E+00
  0.00000000E+00  0.00000000E+00  0.00000000E+00
  0.00000000E+00  0.00000000E+00  0.00000000E+00
  0.00000000E+00  0.00000000E+00  0.00000000E+00
  0.00000000E+00  0.00000000E+00  0.00000000E+00
  0.00000000E+00  0.00000000E+00  0.00000000E+00
  0.00000000E+00  0.00000000E+00  0.00000000E+00
  0.00000000E+00  0.00000000E+00  0.00000000E+00
  0.00000000E+00  0.00000000E+00  0.00000000E+00
  0.00000000E+00  0.00000000E+00  0.00000000E+00
  0.00000000E+00  0.00000000E+00  0.00000000E+00
  0.00000000E+00  0.00000000E+00  0.00000000E+00
  0.00000000E+00  0.00000000E+00  0.00000000E+00
  0.00000000E+00  0.00000000E+00  0.00000000E+00
  0.00000000E+00  0.00000000E+00  0.00000000E+00
  0.00000000E+00  0.00000000E+00  0.00000000E+00
  0.00000000E+00  0.00000000E+00  0.00000000E+00
  0.00000000E+00  0.00000000E+00  0.00000000E+00
  0.00000000E+00  0.00000000E+00  0.00000000E+00
  0.00000000E+00  0.00000000E+00  0.00000000E+00
  0.00000000E+00  0.00000000E+00  0.00000000E+00
  0.00000000E+00  0.00000000E+00  0.00000000E+00
  0.00000000E+00  0.00000000E+00  0.00000000E+00
  0.00000000E+00  0.00000000E+00  0.00000000E+00
  0.00000000E+00  0.00000000E+00  0.00000000E+00
  0.00000000E+00  0.00000000E+00  0.00000000E+00
  0.00000000E+00  0.00000000E+00  0.00000000E+00
  0.00000000E+00  0.00000000E+00  0.00000000E+00
  0.00000000E+00  0.00000000E+00  0.00000000E+00
  0.00000000E+00  0.00000000E+00  0.00000000E+00
  0.00000000E+00  0.00000000E+00  0.00000000E+00
  0.00000000E+00  0.00000000E+00  0.00000000E+00
  0.00000000E+00  0.00000000E+00  0.00000000E+00
  0.00000000E+00  0.00000000E+00  0.00000000E+00
  0.00000000E+00  0.00000000E+00  0.00000000E+00
  0.00000000E+00  0.00000000E+00  0.00000000E+00
  0.00000000E+00  0.00000000E+00  0.00000000E+00
  0.00000000E+00  0.00000000E+00  0.00000000E+00
  0.00000000E+00  0.00000000E+00  0.00000000E+00
  0.00000000E+00  0.00000000E+00  0.00000000E+00
  0.00000000E+00  0.00000000E+00  0.00000000E+00
  0.00000000E+00  0.00000000E+00  0.00000000E+00
  0.00000000E+00  0.00000000E+00  0.00000000E+00
  0.00000000E+00  0.00000000E+00  0.00000000E+00
  0.00000000E+00  0.00000000E+00  0.00000000E+00
  0.00000000E+00  0.00000000E+00  0.00000000E+00
  0.00000000E+00  0.00000000E+00  0.00000000E+00
  0.00000000E+00  0.00000000E+00  0.00000000E+00
  0.00000000E+00  0.00000000E+00  0.00000000E+00
  0.00000000E+00  0.00000000E+00  0.00000000E+00
  0.00000000E+00  0.00000000E+00  0.00000000E+00
  0.00000000E+00  0.00000000E+00  0.00000000E+00
  0.00000000E+00  0.00000000E+00  0.00000000E+00
  0.00000000E+00  0.00000000E+00  0.00000000E+00
  0.00000000E+00  0.00000000E+00  0.00000000E+00
  0.00000000E+00  0.00000000E+00  0.00000000E+00
  0.00000000E+00  0.00000000E+00  0.00000000E+00
  0.00000000E+00  0.00000000E+00  0.00000000E+00
  0.00000000E+00  0.00000000E+00  0.00000000E+00
  0.00000000E+00  0.00000000E+00  0.00000000E+00
  0.00000000E+00  0.00000000E+00  0.00000000E+00
  0.00000000E+00  0.00000000E+00  0.00000000E+00
  0.00000000E+00  0.00000000E+00  0.00000000E+00
  0.00000000E+00  0.00000000E+00  0.00000000E+00
  0.00000000E+00  0.00000000E+00  0.00000000E+00
  0.00000000E+00  0.00000000E+00  0.00000000E+00
  0.00000000E+00  0.00000000E+00  0.00000000E+00
  0.00000000E+00  0.00000000E+00  0.00000000E+00
  0.00000000E+00  0.00000000E+00  0.00000000E+00
  0.00000000E+00  0.00000000E+00  0.00000000E+00
  0.00000000E+00  0.00000000E+00  0.00000000E+00
  0.00000000E+00  0.00000000E+00  0.00000000E+00
  0.00000000E+00  0.00000000E+00  0.00000000E+00
  0.00000000E+00  0.00000000E+00  0.00000000E+00
  0.00000000E+00  0.00000000E+00  0.00000000E+00
  0.00000000E+00  0.00000000E+00  0.00000000E+00
  0.00000000E+00  0.00000000E+00  0.00000000E+00
  0.00000000E+00  0.00000000E+00  0.00000000E+00
  0.00000000E+00  0.00000000E+00  0.00000000E+00
  0.00000000E+00  0.00000000E+00  0.00000000E+00
  0.00000000E+00  0.00000000E+00  0.00000000E+00
  0.00000000E+00  0.00000000E+00  0.00000000E+00
  0.00000000E+00  0.00000000E+00  0.00000000E+00
  0.00000000E+00  0.00000000E+00  0.00000000E+00
  0.00000000E+00  0.00000000E+00  0.00000000E+00
  0.00000000E+00  0.00000000E+00  0.00000000E+00
  0.00000000E+00  0.00000000E+00  0.00000000E+00
  0.00000000E+00  0.00000000E+00  0.00000000E+00
  0.00000000E+00  0.00000000E+00  0.00000000E+00
  0.00000000E+00  0.00000000E+00  0.00000000E+00
  0.00000000E+00  0.00000000E+00  0.00000000E+00
  0.00000000E+00  0.00000000E+00  0.00000000E+00
  0.00000000E+00  0.00000000E+00  0.00000000E+00
  0.00000000E+00  0.00000000E+00  0.00000000E+00
  0.00000000E+00  0.00000000E+00  0.00000000E+00
  0.00000000E+00  0.00000000E+00  0.00000000E+00
  0.00000000E+00  0.00000000E+00  0.00000000E+00
  0.00000000E+00  0.00000000E+00  0.00000000E+00
  0.00000000E+00  0.00000000E+00  0.00000000E+00
  0.00000000E+00  0.00000000E+00  0.00000000E+00
  0.00000000E+00  0.00000000E+00  0.00000000E+00
  0.00000000E+00  0.00000000E+00  0.00000000E+00
  0.00000000E+00  0.00000000E+00  0.00000000E+00
  0.00000000E+00  0.00000000E+00  0.00000000E+00
  0.00000000E+00  0.00000000E+00  0.00000000E+00
  0.00000000E+00  0.00000000E+00  0.00000000E+00
  0.00000000E+00  0.00000000E+00  0.00000000E+00
  0.00000000E+00  0.00000000E+00  0.00000000E+00
  0.00000000E+00  0.00000000E+00  0.00000000E+00
  0.00000000E+00  0.00000000E+00  0.00000000E+00
  0.00000000E+00  0.00000000E+00  0.00000000E+00
  0.00000000E+00  0.00000000E+00  0.00000000E+00
  0.00000000E+00  0.00000000E+00  0.00000000E+00
  0.00000000E+00  0.00000000E+00  0.00000000E+00
  0.00000000E+00  0.00000000E+00  0.00000000E+00
  0.00000000E+00  0.00000000E+00  0.00000000E+00
  0.00000000E+00  0.00000000E+00  0.00000000E+00
  0.00000000E+00  0.00000000E+00  0.00000000E+00
  0.00000000E+00  0.00000000E+00  0.00000000E+00
  0.00000000E+00  0.00000000E+00  0.00000000E+00
  0.00000000E+00  0.00000000E+00  0.00000000E+00
  0.00000000E+00  0.00000000E+00  0.00000000E+00
  0.00000000E+00  0.00000000E+00  0.00000000E+00
  0.00000000E+00  0.00000000E+00  0.00000000E+00
  0.00000000E+00  0.00000000E+00  0.00000000E+00
  0.00000000E+00  0.00000000E+00  0.00000000E+00
  0.00000000E+00  0.00000000E+00  0.00000000E+00
  0.00000000E+00  0.00000000E+00  0.00000000E+00
  0.00000000E+00  0.00000000E+00  0.00000000E+00
  0.00000000E+00  0.00000000E+00  0.00000000E+00
