Cu	N	Ru	Ta                              
   1.00000000000000     
    18.1096308199999996    0.0000000000000000    0.0000000000000000
     0.0000000000000000   23.3551997799999995    0.0000000000000000
     0.0000000000000000    0.0000000000000000   30.4818171199999988
   Cu   N    Ru   Ta
     4   240    36   204
Selective dynamics
Direct
  0.5840068269639247  0.4391804821032186  0.6156221635177820   T   T   T
  0.2348869633219010  0.4276314040270647  0.5928819435725623   T   T   T
  0.4725805760195207  0.3878153256140761  0.6342105068953225   T   T   T
  0.4686665075572592  0.4881925903073812  0.6302013367724412   T   T   T
  0.0007546365873381  0.7508357331636546  0.3024712727493721   F   F   F
  0.0007546365873381  0.2508357331636546  0.3024712727493721   F   F   F
  0.0007971388342227  0.6259226757939587  0.3025555019798603   F   F   F
  0.0007971388342227  0.1259226757939587  0.3025555019798603   F   F   F
  0.0009289261701255  0.8759179472966139  0.3027706837052264   F   F   F
  0.0009289261701255  0.3759179472966139  0.3027706837052264   F   F   F
  0.0009959888293309  0.0008861705399639  0.3028813086718003   F   F   F
  0.0009959888293309  0.5008861705399639  0.3028813086718003   F   F   F
  0.0023080472791375  0.0004564535021689  0.4726311372152563   T   T   T
  0.0023409621950294  0.5003418678620468  0.4722140834348996   T   T   T
  0.5637446904824117  0.2632472118666355  0.5810357706306087   T   T   T
  0.5624698719881276  0.7613389126890230  0.5808600905905305   T   T   T
  0.5944407181460178  0.8759335502460033  0.2316533513143781   F   F   F
  0.5944407181460178  0.3759335502460033  0.2316533513143781   F   F   F
  0.5944879250719026  0.6260651198762730  0.2317376786361365   F   F   F
  0.5944879250719026  0.1260651198762730  0.2317376786361365   F   F   F
  0.5945319922319641  0.7509793277392376  0.2318466107902424   F   F   F
  0.5945319922319641  0.2509793277392376  0.2318466107902424   F   F   F
  0.5946973191803622  0.0011281697544092  0.2317203788144795   F   F   F
  0.5946973191803622  0.5011281697544092  0.2317203788144795   F   F   F
  0.6048407370015088  0.8767211692517841  0.5690968499680470   T   T   T
  0.5994658607246576  0.2514073010618951  0.4021679342590630   T   T   T
  0.5992489174165230  0.7515610182366569  0.4022968575906650   T   T   T
  0.5999936857007830  0.1263599207006975  0.4014908962646594   T   T   T
  0.5998368453958490  0.6265162095393959  0.4015865435797534   T   T   T
  0.6004343231516508  0.3759369417230777  0.4013028470117911   T   T   T
  0.6003151231203726  0.8759994464507654  0.4012739477447039   T   T   T
  0.6008143956799100  0.0013060467204340  0.4009164028923821   T   T   T
  0.6007012280189075  0.5012840944041916  0.4011002906584212   T   T   T
  0.6065085884420760  0.3781573128138547  0.5717754937721344   T   T   T
  0.6048768636841585  0.9982060091582163  0.5690470573306028   T   T   T
  0.6046912049404770  0.4977697284356886  0.5709068909082635   T   T   T
  0.6135543400135951  0.1415739220697253  0.5675595306331459   T   T   T
  0.6138339393632803  0.6412907397102562  0.5671315840797798   T   T   T
  0.6481850403820847  0.7509953113960081  0.4873589307817076   T   T   T
  0.6485818144362335  0.2503403530811847  0.4872837214915108   T   T   T
  0.6536324376664574  0.3789921694088885  0.4854487154527716   T   T   T
  0.6523884357133010  0.1257734212962665  0.4853777801491089   T   T   T
  0.6523550681294616  0.6263508633186506  0.4851715689850521   T   T   T
  0.6537719461263806  0.8794165255751758  0.4848125885785836   T   T   T
  0.6553552534206586  0.9989586719029181  0.4859003718582963   T   T   T
  0.6553494060008125  0.4990984293471695  0.4862776389403168   T   T   T
  0.6549923804575926  0.7511371041673840  0.3152775575080256   F   F   F
  0.6549923804575926  0.2511371041673840  0.3152775575080256   F   F   F
  0.6552059756456146  0.6260466862938543  0.3150601846403305   F   F   F
  0.6552059756456146  0.1260466862938543  0.3150601846403305   F   F   F
  0.6552570788408829  0.8758846061131820  0.3149041322638837   F   F   F
  0.6552570788408829  0.3758846061131820  0.3149041322638837   F   F   F
  0.6554052259801963  0.0012023099894023  0.3149218625060755   F   F   F
  0.6554052259801963  0.5012023099894023  0.3149218625060755   F   F   F
  0.0698719225903079  0.1314614880585049  0.5735108091710375   T   T   T
  0.0699874677070954  0.6312317035202580  0.5731787096398507   T   T   T
  0.7276903657752363  0.7625045952081297  0.5565398231578320   T   T   T
  0.7295448514503264  0.2626514009954558  0.5563088064835128   T   T   T
  0.7576427282572217  0.8826996986777393  0.5563572301658388   T   T   T
  0.7593930598421160  0.3828647072146081  0.5558410917577800   T   T   T
  0.7503470630506237  0.2508809676443925  0.3870246357198184   T   T   T
  0.7502638200068220  0.7509159754690795  0.3870227035080633   T   T   T
  0.7508833827646165  0.3761544604368625  0.3859802130179364   T   T   T
  0.7507399358234728  0.1259503014679825  0.3868750904244833   T   T   T
  0.7506302877228289  0.6259789731766932  0.3867660764356031   T   T   T
  0.7509076534698379  0.8761821276130276  0.3859695312857989   T   T   T
  0.7503837756312706  0.8759246053428527  0.1980143607002915   F   F   F
  0.7503837756312706  0.3759246053428527  0.1980143607002915   F   F   F
  0.7504065850415813  0.0010474442621131  0.1995662990185920   F   F   F
  0.7504065850415813  0.5010474442621131  0.1995662990185920   F   F   F
  0.7504116177228610  0.6259067547141299  0.1982016356247982   F   F   F
  0.7504116177228610  0.1259067547141299  0.1982016356247982   F   F   F
  0.7504539896523426  0.7509563452768688  0.1993173260006742   F   F   F
  0.7504539896523426  0.2509563452768688  0.1993173260006742   F   F   F
  0.7512202986077442  0.5009950953986215  0.3867113700766324   T   T   T
  0.7513132888351056  0.0009050548097633  0.3867112251645904   T   T   T
  0.7659968983795101  0.9976439739459143  0.5565921060611880   T   T   T
  0.7654166750544100  0.4982974609384114  0.5560049204000383   T   T   T
  0.7722220607531151  0.1387969204972908  0.5569351653729741   T   T   T
  0.7721292588982441  0.6389799804527517  0.5571141794035241   T   T   T
  0.0813408693410371  0.2424645554376302  0.5716551192967806   T   T   T
  0.0802822759646471  0.7423443782390178  0.5723217876219302   T   T   T
  0.8467926581852854  0.2542660941459656  0.4849223832738827   T   T   T
  0.8465198502186062  0.7542168734498098  0.4850771354253582   T   T   T
  0.8457971856104365  0.7508865770875488  0.3147238720130474   F   F   F
  0.8457971856104365  0.2508865770875488  0.3147238720130474   F   F   F
  0.8459094352758285  0.6257770200071491  0.3148105564777453   F   F   F
  0.8459094352758285  0.1257770200071491  0.3148105564777453   F   F   F
  0.8459894799777032  0.8758569369000710  0.3146601051453359   F   F   F
  0.8459894799777032  0.3758569369000710  0.3146601051453359   F   F   F
  0.8462370857983075  0.0009253177109869  0.3148622358114821   F   F   F
  0.8462370857983075  0.5009253177109869  0.3148622358114821   F   F   F
  0.8496070571614228  0.3732889926013248  0.4851485335335455   T   T   T
  0.8497124476713260  0.8729570169171561  0.4851791344333391   T   T   T
  0.8499357372749515  0.1249711806054551  0.4848029431687656   T   T   T
  0.8496395855237644  0.6248621340804378  0.4845673079339949   T   T   T
  0.8520995281657695  0.0010749212938463  0.4859588973009809   T   T   T
  0.8522672693949850  0.5011694798093044  0.4857776512827997   T   T   T
  0.8975635669036277  0.3699504168985334  0.5716330224650908   T   T   T
  0.8983057588655162  0.2484596125202734  0.5670932527017633   T   T   T
  0.8960530028339332  0.8703782734497435  0.5715602219848197   T   T   T
  0.8978110290908500  0.7492303245968811  0.5673189390675836   T   T   T
  0.0893082713116353  0.3625801741463760  0.5740073588238767   T   T   T
  0.9006757080544634  0.2505584516888378  0.4005919826644351   T   T   T
  0.9007118675524726  0.7505305331365735  0.4006095387142168   T   T   T
  0.9029585499432766  0.1064732963180118  0.5675916351215445   T   T   T
  0.9012438115423628  0.1257204315194956  0.4012306668454034   T   T   T
  0.9011185941795063  0.6257834079309661  0.4010986239279562   T   T   T
  0.9018536144692945  0.3759590067223715  0.4008191887209266   T   T   T
  0.9019817320331122  0.8759162311136870  0.4008810342176026   T   T   T
  0.9021438718761716  0.5006033244668817  0.4011896946511904   T   T   T
  0.0877980191157259  0.8620505864582549  0.5740742665504317   T   T   T
  0.9022929857429131  0.0005704988738725  0.4012771263315087   T   T   T
  0.9025715437020164  0.6074433353973743  0.5671999215074593   T   T   T
  0.9063370116785165  0.7509661375287990  0.2314450664875594   F   F   F
  0.9063370116785165  0.2509661375287990  0.2314450664875594   F   F   F
  0.9065036119825223  0.6258452416457985  0.2314281613274076   F   F   F
  0.9065036119825223  0.1258452416457985  0.2314281613274076   F   F   F
  0.9065431196901699  0.0009511492176983  0.2315080614196674   F   F   F
  0.9065431196901699  0.5009511492176983  0.2315080614196674   F   F   F
  0.9067333030259945  0.8759844438376305  0.2313964578368939   F   F   F
  0.9067333030259945  0.3759844438376305  0.2313964578368939   F   F   F
  0.9247122815785958  0.9835856095948081  0.5696503076155128   T   T   T
  0.9223045462210004  0.4845360075779446  0.5705431700182260   T   T   T
  0.0952407101582224  0.7510020395980561  0.2320892091881959   F   F   F
  0.0952407101582224  0.2510020395980561  0.2320892091881959   F   F   F
  0.0953260277450525  0.0008979764762245  0.2323666739458474   F   F   F
  0.0953260277450525  0.5008979764762245  0.2323666739458474   F   F   F
  0.0953735919394063  0.6258547564434522  0.2322437075234305   F   F   F
  0.0953735919394063  0.1258547564434522  0.2322437075234305   F   F   F
  0.0955543013107132  0.8759987254538473  0.2323923499085652   F   F   F
  0.0955543013107132  0.3759987254538473  0.2323923499085652   F   F   F
  0.0994891594251820  0.2508740061116307  0.4016242504669121   T   T   T
  0.0994349326455737  0.1252563183233401  0.4016097065888296   T   T   T
  0.0995552682230021  0.7509192739326472  0.4018023541218175   T   T   T
  0.0994517652970388  0.6251192730394187  0.4016404871061635   T   T   T
  0.1003844943154268  0.3754281569805927  0.4025738856797389   T   T   T
  0.9986029063274585  0.2504676740548684  0.4722515126741748   T   T   T
  0.1003749732909889  0.8756134327692197  0.4029085379808867   T   T   T
  0.9986943737775722  0.1245152124394408  0.4720487926214359   T   T   T
  0.9986067124750475  0.7504757410288122  0.4723641633588244   T   T   T
  0.9985387745725994  0.6245292993718204  0.4718934354810876   T   T   T
  0.0002831310309490  0.3743295144270198  0.4733959801282278   T   T   T
  0.0000956779016982  0.8744142078848256  0.4735177726335922   T   T   T
  0.1008475399450753  0.0011977857994910  0.4028451510492516   T   T   T
  0.1008227927748245  0.5012949106888779  0.4025401496684583   T   T   T
  0.1016748288080900  0.5025114223953955  0.5664360163440758   T   T   T
  0.1053769554954849  0.0005750184299831  0.5672458308736531   T   T   T
  0.1485216520912542  0.1284179317905475  0.4858572492295751   T   T   T
  0.1487914088070687  0.2461402989603917  0.4867902858211710   T   T   T
  0.1481428962776879  0.6279597198046422  0.4861172823690907   T   T   T
  0.1486045828741322  0.7459090105733673  0.4872710562430011   T   T   T
  0.1534064156271899  0.3760848439868247  0.4876013565752542   T   T   T
  0.1535701013539361  0.8764272928392652  0.4879841228084758   T   T   T
  0.1551481160252978  0.0016282476204203  0.4871412411060287   T   T   T
  0.1554278840897965  0.7509669489112838  0.3157714680232928   F   F   F
  0.1554278840897965  0.2509669489112767  0.3157714680232928   F   F   F
  0.1555300833018336  0.8760083006234964  0.3161854069282626   F   F   F
  0.1555300833018336  0.3760083006234964  0.3161854069282626   F   F   F
  0.1556347359045702  0.6258770940815310  0.3158690852351640   F   F   F
  0.1556347359045702  0.1258770940815310  0.3158690852351640   F   F   F
  0.1557688557010550  0.0008265358541948  0.3160543218953578   F   F   F
  0.1557688557010550  0.5008265358541948  0.3160543218953578   F   F   F
  0.1548900957203102  0.5006605937325874  0.4867947211322614   T   T   T
  0.2102063751550850  0.1125715865394557  0.5658798534234168   T   T   T
  0.2119891498207009  0.6138784302067782  0.5655817241375012   T   T   T
  0.2235282451819532  0.2496685942486710  0.5615558729905558   T   T   T
  0.2216884043139949  0.7506707286593138  0.5632282648093604   T   T   T
  0.2502369485815642  0.2512091459583750  0.3876579460354636   T   T   T
  0.2501936062460315  0.7512175534693728  0.3877486343611641   T   T   T
  0.2505271728454582  0.1254869085968367  0.3886723368782716   T   T   T
  0.2505295088349760  0.6254767195898187  0.3887977728102848   T   T   T
  0.2509506973401715  0.8755935388444674  0.3887855279546284   T   T   T
  0.2510356298034349  0.3754970714453154  0.3887082679413054   T   T   T
  0.2506886730670530  0.7509740783728773  0.1986783637654739   F   F   F
  0.2506886730670530  0.2509740783728773  0.1986783637654739   F   F   F
  0.2511820709502934  0.0013622488396510  0.3880258007484439   T   T   T
  0.2507303928573421  0.8760426103278647  0.2004520155719618   F   F   F
  0.2507303928573421  0.3760426103278647  0.2004520155719618   F   F   F
  0.2507787477911734  0.6260460958471867  0.2004465916827201   F   F   F
  0.2507787477911734  0.1260460958471867  0.2004465916827201   F   F   F
  0.2507842901460080  0.0010521164550710  0.1987081864626035   F   F   F
  0.2507842901460080  0.5010521164550710  0.1987081864626035   F   F   F
  0.2512645596086190  0.5013963599879318  0.3881971308760036   T   T   T
  0.2761428712170831  0.4978602465945611  0.5659664836244811   T   T   T
  0.2819095112125821  0.0003318221349322  0.5649362901294490   T   T   T
  0.2895413971858042  0.8651410107223257  0.5648387633840936   T   T   T
  0.2895670040200239  0.3666845286637202  0.5684576248631079   T   T   T
  0.3457709857389588  0.7509801434034244  0.3160634932646005   F   F   F
  0.3457709857389588  0.2509801434034244  0.3160634932646005   F   F   F
  0.3454661840862179  0.2513994584936153  0.4859227009183520   T   T   T
  0.3458124879654534  0.8762438730036024  0.3160546332285037   F   F   F
  0.3458124879654534  0.3762438730036024  0.3160546332285037   F   F   F
  0.3458692307014104  0.0011300682609701  0.3160825482309733   F   F   F
  0.3458692307014104  0.5011300682609701  0.3160825482309733   F   F   F
  0.3458914509224655  0.6260993829100983  0.3163092197569100   F   F   F
  0.3458914509224655  0.1260993829100983  0.3163092197569100   F   F   F
  0.3453605810737784  0.7520677355501069  0.4859536335675907   T   T   T
  0.3479608525873462  0.1265309052220958  0.4879195876737402   T   T   T
  0.3476896681030171  0.6269342861064880  0.4879820877298618   T   T   T
  0.3524524892517266  0.9970852871037075  0.4877537223916861   T   T   T
  0.3524456157084134  0.4969307239131370  0.4886363013827071   T   T   T
  0.3532607049166410  0.8786703583873026  0.4867518950412320   T   T   T
  0.3532057456499178  0.3779288799284222  0.4873272881679808   T   T   T
  0.3884760154732728  0.7531825301657188  0.5656133147102331   T   T   T
  0.3903099670816381  0.2539359384689273  0.5656625912159871   T   T   T
  0.4008465581410265  0.2516970877645872  0.4025408788347806   T   T   T
  0.4008454680693176  0.7516011193115981  0.4026316913427578   T   T   T
  0.4013996383561606  0.1259441543941791  0.4029231985935092   T   T   T
  0.4013492178401541  0.6259241466013451  0.4032017422179550   T   T   T
  0.4019376014531744  0.0015983688407052  0.4022025402351351   T   T   T
  0.4018642423969941  0.5016507347091640  0.4025687805606361   T   T   T
  0.4020442091103636  0.3757292068700209  0.4021408896720265   T   T   T
  0.4021262669656683  0.8757846233892846  0.4020983357961305   T   T   T
  0.4059113337573805  0.8760558925948985  0.2324750129594619   F   F   F
  0.4059113337573805  0.3760558925948985  0.2324750129594619   F   F   F
  0.4059234726022964  0.6261621252550071  0.2326545521246786   F   F   F
  0.4059234726022964  0.1261621252550071  0.2326545521246786   F   F   F
  0.4060644417929637  0.7510364413590125  0.2325227387887452   F   F   F
  0.4060644417929637  0.2510364413590125  0.2325227387887452   F   F   F
  0.4061374416245584  0.0011248655651599  0.2324172293308493   F   F   F
  0.4061374416245584  0.5011248655651599  0.2324172293308493   F   F   F
  0.4163764801406108  0.1140838097482563  0.5724671127544034   T   T   T
  0.4159603825613322  0.6136441770537715  0.5727384456662602   T   T   T
  0.4223978841933687  0.4958627699033641  0.5751304865451961   T   T   T
  0.4255115644176897  0.9954420396336451  0.5721314612071072   T   T   T
  0.4357336117078052  0.8886326436337790  0.5752045375018719   T   T   T
  0.4368896995720877  0.3831633325328670  0.5766664404746785   T   T   T
  0.4985362059945974  0.7519504228415683  0.4735351552532027   T   T   T
  0.4988355516565215  0.2516181066016768  0.4732722472882180   T   T   T
  0.5004630585837617  0.7510598909550410  0.3031888444713573   F   F   F
  0.5004630585837617  0.2510598909550410  0.3031888444713573   F   F   F
  0.5004977600090044  0.6261199205207575  0.3031516629609641   F   F   F
  0.5004977600090044  0.1261199205207575  0.3031516629609641   F   F   F
  0.5005209432535551  0.8761149809355189  0.3028206587442455   F   F   F
  0.5005209432535551  0.3761149809355189  0.3028206587442455   F   F   F
  0.5006083602757840  0.0011215981985515  0.3028334437431965   F   F   F
  0.5006083602757840  0.5011215981985515  0.3028334437431965   F   F   F
  0.5017796338002751  0.1271155789349822  0.4739802288059139   T   T   T
  0.5025978359226568  0.8770683464369594  0.4729012728015529   T   T   T
  0.5024997257989476  0.3765442700685617  0.4716963286300457   T   T   T
  0.5015820965002167  0.6271854196043750  0.4742998939597921   T   T   T
  0.5030285595432648  0.0017533060258355  0.4726609614026243   T   T   T
  0.5030619525452446  0.5017238204110319  0.4727003058139291   T   T   T
  0.0023106394062289  0.4982447133480309  0.5402982209050775   T   T   T
  0.0048345966641411  0.9980350793261876  0.5406110990303215   T   T   T
  0.6266137636202666  0.0681823174015824  0.5397441941262643   T   T   T
  0.6281357002879178  0.5677478786353364  0.5386461875410457   T   T   T
  0.6261270573482677  0.8000557032291538  0.5466870657890188   T   T   T
  0.6268039022619074  0.3009322293407997  0.5459928020285469   T   T   T
  0.6993206779339712  0.6881776673076406  0.5379828909996057   T   T   T
  0.6996273765310169  0.1888171775253460  0.5381896186680488   T   T   T
  0.8073378051006357  0.5669519191788498  0.5372957208427180   T   T   T
  0.8071287595219517  0.0663908020790268  0.5373873712706227   T   T   T
  0.8459529288779034  0.9371274441040427  0.5365357088113843   T   T   T
  0.8488427148805407  0.4374066025195458  0.5369956468120252   T   T   T
  0.8741257633111859  0.1769247346635795  0.5419826700739248   T   T   T
  0.8740422498047474  0.6780958041209817  0.5416630509999220   T   T   T
  0.9968147726461266  0.1160054299997406  0.5396202844506918   T   T   T
  0.9962415045733256  0.6167845809815808  0.5393735296095433   T   T   T
  0.9967687796504069  0.2541863747486410  0.5393050076435139   T   T   T
  0.9961418517913094  0.7542515550988580  0.5394425363004544   T   T   T
  0.1191812375192480  0.4300767668312260  0.5422259177151679   T   T   T
  0.1208196116550140  0.9287272791116519  0.5431508853685658   T   T   T
  0.1405419490596510  0.8030884763314801  0.5412801480418259   T   T   T
  0.1424238244627666  0.3032148786818923  0.5409237098444016   T   T   T
  0.2004589308684852  0.5434405447545504  0.5419023753050569   T   T   T
  0.2028087754100020  0.0411427935973320  0.5427332616153868   T   T   T
  0.2985037730318106  0.7945924077320016  0.5410916203419828   T   T   T
  0.3000309423672134  0.2950118838041703  0.5410461598832849   T   T   T
  0.3621291366668514  0.0546196889751665  0.5414356239161029   T   T   T
  0.3613460911919486  0.5536189508828905  0.5431471075051566   T   T   T
  0.3760615596313059  0.6787580960962381  0.5420591131546747   T   T   T
  0.3768974509297299  0.1796695306885724  0.5416806524059924   T   T   T
  0.4889988752646072  0.2522884026975816  0.5416484588898092   T   T   T
  0.4872110391424235  0.7520541339291895  0.5417243232937613   T   T   T
  0.5116638420528553  0.8828890706423527  0.5404222095513536   T   T   T
  0.5094473165203001  0.9984104815103958  0.5399457920654438   T   T   T
  0.5092699140759920  0.4987407279926259  0.5398840029411379   T   T   T
  0.5133453623095914  0.3816238700935247  0.5387074652473656   T   T   T
  0.0004044661653188  0.6255892866202931  0.3691279580301121   T   T   T
  0.0016401586945829  0.3757914119931997  0.3693744125017630   T   T   T
  0.0017907736460139  0.5006856584271266  0.3695426283820858   T   T   T
  0.0017626775992323  0.8758301163796657  0.3694373247647006   T   T   T
  0.0010343750342656  0.7509675273691911  0.1970340395507222   F   F   F
  0.0010343750342656  0.2509675273691911  0.1970340395507222   F   F   F
  0.0019494230887538  0.0006495085009762  0.3696086984956921   T   T   T
  0.0013074606674977  0.0009931951008113  0.1970949867046485   F   F   F
  0.0013074606674977  0.5009931951008113  0.1970949867046485   F   F   F
  0.0014056432322107  0.6258753569951239  0.1970772590869743   F   F   F
  0.0014056432322107  0.1258753569951239  0.1970772590869743   F   F   F
  0.0016300205284878  0.8760244032474702  0.1970602374639512   F   F   F
  0.0016300205284878  0.3760244032474702  0.1970602374639512   F   F   F
  0.5828489970288615  0.8134981673875430  0.2835797008416634   F   F   F
  0.5828489970288615  0.3134981673875430  0.2835797008416634   F   F   F
  0.5829043521053947  0.6885407361734863  0.2836251512160501   F   F   F
  0.5829043521053947  0.1885407361734863  0.2836251512160501   F   F   F
  0.5829602019462925  0.4385545752758304  0.2833243807611936   F   F   F
  0.5829602019462925  0.9385545752758304  0.2833243807611936   F   F   F
  0.5830265959005345  0.5635893986773652  0.2835447360626375   F   F   F
  0.5830265959005345  0.0635893986773652  0.2835447360626375   F   F   F
  0.5857154357506247  0.4389568647453639  0.4527991807415353   T   T   T
  0.5844971444094668  0.8146084949009041  0.4553276674038838   T   T   T
  0.5857706540142074  0.9391163138187875  0.4525541584901721   T   T   T
  0.5843863295716811  0.6893701641262628  0.4537723438536960   T   T   T
  0.5845372989236375  0.1890371946267853  0.4535270143650725   T   T   T
  0.5847927009214160  0.3142405156264987  0.4551661933928871   T   T   T
  0.5867007734280386  0.0632801755137098  0.4534376122192020   T   T   T
  0.5866911024242784  0.5633519727428639  0.4536250750386622   T   T   T
  0.6662453414939336  0.5635923628994988  0.2021068355520654   F   F   F
  0.6662453414939336  0.0635923628994988  0.2021068355520654   F   F   F
  0.6663404610475681  0.8134949072998268  0.2022484366903115   F   F   F
  0.6663404610475681  0.3134949072998268  0.2022484366903115   F   F   F
  0.6663750951053373  0.6883939277525641  0.2022233082671292   F   F   F
  0.6663750951053373  0.1883939277525641  0.2022233082671292   F   F   F
  0.6663864277493872  0.4383644600106251  0.2021335334354930   F   F   F
  0.6663864277493872  0.9383644600106251  0.2021335334354930   F   F   F
  0.6681903470352853  0.3135477900007230  0.3678817609571715   T   T   T
  0.6683667357772998  0.1886569468352484  0.3676419760679885   T   T   T
  0.6681342254193615  0.8135631815102541  0.3679273089222058   T   T   T
  0.6681341220361648  0.6887335678383500  0.3677147245856759   T   T   T
  0.6687539566649129  0.4385899079662954  0.3671448095674549   T   T   T
  0.6686397883955619  0.5637318518265360  0.3675755063058187   T   T   T
  0.6688324886212510  0.9385826895477630  0.3669483463956986   T   T   T
  0.6688630031054147  0.0636951918029101  0.3675148715792112   T   T   T
  0.6759248278693322  0.9360094150260690  0.5401899358313188   T   T   T
  0.6792092747640474  0.4365277023520080  0.5398051652001007   T   T   T
  0.7478501500541221  0.2520667901783479  0.4552372010634460   T   T   T
  0.7475516785457347  0.7522807103123572  0.4552423114757203   T   T   T
  0.7513508402256538  0.3757992718583879  0.4536035866099483   T   T   T
  0.7501730562611186  0.7507079098083409  0.2774330469442816   F   F   F
  0.7501730562611186  0.2507079098083409  0.2774330469442816   F   F   F
  0.7504158044079480  0.1258413387410015  0.4549749612087501   T   T   T
  0.7515085528849201  0.8755963223626437  0.4536107409831000   T   T   T
  0.7504750055418299  0.6259680682551618  0.2773981497465243   F   F   F
  0.7504750055418299  0.1259680682551618  0.2773981497465243   F   F   F
  0.7505173338481086  0.8759365097582545  0.2770578193141517   F   F   F
  0.7505173338481086  0.3759365097582545  0.2770578193141517   F   F   F
  0.7503339650305263  0.6261741074646986  0.4547287794501983   T   T   T
  0.7507337004896470  0.0010587017123740  0.2774432067716575   F   F   F
  0.7507337004896470  0.5010587017123740  0.2774432067716575   F   F   F
  0.7539003192388437  0.0007825813703273  0.4546506044123176   T   T   T
  0.7538165848332792  0.5005270721850844  0.4546610955483132   T   T   T
  0.0814979264496349  0.1877382309339763  0.4526466925226102   T   T   T
  0.0812884905022322  0.6876095852921744  0.4527258575825970   T   T   T
  0.8277549180729055  0.3144217325838594  0.5405260487703702   T   T   T
  0.8262658746377486  0.8149469623930341  0.5405926081515673   T   T   T
  0.8324031743681648  0.1882686993786503  0.3671129005874926   T   T   T
  0.8323808675052047  0.6883026830503971  0.3670959924581551   T   T   T
  0.8324143728097119  0.3133488311178466  0.3669407036111525   T   T   T
  0.8324267603684403  0.8133550236485058  0.3670114439418596   T   T   T
  0.8329611532078531  0.0633249620988974  0.3674004917328725   T   T   T
  0.8329574857931337  0.5633619135865544  0.3672730829677191   T   T   T
  0.8333403123250400  0.9383464439035718  0.3671430410800618   T   T   T
  0.8332912105460322  0.4383664100643772  0.3671605562902825   T   T   T
  0.8344344719226058  0.6883603527882158  0.2020465356692611   F   F   F
  0.8344344719226058  0.1883603527882158  0.2020465356692611   F   F   F
  0.8344691253071090  0.4383027932291981  0.2021423465583752   F   F   F
  0.8344691253071090  0.9383027932291981  0.2021423465583752   F   F   F
  0.8345236995836203  0.8136019065986346  0.2020593032807980   F   F   F
  0.8345236995836203  0.3136019065986346  0.2020593032807980   F   F   F
  0.8345432068835521  0.5635442939465207  0.2020614199525141   F   F   F
  0.8345432068835521  0.0635442939465207  0.2020614199525141   F   F   F
  0.0835181835032017  0.8134609632527869  0.2839000862688721   F   F   F
  0.0835181835032017  0.3134609632527869  0.2839000862688721   F   F   F
  0.0836480050342630  0.5633752300961916  0.2839758639034855   F   F   F
  0.0836480050342630  0.0633752300961916  0.2839758639034855   F   F   F
  0.0836768758602418  0.6884091217994310  0.2837888281379435   F   F   F
  0.0836768758602418  0.1884091217994310  0.2837888281379435   F   F   F
  0.0836920180794749  0.4383888699923588  0.2841732146708722   F   F   F
  0.0836920180794749  0.9383888699923588  0.2841732146708722   F   F   F
  0.0847967654495823  0.3125678989269053  0.4545002512283152   T   T   T
  0.0849244422886413  0.8126117749886854  0.4547457363201043   T   T   T
  0.0857082377146378  0.0636548890055226  0.4552828994033138   T   T   T
  0.0855247481471115  0.5633291437367980  0.4550999944366018   T   T   T
  0.0861907688266437  0.4380463905012641  0.4544329849273362   T   T   T
  0.0863146949111494  0.9381811107732431  0.4551829117695473   T   T   T
  0.9147383982414399  0.1887663984534785  0.4537005345220391   T   T   T
  0.9146116420152681  0.6887408296704436  0.4537073411801090   T   T   T
  0.9167291117792548  0.3126828499399520  0.4518549397401814   T   T   T
  0.9168819710916485  0.8125474547259692  0.4519424617642692   T   T   T
  0.9180946775033338  0.4377000555544954  0.4534490847740336   T   T   T
  0.9179411883776633  0.9376449924048730  0.4534479652431794   T   T   T
  0.9176630723964637  0.0627881723838214  0.4529816776963370   T   T   T
  0.9175562583130230  0.5628014127704780  0.4528893881001997   T   T   T
  0.9181839152478091  0.6884040565462470  0.2831378587445599   F   F   F
  0.9181839152478091  0.1884040565462470  0.2831378587445599   F   F   F
  0.9183594213103916  0.8134327656776748  0.2832265145484243   F   F   F
  0.9183594213103916  0.3134327656776748  0.2832265145484243   F   F   F
  0.9184058656586132  0.5633566590711467  0.2833389507587185   F   F   F
  0.9184058656586132  0.0633566590711467  0.2833389507587185   F   F   F
  0.9185001265531056  0.4384185648785746  0.2832681567508857   F   F   F
  0.9185001265531056  0.9384185648785746  0.2832681567508857   F   F   F
  0.9923725617383158  0.3659877702964929  0.5418580191526047   T   T   T
  0.9910457557864436  0.8666107494474159  0.5418402453439967   T   T   T
  0.0003932019903943  0.2508828749095886  0.3689837771323058   T   T   T
  0.0005021069592028  0.7509089107449826  0.3690316120402645   T   T   T
  0.0004292338454866  0.1255930087042148  0.3691322827115565   T   T   T
  0.1534073987404596  0.1801577691757432  0.5437451442684857   T   T   T
  0.1526578079613159  0.6809732374679396  0.5437725727247334   T   T   T
  0.1667765378554549  0.5633392265506032  0.2026421323795375   F   F   F
  0.1667765378554549  0.0633392265506032  0.2026421323795375   F   F   F
  0.1668059973185052  0.6886073834303943  0.2025943133799615   F   F   F
  0.1668059973185052  0.1886073834303943  0.2025943133799615   F   F   F
  0.1668155121452699  0.8133424731509606  0.2025799106952988   F   F   F
  0.1668155121452699  0.3133424731509606  0.2025799106952988   F   F   F