Ta  N Cu                                
   1.00000000000000     
    18.1096308199999996    0.0000000000000000    0.0000000000000000
     0.0000000000000000   23.3551997799999995    0.0000000000000000
     0.0000000000000000    0.0000000000000000   30.4818170799999990
   Ta   N    Cu
   240   240    29
Direct
  0.9951542746515675  0.9966750700692653  0.1989574223479643
  0.3250498123537961  0.0677805942602360  0.2006537635159830
  0.1552042373803749  0.0646524927344983  0.2023654030740572
  0.2433747145439907  0.1262637248279406  0.2802966790052558
  0.0762068099866223  0.0611204659934968  0.2850277635027677
  0.4062055084739155  0.0628000475573630  0.2871619724527060
  0.9938110195533564  0.1260468424485822  0.3692292286830539
  0.3255879710160385  0.0599757518362070  0.3678355984968434
  0.1636303594995012  0.0603516270423503  0.3662931313908552
  0.2483257448413893  0.1190979076456819  0.4575540222660096
  0.0872822318464250  0.0616705639719169  0.4559283294758552
  0.4074762299624732  0.0614864606479240  0.4536142685197604
  0.9922689494714888  0.1276362779140234  0.5451961086638395
  0.3277309270694867  0.0598909848013151  0.5420240973501059
  0.1589905088166506  0.0620617429062035  0.5538444701300630
  0.9938097976499815  0.1224021230158090  0.1925505003172473
  0.3315459236699985  0.1850631919722667  0.2019983481005088
  0.1644556775775750  0.1844649135554594  0.1984633165646440
  0.2429793768038329  0.2495950783258107  0.2799821280567972
  0.0770786362312044  0.1897074729792852  0.2806763303907851
  0.4194107227461602  0.1873287546291909  0.2822723228547055
  0.9949980785419396  0.2542657625377320  0.3649649182380248
  0.3281728945339500  0.1885130120685655  0.3664224016618459
  0.1603968447412877  0.1863248010344907  0.3682918912011824
  0.2392551958331440  0.2490191867247278  0.4548751825283063
  0.0777033469512817  0.1834367390716287  0.4578146271095671
  0.4066655813356520  0.1837643112661086  0.4505187085898513
  0.9947730589038313  0.2492614418863306  0.5423817349358544
  0.3228979663038785  0.1850627110264906  0.5463391178937793
  0.1546027980505176  0.1830939052547964  0.5484390350771655
  0.0019496952931247  0.2441046388064850  0.1868874510470995
  0.3318098072127435  0.3173835307311210  0.2000842744194536
  0.1621487095999908  0.3135557623406536  0.2003039537832459
  0.2460958853616918  0.3730719554910504  0.2782971591636290
  0.0742426955947239  0.3155830155812044  0.2812005540792977
  0.4134316336279105  0.3136425382648419  0.2815942724497897
  0.9867139682192578  0.3780375133055862  0.3653763437228550
  0.3228040628257548  0.3120824584517791  0.3687124554421924
  0.1585037719341209  0.3080027620773554  0.3693564036714029
  0.2462063051066014  0.3767643456919247  0.4570650286541982
  0.0815970597308216  0.3070129464708050  0.4550854485346980
  0.4104145495065165  0.3099891313700536  0.4537881536323847
  0.9999773657187319  0.3684696536111595  0.5428742096679121
  0.3284496004081700  0.3073190100863140  0.5380442451135198
  0.1661890386028988  0.3130588890781864  0.5441933759313897
  0.9881463206729023  0.3834758111886740  0.1886803183487697
  0.3314222128743278  0.4418229097203324  0.2007892599284200
  0.1651235809413517  0.4396507363962321  0.2059350821778036
  0.2397560355054774  0.9990190870913146  0.2790680216662756
  0.0758385746553151  0.4362951381420575  0.2851031963162130
  0.4093137190479443  0.4437758752823364  0.2801097965948792
  0.9894390706939677  0.9995097052999463  0.3692401579725625
  0.3307179353050897  0.4385242485640015  0.3671238434657166
  0.1592451683986893  0.4315466482714275  0.3695435192350411
  0.2397659824189331  0.9976151469384313  0.4602943951426071
  0.0702760095085917  0.4355786563769231  0.4562266719442090
  0.4072427532310322  0.4370488635744329  0.4519188221229286
  0.9935686025209066  0.0034664024408269  0.5459049485288053
  0.3286574670791153  0.4351063760867768  0.5404749346134966
  0.1505851782011216  0.4365865379649971  0.5439803239425202
  0.9975894665095631  0.5028980950836011  0.1989828725445034
  0.3230005738475876  0.5687848565699930  0.1983365035052011
  0.1701649418690032  0.5684733877674149  0.1978071335336448
  0.2453426598374970  0.6260892026621713  0.2784880824542880
  0.0829696353790366  0.5559448285929680  0.2831619237274443
  0.4138734663900285  0.5633091831577363  0.2833220199511425
  0.9894668006268672  0.6162533768202070  0.3664337575825484
  0.3277435021652926  0.5620214625359723  0.3665674619349223
  0.1618206877631918  0.5587783999363943  0.3689671699381332
  0.2454226423712974  0.6176865644892274  0.4548314414281002
  0.0789669140980425  0.5638672586677432  0.4541013872127271
  0.4155762823275701  0.5623696575530456  0.4537861418322716
  0.9941360347700816  0.6252159393778004  0.5374407421130563
  0.3207226551175574  0.5607765496005982  0.5446837453583945
  0.1559693171810307  0.5581152171471701  0.5427885084010589
  0.0016826733510935  0.6277790044984730  0.1956634323975026
  0.3398394869517424  0.6932562212889901  0.2002749460031441
  0.1733104835057178  0.6846335175866802  0.1991427152209613
  0.2434315533413713  0.7469238540381360  0.2804420820252778
  0.0751139393882719  0.6920162492130959  0.2769366509777886
  0.4112512785114616  0.6892278940502881  0.2815957876039253
  0.9930963668800890  0.7461690575663464  0.3666543821426304
  0.3271325434373044  0.6868894457573418  0.3693647517225591
  0.1661630914614537  0.6819901981535981  0.3648273705352884
  0.2478596642532062  0.7453738711235998  0.4529808885357590
  0.0794465348922502  0.6868403232605738  0.4532248925704345
  0.4119719775592518  0.6864352874154555  0.4523479078652016
  0.9949996704975532  0.7429960911384529  0.5414717531298449
  0.3278211879118221  0.6808298884634718  0.5371142832789313
  0.1613737548629907  0.6802240483631923  0.5437686817825470
  0.9982775250021220  0.7588130867244699  0.1917628144217609
  0.3205188881983262  0.8189182490259065  0.2064229421141630
  0.1680679626645344  0.8193729526653617  0.2015478996085190
  0.2425581124678568  0.8737841252465560  0.2811504105738330
  0.0742533726712380  0.8176813760502429  0.2848015358936056
  0.4163557440263663  0.8157640789826341  0.2852765503281125
  0.9929553033173962  0.8804574934434150  0.3684732659370649
  0.3253607835102702  0.8130891802463880  0.3678866737986027
  0.1563052548271898  0.8121280888404401  0.3654591588325702
  0.2416286186717986  0.8757676879179646  0.4567767512472254
  0.0783315221146645  0.8105760009074567  0.4508270457196182
  0.4135528031269232  0.8092492623291949  0.4509710743776703
  0.9938549392223294  0.8776678894520850  0.5452911485188136
  0.3306122545860851  0.8088202377816142  0.5369820240124539
  0.1582894101974482  0.8071712854082163  0.5367333691275925
  0.9919536164934987  0.8798671869795038  0.1933760325819368
  0.3303058271404259  0.9364893929594508  0.2060823227499562
  0.1625103303299772  0.9348171335626601  0.2008979101443806
  0.2455521013190928  0.5056377809915156  0.2796518862952991
  0.0746122727299053  0.9342389431793562  0.2857129733277623
  0.4181146984478094  0.9385663135813490  0.2867497683979088
  0.9920014819503863  0.4965428488982273  0.3726151336128051
  0.3278594494006343  0.9392317377326560  0.3683875546217668
  0.1623086462877046  0.9406202367993193  0.3710655011925638
  0.2455563602090322  0.4952979180112767  0.4551503179602196
  0.0725878609961141  0.9403246848230853  0.4577013497743193
  0.4101645407730373  0.9367932538745422  0.4519256502252053
  0.9932805118371371  0.4943200705222078  0.5426269505077469
  0.3217361711775994  0.9361687098542891  0.5369737443846796
  0.1482938352538540  0.9364806684457468  0.5416188074091075
  0.4929832245643853  0.0030359873498125  0.1942290375812095
  0.8228213077608868  0.0591533915831872  0.2023497659789209
  0.6563036509158192  0.0617904054344209  0.2003738025104413
  0.7419246094642683  0.1262465828918727  0.2822429278232764
  0.5747894089835689  0.0656237057790126  0.2834815897486829
  0.9095963845666133  0.0670502885540574  0.2853484739483201
  0.4924157412747755  0.1213504972389153  0.3731855145900630
  0.8278389861303699  0.0630139230516804  0.3721636568833460
  0.6622769568797450  0.0627306333246542  0.3671430687579616
  0.7488280026193530  0.1193159853075103  0.4565728675712395
  0.5762486635648513  0.0565529592763821  0.4522886612206428
  0.9159701501413370  0.0638587987866376  0.4596001843579928
  0.4899814403399372  0.1301908445926064  0.5383262614418836
  0.8269054729203853  0.0649781515194859  0.5435068021699920
  0.6547008173238783  0.0582094791791992  0.5387570530293740
  0.4974024694601691  0.1271504234621298  0.1945793533879518
  0.8259506962253642  0.1925474909100586  0.1987293820887260
  0.6635012533586433  0.1926394233961892  0.1954562627525946
  0.7461300550823792  0.2476951326730268  0.2795020304173725
  0.5793918034865487  0.1899356128170746  0.2792470662012213
  0.9145740297987750  0.1917214774204949  0.2790230014964147
  0.4920591861000984  0.2514542565032118  0.3697728532103508
  0.8329579223247131  0.1847745406896648  0.3686704445633786
  0.6610153953320815  0.1848054176926239  0.3712584485899149
  0.7429866694990181  0.2549940794931525  0.4544298872665803
  0.5732185117071907  0.1886892973943181  0.4539753937169864
  0.9128506281224469  0.1895529247176322  0.4582747213574020
  0.4979296627946896  0.2528174400212590  0.5440828800076509
  0.8288670552502159  0.1853228828745545  0.5457553046454475
  0.6591814826760860  0.1845109597603655  0.5411508172326029
  0.4962023286914628  0.2522112150739276  0.1861927892570429
  0.8285672327808542  0.3113940122511016  0.1975504595084434
  0.6632943504712762  0.3123906608148129  0.1980216272526195
  0.7478912990618222  0.3772505494160000  0.2827685825781170
  0.5789643800684696  0.3143213864288118  0.2819822711223668
  0.9062852058526449  0.3177092633349138  0.2803525684572217
  0.4947365475435584  0.3751341091009790  0.3661841818576321
  0.8255416653525806  0.3168159938477049  0.3676362920898536
  0.6591016199853369  0.3167759377001108  0.3682160303210554
  0.7401201049001358  0.3747592924860773  0.4563917745156683
  0.5739165958200140  0.3078960977727385  0.4500036024317375
  0.9094966258098862  0.3090099294295307  0.4519496589638399
  0.4974631549436326  0.3755622401063766  0.5371022094560058
  0.8296690158936397  0.3070348406735025  0.5390506574087665
  0.6650276376615022  0.3129138054624235  0.5379665973694326
  0.4995821826898342  0.3804348376471677  0.1982054109135891
  0.8262696299009838  0.4387449059623053  0.1992037943563141
  0.6619644783600722  0.4402699963074918  0.1986927699363899
  0.7416898462083682  0.9951267135241967  0.2805830882896887
  0.5795146682288201  0.4418478822930607  0.2817363813745518
  0.9178972219796722  0.4394743151845745  0.2802223036647811
  0.4942671547559562  0.0016580416987961  0.3711301442180396
  0.8281249784706085  0.4406234280249082  0.3702940157761890
  0.6617083980247304  0.4426874636842630  0.3701565925323626
  0.7390912364615388  0.0031427110310407  0.4573381805990476
  0.5767724058806445  0.4385588954947391  0.4529500387419065
  0.9139959588141631  0.4378511579591399  0.4550411603688624
  0.4938013785012186  0.9960046315437521  0.5440572689996630
  0.8354746828332403  0.4392703658847309  0.5409317962825446
  0.6622926084449896  0.4375883870716684  0.5369034434349887
  0.4974095497029291  0.4952294093784758  0.1946015512237634
  0.8257930585587334  0.5564000286799480  0.2046860942930383
  0.6661540807045327  0.5574428111915021  0.1972165309636570
  0.7457933052195017  0.6274791106100420  0.2753981577307423
  0.5744047264492991  0.5597644335397195  0.2829508758447719
  0.9173717871220812  0.5639778915430030  0.2846944982832846
  0.4984942031071103  0.6254741191900964  0.3676208560720175
  0.8231167253218560  0.5612858237755997  0.3641687362675888
  0.6634700564696676  0.5613874290624558  0.3676744074309471
  0.7530031822423087  0.6266557780094544  0.4541770940125525
  0.5847944241347969  0.5638872046775140  0.4564576525717479
  0.9154671194379330  0.5605257976786776  0.4542568052233064
  0.4958364605979680  0.6261360072753335  0.5373141096756795
  0.8327958812595960  0.5608041970604062  0.5453385518585855
  0.6667957408666286  0.5641042315999654  0.5385965170501010
  0.4969961632150918  0.6175319155459041  0.1894256508770546
  0.8312192986852467  0.6890699023688165  0.1980455272157476
  0.6710581293443506  0.6911893763956899  0.2016384153333653
  0.7415456362253244  0.7465748879945647  0.2750132211831983
  0.5800409274554527  0.6808898186437787  0.2816547204246901
  0.9138460359358954  0.6858752006491609  0.2790861969464571
  0.4907186550111273  0.7512614320806056  0.3701865317928545
  0.8280213439560643  0.6875397521730332  0.3650011880821276
  0.6617457611164448  0.6841606735045626  0.3674320210128564
  0.7542383722211672  0.7443243913031388  0.4502366962008727
  0.5858621172796863  0.6932696658894106  0.4517856710791020
  0.9121957129964663  0.6848481542669937  0.4535315517431260
  0.5067237301262760  0.7484074374625644  0.5354202547847058
  0.8328239060981367  0.6930714611228052  0.5448797988118733
  0.6630979404321991  0.6909903668787132  0.5372420265529814
  0.4970906357387569  0.7510853651773588  0.1950761736939504
  0.8312889262714669  0.8177380112073966  0.2021282546565534
  0.6694443732520099  0.8157314790180428  0.2045831795216167
  0.7456347469914970  0.8721238730313599  0.2820629811882569
  0.5868506115110609  0.8085969300618491  0.2885480991564240
  0.9121077927213067  0.8129937929689415  0.2832527653961489
  0.4974510466826825  0.8764185065553239  0.3686562059837465
  0.8315136300176321  0.8077733863982743  0.3676575112592618
  0.6692799504718612  0.8050621427118445  0.3684424626463543
  0.7516742986923206  0.8779644641277009  0.4549451289809245
  0.5795353046363030  0.8137927321148497  0.4521690518212545
  0.9149123571934529  0.8126049724187822  0.4557154619486987
  0.4896645171074681  0.8755591986561228  0.5408336483929458
  0.8197768034362478  0.8157735273043105  0.5492216788901803
  0.6628318285895268  0.8127730985168392  0.5385148134842278
  0.4985639162398789  0.8692332567384627  0.2018390360548747
  0.8231473241600887  0.9437845661602751  0.2018006578000336
  0.6700139790336564  0.9412216255842900  0.2016132777362418
  0.7498338468488724  0.5027220338797410  0.2872385299849764
  0.5835857351289228  0.9355549559428568  0.2822241605484485
  0.9143168322032682  0.9372977424775392  0.2855142320582717
  0.4985434419109279  0.5024197400069507  0.3690121344022618
  0.8279604575498245  0.9353292508512550  0.3716588330960643
  0.6604905965676232  0.9366512393554967  0.3693799660938473
  0.7488529712226691  0.5035256688887609  0.4606268876618300
  0.5826998725902740  0.9312859021994861  0.4558897422732369
  0.9123848422024723  0.9363372344139991  0.4571673266627478
  0.4956633635185098  0.5042296712073245  0.5342253759315820
  0.8306440905551085  0.9415074009156590  0.5432878371538060
  0.6647609757524245  0.9382644929488979  0.5382471109598634
  0.4033497780118731  0.0022513172385746  0.2335310907299391
  0.2375151478559470  0.9987007733934854  0.2068551079487959
  0.0868578449267879  0.9980169350336953  0.2343133121417544
  0.1449987800903861  0.1200132815452013  0.3143594254043293
  0.9961377116927898  0.1299804502155117  0.3003203637685919
  0.3425522048668274  0.1286466306179566  0.3149812117080789
  0.3935325507415577  0.1190305261785605  0.4014730549184696
  0.2455284686230513  0.1226553209703921  0.3888343523787538
  0.0909147727277829  0.1205501369312118  0.4051091196605595
  0.1539867384381941  0.1238204386646514  0.4945423948805955
  0.0023238549338791  0.1227704624725754  0.4772339402479727
  0.3420574234559440  0.1265618203449919  0.4886168436085045
  0.3994416196890634  0.1202651713617181  0.5702744131667434
  0.2479061540866664  0.1243325901220395  0.5622342319452921
  0.0897575071653772  0.1172595440543062  0.5807068748209639
  0.4042237279005033  0.1235186786799429  0.2337754316461216
  0.2460565764204985  0.1249072448100679  0.1846382520201067
  0.0835229276949597  0.1303085155243939  0.2323854201896036
  0.1444698653406484  0.2474284318174410  0.3125088447275556
  0.9923279193717903  0.2533860062440992  0.2989538062859023
  0.3410161017217466  0.2519856619555818  0.3138146428371097
  0.3884732486302748  0.2482920297825889  0.4007296214599917
  0.2401502912760848  0.2462665219922972  0.3870019117069761
  0.0920575173527480  0.2479560306423771  0.4036992316290686
  0.1472218648423450  0.2539221571417783  0.4907061639237043
  0.9970700416876963  0.2497022331094348  0.4730575511729539
  0.3379696439805290  0.2469916345695475  0.4885546709445776
  0.4023389326662184  0.2496169993480359  0.5749946631768492
  0.2449719237306477  0.2510590572629932  0.5613426146948417
  0.0866321782354221  0.2462394481003872  0.5792372324706802
  0.4078032104270371  0.2556370311009688  0.2244882440936886
  0.2470145355258535  0.2556699177753656  0.2058499103672569
  0.0857185916024555  0.2543487268767239  0.2275820114765877
  0.1432161315669871  0.3709738641335438  0.3151629937662441
  0.9947610880772004  0.3733158644065189  0.2989675938938827
  0.3368817284239612  0.3762277379726143  0.3170962354393981
  0.3951358278955635  0.3768225708906074  0.3989539494920482
  0.2425494660462533  0.3745179004225432  0.3861990166015176
  0.0843883051716638  0.3688081841479672  0.4015256191458394
  0.1422340381829608  0.3777256580848574  0.4897958887057739
  0.9970020355078801  0.3648118288911052  0.4722132161165855
  0.3435132074348601  0.3756892451245782  0.4860026162582060
  0.3997072731310624  0.3720904932356376  0.5711251796515651
  0.2449080153847630  0.3756364103359335  0.5534376032152291
  0.0915879113224417  0.3731619688323309  0.5810235179211036
  0.3987384056812044  0.3826304894864901  0.2306754939636620
  0.2445149275198993  0.3757487368554746  0.1918186694162032
  0.0826485527577768  0.3730222017786645  0.2247244333715480
  0.1414625427722897  0.9968538727803115  0.3177111475924539
  0.9916761242621931  0.0049123111484797  0.3024988634964375
  0.3383175351305199  0.0006692385333938  0.3139026658693995
  0.3983720488913430  0.0018804320205075  0.4005862020387398
  0.2505349362538243  0.0010006844602483  0.3900516939434721
  0.0908108162908370  0.9957789440358917  0.4041482651611923
  0.1430971527465637  0.0012777151077076  0.4960406746233125
  0.9960846698356695  0.0004164120946274  0.4775672640418099
  0.3434227808095167  0.0009891425831343  0.4883844486841467
  0.3981164749170842  0.0000449531806947  0.5750640139569519
  0.2473871732927208  0.9967124555076210  0.5588642459903305
  0.0886661539477862  0.9963627908760231  0.5743372977562784
  0.3974186735941318  0.5038713050237182  0.2297189965349040
  0.2455576583243672  0.5053550873543610  0.1967234327027823
  0.0934989752791245  0.5047114236480310  0.2326296993585148
  0.1476554278461543  0.6187347472325400  0.3129732077428298
  0.0009954058674919  0.6236740286029783  0.3015334468651107
  0.3403629267006356  0.6218701063374725  0.3161160366317196
  0.3924549842564294  0.6252491134874406  0.4003884230152836
  0.2444730385224887  0.6218495187832779  0.3856763105702710
  0.0917600731295393  0.6272033440427042  0.3969999039494511
  0.1490728710311548  0.6264264189103010  0.4860467680100941
  0.9995836502517329  0.6251048255144722  0.4739579379206275
  0.3387934046892044  0.6151742297772446  0.4888810902108192
  0.3924120866949473  0.6210530052517936  0.5715230860945563
  0.2385026752571437  0.6210198311680741  0.5612137145572994
  0.0880348799826405  0.6275786563265343  0.5711417394587837
  0.4069289184194207  0.6286179597078159  0.2311628770931063
  0.2546567720453319  0.6306623585617829  0.1817735936933519
  0.1000424661993349  0.6316971975066051  0.2276841929606172
  0.1510406433503505  0.7495299592619438  0.3145742256195503
  0.9909447822490642  0.7517530208685690  0.2992429369022594
  0.3361454719604411  0.7573300343717334  0.3124723230926690
  0.3960655645472937  0.7493183943163434  0.3985843908699992
  0.2434519675817899  0.7528167094714724  0.3819504940271667
  0.0958867467846076  0.7458252793102722  0.4004598406944878
  0.1531818740865430  0.7406662430961977  0.4871397946346973
  0.9899158100862825  0.7480206894998690  0.4706383110203498
  0.3478137917628780  0.7445712825662802  0.4872956785177943
  0.4028430631608405  0.7389523358333723  0.5689998630060764
  0.2523388842338843  0.7460843896761215  0.5531215144416256
  0.0986695441257202  0.7411885888225702  0.5687326873784097
  0.3961396629959970  0.7569312610849903  0.2292441971483626
  0.2561153796323131  0.7534442014164879  0.2132142811253955
  0.0929406456404093  0.7575457568133600  0.2302683966966309
  0.1496550360951712  0.8787080417866001  0.3189365802257825
  0.9947403598964040  0.8790106245269783  0.3035753390607104
  0.3444637659843025  0.8755584380331094  0.3155111361720890
  0.3918071475885752  0.8774479024921847  0.4039638858783987
  0.2464070601025045  0.8794072605704144  0.3885893539926956
  0.0869707094811094  0.8760283788465713  0.4008385336954378
  0.1402520080314929  0.8738023722827160  0.4847324319557351
  0.9967758071224333  0.8752677810118565  0.4781521767226544
  0.3405261524257056  0.8705841995268371  0.4808032283763423
  0.3872110839927442  0.8782316575029282  0.5653325723715040
  0.2455082553549584  0.8671115004201413  0.5505153522006383
  0.0885872229126878  0.8669010021528265  0.5699792881906438
  0.4047992413795226  0.8786448694944297  0.2356483404695093
  0.2467344871256066  0.8778029358210685  0.1781602768798253
  0.0884801635626351  0.8775389107658860  0.2316852828581984
  0.1542408507223517  0.4971178913497964  0.3188576194649818
  0.9997208072179776  0.4988644630696772  0.3019411971699339
  0.3393871418716969  0.4990782825021142  0.3167052661636967
  0.3996167007335639  0.5044476012124196  0.4009826696021893
  0.2418518767193125  0.4989868495817535  0.3901486014176526
  0.0970538250004971  0.4933560965973102  0.4036205303893566
  0.1441065322427917  0.4978178570722492  0.4891620093043193
  0.9992863817959599  0.5046591822140245  0.4711018135799926
  0.3452155164117398  0.4993648452058314  0.4889579849446127
  0.4017494751271342  0.5019991579708801  0.5687486132928771
  0.2449018946634837  0.4958855501343368  0.5609239770699075
  0.0863466165946446  0.5039564396252790  0.5712043198776444
  0.8996753003842449  0.0012651090621994  0.2342716100359227
  0.7379746090203905  0.0053797960241139  0.1732501906865969
  0.5821057054932198  0.0040179965349169  0.2281390940970128
  0.6473068943129087  0.1297161455692148  0.3160442460764477
  0.4932185404464162  0.1259710332955011  0.3004075393257875
  0.8412545530518744  0.1262455584149945  0.3162104581469702
  0.9013515690266143  0.1232822907584317  0.4049579420843362
  0.7486576417608276  0.1244501776410774  0.3889317146762156
  0.5930334356813557  0.1173994177033998  0.4044628693063937
  0.6533652536813984  0.1269918119067477  0.4847590911378341
  0.4978285329693880  0.1259341952611639  0.4671817420633793
  0.8465617940823685  0.1230503309232726  0.4874441719212581
  0.8948193941951923  0.1238926264633107  0.5757248626572934
  0.7489269089486471  0.1272899528667279  0.5560827779237145
  0.5868733064818378  0.1217363577981260  0.5634005771532806
  0.8976427055971595  0.1306496960744539  0.2297703123409220
  0.7452584458593390  0.1242081827123472  0.2142268269909116
  0.5902234342653785  0.1304040008861947  0.2274037711930920
  0.6518499674854931  0.2531577989368787  0.3180148793471980
  0.4895697202836123  0.2477706687260769  0.3026088253732795
  0.8446450125240520  0.2502637321301228  0.3132764724444477
  0.9032715982865697  0.2528677598378938  0.3986089090556214
  0.7486399353562500  0.2511834335395453  0.3879638972610629
  0.5867876666857357  0.2516952667076002  0.4005839376741958
  0.6390406483642728  0.2462928513628629  0.4901595304603472
  0.4918536893290748  0.2474129006427198  0.4717057826945745
  0.8428035025365014  0.2469278913318098  0.4875678183250436
  0.8933954013882232  0.2458185747502709  0.5770335322097694
  0.7436185524490762  0.2496844277504476  0.5554237371396052
  0.6016220365764208  0.2581274276368800  0.5769714919587673
  0.8995988790915986  0.2544703005840830  0.2252666897244718
  0.7379778111175747  0.2512018713139967  0.1685975759483075
  0.5897423228758983  0.2498411946212926  0.2283634748280954
  0.6481519504440274  0.3767009817276654  0.3162538570408435
  0.4917734559131147  0.3775804226732428  0.3027112129732631
  0.8466466567576419  0.3832570883045684  0.3154183114316512
  0.8961176128127868  0.3781065732416486  0.4059516171220431
  0.7420759145477284  0.3817904977583899  0.3869150186157644
  0.5916517936073565  0.3764294411688984  0.3989688577446432
  0.6389526336834117  0.3749826933484899  0.4865432611214147
  0.4910300245745701  0.3731386097511349  0.4721246677829224
  0.8423317186980094  0.3758035941842342  0.4855830912589291
  0.9009114826094163  0.3660932942161643  0.5703580262586332
  0.7506355684612034  0.3742357013484571  0.5497364439807400
  0.5984898359204578  0.3779588103613469  0.5708629439908978
  0.8996567899205363  0.3769291965303246  0.2259022058330825
  0.7398597356120431  0.3746880825462780  0.2179897340136127
  0.5959068930955443  0.3843240532042690  0.2318632829710644
  0.6501302168111125  0.0003738484273130  0.3154532592244542
  0.4926991471179567  0.0055661110241141  0.3046369369776794
  0.8362868922169503  0.9984066307442451  0.3183824613602355
  0.8936525161754710  0.9997670753778052  0.4029670935214681
  0.7462138406394427  0.9990775216171043  0.3877622826496598
  0.5946127581891246  0.9940986516191329  0.4001567917572260
  0.6415586397000543  0.9969573931404919  0.4874124529716556
  0.4880064523003336  0.0005345152669329  0.4713668333816305
  0.8513224779796866  0.9997573938393397  0.4928619252050547
  0.8940494975403526  0.9996010552488590  0.5739404665828800
  0.7417691314646460  0.0056115763095925  0.5590375982002933
  0.5939643727416066  0.9984060620807075  0.5683721607958985
  0.9049362950313783  0.5053662050892841  0.2322940864523285
  0.7501078735197599  0.5040797885099124  0.1728551661219189
  0.5859567928189632  0.4990638393762429  0.2302915941785044
  0.6479370404454656  0.6254302752667991  0.3122945880178810
  0.4960164122798298  0.6271348387330566  0.3006002946947728
  0.8435241627234189  0.6250993680853075  0.3132383821459151
  0.8926590965115352  0.6191196983369738  0.4005608217741470
  0.7413172237055295  0.6260716950780860  0.3866774406916293
  0.5960250858194709  0.6269357327564636  0.3987679517646803
  0.6539704859538791  0.6313886520463330  0.4847896437110116
  0.4945177074476476  0.6268108683146414  0.4704765925839508
  0.8494980951821228  0.6267758239947341  0.4916298100620694
  0.9035446849237152  0.6257508694311810  0.5788787921587635
  0.7400046738415835  0.6261148895168873  0.5611530921637711
  0.5909722824473133  0.6257665545246673  0.5637585529346902
  0.9031755102445768  0.6226284410564732  0.2281376079379508
  0.7528236689612569  0.6225728751829471  0.1893678908532048
  0.5873624447859409  0.6232885338748063  0.2258270638671968
  0.6494472740007856  0.7423196369454146  0.3153449285888316
  0.5007970157014929  0.7520206544052420  0.3012678280571869
  0.8446347678998551  0.7512812677655027  0.3105364859986379
  0.8969887458281930  0.7437010917824582  0.4024686456428060
  0.7432461723486282  0.7447334597189099  0.3859387976064773
  0.5976175257364043  0.7520522556306118  0.4004463293389300
  0.6571380168335583  0.7537512530393180  0.4828131513662773
  0.4996925362895189  0.7487936891208583  0.4683707912954350
  0.8500801879282770  0.7460745742200119  0.4876682695081755
  0.9028991020192602  0.7556554652462164  0.5693107077742121
  0.7411484418804328  0.7511748056470550  0.5618373108933402
  0.5955383956347852  0.7474700267785344  0.5697080470165216
  0.9110001411039920  0.7556375787057400  0.2311282972438885
  0.7514139215443140  0.7542413563961808  0.1991092054219838
  0.5849238042156283  0.7485766146444538  0.2329481741085051
  0.6521978752101265  0.8706332354800961  0.3186473967557482
  0.5034532449252458  0.8708855033882920  0.3023666301400292
  0.8421627479691358  0.8768784687262118  0.3163014827927008
  0.8916337692733085  0.8734185442074637  0.4058202817624734
  0.7462139433864599  0.8776595525870887  0.3880829840998224
  0.6009936659552239  0.8704088058789101  0.3993267561490367
  0.6484776629682388  0.8727658190584617  0.4874990240190968
  0.4927741914949919  0.8743231451610594  0.4739114396939813
  0.8444246457154987  0.8781990952985514  0.4912074269258275
  0.8906929518762542  0.8764185269501461  0.5728896836871861
  0.7379667538430610  0.8756813590145037  0.5611619001591597
  0.5900027521213210  0.8698504879437342  0.5701208753402480
  0.9037457210169099  0.8776144116985761  0.2364891349945400
  0.7500870995782336  0.8748197541314335  0.1973140663228948
  0.5938875294904695  0.8754205494290156  0.2342326992596175
  0.6452469474755307  0.4990956632277202  0.3179367275535350
  0.4916012470252135  0.5045365427467940  0.3037700894105056
  0.8524365999631949  0.5030084153380890  0.3159557675289338
  0.8940847241326776  0.4951520006908572  0.4063339200005155
  0.7457356796130428  0.5001659105635603  0.3894057658951133
  0.5928641581894571  0.5054454560389754  0.4025140990241337
  0.6501881910877919  0.4946102162390245  0.4868253312164065
  0.4973326978397717  0.5021450083209762  0.4675918801991120
  0.8430925039030427  0.5043666941330135  0.4894447193551753
  0.8943880539663498  0.5002926176038189  0.5720032543709134
  0.7446968865736554  0.5015430781742661  0.5590876027356322
  0.5891556427212665  0.5084871425220910  0.5731631165908498
  0.5274848454887548  0.5128594829526439  0.6818711883816558
  0.6588300225137618  0.3344041905465615  0.7036097779045359
  0.6365983779675041  0.5653238353217683  0.6944255102432367
  0.8238620018440713  0.4172554134977508  0.7340295882160593
  0.8999106616746094  0.2903493431996451  0.6308771731487873
  0.9121188063685691  0.3580783064602435  0.6918688799744409