Ru  N  H                                
   1.00000000000000     
     8.1450004578000001    0.0000000000000000    0.0000000000000000
     0.0000000000000000   12.8549995421999999    0.0000000000000000
     0.0000000000000000    0.0000000000000000   23.6212997436999999
   Ru   N    H 
    72    18    27
Selective dynamics
Direct
  0.0000000000000000  0.0833299949999997  0.0663599980000029   F   F   F
  0.1666699889999990  0.0833299949999997  0.1659000109999980   F   F   F
  0.0050859862216457  0.0786851926123135  0.2638906300752560   T   T   T
  0.1791500895664001  0.0828891463870950  0.3639244391227376   T   T   T
  0.0000000000000000  0.2500000000000000  0.0000000000000000   F   F   F
  0.1666699889999990  0.2500000000000000  0.0995400030000013   F   F   F
  0.0009979654799778  0.2497812340474625  0.1986018771958519   T   T   T
  0.1705989857100143  0.2499346028475534  0.2976285888076244   T   T   T
  0.3333299960000033  0.0833299949999997  0.0663599980000029   F   F   F
  0.5000000000000000  0.0833299949999997  0.1659000109999980   F   F   F
  0.3344687879469818  0.0811394078629396  0.2655331126231965   T   T   T
  0.4978940524502506  0.0803146868016717  0.3638934887603298   T   T   T
  0.3333299960000033  0.2500000000000000  0.0000000000000000   F   F   F
  0.5000000000000000  0.2500000000000000  0.0995400030000013   F   F   F
  0.3336619830716658  0.2493253900267464  0.1979472827674177   T   T   T
  0.5027543627585581  0.2488612004678059  0.2994627791714112   T   T   T
  0.6666700039999967  0.0833299949999997  0.0663599980000029   F   F   F
  0.8333299960000033  0.0833299949999997  0.1659000109999980   F   F   F
  0.6713063947834909  0.0837952975066492  0.2633678624979177   T   T   T
  0.8398878911942376  0.0821236004741397  0.3629913983428387   T   T   T
  0.6666700039999967  0.2500000000000000  0.0000000000000000   F   F   F
  0.8333299960000033  0.2500000000000000  0.0995400030000013   F   F   F
  0.6663748074743497  0.2508199918527032  0.1977814862208085   T   T   T
  0.8340864479632992  0.2493023999628888  0.2974344601992209   T   T   T
  0.0000000000000000  0.4166700050000003  0.0663599980000029   F   F   F
  0.1666699889999990  0.4166700050000003  0.1659000109999980   F   F   F
  0.0010183851182074  0.4199110483811995  0.2645041768933010   T   T   T
  0.1666532280904525  0.4103802826315134  0.3665847518850066   T   T   T
  0.0000000000000000  0.5833299580000002  0.0000000000000000   F   F   F
  0.1666699889999990  0.5833299580000002  0.0995400030000013   F   F   F
 -0.0021663752552943  0.5835364462907959  0.1983633353482888   T   T   T
  0.1692910498234023  0.5878822220515141  0.2970543269621935   T   T   T
  0.3333299960000033  0.4166700050000003  0.0663599980000029   F   F   F
  0.5000000000000000  0.4166700050000003  0.1659000109999980   F   F   F
  0.3364301139022248  0.4168807773362226  0.2631747870951508   T   T   T
  0.4996871975395711  0.4184302494872791  0.3623600282419850   T   T   T
  0.3333299960000033  0.5833299580000002  0.0000000000000000   F   F   F
  0.5000000000000000  0.5833299580000002  0.0995400030000013   F   F   F
  0.3297324200649414  0.5828209274894361  0.1973044276957682   T   T   T
  0.4921864852490853  0.5825533178906077  0.2933078294010458   T   T   T
  0.6666700039999967  0.4166700050000003  0.0663599980000029   F   F   F
  0.8333299960000033  0.4166700050000003  0.1659000109999980   F   F   F
  0.6704480570979597  0.4195556272166511  0.2661441080123577   T   T   T
  0.8335464843138893  0.4133897460025491  0.3656899829394408   T   T   T
  0.6666700039999967  0.5833299580000002  0.0000000000000000   F   F   F
  0.8333299960000033  0.5833299580000002  0.0995400030000013   F   F   F
  0.6670286282376082  0.5824112726865494  0.1977549808654002   T   T   T
  0.8459624849428483  0.5863960342063053  0.3041684068549271   T   T   T
  0.0000000000000000  0.7500000000000000  0.0663599980000029   F   F   F
  0.1666699889999990  0.7500000000000000  0.1659000109999980   F   F   F
  0.0035001485141704  0.7499404107506534  0.2635888545077146   T   T   T
  0.1215503515829002  0.7321393925240801  0.3847654987839405   T   T   T
  0.0000000000000000  0.9166700050000003  0.0000000000000000   F   F   F
  0.1666699889999990  0.9166700050000003  0.0995400030000013   F   F   F
  0.0009693164898205  0.9164968138825432  0.1975245152702923   T   T   T
  0.1770524723105049  0.9075005239867503  0.3045994231063643   T   T   T
  0.3333299960000033  0.7500000000000000  0.0663599980000029   F   F   F
  0.5000000000000000  0.7500000000000000  0.1659000109999980   F   F   F
  0.3382662832311752  0.7522172022252284  0.2593520286031494   T   T   T
  0.4929360514279305  0.7518553742252593  0.3566865391402860   T   T   T
  0.3333299960000033  0.9166700050000003  0.0000000000000000   F   F   F
  0.5000000000000000  0.9166700050000003  0.0995400030000013   F   F   F
  0.3307047133271003  0.9186315139912855  0.1972553713236126   T   T   T
  0.5044593669204449  0.9172051844981259  0.2933601043182327   T   T   T
  0.6666700039999967  0.7500000000000000  0.0663599980000029   F   F   F
  0.8333299960000033  0.7500000000000000  0.1659000109999980   F   F   F
  0.6696361532018948  0.7498999594075665  0.2618168538223230   T   T   T
  0.8007505749795797  0.7448257355667469  0.3756255886767914   T   T   T
  0.6666700039999967  0.9166700050000003  0.0000000000000000   F   F   F
  0.8333299960000033  0.9166700050000003  0.0995400030000013   F   F   F
  0.6681936927569430  0.9175738730696777  0.1985194131082302   T   T   T
  0.8359201763363732  0.9131598570136366  0.3002986717152538   T   T   T
  0.3384363366591351  0.0778437693435016  0.4324539938703536   T   T   T
  0.6787306266290216  0.0446902073261663  0.4317793564032137   T   T   T
  0.0055940717857262  0.1224708257231534  0.4312332019803845   T   T   T
  0.3333519523468503  0.4654725300524327  0.4273615093410533   T   T   T
  0.2125094628951230  0.6718405462614434  0.4623282456397674   T   T   T
  0.3437201310988552  0.2942162270671232  0.3671881025818504   T   T   T
  0.3148476837710502  0.6429151462217841  0.3602539751089486   T   T   T
  0.2965957580884587  0.8437665443336537  0.3756306238658390   T   T   T
  0.9962981631938093  0.2941849517600268  0.3593529158696733   T   T   T
 -0.0557298372110389  0.6218432816494974  0.3851332855355287   T   T   T
  0.0134045134970915  0.9653844804670572  0.3649890711983934   T   T   T
  0.6680161160836618  0.1980381456345744  0.3636342228916831   T   T   T
  0.6497637759198839  0.6170828964683882  0.3558907906085511   T   T   T
  0.6552824687493509  0.8758453056447447  0.3606220624122687   T   T   T
  0.6585599581812575  0.3873845681690145  0.4300987356039159   T   T   T
  0.6143579778572383  0.7358026498275348  0.4402742381132723   T   T   T
  0.0058384526375916  0.4282440543146673  0.4350324191275330   T   T   T
 -0.0520661028316497  0.8051364800695194  0.4382989315197896   T   T   T
  0.3578118715700372  0.0138734848608506  0.4577180181512346   T   T   T
  0.3197811996024175  0.1389735898994007  0.4599139543749983   T   T   T
  0.6912375909703495 -0.0211589753269312  0.4562400098737341   T   T   T
  0.6761407855190718  0.1050025500376740  0.4603053439541315   T   T   T
  0.0056724644554321  0.0625022522351083  0.4599435264510149   T   T   T
  0.0064607483201372  0.1884690069086543  0.4560463507144339   T   T   T
  0.3414263102901666  0.4107473164400340  0.4590534197607560   T   T   T
  0.2930070645376238  0.5346755298214113  0.4473132766268013   T   T   T
  0.1425049468198473  0.6971273869270809  0.4958209417451750   T   T   T
  0.3243109196730284  0.7075550140677227  0.4687098021526013   T   T   T
  0.3526858421342103  0.2491883274842378  0.4031558179312993   T   T   T
  0.3400769151965140  0.5908616039566699  0.3913169693465722   T   T   T
  0.3208542985807105  0.8982180963211184  0.4063224389078895   T   T   T
  0.0006333107405333  0.2455025718046358  0.3932857575875454   T   T   T
 -0.0817601716343851  0.5724933731454781  0.4179550948258162   T   T   T
  0.0316750813221138  0.9195932487904822  0.3996834781261045   T   T   T
  0.6699532203300014  0.2447472789697683  0.3985277783636352   T   T   T
  0.6418028416234208  0.5748080548399270  0.3929212931409397   T   T   T
  0.6360881496264658  0.9249740616134459  0.3937258354707781   T   T   T
  0.6489788863744405  0.3188245519179987  0.4526759585348129   T   T   T
  0.6588593796721005  0.4437235467943701  0.4609015598164169   T   T   T
  0.6095846420086051  0.6679555723199816  0.4632131681404890   T   T   T
  0.6185857215168077  0.7958804168089376  0.4687413382792063   T   T   T
  0.9955042638681011  0.3658944527479706  0.4620231957483483   T   T   T
  0.0390095313169022  0.4912558209110858  0.4593203202973740   T   T   T
 -0.0674200314366040  0.7591994758824229  0.4734087101570844   T   T   T
 -0.0758258276312971  0.8799690391296804  0.4515363394412540   T   T   T
 
  0.00000000E+00  0.00000000E+00  0.00000000E+00
  0.00000000E+00  0.00000000E+00  0.00000000E+00
  0.00000000E+00  0.00000000E+00  0.00000000E+00
  0.00000000E+00  0.00000000E+00  0.00000000E+00
  0.00000000E+00  0.00000000E+00  0.00000000E+00
  0.00000000E+00  0.00000000E+00  0.00000000E+00
  0.00000000E+00  0.00000000E+00  0.00000000E+00
  0.00000000E+00  0.00000000E+00  0.00000000E+00
  0.00000000E+00  0.00000000E+00  0.00000000E+00
  0.00000000E+00  0.00000000E+00  0.00000000E+00
  0.00000000E+00  0.00000000E+00  0.00000000E+00
  0.00000000E+00  0.00000000E+00  0.00000000E+00
  0.00000000E+00  0.00000000E+00  0.00000000E+00
  0.00000000E+00  0.00000000E+00  0.00000000E+00
  0.00000000E+00  0.00000000E+00  0.00000000E+00
  0.00000000E+00  0.00000000E+00  0.00000000E+00
  0.00000000E+00  0.00000000E+00  0.00000000E+00
  0.00000000E+00  0.00000000E+00  0.00000000E+00
  0.00000000E+00  0.00000000E+00  0.00000000E+00
  0.00000000E+00  0.00000000E+00  0.00000000E+00
  0.00000000E+00  0.00000000E+00  0.00000000E+00
  0.00000000E+00  0.00000000E+00  0.00000000E+00
  0.00000000E+00  0.00000000E+00  0.00000000E+00
  0.00000000E+00  0.00000000E+00  0.00000000E+00
  0.00000000E+00  0.00000000E+00  0.00000000E+00
  0.00000000E+00  0.00000000E+00  0.00000000E+00
  0.00000000E+00  0.00000000E+00  0.00000000E+00
  0.00000000E+00  0.00000000E+00  0.00000000E+00
  0.00000000E+00  0.00000000E+00  0.00000000E+00
  0.00000000E+00  0.00000000E+00  0.00000000E+00
  0.00000000E+00  0.00000000E+00  0.00000000E+00
  0.00000000E+00  0.00000000E+00  0.00000000E+00
  0.00000000E+00  0.00000000E+00  0.00000000E+00
  0.00000000E+00  0.00000000E+00  0.00000000E+00
  0.00000000E+00  0.00000000E+00  0.00000000E+00
  0.00000000E+00  0.00000000E+00  0.00000000E+00
  0.00000000E+00  0.00000000E+00  0.00000000E+00
  0.00000000E+00  0.00000000E+00  0.00000000E+00
  0.00000000E+00  0.00000000E+00  0.00000000E+00
  0.00000000E+00  0.00000000E+00  0.00000000E+00
  0.00000000E+00  0.00000000E+00  0.00000000E+00
  0.00000000E+00  0.00000000E+00  0.00000000E+00
  0.00000000E+00  0.00000000E+00  0.00000000E+00
  0.00000000E+00  0.00000000E+00  0.00000000E+00
  0.00000000E+00  0.00000000E+00  0.00000000E+00
  0.00000000E+00  0.00000000E+00  0.00000000E+00
  0.00000000E+00  0.00000000E+00  0.00000000E+00
  0.00000000E+00  0.00000000E+00  0.00000000E+00
  0.00000000E+00  0.00000000E+00  0.00000000E+00
  0.00000000E+00  0.00000000E+00  0.00000000E+00
  0.00000000E+00  0.00000000E+00  0.00000000E+00
  0.00000000E+00  0.00000000E+00  0.00000000E+00
  0.00000000E+00  0.00000000E+00  0.00000000E+00
  0.00000000E+00  0.00000000E+00  0.00000000E+00
  0.00000000E+00  0.00000000E+00  0.00000000E+00
  0.00000000E+00  0.00000000E+00  0.00000000E+00
  0.00000000E+00  0.00000000E+00  0.00000000E+00
  0.00000000E+00  0.00000000E+00  0.00000000E+00
  0.00000000E+00  0.00000000E+00  0.00000000E+00
  0.00000000E+00  0.00000000E+00  0.00000000E+00
  0.00000000E+00  0.00000000E+00  0.00000000E+00
  0.00000000E+00  0.00000000E+00  0.00000000E+00
  0.00000000E+00  0.00000000E+00  0.00000000E+00
  0.00000000E+00  0.00000000E+00  0.00000000E+00
  0.00000000E+00  0.00000000E+00  0.00000000E+00
  0.00000000E+00  0.00000000E+00  0.00000000E+00
  0.00000000E+00  0.00000000E+00  0.00000000E+00
  0.00000000E+00  0.00000000E+00  0.00000000E+00
  0.00000000E+00  0.00000000E+00  0.00000000E+00
  0.00000000E+00  0.00000000E+00  0.00000000E+00
  0.00000000E+00  0.00000000E+00  0.00000000E+00
  0.00000000E+00  0.00000000E+00  0.00000000E+00
  0.00000000E+00  0.00000000E+00  0.00000000E+00
  0.00000000E+00  0.00000000E+00  0.00000000E+00
  0.00000000E+00  0.00000000E+00  0.00000000E+00
  0.00000000E+00  0.00000000E+00  0.00000000E+00
  0.00000000E+00  0.00000000E+00  0.00000000E+00
  0.00000000E+00  0.00000000E+00  0.00000000E+00
  0.00000000E+00  0.00000000E+00  0.00000000E+00
  0.00000000E+00  0.00000000E+00  0.00000000E+00
  0.00000000E+00  0.00000000E+00  0.00000000E+00
  0.00000000E+00  0.00000000E+00  0.00000000E+00
  0.00000000E+00  0.00000000E+00  0.00000000E+00
  0.00000000E+00  0.00000000E+00  0.00000000E+00
  0.00000000E+00  0.00000000E+00  0.00000000E+00
  0.00000000E+00  0.00000000E+00  0.00000000E+00
  0.00000000E+00  0.00000000E+00  0.00000000E+00
  0.00000000E+00  0.00000000E+00  0.00000000E+00
  0.00000000E+00  0.00000000E+00  0.00000000E+00
  0.00000000E+00  0.00000000E+00  0.00000000E+00
  0.00000000E+00  0.00000000E+00  0.00000000E+00
  0.00000000E+00  0.00000000E+00  0.00000000E+00
  0.00000000E+00  0.00000000E+00  0.00000000E+00
  0.00000000E+00  0.00000000E+00  0.00000000E+00
  0.00000000E+00  0.00000000E+00  0.00000000E+00
  0.00000000E+00  0.00000000E+00  0.00000000E+00
  0.00000000E+00  0.00000000E+00  0.00000000E+00
  0.00000000E+00  0.00000000E+00  0.00000000E+00
  0.00000000E+00  0.00000000E+00  0.00000000E+00
  0.00000000E+00  0.00000000E+00  0.00000000E+00
  0.00000000E+00  0.00000000E+00  0.00000000E+00
  0.00000000E+00  0.00000000E+00  0.00000000E+00
  0.00000000E+00  0.00000000E+00  0.00000000E+00
  0.00000000E+00  0.00000000E+00  0.00000000E+00
  0.00000000E+00  0.00000000E+00  0.00000000E+00
  0.00000000E+00  0.00000000E+00  0.00000000E+00
  0.00000000E+00  0.00000000E+00  0.00000000E+00
  0.00000000E+00  0.00000000E+00  0.00000000E+00
  0.00000000E+00  0.00000000E+00  0.00000000E+00
  0.00000000E+00  0.00000000E+00  0.00000000E+00
  0.00000000E+00  0.00000000E+00  0.00000000E+00
  0.00000000E+00  0.00000000E+00  0.00000000E+00
  0.00000000E+00  0.00000000E+00  0.00000000E+00
  0.00000000E+00  0.00000000E+00  0.00000000E+00
  0.00000000E+00  0.00000000E+00  0.00000000E+00
  0.00000000E+00  0.00000000E+00  0.00000000E+00
  0.00000000E+00  0.00000000E+00  0.00000000E+00
