Mo  S Ru                                
   1.00000000000000     
    15.9214998300000001    0.0000000000000000    0.0000000000000000
    -7.9622501300000001   13.7910221699999997    0.0000000000000000
     0.0000000000000000    0.0000000000000000   13.5821998300000004
   Mo   S    Ru
    25    50     4
Direct
  0.1331617794010072  0.0662078914362212  0.6797766250753199
  0.1317784354814719  0.2655633431363142  0.6782096170349234
  0.1329497291034727  0.4662343349665079  0.6778484425896352
  0.1330203797355551  0.6662175575158997  0.6784109012304924
  0.1331026689560701  0.8661919330918408  0.6792682220618360
  0.3331008465601144  0.0661985724050709  0.6795866610391315
  0.3330472535109266  0.2659685509788616  0.6800384931844761
  0.3328108742512725  0.4666921788317921  0.6760543619037804
  0.3329393923579644  0.6664133558591843  0.6775013614112879
  0.3329962400875885  0.8661992343701144  0.6786166556572155
  0.5329898444777896  0.0658256307935048  0.6784472208228820
  0.5338996298618071  0.2655264023044026  0.6777063288117446
  0.5339771625968339  0.4667564652824154  0.6757931602223763
  0.5336989738422133  0.6674074070001126  0.6765300879271550
  0.5329541778772011  0.8661797923517298  0.6778459638622394
  0.7330180064799023  0.0659931114595338  0.6782689129463151
  0.7332221021011236  0.2660533795089322  0.6781908514574013
  0.7333312372290663  0.4662496904058315  0.6775744861548745
  0.7335017846510183  0.6664365601486182  0.6774161961055327
  0.7332412720467119  0.8661929148533432  0.6779059331448636
  0.9328938714226496  0.0658477252445806  0.6787267502900534
  0.9329092185982972  0.2660530073534204  0.6784044571917534
  0.9330764966267182  0.4661203561010794  0.6782191515319198
  0.9332072787074281  0.6662294348776285  0.6783674117413625
  0.9332277370651170  0.8662197493051664  0.6787243238120766
  0.0662496675457902  0.1320641124888766  0.5637773985952492
  0.0658140276814407  0.1328015128237396  0.7942067823769108
  0.0659822868542932  0.3326211369512819  0.5629501827700665
  0.0661552481715404  0.3330932297899949  0.7934101348361366
  0.0662777169772752  0.5329914947469447  0.5630766604903386
  0.0664364579596892  0.5327381364851433  0.7932851091347075
  0.0666597230447934  0.7332912576847335  0.5636137331786912
  0.0662292108557594  0.7324792298106644  0.7938685756724695
  0.0669261570341391  0.9332995344975785  0.5642445522837036
  0.0661477862920350  0.9325305828866490  0.7944434917862964
  0.2664216020113415  0.1329090508769468  0.5648619353810744
  0.2666140461019992  0.1330051310731690  0.7951734149453387
  0.2657754156796415  0.3315824710398161  0.5640469698687554
  0.2655265234354260  0.3337541272569808  0.7950314093934452
  0.2658118192592909  0.5332944072479862  0.5618765323892276
  0.2667864289239006  0.5329598613392506  0.7922631867950471
  0.2661278395600561  0.7332513775747103  0.5630404032695537
  0.2664511308359039  0.7326071433524035  0.7933079400755219
  0.2663135131899281  0.9332235997078016  0.5641351218420709
  0.2664800926651552  0.9325841045602346  0.7943334184355351
  0.4657834553894915  0.1319349481407173  0.5634073882480877
  0.4671308152955049  0.1328795783430223  0.7938546080081181
  0.4657811858220455  0.3316046326400155  0.5637622618729168
  0.4686914555363728  0.3337860114100835  0.7945325828597234
  0.4667341578812909  0.5336022732192447  0.5620627326990473
  0.4666403807238737  0.5331183729460207  0.7936408988201862
  0.4660681725803144  0.7334662960984986  0.5619996688584123
  0.4664579806616516  0.7327026477420162  0.7925384338597681
  0.4660813891440796  0.9328230988624355  0.5631596441742630
  0.4664844035368816  0.9325358800061707  0.7934557227198766
  0.6662889977791480  0.1325964938606461  0.5632277877161798
  0.6664768273029296  0.1326632546723872  0.7933627376774055
  0.6668431522988669  0.3326651907712659  0.5625763712463012
  0.6669295074451966  0.3330687017231000  0.7930530538600848
  0.6675761425720736  0.5334143337547772  0.5616443702453395
  0.6662069379313067  0.5329013631531723  0.7920598164794512
  0.6674026239699131  0.7335286436718675  0.5619958878208493
  0.6662457456610227  0.7326598548510290  0.7925257466898969
  0.6664843172754686  0.9329043751092314  0.5629133182816588
  0.6662369630532652  0.9325133627875744  0.7930371259157454
  0.8664885095482475  0.1326367867878417  0.5634095775988683
  0.8661220443545332  0.1326387261124822  0.7935457489703381
  0.8664723700510351  0.3327076434366774  0.5631813142246500
  0.8663653054226970  0.3328085336195770  0.7933793532216598
  0.8668735920247528  0.5330546826724074  0.5629614037666357
  0.8662201650529795  0.5327025145742397  0.7931705687615391
  0.8672044978911018  0.7333639376831940  0.5630343938645694
  0.8661248765916767  0.7325459456220926  0.7933051153109503
  0.8668401325364385  0.9329380281934405  0.5633260186338021
  0.8660138336073970  0.9324636102307622  0.7936176188710391
  0.3007292287992982  0.3621255401738495  0.9616022495097312
  0.4643727834936868  0.3628933327002457  0.9613078849562271
  0.4527478819560358  0.5045034615837309  0.9536174824616026
  0.3874549237611120  0.3712785007058201  0.1018051940664364
 
  0.00000000E+00  0.00000000E+00  0.00000000E+00
  0.00000000E+00  0.00000000E+00  0.00000000E+00
  0.00000000E+00  0.00000000E+00  0.00000000E+00
  0.00000000E+00  0.00000000E+00  0.00000000E+00
  0.00000000E+00  0.00000000E+00  0.00000000E+00
  0.00000000E+00  0.00000000E+00  0.00000000E+00
  0.00000000E+00  0.00000000E+00  0.00000000E+00
  0.00000000E+00  0.00000000E+00  0.00000000E+00
  0.00000000E+00  0.00000000E+00  0.00000000E+00
  0.00000000E+00  0.00000000E+00  0.00000000E+00
  0.00000000E+00  0.00000000E+00  0.00000000E+00
  0.00000000E+00  0.00000000E+00  0.00000000E+00
  0.00000000E+00  0.00000000E+00  0.00000000E+00
  0.00000000E+00  0.00000000E+00  0.00000000E+00
  0.00000000E+00  0.00000000E+00  0.00000000E+00
  0.00000000E+00  0.00000000E+00  0.00000000E+00
  0.00000000E+00  0.00000000E+00  0.00000000E+00
  0.00000000E+00  0.00000000E+00  0.00000000E+00
  0.00000000E+00  0.00000000E+00  0.00000000E+00
  0.00000000E+00  0.00000000E+00  0.00000000E+00
  0.00000000E+00  0.00000000E+00  0.00000000E+00
  0.00000000E+00  0.00000000E+00  0.00000000E+00
  0.00000000E+00  0.00000000E+00  0.00000000E+00
  0.00000000E+00  0.00000000E+00  0.00000000E+00
  0.00000000E+00  0.00000000E+00  0.00000000E+00
  0.00000000E+00  0.00000000E+00  0.00000000E+00
  0.00000000E+00  0.00000000E+00  0.00000000E+00
  0.00000000E+00  0.00000000E+00  0.00000000E+00
  0.00000000E+00  0.00000000E+00  0.00000000E+00
  0.00000000E+00  0.00000000E+00  0.00000000E+00
  0.00000000E+00  0.00000000E+00  0.00000000E+00
  0.00000000E+00  0.00000000E+00  0.00000000E+00
  0.00000000E+00  0.00000000E+00  0.00000000E+00
  0.00000000E+00  0.00000000E+00  0.00000000E+00
  0.00000000E+00  0.00000000E+00  0.00000000E+00
  0.00000000E+00  0.00000000E+00  0.00000000E+00
  0.00000000E+00  0.00000000E+00  0.00000000E+00
  0.00000000E+00  0.00000000E+00  0.00000000E+00
  0.00000000E+00  0.00000000E+00  0.00000000E+00
  0.00000000E+00  0.00000000E+00  0.00000000E+00
  0.00000000E+00  0.00000000E+00  0.00000000E+00
  0.00000000E+00  0.00000000E+00  0.00000000E+00
  0.00000000E+00  0.00000000E+00  0.00000000E+00
  0.00000000E+00  0.00000000E+00  0.00000000E+00
  0.00000000E+00  0.00000000E+00  0.00000000E+00
  0.00000000E+00  0.00000000E+00  0.00000000E+00
  0.00000000E+00  0.00000000E+00  0.00000000E+00
  0.00000000E+00  0.00000000E+00  0.00000000E+00
  0.00000000E+00  0.00000000E+00  0.00000000E+00
  0.00000000E+00  0.00000000E+00  0.00000000E+00
  0.00000000E+00  0.00000000E+00  0.00000000E+00
  0.00000000E+00  0.00000000E+00  0.00000000E+00
  0.00000000E+00  0.00000000E+00  0.00000000E+00
  0.00000000E+00  0.00000000E+00  0.00000000E+00
  0.00000000E+00  0.00000000E+00  0.00000000E+00
  0.00000000E+00  0.00000000E+00  0.00000000E+00
  0.00000000E+00  0.00000000E+00  0.00000000E+00
  0.00000000E+00  0.00000000E+00  0.00000000E+00
  0.00000000E+00  0.00000000E+00  0.00000000E+00
  0.00000000E+00  0.00000000E+00  0.00000000E+00
  0.00000000E+00  0.00000000E+00  0.00000000E+00
  0.00000000E+00  0.00000000E+00  0.00000000E+00
  0.00000000E+00  0.00000000E+00  0.00000000E+00
  0.00000000E+00  0.00000000E+00  0.00000000E+00
  0.00000000E+00  0.00000000E+00  0.00000000E+00
  0.00000000E+00  0.00000000E+00  0.00000000E+00
  0.00000000E+00  0.00000000E+00  0.00000000E+00
  0.00000000E+00  0.00000000E+00  0.00000000E+00
  0.00000000E+00  0.00000000E+00  0.00000000E+00
  0.00000000E+00  0.00000000E+00  0.00000000E+00
  0.00000000E+00  0.00000000E+00  0.00000000E+00
  0.00000000E+00  0.00000000E+00  0.00000000E+00
  0.00000000E+00  0.00000000E+00  0.00000000E+00
  0.00000000E+00  0.00000000E+00  0.00000000E+00
  0.00000000E+00  0.00000000E+00  0.00000000E+00
  0.00000000E+00  0.00000000E+00  0.00000000E+00
  0.00000000E+00  0.00000000E+00  0.00000000E+00
  0.00000000E+00  0.00000000E+00  0.00000000E+00
  0.00000000E+00  0.00000000E+00  0.00000000E+00
