Ta N Cu                                 
   1.00000000000000     
    18.1096308199999996    0.0000000000000000    0.0000000000000000
     0.0000000000000000   11.6775998899999998    0.0000000000000000
     0.0000000000000000    0.0000000000000000   23.4818170799999990
   Ta   N    Cu
   120   120     2
Direct
  0.0003740200900351 -0.0008871134893233  0.2541824962095476
  0.3343299127631366  0.1248310141205037  0.2642768471214615
  0.1676017010374877  0.1246721102674984  0.2633000926858624
  0.2510991078199247  0.2497203891302911  0.3612775456426165
  0.0835998885163792  0.1247304136561189  0.3678115564702061
  0.4188474753445259  0.1250525955434066  0.3685157483840287
  0.0012647113144253  0.2501334742529088  0.4796521408672796
  0.3333565594006512  0.1252188704301712  0.4782647772732924
  0.1688288463218102  0.1253938067139887  0.4777808505611645
  0.2518126205281233  0.2500972765242000  0.5907789852412084
  0.0842400104710825  0.1256618995172858  0.5895063763280648
  0.4176099259169029  0.1251105841118197  0.5904080001709666
  0.3354809853880121  0.1249447482383431  0.7036911372252436
  0.0001044631464074  0.2494642241953997  0.2542187690101227
  0.3341029011453782  0.3745894287794715  0.2644626124959160
  0.1673706745712306  0.3742490510038830  0.2635027282136447
  0.2510745613979894  0.5000476195553969  0.3613307620251899
  0.0834281115431456  0.3746749171962804  0.3677485755169741
  0.4187876733788174  0.3749800429280719  0.3687584474046925
  0.0012076883222340  0.5000882592028735  0.4797169358549707
  0.3342877024535661  0.3751294226839610  0.4786005409848262
  0.1687458338350158  0.3752379883402700  0.4779914231553153
  0.2515412536615645  0.5001891305046544  0.5908788303828653
  0.0844672751489886  0.3755040170161887  0.5897371371023680
  0.4179051953076820  0.3753478938306905  0.5907999180859462
  0.0024768184783058  0.5004070415689248  0.7017327230337149
  0.3358553897490770  0.3757338949490595  0.7037355063151418
  0.1664455821663310  0.3752077214855619  0.7036907569707590
  0.0001232409071275  0.4992114839662906  0.2542522312786945
  0.3342296932690171  0.6250136947512698  0.2644419617272569
  0.1674784665597481  0.6243251451774412  0.2633667090255610
  0.2513773993061988  0.7498249006078810  0.3612297254079097
  0.0834860491956669  0.6245072908889761  0.3677946462806149
  0.4187411317820030  0.6248950120782207  0.3685358466332888
  0.0006351866281632  0.7500659802443015  0.4797638981384175
  0.3333972460517228  0.6252082396777183  0.4783306026481866
  0.1687348814532046  0.6249373540001940  0.4778422471669227
  0.2498953947844368  0.7498892483824491  0.5906842161519370
  0.0842988835807577  0.6245694258613830  0.5896824624542736
  0.4172438229160734  0.6249006117141270  0.5905275468637010
  0.0016456260019267  0.7505711297343226  0.7009933578128040
  0.3350019253282422  0.6258074163533622  0.7038010191579157
  0.1654392625053777  0.6244596362652085  0.7040800649829456
  0.0002314614235608  0.7494339597579255  0.2542964523089659
  0.3343611984522983  0.8743606422172894  0.2642934207234777
  0.1676050084576123  0.8743030869418051  0.2635109043132565
  0.2513340689994929 -0.0000241424672250  0.3613136491406070
  0.0835899319284549  0.8744747585075179  0.3677969361068641
  0.4184745822453129  0.8751061671393027  0.3686810090175913
  0.0006406832668279  0.0000298974946099  0.4795935633049738
  0.3328285384792162  0.8751267227592554  0.4782064442585603
  0.1682504681210164  0.8753253140006002  0.4776954796430080
  0.2501010029036583  0.0004489700261796  0.5907869855159570
  0.0835518028295875  0.8754741975493563  0.5895151735526853
  0.4170014409428351  0.8751905322293613  0.5901521449406222
  0.0013587398679560  0.0003076055180204  0.7012286339893209
  0.3345585928486354  0.8756091177783960  0.7040328947626960
  0.1648396831773331  0.8752922894744587  0.7048147793151489
  0.5013137132425665 -0.0001380979988158  0.2547158629719892
  0.8344263908432565  0.1244474987576726  0.2639887024291125
  0.6668982097178299  0.1249689790552698  0.2642229532468003
  0.7503238244573814  0.2498071003261141  0.3625146548806049
  0.5838228642572086  0.1251770762415088  0.3690118594887649
  0.9183960197118289  0.1248755436090105  0.3683464184829233
  0.5020355022873626  0.2502718795252610  0.4806649737743895
  0.8324969066227870  0.1250723213121887  0.4781448640512835
  0.6677578470271776  0.1247807509552544  0.4799789982626351
  0.7500517846289468  0.2501948733168576  0.5916454051024082
  0.5843121719130138  0.1250241561826523  0.5920503289472600
  0.9169796449826932  0.1255530464626522  0.5889480406735403
  0.5012875621561103  0.2527969598356172  0.7064294219676857
  0.8374216455690350  0.1261959689058878  0.7042283841722776
  0.6676112939514007  0.1212320882011016  0.7063164395525086
  0.5015229478483143  0.2498885446890740  0.2547785709244375
  0.8343540617869273  0.3749049794935057  0.2642120723107061
  0.6672263453236192  0.3750808631157579  0.2643974799263480
  0.7503043674600404  0.5000715725698425  0.3624357947755131
  0.5836532575268840  0.3750796222928465  0.3691826027957221
  0.9183667885662139  0.3748183139317088  0.3684106164681658
  0.5017253586382756  0.4997814878453307  0.4804670865431825
  0.8326989282457178  0.3753359498455536  0.4780283560998681
  0.6680811420454383  0.3748466916890935  0.4797924133412176
  0.7505526102086080  0.4996547962328557  0.5917271930854999
  0.5845526866619530  0.3749251732803364  0.5927206905898317
  0.9165600135380965  0.3756536018347725  0.5892448542379890
  0.5007732988278638  0.4971062097045830  0.7056513304531817
  0.8375205103911779  0.3753828634682278  0.7039536484115874
  0.6687423724193503  0.3740301204879621  0.7055581248146741
  0.5013555017490195  0.4999688270580169  0.2550103403875120
  0.8342966213053730  0.6249128656396534  0.2639431807300441
  0.6670320882807699  0.6246841760394443  0.2643490151924989
  0.7503469646718531  0.7498114901802854  0.3621166517291766
  0.5837389617422671  0.6251752816353386  0.3692569836882655
  0.9183926245813200  0.6245865531141659  0.3684081549162701
  0.5011733120418875  0.7501956669675871  0.4806098831299555
  0.8326631359164643  0.6254563338195460  0.4781604905348331
  0.6676754588583290  0.6252063583552518  0.4797461327304776
  0.7510733311179391  0.7497693359977974  0.5916345590077249
  0.5845784098646171  0.6242817749205593  0.5917553690113581
  0.9169252108956814  0.6254838467006596  0.5892106979422326
  0.5013786658752666  0.7506466660469560  0.7035539094188278
  0.8381824727306761  0.6249013504817890  0.7049406759997454
  0.6681039441484576  0.6269107037663202  0.7057950851808941
  0.5014957997042924  0.7497062211083954  0.2549074560043839
  0.8342470640276133  0.8748734488250598  0.2639417225992673
  0.6670373769608148  0.8750509802048234  0.2641003570403413
  0.7504326673667915  0.0001477120068682  0.3620394794442983
  0.5838217883058241  0.8751409395540970  0.3691514221617394
  0.9185213486353556  0.8749508846959583  0.3682894286749728
  0.5013285647139787  0.0001778739771428  0.4805322159807351
  0.8324354934472491  0.8753686016691281  0.4782296231205445
  0.6676476684597433  0.8749449898109138  0.4796876281956792
  0.7504996688093394 -0.0001412927962824  0.5915340515599906
  0.5844980334550943  0.8749550224931023  0.5914448422957889
  0.9169920310055216  0.8756331007714018  0.5893199432726282
  0.5011692750238375 -0.0013935020229163  0.7032442106720397
  0.8388427900928169  0.8757898636320310  0.7046395502847095
  0.6657703881325614  0.8741054097446316  0.7057578419431005
  0.1655914548976877  0.1252903876994457  0.7040881694297901
  0.0020598177141835  0.2498726144965669  0.7012178587854248
  0.4078500529160480  0.0000211745275164  0.3014194167425544
  0.2510118387641985 -0.0003593588617138  0.2566279852615651
  0.0943198919701236 -0.0005528523030304  0.3005411766118511
  0.1556208786479910  0.2498931484292045  0.4095952787924274
  0.0014621352486232  0.2497583474842197  0.3928639441834432
  0.3466963773402590  0.2499855191252552  0.4099831404323047
  0.4029621565517597  0.2503919369969952  0.5223406316400857
  0.2515335726144159  0.2499137598883981  0.5027890323587172
  0.1006751718046030  0.2504736710639839  0.5217905414457394
  0.1534366286963610  0.2500692471247618  0.6329684536565082
  0.0006185094569418  0.2506807448825614  0.6124376800162622
  0.3499558586645177  0.2499491224694247  0.6337909711209823
  0.4003246966803190  0.2493752142664476  0.7425564264217103
  0.2502880791887954  0.2502268451579494  0.7236997749039926
  0.0988607087330246  0.2509054135419357  0.7406065786194247
  0.4080570384109781  0.2499103563691992  0.3014221735685680
  0.2509919208765173  0.2496317824901841  0.2562095727451576
  0.0940272964276940  0.2496571181177097  0.3004647027722168
  0.1555110691933880  0.4997965072415655  0.4096245266896896
  0.0013683609850622  0.4995931111458130  0.3931102432463666
  0.3465889433149194  0.5000294637393412  0.4100378635383125
  0.4027959248130991  0.5001235078131756  0.5223479718930190
  0.2512384196821091  0.5003716928513562  0.5027269438416205
  0.1005156357971285  0.4999025406255703  0.5217774906109742
  0.1530739628646312  0.5004261116232003  0.6329737783348363
  0.0007116695561762  0.5003622993050180  0.6124998946734151
  0.3496692599505433  0.5004218006380123  0.6337082540866558
  0.4001744823912292  0.5018659278818999  0.7424329745320820
  0.2500806810391812  0.5002297255869743  0.7235755200625130
  0.0984406220045259  0.4987777521065797  0.7407040026245546
  0.4077022983256420  0.4999200724699673  0.3017225961866000
  0.2508853186320132  0.4996004938556444  0.2567484477848334
  0.0939763727847780  0.4992007423843086  0.3005989781465362
  0.1554599399486237  0.7501448515833191  0.4095282833369288
  0.0013551985915083  0.7496430374196499  0.3930931405120680
  0.3466047271626431  0.7502615302644361  0.4101128097008026
  0.4018708019056249  0.7501121162329948  0.5221774191370977
  0.2506930163436127  0.7496217632083720  0.5027635201203917
  0.1000327274627772  0.7502785413026675  0.5215350806715335
  0.1517330381312881  0.7505060642282906  0.6334557682927768
  0.0007054537989943  0.7500524588015030  0.6122340008453639
  0.3480241027946426  0.7505956970562169  0.6329579235712827
  0.4035118328141852  0.7512273605415806  0.7400290820215123
  0.2497934569435453  0.7504981952043215  0.7242505270968632
  0.0976461127060158  0.7492947834610575  0.7414110016339809
  0.4079062640177045  0.7498274913452870  0.3014592342580344
  0.2508125349051571  0.7492642605851790  0.2557371153977435
  0.0942003561006772  0.7494032002867911  0.3005440060760515
  0.1556555229884588 -0.0001175814576335  0.4095109831000025
  0.0013619486724910 -0.0001113926180957  0.3930058694451057
  0.3467667025445518  0.0001868403632396  0.4100440630952140
  0.4020346871320818  0.0004583358987653  0.5222353040703281
  0.2508655535523154  0.0006208799887413  0.5027633266822632
  0.1000600479609839  0.0001560328443478  0.5215557558304297
  0.1521960641875334 -0.0001988925986461  0.6332740825489047
  0.0005507483704778  0.0009228379247961  0.6121271513393376
  0.3483592254852972  0.0000958213389212  0.6330000849108439
  0.4030530122204719 -0.0000359303227256  0.7403661068189571
  0.2499768473018328  0.0002237617549273  0.7241004896954292
  0.0975149275657095  0.0007918058009046  0.7409083207088000
  0.9078946463345602 -0.0002094440990207  0.3013113762344818
  0.7505591338423834 -0.0000130447613685  0.2574998305719872
  0.5939692467260035  0.0002957275062595  0.3017436566463261
  0.6552040586960058  0.2499837456744329  0.4112871384584976
  0.5014509950991654  0.2498773187449292  0.3938797149313337
  0.8467050883447684  0.2498017380812567  0.4099267516296581
  0.9016212805705691  0.2505239334071185  0.5211583188098389
  0.7502611042602546  0.2502501916558256  0.5033993946857942
  0.6001702366237398  0.2501530614549753  0.5242282804628905
  0.6523776053490081  0.2494796618950778  0.6361585189985831
  0.5009712527063287  0.2499593410326268  0.6166755668536568
  0.8488138416047692  0.2505438895807536  0.6328521574035582
  0.9058460110595568  0.2495231565672970  0.7388634182538724
  0.7521272907141060  0.2488359114052556  0.7261890400216741
  0.5997782815478472  0.2478634340067485  0.7453448819458598
  0.9076623583491231  0.2498124446572138  0.3013641146969725
  0.7506640738605028  0.2498048945761926  0.2583675792267090
  0.5939423763664303  0.2499577177453607  0.3020515338321719
  0.6551284708184885  0.5004566812191342  0.4112900168199952
  0.5011817872830299  0.5001620978083126  0.3939491933555558
  0.8466341584680005  0.4998980720892698  0.4099312397612438
  0.9014786959956966  0.5003767757915033  0.5214785246508165
  0.7502987163861851  0.5002656116965856  0.5033674929168059
  0.6001517846448350  0.4993962468042383  0.5241254616668251
  0.6529219345819393  0.4997526888426171  0.6358470402981371
  0.5009480050954658  0.4997075680344540  0.6162286199912633
  0.8493123117433211  0.5011021362478949  0.6332497047402533
  0.9061179935680712  0.5009116395844402  0.7396862324558581
  0.7522968390258670  0.5004650421998034  0.7265292869810728
  0.5988524850504596  0.4994524155952058  0.7450847344195733
  0.9077163589834434  0.4996993666692631  0.3014612576536256
  0.7508272085212705  0.4999396918570982  0.2577032095226023
  0.5938516483114608  0.4999179914864887  0.3021136298977298
  0.6549646943166877  0.7503086441536289  0.4109326322016892
  0.5010674336056161  0.7505018667948276  0.3938221266606412
  0.8465630870616655  0.7501274631358678  0.4099276042513460
  0.9010126655477305  0.7507404512337762  0.5215578307423595
  0.7502277925550880  0.7504392993707153  0.5036970106212757
  0.5995839580998114  0.7498446051076664  0.5236418906958809
  0.6530575168240247  0.7493984714966883  0.6344620327284622
  0.5004223183470276  0.7503286836182698  0.6146537029561970
  0.8496806268923445  0.7503736354973667  0.6333459324771079
  0.9057967343199110  0.7504341960646023  0.7400432483580663
  0.7519908186065790  0.7500206336957377  0.7245913389499671
  0.5985163688485610  0.7500410050148283  0.7417709625921969
  0.9077537315347746  0.7496478431745830  0.3013702385306559
  0.7505661085462477  0.7498207372724158  0.2581490270379848
  0.5942975951109144  0.7498055473195352  0.3018426586332170
  0.6548892415958577  0.0001013436055490  0.4109980630137751
  0.5011703619507970  0.0000210124790319  0.3938480051037502
  0.8465298019090938  0.0001423206889006  0.4098740137268987
  0.9009676726431717 -0.0000150608842814  0.5215215314319045
  0.7502257368304153  0.0002943961629490  0.5034603125611570
  0.5995822659673465  0.0000409730113102  0.5238201611688338
  0.6527814163822784 -0.0007036346678638  0.6344630528530568
  0.5004735881653286 -0.0007897339152782  0.6146876395730173
  0.8492452046614231  0.0006053000235809  0.6330085238473763
  0.9052855468854091  0.0020040312027803  0.7396323748317193
  0.7514074152415325 -0.0001618079000107  0.7249092164963689
  0.5981611596739110 -0.0027041313845946  0.7420582274116098
  0.5496364249638722  0.3737178028250414  0.7967778901681849
  0.3968705589725879  0.3602075900099890  0.8172471016278126
 
  0.00000000E+00  0.00000000E+00  0.00000000E+00
  0.00000000E+00  0.00000000E+00  0.00000000E+00
  0.00000000E+00  0.00000000E+00  0.00000000E+00
  0.00000000E+00  0.00000000E+00  0.00000000E+00
  0.00000000E+00  0.00000000E+00  0.00000000E+00
  0.00000000E+00  0.00000000E+00  0.00000000E+00
  0.00000000E+00  0.00000000E+00  0.00000000E+00
  0.00000000E+00  0.00000000E+00  0.00000000E+00
  0.00000000E+00  0.00000000E+00  0.00000000E+00
  0.00000000E+00  0.00000000E+00  0.00000000E+00
  0.00000000E+00  0.00000000E+00  0.00000000E+00
  0.00000000E+00  0.00000000E+00  0.00000000E+00
  0.00000000E+00  0.00000000E+00  0.00000000E+00
  0.00000000E+00  0.00000000E+00  0.00000000E+00
  0.00000000E+00  0.00000000E+00  0.00000000E+00
  0.00000000E+00  0.00000000E+00  0.00000000E+00
  0.00000000E+00  0.00000000E+00  0.00000000E+00
  0.00000000E+00  0.00000000E+00  0.00000000E+00
  0.00000000E+00  0.00000000E+00  0.00000000E+00
  0.00000000E+00  0.00000000E+00  0.00000000E+00
  0.00000000E+00  0.00000000E+00  0.00000000E+00
  0.00000000E+00  0.00000000E+00  0.00000000E+00
  0.00000000E+00  0.00000000E+00  0.00000000E+00
  0.00000000E+00  0.00000000E+00  0.00000000E+00
  0.00000000E+00  0.00000000E+00  0.00000000E+00
  0.00000000E+00  0.00000000E+00  0.00000000E+00
  0.00000000E+00  0.00000000E+00  0.00000000E+00
  0.00000000E+00  0.00000000E+00  0.00000000E+00
  0.00000000E+00  0.00000000E+00  0.00000000E+00
  0.00000000E+00  0.00000000E+00  0.00000000E+00
  0.00000000E+00  0.00000000E+00  0.00000000E+00
  0.00000000E+00  0.00000000E+00  0.00000000E+00
  0.00000000E+00  0.00000000E+00  0.00000000E+00
  0.00000000E+00  0.00000000E+00  0.00000000E+00
  0.00000000E+00  0.00000000E+00  0.00000000E+00
  0.00000000E+00  0.00000000E+00  0.00000000E+00
  0.00000000E+00  0.00000000E+00  0.00000000E+00
  0.00000000E+00  0.00000000E+00  0.00000000E+00
  0.00000000E+00  0.00000000E+00  0.00000000E+00
  0.00000000E+00  0.00000000E+00  0.00000000E+00
  0.00000000E+00  0.00000000E+00  0.00000000E+00
  0.00000000E+00  0.00000000E+00  0.00000000E+00
  0.00000000E+00  0.00000000E+00  0.00000000E+00
  0.00000000E+00  0.00000000E+00  0.00000000E+00
  0.00000000E+00  0.00000000E+00  0.00000000E+00
  0.00000000E+00  0.00000000E+00  0.00000000E+00
  0.00000000E+00  0.00000000E+00  0.00000000E+00
  0.00000000E+00  0.00000000E+00  0.00000000E+00
  0.00000000E+00  0.00000000E+00  0.00000000E+00
  0.00000000E+00  0.00000000E+00  0.00000000E+00
  0.00000000E+00  0.00000000E+00  0.00000000E+00
  0.00000000E+00  0.00000000E+00  0.00000000E+00
  0.00000000E+00  0.00000000E+00  0.00000000E+00
  0.00000000E+00  0.00000000E+00  0.00000000E+00
  0.00000000E+00  0.00000000E+00  0.00000000E+00
  0.00000000E+00  0.00000000E+00  0.00000000E+00
  0.00000000E+00  0.00000000E+00  0.00000000E+00
  0.00000000E+00  0.00000000E+00  0.00000000E+00
  0.00000000E+00  0.00000000E+00  0.00000000E+00
  0.00000000E+00  0.00000000E+00  0.00000000E+00
  0.00000000E+00  0.00000000E+00  0.00000000E+00
  0.00000000E+00  0.00000000E+00  0.00000000E+00
  0.00000000E+00  0.00000000E+00  0.00000000E+00
  0.00000000E+00  0.00000000E+00  0.00000000E+00
  0.00000000E+00  0.00000000E+00  0.00000000E+00
  0.00000000E+00  0.00000000E+00  0.00000000E+00
  0.00000000E+00  0.00000000E+00  0.00000000E+00
  0.00000000E+00  0.00000000E+00  0.00000000E+00
  0.00000000E+00  0.00000000E+00  0.00000000E+00
  0.00000000E+00  0.00000000E+00  0.00000000E+00
  0.00000000E+00  0.00000000E+00  0.00000000E+00
  0.00000000E+00  0.00000000E+00  0.00000000E+00
  0.00000000E+00  0.00000000E+00  0.00000000E+00
  0.00000000E+00  0.00000000E+00  0.00000000E+00
  0.00000000E+00  0.00000000E+00  0.00000000E+00
  0.00000000E+00  0.00000000E+00  0.00000000E+00
  0.00000000E+00  0.00000000E+00  0.00000000E+00
  0.00000000E+00  0.00000000E+00  0.00000000E+00
  0.00000000E+00  0.00000000E+00  0.00000000E+00
  0.00000000E+00  0.00000000E+00  0.00000000E+00
  0.00000000E+00  0.00000000E+00  0.00000000E+00
  0.00000000E+00  0.00000000E+00  0.00000000E+00
  0.00000000E+00  0.00000000E+00  0.00000000E+00
  0.00000000E+00  0.00000000E+00  0.00000000E+00
  0.00000000E+00  0.00000000E+00  0.00000000E+00
  0.00000000E+00  0.00000000E+00  0.00000000E+00
  0.00000000E+00  0.00000000E+00  0.00000000E+00
  0.00000000E+00  0.00000000E+00  0.00000000E+00
  0.00000000E+00  0.00000000E+00  0.00000000E+00
  0.00000000E+00  0.00000000E+00  0.00000000E+00
  0.00000000E+00  0.00000000E+00  0.00000000E+00
  0.00000000E+00  0.00000000E+00  0.00000000E+00
  0.00000000E+00  0.00000000E+00  0.00000000E+00
  0.00000000E+00  0.00000000E+00  0.00000000E+00
  0.00000000E+00  0.00000000E+00  0.00000000E+00
  0.00000000E+00  0.00000000E+00  0.00000000E+00
  0.00000000E+00  0.00000000E+00  0.00000000E+00
  0.00000000E+00  0.00000000E+00  0.00000000E+00
  0.00000000E+00  0.00000000E+00  0.00000000E+00
  0.00000000E+00  0.00000000E+00  0.00000000E+00
  0.00000000E+00  0.00000000E+00  0.00000000E+00
  0.00000000E+00  0.00000000E+00  0.00000000E+00
  0.00000000E+00  0.00000000E+00  0.00000000E+00
  0.00000000E+00  0.00000000E+00  0.00000000E+00
  0.00000000E+00  0.00000000E+00  0.00000000E+00
  0.00000000E+00  0.00000000E+00  0.00000000E+00
  0.00000000E+00  0.00000000E+00  0.00000000E+00
  0.00000000E+00  0.00000000E+00  0.00000000E+00
  0.00000000E+00  0.00000000E+00  0.00000000E+00
  0.00000000E+00  0.00000000E+00  0.00000000E+00
  0.00000000E+00  0.00000000E+00  0.00000000E+00
  0.00000000E+00  0.00000000E+00  0.00000000E+00
  0.00000000E+00  0.00000000E+00  0.00000000E+00
  0.00000000E+00  0.00000000E+00  0.00000000E+00
  0.00000000E+00  0.00000000E+00  0.00000000E+00
  0.00000000E+00  0.00000000E+00  0.00000000E+00
  0.00000000E+00  0.00000000E+00  0.00000000E+00
  0.00000000E+00  0.00000000E+00  0.00000000E+00
  0.00000000E+00  0.00000000E+00  0.00000000E+00
  0.00000000E+00  0.00000000E+00  0.00000000E+00
  0.00000000E+00  0.00000000E+00  0.00000000E+00
  0.00000000E+00  0.00000000E+00  0.00000000E+00
  0.00000000E+00  0.00000000E+00  0.00000000E+00
  0.00000000E+00  0.00000000E+00  0.00000000E+00
  0.00000000E+00  0.00000000E+00  0.00000000E+00
  0.00000000E+00  0.00000000E+00  0.00000000E+00
  0.00000000E+00  0.00000000E+00  0.00000000E+00
  0.00000000E+00  0.00000000E+00  0.00000000E+00
  0.00000000E+00  0.00000000E+00  0.00000000E+00
  0.00000000E+00  0.00000000E+00  0.00000000E+00
  0.00000000E+00  0.00000000E+00  0.00000000E+00
  0.00000000E+00  0.00000000E+00  0.00000000E+00
  0.00000000E+00  0.00000000E+00  0.00000000E+00
  0.00000000E+00  0.00000000E+00  0.00000000E+00
  0.00000000E+00  0.00000000E+00  0.00000000E+00
  0.00000000E+00  0.00000000E+00  0.00000000E+00
  0.00000000E+00  0.00000000E+00  0.00000000E+00
  0.00000000E+00  0.00000000E+00  0.00000000E+00
  0.00000000E+00  0.00000000E+00  0.00000000E+00
  0.00000000E+00  0.00000000E+00  0.00000000E+00
  0.00000000E+00  0.00000000E+00  0.00000000E+00
  0.00000000E+00  0.00000000E+00  0.00000000E+00
  0.00000000E+00  0.00000000E+00  0.00000000E+00
  0.00000000E+00  0.00000000E+00  0.00000000E+00
  0.00000000E+00  0.00000000E+00  0.00000000E+00
  0.00000000E+00  0.00000000E+00  0.00000000E+00
  0.00000000E+00  0.00000000E+00  0.00000000E+00
  0.00000000E+00  0.00000000E+00  0.00000000E+00
  0.00000000E+00  0.00000000E+00  0.00000000E+00
  0.00000000E+00  0.00000000E+00  0.00000000E+00
  0.00000000E+00  0.00000000E+00  0.00000000E+00
  0.00000000E+00  0.00000000E+00  0.00000000E+00
  0.00000000E+00  0.00000000E+00  0.00000000E+00
  0.00000000E+00  0.00000000E+00  0.00000000E+00
  0.00000000E+00  0.00000000E+00  0.00000000E+00
  0.00000000E+00  0.00000000E+00  0.00000000E+00
  0.00000000E+00  0.00000000E+00  0.00000000E+00
  0.00000000E+00  0.00000000E+00  0.00000000E+00
  0.00000000E+00  0.00000000E+00  0.00000000E+00
  0.00000000E+00  0.00000000E+00  0.00000000E+00
  0.00000000E+00  0.00000000E+00  0.00000000E+00
  0.00000000E+00  0.00000000E+00  0.00000000E+00
  0.00000000E+00  0.00000000E+00  0.00000000E+00
  0.00000000E+00  0.00000000E+00  0.00000000E+00
  0.00000000E+00  0.00000000E+00  0.00000000E+00
  0.00000000E+00  0.00000000E+00  0.00000000E+00
  0.00000000E+00  0.00000000E+00  0.00000000E+00
  0.00000000E+00  0.00000000E+00  0.00000000E+00
  0.00000000E+00  0.00000000E+00  0.00000000E+00
  0.00000000E+00  0.00000000E+00  0.00000000E+00
  0.00000000E+00  0.00000000E+00  0.00000000E+00
  0.00000000E+00  0.00000000E+00  0.00000000E+00
  0.00000000E+00  0.00000000E+00  0.00000000E+00
  0.00000000E+00  0.00000000E+00  0.00000000E+00
  0.00000000E+00  0.00000000E+00  0.00000000E+00
  0.00000000E+00  0.00000000E+00  0.00000000E+00
  0.00000000E+00  0.00000000E+00  0.00000000E+00
  0.00000000E+00  0.00000000E+00  0.00000000E+00
  0.00000000E+00  0.00000000E+00  0.00000000E+00
  0.00000000E+00  0.00000000E+00  0.00000000E+00
  0.00000000E+00  0.00000000E+00  0.00000000E+00
  0.00000000E+00  0.00000000E+00  0.00000000E+00
  0.00000000E+00  0.00000000E+00  0.00000000E+00
  0.00000000E+00  0.00000000E+00  0.00000000E+00
  0.00000000E+00  0.00000000E+00  0.00000000E+00
  0.00000000E+00  0.00000000E+00  0.00000000E+00
  0.00000000E+00  0.00000000E+00  0.00000000E+00
  0.00000000E+00  0.00000000E+00  0.00000000E+00
  0.00000000E+00  0.00000000E+00  0.00000000E+00
  0.00000000E+00  0.00000000E+00  0.00000000E+00
  0.00000000E+00  0.00000000E+00  0.00000000E+00
  0.00000000E+00  0.00000000E+00  0.00000000E+00
  0.00000000E+00  0.00000000E+00  0.00000000E+00
  0.00000000E+00  0.00000000E+00  0.00000000E+00
  0.00000000E+00  0.00000000E+00  0.00000000E+00
  0.00000000E+00  0.00000000E+00  0.00000000E+00
  0.00000000E+00  0.00000000E+00  0.00000000E+00
  0.00000000E+00  0.00000000E+00  0.00000000E+00
  0.00000000E+00  0.00000000E+00  0.00000000E+00
  0.00000000E+00  0.00000000E+00  0.00000000E+00
  0.00000000E+00  0.00000000E+00  0.00000000E+00
  0.00000000E+00  0.00000000E+00  0.00000000E+00
  0.00000000E+00  0.00000000E+00  0.00000000E+00
  0.00000000E+00  0.00000000E+00  0.00000000E+00
  0.00000000E+00  0.00000000E+00  0.00000000E+00
  0.00000000E+00  0.00000000E+00  0.00000000E+00
  0.00000000E+00  0.00000000E+00  0.00000000E+00
  0.00000000E+00  0.00000000E+00  0.00000000E+00
  0.00000000E+00  0.00000000E+00  0.00000000E+00
  0.00000000E+00  0.00000000E+00  0.00000000E+00
  0.00000000E+00  0.00000000E+00  0.00000000E+00
  0.00000000E+00  0.00000000E+00  0.00000000E+00
  0.00000000E+00  0.00000000E+00  0.00000000E+00
  0.00000000E+00  0.00000000E+00  0.00000000E+00
  0.00000000E+00  0.00000000E+00  0.00000000E+00
  0.00000000E+00  0.00000000E+00  0.00000000E+00
  0.00000000E+00  0.00000000E+00  0.00000000E+00
  0.00000000E+00  0.00000000E+00  0.00000000E+00
  0.00000000E+00  0.00000000E+00  0.00000000E+00
  0.00000000E+00  0.00000000E+00  0.00000000E+00
  0.00000000E+00  0.00000000E+00  0.00000000E+00
  0.00000000E+00  0.00000000E+00  0.00000000E+00
  0.00000000E+00  0.00000000E+00  0.00000000E+00
  0.00000000E+00  0.00000000E+00  0.00000000E+00
  0.00000000E+00  0.00000000E+00  0.00000000E+00
  0.00000000E+00  0.00000000E+00  0.00000000E+00
  0.00000000E+00  0.00000000E+00  0.00000000E+00
  0.00000000E+00  0.00000000E+00  0.00000000E+00
  0.00000000E+00  0.00000000E+00  0.00000000E+00
  0.00000000E+00  0.00000000E+00  0.00000000E+00
  0.00000000E+00  0.00000000E+00  0.00000000E+00
  0.00000000E+00  0.00000000E+00  0.00000000E+00
  0.00000000E+00  0.00000000E+00  0.00000000E+00
  0.00000000E+00  0.00000000E+00  0.00000000E+00
  0.00000000E+00  0.00000000E+00  0.00000000E+00
  0.00000000E+00  0.00000000E+00  0.00000000E+00
  0.00000000E+00  0.00000000E+00  0.00000000E+00
  0.00000000E+00  0.00000000E+00  0.00000000E+00
  0.00000000E+00  0.00000000E+00  0.00000000E+00
  0.00000000E+00  0.00000000E+00  0.00000000E+00
  0.00000000E+00  0.00000000E+00  0.00000000E+00
  0.00000000E+00  0.00000000E+00  0.00000000E+00
