Ru Cu                                   
   1.00000000000000     
    10.8623999999999992    0.0000000000000000    0.0000000000000000
    -5.4311999999999969    9.4071143460680844    0.0000000000000000
     0.0000000000000000    0.0000000000000000   22.7112499999999962
   Ru   Cu
    96     1
Selective dynamics
Direct
  0.0836841932307143  0.1673692114431508  0.3585398472252945   T   T   T
  0.1666358145081617  0.0833979264009201  0.2676644753292123   F   F   F
  0.0832237527397092  0.1663583359630238  0.5478401326239303   T   T   T
  0.1667260341490736  0.0830981985122022  0.4521289862028521   T   T   T
  0.0829400230974497  0.1655658893135627  0.7321951028496667   T   T   T
  0.1664444868021393  0.0828766691543303  0.6415545032477448   T   T   T
  0.0832214522274146  0.4165478782567111  0.3582377883745719   T   T   T
  0.1667031392829585  0.3333776373899511  0.2677394092042817   F   F   F
  0.0831899508254586  0.4167542538798739  0.5478149988167964   T   T   T
  0.1666656850026573  0.3333406807045614  0.4530233569046962   T   T   T
  0.0790816887269635  0.4124592112210277  0.7322960592611686   T   T   T
  0.1664848110206395  0.3326620929009199  0.6423075474901779   T   T   T
  0.0830923766490281  0.6665386134061232  0.3582598594627853   T   T   T
  0.1667293456634127  0.5833916269891617  0.2676757558983169   F   F   F
  0.0829102121306698  0.6654457577115276  0.5478372643429149   T   T   T
  0.1670936885565491  0.5835237805854728  0.4522499128542015   T   T   T
  0.0787284581534098  0.6626517570934624  0.7327915689640918   T   T   T
  0.1678846777360569  0.5833218074183593  0.6414819774117083   T   T   T
  0.0834114454198958  0.9162887463900559  0.3582204072283610   T   T   T
  0.1667518225516673  0.8332631114686748  0.2677740629361054   F   F   F
  0.0832762705250038  0.9161094077016975  0.5480152212367695   T   T   T
  0.1668881018388386  0.8334059620791975  0.4529641744491431   T   T   T
  0.0860335673796526  0.9160035147032377  0.7324930698212762   T   T   T
  0.1654558896857802  0.8312728299593740  0.6416539249541172   T   T   T
  0.3333127214435453  0.1666416438583997  0.3582777466468591   T   T   T
  0.4167503753270339  0.0833554569700681  0.2676224156204441   F   F   F
  0.3333422357400194  0.1665653889564817  0.5476929991670555   T   T   T
  0.4163268135930204  0.0829520556213966  0.4522549952547614   T   T   T
  0.3317284384063136  0.1667316274305991  0.7322204272500359   T   T   T
  0.4163556179317693  0.0837867534916130  0.6414793468598194   T   T   T
  0.3333299168731836  0.4165898535958701  0.3582386975899167   T   T   T
  0.4166464156278522  0.3334437369237264  0.2676732130068444   F   F   F
  0.3337361940247720  0.4167286087245862  0.5477837558402258   T   T   T
  0.4166041665293020  0.3332488975222823  0.4521958427713663   T   T   T
  0.3335891315312869  0.4124151983330006  0.7322944147833367   T   T   T
  0.4166371080682643  0.3325952389575160  0.6421670542180390   T   T   T
  0.3333773895521313  0.6666941442348180  0.3587843327806350   T   T   T
  0.4166478905039455  0.5833614909237781  0.2676715167359589   F   F   F
  0.3331348048678666  0.6661395234893910  0.5487966418803089   T   T   T
  0.4165326074703189  0.5835789399128410  0.4522581445142037   T   T   T
  0.4303194868374239  0.8606470375209494  0.8084043527721444   T   T   T
  0.4155998719654422  0.5832578216900449  0.6414858143978158   T   T   T
  0.3331816560164272  0.9165496169871753  0.3582437957210542   T   T   T
  0.4166686105423167  0.8332813872918123  0.2676763286012260   F   F   F
  0.3332074904537017  0.9164660298613315  0.5488311225255995   T   T   T
  0.4166793773842606  0.8333362419460284  0.4521674438190423   T   T   T
  0.3266002185201412  0.9244982474757862  0.7346405981409947   T   T   T
  0.4162632536537382  0.8322081584818934  0.6411396324012175   T   T   T
  0.5833488876944588  0.1667339572716068  0.3582731023991421   T   T   T
  0.6666685279983682  0.0834615106744323  0.2676840865095613   F   F   F
  0.5830016984981858  0.1658846063336646  0.5474310584133970   T   T   T
  0.6667377481377768  0.0830036243955763  0.4522735044508145   T   T   T
  0.5830926827698466  0.1659684151868609  0.7330402721037855   T   T   T
  0.6675989485988689  0.0837653108522620  0.6414988490310281   T   T   T
  0.5834219870711230  0.4166872032650398  0.3582912262823154   T   T   T
  0.6667091651732093  0.3332802201850100  0.2677577551380921   F   F   F
  0.5833553194859309  0.4165549215156737  0.5479760204038062   T   T   T
  0.6667437845102187  0.3334118280494185  0.4522839165698094   T   T   T
  0.5825035350151245  0.4158070002447224  0.7323617651332578   T   T   T
  0.6661154318337855  0.3320527610219548  0.6421151400625504   T   T   T
  0.5834912657828903  0.6665822298735159  0.3582758094223549   T   T   T
  0.6665913099295295  0.5833940092649357  0.2676743283627090   F   F   F
  0.5827050720837614  0.6654163670784105  0.5478630762865038   T   T   T
  0.6668393224577178  0.5833567850075793  0.4522435814244927   T   T   T
  0.5842371976486566  0.6626877524790579  0.7327194010427839   T   T   T
  0.6672001242974587  0.5826435576385341  0.6425361813998514   T   T   T
  0.5833439401347875  0.9165208106105798  0.3582555478600557   T   T   T
  0.6666418884481615  0.8333020368453390  0.2677426149237192   F   F   F
  0.5834874777707345  0.9165279030465178  0.5488158415566137   T   T   T
  0.6665919439073938  0.8333571549776887  0.4529900111719979   T   T   T
  0.5980140753786761  0.9244524716019988  0.7346523566748541   T   T   T
  0.6661050156010366  0.8313618943422710  0.6416379164439135   T   T   T
  0.8333211928781745  0.1666607973042424  0.3582905928476747   T   T   T
  0.9166745872578019  0.0833290493893770  0.2676438539119417   F   F   F
  0.8332839295832792  0.1665091564580867  0.5477226673466469   T   T   T
  0.9164522686721696  0.0831131655920666  0.4521503459453466   T   T   T
  0.8354807151448013  0.1665430225516934  0.7322405746878976   T   T   T
  0.9166545291971400  0.0828383471013133  0.6416021985517574   T   T   T
  0.8332823802439312  0.4166688818324470  0.3582791071808195   T   T   T
  0.9165280246814973  0.3333266332886140  0.2676606181559364   F   F   F
  0.8334456288762433  0.4165564284165882  0.5480247620801678   T   T   T
  0.9166830045803572  0.3332385631104590  0.4521890133488767   T   T   T
  0.8333879667988930  0.4158249544335509  0.7323692569821753   T   T   T
  0.9161630126832865  0.3324618384543687  0.6422215510433159   T   T   T
  0.8333710141940454  0.6666443590335972  0.3582202775306058   T   T   T
  0.9166391005677639  0.5832394299122186  0.2676330540142047   F   F   F
  0.8330145062373180  0.6658458893459205  0.5476810967445005   T   T   T
  0.9165912164255016  0.5833186415346140  0.4522349159367764   T   T   T
  0.8339717505392023  0.6675615887744648  0.7323406290401347   T   T   T
  0.9157824898650894  0.5826445304083521  0.6425767926316264   T   T   T
  0.8328823720535242  0.9162793610082286  0.3582219526399062   T   T   T
  0.9166598043544880  0.8333663986297140  0.2676681513624075   F   F   F
  0.8331069624292669  0.9161179588882525  0.5480063109024940   T   T   T
  0.9166093308288632  0.8331369165289796  0.4521658587512248   T   T   T
  0.8301849599825968  0.9159776363287201  0.7325042204832705   T   T   T
  0.9169634344684449  0.8336928416319990  0.6422387301726716   T   T   T
  0.3281933150798165  0.6561000170961416  0.7378664992649729   T   T   T
 
  0.00000000E+00  0.00000000E+00  0.00000000E+00
  0.00000000E+00  0.00000000E+00  0.00000000E+00
  0.00000000E+00  0.00000000E+00  0.00000000E+00
  0.00000000E+00  0.00000000E+00  0.00000000E+00
  0.00000000E+00  0.00000000E+00  0.00000000E+00
  0.00000000E+00  0.00000000E+00  0.00000000E+00
  0.00000000E+00  0.00000000E+00  0.00000000E+00
  0.00000000E+00  0.00000000E+00  0.00000000E+00
  0.00000000E+00  0.00000000E+00  0.00000000E+00
  0.00000000E+00  0.00000000E+00  0.00000000E+00
  0.00000000E+00  0.00000000E+00  0.00000000E+00
  0.00000000E+00  0.00000000E+00  0.00000000E+00
  0.00000000E+00  0.00000000E+00  0.00000000E+00
  0.00000000E+00  0.00000000E+00  0.00000000E+00
  0.00000000E+00  0.00000000E+00  0.00000000E+00
  0.00000000E+00  0.00000000E+00  0.00000000E+00
  0.00000000E+00  0.00000000E+00  0.00000000E+00
  0.00000000E+00  0.00000000E+00  0.00000000E+00
  0.00000000E+00  0.00000000E+00  0.00000000E+00
  0.00000000E+00  0.00000000E+00  0.00000000E+00
  0.00000000E+00  0.00000000E+00  0.00000000E+00
  0.00000000E+00  0.00000000E+00  0.00000000E+00
  0.00000000E+00  0.00000000E+00  0.00000000E+00
  0.00000000E+00  0.00000000E+00  0.00000000E+00
  0.00000000E+00  0.00000000E+00  0.00000000E+00
  0.00000000E+00  0.00000000E+00  0.00000000E+00
  0.00000000E+00  0.00000000E+00  0.00000000E+00
  0.00000000E+00  0.00000000E+00  0.00000000E+00
  0.00000000E+00  0.00000000E+00  0.00000000E+00
  0.00000000E+00  0.00000000E+00  0.00000000E+00
  0.00000000E+00  0.00000000E+00  0.00000000E+00
  0.00000000E+00  0.00000000E+00  0.00000000E+00
  0.00000000E+00  0.00000000E+00  0.00000000E+00
  0.00000000E+00  0.00000000E+00  0.00000000E+00
  0.00000000E+00  0.00000000E+00  0.00000000E+00
  0.00000000E+00  0.00000000E+00  0.00000000E+00
  0.00000000E+00  0.00000000E+00  0.00000000E+00
  0.00000000E+00  0.00000000E+00  0.00000000E+00
  0.00000000E+00  0.00000000E+00  0.00000000E+00
  0.00000000E+00  0.00000000E+00  0.00000000E+00
  0.00000000E+00  0.00000000E+00  0.00000000E+00
  0.00000000E+00  0.00000000E+00  0.00000000E+00
  0.00000000E+00  0.00000000E+00  0.00000000E+00
  0.00000000E+00  0.00000000E+00  0.00000000E+00
  0.00000000E+00  0.00000000E+00  0.00000000E+00
  0.00000000E+00  0.00000000E+00  0.00000000E+00
  0.00000000E+00  0.00000000E+00  0.00000000E+00
  0.00000000E+00  0.00000000E+00  0.00000000E+00
  0.00000000E+00  0.00000000E+00  0.00000000E+00
  0.00000000E+00  0.00000000E+00  0.00000000E+00
  0.00000000E+00  0.00000000E+00  0.00000000E+00
  0.00000000E+00  0.00000000E+00  0.00000000E+00
  0.00000000E+00  0.00000000E+00  0.00000000E+00
  0.00000000E+00  0.00000000E+00  0.00000000E+00
  0.00000000E+00  0.00000000E+00  0.00000000E+00
  0.00000000E+00  0.00000000E+00  0.00000000E+00
  0.00000000E+00  0.00000000E+00  0.00000000E+00
  0.00000000E+00  0.00000000E+00  0.00000000E+00
  0.00000000E+00  0.00000000E+00  0.00000000E+00
  0.00000000E+00  0.00000000E+00  0.00000000E+00
  0.00000000E+00  0.00000000E+00  0.00000000E+00
  0.00000000E+00  0.00000000E+00  0.00000000E+00
  0.00000000E+00  0.00000000E+00  0.00000000E+00
  0.00000000E+00  0.00000000E+00  0.00000000E+00
  0.00000000E+00  0.00000000E+00  0.00000000E+00
  0.00000000E+00  0.00000000E+00  0.00000000E+00
  0.00000000E+00  0.00000000E+00  0.00000000E+00
  0.00000000E+00  0.00000000E+00  0.00000000E+00
  0.00000000E+00  0.00000000E+00  0.00000000E+00
  0.00000000E+00  0.00000000E+00  0.00000000E+00
  0.00000000E+00  0.00000000E+00  0.00000000E+00
  0.00000000E+00  0.00000000E+00  0.00000000E+00
  0.00000000E+00  0.00000000E+00  0.00000000E+00
  0.00000000E+00  0.00000000E+00  0.00000000E+00
  0.00000000E+00  0.00000000E+00  0.00000000E+00
  0.00000000E+00  0.00000000E+00  0.00000000E+00
  0.00000000E+00  0.00000000E+00  0.00000000E+00
  0.00000000E+00  0.00000000E+00  0.00000000E+00
  0.00000000E+00  0.00000000E+00  0.00000000E+00
  0.00000000E+00  0.00000000E+00  0.00000000E+00
  0.00000000E+00  0.00000000E+00  0.00000000E+00
  0.00000000E+00  0.00000000E+00  0.00000000E+00
  0.00000000E+00  0.00000000E+00  0.00000000E+00
  0.00000000E+00  0.00000000E+00  0.00000000E+00
  0.00000000E+00  0.00000000E+00  0.00000000E+00
  0.00000000E+00  0.00000000E+00  0.00000000E+00
  0.00000000E+00  0.00000000E+00  0.00000000E+00
  0.00000000E+00  0.00000000E+00  0.00000000E+00
  0.00000000E+00  0.00000000E+00  0.00000000E+00
  0.00000000E+00  0.00000000E+00  0.00000000E+00
  0.00000000E+00  0.00000000E+00  0.00000000E+00
  0.00000000E+00  0.00000000E+00  0.00000000E+00
  0.00000000E+00  0.00000000E+00  0.00000000E+00
  0.00000000E+00  0.00000000E+00  0.00000000E+00
  0.00000000E+00  0.00000000E+00  0.00000000E+00
  0.00000000E+00  0.00000000E+00  0.00000000E+00
  0.00000000E+00  0.00000000E+00  0.00000000E+00
