Ta  N  W Cu                             
   1.00000000000000     
    18.1096308199999996    0.0000000000000000    0.0000000000000000
     0.0000000000000000   23.3551997799999995    0.0000000000000000
     0.0000000000000000    0.0000000000000000   30.4818171199999988
   Ta   N    W    Cu
   216   240    24     4
Direct
  0.0000766847515123  0.9997440604312402  0.1971170819286527
  0.3282082154117347  0.0661493134720814  0.2034624073990017
  0.1687489768419610  0.0644107304899677  0.2017471763727272
  0.2514968734884633  0.1246561548726675  0.2816168325943593
  0.0830317834483481  0.0620883935794652  0.2840846086530746
  0.4173967634056197  0.0620109987925446  0.2840279523524032
  0.0001721497027631  0.1245750395118748  0.3697158063807962
  0.3333337630090867  0.0620921334382274  0.3693551586133026
  0.1672518729263714  0.0621615727357749  0.3691329860926302
  0.2499986189925778  0.1249414268475491  0.4559579147500372
  0.0835472671966428  0.0622126307102135  0.4553111789262232
  0.4164150450723696  0.0622487473991669  0.4550984105261051
  0.3365044819080794  0.0621203816208151  0.5421752903399835
  0.1661743157300819  0.0624137136337453  0.5424998734374000
  0.9997503907915402  0.1245588900970773  0.1959083743172769
  0.3281152190790664  0.1829426699102115  0.2031920794411874
  0.1686953083963587  0.1846612527142355  0.2015747319100285
  0.2504032114813839  0.2495376652650947  0.2807998716421309
  0.0832012573610825  0.1871875881689959  0.2838482091944670
  0.4175917610747391  0.1872737773788344  0.2838292219182819
  0.0001912875462367  0.2498113776310618  0.3694707334164917
  0.3333101134039254  0.1871088163947974  0.3691300042215317
  0.1672370886560088  0.1870606054858044  0.3689010995313211
  0.2502237594097565  0.2498964658140181  0.4553226356996376
  0.0840162662620187  0.1874325441603020  0.4547697786863552
  0.4168229253600444  0.1873555128013109  0.4551918188541109
  0.3339255105150869  0.1869875333098179  0.5420496258303587
  0.1634365080668871  0.1883499649286122  0.5419748734391447
  0.9999387177295276  0.2494802722574860  0.1968969561095335
  0.3280888184181876  0.3161426263498157  0.2030358235222636
  0.1687113714530355  0.3142436102994211  0.2012984705169387
  0.2516630901764145  0.3746667042292557  0.2810586238740740
  0.0830607529462384  0.3119723115567723  0.2835526642751134
  0.4173733236643642  0.3119204357105900  0.2835927301298113
  0.0002166718031091  0.3745492183597534  0.3690521335557264
  0.3335023878272736  0.3120280757875165  0.3688763871461163
  0.1672877908633623  0.3120805637910067  0.3684893747217117
  0.2502534402020302  0.3747716330870503  0.4544711440040388
  0.0835664231175102  0.3122375911769879  0.4542577391303269
  0.4160403008169737  0.3123723151752316  0.4548650547732365
  0.3350575479861320  0.3115302672377140  0.5415851932204419
  0.9996332760691686  0.3746194351888192  0.1955476749280578
  0.3279510401812686  0.4330217110187959  0.2028939861856287
  0.1686028328805023  0.4347556821381602  0.2011749229491286
  0.2503616698163285  0.9996973274957384  0.2811914172710246
  0.0832170553836775  0.4372231320398967  0.2833741395835716
  0.4175554820753078  0.4373222478979883  0.2833689845709415
  0.0002696286365094  0.9997830684961144  0.3699061848791345
  0.3334749522749050  0.4371576831875146  0.3685330541953959
  0.1671085019577987  0.4370896539406033  0.3681296873346298
  0.2500634693039601  0.9996874668557680  0.4560659255100816
  0.0838627223124746  0.4372441957003943  0.4540229717331314
  0.4162045339434641  0.4372215244718873  0.4546944215306965
  0.3295647195882196  0.4366704098635452  0.5399097679164910
  0.9999215153429404  0.4996756599938408  0.1965569411459853
  0.3280454563588862  0.5663879008026811  0.2028733238563873
  0.1686572071747747  0.5646004382023690  0.2011556517575457
  0.2516900785234313  0.6247626314099719  0.2810374791605241
  0.0831129040776020  0.5621793278300586  0.2833930493846637
  0.4173993347037381  0.5620827422173846  0.2833951712508309
  0.0002538720866099  0.6245740943335889  0.3690616975809675
  0.3336283984215029  0.5621944937290735  0.3686071174682297
  0.1672697394049223  0.5622539532922559  0.3682441122131763
  0.2505696447132095  0.6245341511415958  0.4546798360307278
  0.0834048375340188  0.5620530754240392  0.4538628461981276
  0.4160331517763467  0.5620860531238634  0.4547544082549422
  0.3320744053414160  0.5623838676346082  0.5400156778679346
  0.9997206710857967  0.6247074621672652  0.1955494959586659
  0.3279851941195986  0.6833159061547178  0.2030292302593182
  0.1686836986906144  0.6851186656175940  0.2013717474692598
  0.2504094818493527  0.7498450361109974  0.2808670360115073
  0.0833087844838118  0.6874217655825205  0.2836191810651840
  0.4175417012192142  0.6875029183013552  0.2835473569974596
  0.0002831817901026  0.7497262081923708  0.3694750299951650
  0.3335232094131158  0.6872852266284113  0.3689035031384549
  0.1672733139665183  0.6872300415818415  0.3685485075294395
  0.2505045186796764  0.7493981951795590  0.4554179345861442
  0.0840578998225112  0.6869047822809122  0.4543783788773155
  0.4168308673184242  0.6870036253503002  0.4551617982692022
  0.3331985434904610  0.6875830711112698  0.5423188022784231
  0.0001000661563140  0.7498493118813130  0.1968659236550465
  0.3281842721470198  0.8164706580802701  0.2032415694064156
  0.1687769895548783  0.8147234291297423  0.2015294658166553
  0.2515826523368503  0.8747693070003137  0.2816129058789798
  0.0831380768463035  0.8122393811650852  0.2838518815296638
  0.4173584599229869  0.8121307291991613  0.2838569106740749
  0.0002646232224919  0.8745140925011441  0.3697578367404049
  0.3334506570281803  0.8121806391715083  0.3692040330494279
  0.1673862730487770  0.8122369965216620  0.3689439643129617
  0.2501829715971269  0.8743753164239223  0.4559848973575313
  0.0834682091169867  0.8120323040299766  0.4550037684422037
  0.4163832207621212  0.8119539686407720  0.4550386811031473
  0.3367804359308053  0.8125300333981684  0.5418268420663566
  0.1661450446612491  0.8110489505842295  0.5421776924969990
  0.9998187723153080  0.8748270187562781  0.1959030966869975
  0.3281686137857633  0.9332167043555231  0.2033598047613978
  0.1687294522335492  0.9349316261951586  0.2017724358099358
  0.2504747385498902  0.4996779163517360  0.2803986309675821
  0.0832570702449473  0.9373302970982635  0.2840318115869422
  0.4175723017492032  0.9374059838080768  0.2840688139193972
  0.0002485890427479  0.4997367392012961  0.3689303852568244
  0.3333791390377669  0.9372080634239239  0.3694170137742105
  0.1673248160672074  0.9371628773062213  0.3691130310204258
  0.2499145136331222  0.4997117509229980  0.4539348672777450
  0.0841959310728768  0.9370310528111432  0.4549540985047997
  0.4170773780098784  0.9371169179868133  0.4554903412465094
  0.3336674110573483  0.9371691437138807  0.5424632967242644
  0.1634017766981444  0.9367937268306008  0.5422302021740322
  0.4999159168583489  0.9996676515745548  0.1971874889822942
  0.8280925948995872  0.0662255567819869  0.2033489098852428
  0.6685087268163841  0.0644766885419372  0.2018564020641733
  0.7514427791347629  0.1246762717879335  0.2816154166411735
  0.5831328119858910  0.0621151398994471  0.2841261998578020
  0.9175792994234939  0.0620076252574435  0.2839487989089875
  0.5002650402748898  0.1248743661327723  0.3698426359422271
  0.8332823973860428  0.0620909896469257  0.3692713899787918
  0.6672758761437763  0.0621578669003497  0.3691362064718149
  0.7500334625029126  0.1248503308832483  0.4559435690718772
  0.5841938863866858  0.0622359409383151  0.4550267055254693
  0.9169497750608002  0.0621789950486544  0.4553454303008877
  0.8336095894763034  0.0620716170280673  0.5424162939052195
  0.6634238344649717  0.0622249992099100  0.5423267903429760
  0.4996489570299687  0.1246045980373935  0.1959884579498734
  0.8281051713648253  0.1830052469378174  0.2032440670986304
  0.6686174768372695  0.1847983317870359  0.2016529930915141
  0.7502830430668510  0.2496016822684766  0.2808413705073889
  0.5829665170805853  0.1872364441111785  0.2839555430475542
  0.9173793785278761  0.1872992490130443  0.2837405322693698
  0.5002409851301763  0.2496898006340160  0.3696265553277129
  0.8333402346397136  0.1870852530401450  0.3690331335727990
  0.6672904215976985  0.1871004613545040  0.3689868585286789
  0.7502997578107298  0.2497781132598149  0.4552954143685497
  0.5834396608153014  0.1872531857450213  0.4550661283856741
  0.9161655008918999  0.1872803913485299  0.4548370186731603
  0.8368054739847537  0.1869001441951355  0.5416818057196835
  0.6660366607388610  0.1879180761705896  0.5422754988734724
  0.4999299336734921  0.2495160710519144  0.1969657055144722
  0.8279280283175083  0.3161742863989900  0.2030145772566314
  0.6684042572272872  0.3143647059285826  0.2014978696137391
  0.7515443782006272  0.3746836090546992  0.2812431622766098
  0.5831184013377495  0.3120211390224341  0.2838005728707742
  0.9176046358230039  0.3119238017946984  0.2834657850689482
  0.5002559718592252  0.3747836285570898  0.3693211735326472
  0.8333436213738210  0.3119758693258774  0.3687706777072890
  0.6672203703434860  0.3120793581616184  0.3686552329774528
  0.7504320657264358  0.3747658156077236  0.4547610025276470
  0.5840567975845445  0.3123853275838755  0.4546694149935817
  0.9164546614972693  0.3122086480279123  0.4547311667114045
  0.8343545718813417  0.3123293216393961  0.5416320758978515
  0.4995955069793609  0.3746314992493893  0.1956545822938622
  0.8279810970587675  0.4330636822993483  0.2029415523298397
  0.6685204649960923  0.4348147409070080  0.2013868251475657
  0.7502687853005412  0.9997108376964547  0.2810962612153745
  0.5829135667688092  0.4372254257857051  0.2836029790909507
  0.9174643913279397  0.4373345418455443  0.2833418252891491
  0.5003113483746944  0.9995847956690298  0.3700038849011946
  0.8335730447137450  0.4371113069887187  0.3684794688448889
  0.6674493734221087  0.4370499959080618  0.3683667382815017
  0.7500195119707271  0.9996580829391277  0.4560077354621939
  0.5840246815586383  0.4372775693678790  0.4542492330023862
  0.9157737782955380  0.4371553326901321  0.4542643416898429
  0.8380262589204648  0.4372537792195885  0.5407960078796563
  0.4998690587066790  0.4996646846314192  0.1966909582216587
  0.8278627122147242  0.5663573507155064  0.2028672776858187
  0.6684746342793062  0.5645368641178266  0.2013536660710571
  0.7515546799542818  0.6246980750438382  0.2810979373779929
  0.5830480963695877  0.5621337901414378  0.2835808994165845
  0.9177019257853729  0.5620731273268262  0.2832995048044609
  0.5001562218716558  0.6247656824172125  0.3692676425435693
  0.8333842159525418  0.5621549761201834  0.3684583687412655
  0.6672382472177958  0.5621930538661815  0.3682887641699537
  0.7509970454212436  0.6245693211497141  0.4544073875189412
  0.5843377787608759  0.5620832060854326  0.4541565400242860
  0.9163822996361191  0.5620940130472718  0.4543111962894102
  0.8350073208199618  0.5621611850898844  0.5410194625406604
  0.4995850092928649  0.6247169200674847  0.1956404942692416
  0.8280419393474645  0.6832828460373435  0.2030349141643981
  0.6686619059778209  0.6849909428098400  0.2014634032648814
  0.7503161590545631  0.7497720535815873  0.2808462247036019
  0.5829561427352559  0.6873886152844051  0.2836677233838003
  0.9174856736332799  0.6874690857842296  0.2834586853455932
  0.5001691305340756  0.7494686040815353  0.3696431231635628
  0.8334827918328926  0.6872937717625334  0.3686208260220809
  0.6673270086302807  0.6872178478469806  0.3684916355101038
  0.7503163478208918  0.7494438109852624  0.4551954255780117
  0.5836175097760332  0.6870822542117025  0.4543869450604063
  0.9161041596235009  0.6870293372865817  0.4544019167378082
  0.8366369155633251  0.6870631602759190  0.5412050337233012
  0.4998665271185629  0.7498106221630678  0.1969619927058801
  0.8279731508425741  0.8164389233526634  0.2032613353989134
  0.6684914297814331  0.8146790607276557  0.2017169195680211
  0.7514803360194406  0.8747776447453859  0.2816286806714103
  0.5830937125889903  0.8121892237330925  0.2839421810646527
  0.9177178870480702  0.8121345678080658  0.2836986998790181
  0.5002392273338998  0.8747451591990796  0.3698443178381723
  0.8333287113286829  0.8122082950864282  0.3689911985703205
  0.6671946793364185  0.8122274213773224  0.3689408866593595
  0.7500147892284090  0.8743903499632140  0.4558750825070206
  0.5840172320460439  0.8118628137069166  0.4548704138354864
  0.9168267708911770  0.8119993865101165  0.4550223531052637
  0.8339676423536417  0.8121792822640828  0.5419187846648512
  0.6637395066382865  0.8110967815847800  0.5419605361459290
  0.4996032525945751  0.8748958264646447  0.1959866797450260
  0.8280636136245860  0.9332142577669700  0.2035025384461520
  0.6685249597207914  0.9349563140771693  0.2017942468011853
  0.7503656909318011  0.4996102356415335  0.2805521921454854
  0.5829518248910190  0.9373143634309073  0.2841501133559632
  0.9175007519042211  0.9373988965846323  0.2839272842744975
  0.5002697471964694  0.4995768178818736  0.3691908216576962
  0.8333298149371018  0.9372103102466554  0.3692398342153922
  0.6672510400539906  0.9371497937451991  0.3691552971531706
  0.7508911247362988  0.4997725708603795  0.4542562374321548
  0.5836530060707403  0.9370852235387375  0.4554183438217052
  0.9162993176419434  0.9370783262471321  0.4549903427202295
  0.8366118084720213  0.9370623890619996  0.5420927577727355
  0.6663045454621894  0.9368087203114825  0.5425270612677764
  0.4048009936189914  0.9996846056605051  0.2318992454246569
  0.2491474549530466  0.9996813529580209  0.2108554210100593
  0.0941139421439914  0.9997234537441813  0.2322571822608523
  0.1532537300485970  0.1246091819706123  0.3167412754663275
  0.0003682024848146  0.1247454706278575  0.3026100624292241
  0.3477996482387340  0.1246592889034375  0.3172549085146912
  0.4019308791718146  0.1247855734674630  0.4031750545360921
  0.2502221571565002  0.1246514914816785  0.3881174570712389
  0.0985618202910885  0.1246866509443620  0.4029991953118000
  0.1517249998980574  0.1250702285390162  0.4885644092738133
  0.0001488843624315  0.1251482923402065  0.4745241326375123
  0.3483043007029849  0.1250506144389405  0.4885063714564666
  0.4060419846754399  0.1260002918105272  0.5697881228188564
  0.2499138545718154  0.1260799497942173  0.5586825828415911
  0.0944565378983739  0.1255531289181278  0.5700983284213876
  0.4061766783989285  0.1245990225661231  0.2325953170962620
  0.2473388498477220  0.1244783337157713  0.1775307534118866
  0.0947346624350089  0.1245509196506589  0.2321473532145149
  0.1533697750168344  0.2495824719118076  0.3163253457112916
  0.0002683690447256  0.2495727488194390  0.3025448318174710
  0.3473424005906054  0.2495538706498053  0.3166637776233046
  0.4017977834609141  0.2497204911732993  0.4029545424791436
  0.2502156276511656  0.2496046946933390  0.3876701224538053
  0.0987605031149243  0.2497502759061021  0.4026214405164552
  0.1521722376682177  0.2508426899693816  0.4879961777624402
  0.0002115424627789  0.2502189545617455  0.4744519969883711
  0.3480624623155606  0.2497070162099320  0.4883476185798372
  0.4055084430031641  0.2505011902001684  0.5698305566909596
  0.2485499483693019  0.2532036267331321  0.5581779610715003
  0.0969059072906262  0.2541189816928124  0.5695541065566303
  0.4047482349449822  0.2495546900102497  0.2315574664811066
  0.2491291027635256  0.2495080031430135  0.2104354352512132
  0.0940874831288596  0.2494765102352474  0.2318939819018908
  0.1532702436142444  0.3745268500340870  0.3160632723449552
  0.0004289171897796  0.3746826625950632  0.3020674983833018
  0.3479032780413007  0.3746121941873994  0.3167067650302329
  0.4018872645045164  0.3748235107708098  0.4027114109848426
  0.2502887410458356  0.3746722302268992  0.3870671379523287
  0.0986394471883969  0.3746996362446566  0.4022704134231816
  0.1525627657313890  0.3748553833434372  0.4872381368186254
  0.0002326661661840  0.3749202458562237  0.4735675036392024
  0.3477202845086182  0.3747543772340194  0.4881825808675373
  0.4042832055979062  0.3772291237938319  0.5705801613247914
  0.2460443633163649  0.3759096756702078  0.5579528261960149
  0.0977253444656796  0.3755161225932540  0.5685793004319066
  0.4061613277047726  0.3745875721705971  0.2321475905274824
  0.2471474088946692  0.3744716723248800  0.1772295117110332
  0.0947947358832479  0.3745095623066987  0.2316341925003229
  0.1534002422734559  0.9997096032661972  0.3167633949649797
  0.0003063958177378  0.9996404352460999  0.3029177207019771
  0.3472922477790661  0.9996564847125455  0.3170556834241154
  0.4018991577993631  0.9996470195823264  0.4032848287868589
  0.2502171592338200  0.9996707057927097  0.3882306443474377
  0.0987724393014204  0.9996911548950536  0.4031056804594257
  0.1518130090066094  0.9998115685760354  0.4886812434434518
  0.0002151759590987  0.9994248947579578  0.4746983930940800
  0.3484013474835237  0.9995253052867810  0.4886318322480605
  0.4057201901358169  0.9992158531122541  0.5701821322370506
  0.2499646586627406  0.9996828566081817  0.5587412906774532
  0.0943022916520988  0.0001370854830114  0.5701563167088253
  0.4047262145027730  0.4997071801476309  0.2312293353608652
  0.2490302701774212  0.4997012122238544  0.2100647804035916
  0.0940873684954369  0.4997207943473470  0.2315438234467848
  0.1533942313717773  0.6247533021182434  0.3161202481473850
  0.0004648133742222  0.6248124546936040  0.3020687035968947
  0.3479070272104892  0.6248342673400984  0.3167469201592823
  0.4019034081365263  0.6246333522922001  0.4028584666541022
  0.2504003960262295  0.6247519144724194  0.3872206295518836
  0.0986972455201283  0.6246240309841440  0.4022847918701018
  0.1527584962089463  0.6239204107147032  0.4872757984308507
  0.0002807678751964  0.6242599297167288  0.4737183423188185
  0.3481580776467084  0.6250039172628732  0.4885039016280501
  0.4048629896287750  0.6232161863622707  0.5712974854867667
  0.2465126592563678  0.6228488094039264  0.5579960315802950
  0.0978730373476964  0.6231018820044767  0.5686130202239070
  0.4061395660284859  0.6248268810914368  0.2321392767145340
  0.2472071033544552  0.6248847187864541  0.1772849503655465
  0.0948031789526596  0.6248309643218306  0.2316724505846040
  0.1534281289468424  0.7498436541387576  0.3163794021403916
  0.0003744630558273  0.7497213686484088  0.3025385726559264
  0.3473660851422551  0.7497480920099306  0.3167201328752043
  0.4018595420901789  0.7494636792781719  0.4030598599958637
  0.2503074984450038  0.7496492790158911  0.3877726018692371
  0.0988196584788383  0.7496032825723162  0.4027020907174332
  0.1524009065782792  0.7488002103736449  0.4880181603119240
  0.0001843404853616  0.7489893009412327  0.4740332569626489
  0.3482879619076016  0.7490762964808582  0.4885477629470785
  0.4061371563506952  0.7481193239197310  0.5697559126094305
  0.2485521041664143  0.7459841347223488  0.5584634172105964
  0.0961124333661729  0.7460547976261296  0.5692041672480173
  0.4046918946592157  0.7498766885103123  0.2315615263611335
  0.2490977325809354  0.7498965611809112  0.2105289604464460
  0.0941425810797440  0.7499244867980295  0.2319268222601920
  0.1534043938338101  0.8747080918358279  0.3167478662987548
  0.0005063259142517  0.8747913288790201  0.3026377344757449
  0.3478516715537552  0.8747596817022725  0.3172996778718868
  0.4019732363991153  0.8746227753930143  0.4032609372165368
  0.2503024273205696  0.8746316177328239  0.3881454843376630
  0.0986860087072543  0.8745447300826612  0.4029789453631452
  0.1518422243209727  0.8738708976426253  0.4885253081369640
  0.0002229529602360  0.8743203038756917  0.4745964293609433
  0.3484005970456607  0.8747310147677254  0.4885974602959706
  0.4057662853197073  0.8745200216167177  0.5700718002711440
  0.2499945493417997  0.8731470430231312  0.5586144129603383
  0.0948417927614145  0.8727264296952768  0.5701374574551181
  0.4061447161873417  0.8748445481832690  0.2326298552758743
  0.2473242681821262  0.8748849588358212  0.1774319501401038
  0.0948074007553217  0.8748256091763054  0.2321377045244972
  0.1533587851522356  0.4997348845596647  0.3158493601793992
  0.0003182984324184  0.4996280645048472  0.3021175022614599
  0.3473604819151745  0.4996867599004204  0.3162605891288877
  0.4018047641155533  0.4996420915867361  0.4025191160661805
  0.2502215549947095  0.4996416613736017  0.3867269897822894
  0.0987516626737275  0.4996495594390709  0.4021139960288949
  0.1523737059372081  0.4999419246517576  0.4870054555927084
  0.0001946045323251  0.4997040943361881  0.4734255560570588
  0.3470639062526715  0.4994351871225078  0.4874655926678813
  0.4007093010907070  0.4981391240517681  0.5684381078943517
  0.2454825313695466  0.4997711920165244  0.5573929550830101
  0.0979607693904896  0.5001804428505849  0.5685535384457268
  0.9048864600586768  0.9997170776064195  0.2317813983390593
  0.7490068162680927  0.9997210537362591  0.2106651382227511
  0.5939286829498513  0.9997093369592278  0.2323421986892740
  0.6532445690810817  0.1247062988496097  0.3167953334851887
  0.5003594943023799  0.1246450527349836  0.3027346637688169
  0.8478274284415619  0.1245959576587765  0.3171629203269291
  0.9018552804921072  0.1246666245276060  0.4030838877693910
  0.7502236805082134  0.1246639520505681  0.3880818937560946
  0.5986731939662135  0.1247667933033441  0.4030694171294442
  0.6517708340759398  0.1253128273891164  0.4885862333763811
  0.5002195951340482  0.1250751572821756  0.4747770640198965
  0.8482320350930905  0.1245012394440508  0.4884701784801777
  0.9058236638135213  0.1246716544366109  0.5698930510904319
  0.7498825491655339  0.1260663706085197  0.5586423209380342
  0.5946403747000062  0.1265598133093846  0.5702438521214788
  0.9062455239253353  0.1245994367842513  0.2324940411286534
  0.7470943948629056  0.1245794806960916  0.1777042199743875
  0.5946120587243655  0.1246648331539646  0.2322269314902385
  0.6532790027259523  0.2495748230834494  0.3164528550765411
  0.5002067678917186  0.2496979864233992  0.3026998695767062
  0.8473114811373605  0.2496211580393037  0.3165801799250758
  0.9017550499659066  0.2497046794913871  0.4028020032585999
  0.7501858050091812  0.2496114901515867  0.3876912287966974
  0.5987765909235634  0.2497763336148680  0.4028851866359489
  0.6523438648709572  0.2501076276894878  0.4880441515885607
  0.5001750318396887  0.2503982988713886  0.4742159222998126
  0.8481077397684942  0.2500062194945656  0.4882548937288647
  0.9061728470477490  0.2506328512140996  0.5693522085603533
  0.7484586028581930  0.2531866879004880  0.5583865381451574
  0.5963417279802883  0.2533306225816574  0.5693588478446614
  0.9047068500028672  0.2495867994847600  0.2314506603654891
  0.7490107873819980  0.2496183325828056  0.2104795188046538
  0.5939593210732141  0.2495682214324404  0.2320674550325208
  0.6531818479100053  0.3746407042653530  0.3163069632025639
  0.5002768803601754  0.3746095659309177  0.3023080870525803
  0.8480001735239426  0.3744990538810313  0.3166533442576167
  0.9018420352280359  0.3744914328062876  0.4024871489488149
  0.7502927430665878  0.3745827088665550  0.3872669703200984
  0.5987385358406527  0.3747764156323257  0.4026088690718552
  0.6528016964524639  0.3751631778968445  0.4879297008398922
  0.5002783269440698  0.3752389099947635  0.4741558596817299
  0.8481223386426038  0.3744330886220908  0.4878753276058205
  0.9060909632456884  0.3747003179564175  0.5693072861269641
  0.7480792431245789  0.3765186894398553  0.5579257762218504
  0.5998049721138798  0.3753793059100516  0.5699950265232445
  0.9062093980230301  0.3745928454465144  0.2320655635310942
  0.7469998338979735  0.3745623207506625  0.1775324674521102
  0.5945593719363700  0.3746107523216438  0.2318689204450735
  0.6533649894298748  0.9996571817480913  0.3167763997368667
  0.5002408139652985  0.9997913789298067  0.3030234815631800
  0.8472559139594580  0.9997045636982378  0.3169130943353267
  0.9018127762675547  0.9996995311917516  0.4031575289530167
  0.7502022205026080  0.9996473814671205  0.3881676413403667
  0.5988107951350159  0.9996143674327485  0.4031892151844403
  0.6518587525993453  0.9995029630427510  0.4887450886853983
  0.5002933387376700  0.9998767960909234  0.4748167684932625
  0.8483293831673251  0.9998243947334160  0.4885608257676850
  0.9057174615570389  0.0001056377933892  0.5701158965334656
  0.7499415892075589  0.9996194510783241  0.5587494530950892
  0.5943931199308707  0.9990748623448695  0.5702536485330185
  0.9047766334010063  0.4997098263432207  0.2311253193573322
  0.7489709460914682  0.4996598985518190  0.2102609055430165
  0.5939355821780410  0.4996613081352237  0.2317724019899856
  0.6531882690877566  0.6247345066926897  0.3161869386715921
  0.5002871301266367  0.6247170089494389  0.3022543014587882
  0.8479723191780337  0.6247101139386615  0.3165578704547372
  0.9018734727656152  0.6245811725097212  0.4024122572849009
  0.7503176776377103  0.6247419564692507  0.3870006162464747
  0.5986947650180241  0.6246049530916764  0.4024338218061985
  0.6532668633893977  0.6247745976350529  0.4871421856262899
  0.5005978593087690  0.6241520111755818  0.4739962357598984
  0.8482475988698752  0.6243755749875533  0.4878046381890897
  0.9062843320156304  0.6240460069880953  0.5690002960080349
  0.7480242479683241  0.6231952207379550  0.5577508504269986
  0.5999907614306039  0.6240695825762259  0.5684822475047824
  0.9062154245921548  0.6247576371195436  0.2320106930151127
  0.7470429368285991  0.6248192867470266  0.1773795013469552
  0.5946447723325861  0.6247613342430540  0.2317939765987092
  0.6532799347528382  0.7497611397777248  0.3163771281690515
  0.5001943852104418  0.7497877668423243  0.3026835684080353
  0.8474271654158727  0.7498440616535902  0.3165114195612162
  0.9017751082715009  0.7497043797576595  0.4026915486073293
  0.7502027675321017  0.7497097467798213  0.3875628257264410
  0.5987624361076911  0.7494884927643355  0.4027215264284933
  0.6522842578527985  0.7485072291614117  0.4879545300328161
  0.5003301224466767  0.7489348922541410  0.4748365691810434
  0.8481352748035889  0.7496666684084303  0.4880858760713025
  0.9058663454939975  0.7495263195173081  0.5694529607470571
  0.7486735618241127  0.7462555253739751  0.5581188648508970
  0.5969567350626050  0.7449828447232107  0.5693986530901114
  0.9048581628068533  0.7498517942133205  0.2314094162987672
  0.7490121636570990  0.7498148288092352  0.2105258584454788
  0.5939255666080641  0.7498377465567927  0.2320037185628081
  0.6532088469059758  0.8747475583313005  0.3167789018130307
  0.5003240872829480  0.8746556448575120  0.3027388275452481
  0.8479133432623698  0.8747099140468109  0.3171500845473005
  0.9018958846401617  0.8745630348772195  0.4030449498127311
  0.7502253341538747  0.8746310968028155  0.3880459735395334
  0.5986101798737522  0.8746349960849003  0.4030895497278237
  0.6518272191447991  0.8741925630126417  0.4886014943104797
  0.5002921654012624  0.8740847085349941  0.4747127372517284
  0.8482934858141462  0.8742446366338683  0.4884245667094191
  0.9061523691662927  0.8734066509053946  0.5696619573339063
  0.7499455230979848  0.8732624116975387  0.5586503617133829
  0.5945701571037603  0.8736132261778380  0.5701854648510221
  0.9062914106803106  0.8748041259518189  0.2324778828314464
  0.7470475983484022  0.8748767604861882  0.1776933704609576
  0.5945346479949194  0.8748109111939186  0.2322449117120087
  0.6532616067203207  0.4996097747232113  0.3160359452903450
  0.5001269906342856  0.4997311961564250  0.3023575217922669
  0.8474560861213405  0.4997097746155106  0.3161520765644283
  0.9017957285579925  0.4997144035771584  0.4022800003104834
  0.7502852932230226  0.4995981033997907  0.3868914098796736
  0.5989019508956446  0.4995863505502811  0.4023481624953078
  0.6534150141109478  0.4996749672473015  0.4872832189776162
  0.5005946952880436  0.4996698717506334  0.4733074896076346
  0.8482646760912687  0.4999998860579780  0.4876257391844163
  0.9062992590220063  0.5001379991026056  0.5690093431358179
  0.7485963386927210  0.4993897496935489  0.5574496917508114
  0.6023321627900060  0.5004360258525864  0.5691185847061675
  0.0000868908425034  0.1182482361715032  0.5414370153410175
  0.0004653347470196  0.2588132847816880  0.5411186112943724
  0.0003065409038996  0.3693390856895675  0.5402621450221119
  0.1648509140443508  0.3131299756411323  0.5399490335116965
  0.9999982199770940  0.0069060249932207  0.5415667069195536
  0.1616113655222620  0.4375922771022687  0.5393416155443873
  0.0004516005631885  0.6170136594522617  0.5403108520236017
  0.1642431328854173  0.5617945035287022  0.5393783789500119
  0.0001628816382038  0.7544401034467612  0.5408708291696627
  0.1626150032950164  0.6858884057955521  0.5398363407024149
  0.0004061727603144  0.8662589013339144  0.5413690318514597
  0.0003449305668397  0.5062155353586917  0.5400176463461719
  0.5004356755611923  0.1333083116169007  0.5415533019702394
  0.5000333030654929  0.2457321380141693  0.5410366236643327
  0.5000097384974040  0.3828312209322888  0.5406448992832935
  0.6647166851377762  0.3121039720486607  0.5397430458913703
  0.5000624958177937  0.9922756719172341  0.5416888870779744
  0.6689235992640405  0.4377096516204446  0.5393084614827686
  0.5018109085596905  0.6280058232518826  0.5406744155112975
  0.6659611502933487  0.5627985976507333  0.5389368950061737
  0.5004118733224701  0.7402402667898969  0.5415296708053461
  0.6660347278018364  0.6866637749019873  0.5398459487374723
  0.5002097958157705  0.8809850321125481  0.5416221769772136
  0.5022143906101988  0.4945908455837795  0.5394244355863549
  0.5510746482346605  0.4981272658250049  0.6263736886198288
  0.4408725166955563  0.4419148779262159  0.6145023378667318
  0.4449521517299999  0.5597299230700372  0.6081857713870136
  0.5570337453641869  0.3951576257355356  0.6256323579756895
 
  0.00000000E+00  0.00000000E+00  0.00000000E+00
  0.00000000E+00  0.00000000E+00  0.00000000E+00
  0.00000000E+00  0.00000000E+00  0.00000000E+00