generated by phonopy                    
   1.00000000000000     
     7.5823954761619587    0.0000000000000000    0.0000000000000000
    -3.7911977380809794    6.5665471038964638   -0.0000000000000000
     0.0000000000000000    0.0000000000000000   13.2589009692992441
   B    N    Al
    34    36     2
Direct
  0.1139198597705552  0.2276094710490933 -0.0004537992162181
  0.4470229446118740  0.2276094710490933 -0.0004537992162181
  0.7777777777777786  0.2222222222222214 -0.0007880646034964
  0.1139198597705552  0.5529770553881265 -0.0004537992162181
  0.4444444444444429  0.5555555555555571 -0.0172449664508108
  0.7723905289509065  0.5529770553881265 -0.0004537992162181
  0.4470229446118740  0.8860801402294449 -0.0004537992162181
  0.7723905289509065  0.8860801402294449 -0.0004537992162181
  0.1057117288478388  0.2196859659666706  0.4998022745545507
  0.4473075704521675  0.2196859659666706  0.4998022745545507
  0.7777777777777786  0.2222222222222214  0.4835834615293184
  0.1057117288478388  0.5526924295478325  0.4998022745545507
  0.7803140340333292  0.5526924295478325  0.4998022745545507
  0.1111111111111143  0.8888888888888857  0.4993185036986164
  0.4473075704521675  0.8942882711521611  0.4998022745545507
  0.7803140340333292  0.8942882711521611  0.4998022745545507
  0.2246537287574561  0.1159741241815835  0.2458090124776199
  0.5560667312780162  0.1113666989723438  0.2509265424630170
  0.8886333010276563  0.1113666989723438  0.2509265424630170
  0.2228328984765273  0.4447497825715959  0.2521597016770747
  0.5552502174284047  0.4447497825715959  0.2521597016770747
  0.8886333010276563  0.4439332687219840  0.2509265424630170
  0.2246537287574561  0.7753462712425441  0.2458090124776199
  0.5552502174284047  0.7771671015234726  0.2521597016770747
  0.8840258758184170  0.7753462712425441  0.2458090124776199
  0.2219234105573211  0.1105134877813138  0.7511780485632955
  0.5560195529063980  0.1113431097865347  0.7520162543129676
  0.8886568902134649  0.1113431097865347  0.7520162543129676
  0.2174366109048124  0.4420516387857383  0.7460066881517818
  0.5579483612142616  0.4420516387857383  0.7460066881517818
  0.8886568902134649  0.4439804470936020  0.7520162543129676
  0.2219234105573211  0.7780765894426788  0.7511780485632955
  0.5579483612142616  0.7825633890951877  0.7460066881517818
  0.8894865122186861  0.7780765894426788  0.7511780485632955
  0.2353842281708715  0.1374351230084143  0.0193280321690978
  0.5553474112874406  0.1110070389770560  0.0011853010549979
  0.8889929610229439  0.1110070389770560  0.0011853010549979
  0.2222141354341149  0.4444404010503896 -0.0178441376800902
  0.5555595989496102  0.4444404010503895 -0.0178441376800902
  0.8889929610229439  0.4446525887125594  0.0011853010549979
  0.2353842281708715  0.7646157718291287  0.0193280321690978
  0.5555595989496102  0.7777858645658852 -0.0178441376800902
  0.8625648769915862  0.7646157718291287  0.0193280321690978
  0.2223049046406581  0.1112764759479875  0.5009793459720316
  0.5555558606653134  0.1111112636659922  0.4832548405398722
  0.8888887363340076  0.1111112636659922  0.4832548405398722
  0.1962214069967109  0.4314440368316879  0.5191735082962673
  0.5685559631683120  0.4314440368316878  0.5191735082962673
  0.8888887363340076  0.4444441393346868  0.4832548405398722
  0.2223049046406581  0.7776950953593420  0.5009793459720316
  0.5685559631683121  0.8037785930032886  0.5191735082962673
  0.8887235240520125  0.7776950953593420  0.5009793459720316
  0.1112514977662947  0.2224121408380556  0.2508554935563608
  0.4444939764050967  0.2224121408380556  0.2508554935563608
  0.7777777777777786  0.2222222222222214  0.2504581488959697
  0.1112514977662947  0.5555060235949036  0.2508554935563608
  0.4444444444444429  0.5555555555555571  0.2518580834457385
  0.7775878591619443  0.5555060235949036  0.2508554935563608
  0.1111111111111143  0.8888888888888857  0.2293361564129868
  0.4444939764050967  0.8887485022337056  0.2508554935563608
  0.7775878591619443  0.8887485022337056  0.2508554935563608
  0.1109754876674482  0.2220355249681848  0.7508024091864365
  0.4443933706340722  0.2220355249681848  0.7508024091864365
  0.7777777777777786  0.2222222222222214  0.7514251818043292
  0.1109754876674482  0.5556066293659275  0.7508024091864365
  0.4444444444444429  0.5555555555555571  0.7292424446453482
  0.7779644750318152  0.5556066293659275  0.7508024091864365
  0.1111111111111143  0.8888888888888857  0.7522640486104882
  0.4443933706340722  0.8890245123325516  0.7508024091864365
  0.7779644750318152  0.8890245123325516  0.7508024091864365
  0.1111111111111143  0.8888888888888857  0.0686387219121325
  0.4444444444444429  0.5555555555555571  0.5686510070009848
 
  0.00000000E+00  0.00000000E+00  0.00000000E+00
  0.00000000E+00  0.00000000E+00  0.00000000E+00
  0.00000000E+00  0.00000000E+00  0.00000000E+00
  0.00000000E+00  0.00000000E+00  0.00000000E+00
  0.00000000E+00  0.00000000E+00  0.00000000E+00
  0.00000000E+00  0.00000000E+00  0.00000000E+00
  0.00000000E+00  0.00000000E+00  0.00000000E+00
  0.00000000E+00  0.00000000E+00  0.00000000E+00
  0.00000000E+00  0.00000000E+00  0.00000000E+00
  0.00000000E+00  0.00000000E+00  0.00000000E+00
  0.00000000E+00  0.00000000E+00  0.00000000E+00
  0.00000000E+00  0.00000000E+00  0.00000000E+00
  0.00000000E+00  0.00000000E+00  0.00000000E+00
  0.00000000E+00  0.00000000E+00  0.00000000E+00
  0.00000000E+00  0.00000000E+00  0.00000000E+00
  0.00000000E+00  0.00000000E+00  0.00000000E+00
  0.00000000E+00  0.00000000E+00  0.00000000E+00
  0.00000000E+00  0.00000000E+00  0.00000000E+00
  0.00000000E+00  0.00000000E+00  0.00000000E+00
  0.00000000E+00  0.00000000E+00  0.00000000E+00
  0.00000000E+00  0.00000000E+00  0.00000000E+00
  0.00000000E+00  0.00000000E+00  0.00000000E+00
  0.00000000E+00  0.00000000E+00  0.00000000E+00
  0.00000000E+00  0.00000000E+00  0.00000000E+00
  0.00000000E+00  0.00000000E+00  0.00000000E+00
  0.00000000E+00  0.00000000E+00  0.00000000E+00
  0.00000000E+00  0.00000000E+00  0.00000000E+00
  0.00000000E+00  0.00000000E+00  0.00000000E+00
  0.00000000E+00  0.00000000E+00  0.00000000E+00
  0.00000000E+00  0.00000000E+00  0.00000000E+00
  0.00000000E+00  0.00000000E+00  0.00000000E+00
  0.00000000E+00  0.00000000E+00  0.00000000E+00
  0.00000000E+00  0.00000000E+00  0.00000000E+00
  0.00000000E+00  0.00000000E+00  0.00000000E+00
  0.00000000E+00  0.00000000E+00  0.00000000E+00
  0.00000000E+00  0.00000000E+00  0.00000000E+00
  0.00000000E+00  0.00000000E+00  0.00000000E+00
  0.00000000E+00  0.00000000E+00  0.00000000E+00
  0.00000000E+00  0.00000000E+00  0.00000000E+00
  0.00000000E+00  0.00000000E+00  0.00000000E+00
  0.00000000E+00  0.00000000E+00  0.00000000E+00
  0.00000000E+00  0.00000000E+00  0.00000000E+00
  0.00000000E+00  0.00000000E+00  0.00000000E+00
  0.00000000E+00  0.00000000E+00  0.00000000E+00
  0.00000000E+00  0.00000000E+00  0.00000000E+00
  0.00000000E+00  0.00000000E+00  0.00000000E+00
  0.00000000E+00  0.00000000E+00  0.00000000E+00
  0.00000000E+00  0.00000000E+00  0.00000000E+00
  0.00000000E+00  0.00000000E+00  0.00000000E+00
  0.00000000E+00  0.00000000E+00  0.00000000E+00
  0.00000000E+00  0.00000000E+00  0.00000000E+00
  0.00000000E+00  0.00000000E+00  0.00000000E+00
  0.00000000E+00  0.00000000E+00  0.00000000E+00
  0.00000000E+00  0.00000000E+00  0.00000000E+00
  0.00000000E+00  0.00000000E+00  0.00000000E+00
  0.00000000E+00  0.00000000E+00  0.00000000E+00
  0.00000000E+00  0.00000000E+00  0.00000000E+00
  0.00000000E+00  0.00000000E+00  0.00000000E+00
  0.00000000E+00  0.00000000E+00  0.00000000E+00
  0.00000000E+00  0.00000000E+00  0.00000000E+00
  0.00000000E+00  0.00000000E+00  0.00000000E+00
  0.00000000E+00  0.00000000E+00  0.00000000E+00
  0.00000000E+00  0.00000000E+00  0.00000000E+00
  0.00000000E+00  0.00000000E+00  0.00000000E+00
  0.00000000E+00  0.00000000E+00  0.00000000E+00
  0.00000000E+00  0.00000000E+00  0.00000000E+00
  0.00000000E+00  0.00000000E+00  0.00000000E+00
  0.00000000E+00  0.00000000E+00  0.00000000E+00
  0.00000000E+00  0.00000000E+00  0.00000000E+00
  0.00000000E+00  0.00000000E+00  0.00000000E+00
  0.00000000E+00  0.00000000E+00  0.00000000E+00
  0.00000000E+00  0.00000000E+00  0.00000000E+00
