Ta  N Cu                                
   1.00000000000000     
     9.0548154099999998    0.0000000000000000    0.0000000000000000
     0.0000000000000000   11.6775998899999998    0.0000000000000000
     0.0000000000000000    0.0000000000000000   23.4818170799999990
   Ta   N    Cu
    60    60     1
Selective dynamics
Direct
  0.0000000000000000  0.0000000000000000  0.2546926809530987   F   F   F
  0.6670845899906297  0.1250000003211298  0.2638822399803757   F   F   F
  0.3329153514769843  0.1250000003211298  0.2638822399803757   F   F   F
  0.4999999994478088  0.2499999997859135  0.3618861993156202   F   F   F
  0.1650707596845180  0.1250000003211298  0.3684425577811794   F   F   F
  0.8349292403154820  0.1250000003211298  0.3684425577811794   F   F   F
  0.0000022623395069  0.2500004361768943  0.4798658898973437   T   T   T
  0.6650906419904344  0.1250242333898969  0.4781275250912205   T   T   T
  0.3349265179150195  0.1250279746476337  0.4781263383996667   T   T   T
  0.4999918497895422  0.2500057927982205  0.5905406939317966   T   T   T
  0.1681527395793060  0.1250879339516728  0.5903011376474553   T   T   T
  0.8318851558013443  0.1250772821475581  0.5902939604552955   T   T   T
  0.9997430482058899  0.2499938846257644  0.7025127493937737   T   T   T
  0.6741863294469919  0.1224344080085620  0.7040846511834344   T   T   T
  0.3255459481144690  0.1225283285736793  0.7041392948375225   T   T   T
  0.0000000000000000  0.2499999997859135  0.2546926809530987   F   F   F
  0.6670845899906297  0.3750000001070433  0.2638822399803757   F   F   F
  0.3329153514769843  0.3750000001070433  0.2638822399803757   F   F   F
  0.4999999994478088  0.5000000004281731  0.3618861993156202   F   F   F
  0.1650707596845180  0.3750000001070433  0.3684425577811794   F   F   F
  0.8349292403154820  0.3750000001070433  0.3684425577811794   F   F   F
  0.0000019084273069  0.4998280620582611  0.4797893257302617   T   T   T
  0.6650883467858595  0.3749751208381751  0.4781266125924177   T   T   T
  0.3349286490080425  0.3749759683313403  0.4781249665896408   T   T   T
  0.4999897404999081  0.4998672464016714  0.5907892947442007   T   T   T
  0.1681330977195459  0.3749159759826021  0.5902931086285272   T   T   T
  0.8318929043106881  0.3749171589685527  0.5902901917044231   T   T   T
  0.9999276822422073  0.5000515528717957  0.7018303496859666   T   T   T
  0.6741966635211055  0.3775343993179701  0.7040476675443412   T   T   T
  0.3254926933366771  0.3774140419794346  0.7041073844088165   T   T   T
  0.0000000000000000  0.5000000004281731  0.2546926809530987   F   F   F
  0.6670845899906297  0.6249999998929567  0.2638822399803757   F   F   F
  0.3329153514769843  0.6249999998929567  0.2638822399803757   F   F   F
  0.4999999994478088  0.7500000002140865  0.3618861993156202   F   F   F
  0.1650707596845180  0.6249999998929567  0.3684425577811794   F   F   F
  0.8349292403154820  0.6249999998929567  0.3684425577811794   F   F   F
  0.0000043455014781  0.7500036430724564  0.4797225513297882   T   T   T
  0.6649217761124253  0.6249357524222617  0.4781034518952172   T   T   T
  0.3350791914253605  0.6249327532527935  0.4780998218471754   T   T   T
  0.4999821793990871  0.7499950945962405  0.5906623881723437   T   T   T
  0.1677854454672618  0.6249920553856516  0.5898971378056594   T   T   T
  0.8322138817092861  0.6249960469718420  0.5898955936516813   T   T   T
  0.9999562583607959  0.7499936599605928  0.7019155598650682   T   T   T
  0.6705571387310867  0.6257604092716982  0.7040269950568272   T   T   T
  0.3293574019781515  0.6257132904677671  0.7040265034801984   T   T   T
  0.0000000000000000  0.7500000002140865  0.2546926809530987   F   F   F
  0.6670845899906297  0.8750000005352163  0.2638822399803757   F   F   F
  0.3329153514769843  0.8750000005352163  0.2638822399803757   F   F   F
  0.4999999994478088  0.0000000000000000  0.3618861993156202   F   F   F
  0.1650707596845180  0.8750000005352163  0.3684425577811794   F   F   F
  0.8349292403154820  0.8750000005352163  0.3684425577811794   F   F   F
  0.0000005316894196  0.0001741931591538  0.4797885753165961   T   T   T
  0.6649288924649405  0.8750660430445499  0.4781034979442929   T   T   T
  0.3350751797800521  0.8750712982096663  0.4780997467037612   T   T   T
  0.4999911509443208  0.0001433799561417  0.5907931034513451   T   T   T
  0.1677978826756268  0.8750130814653232  0.5898986674485054   T   T   T
  0.8322128858217303  0.8750083353583996  0.5898983653773379   T   T   T
 -0.0000593646945877  0.9999308598596379  0.7018429420161910   T   T   T
  0.6705141923303864  0.8742404014069663  0.7040307353788244   T   T   T
  0.3294304648235734  0.8742652409544082  0.7040301679668374   T   T   T
  0.8141011533980276  0.0000000000000000  0.3013105672926031   F   F   F
  0.4999999994478088  0.0000000000000000  0.2564174481620327   F   F   F
  0.1858988466019724  0.0000000000000000  0.3013105672926031   F   F   F
  0.3088456122590841  0.2499999997859135  0.4099867722441957   F   F   F
  0.0000000000000000  0.2499999997859135  0.3930971035158137   F   F   F
  0.6911543877409159  0.2499999997859135  0.4099867722441957   F   F   F
  0.8021769595455663  0.2499976168864795  0.5222715876713567   T   T   T
  0.5000080019812867  0.2500002894296747  0.5026218254327726   T   T   T
  0.1978135262082509  0.2499999730710123  0.5222718677270247   T   T   T
  0.3051813242617979  0.2499835105633141  0.6339930302440925   T   T   T
  0.0000013023051991  0.2499965599482926  0.6139605767848617   T   T   T
  0.6948107833081064  0.2499851381325071  0.6340050799469491   T   T   T
  0.8061915274056433  0.2499668790272148  0.7414955907666779   T   T   T
  0.4996956610976677  0.2499653400887280  0.7266753571151707   T   T   T
  0.1933340170776342  0.2499704049700848  0.7413238728317073   T   T   T
  0.8141011533980276  0.2499999997859135  0.3013105672926031   F   F   F
  0.4999999994478088  0.2499999997859135  0.2564174481620327   F   F   F
  0.1858988466019724  0.2499999997859135  0.3013105672926031   F   F   F
  0.3088456122590841  0.5000000004281731  0.4099867722441957   F   F   F
  0.0000000000000000  0.5000000004281731  0.3930971035158137   F   F   F
  0.6911543877409159  0.5000000004281731  0.4099867722441957   F   F   F
  0.8023309664089802  0.4998314828483589  0.5221576566147204   T   T   T
  0.5000063867905551  0.4999449881769745  0.5028066575484774   T   T   T
  0.1976775019507276  0.4998288537302493  0.5221586367554516   T   T   T
  0.3040464643623397  0.5004422949592093  0.6333242143599703   T   T   T
 -0.0000013078287785  0.4998808283618128  0.6135046943615549   T   T   T
  0.6959390501017947  0.5004478786907283  0.6333045657567377   T   T   T
  0.8067004385754901  0.5005507705208594  0.7407135102368206   T   T   T
  0.4999644315453664  0.4990689089173363  0.7244404647959176   T   T   T
  0.1931479963315691  0.5005538854086656  0.7406922236463090   T   T   T
  0.8141011533980276  0.5000000004281731  0.3013105672926031   F   F   F
  0.4999999994478088  0.5000000004281731  0.2564174481620327   F   F   F
  0.1858988466019724  0.5000000004281731  0.3013105672926031   F   F   F
  0.3088456122590841  0.7500000002140865  0.4099867722441957   F   F   F
  0.0000000000000000  0.7500000002140865  0.3930971035158137   F   F   F
  0.6911543877409159  0.7500000002140865  0.4099867722441957   F   F   F
  0.8023136621420146  0.7500012889282326  0.5220577421763399   T   T   T
  0.5000007382261088  0.7499999230018337  0.5027521458330622   T   T   T
  0.1976803119319646  0.7500047713723849  0.5220519293150524   T   T   T
  0.3039231189659770  0.7500018784332069  0.6331410077364092   T   T   T
  0.0000029480368216  0.7499983875380750  0.6134550594801055   T   T   T
  0.6960656377264323  0.7499979787192238  0.6331407666616996   T   T   T
  0.8063635318343210  0.7499925430243317  0.7404673270342121   T   T   T
  0.4999752939234555  0.7499699587793239  0.7238526526264960   T   T   T
  0.1935586523790039  0.7499968836095724  0.7404513896026088   T   T   T
  0.8141011533980276  0.7500000002140865  0.3013105672926031   F   F   F
  0.4999999994478088  0.7500000002140865  0.2564174481620327   F   F   F
  0.1858988466019724  0.7500000002140865  0.3013105672926031   F   F   F
  0.3088456122590841  0.0000000000000000  0.4099867722441957   F   F   F
  0.0000000000000000  0.0000000000000000  0.3930971035158137   F   F   F
  0.6911543877409159  0.0000000000000000  0.4099867722441957   F   F   F
  0.8023323797498195  0.0001660754813082  0.5221602371837469   T   T   T
  0.5000044419997876  0.0000579029927750  0.5028114480317825   T   T   T
  0.1976742266012167  0.0001785505720192  0.5221617869528116   T   T   T
  0.3040722858504497  0.9995757377344787  0.6333311821079545   T   T   T
  0.0000036775462689  0.0001194520173902  0.6135055975536502   T   T   T
  0.6959375432507364  0.9995700494684725  0.6333087316258226   T   T   T
  0.8067012508132460  0.9994354119583730  0.7406980438051036   T   T   T
  0.4999917760757062  0.0008741580353553  0.7244482748086550   T   T   T
  0.1931917099265990  0.9994257958922648  0.7406954374966020   T   T   T
  0.5077272792430199  0.2541890163524672  0.8050560539805623   T   T   T
 
  0.00000000E+00  0.00000000E+00  0.00000000E+00
  0.00000000E+00  0.00000000E+00  0.00000000E+00
  0.00000000E+00  0.00000000E+00  0.00000000E+00
  0.00000000E+00  0.00000000E+00  0.00000000E+00
  0.00000000E+00  0.00000000E+00  0.00000000E+00
  0.00000000E+00  0.00000000E+00  0.00000000E+00
  0.00000000E+00  0.00000000E+00  0.00000000E+00
  0.00000000E+00  0.00000000E+00  0.00000000E+00
  0.00000000E+00  0.00000000E+00  0.00000000E+00
  0.00000000E+00  0.00000000E+00  0.00000000E+00
  0.00000000E+00  0.00000000E+00  0.00000000E+00
  0.00000000E+00  0.00000000E+00  0.00000000E+00
  0.00000000E+00  0.00000000E+00  0.00000000E+00
  0.00000000E+00  0.00000000E+00  0.00000000E+00
  0.00000000E+00  0.00000000E+00  0.00000000E+00
  0.00000000E+00  0.00000000E+00  0.00000000E+00
  0.00000000E+00  0.00000000E+00  0.00000000E+00
  0.00000000E+00  0.00000000E+00  0.00000000E+00
  0.00000000E+00  0.00000000E+00  0.00000000E+00
  0.00000000E+00  0.00000000E+00  0.00000000E+00
  0.00000000E+00  0.00000000E+00  0.00000000E+00
  0.00000000E+00  0.00000000E+00  0.00000000E+00
  0.00000000E+00  0.00000000E+00  0.00000000E+00
  0.00000000E+00  0.00000000E+00  0.00000000E+00
  0.00000000E+00  0.00000000E+00  0.00000000E+00
  0.00000000E+00  0.00000000E+00  0.00000000E+00
  0.00000000E+00  0.00000000E+00  0.00000000E+00
  0.00000000E+00  0.00000000E+00  0.00000000E+00
  0.00000000E+00  0.00000000E+00  0.00000000E+00
  0.00000000E+00  0.00000000E+00  0.00000000E+00
  0.00000000E+00  0.00000000E+00  0.00000000E+00
  0.00000000E+00  0.00000000E+00  0.00000000E+00
  0.00000000E+00  0.00000000E+00  0.00000000E+00
  0.00000000E+00  0.00000000E+00  0.00000000E+00
  0.00000000E+00  0.00000000E+00  0.00000000E+00
  0.00000000E+00  0.00000000E+00  0.00000000E+00
  0.00000000E+00  0.00000000E+00  0.00000000E+00
  0.00000000E+00  0.00000000E+00  0.00000000E+00
  0.00000000E+00  0.00000000E+00  0.00000000E+00
  0.00000000E+00  0.00000000E+00  0.00000000E+00
  0.00000000E+00  0.00000000E+00  0.00000000E+00
  0.00000000E+00  0.00000000E+00  0.00000000E+00
  0.00000000E+00  0.00000000E+00  0.00000000E+00
  0.00000000E+00  0.00000000E+00  0.00000000E+00
  0.00000000E+00  0.00000000E+00  0.00000000E+00
  0.00000000E+00  0.00000000E+00  0.00000000E+00
  0.00000000E+00  0.00000000E+00  0.00000000E+00
  0.00000000E+00  0.00000000E+00  0.00000000E+00
  0.00000000E+00  0.00000000E+00  0.00000000E+00
  0.00000000E+00  0.00000000E+00  0.00000000E+00
  0.00000000E+00  0.00000000E+00  0.00000000E+00
  0.00000000E+00  0.00000000E+00  0.00000000E+00
  0.00000000E+00  0.00000000E+00  0.00000000E+00
  0.00000000E+00  0.00000000E+00  0.00000000E+00
  0.00000000E+00  0.00000000E+00  0.00000000E+00
  0.00000000E+00  0.00000000E+00  0.00000000E+00
  0.00000000E+00  0.00000000E+00  0.00000000E+00
  0.00000000E+00  0.00000000E+00  0.00000000E+00
  0.00000000E+00  0.00000000E+00  0.00000000E+00
  0.00000000E+00  0.00000000E+00  0.00000000E+00
  0.00000000E+00  0.00000000E+00  0.00000000E+00
  0.00000000E+00  0.00000000E+00  0.00000000E+00
  0.00000000E+00  0.00000000E+00  0.00000000E+00
  0.00000000E+00  0.00000000E+00  0.00000000E+00
  0.00000000E+00  0.00000000E+00  0.00000000E+00
  0.00000000E+00  0.00000000E+00  0.00000000E+00
  0.00000000E+00  0.00000000E+00  0.00000000E+00
  0.00000000E+00  0.00000000E+00  0.00000000E+00
  0.00000000E+00  0.00000000E+00  0.00000000E+00
  0.00000000E+00  0.00000000E+00  0.00000000E+00
  0.00000000E+00  0.00000000E+00  0.00000000E+00
  0.00000000E+00  0.00000000E+00  0.00000000E+00
  0.00000000E+00  0.00000000E+00  0.00000000E+00
  0.00000000E+00  0.00000000E+00  0.00000000E+00
  0.00000000E+00  0.00000000E+00  0.00000000E+00
  0.00000000E+00  0.00000000E+00  0.00000000E+00
  0.00000000E+00  0.00000000E+00  0.00000000E+00
  0.00000000E+00  0.00000000E+00  0.00000000E+00
  0.00000000E+00  0.00000000E+00  0.00000000E+00
  0.00000000E+00  0.00000000E+00  0.00000000E+00
  0.00000000E+00  0.00000000E+00  0.00000000E+00
  0.00000000E+00  0.00000000E+00  0.00000000E+00
  0.00000000E+00  0.00000000E+00  0.00000000E+00
  0.00000000E+00  0.00000000E+00  0.00000000E+00
  0.00000000E+00  0.00000000E+00  0.00000000E+00
  0.00000000E+00  0.00000000E+00  0.00000000E+00
  0.00000000E+00  0.00000000E+00  0.00000000E+00
  0.00000000E+00  0.00000000E+00  0.00000000E+00
  0.00000000E+00  0.00000000E+00  0.00000000E+00
  0.00000000E+00  0.00000000E+00  0.00000000E+00
  0.00000000E+00  0.00000000E+00  0.00000000E+00
  0.00000000E+00  0.00000000E+00  0.00000000E+00
  0.00000000E+00  0.00000000E+00  0.00000000E+00
  0.00000000E+00  0.00000000E+00  0.00000000E+00
  0.00000000E+00  0.00000000E+00  0.00000000E+00
  0.00000000E+00  0.00000000E+00  0.00000000E+00
  0.00000000E+00  0.00000000E+00  0.00000000E+00
  0.00000000E+00  0.00000000E+00  0.00000000E+00
  0.00000000E+00  0.00000000E+00  0.00000000E+00
  0.00000000E+00  0.00000000E+00  0.00000000E+00
  0.00000000E+00  0.00000000E+00  0.00000000E+00
  0.00000000E+00  0.00000000E+00  0.00000000E+00
  0.00000000E+00  0.00000000E+00  0.00000000E+00
  0.00000000E+00  0.00000000E+00  0.00000000E+00
  0.00000000E+00  0.00000000E+00  0.00000000E+00
  0.00000000E+00  0.00000000E+00  0.00000000E+00
  0.00000000E+00  0.00000000E+00  0.00000000E+00
  0.00000000E+00  0.00000000E+00  0.00000000E+00
  0.00000000E+00  0.00000000E+00  0.00000000E+00
  0.00000000E+00  0.00000000E+00  0.00000000E+00
  0.00000000E+00  0.00000000E+00  0.00000000E+00
  0.00000000E+00  0.00000000E+00  0.00000000E+00
  0.00000000E+00  0.00000000E+00  0.00000000E+00
  0.00000000E+00  0.00000000E+00  0.00000000E+00
  0.00000000E+00  0.00000000E+00  0.00000000E+00
  0.00000000E+00  0.00000000E+00  0.00000000E+00
  0.00000000E+00  0.00000000E+00  0.00000000E+00
  0.00000000E+00  0.00000000E+00  0.00000000E+00
  0.00000000E+00  0.00000000E+00  0.00000000E+00
  0.00000000E+00  0.00000000E+00  0.00000000E+00
  0.00000000E+00  0.00000000E+00  0.00000000E+00
