Mo  S Co                                
   1.00000000000000     
    15.9214998300000001    0.0000000000000000    0.0000000000000000
    -7.9622501300000001   13.7910221699999997    0.0000000000000000
     0.0000000000000000    0.0000000000000000   13.5821998300000004
   Mo   S    Co
    25    50     3
Direct
  0.1326109228525922  0.0656340645985907  0.6792960471920964
  0.1314633623160617  0.2653278839337787  0.6795283750575791
  0.1325950049345224  0.4657479021061093  0.6795374367800662
  0.1325866623582286  0.6657342040688050  0.6793373041800379
  0.1325761213774399  0.8656341668799357  0.6792815120748941
  0.3325454211830206  0.0656212278356492  0.6792161292795242
  0.3321288424064548  0.2646836112678912  0.6782843698153158
  0.3328616928015364  0.4665707084121848  0.6790046488390686
  0.3325322682273182  0.6658684463492293  0.6791619895080032
  0.3325776241333855  0.8656765796453030  0.6791508693380308
  0.5325413525733680  0.0654600113451451  0.6790712809639032
  0.5334163271321728  0.2653103742373233  0.6792891473236722
  0.5332413725506981  0.4665649356489112  0.6788946687019575
  0.5327961801033396  0.6660709833071863  0.6784988729085129
  0.5326099237355066  0.8657793966551779  0.6788399312936875
  0.7326097354515397  0.0656963827872161  0.6790618502272494
  0.7327366521121803  0.2657368539053238  0.6793884252377467
  0.7326790112091999  0.4657438328781822  0.6794077211877863
  0.7328545797130488  0.6658709391115920  0.6791134584616643
  0.7326880439986567  0.8657815964055970  0.6788661589699174
  0.9324572739824504  0.0654778052952096  0.6791986871340754
  0.9325412793606773  0.2657415667022462  0.6794900982991976
  0.9326277572373840  0.4657331451855526  0.6794429005887679
  0.9326667885160376  0.6657338142130129  0.6793130898894759
  0.9326182069273443  0.8656822335099150  0.6791911220771922
  0.0657929468859635  0.1322371381842018  0.5641866938083666
  0.0654003217020929  0.1318770974158241  0.7945471977785630
  0.0656681085764887  0.3324246460808595  0.5642702386767411
  0.0656219339854971  0.3324483917149692  0.7948038065750822
  0.0659261795230677  0.5323322984576677  0.5643804262657781
  0.0659395096735764  0.5324717414872708  0.7945628140056940
  0.0659306557163504  0.7323235347512451  0.5642107048005798
  0.0659553733225877  0.7324108184823501  0.7944714722557507
  0.0659591081877196  0.9323603393700921  0.5641646405207865
  0.0659345931524484  0.9323359814003283  0.7943485684362273
  0.2655777745998691  0.1316724826111795  0.5636522752569491
  0.2660249865564381  0.1324294969312376  0.7943866640181696
  0.2653715585111911  0.3323232621870673  0.5648970152702546
  0.2660725109813811  0.3323126291666370  0.7956606303007163
  0.2657658482754357  0.5326097077383736  0.5640780785030870
  0.2659436362793599  0.5326992111069941  0.7946199269368321
  0.2657965847725876  0.7323617378978398  0.5641155433429788
  0.2659710850958348  0.7325212519864195  0.7943895007463198
  0.2658840247369483  0.9323259780823463  0.5641187137623831
  0.2659558848408778  0.9323680072653389  0.7943066970901498
  0.4659295600587114  0.1321760346899481  0.5640345861835101
  0.4660433849590930  0.1319245963890410  0.7943737668807103
  0.4664708954387891  0.3323319232785877  0.5647487299077838
  0.4659277758506377  0.3322690401260928  0.7954691503169684
  0.4660311546372782  0.5325913914481504  0.5638282385715740
  0.4662720771336950  0.5329416412010417  0.7946097117842115
  0.4657598826327671  0.7324669608205596  0.5637476700498851
  0.4661325622149803  0.7325922979577584  0.7939893156300641
  0.4658126687194226  0.9323149630460321  0.5638643406743000
  0.4659517725050293  0.9322051169897350  0.7941707204227342
  0.6660107053092261  0.1324915771017530  0.5640749937092409
  0.6658709173576014  0.1321341880167353  0.7942381172932471
  0.6663280697036384  0.3324309962276288  0.5641024962996894
  0.6663071079920400  0.3324265723737625  0.7946245805383612
  0.6663701904874344  0.5326358452986284  0.5639797269033764
  0.6662870386989965  0.5326608808078461  0.7945082061011135
  0.6662190671775861  0.7324840141272588  0.5637385815048006
  0.6659836368006111  0.7325709548253059  0.7939824529202255
  0.6660147577655877  0.9324864057601800  0.5638322851755575
  0.6659086719543978  0.9323181447362003  0.7939876530031498
  0.8660707932967000  0.1325130367821572  0.5641679316044019
  0.8657387906134915  0.1321221697180874  0.7943226671961483
  0.8660277191292280  0.3324254917873191  0.5643560532278116
  0.8659291985475477  0.3323926899399225  0.7945611761811122
  0.8659899809356233  0.5323547673536382  0.5643153098701745
  0.8659961937886749  0.5324498385837799  0.7945041503492760
  0.8661131008724965  0.7324058993556832  0.5641002680901792
  0.8660503999042248  0.7324879603737173  0.7943744030428448
  0.8660684350329575  0.9323839561111029  0.5639427226203395
  0.8657526102043533  0.9321733061792301  0.7942350171097416
  0.3107345640889179  0.3605098588575544  0.9457431187296663
  0.4502729008606821  0.3602388960261607  0.9456214942893340
  0.3643136383039121  0.3280354351860311  0.0823400241413239
 
  0.00000000E+00  0.00000000E+00  0.00000000E+00
  0.00000000E+00  0.00000000E+00  0.00000000E+00
  0.00000000E+00  0.00000000E+00  0.00000000E+00
  0.00000000E+00  0.00000000E+00  0.00000000E+00
  0.00000000E+00  0.00000000E+00  0.00000000E+00
  0.00000000E+00  0.00000000E+00  0.00000000E+00
  0.00000000E+00  0.00000000E+00  0.00000000E+00
  0.00000000E+00  0.00000000E+00  0.00000000E+00
  0.00000000E+00  0.00000000E+00  0.00000000E+00
  0.00000000E+00  0.00000000E+00  0.00000000E+00
  0.00000000E+00  0.00000000E+00  0.00000000E+00
  0.00000000E+00  0.00000000E+00  0.00000000E+00
  0.00000000E+00  0.00000000E+00  0.00000000E+00
  0.00000000E+00  0.00000000E+00  0.00000000E+00
  0.00000000E+00  0.00000000E+00  0.00000000E+00
  0.00000000E+00  0.00000000E+00  0.00000000E+00
  0.00000000E+00  0.00000000E+00  0.00000000E+00
  0.00000000E+00  0.00000000E+00  0.00000000E+00
  0.00000000E+00  0.00000000E+00  0.00000000E+00
  0.00000000E+00  0.00000000E+00  0.00000000E+00
  0.00000000E+00  0.00000000E+00  0.00000000E+00
  0.00000000E+00  0.00000000E+00  0.00000000E+00
  0.00000000E+00  0.00000000E+00  0.00000000E+00
  0.00000000E+00  0.00000000E+00  0.00000000E+00
  0.00000000E+00  0.00000000E+00  0.00000000E+00
  0.00000000E+00  0.00000000E+00  0.00000000E+00
  0.00000000E+00  0.00000000E+00  0.00000000E+00
  0.00000000E+00  0.00000000E+00  0.00000000E+00
  0.00000000E+00  0.00000000E+00  0.00000000E+00
  0.00000000E+00  0.00000000E+00  0.00000000E+00
  0.00000000E+00  0.00000000E+00  0.00000000E+00
  0.00000000E+00  0.00000000E+00  0.00000000E+00
  0.00000000E+00  0.00000000E+00  0.00000000E+00
  0.00000000E+00  0.00000000E+00  0.00000000E+00
  0.00000000E+00  0.00000000E+00  0.00000000E+00
  0.00000000E+00  0.00000000E+00  0.00000000E+00
  0.00000000E+00  0.00000000E+00  0.00000000E+00
  0.00000000E+00  0.00000000E+00  0.00000000E+00
  0.00000000E+00  0.00000000E+00  0.00000000E+00
  0.00000000E+00  0.00000000E+00  0.00000000E+00
  0.00000000E+00  0.00000000E+00  0.00000000E+00
  0.00000000E+00  0.00000000E+00  0.00000000E+00
  0.00000000E+00  0.00000000E+00  0.00000000E+00
  0.00000000E+00  0.00000000E+00  0.00000000E+00
  0.00000000E+00  0.00000000E+00  0.00000000E+00
  0.00000000E+00  0.00000000E+00  0.00000000E+00
  0.00000000E+00  0.00000000E+00  0.00000000E+00
  0.00000000E+00  0.00000000E+00  0.00000000E+00
  0.00000000E+00  0.00000000E+00  0.00000000E+00
  0.00000000E+00  0.00000000E+00  0.00000000E+00
  0.00000000E+00  0.00000000E+00  0.00000000E+00
  0.00000000E+00  0.00000000E+00  0.00000000E+00
  0.00000000E+00  0.00000000E+00  0.00000000E+00
  0.00000000E+00  0.00000000E+00  0.00000000E+00
  0.00000000E+00  0.00000000E+00  0.00000000E+00
  0.00000000E+00  0.00000000E+00  0.00000000E+00
  0.00000000E+00  0.00000000E+00  0.00000000E+00
  0.00000000E+00  0.00000000E+00  0.00000000E+00
  0.00000000E+00  0.00000000E+00  0.00000000E+00
  0.00000000E+00  0.00000000E+00  0.00000000E+00
  0.00000000E+00  0.00000000E+00  0.00000000E+00
  0.00000000E+00  0.00000000E+00  0.00000000E+00
  0.00000000E+00  0.00000000E+00  0.00000000E+00
  0.00000000E+00  0.00000000E+00  0.00000000E+00
  0.00000000E+00  0.00000000E+00  0.00000000E+00
  0.00000000E+00  0.00000000E+00  0.00000000E+00
  0.00000000E+00  0.00000000E+00  0.00000000E+00
  0.00000000E+00  0.00000000E+00  0.00000000E+00
  0.00000000E+00  0.00000000E+00  0.00000000E+00
  0.00000000E+00  0.00000000E+00  0.00000000E+00
  0.00000000E+00  0.00000000E+00  0.00000000E+00
  0.00000000E+00  0.00000000E+00  0.00000000E+00
  0.00000000E+00  0.00000000E+00  0.00000000E+00
  0.00000000E+00  0.00000000E+00  0.00000000E+00
  0.00000000E+00  0.00000000E+00  0.00000000E+00
  0.00000000E+00  0.00000000E+00  0.00000000E+00
  0.00000000E+00  0.00000000E+00  0.00000000E+00
  0.00000000E+00  0.00000000E+00  0.00000000E+00
