Ta  N  W Cu                             
   1.00000000000000     
    18.1096308199999996    0.0000000000000000    0.0000000000000000
     0.0000000000000000   23.3551997799999995    0.0000000000000000
     0.0000000000000000    0.0000000000000000   30.4818171199999988
   Ta   N    W    Cu
   192   240    48    29
Direct
  0.9998684677654097  0.9999069651059074  0.1944880891623768
  0.3297747336349062  0.0597485678488070  0.2006547518273507
  0.1708352341877699  0.0590136144131392  0.2014039577349536
  0.2495421364821624  0.1247873321332023  0.2797240462984902
  0.0820367582462822  0.0625027997152898  0.2823464362247918
  0.4170930114953109  0.0624270546710477  0.2822838041850773
  0.9996080664976148  0.1249221611046920  0.3683983588620450
  0.3324396222413313  0.0622562302547820  0.3669409122174088
  0.1664722284889351  0.0623175154449029  0.3670840375201863
  0.2492977335580306  0.1243888071771622  0.4530302949072222
  0.0833232526068244  0.0619633014382188  0.4536245755874191
  0.4161798183584438  0.0619383810059873  0.4529119669039545
  0.9996683844860570  0.1249319649646807  0.1955074550297411
  0.3297617322330808  0.1900048151394600  0.2008341850282847
  0.1707154774579394  0.1907185713029307  0.2015903031449255
  0.2489102927606339  0.2497093945261213  0.2803854151897767
  0.0820100509034631  0.1871763254459538  0.2826123370440143
  0.4170885642746072  0.1871920314446811  0.2824727782001446
  0.9996243019408055  0.2495510008983075  0.3687529922031132
  0.3325189835706297  0.1871645626584950  0.3671862580027181
  0.1664940102394823  0.1872001543607240  0.3674576078228284
  0.2493795507444716  0.2492128961393689  0.4532563181859928
  0.0832112755128236  0.1868048439918013  0.4536839250937561
  0.4161461110720097  0.1866350537869224  0.4537593183793263
  0.9998468874779078  0.2499137821735360  0.1949382202593242
  0.3298504983491810  0.3098032237887907  0.2009648104768047
  0.1707538932801995  0.3090051684900388  0.2017838989458269
  0.2495357822885964  0.3747643818238444  0.2800453701622203
  0.0820382641988573  0.3124676107025053  0.2827906148820176
  0.4170999414992451  0.3123823206960452  0.2826415213940194
  0.9996398579255157  0.3748427755304391  0.3689396124874875
  0.3324972613767159  0.3121770347197668  0.3674025373044643
  0.1663632607483692  0.3122383725243978  0.3676443434946890
  0.2483456149832080  0.3746245509477717  0.4532821143689461
  0.0832246431993156  0.3119271799544165  0.4546234027382994
  0.4158688247531188  0.3117228864498998  0.4535777048538208
  0.9996967802507939  0.3748496963900507  0.1958730453852837
  0.3297825518718795  0.4398418452502213  0.2010453208418781
  0.1707226492230092  0.4405544065564513  0.2017718369591535
  0.2489873149800914  0.9998188485419632  0.2800278946486614
  0.0819923745269762  0.4371124617539692  0.2827999422466192
  0.4170660329367450  0.4371641978495404  0.2826633905480591
  0.9996172251908959  0.9996706649622951  0.3680760353735195
  0.3324515139383877  0.4372159839193799  0.3673030959099037
  0.1662555955837917  0.4372448745396866  0.3676258647791997
  0.2495667665074990  0.9996987036870379  0.4528316209337149
  0.0831442596498775  0.4373380576182413  0.4539999542739963
  0.4160210503008628  0.4371261962160204  0.4537103529594546
  0.9998509814241956  0.4997637925935905  0.1950071694399540
  0.3298900221560643  0.5596915894051122  0.2008976117421639
  0.1707732400256319  0.5588989824830222  0.2016991569150761
  0.2496236846466502  0.6248957961522024  0.2797578453913800
  0.0820363898779419  0.5624933141774946  0.2826120891890227
  0.4170923869594390  0.5624258977178158  0.2825850268909278
  0.9996076225858630  0.6251453020155964  0.3684576222511353
  0.3324631293329361  0.5624347546491180  0.3672280755347259
  0.1664075431755592  0.5624862888429547  0.3673278939981159
  0.2490142275141523  0.6254537816088970  0.4528767872608768
  0.0831762331816037  0.5628927471236551  0.4540115421870610
  0.4154927656206908  0.5627485692127507  0.4531774690615649
  0.9996657512355753  0.6247565200221459  0.1956199869311135
  0.3297920779790857  0.6898969176489516  0.2007534055434448
  0.1707923394240396  0.6905799658973280  0.2014004630832886
  0.2490629294350271  0.7499133262129121  0.2801032132014285
  0.0820410505400488  0.6872092455323298  0.2824163943604816
  0.4171113144596248  0.6872312261330080  0.2824570400139237
  0.9996099337326712  0.7498222509975392  0.3681887014528300
  0.3325763179467174  0.6875026210028778  0.3671201783814837
  0.1665023794759506  0.6874820909180386  0.3672307901864329
  0.2494935706345700  0.7504992882398440  0.4530778434521849
  0.0832032174365978  0.6878686401154681  0.4533729190587863
  0.4159601351165634  0.6880355419326776  0.4538740415482678
  0.9998440171959899  0.7497280249549334  0.1946022856368472
  0.3298054784954942  0.8096846029489626  0.2006633910490265
  0.1708434315756762  0.8089247248818694  0.2013819110252868
  0.2496484177683840  0.8748411712539195  0.2795904756459251
  0.0820567241635999  0.8125139564379964  0.2822645129576813
  0.4171379848137491  0.8124644667611776  0.2823113763623653
  0.9996304499173689  0.8750518610893252  0.3680684148212379
  0.3325263936706619  0.8124443005176900  0.3670458218013906
  0.1665332338709433  0.8124895102250704  0.3670421637963415
  0.2495970211397918  0.8752008468030326  0.4528374985841737
  0.0832949930456550  0.8127897198251404  0.4534589840613066
  0.4163332320338782  0.8127439732897201  0.4533434168021202
  0.9996746842952149  0.8748181257426637  0.1952749434974521
  0.3297819381840057  0.9399956591704353  0.2005845583697123
  0.1708151310733896  0.9407073104511312  0.2012780519942723
  0.2489177370368125  0.4997914119607856  0.2803746432200498
  0.0820397624488294  0.9371948777531571  0.2822151701859426
  0.4171120932024550  0.9372004410055226  0.2822240340272373
  0.9996030535006781  0.4997116859622324  0.3686905356639585
  0.3326253579242788  0.9373304173837340  0.3669114419584929
  0.1666040478010515  0.9373462612486136  0.3670203985395020
  0.2485116212764993  0.5001024538132697  0.4528913337760514
  0.0830941001299195  0.9374074294866901  0.4529958000039755
  0.4160627812070672  0.9374210278112471  0.4533989961539575
  0.4998654695373759  0.9998603566642217  0.1944326899740147
  0.8298967976483453  0.0597804766902286  0.2006763744101434
  0.6709680334671404  0.0590080210793218  0.2013809740826176
  0.7496931047831481  0.1248009474140730  0.2797322313781905
  0.5820346534108296  0.0624839435507099  0.2822538665341696
  0.9171113524153185  0.0624582874765451  0.2823626755021564
  0.4996196819045124  0.1245233460227908  0.3681705733912821
  0.8326866063550824  0.0623121832247762  0.3670003667095614
  0.6667246813075920  0.0623030906797126  0.3670290988947116
  0.7500819890179358  0.1243867801227339  0.4530142761187079
  0.5831574200926610  0.0619453433175394  0.4529718183084626
  0.9159907580966831  0.0619800436137012  0.4535781041145484
  0.4996606691163379  0.1247787741434507  0.1954229447970874
  0.8300007326580499  0.1899965776233898  0.2008711912770522
  0.6709529083008121  0.1907703111502670  0.2015926246372430
  0.7491126998349884  0.2497311360984256  0.2803880922935207
  0.5820630111354106  0.1871581457625453  0.2824536730214788
  0.9171719810652021  0.1872281618422988  0.2826415395826913
  0.4996072315903248  0.2497815520313722  0.3684435667452135
  0.8326839980776199  0.1872311718594588  0.3673664561435288
  0.6666464345429759  0.1871646754139533  0.3672713821693847
  0.7500196607314749  0.2492100086281184  0.4532408851293326
  0.5831724670927869  0.1866292017353572  0.4538067517998954
  0.9161408921310183  0.1867980753893477  0.4536220654031951
  0.4998460363727304  0.2499131300810262  0.1948120133817497
  0.8300100343370431  0.3097448003122025  0.2010545895559943
  0.6708945368601533  0.3090880635868700  0.2017090668981965
  0.7497596931811401  0.3747625481665438  0.2800606155386376
  0.5820776670675443  0.3124437614203330  0.2826152280658150
  0.9171731395054863  0.3124151029757130  0.2828367687979068
  0.4996274628940114  0.3744003058388046  0.3685645853336155
  0.8328445720337356  0.3122062438422901  0.3675609919518052
  0.6666991295995643  0.3122012691217861  0.3675023299195246
  0.7510215851495872  0.3746265833267515  0.4532741934209810
  0.5834333974800003  0.3117380718035321  0.4536447440123723
  0.9161397788703098  0.3119245659443308  0.4545696673676574
  0.4996863832387888  0.3747354412705874  0.1957422408375322
  0.8300257409242064  0.4398096450476032  0.2010627542174106
  0.6709596423895974  0.4406179972312003  0.2017933146828526
  0.7490094945173951  0.9998385874247688  0.2800251238438278
  0.5821006733384095  0.4371303188395714  0.2826398561959138
  0.9171995917703271  0.4371847066825865  0.2828393817874897
  0.4996188195521114  0.9999560520500097  0.3680082194075567
  0.8329422785275682  0.4372783211857723  0.3675506057218598
  0.6667297248987865  0.4371993491129444  0.3673980885458690
  0.7498431498947227  0.9997092114952508  0.4528327891258783
  0.5832677058676126  0.4371342707423551  0.4537631751724973
  0.9161816986326627  0.4373278823301163  0.4539345206299359
  0.4998512055342985  0.4997851231960837  0.1949070839450968
  0.8299685133422230  0.5596469568308464  0.2009555045739191
  0.6708295799541943  0.5589624514578375  0.2016432414564520
  0.7496292146216419  0.6248897830669478  0.2797624037959920
  0.5820697508491079  0.5624911324123758  0.2825541041359685
  0.9171384828174567  0.5624515794381040  0.2826564258702291
  0.4996063181996959  0.6248537698844032  0.3684012326983890
  0.8327479489586338  0.5624414673061509  0.3672576189544756
  0.6667070861204039  0.5624474461450433  0.3673218307620090
  0.7503640983914650  0.6254717148046609  0.4528910218778321
  0.5837658885317509  0.5627344251874433  0.4532281696595959
  0.9161221566293634  0.5628839749769341  0.4539754883219160
  0.4996440900511772  0.6246593114691947  0.1956063701107951
  0.8298991771934539  0.6898584836591226  0.2006896934256588
  0.6708954418473709  0.6906277667039333  0.2014995175525840
  0.7489690294804490  0.7499300478876023  0.2801043195896469
  0.5820380936700786  0.6871945972724092  0.2824348797484078
  0.9171015388554622  0.6872579976125976  0.2824553258917746
  0.4996081196090572  0.7501892677961095  0.3682722520853687
  0.8326476530528879  0.6875151587808759  0.3671520219391056
  0.6665639872987086  0.6874869817807578  0.3672077122172936
  0.7498702347011346  0.7505018843505624  0.4530764817532145
  0.5833550976241781  0.6880368124626131  0.4539285389135443
  0.9161208373607934  0.6878812552438163  0.4533377313201470
  0.4998518195151433  0.7497296422037607  0.1946236113017576
  0.8298789365198829  0.8096920162866397  0.2006539618597003
  0.6709118390232902  0.8089177531468295  0.2014032027086188
  0.7495800667498145  0.8748454714676441  0.2795990058525888
  0.5820017251068066  0.8125131239656938  0.2822857219917481
  0.9170814525068849  0.8124686440711031  0.2822933656496858
  0.4996217714073268  0.8746953476005075  0.3681517607037108
  0.8326073280317630  0.8124687567439466  0.3669669432751519
  0.6666303420341393  0.8124654254480248  0.3671286767047164
  0.7498207782381030  0.8752131166465915  0.4528334907189304
  0.5830486940646367  0.8127467020422117  0.4534017005606330
  0.9160447208619189  0.8127938349404360  0.4534245752282615
  0.4996718413819963  0.8746962604983466  0.1952887712579994
  0.8298570501447387  0.9399763510026276  0.2005572357097023
  0.6709147962649169  0.9407531527419266  0.2013232424255875
  0.7491104429867548  0.4997855537623010  0.2803828873107364
  0.5820421295302793  0.9371651369797434  0.2821980834857740
  0.9171089073998431  0.9372317390124820  0.2822472587041887
  0.4996063601204810  0.5001397060549024  0.3684148373850249
  0.8325614452611916  0.9373661704115790  0.3669539483527728
  0.6665295882503557  0.9373253863697784  0.3669790121437373
  0.7508293743841676  0.5000962341738173  0.4528880559620987
  0.5833089925290267  0.9374322203395877  0.4534436700413664
  0.9163062838890781  0.9373922448170120  0.4529319592214023
  0.4049555646196268  0.9998355707193980  0.2305903308042261
  0.2508218971273379  0.9998754898760751  0.1763420088708116
  0.0940268810786833  0.9998654876073445  0.2308412850560799
  0.1521653527582529  0.1248786204789667  0.3152410718091474
  0.9995784884141656  0.1248296632107539  0.3015197355234207
  0.3469340248607296  0.1247919281075482  0.3150397787080479
  0.4011494817358425  0.1247383211206099  0.4016545640962050
  0.2495535498399093  0.1247037922456400  0.3857785857230738
  0.0980703617545444  0.1245659241798762  0.4019398969278285
  0.1528084743188671  0.1242181453423186  0.4867220051764249
  0.9996723241340462  0.1247300111720904  0.4746282268294664
  0.3462085972900226  0.1233938410210840  0.4861915959311958
  0.3994412931081968  0.1231326462845530  0.5672658283289067
  0.2494116422757742  0.1232838980538560  0.5573546895026382
  0.0991567436136975  0.1235710840773905  0.5674525255347618
  0.4053831335955422  0.1248534558045478  0.2305037769838947
  0.2500224043952954  0.1248897064312402  0.2093814222797974
  0.0943891793056366  0.1249748288196173  0.2304542680364960
  0.1518369193187610  0.2497854853506780  0.3157796209039816
  0.9995571560277270  0.2498209390254829  0.3017330871037913
  0.3470221755765337  0.2497990970499515  0.3154245559819984
  0.4012506958282955  0.2493901908758644  0.4019717861995176
  0.2495365878390601  0.2497276118535083  0.3859956192198766
  0.0979921521552996  0.2497970066744770  0.4024131954181271
  0.1531158291765351  0.2485757394749726  0.4873847382645025
  0.9996759399426907  0.2488195675731575  0.4749457097872281
  0.3459707630903779  0.2485265395066776  0.4869307390686899
  0.3976573441484135  0.2476712685040496  0.5675814008747935
  0.2495641175058765  0.2471017399327309  0.5607161430739040
  0.0992504199008124  0.2478325840346400  0.5683158205381815
  0.4048933422053622  0.2498613335210962  0.2308977021530865
  0.2508080990816381  0.2499354579305830  0.1767633041929528
  0.0940057746190348  0.2498542895147366  0.2312688383806929
  0.1522042580684229  0.3747740654295910  0.3156313274814835
  0.9995969969324321  0.3747787729036958  0.3019696310867985
  0.3468668121579199  0.3747083963981197  0.3154204123520330
  0.4013484153013849  0.3747230903411989  0.4020206501124761
  0.2493819263078478  0.3747203741296516  0.3860825933850762
  0.0980310974249150  0.3744725385604397  0.4025369825592762
  0.1519028611851212  0.3746750982080087  0.4879684822889203
  0.9996680704386307  0.3750760893857077  0.4752680436131058
  0.3455006171364872  0.3740446441381380  0.4858325734338322
  0.3964515116116658  0.3751661220959690  0.5645355648595540
  0.2486100928515640  0.3738974573398437  0.5578712182849586
  0.0981681231486888  0.3738917425480821  0.5705123811869655
  0.4053869322240971  0.3747687448495398  0.2308371140000816
  0.2500141218321446  0.3747987671896382  0.2097062751755416
  0.0944166854620860  0.3748341763771634  0.2308219970678635
  0.1517872080248424  0.9998148139906178  0.3152843006431212
  0.9995335650456880  0.9998557050844141  0.3011588728352450
  0.3471041006165123  0.9998232043177140  0.3150365845585767
  0.4012154169124571  0.9996427335726210  0.4014684127435046
  0.2495724035922535  0.9998272530604027  0.3856058851490758
  0.0980017249644760  0.9999305191327892  0.4016220721567194
  0.1529004443453630  0.9992379322428206  0.4863519612440896
  0.9996802988304481  0.9992482676639156  0.4741967675807928
  0.3463962160013310  0.9999716136107182  0.4861367524075249
  0.4003335546076059  0.9995976389844472  0.5668779942659583
  0.2497837853604850  0.9994776404688963  0.5566977090133349
  0.0992711704518712  0.9992139261809001  0.5671283572586603
  0.4048893753713187  0.4997664007768634  0.2309491142037956
  0.2508403156383068  0.4997097886918738  0.1768787789259036
  0.0940191350465440  0.4997320579613671  0.2312733047393749
  0.1522693912522897  0.6249131062206033  0.3152579503548765
  0.9995856491915660  0.6248635487699659  0.3015822621882833
  0.3468843111931861  0.6248470039838523  0.3151920836075419
  0.4011605916705889  0.6253196407810222  0.4018501686336009
  0.2495564462312174  0.6250242128718924  0.3856848245366606
  0.0981109919938064  0.6249258998822782  0.4019845764793999
  0.1528650004475978  0.6260996199603426  0.4870099940120127
  0.9996537298165933  0.6258426018522911  0.4744962941586977
  0.3453482711292182  0.6260242644691374  0.4863671097031528
  0.3975267358515495  0.6260351173952117  0.5651090445701641
  0.2484381864114198  0.6261093602311050  0.5607155879476409
  0.0988526116414050  0.6268597240883977  0.5679571129875498
  0.4053651945938483  0.6247221554481470  0.2306899018979109
  0.2500554024960806  0.6247398061507354  0.2093754330625899
  0.0944418523303199  0.6247689294915943  0.2305235894262267
  0.1518715207195811  0.7498642689664905  0.3153637465166597
  0.9995422389411317  0.7498582055317016  0.3012351684409609
  0.3470988539197037  0.7499071342186312  0.3152189644098087
  0.4013333539572628  0.7499711024952447  0.4018567522914296
  0.2496295795108381  0.7500001474131111  0.3858019727671689
  0.0979757812691275  0.7501939523574848  0.4017286161464000
  0.1527470923629650  0.7504946177893004  0.4865008497151635
  0.9996697297693657  0.7499825228499546  0.4742977730671356
  0.3462725037215009  0.7514908994208938  0.4867644997681069
  0.3966493028514861  0.7524623595382351  0.5686709674986545
  0.2486939679654796  0.7515163761582144  0.5576381279037577
  0.0989266438519110  0.7511235075035145  0.5673372101026359
  0.4049086088084692  0.7497919554270069  0.2307211087763150
  0.2508404855159867  0.7496900433703573  0.1764596639946632
  0.0940430395747924  0.7497799886517953  0.2309080723402417
  0.1522006114563723  0.8748911278839699  0.3149860039366814
  0.9995798743021496  0.8748409169030111  0.3012252000707392
  0.3470208738856755  0.8748053142790866  0.3149488856074782
  0.4011828835762330  0.8749686272844173  0.4016586642669395
  0.2496483822856987  0.8748964301678939  0.3856180953557882
  0.0981214406080824  0.8748435022775425  0.4015438310417778
  0.1528461391171732  0.8755068362487251  0.4863278080937619
  0.9996932406355938  0.8755918120684214  0.4741107528932673
  0.3463385881126797  0.8752555856696844  0.4862134143751007
  0.3998887361725068  0.8757630395746361  0.5669810130476662
  0.2495011975753485  0.8753641764184934  0.5567557597458759
  0.0991996742868864  0.8757311044627798  0.5671590932730695
  0.4054178285104442  0.8747665485404852  0.2303799321650928
  0.2500641738677771  0.8748061506094444  0.2092751408206226
  0.0943992616954645  0.8748482335175538  0.2301903823402682
  0.1518211945762502  0.4997874773966160  0.3157428592251890
  0.9995563308874225  0.4998205390031671  0.3016910343970665
  0.3469781413068631  0.4997988944082508  0.3154535991668865
  0.4013679065795870  0.4996495878423417  0.4018991226540791
  0.2494331960208100  0.4998500197828619  0.3857792049451589
  0.0979066544108207  0.5001045876336008  0.4022612514829547
  0.1520793254802584  0.5006455415728084  0.4869012091917355
  0.9996579691071688  0.4994630143852206  0.4745907949168782
  0.3454766548888770  0.5002625020004743  0.4857666014935518
  0.3976659401400937  0.5002905973662450  0.5644407016232051
  0.2469176430388060  0.5002853599970862  0.5581955893278163
  0.0977940625084983  0.5015883160584309  0.5676819866035956
  0.9049397729178210  0.9998642305036682  0.2306263724475954
  0.7510004287801593  0.9998924993911373  0.1763494105339518
  0.5940198697632297  0.9998493083388311  0.2307953306068526
  0.6522432759894343  0.1247985792283757  0.3151316957185202
  0.4995794778540414  0.1247880491955868  0.3013372538658317
  0.8470165478233298  0.1248883650255763  0.3151459469935531
  0.9011336981681239  0.1245669030015861  0.4018959209362833
  0.7497293358784276  0.1247238016824213  0.3857663155949140
  0.5980621146156224  0.1247443016769765  0.4017027539967870
  0.6531771250373666  0.1233976516268811  0.4861956195061339
  0.4996504442598280  0.1238101989272167  0.4743200356873132
  0.8465850213115047  0.1242213288570895  0.4866994567893883
  0.9002532017783906  0.1235455980003621  0.5674248937044339
  0.7500244562160958  0.1233075182354710  0.5573490570986408
  0.5999557099236696  0.1231639356699787  0.5672687731526125
  0.9054458012935882  0.1249732276438280  0.2306286166679357
  0.7501647238519169  0.1249178374228421  0.2093803536508929
  0.5944381555000078  0.1248669763129300  0.2303195197886083
  0.6519195415068424  0.2498206257862421  0.3156334421352298
  0.4995444251459489  0.2498191317263974  0.3014768777187271
  0.8471336401516609  0.2497922525735277  0.3155718126783782
  0.9012464623787011  0.2498054322599472  0.4023469816790453
  0.7496944343092267  0.2497407358579338  0.3859921164406543
  0.5979548773464884  0.2494144900472790  0.4020392055053321
  0.6534161766798547  0.2485130609857293  0.4869299593923913
  0.4996535773368294  0.2494558213464657  0.4744101020844695
  0.8462795608559333  0.2485655365036337  0.4873532007748693
  0.9001471243748895  0.2478117640294357  0.5683004294236440
  0.7499098519985168  0.2471070426410478  0.5606712275773020
  0.6017633010335430  0.2476851679883296  0.5675512088395749
  0.9049924730136922  0.2498725860779416  0.2310739241792064
  0.7510251509990695  0.2499497545062255  0.1767930545668364
  0.5940561674784348  0.2498807519159456  0.2311115817056049
  0.6523514606280756  0.3747250992928386  0.3155026739951055
  0.4995937285950021  0.3747687425788442  0.3016751207649904
  0.8470253408992434  0.3747776493100972  0.3155614726930764
  0.9012185499528655  0.3744643468181366  0.4024905060513220
  0.7499242535463111  0.3747279619598132  0.3860808769032076
  0.5978738543236943  0.3747285496240167  0.4020706242981475
  0.6538898097722878  0.3740749236459280  0.4858359389104336
  0.4996531188123683  0.3740135638423681  0.4753176373659826
  0.8475037325329282  0.3746642745288327  0.4879376945150256
  0.9013482898675917  0.3738600859243704  0.5704654668751061
  0.7509050427905848  0.3738932431159228  0.5578658757123520
  0.6030449850296620  0.3751488530357605  0.5645323773569970
  0.9054622677711137  0.3748350640035412  0.2310060931767879
  0.7502280573369902  0.3748085645449777  0.2097154381974349
  0.5944702548712328  0.3747930842379006  0.2306562800307148
  0.6518090368762302  0.9998420905147398  0.3152520324577495
  0.4995385726859354  0.9998510375593028  0.3010996465049587
  0.8471249428197680  0.9998098771577233  0.3150678447875208
  0.9012175788897849  0.9999362609589042  0.4015578523733367
  0.7496366333946156  0.9998370118510564  0.3856055865452461
  0.5980037396153932  0.9996571528265363  0.4015332617430900
  0.6530073336709350  0.9999821771030781  0.4861566633765833
  0.4996725475798200  0.0001045612633206  0.4742111580398287
  0.8465212401608966  0.9992247680764450  0.4863262860936501
  0.9002224699317907  0.9992092353478554  0.5671035803728159
  0.7496877748166142  0.9994898943285193  0.5566913672839178
  0.5991542007807240  0.9995988160701259  0.5669116096822435
  0.9049510717487479  0.4997515292856036  0.2310859065500779
  0.7510087900110420  0.4997261220591511  0.1769035894706050
  0.5940443039244343  0.4997860905344282  0.2311625233494823
  0.6522985363301217  0.6248530116339026  0.3152839138301431
  0.4995803985566951  0.6248114729562033  0.3015407134030070
  0.8469128268397199  0.6249132891513014  0.3151858393267872
  0.9010911908458326  0.6249257745707268  0.4019577718726239
  0.7497102787712038  0.6250314423850440  0.3856980961539236
  0.5980272929699950  0.6253213697282902  0.4018949614475389
  0.6540316864868458  0.6260237793153749  0.4863787440506471
  0.4996473015864709  0.6246037223530934  0.4741209830150552
  0.8465228800244731  0.6261138968482598  0.4870180729691285
  0.9005553081190172  0.6268689483671039  0.5679782639796684
  0.7510443239667595  0.6261373747126484  0.5607057318480244
  0.6019262241313683  0.6260337346868141  0.5651176717041224
  0.9053956875430487  0.6247859338631088  0.2307139484277272
  0.7501505160869186  0.6247391427120377  0.2093873618588233
  0.5944409991914199  0.6247200737305434  0.2305069276950391
  0.6518259247355260  0.7499150323500103  0.3154253899614687
  0.4995331305424600  0.7498798533561057  0.3013057957977807
  0.8470629909882916  0.7498637390360443  0.3151663314134225
  0.9012229308694302  0.7501916816877738  0.4016709134752574
  0.7495662181561542  0.7500016591381424  0.3858100865829570
  0.5978749747757846  0.7499719085260068  0.4019230988824845
  0.6531455341701573  0.7514857932789738  0.4867823242758647
  0.4996758410618796  0.7505542535392991  0.4748691252443962
  0.8466745687356294  0.7504992034648836  0.4864946232621250
  0.9005956160693032  0.7511498823679119  0.5673079193373454
  0.7508133772475745  0.7515366214403727  0.5576384971671544
  0.6028807169110664  0.7525004396785135  0.5686813526783610
  0.9049076328359931  0.7497928017134257  0.2307033291618694
  0.7509635588145045  0.7496895297057904  0.1764786998692500
  0.5940257834714657  0.7497952720363870  0.2309328272518769
  0.6521560481362201  0.8748093287110521  0.3150315396706560
  0.4995763323613858  0.8748277072293078  0.3012803206307169
  0.8469742721040703  0.8748976956119208  0.3149065034516596
  0.9011055362278952  0.8748372062252727  0.4015024085542152
  0.7496181130340034  0.8749053734973913  0.3856164455508946
  0.5980471500464901  0.8749668630549294  0.4016933103382243
  0.6531161721135632  0.8752788189161933  0.4862155831242703
  0.4996912502236341  0.8745527605864751  0.4747493427142686
  0.8466107858162673  0.8755398182436451  0.4863131411696742
  0.9003107199519462  0.8757562842952424  0.5671338455725206
  0.7500187252557140  0.8753987141493482  0.5567512776056844
  0.5996248196066247  0.8757704089705669  0.5670007802696588
  0.9054306665694583  0.8748533334369029  0.2303718118907128
  0.7501096102630811  0.8748166173851644  0.2092800806212551
  0.5944140017764070  0.8747630467565912  0.2302044826366867
  0.6519667489204934  0.4998118435275387  0.3156697983462209
  0.4995390612426220  0.4998177622124160  0.3014708726109703
  0.8471249660109237  0.4997901240519695  0.3155409468199366
  0.9012973983313088  0.5001081360980848  0.4022060052277467
  0.7497838926734417  0.4998476586974334  0.3857917647476796
  0.5978227270816490  0.4996522260288287  0.4019572766742883
  0.6538736909210741  0.5002561163090107  0.4857822302318979
  0.4996411385830513  0.5005549257430886  0.4746943889660855
  0.8472943848480767  0.5006184415577835  0.4868830185377675
  0.9016707686851575  0.5015663838768916  0.5676477930765245
  0.7525364327880268  0.5002538267813748  0.5581892365419705
  0.6017399248465622  0.5002730183600050  0.5644313631782936
  0.9996890106884493  0.1337350796551959  0.5412307362128459
  0.3329221195127090  0.0614626046257882  0.5381643886160745
  0.1636732498729785  0.0612109188992775  0.5386597071785886
  0.9996931472653472  0.2389384460117441  0.5413969261575389
  0.3340941521886194  0.1840198043542358  0.5386583558137801
  0.1647912589253551  0.1854947619554039  0.5389945788089747
  0.9997655563619787  0.3842007420999778  0.5419231635935589
  0.3301061547334356  0.3110483767251608  0.5370440557983613
  0.1615350212802866  0.3101945184976529  0.5396716520962954
  0.9997228851213933  0.9900808103871910  0.5407243880465415
  0.3304673838299266  0.4372193573368932  0.5365389406336263
  0.1643992732604289  0.4385231123637610  0.5384735782783352
  0.9996810665625162  0.6358865778359331  0.5410049581031515
  0.3301016228873976  0.5634092663813064  0.5365881211201540
  0.1610616742730357  0.5641622799661619  0.5393736053677998
  0.9997750357449391  0.7408752371512648  0.5408222952352091
  0.3308173395924427  0.6900284757351400  0.5380002184024590
  0.1642129946809447  0.6891232166401267  0.5387895586183831
  0.9997768542388670  0.8847649577223606  0.5407001197486565
  0.3314375134984218  0.8144819733617439  0.5383804940743246
  0.1629997161462171  0.8133888512159118  0.5385263904323025
  0.9997430641920388  0.4898387394045827  0.5410370048849771
  0.3358147652141881  0.9378562169503439  0.5384513616667945
  0.1660703576420062  0.9373427289002265  0.5382691439334266
  0.4996902661333422  0.1147651009764772  0.5407800683281181
  0.8357818749337653  0.0611955763088616  0.5386404053927478
  0.6664686039818974  0.0614947200276603  0.5381793474077412
  0.4996873769004608  0.2584245616400977  0.5414401523793160
  0.8346475426330144  0.1854661367290618  0.5389639885208837
  0.6653328562759526  0.1840169881986640  0.5386566880842096
  0.4997468142405168  0.3620192594671465  0.5419229468049096
  0.8378861295108706  0.3101664050430628  0.5396318697032640
  0.6693442554270987  0.3110805621748653  0.5370212571749562
  0.4997541065907427  0.0091185084764831  0.5407281920457976
  0.8350588832052352  0.4384895905355464  0.5384411387008612
  0.6690315833274454  0.4372093013810812  0.5365456001058817
  0.4997473361687526  0.6149833960532689  0.5403418845816574
  0.8383378204566370  0.5641552210803980  0.5393707535833059
  0.6693180029131653  0.5633991141976722  0.5366143208646932
  0.4997691416818029  0.7600697866101029  0.5414644008633047
  0.8352699238940531  0.6891340721933972  0.5387877630118894
  0.6686459553618107  0.6900372735450588  0.5380136391870067
  0.4997730695789286  0.8649414053619253  0.5413706202833524
  0.8365144450130870  0.8134061361955105  0.5385111871993331
  0.6680670440464525  0.8144868143814392  0.5383915575941103
  0.4996861868195950  0.5115574352801673  0.5407218811941945
  0.8334149977916425  0.9373780346391243  0.5382528823209114
  0.6636843095236742  0.9378643925167580  0.5384609860292144
  0.4285570826092595  0.4001241350534812  0.6225057837960435
  0.5711783520485483  0.4000817569241661  0.6225165290228460
  0.4999442863940544  0.4626026790928393  0.6724822356380145
  0.6133998091360269  0.5092228016140012  0.6266823735957772
  0.6403021802717603  0.3343230097296086  0.6742972395689435
  0.3424962001563685  0.4413263247713246  0.6772288628557916