Mo  S Co                                
   1.00000000000000     
    15.9215000000000000    0.0000000000000000    0.0000000000000000
    -7.9622500000000000   13.7910219999999999    0.0000000000000000
     0.0000000000000000    0.0000000000000000   13.5822000000000003
   Mo   S    Co
    25    50     3
Direct
  0.1318002099936066  0.0652379123611553  0.6768896982761703
  0.1326922766650895  0.2660610628962630  0.6809086322414046
  0.1317948091037664  0.4659982438985466  0.6770867558122049
  0.1328338268860421  0.6663011942744603  0.6752487128205260
  0.1328399457811074  0.8659741500793743  0.6751392316096414
  0.3319641443140924  0.0645521677327494  0.6768708476835883
  0.3311057140726135  0.2634068829268017  0.6821143340714215
  0.3310632566889211  0.4671245940447122  0.6821942448217229
  0.3319500706999392  0.6668547782914231  0.6770320133087964
  0.3325091010002623  0.8659780881756873  0.6751368830608513
  0.5328142930952495  0.0652383061852859  0.6768906282286622
  0.5317064276257852  0.2634138345504908  0.6821259349035174
  0.5326685997579119  0.4660774051406449  0.6860714204844527
  0.5316550216145686  0.6676883360524357  0.6821435917196794
  0.5328034252564890  0.8669958580269110  0.6769305577543108
  0.7330240136528019  0.0662082660414001  0.6787574772623515
  0.7327607810305850  0.2660470259424557  0.6809097728595432
  0.7354188653819662  0.4670972434794010  0.6822401351518010
  0.7353985328682882  0.6676785563507863  0.6821799656545764
  0.7327250537791272  0.8660742023490897  0.6808537004914115
  0.9325631794912752  0.0662127923173301  0.6787579840624431
  0.9325724477480932  0.2657602440791393  0.6788556139949407
  0.9335746510249052  0.4659968928650287  0.6770949806934681
  0.9342676921033544  0.6668483712615014  0.6770532180575941
  0.9335619564985080  0.8669892782794903  0.6769405856956823
  0.0660682783259006  0.1341999460606331  0.5637548733578228
  0.0655780847942538  0.1313892888065311  0.7936355986849293
  0.0660677587218998  0.3313720189364133  0.5638647982245431
  0.0655792598722726  0.3335465392443169  0.7937506494101640
  0.0657006188405092  0.5320348654807745  0.5607962234727424
  0.0666508895221298  0.5339230599887159  0.7916147731270584
  0.0657612261530645  0.7325618926453714  0.5601126561115919
  0.0676898804269186  0.7336061657223709  0.7910622500178022
  0.0657021546936534  0.9330756373665352  0.5606249281221238
  0.0666502318766646  0.9321976622267840  0.7914374672875581
  0.2666393393513715  0.1343279863230720  0.5632375814634187
  0.2622402423289714  0.1272602657857149  0.7933109996845786
  0.2671269773649598  0.3333147191329004  0.5677245820866261
  0.2664208784962554  0.3329035072808750  0.8013670212260422
  0.2665792632653350  0.5317727257989233  0.5633993330213087
  0.2622608558883570  0.5344266033278302  0.7934977910697114
  0.2661702914045421  0.7325703854102343  0.5601055378360442
  0.2652927377241312  0.7336072713332413  0.7910541216957512
  0.2661944313170750  0.9330082881917576  0.5600020160005670
  0.2652900982537716  0.9312014765922214  0.7909524586175465
  0.4670726727005672  0.1343234457902440  0.5632393291305320
  0.4644042929076448  0.1272678195703207  0.7933140328054478
  0.4668678016866892  0.3343260499646235  0.5709668232804006
  0.4517194059602048  0.3041091597509151  0.8117320634007044
  0.4667759940313658  0.5319642842030134  0.5709558669822101
  0.4518387072056242  0.5469799761541054  0.8115791891045703
  0.4669928321604147  0.7321629618406504  0.5633207860542555
  0.4644363791837094  0.7365924782222280  0.7934085146598804
  0.4667494281311377  0.9330829919451205  0.5606175771841890
  0.4649277850562541  0.9321990051938513  0.7914365128439869
  0.6675095672362161  0.1341901238289296  0.5637522747384125
  0.6651926303613891  0.1313753911855073  0.7936415778336325
  0.6656033579058445  0.3333101200610002  0.5677360597036341
  0.6658775118700930  0.3328750960220717  0.8013826708153431
  0.6645336224105733  0.5319369805245344  0.5710241285189639
  0.6946426119279110  0.5470636868202661  0.8117270759175810
  0.6655202337937709  0.7316329140035265  0.5677011564007231
  0.6658282488054112  0.7322906351373462  0.8013171814358842
  0.6674674692367617  0.9327228929049767  0.5637451582565589
  0.6652172319683061  0.9331967963364747  0.7936300987911125
  0.8660749308162181  0.1327764483898122  0.5634125046138152
  0.8660293940285086  0.1326815328810440  0.7940492952500335
  0.8646955989434204  0.3313788085374796  0.5638653286581317
  0.8673670150484227  0.3335466418551221  0.7937591087875262
  0.8645515640855166  0.5317646054012855  0.5634240259357313
  0.8715405368893840  0.5344157097915883  0.7935204060757712
  0.8645234400743576  0.7321407715139188  0.5633444398457996
  0.8715375457350376  0.7365988721653238  0.7934318999738252
  0.8646362920002417  0.9327172994146693  0.5637500078790509
  0.8673630763652653  0.9332002303013311  0.7936335506361019
  0.4258346416780583  0.4125912143727675  0.8589828560460901
  0.5859790387930914  0.5725276287890750  0.8592557410095267
  0.5861674160320689  0.4126039837202597  0.8588237794720754
 
  0.00000000E+00  0.00000000E+00  0.00000000E+00
  0.00000000E+00  0.00000000E+00  0.00000000E+00
  0.00000000E+00  0.00000000E+00  0.00000000E+00
  0.00000000E+00  0.00000000E+00  0.00000000E+00
  0.00000000E+00  0.00000000E+00  0.00000000E+00
  0.00000000E+00  0.00000000E+00  0.00000000E+00
  0.00000000E+00  0.00000000E+00  0.00000000E+00
  0.00000000E+00  0.00000000E+00  0.00000000E+00
  0.00000000E+00  0.00000000E+00  0.00000000E+00
  0.00000000E+00  0.00000000E+00  0.00000000E+00
  0.00000000E+00  0.00000000E+00  0.00000000E+00
  0.00000000E+00  0.00000000E+00  0.00000000E+00
  0.00000000E+00  0.00000000E+00  0.00000000E+00
  0.00000000E+00  0.00000000E+00  0.00000000E+00
  0.00000000E+00  0.00000000E+00  0.00000000E+00
  0.00000000E+00  0.00000000E+00  0.00000000E+00
  0.00000000E+00  0.00000000E+00  0.00000000E+00
  0.00000000E+00  0.00000000E+00  0.00000000E+00
  0.00000000E+00  0.00000000E+00  0.00000000E+00
  0.00000000E+00  0.00000000E+00  0.00000000E+00
  0.00000000E+00  0.00000000E+00  0.00000000E+00
  0.00000000E+00  0.00000000E+00  0.00000000E+00
  0.00000000E+00  0.00000000E+00  0.00000000E+00
  0.00000000E+00  0.00000000E+00  0.00000000E+00
  0.00000000E+00  0.00000000E+00  0.00000000E+00
  0.00000000E+00  0.00000000E+00  0.00000000E+00
  0.00000000E+00  0.00000000E+00  0.00000000E+00
  0.00000000E+00  0.00000000E+00  0.00000000E+00
  0.00000000E+00  0.00000000E+00  0.00000000E+00
  0.00000000E+00  0.00000000E+00  0.00000000E+00
  0.00000000E+00  0.00000000E+00  0.00000000E+00
  0.00000000E+00  0.00000000E+00  0.00000000E+00
  0.00000000E+00  0.00000000E+00  0.00000000E+00
  0.00000000E+00  0.00000000E+00  0.00000000E+00
  0.00000000E+00  0.00000000E+00  0.00000000E+00
  0.00000000E+00  0.00000000E+00  0.00000000E+00
  0.00000000E+00  0.00000000E+00  0.00000000E+00
  0.00000000E+00  0.00000000E+00  0.00000000E+00
  0.00000000E+00  0.00000000E+00  0.00000000E+00
  0.00000000E+00  0.00000000E+00  0.00000000E+00
  0.00000000E+00  0.00000000E+00  0.00000000E+00
  0.00000000E+00  0.00000000E+00  0.00000000E+00
  0.00000000E+00  0.00000000E+00  0.00000000E+00
  0.00000000E+00  0.00000000E+00  0.00000000E+00
  0.00000000E+00  0.00000000E+00  0.00000000E+00
  0.00000000E+00  0.00000000E+00  0.00000000E+00
  0.00000000E+00  0.00000000E+00  0.00000000E+00
  0.00000000E+00  0.00000000E+00  0.00000000E+00
  0.00000000E+00  0.00000000E+00  0.00000000E+00
  0.00000000E+00  0.00000000E+00  0.00000000E+00
  0.00000000E+00  0.00000000E+00  0.00000000E+00
  0.00000000E+00  0.00000000E+00  0.00000000E+00
  0.00000000E+00  0.00000000E+00  0.00000000E+00
  0.00000000E+00  0.00000000E+00  0.00000000E+00
  0.00000000E+00  0.00000000E+00  0.00000000E+00
  0.00000000E+00  0.00000000E+00  0.00000000E+00
  0.00000000E+00  0.00000000E+00  0.00000000E+00
  0.00000000E+00  0.00000000E+00  0.00000000E+00
  0.00000000E+00  0.00000000E+00  0.00000000E+00
  0.00000000E+00  0.00000000E+00  0.00000000E+00
  0.00000000E+00  0.00000000E+00  0.00000000E+00
  0.00000000E+00  0.00000000E+00  0.00000000E+00
  0.00000000E+00  0.00000000E+00  0.00000000E+00
  0.00000000E+00  0.00000000E+00  0.00000000E+00
  0.00000000E+00  0.00000000E+00  0.00000000E+00
  0.00000000E+00  0.00000000E+00  0.00000000E+00
  0.00000000E+00  0.00000000E+00  0.00000000E+00
  0.00000000E+00  0.00000000E+00  0.00000000E+00
  0.00000000E+00  0.00000000E+00  0.00000000E+00
  0.00000000E+00  0.00000000E+00  0.00000000E+00
  0.00000000E+00  0.00000000E+00  0.00000000E+00
  0.00000000E+00  0.00000000E+00  0.00000000E+00
  0.00000000E+00  0.00000000E+00  0.00000000E+00
  0.00000000E+00  0.00000000E+00  0.00000000E+00
  0.00000000E+00  0.00000000E+00  0.00000000E+00
  0.00000000E+00  0.00000000E+00  0.00000000E+00
  0.00000000E+00  0.00000000E+00  0.00000000E+00
  0.00000000E+00  0.00000000E+00  0.00000000E+00
