Mo S                                    
   1.00000000000000     
    15.9214998300000001    0.0000000000000000    0.0000000000000000
    -7.9622501300000001   13.7910216400000003    0.0000000000000000
     0.0000000000000000    0.0000000000000000   13.5821998300000004
   Mo   S 
    25    50
Direct
  0.1326799810568247  0.0658301262266221  0.6789216942333880
  0.1326799798093106  0.2658301104192375  0.6789216942333880
  0.1326799981434377  0.4658301337677599  0.6789216942333880
  0.1326799636076004  0.6658301179603754  0.6789216942333880
  0.1326799627227047  0.8658301028780926  0.6789216942333880
  0.3326799674902645  0.0658301262266221  0.6789216942333880
  0.3326799662427504  0.2658301104192375  0.6789216942333880
  0.3326799845768775  0.4658301337677599  0.6789216942333880
  0.3326799833293563  0.6658301179603754  0.6789216942333880
  0.3326799824444606  0.8658301028780926  0.6789216942333880
  0.5326799878401118  0.0658301262266221  0.6789216942333880
  0.5326799865925906  0.2658301104192375  0.6789216942333880
  0.5326800049267177  0.4658301337677599  0.6789216942333880
  0.5326799703908804  0.6658301179603754  0.6789216942333880
  0.5326799695059847  0.8658301028780926  0.6789216942333880
  0.7326799742735446  0.0658301262266221  0.6789216942333880
  0.7326799730260305  0.2658301104192375  0.6789216942333880
  0.7326799913601576  0.4658301337677599  0.6789216942333880
  0.7326799901126364  0.6658301179603754  0.6789216942333880
  0.7326799892277407  0.8658301028780926  0.6789216942333880
  0.9326799939953077  0.0658301262266221  0.6789216942333880
  0.9326799927477865  0.2658301104192375  0.6789216942333880
  0.9326799777935975  0.4658301337677599  0.6789216942333880
  0.9326799765460763  0.6658301179603754  0.6789216942333880
  0.9326799756611805  0.8658301028780926  0.6789216942333880
  0.0660177294941278  0.1325009154522903  0.5638352860966833
  0.0660177294941278  0.1325009154522903  0.7940081023700856
  0.0660177286092321  0.3325009003700146  0.5638352860966833
  0.0660177286092321  0.3325009003700146  0.7940081023700856
  0.0660177465807337  0.5325009229934281  0.5638352860966833
  0.0660177465807337  0.5325009229934281  0.7940081023700856
  0.0660177456958380  0.7325009079111524  0.5638352860966833
  0.0660177456958380  0.7325009079111524  0.7940081023700856
  0.0660177111600007  0.9325008921037679  0.5638352860966833
  0.0660177111600007  0.9325008921037679  0.7940081023700856
  0.2660177159275676  0.1325009154522903  0.5638352860966833
  0.2660177159275676  0.1325009154522903  0.7940081023700856
  0.2660177150426719  0.3325009003700146  0.5638352860966833
  0.2660177150426719  0.3325009003700146  0.7940081023700856
  0.2660177330141735  0.5325009229934281  0.5638352860966833
  0.2660177330141735  0.5325009229934281  0.7940081023700856
  0.2660177321292778  0.7325009079111524  0.5638352860966833
  0.2660177321292778  0.7325009079111524  0.7940081023700856
  0.2660177308817566  0.9325008921037679  0.5638352860966833
  0.2660177308817566  0.9325008921037679  0.7940081023700856
  0.4660177362774078  0.1325009154522903  0.5638352860966833
  0.4660177362774078  0.1325009154522903  0.7940081023700856
  0.4660177353925121  0.3325009003700146  0.5638352860966833
  0.4660177353925121  0.3325009003700146  0.7940081023700856
  0.4660177533640137  0.5325009229934281  0.5638352860966833
  0.4660177533640137  0.5325009229934281  0.7940081023700856
  0.4660177191907948  0.7325009079111524  0.5638352860966833
  0.4660177191907948  0.7325009079111524  0.7940081023700856
  0.4660177179432807  0.9325008921037679  0.5638352860966833
  0.4660177179432807  0.9325008921037679  0.7940081023700856
  0.6660177227108477  0.1325009154522903  0.5638352860966833
  0.6660177227108477  0.1325009154522903  0.7940081023700856
  0.6660177218259520  0.3325009003700146  0.5638352860966833
  0.6660177218259520  0.3325009003700146  0.7940081023700856
  0.6660177397974536  0.5325009229934281  0.5638352860966833
  0.6660177397974536  0.5325009229934281  0.7940081023700856
  0.6660177389125579  0.7325009079111524  0.5638352860966833
  0.6660177389125579  0.7325009079111524  0.7940081023700856
  0.6660177376650367  0.9325008921037679  0.5638352860966833
  0.6660177376650367  0.9325008921037679  0.7940081023700856
  0.8660177424326037  0.1325009154522903  0.5638352860966833
  0.8660177424326037  0.1325009154522903  0.7940081023700856
  0.8660177415477079  0.3325009003700146  0.5638352860966833
  0.8660177415477079  0.3325009003700146  0.7940081023700856
  0.8660177595192096  0.5325009229934281  0.5638352860966833
  0.8660177595192096  0.5325009229934281  0.7940081023700856
  0.8660177253459977  0.7325009079111524  0.5638352860966833
  0.8660177253459977  0.7325009079111524  0.7940081023700856
  0.8660177240984765  0.9325008921037679  0.5638352860966833
  0.8660177240984765  0.9325008921037679  0.7940081023700856
 
  0.00000000E+00  0.00000000E+00  0.00000000E+00
  0.00000000E+00  0.00000000E+00  0.00000000E+00
  0.00000000E+00  0.00000000E+00  0.00000000E+00
  0.00000000E+00  0.00000000E+00  0.00000000E+00
  0.00000000E+00  0.00000000E+00  0.00000000E+00
  0.00000000E+00  0.00000000E+00  0.00000000E+00
  0.00000000E+00  0.00000000E+00  0.00000000E+00
  0.00000000E+00  0.00000000E+00  0.00000000E+00
  0.00000000E+00  0.00000000E+00  0.00000000E+00
  0.00000000E+00  0.00000000E+00  0.00000000E+00
  0.00000000E+00  0.00000000E+00  0.00000000E+00
  0.00000000E+00  0.00000000E+00  0.00000000E+00
  0.00000000E+00  0.00000000E+00  0.00000000E+00
  0.00000000E+00  0.00000000E+00  0.00000000E+00
  0.00000000E+00  0.00000000E+00  0.00000000E+00
  0.00000000E+00  0.00000000E+00  0.00000000E+00
  0.00000000E+00  0.00000000E+00  0.00000000E+00
  0.00000000E+00  0.00000000E+00  0.00000000E+00
  0.00000000E+00  0.00000000E+00  0.00000000E+00
  0.00000000E+00  0.00000000E+00  0.00000000E+00
  0.00000000E+00  0.00000000E+00  0.00000000E+00
  0.00000000E+00  0.00000000E+00  0.00000000E+00
  0.00000000E+00  0.00000000E+00  0.00000000E+00
  0.00000000E+00  0.00000000E+00  0.00000000E+00
  0.00000000E+00  0.00000000E+00  0.00000000E+00
  0.00000000E+00  0.00000000E+00  0.00000000E+00
  0.00000000E+00  0.00000000E+00  0.00000000E+00
  0.00000000E+00  0.00000000E+00  0.00000000E+00
  0.00000000E+00  0.00000000E+00  0.00000000E+00
  0.00000000E+00  0.00000000E+00  0.00000000E+00
  0.00000000E+00  0.00000000E+00  0.00000000E+00
  0.00000000E+00  0.00000000E+00  0.00000000E+00
  0.00000000E+00  0.00000000E+00  0.00000000E+00
  0.00000000E+00  0.00000000E+00  0.00000000E+00
  0.00000000E+00  0.00000000E+00  0.00000000E+00
  0.00000000E+00  0.00000000E+00  0.00000000E+00
  0.00000000E+00  0.00000000E+00  0.00000000E+00
  0.00000000E+00  0.00000000E+00  0.00000000E+00
  0.00000000E+00  0.00000000E+00  0.00000000E+00
  0.00000000E+00  0.00000000E+00  0.00000000E+00
  0.00000000E+00  0.00000000E+00  0.00000000E+00
  0.00000000E+00  0.00000000E+00  0.00000000E+00
  0.00000000E+00  0.00000000E+00  0.00000000E+00
  0.00000000E+00  0.00000000E+00  0.00000000E+00
  0.00000000E+00  0.00000000E+00  0.00000000E+00
  0.00000000E+00  0.00000000E+00  0.00000000E+00
  0.00000000E+00  0.00000000E+00  0.00000000E+00
  0.00000000E+00  0.00000000E+00  0.00000000E+00
  0.00000000E+00  0.00000000E+00  0.00000000E+00
  0.00000000E+00  0.00000000E+00  0.00000000E+00
  0.00000000E+00  0.00000000E+00  0.00000000E+00
  0.00000000E+00  0.00000000E+00  0.00000000E+00
  0.00000000E+00  0.00000000E+00  0.00000000E+00
  0.00000000E+00  0.00000000E+00  0.00000000E+00
  0.00000000E+00  0.00000000E+00  0.00000000E+00
  0.00000000E+00  0.00000000E+00  0.00000000E+00
  0.00000000E+00  0.00000000E+00  0.00000000E+00
  0.00000000E+00  0.00000000E+00  0.00000000E+00
  0.00000000E+00  0.00000000E+00  0.00000000E+00
  0.00000000E+00  0.00000000E+00  0.00000000E+00
  0.00000000E+00  0.00000000E+00  0.00000000E+00
  0.00000000E+00  0.00000000E+00  0.00000000E+00
  0.00000000E+00  0.00000000E+00  0.00000000E+00
  0.00000000E+00  0.00000000E+00  0.00000000E+00
  0.00000000E+00  0.00000000E+00  0.00000000E+00
  0.00000000E+00  0.00000000E+00  0.00000000E+00
  0.00000000E+00  0.00000000E+00  0.00000000E+00
  0.00000000E+00  0.00000000E+00  0.00000000E+00
  0.00000000E+00  0.00000000E+00  0.00000000E+00
  0.00000000E+00  0.00000000E+00  0.00000000E+00
  0.00000000E+00  0.00000000E+00  0.00000000E+00
  0.00000000E+00  0.00000000E+00  0.00000000E+00
  0.00000000E+00  0.00000000E+00  0.00000000E+00
  0.00000000E+00  0.00000000E+00  0.00000000E+00
  0.00000000E+00  0.00000000E+00  0.00000000E+00
