Mo  S Cu                                
   1.00000000000000     
    15.9214998300000001    0.0000000000000000    0.0000000000000000
    -7.9622501300000001   13.7910221699999997    0.0000000000000000
     0.0000000000000000    0.0000000000000000   13.5821998300000004
   Mo   S    Cu
    25    50     3
Direct
  0.1327508924838909  0.0661294371994501  0.6734764906833206
  0.1315769086425931  0.2650129312008289  0.6729698807500313
  0.1325305056154988  0.4650641108895073  0.6771415507599201
  0.1320466421871700  0.6653879018349684  0.6795977213242210
  0.1327171377246543  0.8660993720900407  0.6770838325041879
  0.3325163354042004  0.0658232243857171  0.6759267953609793
  0.3319248714167244  0.2654454389174390  0.6769524452596301
  0.3322512356417491  0.4655694726953072  0.6773166290682795
  0.3328583838396000  0.6657018435850404  0.6773687377347102
  0.3327237891190862  0.8658913308978242  0.6770235005917868
  0.5328246663972962  0.0656726453238363  0.6772900606891099
  0.5326243062596134  0.2666587799523867  0.6787155284522939
  0.5313327024217998  0.4638137481764204  0.6795515510059360
  0.5329150631913748  0.6666782658816288  0.6773810405278695
  0.5325576478765157  0.8659206422517229  0.6760998164017096
  0.7329769643707635  0.0659575993299413  0.6752719803534006
  0.7332879442681346  0.2659327618307330  0.6819393644700824
  0.7330887718960071  0.4655318109610960  0.6870329880499071
  0.7327078660218334  0.6655290808235890  0.6824928714240954
  0.7331887480927719  0.8659531577455937  0.6753563702635716
  0.9324365281074947  0.0655272987463391  0.6725093708148506
  0.9325426895663469  0.2649699448868432  0.6753920874933570
  0.9332760780742078  0.4649591668794670  0.6808804199887746
  0.9336580987201017  0.6670398162844648  0.6817989101158233
  0.9329703112847270  0.8666078277451206  0.6752016995876318
  0.0660615977314905  0.1323811936348704  0.5576420185083322
  0.0649979605913558  0.1316944806898093  0.7873564557981325
  0.0651878226651590  0.3329167178052970  0.5602383194849807
  0.0656882743078384  0.3304638302440566  0.7898474820211803
  0.0645082617524864  0.5320491734832444  0.5647779381939486
  0.0678162009769849  0.5318507755880404  0.7944355026842302
  0.0643695199245329  0.7310280217675995  0.5649011886082889
  0.0685225678565828  0.7349842186404558  0.7950490201417821
  0.0658482944828123  0.9313325004682653  0.5603584576381593
  0.0664938848628509  0.9345180457283959  0.7898248318842747
  0.2673776265890382  0.1332639934544844  0.5603511077040650
  0.2643864505109619  0.1312250381367122  0.7900678139847628
  0.2671299525962354  0.3333336262099280  0.5610121143937761
  0.2634939008245922  0.3307774031390665  0.7920195159707788
  0.2659931676653073  0.5324551120082930  0.5625062776655980
  0.2657172395891081  0.5321405993000923  0.7919835825953356
  0.2645958757542815  0.7315440067679404  0.5636105468739814
  0.2668323009262039  0.7329150888705342  0.7924254990645210
  0.2657862031635574  0.9319628353489549  0.5618370106152781
  0.2662900595979139  0.9331363121820502  0.7912916781610946
  0.4677214199905819  0.1345233011663183  0.5629846575776796
  0.4649317038489684  0.1313133221261680  0.7912651732424081
  0.4664887406536948  0.3324371318402157  0.5639126413982325
  0.4630804849519379  0.3313486280450988  0.7970161305082328
  0.4670616553029205  0.5320966786151047  0.5641012061864998
  0.4649508916671508  0.5324979777317722  0.7944725065099476
  0.4660179004009137  0.7321220427888377  0.5620882021511946
  0.4661935408898330  0.7336025449751844  0.7919658239733494
  0.4658375485300184  0.9328476986925693  0.5619058174348481
  0.4660793568472386  0.9321680370720316  0.7916087686293167
  0.6664934139900680  0.1349931815560055  0.5635037801820317
  0.6655489458193742  0.1297960808455656  0.7927550030902708
  0.6679482055722090  0.3347413828617718  0.5689431529998217
  0.6654260075523482  0.3300723786806827  0.8019396665393259
  0.6674034200726382  0.5311671570036651  0.5693935215032511
  0.6650404680915898  0.5335072570555823  0.8022019678680579
  0.6664104487290459  0.7301711507230806  0.5639194350912575
  0.6658526641912061  0.7350382787890410  0.7930704624411078
  0.6656059037117998  0.9321740130572991  0.5607117563849897
  0.6666785208641173  0.9328378097612031  0.7897761788609330
  0.8653906993467615  0.1330749253930108  0.5591240279843106
  0.8665057404780327  0.1310237353634349  0.7890526184457727
  0.8649448159791930  0.3335150415405792  0.5651241817317754
  0.8668721893257256  0.3307085733479553  0.7977940397355425
  0.8646769542676935  0.5319874640638460  0.5699263064934570
  0.8694662436841867  0.5341310241307085  0.8028843799249685
  0.8646922477798284  0.7296986950963031  0.5658589648478127
  0.8671919018686083  0.7351017081282620  0.7980406657122217
  0.8655588406773660  0.9310494375969398  0.5590667128669367
  0.8668500172991571  0.9342434055933069  0.7890713258905819
  0.3959248224314393  0.3982250970767467  0.8945245056529032
  0.7985800501325571  0.5989689272252292  0.9022566034599819
  0.7976125746621747  0.3977406501980099  0.9016799358825764
 
  0.00000000E+00  0.00000000E+00  0.00000000E+00
  0.00000000E+00  0.00000000E+00  0.00000000E+00
  0.00000000E+00  0.00000000E+00  0.00000000E+00
  0.00000000E+00  0.00000000E+00  0.00000000E+00
  0.00000000E+00  0.00000000E+00  0.00000000E+00
  0.00000000E+00  0.00000000E+00  0.00000000E+00
  0.00000000E+00  0.00000000E+00  0.00000000E+00
  0.00000000E+00  0.00000000E+00  0.00000000E+00
  0.00000000E+00  0.00000000E+00  0.00000000E+00
  0.00000000E+00  0.00000000E+00  0.00000000E+00
  0.00000000E+00  0.00000000E+00  0.00000000E+00
  0.00000000E+00  0.00000000E+00  0.00000000E+00
  0.00000000E+00  0.00000000E+00  0.00000000E+00
  0.00000000E+00  0.00000000E+00  0.00000000E+00
  0.00000000E+00  0.00000000E+00  0.00000000E+00
  0.00000000E+00  0.00000000E+00  0.00000000E+00
  0.00000000E+00  0.00000000E+00  0.00000000E+00
  0.00000000E+00  0.00000000E+00  0.00000000E+00
  0.00000000E+00  0.00000000E+00  0.00000000E+00
  0.00000000E+00  0.00000000E+00  0.00000000E+00
  0.00000000E+00  0.00000000E+00  0.00000000E+00
  0.00000000E+00  0.00000000E+00  0.00000000E+00
  0.00000000E+00  0.00000000E+00  0.00000000E+00
  0.00000000E+00  0.00000000E+00  0.00000000E+00
  0.00000000E+00  0.00000000E+00  0.00000000E+00
  0.00000000E+00  0.00000000E+00  0.00000000E+00
  0.00000000E+00  0.00000000E+00  0.00000000E+00
  0.00000000E+00  0.00000000E+00  0.00000000E+00
  0.00000000E+00  0.00000000E+00  0.00000000E+00
  0.00000000E+00  0.00000000E+00  0.00000000E+00
  0.00000000E+00  0.00000000E+00  0.00000000E+00
  0.00000000E+00  0.00000000E+00  0.00000000E+00
  0.00000000E+00  0.00000000E+00  0.00000000E+00
  0.00000000E+00  0.00000000E+00  0.00000000E+00
  0.00000000E+00  0.00000000E+00  0.00000000E+00
  0.00000000E+00  0.00000000E+00  0.00000000E+00
  0.00000000E+00  0.00000000E+00  0.00000000E+00
  0.00000000E+00  0.00000000E+00  0.00000000E+00
  0.00000000E+00  0.00000000E+00  0.00000000E+00
  0.00000000E+00  0.00000000E+00  0.00000000E+00
  0.00000000E+00  0.00000000E+00  0.00000000E+00
  0.00000000E+00  0.00000000E+00  0.00000000E+00
  0.00000000E+00  0.00000000E+00  0.00000000E+00
  0.00000000E+00  0.00000000E+00  0.00000000E+00
  0.00000000E+00  0.00000000E+00  0.00000000E+00
  0.00000000E+00  0.00000000E+00  0.00000000E+00
  0.00000000E+00  0.00000000E+00  0.00000000E+00
  0.00000000E+00  0.00000000E+00  0.00000000E+00
  0.00000000E+00  0.00000000E+00  0.00000000E+00
  0.00000000E+00  0.00000000E+00  0.00000000E+00
  0.00000000E+00  0.00000000E+00  0.00000000E+00
  0.00000000E+00  0.00000000E+00  0.00000000E+00
  0.00000000E+00  0.00000000E+00  0.00000000E+00
  0.00000000E+00  0.00000000E+00  0.00000000E+00
  0.00000000E+00  0.00000000E+00  0.00000000E+00
  0.00000000E+00  0.00000000E+00  0.00000000E+00
  0.00000000E+00  0.00000000E+00  0.00000000E+00
  0.00000000E+00  0.00000000E+00  0.00000000E+00
  0.00000000E+00  0.00000000E+00  0.00000000E+00
  0.00000000E+00  0.00000000E+00  0.00000000E+00
  0.00000000E+00  0.00000000E+00  0.00000000E+00
  0.00000000E+00  0.00000000E+00  0.00000000E+00
  0.00000000E+00  0.00000000E+00  0.00000000E+00
  0.00000000E+00  0.00000000E+00  0.00000000E+00
  0.00000000E+00  0.00000000E+00  0.00000000E+00
  0.00000000E+00  0.00000000E+00  0.00000000E+00
  0.00000000E+00  0.00000000E+00  0.00000000E+00
  0.00000000E+00  0.00000000E+00  0.00000000E+00
  0.00000000E+00  0.00000000E+00  0.00000000E+00
  0.00000000E+00  0.00000000E+00  0.00000000E+00
  0.00000000E+00  0.00000000E+00  0.00000000E+00
  0.00000000E+00  0.00000000E+00  0.00000000E+00
  0.00000000E+00  0.00000000E+00  0.00000000E+00
  0.00000000E+00  0.00000000E+00  0.00000000E+00
  0.00000000E+00  0.00000000E+00  0.00000000E+00
  0.00000000E+00  0.00000000E+00  0.00000000E+00
  0.00000000E+00  0.00000000E+00  0.00000000E+00
  0.00000000E+00  0.00000000E+00  0.00000000E+00
