Ta N Cu Ru                              
   1.00000000000000     
    18.1096308199999996    0.0000000000000000    0.0000000000000000
     0.0000000000000000   11.6775998899999998    0.0000000000000000
     0.0000000000000000    0.0000000000000000   23.4818170799999990
   Ta   N    Cu   Ru
   119   120     1     1
Direct
  0.0000678410040598  0.9997232800569573  0.2549156354345648
  0.3333162169579832  0.1249942328410270  0.2636601339971079
  0.1663349165097965  0.1249944342362617  0.2636108016648252
  0.2497446739423744  0.2500039412645779  0.3611667371484518
  0.0822875547347689  0.1250053453937031  0.3683958805323400
  0.4176203484521274  0.1250146370168106  0.3682447692969519
  0.0003588084157003  0.2501811387546226  0.4801133469536549
  0.3323319838385196  0.1250450819967421  0.4775183978689851
  0.1675829460897956  0.1250305807771882  0.4778345723095434
  0.2499056367866127  0.2523686510587974  0.5904529646153989
  0.0843590262035868  0.1250884188881346  0.5902962845448073
  0.4144878710980580  0.1251393544519450  0.5886611420228220
  0.9991006287301819  0.2501271440463662  0.7019553515282860
  0.1620349779149284  0.1253028892402531  0.7054584616299596
  0.0000693352278169  0.2502747552489085  0.2549131171026623
  0.3333858731790394  0.3750403325362999  0.2636923989232337
  0.1663972619026490  0.3750430510203404  0.2637532696578475
  0.2498389787243038  0.4999566917509645  0.3612498506835923
  0.0823094614699668  0.3749723553945349  0.3685308677893511
  0.4176035317626925  0.3750409848849123  0.3682434293774344
  0.0000724604498117  0.4999807749143561  0.4799399554551799
  0.3321418150187323  0.3751406615636544  0.4777037916345658
  0.1676999243064961  0.3752330158294842  0.4781589361363844
  0.2501995534369724  0.4994371970834092  0.5910650665918380
  0.0840592687315941  0.3751069437969592  0.5901876722487773
  0.4166332528261127  0.3764159269251910  0.5890474139178820
  0.9993552646993211  0.5002442763037900  0.7020810972867156
  0.3346310886059664  0.3741081972416721  0.7051772498531265
  0.1629646429590290  0.3778713132515056  0.7049563087609085
  0.0000643557224291  0.4999499505747859  0.2548271880866256
  0.3336262782455108  0.6249954877744482  0.2636251242185582
  0.1663115168040450  0.6249954652079938  0.2637482236372036
  0.2498442359062504  0.7500534105259236  0.3612505461793382
  0.0825567021260645  0.6250028090475936  0.3685565957641364
  0.4174521530758650  0.6250091112896651  0.3682237227834435
  0.0000750754596465  0.7500780116907767  0.4799428111259572
  0.3323071031546085  0.6250428462062051  0.4778841615896728
  0.1674261650205875  0.6250488726253238  0.4782663482806570
  0.2502384623927614  0.7508339924479623  0.5910734918829113
  0.0838372929698794  0.6251120068114205  0.5901582704558943
  0.4164448898925179  0.6251362286994220  0.5899618125833398
  0.9993749565146771  0.7500532097181243  0.7020782738301938
  0.3348357499655376  0.6252135240944632  0.7046060573698134
  0.1647981822605954  0.6253009840088547  0.7042596250620149
  0.0000727202417353  0.7500474358491508  0.2548277943194550
  0.3333816452036474  0.8749784595465946  0.2636954827659557
  0.1663966261442495  0.8749661515803480  0.2637562984430483
  0.2497429934069511  0.0000311887109323  0.3611605055241146
  0.0823162806808496  0.8750417026642915  0.3685387499415675
  0.4175920115264662  0.8749816099157064  0.3682551497530687
  0.0003551980546806  0.9998688408412886  0.4801150396725705
  0.3321595893420771  0.8749360612341298  0.4777335608311626
  0.1676953100214888  0.8748609848959448  0.4781724387187220
  0.2499616397304094  0.9979014191127416  0.5904856720817006
  0.0840946363698260  0.8751330864249285  0.5902078994275384
  0.4166727248724887  0.8738087134688977  0.5890954305808025
  0.9992158962068082  0.0001617029724115  0.7019989976457371
  0.3348425251405642  0.8763100208287347  0.7053233367990206
  0.1630857761086935  0.8726378456603562  0.7048498315985398
  0.5001016322254807  0.0000203805892221  0.2547794382792117
  0.8334252354323325  0.1250016538269951  0.2639252051238082
  0.6664861479068328  0.1250062240654884  0.2637929842109993
  0.7499538766152841  0.2500581992396281  0.3613723542599014
  0.5826475781259625  0.1250036534060806  0.3684470849585254
  0.9172612951211206  0.1249981110319940  0.3684596798325074
  0.5000559322273290  0.2501582221231923  0.4796740646051439
  0.8322304297657620  0.1250074198728570  0.4782309420631266
  0.6672886496049052  0.1250164902189829  0.4782552006713796
  0.7497675990486525  0.2499993541998697  0.5909870914268441
  0.5829236642820412  0.1250448762889316  0.5903413952872452
  0.9162893508307048  0.1250375883146583  0.5898832406482418
  0.5005546381166922  0.2495755427186566  0.7020136182242241
  0.8350418473757182  0.1250240679599752  0.7039717340456181
  0.6649089175934024  0.1250190151347415  0.7041960375361898
  0.5000992181417064  0.2499768761458911  0.2547758841325379
  0.8334821264293019  0.3749114646238371  0.2638523183681675
  0.6665219749119207  0.3750697943149779  0.2637563821356776
  0.7499074221815055  0.4998691765851944  0.3613520547759753
  0.5825853349796579  0.3750617875468384  0.3684413157922543
  0.9174056558367165  0.3749920227756096  0.3685096384887818
  0.4999394921659441  0.5000702383105371  0.4797459606079449
  0.8323437635564926  0.3749822710124009  0.4781437201181103
  0.6673573109842659  0.3750007845895978  0.4782163710949771
  0.7499759515451112  0.4998877151692074  0.5907867718158386
  0.5836429005981626  0.3750300302218257  0.5899293052901086
  0.9163085818283432  0.3749940932877343  0.5897826306564440
  0.5001811618768981  0.4992860380958137  0.7025112640479768
  0.8350149365540717  0.3747353431319236  0.7042063412252002
  0.6645602952703855  0.3744341608158023  0.7040464084111121
  0.5000808006540831  0.4999267096094036  0.2547084562741824
  0.8335830597353578  0.6250008649556855  0.2638462586831855
  0.6664523000426017  0.6250051342797014  0.2637643917134886
  0.7499114462490603  0.7501333306009378  0.3613547114175172
  0.5825936745687528  0.6250037446557035  0.3683831521587109
  0.9173331179458816  0.6249967717330976  0.3684304653066110
  0.4999410584679533  0.7500042838139253  0.4797526603569303
  0.8323784778464619  0.6249998464968790  0.4781347662283881
  0.6675087992495345  0.6250140863437731  0.4781312645993618
  0.7499686456461594  0.7501503556183459  0.5907846833848802
  0.5834890167239870  0.6250439435688987  0.5899630237098691
  0.9164649104465018  0.6250451687186841  0.5898365879470594
  0.5001899447967638  0.7508964921381713  0.7025416897667208
  0.8348757414285700  0.6250349027296944  0.7040753238279102
  0.6652324722142423  0.6250308932772396  0.7042021419310008
  0.5000734686440915  0.7500769190603137  0.2547110993568311
  0.8334838736471006  0.8750733313681537  0.2638531719109665
  0.6665228608378927  0.8749170711657701  0.2637609427105828
  0.7499553834372793  0.9999384768120939  0.3613770165649738
  0.5825815165825631  0.8749471595724037  0.3684424040026726
  0.9174098039322509  0.8750043232296429  0.3685100347260237
  0.5000501509793533  0.9999280935207230  0.4796815609169356
  0.8323467846628609  0.8750331741229044  0.4781519122750607
  0.6673503189111358  0.8750313508669022  0.4782234835280307
  0.7497687916686659  0.0000314217146197  0.5909857663190484
  0.5836495568883985  0.8750916499598911  0.5899447902059579
  0.9163200720630826  0.8750882741840063  0.5897958100831112
  0.5004664426297714  0.0007028969808445  0.7021162360434217
  0.8350249708524420  0.8752898886291319  0.7041951846865655
  0.6645458642784634  0.8756319559822197  0.7040569461997359
  0.4068653360886994  0.0000425993479068  0.3009892513388098
  0.2498814325561089  0.0000216736513413  0.2576996345652598
  0.0931559739811512  0.9999998925674285  0.3012626749247804
  0.1543444135425062  0.2501521761675391  0.4099589880630845
  0.9999217547402124  0.2499761755128108  0.3933749142711386
  0.3454041353243149  0.2501818449608954  0.4095680808564391
  0.4008321365589526  0.2501289692638695  0.5215633212688791
  0.2499797079334490  0.2500227882869727  0.5025808413825182
  0.0994170386476808  0.2502307530360386  0.5222740057571196
  0.1525834225255799  0.2503492754426002  0.6342566045211694
  0.0002059194911345  0.2499045483203218  0.6134050300491065
  0.3475529982703320  0.2551046322356045  0.6317168456583601
  0.4027784847376522  0.2484292487845596  0.7395717554329982
  0.2491344765262093  0.2521912348098070  0.7307898760042016
  0.0958432866451959  0.2502007137103557  0.7410315495336710
  0.4068663674870343  0.2499686271895933  0.3009832934947656
  0.2498835974955705  0.2499796111999904  0.2577374456175532
  0.0931560828183593  0.2499986998241812  0.3012577904357356
  0.1544331511920062  0.4999179375275546  0.4100364810399716
  0.9999627273962454  0.5000639177148117  0.3932390239047142
  0.3454960716062513  0.4999935681711046  0.4097437698448358
  0.4007718847436467  0.5003499327064320  0.5217753537857847
  0.2500716377064707  0.5003475759555458  0.5028729729954591
  0.0991404052025445  0.4997354084817265  0.5222094849079858
  0.1518709595213779  0.5002434924409411  0.6335121694964352
  0.0000437188846158  0.4997312854071240  0.6132553002371155
  0.3484842806225973  0.4998464388625481  0.6333010551427635
  0.4021423340955602  0.4984234634230232  0.7404805938510240
  0.2498653570580764  0.4997916580172838  0.7242255025599924
  0.0964753691028560  0.5005747685586065  0.7408512153000140
  0.4068876382396819  0.4999661344211221  0.3010331023322208
  0.2499335274886017  0.5001129370436513  0.2578623514577480
  0.0931553481441041  0.4999484758074181  0.3012556939872742
  0.1544408094867889  0.7501330319596349  0.4100454883427229
  0.9999631355282808  0.7499343961948303  0.3932387425664478
  0.3454920046173611  0.7500519508588981  0.4097553196648630
  0.4007859946795939  0.7498160400700292  0.5218028086419790
  0.2500752031690172  0.7497642347900947  0.5028854715615001
  0.0991375982458952  0.7504258605041186  0.5222209163315917
  0.1519171102404592  0.7501172946559309  0.6335303749119081
  0.0000620641888932  0.7504537492600526  0.6132679960908233
  0.3485195124583199  0.7504765229483458  0.6333427807342957
  0.4022117654732978  0.7517497483613583  0.7405482086711408
  0.2498886881052367  0.7511679255532221  0.7242794091545882
  0.0965209303435185  0.7501115655385494  0.7408000462577433
  0.4068813357854817  0.7500448190575748  0.3010385508942702
  0.2499358408331375  0.7498874251391237  0.2578733524465116
  0.0931612829135276  0.7500537497764180  0.3012572543607189
  0.1543532853901063  0.9998893015632323  0.4099677116634955
  0.9999232974342794  0.0000310148092360  0.3933723269915408
  0.3453993734569360  0.9998645587602800  0.4095785474274164
  0.4008371143487497  0.0000042076176963  0.5215921706707987
  0.2499889748140230  0.0000829323841290  0.5026154593484417
  0.0994091227227716  0.9998747272241719  0.5222878223103670
  0.1526475016835931 -0.0000095476719772  0.6342648410001248
  0.0002286122698713  0.0002191220498979  0.6134571273901746
  0.3476986457969357  0.9952201126400890  0.6318078096523752
  0.4029392829007252  0.0011951168395225  0.7400394601014385
  0.2499288944760665  0.0000602459050886  0.7303356914106980
  0.0961252519383193  0.0001574223260591  0.7410560809096285
  0.9068909713724747  0.9999942613670397  0.3012639725960717
  0.7499584493217785 -0.0000046147653099  0.2576420679970750
  0.5932649826800159  0.9999375966804919  0.3012007579514156
  0.6544106279393885  0.2500051531443391  0.4099838583239261
  0.5000230142430077  0.2500776251473326  0.3930769216897870
  0.8454341674987105  0.2500006196638667  0.4100105320976168
  0.9010531462604348  0.2499850739834043  0.5219737684947162
  0.7497851177296868  0.2500775293748025  0.5028992693024450
  0.5988005088690016  0.2499697106659582  0.5222276809267337
  0.6513430594169036  0.2501900791164683  0.6334672512400902
  0.4987184913504663  0.2500171253703411  0.6135140208114384
  0.8480931459702538  0.2502753760527302  0.6331676879550089
  0.9028565390840615  0.2498974945535694  0.7405145639165017
  0.7500129938905445  0.2499923670195064  0.7239640829922284
  0.5965856694617981  0.2497492566325933  0.7408056043720497
  0.9068940146809371  0.2499999639708491  0.3012639733081222
  0.7499595281457987  0.2499993782149962  0.2576232373231662
  0.5932665795731296  0.2500656458957569  0.3012016226861015
  0.6544267261190275  0.4999336018220111  0.4099543251524869
  0.4999978552076544  0.5001026412046611  0.3930564784018141
  0.8454663232099254  0.4999611628918151  0.4099089118775417
  0.9009305140634134  0.4998962740246585  0.5220156126765259
  0.7499174630771402  0.4999886778136903  0.5027431596612367
  0.5988634588849756  0.5001021795789018  0.5220846697913115
  0.6517574289448170  0.5002493268699411  0.6330493421910947
  0.4998732535286755  0.5002170738110918  0.6136587211799061
  0.8482705955517614  0.5000046138115175  0.6331465978975807
  0.9029923655491056  0.5003457302957380  0.7403997231512087
  0.7497670656390021  0.5000049072925262  0.7236923623607100
  0.5966595484711257  0.5002333716118065  0.7402520498792567
  0.9068651865649713  0.4999006844119985  0.3012225442477989
  0.7500548140221734  0.5000441193923465  0.2578199186445563
  0.5931626274136711  0.5000123159626995  0.3012009600420891
  0.6544263130901551  0.7500812961033426  0.4099563284176893
  0.4999927401352065  0.7499110555401928  0.3930595964976445
  0.8454701526698487  0.7500368523701264  0.4099105517123092
  0.9009343350104164  0.7501454423923567  0.5220258020940871
  0.7499128537409262  0.7500239800711903  0.5027404023495199
  0.5988675918856780  0.7499535537799569  0.5220921730750080
  0.6517561787649415  0.7498053812416701  0.6330549608168878
  0.4998926132149771  0.7499623292748729  0.6136786489614449
  0.8482678738951186  0.7500356425352684  0.6331499294172189
  0.9030110512300745  0.7497221968466873  0.7403945482995771
  0.7497751538247099  0.7500359507061815  0.7236923021677750
  0.5966711262911811  0.7498139235018981  0.7402593555015252
  0.9068720318812057  0.7500943671342664  0.3012222687355173
  0.7500564390795883  0.7499545302810572  0.2577987787585284
  0.5931554079978425  0.7499872645650216  0.3012024380946502
  0.6544057231301131  0.0000018997103639  0.4099859025303297
  0.5000197840756738  0.9999465858668712  0.3930811700944611
  0.8454376150336405  0.9999988375981779  0.4100127716261437
  0.9010558522980946  0.0000490536140043  0.5219816387526819
  0.7497859661684747  0.9999391286760684  0.5028980561964000
  0.5987996227264702  0.0000932591545130  0.5222399555242085
  0.6513438704184320  0.9998917708615480  0.6334817592630528
  0.4987129105673972  0.0001613550541156  0.6135663806892235
  0.8480956034658846  0.9997719124180370  0.6331677794580910
  0.9029336017509617  0.0001271553712664  0.7404893495718851
  0.7500288923531430  0.0000439000188376  0.7239809892482039
  0.5965793351483002  0.0002662843838018  0.7408135649848830
  0.2633144582293813  0.1264328908153633  0.7860138587256555
  0.3435884180376201  0.1248096456702863  0.6951267159688898
 
  0.00000000E+00  0.00000000E+00  0.00000000E+00
  0.00000000E+00  0.00000000E+00  0.00000000E+00
  0.00000000E+00  0.00000000E+00  0.00000000E+00
  0.00000000E+00  0.00000000E+00  0.00000000E+00
  0.00000000E+00  0.00000000E+00  0.00000000E+00
  0.00000000E+00  0.00000000E+00  0.00000000E+00
  0.00000000E+00  0.00000000E+00  0.00000000E+00
  0.00000000E+00  0.00000000E+00  0.00000000E+00
  0.00000000E+00  0.00000000E+00  0.00000000E+00
  0.00000000E+00  0.00000000E+00  0.00000000E+00
  0.00000000E+00  0.00000000E+00  0.00000000E+00
  0.00000000E+00  0.00000000E+00  0.00000000E+00
  0.00000000E+00  0.00000000E+00  0.00000000E+00
  0.00000000E+00  0.00000000E+00  0.00000000E+00
  0.00000000E+00  0.00000000E+00  0.00000000E+00
  0.00000000E+00  0.00000000E+00  0.00000000E+00
  0.00000000E+00  0.00000000E+00  0.00000000E+00
  0.00000000E+00  0.00000000E+00  0.00000000E+00
  0.00000000E+00  0.00000000E+00  0.00000000E+00
  0.00000000E+00  0.00000000E+00  0.00000000E+00
  0.00000000E+00  0.00000000E+00  0.00000000E+00
  0.00000000E+00  0.00000000E+00  0.00000000E+00
  0.00000000E+00  0.00000000E+00  0.00000000E+00
  0.00000000E+00  0.00000000E+00  0.00000000E+00
  0.00000000E+00  0.00000000E+00  0.00000000E+00
  0.00000000E+00  0.00000000E+00  0.00000000E+00
  0.00000000E+00  0.00000000E+00  0.00000000E+00
  0.00000000E+00  0.00000000E+00  0.00000000E+00
  0.00000000E+00  0.00000000E+00  0.00000000E+00
  0.00000000E+00  0.00000000E+00  0.00000000E+00
  0.00000000E+00  0.00000000E+00  0.00000000E+00
  0.00000000E+00  0.00000000E+00  0.00000000E+00
  0.00000000E+00  0.00000000E+00  0.00000000E+00
  0.00000000E+00  0.00000000E+00  0.00000000E+00
  0.00000000E+00  0.00000000E+00  0.00000000E+00
  0.00000000E+00  0.00000000E+00  0.00000000E+00
  0.00000000E+00  0.00000000E+00  0.00000000E+00
  0.00000000E+00  0.00000000E+00  0.00000000E+00
  0.00000000E+00  0.00000000E+00  0.00000000E+00
  0.00000000E+00  0.00000000E+00  0.00000000E+00
  0.00000000E+00  0.00000000E+00  0.00000000E+00
  0.00000000E+00  0.00000000E+00  0.00000000E+00
  0.00000000E+00  0.00000000E+00  0.00000000E+00
  0.00000000E+00  0.00000000E+00  0.00000000E+00
  0.00000000E+00  0.00000000E+00  0.00000000E+00
  0.00000000E+00  0.00000000E+00  0.00000000E+00
  0.00000000E+00  0.00000000E+00  0.00000000E+00
  0.00000000E+00  0.00000000E+00  0.00000000E+00
  0.00000000E+00  0.00000000E+00  0.00000000E+00
  0.00000000E+00  0.00000000E+00  0.00000000E+00
  0.00000000E+00  0.00000000E+00  0.00000000E+00
  0.00000000E+00  0.00000000E+00  0.00000000E+00
  0.00000000E+00  0.00000000E+00  0.00000000E+00
  0.00000000E+00  0.00000000E+00  0.00000000E+00
  0.00000000E+00  0.00000000E+00  0.00000000E+00
  0.00000000E+00  0.00000000E+00  0.00000000E+00
  0.00000000E+00  0.00000000E+00  0.00000000E+00
  0.00000000E+00  0.00000000E+00  0.00000000E+00
  0.00000000E+00  0.00000000E+00  0.00000000E+00
  0.00000000E+00  0.00000000E+00  0.00000000E+00
  0.00000000E+00  0.00000000E+00  0.00000000E+00
  0.00000000E+00  0.00000000E+00  0.00000000E+00
  0.00000000E+00  0.00000000E+00  0.00000000E+00
  0.00000000E+00  0.00000000E+00  0.00000000E+00
  0.00000000E+00  0.00000000E+00  0.00000000E+00
  0.00000000E+00  0.00000000E+00  0.00000000E+00
  0.00000000E+00  0.00000000E+00  0.00000000E+00
  0.00000000E+00  0.00000000E+00  0.00000000E+00
  0.00000000E+00  0.00000000E+00  0.00000000E+00
  0.00000000E+00  0.00000000E+00  0.00000000E+00
  0.00000000E+00  0.00000000E+00  0.00000000E+00
  0.00000000E+00  0.00000000E+00  0.00000000E+00
  0.00000000E+00  0.00000000E+00  0.00000000E+00
  0.00000000E+00  0.00000000E+00  0.00000000E+00
  0.00000000E+00  0.00000000E+00  0.00000000E+00
  0.00000000E+00  0.00000000E+00  0.00000000E+00
  0.00000000E+00  0.00000000E+00  0.00000000E+00
  0.00000000E+00  0.00000000E+00  0.00000000E+00
  0.00000000E+00  0.00000000E+00  0.00000000E+00
  0.00000000E+00  0.00000000E+00  0.00000000E+00
  0.00000000E+00  0.00000000E+00  0.00000000E+00
  0.00000000E+00  0.00000000E+00  0.00000000E+00
  0.00000000E+00  0.00000000E+00  0.00000000E+00
  0.00000000E+00  0.00000000E+00  0.00000000E+00
  0.00000000E+00  0.00000000E+00  0.00000000E+00
  0.00000000E+00  0.00000000E+00  0.00000000E+00
  0.00000000E+00  0.00000000E+00  0.00000000E+00
  0.00000000E+00  0.00000000E+00  0.00000000E+00
  0.00000000E+00  0.00000000E+00  0.00000000E+00
  0.00000000E+00  0.00000000E+00  0.00000000E+00
  0.00000000E+00  0.00000000E+00  0.00000000E+00
  0.00000000E+00  0.00000000E+00  0.00000000E+00
  0.00000000E+00  0.00000000E+00  0.00000000E+00
  0.00000000E+00  0.00000000E+00  0.00000000E+00
  0.00000000E+00  0.00000000E+00  0.00000000E+00
  0.00000000E+00  0.00000000E+00  0.00000000E+00
  0.00000000E+00  0.00000000E+00  0.00000000E+00
  0.00000000E+00  0.00000000E+00  0.00000000E+00
  0.00000000E+00  0.00000000E+00  0.00000000E+00
  0.00000000E+00  0.00000000E+00  0.00000000E+00
  0.00000000E+00  0.00000000E+00  0.00000000E+00
  0.00000000E+00  0.00000000E+00  0.00000000E+00
  0.00000000E+00  0.00000000E+00  0.00000000E+00
  0.00000000E+00  0.00000000E+00  0.00000000E+00
  0.00000000E+00  0.00000000E+00  0.00000000E+00
  0.00000000E+00  0.00000000E+00  0.00000000E+00
  0.00000000E+00  0.00000000E+00  0.00000000E+00
  0.00000000E+00  0.00000000E+00  0.00000000E+00
  0.00000000E+00  0.00000000E+00  0.00000000E+00
  0.00000000E+00  0.00000000E+00  0.00000000E+00
  0.00000000E+00  0.00000000E+00  0.00000000E+00
  0.00000000E+00  0.00000000E+00  0.00000000E+00
  0.00000000E+00  0.00000000E+00  0.00000000E+00
  0.00000000E+00  0.00000000E+00  0.00000000E+00
  0.00000000E+00  0.00000000E+00  0.00000000E+00
  0.00000000E+00  0.00000000E+00  0.00000000E+00
  0.00000000E+00  0.00000000E+00  0.00000000E+00
  0.00000000E+00  0.00000000E+00  0.00000000E+00
  0.00000000E+00  0.00000000E+00  0.00000000E+00
  0.00000000E+00  0.00000000E+00  0.00000000E+00
  0.00000000E+00  0.00000000E+00  0.00000000E+00
  0.00000000E+00  0.00000000E+00  0.00000000E+00
  0.00000000E+00  0.00000000E+00  0.00000000E+00
  0.00000000E+00  0.00000000E+00  0.00000000E+00
  0.00000000E+00  0.00000000E+00  0.00000000E+00
  0.00000000E+00  0.00000000E+00  0.00000000E+00
  0.00000000E+00  0.00000000E+00  0.00000000E+00
  0.00000000E+00  0.00000000E+00  0.00000000E+00
  0.00000000E+00  0.00000000E+00  0.00000000E+00
  0.00000000E+00  0.00000000E+00  0.00000000E+00
  0.00000000E+00  0.00000000E+00  0.00000000E+00
  0.00000000E+00  0.00000000E+00  0.00000000E+00
  0.00000000E+00  0.00000000E+00  0.00000000E+00
  0.00000000E+00  0.00000000E+00  0.00000000E+00
  0.00000000E+00  0.00000000E+00  0.00000000E+00
  0.00000000E+00  0.00000000E+00  0.00000000E+00
  0.00000000E+00  0.00000000E+00  0.00000000E+00
  0.00000000E+00  0.00000000E+00  0.00000000E+00
  0.00000000E+00  0.00000000E+00  0.00000000E+00
  0.00000000E+00  0.00000000E+00  0.00000000E+00
  0.00000000E+00  0.00000000E+00  0.00000000E+00
  0.00000000E+00  0.00000000E+00  0.00000000E+00
  0.00000000E+00  0.00000000E+00  0.00000000E+00
  0.00000000E+00  0.00000000E+00  0.00000000E+00
  0.00000000E+00  0.00000000E+00  0.00000000E+00
  0.00000000E+00  0.00000000E+00  0.00000000E+00
  0.00000000E+00  0.00000000E+00  0.00000000E+00
  0.00000000E+00  0.00000000E+00  0.00000000E+00
  0.00000000E+00  0.00000000E+00  0.00000000E+00
  0.00000000E+00  0.00000000E+00  0.00000000E+00
  0.00000000E+00  0.00000000E+00  0.00000000E+00
  0.00000000E+00  0.00000000E+00  0.00000000E+00
  0.00000000E+00  0.00000000E+00  0.00000000E+00
  0.00000000E+00  0.00000000E+00  0.00000000E+00
  0.00000000E+00  0.00000000E+00  0.00000000E+00
  0.00000000E+00  0.00000000E+00  0.00000000E+00
  0.00000000E+00  0.00000000E+00  0.00000000E+00
  0.00000000E+00  0.00000000E+00  0.00000000E+00
  0.00000000E+00  0.00000000E+00  0.00000000E+00
  0.00000000E+00  0.00000000E+00  0.00000000E+00
  0.00000000E+00  0.00000000E+00  0.00000000E+00
  0.00000000E+00  0.00000000E+00  0.00000000E+00
  0.00000000E+00  0.00000000E+00  0.00000000E+00
  0.00000000E+00  0.00000000E+00  0.00000000E+00
  0.00000000E+00  0.00000000E+00  0.00000000E+00
  0.00000000E+00  0.00000000E+00  0.00000000E+00
  0.00000000E+00  0.00000000E+00  0.00000000E+00
  0.00000000E+00  0.00000000E+00  0.00000000E+00
  0.00000000E+00  0.00000000E+00  0.00000000E+00
  0.00000000E+00  0.00000000E+00  0.00000000E+00
  0.00000000E+00  0.00000000E+00  0.00000000E+00
  0.00000000E+00  0.00000000E+00  0.00000000E+00
  0.00000000E+00  0.00000000E+00  0.00000000E+00
  0.00000000E+00  0.00000000E+00  0.00000000E+00
  0.00000000E+00  0.00000000E+00  0.00000000E+00
  0.00000000E+00  0.00000000E+00  0.00000000E+00
  0.00000000E+00  0.00000000E+00  0.00000000E+00
  0.00000000E+00  0.00000000E+00  0.00000000E+00
  0.00000000E+00  0.00000000E+00  0.00000000E+00
  0.00000000E+00  0.00000000E+00  0.00000000E+00
  0.00000000E+00  0.00000000E+00  0.00000000E+00
  0.00000000E+00  0.00000000E+00  0.00000000E+00
  0.00000000E+00  0.00000000E+00  0.00000000E+00
  0.00000000E+00  0.00000000E+00  0.00000000E+00
  0.00000000E+00  0.00000000E+00  0.00000000E+00
  0.00000000E+00  0.00000000E+00  0.00000000E+00
  0.00000000E+00  0.00000000E+00  0.00000000E+00
  0.00000000E+00  0.00000000E+00  0.00000000E+00
  0.00000000E+00  0.00000000E+00  0.00000000E+00
  0.00000000E+00  0.00000000E+00  0.00000000E+00
  0.00000000E+00  0.00000000E+00  0.00000000E+00
  0.00000000E+00  0.00000000E+00  0.00000000E+00
  0.00000000E+00  0.00000000E+00  0.00000000E+00
  0.00000000E+00  0.00000000E+00  0.00000000E+00
  0.00000000E+00  0.00000000E+00  0.00000000E+00
  0.00000000E+00  0.00000000E+00  0.00000000E+00
  0.00000000E+00  0.00000000E+00  0.00000000E+00
  0.00000000E+00  0.00000000E+00  0.00000000E+00
  0.00000000E+00  0.00000000E+00  0.00000000E+00
  0.00000000E+00  0.00000000E+00  0.00000000E+00
  0.00000000E+00  0.00000000E+00  0.00000000E+00
  0.00000000E+00  0.00000000E+00  0.00000000E+00
  0.00000000E+00  0.00000000E+00  0.00000000E+00
  0.00000000E+00  0.00000000E+00  0.00000000E+00
  0.00000000E+00  0.00000000E+00  0.00000000E+00
  0.00000000E+00  0.00000000E+00  0.00000000E+00
  0.00000000E+00  0.00000000E+00  0.00000000E+00
  0.00000000E+00  0.00000000E+00  0.00000000E+00
  0.00000000E+00  0.00000000E+00  0.00000000E+00
  0.00000000E+00  0.00000000E+00  0.00000000E+00
  0.00000000E+00  0.00000000E+00  0.00000000E+00
  0.00000000E+00  0.00000000E+00  0.00000000E+00
  0.00000000E+00  0.00000000E+00  0.00000000E+00
  0.00000000E+00  0.00000000E+00  0.00000000E+00
  0.00000000E+00  0.00000000E+00  0.00000000E+00
  0.00000000E+00  0.00000000E+00  0.00000000E+00
  0.00000000E+00  0.00000000E+00  0.00000000E+00
  0.00000000E+00  0.00000000E+00  0.00000000E+00
  0.00000000E+00  0.00000000E+00  0.00000000E+00
  0.00000000E+00  0.00000000E+00  0.00000000E+00
  0.00000000E+00  0.00000000E+00  0.00000000E+00
  0.00000000E+00  0.00000000E+00  0.00000000E+00
  0.00000000E+00  0.00000000E+00  0.00000000E+00
  0.00000000E+00  0.00000000E+00  0.00000000E+00
  0.00000000E+00  0.00000000E+00  0.00000000E+00
  0.00000000E+00  0.00000000E+00  0.00000000E+00
  0.00000000E+00  0.00000000E+00  0.00000000E+00
  0.00000000E+00  0.00000000E+00  0.00000000E+00
  0.00000000E+00  0.00000000E+00  0.00000000E+00
  0.00000000E+00  0.00000000E+00  0.00000000E+00
  0.00000000E+00  0.00000000E+00  0.00000000E+00
  0.00000000E+00  0.00000000E+00  0.00000000E+00
  0.00000000E+00  0.00000000E+00  0.00000000E+00
  0.00000000E+00  0.00000000E+00  0.00000000E+00
  0.00000000E+00  0.00000000E+00  0.00000000E+00
  0.00000000E+00  0.00000000E+00  0.00000000E+00
  0.00000000E+00  0.00000000E+00  0.00000000E+00
  0.00000000E+00  0.00000000E+00  0.00000000E+00
  0.00000000E+00  0.00000000E+00  0.00000000E+00
  0.00000000E+00  0.00000000E+00  0.00000000E+00
  0.00000000E+00  0.00000000E+00  0.00000000E+00
