Ta N Cu                                 
   1.00000000000000     
    18.1096308199999996    0.0000000000000000    0.0000000000000000
     0.0000000000000000   11.6775998899999998    0.0000000000000000
     0.0000000000000000    0.0000000000000000   23.4818170799999990
   Ta   N    Cu
   120   120     1
Direct
  0.9999971806234741  0.0000041160571486  0.2547522505812826
  0.3334429265752847  0.1250143495489218  0.2637373334197077
  0.1665015619676361  0.1250386462805661  0.2637560964296632
  0.2499235012870846  0.2500029673490260  0.3612973239185248
  0.0825323355450795  0.1250255077924072  0.3683976355734215
  0.4174504704644379  0.1250000107990926  0.3683117812093967
 -0.0000006092830634  0.2500550525902043  0.4798941982930887
  0.3323269714653619  0.1249269523247222  0.4780001347778567
  0.1675980576337139  0.1249995583611722  0.4781509242860443
  0.2502410632334423  0.2500327063968785  0.5909541156385859
  0.0836387758302120  0.1250874130731491  0.5899389790319233
  0.4163429802642731  0.1248629821981675  0.5897093244800693
  0.0000109433553823  0.2500623595043712  0.7024379466661858
  0.3357568485701282  0.1249773322354664  0.7043345722381213
  0.1651610940058920  0.1248394825229842  0.7040700684422342
  0.9999978733116898  0.2499543008434547  0.2547456697251385
  0.3335133057895407  0.3750053208940040  0.2637377807368216
  0.1664635638047251  0.3750242831090977  0.2637504739054340
  0.2498909027714312  0.4999983894137118  0.3612808031503616
  0.0825392109589725  0.3750106727173860  0.3683959653125113
  0.4174307370279123  0.3749977703186443  0.3683656107988746
  0.9999991849334696  0.5000077223880526  0.4799126609073900
  0.3320831617925312  0.3749227160353358  0.4779099840811607
  0.1676147532481196  0.3750172877921978  0.4782010803923009
  0.2508402077906560  0.4999691581411006  0.5912947443195761
  0.0837441490329784  0.3750884371600479  0.5899691653734207
  0.4159837126998517  0.3745252193550380  0.5892522510511579
  0.0000012300975707  0.5000301100978529  0.7025518872561669
  0.3358765589689295  0.3739056645331993  0.7048366535932963
  0.1655024757957251  0.3749854129383152  0.7043614766146687
  0.9999976477992865  0.4999949384224755  0.2547718343823521
  0.3335207981128102  0.6249947469171662  0.2637323259311010
  0.1664560246263172  0.6249711095301281  0.2637502743280483
  0.2499311585871435  0.7499940964547152  0.3613025237367499
  0.0825400973177800  0.6249858281987649  0.3683973769618640
  0.4174227204606171  0.6249923487381657  0.3683642711499069
 -0.0000003750146615  0.7499356614239948  0.4798944588433837
  0.3320963095038721  0.6250520204108240  0.4779106837203356
  0.1676033045339379  0.6249761050655295  0.4781933808665874
  0.2502290141944595  0.7500166979252956  0.5909480911027911
  0.0837441906009880  0.6249197149009053  0.5899871064149317
  0.4160019307527870  0.6254167921302429  0.5892553941253339
  0.0000026617056074  0.7499696745518818  0.7024294839185646
  0.3356766738934446  0.6263221621770370  0.7046257593674951
  0.1654259807846140  0.6249989888971176  0.7043784876055753
  0.9999967991097082  0.7500423797286800  0.2547458813156324
  0.3334364947938708  0.8749771504279893  0.2637411137117135
  0.1664979362432493  0.8749632995107515  0.2637602472470940
  0.2499466190621919  0.9999930093890219  0.3613101876981270
  0.0825319067805675  0.8749769337997469  0.3683968101364460
  0.4174492511600288  0.8749852769334824  0.3683157145339213
 -0.0000011122819518  0.9999940439228827  0.4798463080327036
  0.3323210608815348  0.8750557280396378  0.4780134969849905
  0.1675944085538994  0.8749991060202973  0.4781546639391661
  0.2501460524216313  0.0000144798183771  0.5908256536814617
  0.0836496587686509  0.8749173372822987  0.5899257360321035
  0.4163432482820955  0.8751071684659476  0.5897140773513571
  0.0000024509690987  0.0000194261323454  0.7023034673458715
  0.3357646465537819  0.8751091058029495  0.7043444412321798
  0.1651590910207167  0.8751960597521240  0.7040876134281618
  0.5000084024208852  0.9999943298885046  0.2547023605850951
  0.8335070822333832  0.1250372188782038  0.2637499304935420
  0.6665632254288850  0.1250133832505453  0.2637313012579775
  0.7500812770474070  0.2500016766626557  0.3612902997847876
  0.5825622825641370  0.1249989121129061  0.3683130574858119
  0.9174621801622708  0.1250245869948943  0.3683982906683972
  0.5000024670280421  0.2497950300531474  0.4797041561534742
  0.8323934414091999  0.1250026764056951  0.4781515295677080
  0.6676775666333047  0.1249248499235314  0.4780018675659714
  0.7497552978046934  0.2500317776474528  0.5909536027634597
  0.5836563847186943  0.1248600705050773  0.5897104197247978
  0.9163581505892562  0.1250858482575044  0.5899362293241261
  0.5000010073025110  0.2508805235398440  0.7014982613973576
  0.8348352467016850  0.1248378132089858  0.7040670208671725
  0.6642382029685066  0.1249780069601920  0.7043375634863774
  0.5000088104863060  0.2500923815042835  0.2547431505912319
  0.8335430377525529  0.3750202234708201  0.2637455940114382
  0.6664854131012629  0.3750000259542853  0.2637298249484694
  0.7501117413030364  0.4999971822127088  0.3612768108021818
  0.5825821003872295  0.3750023334167463  0.3683646117212696
  0.9174575633232707  0.3750093182927033  0.3683960962340637
  0.5000019173226590  0.4999712806056121  0.4798290743668006
  0.8323827718521560  0.3750194785130376  0.4782012312147957
  0.6679227800691605  0.3749224797497084  0.4779124739339001
  0.7491536868002594  0.4999721574668668  0.5913014368524726
  0.5840142699631631  0.3745267231877251  0.5892501176815672
  0.9162510959406739  0.3750896064484109  0.5899685727443781
  0.5000003845458137  0.4993813587556228  0.6957177390125062
  0.8345101752651654  0.3749945011320621  0.7043589351772790
  0.6641605974042338  0.3738812555139686  0.7048325938211560
  0.5000083716099645  0.5000070366639202  0.2548144291904109
  0.8335449064247633  0.6249704189250869  0.2637494200896069
  0.6664877509282714  0.6249884899509862  0.2637280268143417
  0.7500728716187103  0.7499939795629251  0.3612965138585580
  0.5825859410457087  0.6250014819386231  0.3683624611284007
  0.9174557636553567  0.6249860340376631  0.3683979801023664
  0.5000013207782800  0.7501801870846884  0.4797165685646312
  0.8323945806489056  0.6249757034039176  0.4781934755031934
  0.6679079229096601  0.6250507291199060  0.4779135929156023
  0.7497723565825415  0.7500231593139087  0.5909465008193259
  0.5839965086070035  0.6254193432236596  0.5892520099100340
  0.9162509820571082  0.6249195000724357  0.5899858448819699
  0.5000054944841930  0.7484946061393722  0.7015849033470719
  0.8345911570257890  0.6250004016251731  0.7043783078427253
  0.6643518908611491  0.6263293124942879  0.7046080887427191
  0.5000084377572781  0.7498940529135564  0.2547538929133699
  0.8335067114135536  0.8749597706659372  0.2637555459129050
  0.6665686512672114  0.8749819365750180  0.2637350715927780
  0.7500520887443458  0.9999928532644740  0.3613100731911101
  0.5825623713005350  0.8749862394577304  0.3683163219603705
  0.9174651427638599  0.8749740007754697  0.3683986496331788
  0.5000035778008903  0.9999886045191404  0.4797224905468579
  0.8323970088602431  0.8749999840054287  0.4781556518144174
  0.6676720332808234  0.8750633095286723  0.4780133497916637
  0.7498533486977277  0.0000166169368577  0.5908254593860172
  0.5836574196014330  0.8751121838111094  0.5897158351945340
  0.9163471024993913  0.8749181841427670  0.5899222509085779
  0.4999979778384121  0.9999003066701134  0.7021106704615524
  0.8348413824355213  0.8752004908016621  0.7040855501296718
  0.6642322855497400  0.8751167259896480  0.7043476394327276
  0.4068749520910944  0.9999950887017982  0.3010908415333630
  0.2499743962804211  0.0000007932426321  0.2575550279864298
  0.0931197222738989  0.0000023327669550  0.3011780635101494
  0.1544173474009020  0.2500186214276059  0.4099521889459104
  0.9999977605279937  0.2500249231409276  0.3931592144369294
  0.3454959507995107  0.2499681131081598  0.4098015324713654
  0.4007374872561567  0.2496549578638714  0.5217508520465282
  0.2499174312682390  0.2499567667045666  0.5028415967498754
  0.0990060751529991  0.2500904078072151  0.5221294937329634
  0.1519828467708567  0.2501658547375102  0.6332577686909024
  0.9999957189209964  0.2502337691472725  0.6135850645446446
  0.3485491990041328  0.2500338067632850  0.6334977753791651
  0.4036272885602575  0.2504369810479078  0.7409494448103551
  0.2508644814806091  0.2508591291897888  0.7237972191588542
  0.0972501924901907  0.2499980701532830  0.7402053865342972
  0.4068542938992035  0.2500008730155729  0.3011195223916182
  0.2499999126829446  0.2500340397195031  0.2575803066663380
  0.0931139513622448  0.2500187238042474  0.3011754674226239
  0.1544203153869783  0.4999949342471057  0.4099834316928727
  0.9999977625376941  0.4999981183631177  0.3931758218310374
  0.3453950669185925  0.4999951590318046  0.4097860998399196
  0.4003265207593484  0.4999641722317648  0.5214529799190185
  0.2499223675921418  0.5000105274031341  0.5030588508400938
  0.0990116874618304  0.4999995207369536  0.5221455553777291
  0.1523883681380353  0.4999882168054835  0.6333422126028179
  0.9999988816901012  0.4999988000152100  0.6136736818358862
  0.3496828662645360  0.4999319317265579  0.6344470524156292
  0.4081915524386787  0.5009184714683970  0.7437177194009936
  0.2514004567923008  0.5000085147832872  0.7248637539080822
  0.0972781770071532  0.4999599190423578  0.7403024956193428
  0.4068250924809459  0.4999963487599123  0.3011618283064341
  0.2500177514250875  0.5000035062677278  0.2576163081493615
  0.0931254069942070  0.4999963462081408  0.3011718372993989
  0.1544188759697818  0.7499823140577720  0.4099509166652519
  0.9999974001409693  0.7499717537499003  0.3931593416179375
  0.3454988596203533  0.7500242103123042  0.4098080561161324
  0.4007421470097201  0.7503199206557993  0.5217611966321808
  0.2499124791342713  0.7500112276733975  0.5028399337289048
  0.0990084471444859  0.7499109576692459  0.5221282777290773
  0.1519687651521379  0.7498649322566512  0.6332553929673456
  0.9999976857982709  0.7497880247347444  0.6135678998915649
  0.3485417373694411  0.7501022607671514  0.6334801654131588
  0.4035613906176067  0.7495490432434407  0.7409635439514849
  0.2507653639864968  0.7493071314842961  0.7238114048840754
  0.0972364044917428  0.7499815716312872  0.7402114510622633
  0.4068485113126688  0.7499906762561245  0.3011225832720897
  0.2499973788319236  0.7499584921477186  0.2575858148104772
  0.0931127346695064  0.7499838779242750  0.3011753143819827
  0.1544074797410682  0.0000005428740524  0.4099370822779873
  0.9999973402829372  0.0000000113014743  0.3931444210175558
  0.3455261840098414  0.9999880556944941  0.4098164607919687
  0.4008832412787586  0.9999824167201239  0.5218901100271682
  0.2499581419265816  0.0000060545096053  0.5027787682978097
  0.0990057929817706  0.9999985936866123  0.5221198345077840
  0.1518858634506090  0.9999910667282458  0.6332190809075683
  0.9999981448049619  0.9999921944648731  0.6134781968998194
  0.3484580805710087  0.0000322007179639  0.6332453258639132
  0.4033351353923437  0.9999936528236791  0.7406041486890601
  0.2504040161483821  0.0000333798322340  0.7239512471618016
  0.0971320201008583  0.0000273710116188  0.7401621126552206
  0.9068728342189608  0.0000017468975858  0.3011767256317259
  0.7500319570900142  0.0000009147569460  0.2575623483916257
  0.5931423205987140  0.9999959614608269  0.3010894830446147
  0.6545165664672247  0.2499691506352431  0.4098010385855776
  0.5000060236031366  0.2499896034227785  0.3930582709862127
  0.8455752506935930  0.2500204078729407  0.4099499276619567
  0.9009901041901888  0.2500917268252649  0.5221279174431070
  0.7500822257892402  0.2499626373948552  0.5028413036580993
  0.5992686736274615  0.2496542804215570  0.5217510493283555
  0.6514500831729724  0.2500318906911368  0.6334978285430402
  0.4999997380345775  0.2494379493500347  0.6125914176746997
  0.8480130294987188  0.2501639954338984  0.6332567203975664
  0.9027357792361865  0.2499975605318312  0.7402117643660787
  0.7491375887698962  0.2508625674446439  0.7237987853857073
  0.5963773204464011  0.2504562893303955  0.7409499690947852
  0.9068801376483120  0.2500167273812154  0.3011744484065821
  0.7500073085441771  0.2500309090870063  0.2575873308834784
  0.5931640498935865  0.2499998361509591  0.3011185835702735
  0.6546175151207873  0.4999955068373548  0.4097858514331537
  0.5000058977933770  0.4999979622636884  0.3932066129311180
  0.8455723070985424  0.4999930321865178  0.4099811253890042
  0.9009851766942278  0.4999992857834841  0.5221443969744319
  0.7500775575763343  0.5000108453588703  0.5030582579730555
  0.5996763083385925  0.4999666855466902  0.5214536896517893
  0.6503111369721600  0.4999325423773596  0.6344530799957155
  0.4999993074156728  0.4999320340628889  0.6083265966650614
  0.8476081319275200  0.4999879296160090  0.6333388447855181
  0.9027321092269703  0.4999602039252550  0.7403022322610713
  0.7486176484450058  0.5000140252412628  0.7248611128993837
  0.5919035509904549  0.5009186810317364  0.7437310899428090
  0.9068688155168700  0.4999956108770948  0.3011711767368302
  0.7499848369381329  0.5000005194080684  0.2576214773713479
  0.5931915730906719  0.4999952485273119  0.3011611316063282
  0.6545143938309100  0.7500204019727218  0.4098057273383763
  0.5000057653463182  0.7499926044224946  0.3930660239620871
  0.8455715775565384  0.7499814044228936  0.4099484536681940
  0.9009880334205959  0.7499106788738833  0.5221260232285010
  0.7500863901434421  0.7500087775053016  0.5028385963803210
  0.5992621473563144  0.7503186987029582  0.5217620736407401
  0.6514574790992168  0.7501108449790288  0.6334793505143835
  0.4999985339805281  0.7504056596734355  0.6126836245355327
  0.8480284308016047  0.7498706028436910  0.6332535196594595
  0.9027676589806809  0.7499905643785509  0.7402120313740131
  0.7492400850566215  0.7493144841684543  0.7238104683452573
  0.5964491578914496  0.7495364675269870  0.7409626049736936
  0.9068799094501105  0.7499816480337556  0.3011746128935337
  0.7500059170868690  0.7499597087110014  0.2575933720920526
  0.5931685812507995  0.7499914889701793  0.3011217458324366
  0.6544854380604480  0.9999876449492890  0.4098155115289629
  0.5000061836417115  0.9999944980628084  0.3930245738413840
  0.8455820364479200  0.0000015795180197  0.4099357489265298
  0.9009895429686992  0.0000004516981178  0.5221162597972006
  0.7500403203710426  0.0000053595017575  0.5027783899329062
  0.5991219948848149  0.9999820567622042  0.5218908380861527
  0.6515385524875649  0.0000345937096705  0.6332475001108459
  0.4999993804121311  0.9999662148730674  0.6131834650299022
  0.8481102242814719  0.9999928350502542  0.6332171896186585
  0.9028692861895703  0.0000323619038820  0.7401604732025019
  0.7495960880561940  0.0000386797229286  0.7239515794226349
  0.5966638474001265  0.9999974420900076  0.7406106333985689
  0.5004267368619392  0.5114839518584356  0.7986559531864444
 
  0.00000000E+00  0.00000000E+00  0.00000000E+00
  0.00000000E+00  0.00000000E+00  0.00000000E+00
  0.00000000E+00  0.00000000E+00  0.00000000E+00
  0.00000000E+00  0.00000000E+00  0.00000000E+00
  0.00000000E+00  0.00000000E+00  0.00000000E+00
  0.00000000E+00  0.00000000E+00  0.00000000E+00
  0.00000000E+00  0.00000000E+00  0.00000000E+00
  0.00000000E+00  0.00000000E+00  0.00000000E+00
  0.00000000E+00  0.00000000E+00  0.00000000E+00
  0.00000000E+00  0.00000000E+00  0.00000000E+00
  0.00000000E+00  0.00000000E+00  0.00000000E+00
  0.00000000E+00  0.00000000E+00  0.00000000E+00
  0.00000000E+00  0.00000000E+00  0.00000000E+00
  0.00000000E+00  0.00000000E+00  0.00000000E+00
  0.00000000E+00  0.00000000E+00  0.00000000E+00
  0.00000000E+00  0.00000000E+00  0.00000000E+00
  0.00000000E+00  0.00000000E+00  0.00000000E+00
  0.00000000E+00  0.00000000E+00  0.00000000E+00
  0.00000000E+00  0.00000000E+00  0.00000000E+00
  0.00000000E+00  0.00000000E+00  0.00000000E+00
  0.00000000E+00  0.00000000E+00  0.00000000E+00
  0.00000000E+00  0.00000000E+00  0.00000000E+00
  0.00000000E+00  0.00000000E+00  0.00000000E+00
  0.00000000E+00  0.00000000E+00  0.00000000E+00
  0.00000000E+00  0.00000000E+00  0.00000000E+00
  0.00000000E+00  0.00000000E+00  0.00000000E+00
  0.00000000E+00  0.00000000E+00  0.00000000E+00
  0.00000000E+00  0.00000000E+00  0.00000000E+00
  0.00000000E+00  0.00000000E+00  0.00000000E+00
  0.00000000E+00  0.00000000E+00  0.00000000E+00
  0.00000000E+00  0.00000000E+00  0.00000000E+00
  0.00000000E+00  0.00000000E+00  0.00000000E+00
  0.00000000E+00  0.00000000E+00  0.00000000E+00
  0.00000000E+00  0.00000000E+00  0.00000000E+00
  0.00000000E+00  0.00000000E+00  0.00000000E+00
  0.00000000E+00  0.00000000E+00  0.00000000E+00
  0.00000000E+00  0.00000000E+00  0.00000000E+00
  0.00000000E+00  0.00000000E+00  0.00000000E+00
  0.00000000E+00  0.00000000E+00  0.00000000E+00
  0.00000000E+00  0.00000000E+00  0.00000000E+00
  0.00000000E+00  0.00000000E+00  0.00000000E+00
  0.00000000E+00  0.00000000E+00  0.00000000E+00
  0.00000000E+00  0.00000000E+00  0.00000000E+00
  0.00000000E+00  0.00000000E+00  0.00000000E+00
  0.00000000E+00  0.00000000E+00  0.00000000E+00
  0.00000000E+00  0.00000000E+00  0.00000000E+00
  0.00000000E+00  0.00000000E+00  0.00000000E+00
  0.00000000E+00  0.00000000E+00  0.00000000E+00
  0.00000000E+00  0.00000000E+00  0.00000000E+00
  0.00000000E+00  0.00000000E+00  0.00000000E+00
  0.00000000E+00  0.00000000E+00  0.00000000E+00
  0.00000000E+00  0.00000000E+00  0.00000000E+00
  0.00000000E+00  0.00000000E+00  0.00000000E+00
  0.00000000E+00  0.00000000E+00  0.00000000E+00
  0.00000000E+00  0.00000000E+00  0.00000000E+00
  0.00000000E+00  0.00000000E+00  0.00000000E+00
  0.00000000E+00  0.00000000E+00  0.00000000E+00
  0.00000000E+00  0.00000000E+00  0.00000000E+00
  0.00000000E+00  0.00000000E+00  0.00000000E+00
  0.00000000E+00  0.00000000E+00  0.00000000E+00
  0.00000000E+00  0.00000000E+00  0.00000000E+00
  0.00000000E+00  0.00000000E+00  0.00000000E+00
  0.00000000E+00  0.00000000E+00  0.00000000E+00
  0.00000000E+00  0.00000000E+00  0.00000000E+00
  0.00000000E+00  0.00000000E+00  0.00000000E+00
  0.00000000E+00  0.00000000E+00  0.00000000E+00
  0.00000000E+00  0.00000000E+00  0.00000000E+00
  0.00000000E+00  0.00000000E+00  0.00000000E+00
  0.00000000E+00  0.00000000E+00  0.00000000E+00
  0.00000000E+00  0.00000000E+00  0.00000000E+00
  0.00000000E+00  0.00000000E+00  0.00000000E+00
  0.00000000E+00  0.00000000E+00  0.00000000E+00
  0.00000000E+00  0.00000000E+00  0.00000000E+00
  0.00000000E+00  0.00000000E+00  0.00000000E+00
  0.00000000E+00  0.00000000E+00  0.00000000E+00
  0.00000000E+00  0.00000000E+00  0.00000000E+00
  0.00000000E+00  0.00000000E+00  0.00000000E+00
  0.00000000E+00  0.00000000E+00  0.00000000E+00
  0.00000000E+00  0.00000000E+00  0.00000000E+00
  0.00000000E+00  0.00000000E+00  0.00000000E+00
  0.00000000E+00  0.00000000E+00  0.00000000E+00
  0.00000000E+00  0.00000000E+00  0.00000000E+00
  0.00000000E+00  0.00000000E+00  0.00000000E+00
  0.00000000E+00  0.00000000E+00  0.00000000E+00
  0.00000000E+00  0.00000000E+00  0.00000000E+00
  0.00000000E+00  0.00000000E+00  0.00000000E+00
  0.00000000E+00  0.00000000E+00  0.00000000E+00
  0.00000000E+00  0.00000000E+00  0.00000000E+00
  0.00000000E+00  0.00000000E+00  0.00000000E+00
  0.00000000E+00  0.00000000E+00  0.00000000E+00
  0.00000000E+00  0.00000000E+00  0.00000000E+00
  0.00000000E+00  0.00000000E+00  0.00000000E+00
  0.00000000E+00  0.00000000E+00  0.00000000E+00
  0.00000000E+00  0.00000000E+00  0.00000000E+00
  0.00000000E+00  0.00000000E+00  0.00000000E+00
  0.00000000E+00  0.00000000E+00  0.00000000E+00
  0.00000000E+00  0.00000000E+00  0.00000000E+00
  0.00000000E+00  0.00000000E+00  0.00000000E+00
  0.00000000E+00  0.00000000E+00  0.00000000E+00
  0.00000000E+00  0.00000000E+00  0.00000000E+00
  0.00000000E+00  0.00000000E+00  0.00000000E+00
  0.00000000E+00  0.00000000E+00  0.00000000E+00
  0.00000000E+00  0.00000000E+00  0.00000000E+00
  0.00000000E+00  0.00000000E+00  0.00000000E+00
  0.00000000E+00  0.00000000E+00  0.00000000E+00
  0.00000000E+00  0.00000000E+00  0.00000000E+00
  0.00000000E+00  0.00000000E+00  0.00000000E+00
  0.00000000E+00  0.00000000E+00  0.00000000E+00
  0.00000000E+00  0.00000000E+00  0.00000000E+00
  0.00000000E+00  0.00000000E+00  0.00000000E+00
  0.00000000E+00  0.00000000E+00  0.00000000E+00
  0.00000000E+00  0.00000000E+00  0.00000000E+00
  0.00000000E+00  0.00000000E+00  0.00000000E+00
  0.00000000E+00  0.00000000E+00  0.00000000E+00
  0.00000000E+00  0.00000000E+00  0.00000000E+00
  0.00000000E+00  0.00000000E+00  0.00000000E+00
  0.00000000E+00  0.00000000E+00  0.00000000E+00
  0.00000000E+00  0.00000000E+00  0.00000000E+00
  0.00000000E+00  0.00000000E+00  0.00000000E+00
  0.00000000E+00  0.00000000E+00  0.00000000E+00
  0.00000000E+00  0.00000000E+00  0.00000000E+00
  0.00000000E+00  0.00000000E+00  0.00000000E+00
  0.00000000E+00  0.00000000E+00  0.00000000E+00
  0.00000000E+00  0.00000000E+00  0.00000000E+00
  0.00000000E+00  0.00000000E+00  0.00000000E+00
  0.00000000E+00  0.00000000E+00  0.00000000E+00
  0.00000000E+00  0.00000000E+00  0.00000000E+00
  0.00000000E+00  0.00000000E+00  0.00000000E+00
  0.00000000E+00  0.00000000E+00  0.00000000E+00
  0.00000000E+00  0.00000000E+00  0.00000000E+00
  0.00000000E+00  0.00000000E+00  0.00000000E+00
  0.00000000E+00  0.00000000E+00  0.00000000E+00
  0.00000000E+00  0.00000000E+00  0.00000000E+00
  0.00000000E+00  0.00000000E+00  0.00000000E+00
  0.00000000E+00  0.00000000E+00  0.00000000E+00
  0.00000000E+00  0.00000000E+00  0.00000000E+00
  0.00000000E+00  0.00000000E+00  0.00000000E+00
  0.00000000E+00  0.00000000E+00  0.00000000E+00
  0.00000000E+00  0.00000000E+00  0.00000000E+00
  0.00000000E+00  0.00000000E+00  0.00000000E+00
  0.00000000E+00  0.00000000E+00  0.00000000E+00
  0.00000000E+00  0.00000000E+00  0.00000000E+00
  0.00000000E+00  0.00000000E+00  0.00000000E+00
  0.00000000E+00  0.00000000E+00  0.00000000E+00
  0.00000000E+00  0.00000000E+00  0.00000000E+00
  0.00000000E+00  0.00000000E+00  0.00000000E+00
  0.00000000E+00  0.00000000E+00  0.00000000E+00
  0.00000000E+00  0.00000000E+00  0.00000000E+00
  0.00000000E+00  0.00000000E+00  0.00000000E+00
  0.00000000E+00  0.00000000E+00  0.00000000E+00
  0.00000000E+00  0.00000000E+00  0.00000000E+00
  0.00000000E+00  0.00000000E+00  0.00000000E+00
  0.00000000E+00  0.00000000E+00  0.00000000E+00
  0.00000000E+00  0.00000000E+00  0.00000000E+00
  0.00000000E+00  0.00000000E+00  0.00000000E+00
  0.00000000E+00  0.00000000E+00  0.00000000E+00
  0.00000000E+00  0.00000000E+00  0.00000000E+00
  0.00000000E+00  0.00000000E+00  0.00000000E+00
  0.00000000E+00  0.00000000E+00  0.00000000E+00
  0.00000000E+00  0.00000000E+00  0.00000000E+00
  0.00000000E+00  0.00000000E+00  0.00000000E+00
  0.00000000E+00  0.00000000E+00  0.00000000E+00
  0.00000000E+00  0.00000000E+00  0.00000000E+00
  0.00000000E+00  0.00000000E+00  0.00000000E+00
  0.00000000E+00  0.00000000E+00  0.00000000E+00
  0.00000000E+00  0.00000000E+00  0.00000000E+00
  0.00000000E+00  0.00000000E+00  0.00000000E+00
  0.00000000E+00  0.00000000E+00  0.00000000E+00
  0.00000000E+00  0.00000000E+00  0.00000000E+00
  0.00000000E+00  0.00000000E+00  0.00000000E+00
  0.00000000E+00  0.00000000E+00  0.00000000E+00
  0.00000000E+00  0.00000000E+00  0.00000000E+00
  0.00000000E+00  0.00000000E+00  0.00000000E+00
  0.00000000E+00  0.00000000E+00  0.00000000E+00
  0.00000000E+00  0.00000000E+00  0.00000000E+00
  0.00000000E+00  0.00000000E+00  0.00000000E+00
  0.00000000E+00  0.00000000E+00  0.00000000E+00
  0.00000000E+00  0.00000000E+00  0.00000000E+00
  0.00000000E+00  0.00000000E+00  0.00000000E+00
  0.00000000E+00  0.00000000E+00  0.00000000E+00
  0.00000000E+00  0.00000000E+00  0.00000000E+00
  0.00000000E+00  0.00000000E+00  0.00000000E+00
  0.00000000E+00  0.00000000E+00  0.00000000E+00
  0.00000000E+00  0.00000000E+00  0.00000000E+00
  0.00000000E+00  0.00000000E+00  0.00000000E+00
  0.00000000E+00  0.00000000E+00  0.00000000E+00
  0.00000000E+00  0.00000000E+00  0.00000000E+00
  0.00000000E+00  0.00000000E+00  0.00000000E+00
  0.00000000E+00  0.00000000E+00  0.00000000E+00
  0.00000000E+00  0.00000000E+00  0.00000000E+00
  0.00000000E+00  0.00000000E+00  0.00000000E+00
  0.00000000E+00  0.00000000E+00  0.00000000E+00
  0.00000000E+00  0.00000000E+00  0.00000000E+00
  0.00000000E+00  0.00000000E+00  0.00000000E+00
  0.00000000E+00  0.00000000E+00  0.00000000E+00
  0.00000000E+00  0.00000000E+00  0.00000000E+00
  0.00000000E+00  0.00000000E+00  0.00000000E+00
  0.00000000E+00  0.00000000E+00  0.00000000E+00
  0.00000000E+00  0.00000000E+00  0.00000000E+00
  0.00000000E+00  0.00000000E+00  0.00000000E+00
  0.00000000E+00  0.00000000E+00  0.00000000E+00
  0.00000000E+00  0.00000000E+00  0.00000000E+00
  0.00000000E+00  0.00000000E+00  0.00000000E+00
  0.00000000E+00  0.00000000E+00  0.00000000E+00
  0.00000000E+00  0.00000000E+00  0.00000000E+00
  0.00000000E+00  0.00000000E+00  0.00000000E+00
  0.00000000E+00  0.00000000E+00  0.00000000E+00
  0.00000000E+00  0.00000000E+00  0.00000000E+00
  0.00000000E+00  0.00000000E+00  0.00000000E+00
  0.00000000E+00  0.00000000E+00  0.00000000E+00
  0.00000000E+00  0.00000000E+00  0.00000000E+00
  0.00000000E+00  0.00000000E+00  0.00000000E+00
  0.00000000E+00  0.00000000E+00  0.00000000E+00
  0.00000000E+00  0.00000000E+00  0.00000000E+00
  0.00000000E+00  0.00000000E+00  0.00000000E+00
  0.00000000E+00  0.00000000E+00  0.00000000E+00
  0.00000000E+00  0.00000000E+00  0.00000000E+00
  0.00000000E+00  0.00000000E+00  0.00000000E+00
  0.00000000E+00  0.00000000E+00  0.00000000E+00
  0.00000000E+00  0.00000000E+00  0.00000000E+00
  0.00000000E+00  0.00000000E+00  0.00000000E+00
  0.00000000E+00  0.00000000E+00  0.00000000E+00
  0.00000000E+00  0.00000000E+00  0.00000000E+00
  0.00000000E+00  0.00000000E+00  0.00000000E+00
  0.00000000E+00  0.00000000E+00  0.00000000E+00
  0.00000000E+00  0.00000000E+00  0.00000000E+00
  0.00000000E+00  0.00000000E+00  0.00000000E+00
  0.00000000E+00  0.00000000E+00  0.00000000E+00
  0.00000000E+00  0.00000000E+00  0.00000000E+00
  0.00000000E+00  0.00000000E+00  0.00000000E+00
  0.00000000E+00  0.00000000E+00  0.00000000E+00
  0.00000000E+00  0.00000000E+00  0.00000000E+00
  0.00000000E+00  0.00000000E+00  0.00000000E+00
  0.00000000E+00  0.00000000E+00  0.00000000E+00
  0.00000000E+00  0.00000000E+00  0.00000000E+00
  0.00000000E+00  0.00000000E+00  0.00000000E+00
  0.00000000E+00  0.00000000E+00  0.00000000E+00
  0.00000000E+00  0.00000000E+00  0.00000000E+00
  0.00000000E+00  0.00000000E+00  0.00000000E+00
  0.00000000E+00  0.00000000E+00  0.00000000E+00
  0.00000000E+00  0.00000000E+00  0.00000000E+00
