Mo  S Cu                                
   1.00000000000000     
    15.9214998300000001    0.0000000000000000    0.0000000000000000
    -7.9622501300000001   13.7910221699999997    0.0000000000000000
     0.0000000000000000    0.0000000000000000   13.5821998300000004
   Mo   S    Cu
    25    50     4
Direct
  0.1323971857545700  0.0656293120711737  0.6773865129643752
  0.1322345580556998  0.2654558257662600  0.6771845419933342
  0.1325217154910519  0.4653483135889473  0.6780937097762205
  0.1325664035335308  0.6655631792045824  0.6786592245062977
  0.1325639020431666  0.8656318419972138  0.6782125995894361
  0.3327291394507981  0.0658763446815129  0.6772575168312613
  0.3313296438440858  0.2654846506298654  0.6768414496316879
  0.3323133296268423  0.4649170490390446  0.6782512764251507
  0.3328307243854027  0.6656784627580308  0.6784830926241625
  0.3326353391927981  0.8656190721957913  0.6782588680706851
  0.5328096207584707  0.0656000744878327  0.6773564694534073
  0.5337529935822758  0.2654653193534884  0.6767912280203348
  0.5327259451253212  0.4658716586178571  0.6785199297871216
  0.5323257407378676  0.6659390016594600  0.6779263031420157
  0.5326432621797963  0.8657574041541949  0.6780186603522367
  0.7326469717910058  0.0654829272314643  0.6774619665828894
  0.7328405939231573  0.2654324363896379  0.6770278085611139
  0.7321946329081115  0.4649336021532733  0.6781111681349188
  0.7332370175388760  0.6660269046241893  0.6777705216156207
  0.7326986548733885  0.8658396680930025  0.6777479160304125
  0.9324282279691190  0.0655001150066070  0.6774895020678287
  0.9325371429604559  0.2654656032663780  0.6774147538338511
  0.9324073126053420  0.4653477865822637  0.6780069469668462
  0.9324245457556444  0.6656998792653042  0.6783429380731647
  0.9327173144502154  0.8658016867152938  0.6779290757067784
  0.0656415084873174  0.1323238075720923  0.5622100378932302
  0.0655844283867069  0.1319896897424258  0.7926212920681550
  0.0658896037804411  0.3323602502231040  0.5624324611629348
  0.0655124377935223  0.3318338228330333  0.7928091005460658
  0.0660581977822332  0.5324761559966262  0.5632749079584585
  0.0656797977962142  0.5318448076984694  0.7933190988015753
  0.0658837529326561  0.7321073028859573  0.5634750326785820
  0.0658013780846503  0.7323638819280234  0.7935983178937605
  0.0658982949683207  0.9320250866090305  0.5627295689949818
  0.0660534341987145  0.9327426657667459  0.7930314785798203
  0.2655993374688634  0.1321439461010527  0.5619734833091385
  0.2657559345727236  0.1322985671403671  0.7921517268130032
  0.2655199357664202  0.3324202150594786  0.5618998285262933
  0.2667716844065495  0.3320415145958648  0.7946769478832252
  0.2661037561861193  0.5322765394092812  0.5633143219028298
  0.2657776091587323  0.5319351110731674  0.7934884966971509
  0.2658352987591144  0.7320864921200183  0.5635426186602430
  0.2660883175758144  0.7323674189996865  0.7936702584290671
  0.2657782035916796  0.9319444054484478  0.5629582270591840
  0.2662238167706903  0.9328971625431564  0.7929601420474199
  0.4661060700927706  0.1321053672375072  0.5619472561615169
  0.4661444780134687  0.1322860730853890  0.7921189155330595
  0.4658988896166818  0.3322181896301899  0.5634602644455455
  0.4661773307138120  0.3327267306609869  0.7965316705399346
  0.4657831343446048  0.5322221571202377  0.5631874742796796
  0.4655532752746936  0.5316031226387210  0.7948858647490695
  0.4658806710624148  0.7323821981783922  0.5630238139318706
  0.4661546924297539  0.7328121569478512  0.7935407161922754
  0.4656829722897058  0.9319388983589079  0.5627749786928078
  0.4662694873555466  0.9327552216183221  0.7930715115173257
  0.6662420633949253  0.1322405632153618  0.5621188966864779
  0.6660186635016458  0.1320194168265587  0.7925374165536851
  0.6664676957358537  0.3323933151588818  0.5617844948609161
  0.6649501106452789  0.3319825892864543  0.7945107577977808
  0.6659866051206720  0.5322478350581505  0.5630870425373971
  0.6657641732377755  0.5318131126304024  0.7947087040162728
  0.6658294432129708  0.7321996879862382  0.5629977785811136
  0.6661879200831535  0.7327341279919324  0.7927318870377391
  0.6657552631878900  0.9321047140349208  0.5625943191299072
  0.6661091650764490  0.9325347814994345  0.7929430503906190
  0.8658987321336582  0.1321849285708652  0.5623216508943116
  0.8659085914633451  0.1322540312888663  0.7926032235889693
  0.8661461478849262  0.3323555612153228  0.5623338087376268
  0.8658863503860061  0.3318316497206055  0.7927152880103066
  0.8657586127525647  0.5322706071595604  0.5631902695843678
  0.8657254108631562  0.5319550563324569  0.7933603256305517
  0.8661291554277568  0.7324690140567327  0.5628667753693932
  0.8662672994691505  0.7328559663210044  0.7933958191323001
  0.8659156463636961  0.9321592156639369  0.5625746804552705
  0.8660144405480992  0.9325169611413244  0.7929167465166103
  0.3939019589777004  0.4000400593220448  0.9113879783487917
  0.6068930984369771  0.4011619458107489  0.9107115030857855
  0.5702995917540434  0.3933840659046979  0.0756405728865630
  0.4231405187406381  0.3925621707599092  0.0763513491763632
 
  0.00000000E+00  0.00000000E+00  0.00000000E+00
  0.00000000E+00  0.00000000E+00  0.00000000E+00
  0.00000000E+00  0.00000000E+00  0.00000000E+00
  0.00000000E+00  0.00000000E+00  0.00000000E+00
  0.00000000E+00  0.00000000E+00  0.00000000E+00
  0.00000000E+00  0.00000000E+00  0.00000000E+00
  0.00000000E+00  0.00000000E+00  0.00000000E+00
  0.00000000E+00  0.00000000E+00  0.00000000E+00
  0.00000000E+00  0.00000000E+00  0.00000000E+00
  0.00000000E+00  0.00000000E+00  0.00000000E+00
  0.00000000E+00  0.00000000E+00  0.00000000E+00
  0.00000000E+00  0.00000000E+00  0.00000000E+00
  0.00000000E+00  0.00000000E+00  0.00000000E+00
  0.00000000E+00  0.00000000E+00  0.00000000E+00
  0.00000000E+00  0.00000000E+00  0.00000000E+00
  0.00000000E+00  0.00000000E+00  0.00000000E+00
  0.00000000E+00  0.00000000E+00  0.00000000E+00
  0.00000000E+00  0.00000000E+00  0.00000000E+00
  0.00000000E+00  0.00000000E+00  0.00000000E+00
  0.00000000E+00  0.00000000E+00  0.00000000E+00
  0.00000000E+00  0.00000000E+00  0.00000000E+00
  0.00000000E+00  0.00000000E+00  0.00000000E+00
  0.00000000E+00  0.00000000E+00  0.00000000E+00
  0.00000000E+00  0.00000000E+00  0.00000000E+00
  0.00000000E+00  0.00000000E+00  0.00000000E+00
  0.00000000E+00  0.00000000E+00  0.00000000E+00
  0.00000000E+00  0.00000000E+00  0.00000000E+00
  0.00000000E+00  0.00000000E+00  0.00000000E+00
  0.00000000E+00  0.00000000E+00  0.00000000E+00
  0.00000000E+00  0.00000000E+00  0.00000000E+00
  0.00000000E+00  0.00000000E+00  0.00000000E+00
  0.00000000E+00  0.00000000E+00  0.00000000E+00
  0.00000000E+00  0.00000000E+00  0.00000000E+00
  0.00000000E+00  0.00000000E+00  0.00000000E+00
  0.00000000E+00  0.00000000E+00  0.00000000E+00
  0.00000000E+00  0.00000000E+00  0.00000000E+00
  0.00000000E+00  0.00000000E+00  0.00000000E+00
  0.00000000E+00  0.00000000E+00  0.00000000E+00
  0.00000000E+00  0.00000000E+00  0.00000000E+00
  0.00000000E+00  0.00000000E+00  0.00000000E+00
  0.00000000E+00  0.00000000E+00  0.00000000E+00
  0.00000000E+00  0.00000000E+00  0.00000000E+00
  0.00000000E+00  0.00000000E+00  0.00000000E+00
  0.00000000E+00  0.00000000E+00  0.00000000E+00
  0.00000000E+00  0.00000000E+00  0.00000000E+00
  0.00000000E+00  0.00000000E+00  0.00000000E+00
  0.00000000E+00  0.00000000E+00  0.00000000E+00
  0.00000000E+00  0.00000000E+00  0.00000000E+00
  0.00000000E+00  0.00000000E+00  0.00000000E+00
  0.00000000E+00  0.00000000E+00  0.00000000E+00
  0.00000000E+00  0.00000000E+00  0.00000000E+00
  0.00000000E+00  0.00000000E+00  0.00000000E+00
  0.00000000E+00  0.00000000E+00  0.00000000E+00
  0.00000000E+00  0.00000000E+00  0.00000000E+00
  0.00000000E+00  0.00000000E+00  0.00000000E+00
  0.00000000E+00  0.00000000E+00  0.00000000E+00
  0.00000000E+00  0.00000000E+00  0.00000000E+00
  0.00000000E+00  0.00000000E+00  0.00000000E+00
  0.00000000E+00  0.00000000E+00  0.00000000E+00
  0.00000000E+00  0.00000000E+00  0.00000000E+00
  0.00000000E+00  0.00000000E+00  0.00000000E+00
  0.00000000E+00  0.00000000E+00  0.00000000E+00
  0.00000000E+00  0.00000000E+00  0.00000000E+00
  0.00000000E+00  0.00000000E+00  0.00000000E+00
  0.00000000E+00  0.00000000E+00  0.00000000E+00
  0.00000000E+00  0.00000000E+00  0.00000000E+00
  0.00000000E+00  0.00000000E+00  0.00000000E+00
  0.00000000E+00  0.00000000E+00  0.00000000E+00
  0.00000000E+00  0.00000000E+00  0.00000000E+00
  0.00000000E+00  0.00000000E+00  0.00000000E+00
  0.00000000E+00  0.00000000E+00  0.00000000E+00
  0.00000000E+00  0.00000000E+00  0.00000000E+00
  0.00000000E+00  0.00000000E+00  0.00000000E+00
  0.00000000E+00  0.00000000E+00  0.00000000E+00
  0.00000000E+00  0.00000000E+00  0.00000000E+00
  0.00000000E+00  0.00000000E+00  0.00000000E+00
  0.00000000E+00  0.00000000E+00  0.00000000E+00
  0.00000000E+00  0.00000000E+00  0.00000000E+00
  0.00000000E+00  0.00000000E+00  0.00000000E+00
