Ta  N Ru Cu                             
   1.00000000000000     
     9.0548154099999998    0.0000000000000000    0.0000000000000000
     0.0000000000000000   11.6775998899999998    0.0000000000000000
     0.0000000000000000    0.0000000000000000   23.4818170799999990
   Ta   N    Ru   Cu
    60    60    16     2
Selective dynamics
Direct
  0.0000000000000000  0.0000000000000000  0.2546926809530987   F   F   F
  0.6670845899906297  0.1250000003211298  0.2638822399803757   F   F   F
  0.3329153514769843  0.1250000003211298  0.2638822399803757   F   F   F
  0.4999999994478088  0.2499999997859135  0.3618861993156202   F   F   F
  0.1650707596845180  0.1250000003211298  0.3684425577811794   F   F   F
  0.8349292403154820  0.1250000003211298  0.3684425577811794   F   F   F
  0.0000741428227195  0.2501043300986202  0.4799202626032911   T   T   T
  0.6645522371347985  0.1251367363209421  0.4780872695533203   T   T   T
  0.3354464589240718  0.1250724452677621  0.4779280006693687   T   T   T
  0.5003529305218376  0.2499834847565467  0.5903150804603935   T   T   T
  0.1684476014667396  0.1251072105241038  0.5898599093920022   T   T   T
  0.8322780065709122  0.1256112382747692  0.5898118321741389   T   T   T
  0.9954624179066154  0.2507464073252552  0.6992377731787136   T   T   T
  0.6676656015940460  0.1254449794481681  0.7017048503534111   T   T   T
  0.3308611934099710  0.1253399322643921  0.7038247352570385   T   T   T
  0.0000000000000000  0.2499999997859135  0.2546926809530987   F   F   F
  0.6670845899906297  0.3750000001070433  0.2638822399803757   F   F   F
  0.3329153514769843  0.3750000001070433  0.2638822399803757   F   F   F
  0.4999999994478088  0.5000000004281731  0.3618861993156202   F   F   F
  0.1650707596845180  0.3750000001070433  0.3684425577811794   F   F   F
  0.8349292403154820  0.3750000001070433  0.3684425577811794   F   F   F
  0.0000675350312224  0.5001400550858183  0.4799104046545349   T   T   T
  0.6645323157830604  0.3750932500728819  0.4780439883397540   T   T   T
  0.3355529990390912  0.3750974931918135  0.4778996436448965   T   T   T
  0.5007773199036321  0.5004125352321157  0.5901665805348362   T   T   T
  0.1684530506822956  0.3750152878920963  0.5895430569276972   T   T   T
  0.8324644213971305  0.3755170510924277  0.5898191954468102   T   T   T
  0.9977111933299617  0.5002115875129388  0.6995706736066130   T   T   T
  0.6674593178580764  0.3766929481921193  0.7035078870488254   T   T   T
  0.3307402528530150  0.3754499872949102  0.7023669024252996   T   T   T
  0.0000000000000000  0.5000000004281731  0.2546926809530987   F   F   F
  0.6670845899906297  0.6249999998929567  0.2638822399803757   F   F   F
  0.3329153514769843  0.6249999998929567  0.2638822399803757   F   F   F
  0.4999999994478088  0.7500000002140865  0.3618861993156202   F   F   F
  0.1650707596845180  0.6249999998929567  0.3684425577811794   F   F   F
  0.8349292403154820  0.6249999998929567  0.3684425577811794   F   F   F
  0.0001624550046133  0.7501516432977240  0.4799082248208431   T   T   T
  0.6645668808821790  0.6251059745542507  0.4780395300025442   T   T   T
  0.3354204002127641  0.6251496531168544  0.4778926271586775   T   T   T
  0.5000767435251012  0.7502192811383653  0.5902414890890092   T   T   T
  0.1684053199077965  0.6254096818635844  0.5895651964678064   T   T   T
  0.8326752574396309  0.6250565841424217  0.5898516556137349   T   T   T
  0.9942974786549744  0.7504008166313116  0.6996868158644918   T   T   T
  0.6676304665386369  0.6251342063240841  0.7031148573295014   T   T   T
  0.3321591448602421  0.6245639842035660  0.7014899348490103   T   T   T
  0.0000000000000000  0.7500000002140865  0.2546926809530987   F   F   F
  0.6670845899906297  0.8750000005352163  0.2638822399803757   F   F   F
  0.3329153514769843  0.8750000005352163  0.2638822399803757   F   F   F
  0.4999999994478088  0.0000000000000000  0.3618861993156202   F   F   F
  0.1650707596845180  0.8750000005352163  0.3684425577811794   F   F   F
  0.8349292403154820  0.8750000005352163  0.3684425577811794   F   F   F
  0.0002126413189147  0.0001127968246816  0.4799385681326470   T   T   T
  0.6645323447600912  0.8751312994707493  0.4781038395209484   T   T   T
  0.3355023366517721  0.8751494280975207  0.4779657204736889   T   T   T
  0.4992997805896300  0.0005037809266857  0.5903348143319028   T   T   T
  0.1684998005060497  0.8754038913324257  0.5900476037965302   T   T   T
  0.8323739713094216  0.8751589423355769  0.5895202528090426   T   T   T
  0.9926356639006894  0.9996966528663609  0.6999570985418342   T   T   T
  0.6663353169891459  0.8749753916528153  0.7007099753976196   T   T   T
  0.3293246679032586  0.8755582625513201  0.7050782167583672   T   T   T
  0.8141011533980276  0.0000000000000000  0.3013105672926031   F   F   F
  0.4999999994478088  0.0000000000000000  0.2564174481620327   F   F   F
  0.1858988466019724  0.0000000000000000  0.3013105672926031   F   F   F
  0.3088456122590841  0.2499999997859135  0.4099867722441957   F   F   F
  0.0000000000000000  0.2499999997859135  0.3930971035158137   F   F   F
  0.6911543877409159  0.2499999997859135  0.4099867722441957   F   F   F
  0.8011454457904579  0.2503228459833797  0.5220448941778388   T   T   T
  0.4999104407181199  0.2501405204045716  0.5026611542789614   T   T   T
  0.1988876866146716  0.2500028094570550  0.5219143450118736   T   T   T
  0.3048492159566530  0.2498204684901681  0.6341081427756801   T   T   T
  0.9999178115983844  0.2504797430146116  0.6114859479271866   T   T   T
  0.6958389773146112  0.2517794099092515  0.6342514914426989   T   T   T
  0.8047595450034402  0.2582204435434854  0.7450091585611056   T   T   T
  0.5019871817380405  0.2508279948674554  0.7271535543811074   T   T   T
  0.1935864956664947  0.2503885725692593  0.7382905231798472   T   T   T
  0.8141011533980276  0.2499999997859135  0.3013105672926031   F   F   F
  0.4999999994478088  0.2499999997859135  0.2564174481620327   F   F   F
  0.1858988466019724  0.2499999997859135  0.3013105672926031   F   F   F
  0.3088456122590841  0.5000000004281731  0.4099867722441957   F   F   F
  0.0000000000000000  0.5000000004281731  0.3930971035158137   F   F   F
  0.6911543877409159  0.5000000004281731  0.4099867722441957   F   F   F
  0.8011151954216187  0.5002093384171825  0.5220516642875910   T   T   T
  0.5000256233108716  0.5001602883637140  0.5025707148708346   T   T   T
  0.1988817892372593  0.5001566221391887  0.5217870483368474   T   T   T
  0.3050299207011212  0.4998271358252043  0.6333497859902790   T   T   T
  0.0003253243961494  0.5001896839129810  0.6115556125748844   T   T   T
  0.6958998615953381  0.5004785982032542  0.6344119195022910   T   T   T
  0.8067183883040138  0.5001987972999679  0.7444064013725152   T   T   T
  0.4991415551981858  0.5004752354296302  0.7274116546769105   T   T   T
  0.1966738403530105  0.5008816625284337  0.7381590286730657   T   T   T
  0.8141011533980276  0.5000000004281731  0.3013105672926031   F   F   F
  0.4999999994478088  0.5000000004281731  0.2564174481620327   F   F   F
  0.1858988466019724  0.5000000004281731  0.3013105672926031   F   F   F
  0.3088456122590841  0.7500000002140865  0.4099867722441957   F   F   F
  0.0000000000000000  0.7500000002140865  0.3930971035158137   F   F   F
  0.6911543877409159  0.7500000002140865  0.4099867722441957   F   F   F
  0.8012842885479489  0.7500058317323511  0.5219649645293567   T   T   T
  0.4998982215806076  0.7500822658490917  0.5026297630349779   T   T   T
  0.1989071493547850  0.7504335232764475  0.5219880315586289   T   T   T
  0.3046588440137006  0.7509385949787157  0.6340798101998261   T   T   T
  0.9997948888897326  0.7504438185779730  0.6117378623614179   T   T   T
  0.6960151183593841  0.7487226389764460  0.6338672320064681   T   T   T
  0.8013788982800614  0.7490600452143721  0.7454259332842128   T   T   T
  0.5020200735519601  0.7502760462948963  0.7267970855075738   T   T   T
  0.1937207285129642  0.7477402353983194  0.7379077535958865   T   T   T
  0.8141011533980276  0.7500000002140865  0.3013105672926031   F   F   F
  0.4999999994478088  0.7500000002140865  0.2564174481620327   F   F   F
  0.1858988466019724  0.7500000002140865  0.3013105672926031   F   F   F
  0.3088456122590841  0.0000000000000000  0.4099867722441957   F   F   F
  0.0000000000000000  0.0000000000000000  0.3930971035158137   F   F   F
  0.6911543877409159  0.0000000000000000  0.4099867722441957   F   F   F
  0.8013967563111679  0.0003006485955688  0.5219060668987263   T   T   T
  0.4998596073628952  0.0001901250414776  0.5026699942418965   T   T   T
  0.1988516549110364  0.0000451734224846  0.5221314423042790   T   T   T
  0.3039450917376197  0.0001365814019799  0.6345853670629126   T   T   T
  0.9995896207830210  0.0001618681530630  0.6119127524918532   T   T   T
  0.6960063001852069  0.0009162292099128  0.6333250570772231   T   T   T
  0.8009046753295298  0.9957040918341822  0.7458836182605526   T   T   T
  0.5017752929054112  0.0008631128807926  0.7252458323169182   T   T   T
  0.1905942394418609  0.0019474539310257  0.7381840100451889   T   T   T
  0.1205342313520135  0.0130411804617001  0.8154515135846891   T   T   T
  0.5664190560626978  0.0024690342125811  0.8057388355867131   T   T   T
  0.8652581520572833  0.1292013834202987  0.7969566751353888   T   T   T
  0.1482502944142969  0.5150217893864213  0.8177806068575872   T   T   T
  0.4612554772448869  0.4973488892804471  0.8132221953875074   T   T   T
  0.8978174758591347  0.6246193228258922  0.7998841033602848   T   T   T
  0.1265997075931192  0.2400478965770977  0.8158019902381872   T   T   T
  0.5532357205317635  0.2328241624695828  0.8095841247231197   T   T   T
  0.9083873582979929  0.3769596787008214  0.8015313160355014   T   T   T
  0.1380281789546822  0.7383717371178240  0.8160921009023729   T   T   T
  0.5633856733058078  0.7743453287127523  0.8079415302499371   T   T   T
  0.8925459533829354  0.8701846924277392  0.8002552087207278   T   T   T
  0.3438385078661740  0.8881139711183179  0.8379978893459318   T   T   T
  0.3658543147356345  0.6685666779543676  0.8574056553995091   T   T   T
  0.3401382974835379  0.3349400449221060  0.8545743939676762   T   T   T
  0.3534256098024088  0.1089911293894849  0.8434068555067824   T   T   T
  0.6663302226446386  0.6078497680223447  0.8622173354795769   T   T   T
  0.6728533282553038  0.3960288178820792  0.8607028986477945   T   T   T
 
  0.00000000E+00  0.00000000E+00  0.00000000E+00
  0.00000000E+00  0.00000000E+00  0.00000000E+00
  0.00000000E+00  0.00000000E+00  0.00000000E+00
  0.00000000E+00  0.00000000E+00  0.00000000E+00
  0.00000000E+00  0.00000000E+00  0.00000000E+00
  0.00000000E+00  0.00000000E+00  0.00000000E+00
  0.00000000E+00  0.00000000E+00  0.00000000E+00
  0.00000000E+00  0.00000000E+00  0.00000000E+00
  0.00000000E+00  0.00000000E+00  0.00000000E+00
  0.00000000E+00  0.00000000E+00  0.00000000E+00
  0.00000000E+00  0.00000000E+00  0.00000000E+00
  0.00000000E+00  0.00000000E+00  0.00000000E+00
  0.00000000E+00  0.00000000E+00  0.00000000E+00
  0.00000000E+00  0.00000000E+00  0.00000000E+00
  0.00000000E+00  0.00000000E+00  0.00000000E+00
  0.00000000E+00  0.00000000E+00  0.00000000E+00
  0.00000000E+00  0.00000000E+00  0.00000000E+00
  0.00000000E+00  0.00000000E+00  0.00000000E+00
  0.00000000E+00  0.00000000E+00  0.00000000E+00
  0.00000000E+00  0.00000000E+00  0.00000000E+00
  0.00000000E+00  0.00000000E+00  0.00000000E+00
  0.00000000E+00  0.00000000E+00  0.00000000E+00
  0.00000000E+00  0.00000000E+00  0.00000000E+00
  0.00000000E+00  0.00000000E+00  0.00000000E+00
  0.00000000E+00  0.00000000E+00  0.00000000E+00
  0.00000000E+00  0.00000000E+00  0.00000000E+00
  0.00000000E+00  0.00000000E+00  0.00000000E+00
  0.00000000E+00  0.00000000E+00  0.00000000E+00
  0.00000000E+00  0.00000000E+00  0.00000000E+00
  0.00000000E+00  0.00000000E+00  0.00000000E+00
  0.00000000E+00  0.00000000E+00  0.00000000E+00
  0.00000000E+00  0.00000000E+00  0.00000000E+00
  0.00000000E+00  0.00000000E+00  0.00000000E+00
  0.00000000E+00  0.00000000E+00  0.00000000E+00
  0.00000000E+00  0.00000000E+00  0.00000000E+00
  0.00000000E+00  0.00000000E+00  0.00000000E+00
  0.00000000E+00  0.00000000E+00  0.00000000E+00
  0.00000000E+00  0.00000000E+00  0.00000000E+00
  0.00000000E+00  0.00000000E+00  0.00000000E+00
  0.00000000E+00  0.00000000E+00  0.00000000E+00
  0.00000000E+00  0.00000000E+00  0.00000000E+00
  0.00000000E+00  0.00000000E+00  0.00000000E+00
  0.00000000E+00  0.00000000E+00  0.00000000E+00
  0.00000000E+00  0.00000000E+00  0.00000000E+00
  0.00000000E+00  0.00000000E+00  0.00000000E+00
  0.00000000E+00  0.00000000E+00  0.00000000E+00
  0.00000000E+00  0.00000000E+00  0.00000000E+00
  0.00000000E+00  0.00000000E+00  0.00000000E+00
  0.00000000E+00  0.00000000E+00  0.00000000E+00
  0.00000000E+00  0.00000000E+00  0.00000000E+00
  0.00000000E+00  0.00000000E+00  0.00000000E+00
  0.00000000E+00  0.00000000E+00  0.00000000E+00
  0.00000000E+00  0.00000000E+00  0.00000000E+00
  0.00000000E+00  0.00000000E+00  0.00000000E+00
  0.00000000E+00  0.00000000E+00  0.00000000E+00
  0.00000000E+00  0.00000000E+00  0.00000000E+00
  0.00000000E+00  0.00000000E+00  0.00000000E+00
  0.00000000E+00  0.00000000E+00  0.00000000E+00
  0.00000000E+00  0.00000000E+00  0.00000000E+00
  0.00000000E+00  0.00000000E+00  0.00000000E+00
  0.00000000E+00  0.00000000E+00  0.00000000E+00
  0.00000000E+00  0.00000000E+00  0.00000000E+00
  0.00000000E+00  0.00000000E+00  0.00000000E+00
  0.00000000E+00  0.00000000E+00  0.00000000E+00
  0.00000000E+00  0.00000000E+00  0.00000000E+00
  0.00000000E+00  0.00000000E+00  0.00000000E+00
  0.00000000E+00  0.00000000E+00  0.00000000E+00
  0.00000000E+00  0.00000000E+00  0.00000000E+00
  0.00000000E+00  0.00000000E+00  0.00000000E+00
  0.00000000E+00  0.00000000E+00  0.00000000E+00
  0.00000000E+00  0.00000000E+00  0.00000000E+00
  0.00000000E+00  0.00000000E+00  0.00000000E+00
  0.00000000E+00  0.00000000E+00  0.00000000E+00
  0.00000000E+00  0.00000000E+00  0.00000000E+00
  0.00000000E+00  0.00000000E+00  0.00000000E+00
  0.00000000E+00  0.00000000E+00  0.00000000E+00
  0.00000000E+00  0.00000000E+00  0.00000000E+00
  0.00000000E+00  0.00000000E+00  0.00000000E+00
  0.00000000E+00  0.00000000E+00  0.00000000E+00
  0.00000000E+00  0.00000000E+00  0.00000000E+00
  0.00000000E+00  0.00000000E+00  0.00000000E+00
  0.00000000E+00  0.00000000E+00  0.00000000E+00
  0.00000000E+00  0.00000000E+00  0.00000000E+00
  0.00000000E+00  0.00000000E+00  0.00000000E+00
  0.00000000E+00  0.00000000E+00  0.00000000E+00
  0.00000000E+00  0.00000000E+00  0.00000000E+00
  0.00000000E+00  0.00000000E+00  0.00000000E+00
  0.00000000E+00  0.00000000E+00  0.00000000E+00
  0.00000000E+00  0.00000000E+00  0.00000000E+00
  0.00000000E+00  0.00000000E+00  0.00000000E+00
  0.00000000E+00  0.00000000E+00  0.00000000E+00
  0.00000000E+00  0.00000000E+00  0.00000000E+00
  0.00000000E+00  0.00000000E+00  0.00000000E+00
  0.00000000E+00  0.00000000E+00  0.00000000E+00
  0.00000000E+00  0.00000000E+00  0.00000000E+00
  0.00000000E+00  0.00000000E+00  0.00000000E+00
  0.00000000E+00  0.00000000E+00  0.00000000E+00
  0.00000000E+00  0.00000000E+00  0.00000000E+00
  0.00000000E+00  0.00000000E+00  0.00000000E+00
  0.00000000E+00  0.00000000E+00  0.00000000E+00
  0.00000000E+00  0.00000000E+00  0.00000000E+00
  0.00000000E+00  0.00000000E+00  0.00000000E+00
  0.00000000E+00  0.00000000E+00  0.00000000E+00
  0.00000000E+00  0.00000000E+00  0.00000000E+00
  0.00000000E+00  0.00000000E+00  0.00000000E+00
  0.00000000E+00  0.00000000E+00  0.00000000E+00
  0.00000000E+00  0.00000000E+00  0.00000000E+00
  0.00000000E+00  0.00000000E+00  0.00000000E+00
  0.00000000E+00  0.00000000E+00  0.00000000E+00
  0.00000000E+00  0.00000000E+00  0.00000000E+00
  0.00000000E+00  0.00000000E+00  0.00000000E+00
  0.00000000E+00  0.00000000E+00  0.00000000E+00
  0.00000000E+00  0.00000000E+00  0.00000000E+00
  0.00000000E+00  0.00000000E+00  0.00000000E+00
  0.00000000E+00  0.00000000E+00  0.00000000E+00
  0.00000000E+00  0.00000000E+00  0.00000000E+00
  0.00000000E+00  0.00000000E+00  0.00000000E+00
  0.00000000E+00  0.00000000E+00  0.00000000E+00
  0.00000000E+00  0.00000000E+00  0.00000000E+00
  0.00000000E+00  0.00000000E+00  0.00000000E+00
  0.00000000E+00  0.00000000E+00  0.00000000E+00
  0.00000000E+00  0.00000000E+00  0.00000000E+00
  0.00000000E+00  0.00000000E+00  0.00000000E+00
  0.00000000E+00  0.00000000E+00  0.00000000E+00
  0.00000000E+00  0.00000000E+00  0.00000000E+00
  0.00000000E+00  0.00000000E+00  0.00000000E+00
  0.00000000E+00  0.00000000E+00  0.00000000E+00
  0.00000000E+00  0.00000000E+00  0.00000000E+00
  0.00000000E+00  0.00000000E+00  0.00000000E+00
  0.00000000E+00  0.00000000E+00  0.00000000E+00
  0.00000000E+00  0.00000000E+00  0.00000000E+00
  0.00000000E+00  0.00000000E+00  0.00000000E+00
  0.00000000E+00  0.00000000E+00  0.00000000E+00
  0.00000000E+00  0.00000000E+00  0.00000000E+00
  0.00000000E+00  0.00000000E+00  0.00000000E+00
  0.00000000E+00  0.00000000E+00  0.00000000E+00
  0.00000000E+00  0.00000000E+00  0.00000000E+00
  0.00000000E+00  0.00000000E+00  0.00000000E+00
