Mo  S Cu                                
   1.00000000000000     
    15.9214998300000001    0.0000000000000000    0.0000000000000000
    -7.9622501300000001   13.7910221699999997    0.0000000000000000
     0.0000000000000000    0.0000000000000000   13.5821998300000004
   Mo   S    Co
    25    50     4
Direct
  0.1308055904442895  0.0649312639678357  0.6736333427019972
  0.1269817858766302  0.2635102584127935  0.6727384921172330
  0.1313645277781745  0.4670128634186810  0.6766806042592890
  0.1336647946362817  0.6669395898160317  0.6767275186135038
  0.1335440385786129  0.8668551513442537  0.6748109828934474
  0.3322127047756140  0.0654395832943422  0.6768439352367963
  0.3283063851950203  0.2633789812858396  0.6859571430270890
  0.3239494747335598  0.4613192221088696  0.6896963633656839
  0.3344360292427453  0.6669968669375166  0.6834085699746737
  0.3334901553205185  0.8670706626691072  0.6751687888151352
  0.5335934296161398  0.0666299594369661  0.6729795641524277
  0.5346425016610539  0.2662415169465362  0.6833099398314459
  0.5194071140124876  0.4495995780714281  0.7025298013648467
  0.5390271774431099  0.6788483978782622  0.6885983616105733
  0.5331114820168779  0.8693290263317124  0.6744264415823693
  0.7334227737607364  0.0681251267196359  0.6692524014963794
  0.7331086468845243  0.2663863093207794  0.6741695403653765
  0.7354288445308867  0.4647133665097840  0.6884298118588035
  0.7382780348287454  0.6727528115800112  0.6932752458911153
  0.7356867162473861  0.8699258756524344  0.6747393759781772
  0.9321203492255137  0.0667416785760295  0.6692185712539143
  0.9317336563961049  0.2669697561245172  0.6699625301392800
  0.9337509233278709  0.4678372743270174  0.6753971072289815
  0.9345628861318502  0.6683661833600141  0.6799896317665528
  0.9342038716515901  0.8681148735212432  0.6745225980631915
  0.0664271655150230  0.1323796738192371  0.5554821314042258
  0.0610254624585167  0.1299460134781967  0.7867290701396925
  0.0670337811241239  0.3361987211245676  0.5573490018541207
  0.0603354619525902  0.3307470666100301  0.7878902890357296
  0.0671206693818931  0.5347198551536323  0.5603831689581398
  0.0653884109855767  0.5336369057448564  0.7914487008795987
  0.0655565357144070  0.7323099342126298  0.5617592014676802
  0.0695254708128275  0.7355094542542417  0.7921705182693870
  0.0662162870909384  0.9321354484472195  0.5582449120519044
  0.0666759753325294  0.9336717271587887  0.7894718661542868
  0.2676303936182833  0.1356730500283732  0.5639154154308414
  0.2593862961533020  0.1250311618696571  0.7933315263090890
  0.2677527086088105  0.3335981921416575  0.5679925534283754
  0.2449255833639796  0.3243415290403178  0.7995470684395229
  0.2693731395338830  0.5324183283286530  0.5690718388690925
  0.2588662095012850  0.5314474597413010  0.8035503298567050
  0.2683862741835270  0.7312282169352216  0.5635043779606121
  0.2664377258768056  0.7352997469754285  0.7931052707617638
  0.2669873072434683  0.9337767514348414  0.5598928666858711
  0.2659818473708739  0.9321289133732549  0.7907949355160611
  0.4668327161272003  0.1367983572084199  0.5628191720983438
  0.4664680780263666  0.1280808844129453  0.7916279022298554
  0.4633722588688940  0.3329203567970822  0.5743674486468464
  0.4638219779339252  0.3118569154874393  0.8169699573497127
  0.4665054794392063  0.5331719342437324  0.5910242180440690
  0.4456002108351100  0.4914403200154638  0.8527175170161030
  0.4664015054318114  0.7312628471938112  0.5659829015811937
  0.4725891214509232  0.7465929067159465  0.8022325645522557
  0.4654973297281302  0.9331875790311557  0.5581059190281863
  0.4669879409121904  0.9357823841709987  0.7893093211382549
  0.6655948235876963  0.1352536349583886  0.5559591326982130
  0.6673769779473275  0.1319356605704201  0.7868232098593779
  0.6664938191976901  0.3384629481144614  0.5671360491869493
  0.6742509144388364  0.3291734536743363  0.8034882053912682
  0.6567952275185363  0.5294059678655927  0.5920303207470710
  0.7018667932525631  0.5625511195593731  0.8402462900147398
  0.6671874399243549  0.7297008543277030  0.5704492891013757
  0.6751173328858400  0.7500126679446950  0.8051986956946209
  0.6653029876190573  0.9317988610736734  0.5573599603430210
  0.6691086313681680  0.9392520477486954  0.7868444222190050
  0.8661501936420564  0.1343150764959802  0.5532431488337650
  0.8658440998265817  0.1337269369242549  0.7840069414156687
  0.8653116533650973  0.3360462741300267  0.5575252179032901
  0.8674147316157317  0.3323159694080928  0.7876626601324261
  0.8630906623697570  0.5346515090691781  0.5656312654750195
  0.8732440212561272  0.5350644600735635  0.7957463024703841
  0.8616104629230747  0.7295644149460685  0.5666502436344842
  0.8775551245971798  0.7429369815286222  0.7973393314061425
  0.8654682151729460  0.9314509897231673  0.5566197272385125
  0.8694312520299263  0.9381267942687614  0.7878293460720158
  0.3652397791342779  0.3438097588774411  0.8778784921405602
  0.6110067857636636  0.4138403840236151  0.8409630054322150
  0.5882237057869943  0.5957069643744219  0.8323939590192637
  0.4106351318456802  0.5964346871916106  0.8351110141039442
 
  0.00000000E+00  0.00000000E+00  0.00000000E+00
  0.00000000E+00  0.00000000E+00  0.00000000E+00
  0.00000000E+00  0.00000000E+00  0.00000000E+00
  0.00000000E+00  0.00000000E+00  0.00000000E+00
  0.00000000E+00  0.00000000E+00  0.00000000E+00
  0.00000000E+00  0.00000000E+00  0.00000000E+00
  0.00000000E+00  0.00000000E+00  0.00000000E+00
  0.00000000E+00  0.00000000E+00  0.00000000E+00
  0.00000000E+00  0.00000000E+00  0.00000000E+00
  0.00000000E+00  0.00000000E+00  0.00000000E+00
  0.00000000E+00  0.00000000E+00  0.00000000E+00
  0.00000000E+00  0.00000000E+00  0.00000000E+00
  0.00000000E+00  0.00000000E+00  0.00000000E+00
  0.00000000E+00  0.00000000E+00  0.00000000E+00
  0.00000000E+00  0.00000000E+00  0.00000000E+00
  0.00000000E+00  0.00000000E+00  0.00000000E+00
  0.00000000E+00  0.00000000E+00  0.00000000E+00
  0.00000000E+00  0.00000000E+00  0.00000000E+00
  0.00000000E+00  0.00000000E+00  0.00000000E+00
  0.00000000E+00  0.00000000E+00  0.00000000E+00
  0.00000000E+00  0.00000000E+00  0.00000000E+00
  0.00000000E+00  0.00000000E+00  0.00000000E+00
  0.00000000E+00  0.00000000E+00  0.00000000E+00
  0.00000000E+00  0.00000000E+00  0.00000000E+00
  0.00000000E+00  0.00000000E+00  0.00000000E+00
  0.00000000E+00  0.00000000E+00  0.00000000E+00
  0.00000000E+00  0.00000000E+00  0.00000000E+00
  0.00000000E+00  0.00000000E+00  0.00000000E+00
  0.00000000E+00  0.00000000E+00  0.00000000E+00
  0.00000000E+00  0.00000000E+00  0.00000000E+00
  0.00000000E+00  0.00000000E+00  0.00000000E+00
  0.00000000E+00  0.00000000E+00  0.00000000E+00
  0.00000000E+00  0.00000000E+00  0.00000000E+00
  0.00000000E+00  0.00000000E+00  0.00000000E+00
  0.00000000E+00  0.00000000E+00  0.00000000E+00
  0.00000000E+00  0.00000000E+00  0.00000000E+00
  0.00000000E+00  0.00000000E+00  0.00000000E+00
  0.00000000E+00  0.00000000E+00  0.00000000E+00
  0.00000000E+00  0.00000000E+00  0.00000000E+00
  0.00000000E+00  0.00000000E+00  0.00000000E+00
  0.00000000E+00  0.00000000E+00  0.00000000E+00
  0.00000000E+00  0.00000000E+00  0.00000000E+00
  0.00000000E+00  0.00000000E+00  0.00000000E+00
  0.00000000E+00  0.00000000E+00  0.00000000E+00
  0.00000000E+00  0.00000000E+00  0.00000000E+00
  0.00000000E+00  0.00000000E+00  0.00000000E+00
  0.00000000E+00  0.00000000E+00  0.00000000E+00
  0.00000000E+00  0.00000000E+00  0.00000000E+00
  0.00000000E+00  0.00000000E+00  0.00000000E+00
  0.00000000E+00  0.00000000E+00  0.00000000E+00
  0.00000000E+00  0.00000000E+00  0.00000000E+00
  0.00000000E+00  0.00000000E+00  0.00000000E+00
  0.00000000E+00  0.00000000E+00  0.00000000E+00
  0.00000000E+00  0.00000000E+00  0.00000000E+00
  0.00000000E+00  0.00000000E+00  0.00000000E+00
  0.00000000E+00  0.00000000E+00  0.00000000E+00
  0.00000000E+00  0.00000000E+00  0.00000000E+00
  0.00000000E+00  0.00000000E+00  0.00000000E+00
  0.00000000E+00  0.00000000E+00  0.00000000E+00
  0.00000000E+00  0.00000000E+00  0.00000000E+00
  0.00000000E+00  0.00000000E+00  0.00000000E+00
  0.00000000E+00  0.00000000E+00  0.00000000E+00
  0.00000000E+00  0.00000000E+00  0.00000000E+00
  0.00000000E+00  0.00000000E+00  0.00000000E+00
  0.00000000E+00  0.00000000E+00  0.00000000E+00
  0.00000000E+00  0.00000000E+00  0.00000000E+00
  0.00000000E+00  0.00000000E+00  0.00000000E+00
  0.00000000E+00  0.00000000E+00  0.00000000E+00
  0.00000000E+00  0.00000000E+00  0.00000000E+00
  0.00000000E+00  0.00000000E+00  0.00000000E+00
  0.00000000E+00  0.00000000E+00  0.00000000E+00
  0.00000000E+00  0.00000000E+00  0.00000000E+00
  0.00000000E+00  0.00000000E+00  0.00000000E+00
  0.00000000E+00  0.00000000E+00  0.00000000E+00
  0.00000000E+00  0.00000000E+00  0.00000000E+00
  0.00000000E+00  0.00000000E+00  0.00000000E+00
  0.00000000E+00  0.00000000E+00  0.00000000E+00
  0.00000000E+00  0.00000000E+00  0.00000000E+00
  0.00000000E+00  0.00000000E+00  0.00000000E+00
