Ta  N Ru Cu                             
   1.00000000000000     
     9.0548154099999998    0.0000000000000000    0.0000000000000000
     0.0000000000000000   11.6775998899999998    0.0000000000000000
     0.0000000000000000    0.0000000000000000   26.4818170799999990
   Ta   N    Ru   Cu
    60    60    32     1
Selective dynamics
Direct
  0.0000000000000000  0.0000000000000000  0.2258397498815228   F   F   F
  0.6670845899906297  0.1250000003211298  0.2339882671631202   F   F   F
  0.3329153514769843  0.1250000003211298  0.2339882671631202   F   F   F
  0.4999999994478088  0.2499999997859135  0.3208898207564346   F   F   F
  0.1650707596845180  0.1250000003211298  0.3267034403329916   F   F   F
  0.8349292403154820  0.1250000003211298  0.3267034403329916   F   F   F
  0.0010257175152314  0.2500769685300123  0.4254698592337277   T   T   T
  0.6649386759063041  0.1250826744843136  0.4239270287125990   T   T   T
  0.3350514572857023  0.1250657394997694  0.4239248144237794   T   T   T
  0.4975404639154406  0.2502191788724804  0.5230475077208445   T   T   T
  0.1671453347202640  0.1250709124783881  0.5235433825388004   T   T   T
  0.8341428777622328  0.1249769336841867  0.5226029556244045   T   T   T
  0.0026414768198047  0.2500569395891968  0.6223823890046144   T   T   T
  0.6635465443851800  0.1247655488861286  0.6197431625839099   T   T   T
  0.3272352206673868  0.1245207179352281  0.6240570499940903   T   T   T
  0.0000000000000000  0.2499999997859135  0.2258397498815228   F   F   F
  0.6670845899906297  0.3750000001070433  0.2339882671631202   F   F   F
  0.3329153514769843  0.3750000001070433  0.2339882671631202   F   F   F
  0.4999999994478088  0.5000000004281731  0.3208898207564346   F   F   F
  0.1650707596845180  0.3750000001070433  0.3267034403329916   F   F   F
  0.8349292403154820  0.3750000001070433  0.3267034403329916   F   F   F
  0.0009149096993308  0.5001161919352096  0.4255177523837383   T   T   T
  0.6649512642238194  0.3750701361094763  0.4240022979148160   T   T   T
  0.3349487934187040  0.3750647963662873  0.4240032395498899   T   T   T
  0.4976351868203203  0.4999662637602046  0.5232599729365214   T   T   T
  0.1671992065374916  0.3751213932698646  0.5237422743080951   T   T   T
  0.8338335108244169  0.3752400797040031  0.5227352430520857   T   T   T
  0.9991812013209128  0.4997884032892749  0.6233895098974387   T   T   T
  0.6645131733659289  0.3750701874471097  0.6198980610457936   T   T   T
  0.3275873824541420  0.3749388621086041  0.6245670764831205   T   T   T
  0.0000000000000000  0.5000000004281731  0.2258397498815228   F   F   F
  0.6670845899906297  0.6249999998929567  0.2339882671631202   F   F   F
  0.3329153514769843  0.6249999998929567  0.2339882671631202   F   F   F
  0.4999999994478088  0.7500000002140865  0.3208898207564346   F   F   F
  0.1650707596845180  0.6249999998929567  0.3267034403329916   F   F   F
  0.8349292403154820  0.6249999998929567  0.3267034403329916   F   F   F
  0.0010163966715273  0.7498923190826574  0.4254983398271511   T   T   T
  0.6649402028491431  0.6250452424618078  0.4239831299077383   T   T   T
  0.3351601452457416  0.6249861511494957  0.4239361926767146   T   T   T
  0.4975486597418047  0.7500275518497551  0.5232759914814510   T   T   T
  0.1674396204874212  0.6248225974583685  0.5236119120515198   T   T   T
  0.8337860740409299  0.6250422246954642  0.5229197491082452   T   T   T
  0.0040040910801012  0.7504029379225255  0.6221651152320194   T   T   T
  0.6647596152279468  0.6256284896945938  0.6209500959847107   T   T   T
  0.3283658650112112  0.6253956431569334  0.6244827398931596   T   T   T
  0.0000000000000000  0.7500000002140865  0.2258397498815228   F   F   F
  0.6670845899906297  0.8750000005352163  0.2339882671631202   F   F   F
  0.3329153514769843  0.8750000005352163  0.2339882671631202   F   F   F
  0.4999999994478088  0.0000000000000000  0.3208898207564346   F   F   F
  0.1650707596845180  0.8750000005352163  0.3267034403329916   F   F   F
  0.8349292403154820  0.8750000005352163  0.3267034403329916   F   F   F
  0.0009605836679690  0.0000513982734380  0.4254819527183478   T   T   T
  0.6648689990017542  0.8749878331960093  0.4239717747934050   T   T   T
  0.3352423824350242  0.8750052997689641  0.4238937549329964   T   T   T
  0.4976503250724635 -0.0000554075748371  0.5231379855659012   T   T   T
  0.1671058322803084  0.8750531988770328  0.5233201338932999   T   T   T
  0.8342187473605165  0.8749979405141418  0.5226407648941546   T   T   T
  0.9988458265090633 -0.0001812300813749  0.6235160022405499   T   T   T
  0.6650575575744997  0.8756020730786375  0.6199505484188214   T   T   T
  0.3292494687116216  0.8747510967511323  0.6235006496681516   T   T   T
  0.8141011533980276  0.0000000000000000  0.2671765160246267   F   F   F
  0.4999999994478088  0.0000000000000000  0.2273691263583544   F   F   F
  0.1858988466019724  0.0000000000000000  0.2671765160246267   F   F   F
  0.3088456122590841  0.2499999997859135  0.3635413069267344   F   F   F
  0.0000000000000000  0.2499999997859135  0.3485649890092901   F   F   F
  0.6911543877409159  0.2499999997859135  0.3635413069267344   F   F   F
  0.8028362305701328  0.2501454774352239  0.4625680085044888   T   T   T
  0.4997656543944118  0.2500754102407326  0.4455813953299473   T   T   T
  0.1987302965474206  0.2501223774446915  0.4633334113432240   T   T   T
  0.3018209901370938  0.2504210494276202  0.5629513365630640   T   T   T
  0.0002628692813457  0.2500057243119739  0.5439422188856543   T   T   T
  0.6954461637747520  0.2498525613772528  0.5597052725644591   T   T   T
  0.8017876407126289  0.2497238358387868  0.6548398998182966   T   T   T
  0.4999399576180005  0.2492175002365931  0.6411320059538039   T   T   T
  0.1976593452600124  0.2502596015829127  0.6598213631053290   T   T   T
  0.8141011533980276  0.2499999997859135  0.2671765160246267   F   F   F
  0.4999999994478088  0.2499999997859135  0.2273691263583544   F   F   F
  0.1858988466019724  0.2499999997859135  0.2671765160246267   F   F   F
  0.3088456122590841  0.5000000004281731  0.3635413069267344   F   F   F
  0.0000000000000000  0.5000000004281731  0.3485649890092901   F   F   F
  0.6911543877409159  0.5000000004281731  0.3635413069267344   F   F   F
  0.8026998144688047  0.5001411460623070  0.4627160443944147   T   T   T
  0.4998202007644877  0.5000638165956844  0.4457068638309509   T   T   T
  0.1987098236055355  0.4999960967553529  0.4633925000943512   T   T   T
  0.3023138364257039  0.4996341688145705  0.5630621095651672   T   T   T
 -0.0000422455446210  0.5001498477011321  0.5445232248919112   T   T   T
  0.6952206006214054  0.5008880857407979  0.5605635453786758   T   T   T
  0.8001237595879392  0.4992666899316762  0.6586453986688996   T   T   T
  0.5003329247339269  0.5000763448982267  0.6418460957768586   T   T   T
  0.1969202377210912  0.4997060853673960  0.6591930632250165   T   T   T
  0.8141011533980276  0.5000000004281731  0.2671765160246267   F   F   F
  0.4999999994478088  0.5000000004281731  0.2273691263583544   F   F   F
  0.1858988466019724  0.5000000004281731  0.2671765160246267   F   F   F
  0.3088456122590841  0.7500000002140865  0.3635413069267344   F   F   F
  0.0000000000000000  0.7500000002140865  0.3485649890092901   F   F   F
  0.6911543877409159  0.7500000002140865  0.3635413069267344   F   F   F
  0.8025998342591099  0.7499130698418334  0.4626622078699435   T   T   T
  0.4998179832896370  0.7499875711658952  0.4456904036033641   T   T   T
  0.1989343510609533  0.7499003498798847  0.4632519292610704   T   T   T
  0.3022965978511502  0.7497565616808209  0.5629642827921969   T   T   T
  0.0007541477658401  0.7500816135723410  0.5437599112472069   T   T   T
  0.6951994427432094  0.7496691402200150  0.5602848273636712   T   T   T
  0.8046034975820257  0.7510490190419905  0.6547243640853646   T   T   T
  0.5022438750420753  0.7508042825084557  0.6438820172932308   T   T   T
  0.1981706824163327  0.7499406974200699  0.6602297489075727   T   T   T
  0.8141011533980276  0.7500000002140865  0.2671765160246267   F   F   F
  0.4999999994478088  0.7500000002140865  0.2273691263583544   F   F   F
  0.1858988466019724  0.7500000002140865  0.2671765160246267   F   F   F
  0.3088456122590841  0.0000000000000000  0.3635413069267344   F   F   F
  0.0000000000000000  0.0000000000000000  0.3485649890092901   F   F   F
  0.6911543877409159  0.0000000000000000  0.3635413069267344   F   F   F
  0.8027513745196261  0.0000383927894723  0.4625463910628405   T   T   T
  0.4998767003746238  0.0000946627870096  0.4456277011399479   T   T   T
  0.1986783122858782  0.0001043213901619  0.4632336916869441   T   T   T
  0.3016460827621834  0.0001248856917764  0.5624506474676192   T   T   T
  0.0001272905455759  0.0000082898623616  0.5444864122331685   T   T   T
  0.6960893596510010 -0.0000220822192956  0.5599542472157183   T   T   T
  0.7987509273927843  0.0007668014917590  0.6583469959951844   T   T   T
  0.4999913890157566 -0.0001400392594194  0.6397434771521562   T   T   T
  0.1975437286561141 -0.0005630174670748  0.6594140780826961   T   T   T
  0.0981549355590624  0.0109019178857507  0.7312436720242306   T   T   T
  0.5724671804916747  0.9968539260102076  0.7133346072866787   T   T   T
  0.8564096629710792  0.1360833646089698  0.7127169082812661   T   T   T
  0.1109121731944372  0.4960741408085946  0.7316483041378521   T   T   T
  0.5708183051619914  0.4770008521973859  0.7141272131185233   T   T   T
  0.8564580860554551  0.6318571440323888  0.7108873634837042   T   T   T
  0.1191240250356290  0.2507278163927408  0.7333812242922859   T   T   T
  0.5652093279058745  0.2575209410870028  0.7152979260308692   T   T   T
  0.8597862531872019  0.3665580274229414  0.7115460554985054   T   T   T
  0.1127528856654192  0.7415674747288520  0.7330267376369831   T   T   T
  0.5575698813041574  0.7623804823242806  0.7207928407828345   T   T   T
  0.8521456787382028  0.8662740479142204  0.7123361837049378   T   T   T
  0.3316595464160465  0.8927406305902704  0.7382487764606772   T   T   T
  0.3540575797837087  0.6094523750821772  0.7439011245281482   T   T   T
  0.3614867716469159  0.3788349201855549  0.7543957545859722   T   T   T
  0.3573447706680766  0.1176189735229948  0.7453546939633650   T   T   T
  0.1393436236289760  0.8821540119871731  0.8057230659260100   T   T   T
  0.6550905729773085  0.8953771959201456  0.7932746541018896   T   T   T
  0.8928844579850611  0.0140850985239867  0.7947515190769180   T   T   T
  0.1384851019142487  0.3779662436721453  0.8109313230178921   T   T   T
  0.5013228119291520  0.3769892461249010  0.8737074183197749   T   T   T
  0.8955276668527056  0.5091061212200138  0.7926273200250935   T   T   T
  0.1471757046829977  0.1283971940266619  0.8106086184624386   T   T   T
  0.6338925472942628  0.1243884137355222  0.7897438283466649   T   T   T
  0.9002019087307750  0.2394050734155872  0.7942276029326737   T   T   T
  0.1360848900117796  0.6155867245695511  0.8092591366658063   T   T   T
  0.6322144508771558  0.6064942723239132  0.7870829147795254   T   T   T
  0.8875485177358009  0.7389583634673226  0.7925152756144882   T   T   T
  0.4288407310373844  0.7629756631658418  0.8069322003690333   T   T   T
  0.3936555839171135  0.5205604786863771  0.8292664839373919   T   T   T
  0.3932658127164476  0.2340825677515713  0.8267665388723651   T   T   T
  0.4026710206466118  0.9842647113688285  0.8193056672780038   T   T   T
  0.6646388745224177  0.3677733686032663  0.7971989479950572   T   T   T
 
  0.00000000E+00  0.00000000E+00  0.00000000E+00
  0.00000000E+00  0.00000000E+00  0.00000000E+00
  0.00000000E+00  0.00000000E+00  0.00000000E+00
  0.00000000E+00  0.00000000E+00  0.00000000E+00
  0.00000000E+00  0.00000000E+00  0.00000000E+00
  0.00000000E+00  0.00000000E+00  0.00000000E+00
  0.00000000E+00  0.00000000E+00  0.00000000E+00
  0.00000000E+00  0.00000000E+00  0.00000000E+00
  0.00000000E+00  0.00000000E+00  0.00000000E+00
  0.00000000E+00  0.00000000E+00  0.00000000E+00
  0.00000000E+00  0.00000000E+00  0.00000000E+00
  0.00000000E+00  0.00000000E+00  0.00000000E+00
  0.00000000E+00  0.00000000E+00  0.00000000E+00
  0.00000000E+00  0.00000000E+00  0.00000000E+00
  0.00000000E+00  0.00000000E+00  0.00000000E+00
  0.00000000E+00  0.00000000E+00  0.00000000E+00
  0.00000000E+00  0.00000000E+00  0.00000000E+00
  0.00000000E+00  0.00000000E+00  0.00000000E+00
  0.00000000E+00  0.00000000E+00  0.00000000E+00
  0.00000000E+00  0.00000000E+00  0.00000000E+00
  0.00000000E+00  0.00000000E+00  0.00000000E+00
  0.00000000E+00  0.00000000E+00  0.00000000E+00
  0.00000000E+00  0.00000000E+00  0.00000000E+00
  0.00000000E+00  0.00000000E+00  0.00000000E+00
  0.00000000E+00  0.00000000E+00  0.00000000E+00
  0.00000000E+00  0.00000000E+00  0.00000000E+00
  0.00000000E+00  0.00000000E+00  0.00000000E+00
  0.00000000E+00  0.00000000E+00  0.00000000E+00
  0.00000000E+00  0.00000000E+00  0.00000000E+00
  0.00000000E+00  0.00000000E+00  0.00000000E+00
  0.00000000E+00  0.00000000E+00  0.00000000E+00
  0.00000000E+00  0.00000000E+00  0.00000000E+00
  0.00000000E+00  0.00000000E+00  0.00000000E+00
  0.00000000E+00  0.00000000E+00  0.00000000E+00
  0.00000000E+00  0.00000000E+00  0.00000000E+00
  0.00000000E+00  0.00000000E+00  0.00000000E+00
  0.00000000E+00  0.00000000E+00  0.00000000E+00
  0.00000000E+00  0.00000000E+00  0.00000000E+00
  0.00000000E+00  0.00000000E+00  0.00000000E+00
  0.00000000E+00  0.00000000E+00  0.00000000E+00
  0.00000000E+00  0.00000000E+00  0.00000000E+00
  0.00000000E+00  0.00000000E+00  0.00000000E+00
  0.00000000E+00  0.00000000E+00  0.00000000E+00
  0.00000000E+00  0.00000000E+00  0.00000000E+00
  0.00000000E+00  0.00000000E+00  0.00000000E+00
  0.00000000E+00  0.00000000E+00  0.00000000E+00
  0.00000000E+00  0.00000000E+00  0.00000000E+00
  0.00000000E+00  0.00000000E+00  0.00000000E+00
  0.00000000E+00  0.00000000E+00  0.00000000E+00
  0.00000000E+00  0.00000000E+00  0.00000000E+00
  0.00000000E+00  0.00000000E+00  0.00000000E+00
  0.00000000E+00  0.00000000E+00  0.00000000E+00
  0.00000000E+00  0.00000000E+00  0.00000000E+00
  0.00000000E+00  0.00000000E+00  0.00000000E+00
  0.00000000E+00  0.00000000E+00  0.00000000E+00
  0.00000000E+00  0.00000000E+00  0.00000000E+00
  0.00000000E+00  0.00000000E+00  0.00000000E+00
  0.00000000E+00  0.00000000E+00  0.00000000E+00
  0.00000000E+00  0.00000000E+00  0.00000000E+00
  0.00000000E+00  0.00000000E+00  0.00000000E+00
  0.00000000E+00  0.00000000E+00  0.00000000E+00
  0.00000000E+00  0.00000000E+00  0.00000000E+00
  0.00000000E+00  0.00000000E+00  0.00000000E+00
  0.00000000E+00  0.00000000E+00  0.00000000E+00
  0.00000000E+00  0.00000000E+00  0.00000000E+00
  0.00000000E+00  0.00000000E+00  0.00000000E+00
  0.00000000E+00  0.00000000E+00  0.00000000E+00
  0.00000000E+00  0.00000000E+00  0.00000000E+00
  0.00000000E+00  0.00000000E+00  0.00000000E+00
  0.00000000E+00  0.00000000E+00  0.00000000E+00
  0.00000000E+00  0.00000000E+00  0.00000000E+00
  0.00000000E+00  0.00000000E+00  0.00000000E+00
  0.00000000E+00  0.00000000E+00  0.00000000E+00
  0.00000000E+00  0.00000000E+00  0.00000000E+00
  0.00000000E+00  0.00000000E+00  0.00000000E+00
  0.00000000E+00  0.00000000E+00  0.00000000E+00
  0.00000000E+00  0.00000000E+00  0.00000000E+00
  0.00000000E+00  0.00000000E+00  0.00000000E+00
  0.00000000E+00  0.00000000E+00  0.00000000E+00
  0.00000000E+00  0.00000000E+00  0.00000000E+00
  0.00000000E+00  0.00000000E+00  0.00000000E+00
  0.00000000E+00  0.00000000E+00  0.00000000E+00
  0.00000000E+00  0.00000000E+00  0.00000000E+00
  0.00000000E+00  0.00000000E+00  0.00000000E+00
  0.00000000E+00  0.00000000E+00  0.00000000E+00
  0.00000000E+00  0.00000000E+00  0.00000000E+00
  0.00000000E+00  0.00000000E+00  0.00000000E+00
  0.00000000E+00  0.00000000E+00  0.00000000E+00
  0.00000000E+00  0.00000000E+00  0.00000000E+00
  0.00000000E+00  0.00000000E+00  0.00000000E+00
  0.00000000E+00  0.00000000E+00  0.00000000E+00
  0.00000000E+00  0.00000000E+00  0.00000000E+00
  0.00000000E+00  0.00000000E+00  0.00000000E+00
  0.00000000E+00  0.00000000E+00  0.00000000E+00
  0.00000000E+00  0.00000000E+00  0.00000000E+00
  0.00000000E+00  0.00000000E+00  0.00000000E+00
  0.00000000E+00  0.00000000E+00  0.00000000E+00
  0.00000000E+00  0.00000000E+00  0.00000000E+00
  0.00000000E+00  0.00000000E+00  0.00000000E+00
  0.00000000E+00  0.00000000E+00  0.00000000E+00
  0.00000000E+00  0.00000000E+00  0.00000000E+00
  0.00000000E+00  0.00000000E+00  0.00000000E+00
  0.00000000E+00  0.00000000E+00  0.00000000E+00
  0.00000000E+00  0.00000000E+00  0.00000000E+00
  0.00000000E+00  0.00000000E+00  0.00000000E+00
  0.00000000E+00  0.00000000E+00  0.00000000E+00
  0.00000000E+00  0.00000000E+00  0.00000000E+00
  0.00000000E+00  0.00000000E+00  0.00000000E+00
  0.00000000E+00  0.00000000E+00  0.00000000E+00
  0.00000000E+00  0.00000000E+00  0.00000000E+00
  0.00000000E+00  0.00000000E+00  0.00000000E+00
  0.00000000E+00  0.00000000E+00  0.00000000E+00
  0.00000000E+00  0.00000000E+00  0.00000000E+00
  0.00000000E+00  0.00000000E+00  0.00000000E+00
  0.00000000E+00  0.00000000E+00  0.00000000E+00
  0.00000000E+00  0.00000000E+00  0.00000000E+00
  0.00000000E+00  0.00000000E+00  0.00000000E+00
  0.00000000E+00  0.00000000E+00  0.00000000E+00
  0.00000000E+00  0.00000000E+00  0.00000000E+00
  0.00000000E+00  0.00000000E+00  0.00000000E+00
  0.00000000E+00  0.00000000E+00  0.00000000E+00
  0.00000000E+00  0.00000000E+00  0.00000000E+00
  0.00000000E+00  0.00000000E+00  0.00000000E+00
  0.00000000E+00  0.00000000E+00  0.00000000E+00
  0.00000000E+00  0.00000000E+00  0.00000000E+00
  0.00000000E+00  0.00000000E+00  0.00000000E+00
  0.00000000E+00  0.00000000E+00  0.00000000E+00
  0.00000000E+00  0.00000000E+00  0.00000000E+00
  0.00000000E+00  0.00000000E+00  0.00000000E+00
  0.00000000E+00  0.00000000E+00  0.00000000E+00
  0.00000000E+00  0.00000000E+00  0.00000000E+00
  0.00000000E+00  0.00000000E+00  0.00000000E+00
  0.00000000E+00  0.00000000E+00  0.00000000E+00
  0.00000000E+00  0.00000000E+00  0.00000000E+00
  0.00000000E+00  0.00000000E+00  0.00000000E+00
  0.00000000E+00  0.00000000E+00  0.00000000E+00
  0.00000000E+00  0.00000000E+00  0.00000000E+00
  0.00000000E+00  0.00000000E+00  0.00000000E+00
  0.00000000E+00  0.00000000E+00  0.00000000E+00
  0.00000000E+00  0.00000000E+00  0.00000000E+00
  0.00000000E+00  0.00000000E+00  0.00000000E+00
  0.00000000E+00  0.00000000E+00  0.00000000E+00
  0.00000000E+00  0.00000000E+00  0.00000000E+00
  0.00000000E+00  0.00000000E+00  0.00000000E+00
  0.00000000E+00  0.00000000E+00  0.00000000E+00
  0.00000000E+00  0.00000000E+00  0.00000000E+00
  0.00000000E+00  0.00000000E+00  0.00000000E+00
  0.00000000E+00  0.00000000E+00  0.00000000E+00
  0.00000000E+00  0.00000000E+00  0.00000000E+00
  0.00000000E+00  0.00000000E+00  0.00000000E+00
  0.00000000E+00  0.00000000E+00  0.00000000E+00
  0.00000000E+00  0.00000000E+00  0.00000000E+00
  0.00000000E+00  0.00000000E+00  0.00000000E+00
