Ru Ta  N  Cu                            
   1.00000000000000     
    18.1096308199999996    0.0000000000000000    0.0000000000000000
     0.0000000000000000   23.3551997799999995    0.0000000000000000
     0.0000000000000000    0.0000000000000000   30.4818170799999990
   Ru   Ta   N    Cu
    64   240   240     2
Selective dynamics
Direct
  0.0679788900093620  0.0113145361345377  0.5338770331004989   T   T   T
  0.2851186185665934  0.5013383363213454  0.5251492085540824   T   T   T
  0.4415935855576011  0.0618245789124235  0.5194367329345129   T   T   T
  0.0700934260582799  0.2622391447490042  0.5339166575952972   T   T   T
  0.2842839969707204  0.2491550903356197  0.5253803010785617   T   T   T
  0.4422172837912011  0.3110715826506225  0.5199570504880222   T   T   T
  0.0674887981970703  0.1229565223144235  0.5332439940114330   T   T   T
  0.2846739766651341  0.1322859671261580  0.5252906534258659   T   T   T
  0.4442643794907469  0.1863587313807826  0.5209785859964949   T   T   T
  0.0687109443881148  0.3743264460809854  0.5331065786859208   T   T   T
  0.2833009222030198  0.3827110515143255  0.5257672470042379   T   T   T
  0.4384529626597888  0.4367392880510703  0.5200806212299618   T   T   T
  0.1737527908606517  0.4370432967616656  0.5482869681804599   T   T   T
  0.1878424064128331  0.3100442220259054  0.5511458633848677   T   T   T
  0.1730610617732471  0.1844507460482981  0.5485783590571340   T   T   T
  0.1863444149437536  0.0608862718659580  0.5506585153897082   T   T   T
  0.0680078701024134  0.5115241302893541  0.5332231212453724   T   T   T
  0.2850685229376831  0.9997927899371256  0.5251157932858339   T   T   T
  0.4424641424086284  0.5624001804414923  0.5202956833503555   T   T   T
  0.0694002160506064  0.7620941076168857  0.5339048884546591   T   T   T
  0.2837048540844858  0.7486881321385198  0.5254608944373077   T   T   T
  0.4408207140917723  0.8120783129497904  0.5193354740399694   T   T   T
  0.0669106846872250  0.6224564920499959  0.5330589472060280   T   T   T
  0.2817866464420131  0.6315490810087591  0.5260577739585017   T   T   T
  0.4459325541965909  0.6881507903653556  0.5209768207500698   T   T   T
  0.0680567271200147  0.8737436276382486  0.5335028410584799   T   T   T
  0.2838772368241589  0.8825714266732491  0.5256298484965259   T   T   T
  0.4444030945813333  0.9375605851452830  0.5211235920811981   T   T   T
  0.1731582147145589  0.9372600051034378  0.5487298187312509   T   T   T
  0.1874290227073126  0.8112634971514643  0.5510402445491285   T   T   T
  0.1708661118225603  0.6858486694186267  0.5487408998870752   T   T   T
  0.1854378826708927  0.5597025983594033  0.5512404719769299   T   T   T
  0.5682726772730162  0.0084273627808189  0.5336711906248691   T   T   T
  0.7880414960676292  0.4969021704864889  0.5248328448307729   T   T   T
  0.9414716357839866  0.0595906075945271  0.5195837402302034   T   T   T
  0.5693255935946294  0.2515987849417050  0.5342459870840996   T   T   T
  0.7860124997115150  0.2479393049955447  0.5247568968373194   T   T   T
  0.9430943174228544  0.3100177241325071  0.5198562201917026   T   T   T
  0.5667974177479754  0.1192320741189972  0.5332734381572516   T   T   T
  0.7864784550680014  0.1254077466592778  0.5244734464311138   T   T   T
  0.9474514575014694  0.1875142923318409  0.5212810078376376   T   T   T
  0.5681286179382554  0.3603266518890529  0.5338178459135022   T   T   T
  0.7874112831652673  0.3779118181354739  0.5240401984222186   T   T   T
  0.9488115401193763  0.4371667566160524  0.5218020049584736   T   T   T
  0.6772738854411915  0.4361010023277107  0.5492108126131250   T   T   T
  0.6869393619476074  0.3152427325305674  0.5513637434513798   T   T   T
  0.6775854939206700  0.1871905360895798  0.5477785907093931   T   T   T
  0.6848129054451001  0.0651328168570857  0.5512690101714685   T   T   T
  0.5723979969811492  0.5208869375924677  0.5318709200659149   T   T   T
  0.7831902420226182 -0.0005305141097037  0.5255324082936419   T   T   T
  0.9411908118799360  0.5608954714772196  0.5194736601801399   T   T   T
  0.5661527909715808  0.7608131683119851  0.5330354514127392   T   T   T
  0.7887883964079295  0.7517310018823649  0.5241362333707266   T   T   T
  0.9418588983830618  0.8113008070850767  0.5194469781985527   T   T   T
  0.5697125993748687  0.6296239944768682  0.5354326460275526   T   T   T
  0.7853335422098774  0.6291483697920749  0.5254958850161073   T   T   T
  0.9468644423508009  0.6873579533479799  0.5214868622275797   T   T   T
  0.5677110722410448  0.8718939829721787  0.5337349572881384   T   T   T
  0.7805545843203063  0.8772946535846641  0.5260005694037820   T   T   T
  0.9465804729022174  0.9371479442536953  0.5210915751095124   T   T   T
  0.6725510915726658  0.9379269490723299  0.5486386042143397   T   T   T
  0.6845282954788970  0.8074559543533829  0.5518780486777561   T   T   T
  0.6780944499358360  0.6916393807845725  0.5486224163515310   T   T   T
  0.6916353008815997  0.5599100620895257  0.5540615695663459   T   T   T
  0.9996246524628063  0.9999635445867767  0.1022212275957983   F   F   F
  0.3339438256838960  0.0624457813299060  0.1075563970202325   F   F   F
  0.1656734882889026  0.0624869619810369  0.1076523577670159   F   F   F
  0.2496380332605455  0.1248777014917124  0.1827535963680589   F   F   F
  0.0820753910794778  0.0624168821917976  0.1887361965005994   F   F   F
  0.4168249566545654  0.0624128089775482  0.1889653308070223   F   F   F
  0.0002528267128007  0.1248981956434419  0.2747820453149006   T   T   T
  0.3320506689494777  0.0624064396181587  0.2732078813061284   T   T   T
  0.1677084750272378  0.0624314574024788  0.2728549892996509   T   T   T
  0.2492476653822426  0.1249811621488026  0.3596922426475649   T   T   T
  0.0838701280085691  0.0625032330810920  0.3592617839805165   T   T   T
  0.4160756844169085  0.0624109251534444  0.3590750450693144   T   T   T
  0.4960209333255184  0.1248515874052561  0.4439322480823885   T   T   T
  0.3322761675262098  0.0623137049599093  0.4453293071333115   T   T   T
  0.1655510575314952  0.0626682181689163  0.4473824870372872   T   T   T
  0.9996175425524214  0.1249358288969233  0.1022184789678420   F   F   F
  0.3339435537114426  0.1874256191358299  0.1075504356733603   F   F   F
  0.1656688965935942  0.1874633245330628  0.1076544484778310   F   F   F
  0.2496428192825420  0.2499248694537357  0.1827745152021549   F   F   F
  0.0820483011947246  0.1874164370395803  0.1887315368489411   F   F   F
  0.4168235962087010  0.1874178821048673  0.1889761876915443   F   F   F
  0.0002415883146703  0.2498994372069314  0.2747918536866444   T   T   T
  0.3321032515819937  0.1874207267186960  0.2732303243977880   T   T   T
  0.1676988304367664  0.1874357078871126  0.2728830906026590   T   T   T
  0.2492140988996311  0.2500249870976192  0.3596890221926891   T   T   T
  0.0836679097029449  0.1875015504037787  0.3594721555080322   T   T   T
  0.4159436312344110  0.1874494949757545  0.3589525359073495   T   T   T
  0.4961664062209875  0.2495120732791621  0.4442317680154224   T   T   T
  0.3325516059796072  0.1871508578479213  0.4444478919032082   T   T   T
  0.1642180303356250  0.1876966228879254  0.4479903063122173   T   T   T
  0.9996247444640574  0.2499647011854407  0.1022230082490267   F   F   F
  0.3339438339619036  0.3124448417397900  0.1075557633545969   F   F   F
  0.1656741876920407  0.3124866150128511  0.1076519504247102   F   F   F
  0.2496342491082189  0.3748782083517597  0.1827543288382500   F   F   F
  0.0820773763724816  0.3124181279228466  0.1887355922833933   F   F   F
  0.4168238893201348  0.3124134579098339  0.1889644027201030   F   F   F
  0.0001971229838053  0.3749167482024300  0.2747738952285806   T   T   T
  0.3320398087504744  0.3124274465918781  0.2732146023694800   T   T   T
  0.1676782994307549  0.3124345196183154  0.2728817254149575   T   T   T
  0.2492207903823331  0.3749849212874803  0.3596811805131596   T   T   T
  0.0837157217350380  0.3125083810758490  0.3592876540440126   T   T   T
  0.4160279487290299  0.3124385446878324  0.3591290383953739   T   T   T
  0.4964024733396776  0.3746495415652742  0.4441644828110899   T   T   T
  0.3321304263425495  0.3121642633507750  0.4454276131827621   T   T   T
  0.1655087054978297  0.3126663181644321  0.4472324102155638   T   T   T
  0.9996196554118555  0.3749345235867736  0.1022175688270863   F   F   F
  0.3339389444248013  0.4374272239936090  0.1075500232538360   F   F   F
  0.1656692123176882  0.4374660331456823  0.1076535614342404   F   F   F
  0.2496367764464793  0.9999279799998888  0.1827742299965678   F   F   F
  0.0820476334098430  0.4374171254006285  0.1887298800136392   F   F   F
  0.4168193524269412  0.4374154383080295  0.1889763507298241   F   F   F
  0.5001489822302649  0.4999015250541875  0.2747688133259782   T   T   T
  0.3320666687361000  0.4374250703736514  0.2732319140925122   T   T   T
  0.1676480839857974  0.4374331696893166  0.2728880065584385   T   T   T
  0.2492717563260104  0.5000089941025945  0.3596993592586886   T   T   T
  0.0836150728666877  0.4375004310486616  0.3594639800878132   T   T   T
  0.4159708392850389  0.4374126377345777  0.3590600745045088   T   T   T
  0.4960037477642379  0.4996236687353995  0.4440085392302421   T   T   T
  0.3325168759127985  0.4371512827385214  0.4446624384845052   T   T   T
  0.1641300881541439  0.4377617592544884  0.4478439375819685   T   T   T
  0.9996246524628063  0.4999635445867767  0.1022212275957983   F   F   F
  0.3339438256838960  0.5624457813299060  0.1075563970202325   F   F   F
  0.1656734882889026  0.5624869619810369  0.1076523577670159   F   F   F
  0.2496380332605455  0.6248777014917124  0.1827535963680589   F   F   F
  0.0820753910794778  0.5624168821917976  0.1887361965005994   F   F   F
  0.4168249566545654  0.5624128089775482  0.1889653308070223   F   F   F
  0.0001964501009032  0.6248819574094870  0.2747893671507067   T   T   T
  0.3320512183451975  0.5624001338184678  0.2732294574869824   T   T   T
  0.1676978739452584  0.5624159990716199  0.2728661126309119   T   T   T
  0.2493399129044285  0.6249402643286919  0.3597117678149831   T   T   T
  0.0836911799796970  0.5624870118642651  0.3592494069024398   T   T   T
  0.4160943448340116  0.5624209675641302  0.3591639027860388   T   T   T
  0.4965370548925523  0.6249499283765525  0.4443971705266159   T   T   T
  0.3320881498309389  0.5623784527286706  0.4453359907314623   T   T   T
  0.1652509206775954  0.5626026084979043  0.4471453222012318   T   T   T
  0.9996175425524214  0.6249358288969233  0.1022184789678420   F   F   F
  0.3339435537114426  0.6874256191358228  0.1075504356733603   F   F   F
  0.1656688965935942  0.6874633245330557  0.1076544484778310   F   F   F
  0.2496428192825420  0.7499248694537357  0.1827745152021549   F   F   F
  0.0820483011947246  0.6874164370395732  0.1887315368489411   F   F   F
  0.4168235962087010  0.6874178821048602  0.1889761876915443   F   F   F
  0.0002612148733814  0.7498935402892591  0.2747868288478760   T   T   T
  0.3321283642031735  0.6873941664008661  0.2732601862708600   T   T   T
  0.1677055818846699  0.6874030312191445  0.2728833183599838   T   T   T
  0.2493464247515298  0.7499483662709230  0.3597477939226816   T   T   T
  0.0836660573968879  0.6874607993584717  0.3594704828021622   T   T   T
  0.4159362722140347  0.6873888999943748  0.3590665824685754   T   T   T
  0.4958431952842726  0.7496031698890308  0.4439871606719050   T   T   T
  0.3327082450770756  0.6870707882867561  0.4448576384005899   T   T   T
  0.1641221815348816  0.6876802250436832  0.4480196413963934   T   T   T
  0.9996247444640574  0.7499647011854407  0.1022230082490267   F   F   F
  0.3339438339619036  0.8124448417397900  0.1075557633545969   F   F   F
  0.1656741876920407  0.8124866150128511  0.1076519504247102   F   F   F
  0.2496342491082189  0.8748782083517597  0.1827543288382500   F   F   F
  0.0820773763724816  0.8124181279228466  0.1887355922833933   F   F   F
  0.4168238893201348  0.8124134579098339  0.1889644027201030   F   F   F
  0.0003014656721953  0.8748915155688096  0.2747805291101364   T   T   T
  0.3320782177208323  0.8123835030733167  0.2732196967022718   T   T   T
  0.1677417744497797  0.8123917481716393  0.2728533611416634   T   T   T
  0.2493605062633430  0.8749062160230594  0.3597302321106892   T   T   T
  0.0839101836804699  0.8124594486195444  0.3592469684877979   T   T   T
  0.4160266513104088  0.8123665800521768  0.3591674782650822   T   T   T
  0.4961396658562471  0.8749960900475711  0.4441732842711647   T   T   T
  0.3323789788805319  0.8122782394749012  0.4456117214782299   T   T   T
  0.1657705567020699  0.8126435075595290  0.4473877499297366   T   T   T
  0.9996196554118555  0.8749345235867736  0.1022175688270863   F   F   F
  0.3339389444248013  0.9374272239936019  0.1075500232538360   F   F   F
  0.1656692123176882  0.9374660331456752  0.1076535614342404   F   F   F
  0.2496367764464793  0.4999279799998888  0.1827742299965678   F   F   F
  0.0820476334098430  0.9374171254006214  0.1887298800136392   F   F   F
  0.4168193524269412  0.9374154383080224  0.1889763507298241   F   F   F
  0.5001944621907891  0.9999007004250483  0.2747699628668042   T   T   T
  0.3321318285111645  0.9373937869215052  0.2732542452647603   T   T   T
  0.1677481652511693  0.9374055194568309  0.2728640922797861   T   T   T
  0.2493113340253428  0.0000149603406829  0.3597167449588378   T   T   T
  0.0838290480259595  0.9374678795154243  0.3593980271162296   T   T   T
  0.4159927310273951  0.9373811995663126  0.3589945119097954   T   T   T
  0.4962238679572145  0.9995712745260392  0.4441598690454076   T   T   T
  0.3324604837041210  0.9372402679915535  0.4444799618157209   T   T   T
  0.1643505438267164  0.9377646354340619  0.4480433858907250   T   T   T
  0.4996261485864011  0.9999638794554073  0.1022212895025945   F   F   F
  0.8339437371848675  0.0624482785398897  0.1075580759875550   F   F   F
  0.6656689243728380  0.0624780056916450  0.1076592327669417   F   F   F
  0.7496377014008289  0.1248750966894079  0.1827574333080477   F   F   F
  0.5820735458319604  0.0624174442172745  0.1887352315057669   F   F   F
  0.9168252921289621  0.0624138005358219  0.1889639379559043   F   F   F
  0.5001965198558037  0.1249013445599602  0.2747622599499048   T   T   T
  0.8321485358744183  0.0623773594352648  0.2732185639910693   T   T   T
  0.6677515092777342  0.0623827887614448  0.2728447145101479   T   T   T
  0.7494297621691154  0.1247386685796837  0.3597012210187646   T   T   T
  0.5837779004650691  0.0624084188757530  0.3591306524921793   T   T   T
  0.9161828059946500  0.0623146603697175  0.3591413650140342   T   T   T
  0.9949488927883476  0.1245465118371289  0.4444390054071712   T   T   T
  0.8325840732919868  0.0621462728531336  0.4453443153064427   T   T   T
  0.6655521978375024  0.0624482027637534  0.4470887182745463   T   T   T
  0.4996213536236240  0.1249348955726433  0.1022183024833154   F   F   F
  0.8339388961320680  0.1874236234033546  0.1075519903559652   F   F   F
  0.6656669566206190  0.1874574838225769  0.1076541056651124   F   F   F
  0.7496375557706187  0.2499211919418656  0.1827775726101990   F   F   F
  0.5820467926301731  0.1874136002736648  0.1887331258771638   F   F   F
  0.9168211714113710  0.1874148173649246  0.1889752459503455   F   F   F
  0.5001827150110201  0.2499160777184641  0.2747704161945306   T   T   T
  0.8322232825138525  0.1873720718613145  0.2732657112082149   T   T   T
  0.6677376290801258  0.1873918821977284  0.2728504672098745   T   T   T
  0.7493954835936201  0.2498461866576148  0.3597262135251832   T   T   T
  0.5836614725454515  0.1874065066511492  0.3593019661808918   T   T   T
  0.9161511694921347  0.1873224370796415  0.3591157581388226   T   T   T
  0.9953507148428777  0.2493182913498197  0.4445007417284115   T   T   T
  0.8322036652803239  0.1871583255013536  0.4446580611715705   T   T   T
  0.6645535497910455  0.1872785722231033  0.4478893788625416   T   T   T
  0.4996265847195431  0.2499624135589542  0.1022211658925301   F   F   F
  0.8339432913754052  0.3124470264806618  0.1075580597257542   F   F   F
  0.6656786166489255  0.3124812578813660  0.1076589101753385   F   F   F
  0.7496359798815462  0.3748756411498491  0.1827578042801292   F   F   F
  0.5820751330297256  0.3124154754956550  0.1887345581865603   F   F   F
  0.9168256971425777  0.3124110138011744  0.1889624020058491   F   F   F
  0.5001869016349885  0.3749220694648521  0.2747716301233611   T   T   T
  0.8321405236784460  0.3123749768582056  0.2732431319795493   T   T   T
  0.6677425529554581  0.3123900117967690  0.2728562258074409   T   T   T
  0.7493086955507161  0.3747559648633480  0.3596886528513384   T   T   T
  0.5837622540843681  0.3123474261713490  0.3592531239498067   T   T   T
  0.9162578373585958  0.3123258910371925  0.3591890396191689   T   T   T
  0.9940636222939963  0.3745970261035667  0.4447851078210636   T   T   T
  0.8320700609883503  0.3121956097182029  0.4451770268772400   T   T   T
  0.6652258047323131  0.3122878550984630  0.4473300330731279   T   T   T
  0.4996231203952064  0.3749337364865255  0.1022171720136171   F   F   F
  0.8339311317052278  0.4374224703005467  0.1075522038351053   F   F   F
  0.6656706818776428  0.4374574332997483  0.1076540871022118   F   F   F
  0.7496383104150084  0.9999213865668750  0.1827756388646549   F   F   F
  0.5820474546648100  0.4374150382907018  0.1887310280212660   F   F   F
  0.9168210958579976  0.4374163027642837  0.1889749839040178   F   F   F
  0.0001691968726433  0.4999276749739716  0.2747865956777031   T   T   T
  0.8322590880722003  0.4373749636678074  0.2732972429257477   T   T   T
  0.6677243438751937  0.4374025893963583  0.2728815597797738   T   T   T
  0.7494176657546718  0.4999250386860164  0.3596324683309272   T   T   T
  0.5836896587461742  0.4373925728174765  0.3593468609728576   T   T   T
  0.9161385069347093  0.4373798672576163  0.3591315416516086   T   T   T
  0.9943465794238667  0.4991520158191791  0.4446184381934014   T   T   T
  0.8318255259882563  0.4372516827992353  0.4441862097344439   T   T   T
  0.6638355970660319  0.4372083872016823  0.4480086713449001   T   T   T
  0.4996261485864011  0.4999638794554073  0.1022212895025945   F   F   F
  0.8339437371848675  0.5624482785398897  0.1075580759875550   F   F   F
  0.6656689243728380  0.5624780056916450  0.1076592327669417   F   F   F
  0.7496377014008289  0.6248750966894079  0.1827574333080477   F   F   F
  0.5820735458319604  0.5624174442172745  0.1887352315057669   F   F   F
  0.9168252921289621  0.5624138005358219  0.1889639379559043   F   F   F
  0.5001748952150354  0.6249159739866972  0.2747741274173380   T   T   T
  0.8321196290579919  0.5623877768757597  0.2732315178440732   T   T   T
  0.6677106085630680  0.5624130623203506  0.2728474840809874   T   T   T
  0.7494023125571598  0.6248955316067467  0.3597213573775488   T   T   T
  0.5837166099156872  0.5624524429192767  0.3592082529729212   T   T   T
  0.9161201407464902  0.5623681317152134  0.3592474763255500   T   T   T
  0.9943182245568402  0.6246510156649147  0.4445028663083196   T   T   T
  0.8316628991518176  0.5622293709659388  0.4456447519800584   T   T   T
  0.6645929074942415  0.5625653099794603  0.4467760655671925   T   T   T
  0.4996213536236240  0.6249348955726433  0.1022183024833154   F   F   F
  0.8339388961320680  0.6874236234033475  0.1075519903559652   F   F   F
  0.6656669566206190  0.6874574838225698  0.1076541056651124   F   F   F
  0.7496375557706187  0.7499211919418656  0.1827775726101990   F   F   F
  0.5820467926301731  0.6874136002736577  0.1887331258771638   F   F   F
  0.9168211714113710  0.6874148173649175  0.1889752459503455   F   F   F
  0.5001815643370815  0.7498773192012973  0.2747863278817587   T   T   T
  0.8322328360149962  0.6873697928978173  0.2732737424331793   T   T   T
  0.6677019283045257  0.6874013003697231  0.2728696915415067   T   T   T
  0.7493619215682831  0.7499933790638462  0.3597075906829329   T   T   T
  0.5836498197394745  0.6874411369725942  0.3594125629931806   T   T   T
  0.9160529329733350  0.6873403976067278  0.3591258732424144   T   T   T
  0.9958484703350162  0.7493120569351246  0.4443577974221777   T   T   T
  0.8318479445907385  0.6872305749409557  0.4445298399603436   T   T   T
  0.6643591523531441  0.6878156104746379  0.4480977555695182   T   T   T
  0.4996265847195431  0.7499624135589542  0.1022211658925301   F   F   F
  0.8339432913754052  0.8124470264806618  0.1075580597257542   F   F   F
  0.6656786166489255  0.8124812578813660  0.1076589101753385   F   F   F
  0.7496359798815462  0.8748756411498491  0.1827578042801292   F   F   F
  0.5820751330297256  0.8124154754956550  0.1887345581865603   F   F   F
  0.9168256971425777  0.8124110138011744  0.1889624020058491   F   F   F
  0.5001737841331562  0.8748862032856810  0.2747723983425224   T   T   T
  0.8321375250446049  0.8123695161212466  0.2732210751258845   T   T   T
  0.6677455840017833  0.8123909940907041  0.2728543394213885   T   T   T
  0.7493846432134834  0.8748209699300920  0.3597143287437513   T   T   T
  0.5837739296339006  0.8124460665829200  0.3591458078683933   T   T   T
  0.9162190756737307  0.8123927094119202  0.3591107936473397   T   T   T
  0.9959977907746639  0.8746521806902945  0.4440307797836347   T   T   T
  0.8327711217701262  0.8123928236168539  0.4452764208723415   T   T   T
  0.6655775719576393  0.8126409277119886  0.4470727784773231   T   T   T
  0.4996231203952064  0.8749337364865255  0.1022171720136171   F   F   F
  0.8339311317052278  0.9374224703005396  0.1075522038351053   F   F   F
  0.6656706818776428  0.9374574332997412  0.1076540871022118   F   F   F
  0.7496383104150084  0.4999213865668750  0.1827756388646549   F   F   F
  0.5820474546648100  0.9374150382906947  0.1887310280212660   F   F   F
  0.9168210958579976  0.9374163027642766  0.1889749839040178   F   F   F
  0.0002882773866147  0.9998953830848487  0.2747895527991697   T   T   T
  0.8321973517310191  0.9373754007453881  0.2732240517009212   T   T   T
  0.6677437872319123  0.9373841058632980  0.2728330524402707   T   T   T
  0.7493767799609695  0.9998901042739993  0.3597173130520832   T   T   T
  0.5836398168816908  0.9374233606254656  0.3593204120842870   T   T   T
  0.9160773229506751  0.9373627833090444  0.3589708459417743   T   T   T
  0.9962504179664440  0.9992310636338909  0.4439877029039547   T   T   T
  0.8323950853800520  0.9371797132267140  0.4449372735863244   T   T   T
  0.6644109880783051  0.9375758821648393  0.4480331816788778   T   T   T
  0.4054220745019208  0.9999222115495812  0.1371706404740110   F   F   F
  0.2498130538845231  0.9999469596221715  0.1043552466225179   F   F   F
  0.0938777968594522  0.9999465964224399  0.1371098030237761   F   F   F
  0.1543635830516692  0.1248899271375592  0.2204647086472562   F   F   F
  0.9995670073461937  0.1248966516782701  0.2080976692853085   F   F   F
  0.3446973568903360  0.1248674306196307  0.2206598414842134   F   F   F
  0.4004977266190250  0.1248887574936602  0.3068131416951363   T   T   T
  0.2496458848012950  0.1249339559594440  0.2920276175651710   T   T   T
  0.0995418090359381  0.1249986679973694  0.3071514482068334   T   T   T
  0.1518418376249066  0.1251649672488961  0.3937018576393708   T   T   T
  0.4997017396682121  0.1249404997645991  0.3761271756401137   T   T   T
  0.3478026111456704  0.1246949815534977  0.3924367209083121   T   T   T
  0.3997770884522689  0.1259356210889374  0.4789326829623635   T   T   T
  0.2508026825571554  0.1253991664633730  0.4634420012708624   T   T   T
  0.0946502418729893  0.1246556478032136  0.4727223688112456   T   T   T
  0.4054214644049878  0.1249282036816339  0.1371697875501496   F   F   F
  0.2498118312390858  0.1249501818115135  0.1042602234590362   F   F   F
  0.0938664600244081  0.1249385922007349  0.1371069089706722   F   F   F
  0.1543560911150905  0.2498790211591952  0.2204709660202369   F   F   F
  0.9995706735895027  0.2499094862395950  0.2080999580462830   F   F   F
  0.3447055266517580  0.2498932390428195  0.2206623926809286   F   F   F
  0.4005054652102041  0.2499752249489116  0.3068573508679038   T   T   T
  0.2496341465523763  0.2499407027568351  0.2920260713746153   T   T   T
  0.0995130726230294  0.2499504790920359  0.3071716204284565   T   T   T
  0.1517868415333592  0.2501293464500977  0.3937505723810775   T   T   T
  0.4996749868503421  0.2498413113883474  0.3763443757685281   T   T   T
  0.3476793367424569  0.2503020378260157  0.3925888795055022   T   T   T
  0.3997428935250648  0.2485206411766715  0.4792242706394952   T   T   T
  0.2505196765254759  0.2497940217146101  0.4634103630010059   T   T   T
  0.0946266451726370  0.2514237549077092  0.4732883484969063   T   T   T
  0.4054229972694188  0.2499207711709062  0.1371716336629376   F   F   F
  0.2498138581555835  0.2499451823925298  0.1043557657097551   F   F   F
  0.0938776901322669  0.2499459403779412  0.1371098843944125   F   F   F
  0.1543617400249389  0.3748920346981564  0.2204674382050342   F   F   F
  0.9995672189247742  0.3748993922795947  0.2080981530608312   F   F   F
  0.3446956533108718  0.3748674624887514  0.2206599019871973   F   F   F
  0.4004963623540782  0.3749034352443213  0.3068767742350942   T   T   T
  0.2496244296833383  0.3749479214142414  0.2920208064557573   T   T   T
  0.0994408153574146  0.3749825699163243  0.3071797496789532   T   T   T
  0.1518576851780475  0.3751402846023457  0.3936450192259909   T   T   T
  0.4997337843862490  0.3749047596933983  0.3762865480266593   T   T   T
  0.3476482711409954  0.3747623588673119  0.3925706550277578   T   T   T
  0.4001218108750503  0.3744883360884232  0.4787824937264112   T   T   T
  0.2507068640386919  0.3754722861421699  0.4636253415296676   T   T   T
  0.0943950001283332  0.3746502088882966  0.4723371732693386   T   T   T
  0.4054204481464510  0.3749288137657416  0.1371674470345781   F   F   F
  0.2498106243523637  0.3749504007233213  0.1042578114000037   F   F   F
  0.0938682935435935  0.3749385903486697  0.1371059653233644   F   F   F
  0.1543531827738107  0.9998787448957458  0.2204712064644667   F   F   F
  0.9995677263797802  0.9999081653989563  0.2081008624749074   F   F   F
  0.3447067510723798  0.9998918897834912  0.2206650007889195   F   F   F
  0.4004648728452757  0.4999106106681414  0.3069034987241141   T   T   T
  0.2496327519160252  0.4999257250951735  0.2920435788085827   T   T   T
  0.0994583983753298  0.4999336136943154  0.3071624636799916   T   T   T
  0.1518145616976589  0.5000996207878171  0.3936614411151600   T   T   T
  0.4996545323312130  0.4998414395464911  0.3762122876894580   T   T   T
  0.3477792941694128  0.0002311396834931  0.3925650450416075   T   T   T
  0.4001244160850914  0.4999647276962962  0.4793833996687095   T   T   T
  0.2505629648036767  0.4999291832710674  0.4633383813611014   T   T   T
  0.0948325427181805  0.0013661666204743  0.4734779821966527   T   T   T
  0.4054220745019208  0.4999222115495883  0.1371706404740110   F   F   F
  0.2498130538845231  0.4999469596221715  0.1043552466225179   F   F   F
  0.0938777968594522  0.4999465964224399  0.1371098030237761   F   F   F
  0.1543635830516692  0.6248899271375592  0.2204647086472562   F   F   F
  0.9995670073461937  0.6248966516782701  0.2080976692853085   F   F   F
  0.3446973568903360  0.6248674306196307  0.2206598414842134   F   F   F
  0.4005050851916298  0.6248717142312529  0.3069115478123993   T   T   T
  0.2496530484787934  0.6249181545647932  0.2920469557796869   T   T   T
  0.0994898940865141  0.6249553459075643  0.3071466478186246   T   T   T
  0.1518700795091701  0.6251261137023194  0.3936655560961647   T   T   T
  0.4996880466396831  0.6250083238077392  0.3764779865877096   T   T   T
  0.3478321254534698  0.6247630204226181  0.3926712564998109   T   T   T
  0.4003114678851805  0.6255062175186973  0.4796375556053140   T   T   T
  0.2505309162612225  0.6253606777063933  0.4637180159142625   T   T   T
  0.0942960907473039  0.6244462159743236  0.4724936885704716   T   T   T
  0.4054214644049878  0.6249282036816339  0.1371697875501496   F   F   F
  0.2498118312390858  0.6249501818115135  0.1042602234590362   F   F   F
  0.0938664600244081  0.6249385922007349  0.1371069089706722   F   F   F
  0.1543560911150905  0.7498790211591952  0.2204709660202369   F   F   F
  0.9995706735895027  0.7499094862395950  0.2080999580462830   F   F   F
  0.3447055266517580  0.7498932390428195  0.2206623926809286   F   F   F
  0.4004868487752311  0.7499056661545456  0.3068899747324826   T   T   T
  0.2496673889529640  0.7499035844224572  0.2920653864979670   T   T   T
  0.0995507550212897  0.7498939967892556  0.3071599614390320   T   T   T
  0.1518819735289471  0.7500362660305326  0.3937682630752978   T   T   T
  0.4996865678549525  0.7498794564526938  0.3761945413606397   T   T   T
  0.3477359554839856  0.7501472689253954  0.3927221418327378   T   T   T
  0.3996037170976537  0.7483513634467651  0.4790608869685854   T   T   T
  0.2506267457687582  0.7497039510185703  0.4634239554912727   T   T   T
  0.0947937728849105  0.7513651047168439  0.4733651332394235   T   T   T
  0.4054229972694188  0.7499207711709062  0.1371716336629376   F   F   F
  0.2498138581555835  0.7499451823925369  0.1043557657097551   F   F   F
  0.0938776901322669  0.7499459403779412  0.1371098843944125   F   F   F
  0.1543617400249389  0.8748920346981564  0.2204674382050342   F   F   F
  0.9995672189247742  0.8748993922795947  0.2080981530608312   F   F   F
  0.3446956533108718  0.8748674624887514  0.2206599019871973   F   F   F
  0.4004988294184066  0.8748368617757427  0.3068747613475267   T   T   T
  0.2496775491829847  0.8749049689272300  0.2920492016534856   T   T   T
  0.0996265016875283  0.8749187778009464  0.3071016282696681   T   T   T
  0.1519266973778018  0.8751142180216493  0.3937244394047710   T   T   T
  0.4997496111207796  0.8749330433090481  0.3762750173739660   T   T   T
  0.3478395419212241  0.8745963358240775  0.3926079280412055   T   T   T