Mo  S Ru                                
   1.00000000000000     
    15.9214998300000001    0.0000000000000000    0.0000000000000000
    -7.9622501300000001   13.7910221699999997    0.0000000000000000
     0.0000000000000000    0.0000000000000000   13.5821998300000004
   Mo   S    Ru
    25    50     4
Direct
  0.1336791330649376  0.0668208996127859  0.6745922584550641
  0.1317811848042751  0.2658015017761528  0.6754115884128993
  0.1330094104435418  0.4658187451661817  0.6734007086178977
  0.1323536517071133  0.6656656483565229  0.6737661841079969
  0.1324136179021380  0.8660224397127010  0.6744483342926912
  0.3344828601393033  0.0683879865449626  0.6747563176696261
  0.3315315765540561  0.2707516782534469  0.6720579141571577
  0.3328732324908330  0.4637538318973213  0.6704748291096294
  0.3332051323521910  0.6652384220268601  0.6724597354509001
  0.3327774259085103  0.8660803444019294  0.6737652759758390
  0.5327404902199504  0.0658272614133182  0.6738668669659518
  0.5400228633469197  0.2679945012677933  0.6717582605541565
  0.5238665230803434  0.4747465420880630  0.6840476421389852
  0.5346727849353030  0.6655701833992467  0.6704866803800726
  0.5326369476494435  0.8654437843999361  0.6734212533682822
  0.7330450386242333  0.0653108488918122  0.6750494346893205
  0.7341532312518382  0.2642840821120558  0.6758978034257339
  0.7303972692058309  0.4583891182675330  0.6717616801775321
  0.7276644091538103  0.6669040050640547  0.6720670080614681
  0.7326500564125880  0.8666604650558156  0.6754331577757284
  0.9328381268193979  0.0656107624544049  0.6754144000032838
  0.9331484317322918  0.2654207266281787  0.6750388012107393
  0.9326049564187713  0.4657139659398410  0.6738617637534290
  0.9300272647093948  0.6639565470648918  0.6747540246034660
  0.9316245336852873  0.8647698800053263  0.6746084032913373
  0.0660232520339648  0.1326041557837030  0.5600529343222860
  0.0661351894153626  0.1319708051068531  0.7899414841855048
  0.0657128650573000  0.3318949728221341  0.5592560355412246
  0.0660948135928052  0.3335689279423804  0.7896802914108534
  0.0658156296844012  0.5324916874876067  0.5586138003960812
  0.0663793444188698  0.5326482322854744  0.7887730427086979
  0.0643687923151859  0.7320578549794163  0.5599000542690149
  0.0649313724034215  0.7318797505836514  0.7888014335855402
  0.0657626105021620  0.9326885336494612  0.5597640833584521
  0.0659546756751013  0.9325143422237900  0.7894132277277421
  0.2680027953576669  0.1351033524767189  0.5590227125337250
  0.2697811684519777  0.1377926015561073  0.7877383171324439
  0.2634543369100300  0.3318794755700196  0.5568941390758440
  0.2676432099146808  0.3345107159155987  0.7904267922730881
  0.2662067351335224  0.5322281375120994  0.5569932882196795
  0.2690979563950862  0.5320967518365336  0.7862636127583400
  0.2657631082118073  0.7326811323300717  0.5586029520244651
  0.2663583156498319  0.7320871395764996  0.7880410079701363
  0.2663859150242018  0.9340612905832231  0.5598985503739584
  0.2665667277683639  0.9334989091533146  0.7888028522116599
  0.4669199384168650  0.1338906573491343  0.5582518680058541
  0.4682300427978134  0.1357753164213449  0.7881205466561241
  0.4710909906576006  0.3400291769336050  0.5694404461570883
  0.4593648774983308  0.3157065167193664  0.9397876901830529
  0.4657817878838770  0.5326859817704275  0.5561647883692444
  0.4555744933791885  0.5429305968983087  0.9440519378539989
  0.4662307560291481  0.7322661675650295  0.5570002074878602
  0.4663420644427205  0.7293594310873246  0.7862770842078177
  0.4659670590533125  0.9326241559323165  0.5586180711769586
  0.4658013578503031  0.9320649532317731  0.7887859502519206
  0.6670577180476585  0.1321258496046767  0.5595977490725801
  0.6655041392017083  0.1304646894228441  0.7897251640909531
  0.6688607906859971  0.3295774439122567  0.5568018487434685
  0.6669027702300312  0.3315181250660260  0.7921241828787018
  0.6584879771845138  0.5273961400907510  0.5693502616527653
  0.6827277018574591  0.5389204161242773  0.9398827176583069
  0.6665640034997367  0.7350000210959777  0.5569103689564656
  0.6639046385131664  0.7308040604350126  0.7904651199952397
  0.6665814617498498  0.9327466620552229  0.5592812289333011
  0.6649076075727649  0.9323719610672967  0.7896934033056269
  0.8664286388859637  0.1320364577789022  0.5598618808455242
  0.8662580559760542  0.1322197281782280  0.7904354878086224
  0.8663300293302427  0.3314077649959017  0.5595937245750946
  0.8679987860433229  0.3329685613673163  0.7897197953744950
  0.8645157971161979  0.5315234592481914  0.5582565552147400
  0.8626419518382988  0.5302197769501475  0.7881164682721220
  0.8633336052840406  0.7304606123462918  0.5590339219463729
  0.8606335612020928  0.7286630451171590  0.7877407528539919
  0.8658414547061994  0.9324203182646968  0.5600680399375761
  0.8664846452891055  0.9323188460426408  0.7899582875325208
  0.4234642328178637  0.4123225341025645  0.8485164332326036
  0.5884854736227680  0.4098882658460283  0.8449062644720371
  0.5862205578027400  0.5749669065734722  0.8485520629483005
  0.5328999975609889  0.4654699943969902  0.0067125839813968
 
  0.00000000E+00  0.00000000E+00  0.00000000E+00
  0.00000000E+00  0.00000000E+00  0.00000000E+00
  0.00000000E+00  0.00000000E+00  0.00000000E+00
  0.00000000E+00  0.00000000E+00  0.00000000E+00
  0.00000000E+00  0.00000000E+00  0.00000000E+00
  0.00000000E+00  0.00000000E+00  0.00000000E+00
  0.00000000E+00  0.00000000E+00  0.00000000E+00
  0.00000000E+00  0.00000000E+00  0.00000000E+00
  0.00000000E+00  0.00000000E+00  0.00000000E+00
  0.00000000E+00  0.00000000E+00  0.00000000E+00
  0.00000000E+00  0.00000000E+00  0.00000000E+00
  0.00000000E+00  0.00000000E+00  0.00000000E+00
  0.00000000E+00  0.00000000E+00  0.00000000E+00
  0.00000000E+00  0.00000000E+00  0.00000000E+00
  0.00000000E+00  0.00000000E+00  0.00000000E+00
  0.00000000E+00  0.00000000E+00  0.00000000E+00
  0.00000000E+00  0.00000000E+00  0.00000000E+00
  0.00000000E+00  0.00000000E+00  0.00000000E+00
  0.00000000E+00  0.00000000E+00  0.00000000E+00
  0.00000000E+00  0.00000000E+00  0.00000000E+00
  0.00000000E+00  0.00000000E+00  0.00000000E+00
  0.00000000E+00  0.00000000E+00  0.00000000E+00
  0.00000000E+00  0.00000000E+00  0.00000000E+00
  0.00000000E+00  0.00000000E+00  0.00000000E+00
  0.00000000E+00  0.00000000E+00  0.00000000E+00
  0.00000000E+00  0.00000000E+00  0.00000000E+00
  0.00000000E+00  0.00000000E+00  0.00000000E+00
  0.00000000E+00  0.00000000E+00  0.00000000E+00
  0.00000000E+00  0.00000000E+00  0.00000000E+00
  0.00000000E+00  0.00000000E+00  0.00000000E+00
  0.00000000E+00  0.00000000E+00  0.00000000E+00
  0.00000000E+00  0.00000000E+00  0.00000000E+00
  0.00000000E+00  0.00000000E+00  0.00000000E+00
  0.00000000E+00  0.00000000E+00  0.00000000E+00
  0.00000000E+00  0.00000000E+00  0.00000000E+00
  0.00000000E+00  0.00000000E+00  0.00000000E+00
  0.00000000E+00  0.00000000E+00  0.00000000E+00
  0.00000000E+00  0.00000000E+00  0.00000000E+00
  0.00000000E+00  0.00000000E+00  0.00000000E+00
  0.00000000E+00  0.00000000E+00  0.00000000E+00
  0.00000000E+00  0.00000000E+00  0.00000000E+00
  0.00000000E+00  0.00000000E+00  0.00000000E+00
  0.00000000E+00  0.00000000E+00  0.00000000E+00
  0.00000000E+00  0.00000000E+00  0.00000000E+00
  0.00000000E+00  0.00000000E+00  0.00000000E+00
  0.00000000E+00  0.00000000E+00  0.00000000E+00
  0.00000000E+00  0.00000000E+00  0.00000000E+00
  0.00000000E+00  0.00000000E+00  0.00000000E+00
  0.00000000E+00  0.00000000E+00  0.00000000E+00
  0.00000000E+00  0.00000000E+00  0.00000000E+00
  0.00000000E+00  0.00000000E+00  0.00000000E+00
  0.00000000E+00  0.00000000E+00  0.00000000E+00
  0.00000000E+00  0.00000000E+00  0.00000000E+00
  0.00000000E+00  0.00000000E+00  0.00000000E+00
  0.00000000E+00  0.00000000E+00  0.00000000E+00
  0.00000000E+00  0.00000000E+00  0.00000000E+00
  0.00000000E+00  0.00000000E+00  0.00000000E+00
  0.00000000E+00  0.00000000E+00  0.00000000E+00
  0.00000000E+00  0.00000000E+00  0.00000000E+00
  0.00000000E+00  0.00000000E+00  0.00000000E+00
  0.00000000E+00  0.00000000E+00  0.00000000E+00
  0.00000000E+00  0.00000000E+00  0.00000000E+00
  0.00000000E+00  0.00000000E+00  0.00000000E+00
  0.00000000E+00  0.00000000E+00  0.00000000E+00
  0.00000000E+00  0.00000000E+00  0.00000000E+00
  0.00000000E+00  0.00000000E+00  0.00000000E+00
  0.00000000E+00  0.00000000E+00  0.00000000E+00
  0.00000000E+00  0.00000000E+00  0.00000000E+00
  0.00000000E+00  0.00000000E+00  0.00000000E+00
  0.00000000E+00  0.00000000E+00  0.00000000E+00
  0.00000000E+00  0.00000000E+00  0.00000000E+00
  0.00000000E+00  0.00000000E+00  0.00000000E+00
  0.00000000E+00  0.00000000E+00  0.00000000E+00
  0.00000000E+00  0.00000000E+00  0.00000000E+00
  0.00000000E+00  0.00000000E+00  0.00000000E+00
  0.00000000E+00  0.00000000E+00  0.00000000E+00
  0.00000000E+00  0.00000000E+00  0.00000000E+00
  0.00000000E+00  0.00000000E+00  0.00000000E+00
  0.00000000E+00  0.00000000E+00  0.00000000E+00
