Ta  N  W Cu                             
   1.00000000000000     
    18.1096308199999996    0.0000000000000000    0.0000000000000000
     0.0000000000000000   23.3551997799999995    0.0000000000000000
     0.0000000000000000    0.0000000000000000   30.4818171199999988
   Ta   N    W    Cu
   192   240    48     4
Direct
  0.9999390372846619  0.0003147252930091  0.1962172604262022
  0.3293638026515424  0.0659309693814336  0.2018947066394574
  0.1704075773582758  0.0657029267753231  0.2016494132225901
  0.2501251093623296  0.1251797173381348  0.2809054342947093
  0.0824737650065472  0.0626326480729489  0.2830675952457256
  0.4173984150625358  0.0626390968366977  0.2832061005368232
  0.9999150122753804  0.1250839449838352  0.3688836038727814
  0.3331337442766369  0.0627677376346867  0.3679544931641701
  0.1668890027410299  0.0627612342314308  0.3678776592348996
  0.2498570028034450  0.1250753753351077  0.4536218647917849
  0.0836243899251485  0.0626807202392641  0.4539248351784195
  0.4161424063165526  0.0626759570812681  0.4544792536510158
  0.9999108543076289  0.1252269710196572  0.1952671031642979
  0.3295119694568243  0.1846642661923568  0.2018016434265633
  0.1704281248194022  0.1847761613372256  0.2016142341919078
  0.2500689096612234  0.2502341527909593  0.2804079749517072
  0.0825204202945500  0.1878865093572273  0.2830480394040791
  0.4174486295882005  0.1878846042750482  0.2832630987192388
  0.9999633574660010  0.2504177342541070  0.3688993102264888
  0.3330659428343097  0.1878215795210707  0.3681022552668196
  0.1668322207316919  0.1877990035158845  0.3677963370094162
  0.2496848801710598  0.2500930071423255  0.4535359765174007
  0.0835609083735918  0.1876385314142226  0.4542801158976602
  0.4163942910263430  0.1876767705375784  0.4542415546986192
  0.9999696168936723  0.2503592563595092  0.1961821460863789
  0.3294951143535485  0.3159220348470484  0.2019621464492971
  0.1704302105199318  0.3156901467703008  0.2016709348428591
  0.2502127240784233  0.3751959930674857  0.2810804097167576
  0.0825401569935664  0.3126262547169674  0.2831021206534672
  0.4174318102343335  0.3126142236107370  0.2833595804705524
  0.0000447428931167  0.3751445392907158  0.3689298016113725
  0.3331347538500751  0.3127826382031955  0.3681385700318955
  0.1669546567883842  0.3127874798121866  0.3679167794784348
  0.2498743594260446  0.3751169271023258  0.4538097086757347
  0.0837650835908690  0.3126730513188960  0.4538819510930097
  0.4163328572634768  0.3127185147130689  0.4547311633613376
  0.9999900945816904  0.3752788527584130  0.1953333631563723
  0.3295167849271934  0.4346352674267280  0.2020189326634494
  0.1704379703741310  0.4348018978691783  0.2017658959845150
  0.2499900151920684  0.0002593866166691  0.2804097891450610
  0.0826109189040238  0.4378776524551355  0.2831742687830427
  0.4174701279667588  0.4378520764702074  0.2834534153277204
  0.9998898727043510  0.0004415864500160  0.3689024508593022
  0.3331504786352824  0.4378419994698390  0.3683465574235143
  0.1669393798892500  0.4378493257618388  0.3679936830790282
  0.2498698400470190  0.0002436063108675  0.4535915821916490
  0.0836636863338427  0.4378409608764784  0.4544056408116219
  0.4164579976083189  0.4378076488700700  0.4547847548145967
  0.0000179487062084  0.5003365093937830  0.1962424294906029
  0.3294273790808333  0.5658452367584985  0.2020152280867435
  0.1704761931714174  0.5656381848055148  0.2017642862874709
  0.2501666454186946  0.6252317110648136  0.2810440107350374
  0.0825666807953738  0.5626239942204236  0.2831918085165910
  0.4174367439198363  0.5625920133558964  0.2833722464815196
  0.0000211085081148  0.6251524258230106  0.3689310702721684
  0.3331647871364396  0.5627607273942559  0.3682059425685438
  0.1670373943403689  0.5628145243286227  0.3680577661852880
  0.2499016922970085  0.6254327302782627  0.4537678659753297
  0.0837580088747245  0.5629257346090171  0.4539845462237864
  0.4164151187397209  0.5629203137472985  0.4548530860639062
  0.9999696109022267  0.6251875299662260  0.1953222361071667
  0.3294581094277049  0.6846120507823130  0.2018973856372526
  0.1704344590206972  0.6847691008991532  0.2017074365865810
  0.2500245929200702  0.7502617195354446  0.2804127678637585
  0.0825388327411858  0.6878797265874468  0.2831027854587234
  0.4174223599467055  0.6878387041314156  0.2832729843206607
  0.9999634265878541  0.7504473986442051  0.3689235438822820
  0.3330450289752491  0.6878389642504672  0.3681151325867233
  0.1668800011501688  0.6878743205989295  0.3678683737096833
  0.2499637051139487  0.7504260346032439  0.4536859599736474
  0.0836423442362388  0.6879442392938842  0.4543690913786023
  0.4162632980349130  0.6879522745986151  0.4541814235438011
  0.9999784364256215  0.7502903748157976  0.1962080335936562
  0.3293866886680590  0.8159391074061304  0.2018054448441688
  0.1704105542084022  0.8157272041914894  0.2015809060597107
  0.2500947779352884  0.8752406105167267  0.2808645418604456
  0.0825108959262906  0.8126340411780859  0.2830825133824391
  0.4173733618532509  0.8126145859745861  0.2831935987109517
  0.9999150038847162  0.8751142648952381  0.3688721223459339
  0.3331169742676536  0.8127839092957103  0.3679636360974712
  0.1669152117444241  0.8128084609465844  0.3678906699326490
  0.2498840521845480  0.8752592568933508  0.4536285064598644
  0.0836646938047707  0.8128449757439427  0.4539535986023040
  0.4161833520222871  0.8128767531682115  0.4544962911307522
  0.9999286035480353  0.8752173312810072  0.1952924499339872
  0.3293789631256558  0.9345949660700867  0.2017505256520806
  0.1704209056155150  0.9347336489642117  0.2015792356789206
  0.2500798609224404  0.5002494895093079  0.2805996206024872
  0.0825114999030703  0.9378789414635378  0.2830399645851216
  0.4173840628437233  0.9378665346595625  0.2831830495901997
  0.0000639345298836  0.5004664792296083  0.3689928193935970
  0.3329723520205761  0.9378301527045068  0.3679927820412274
  0.1667837824787242  0.9378240095533030  0.3677856117392935
  0.2501881077868973  0.5004490364288188  0.4539903275615984
  0.0835669868529081  0.9377586448179471  0.4543048385757800
  0.4162084661327228  0.9378142523389457  0.4540551882639434
  0.4999020274371730  0.0002387342764436  0.1962811380825329
  0.8291785104992968  0.0658638986806679  0.2018239626321616
  0.6702344486471503  0.0657982630188414  0.2017826749677951
  0.7499584262237846  0.1251860989378315  0.2809368220121726
  0.5824627292315583  0.0626524638518617  0.2832068043558635
  0.9174132811002451  0.0626287600370929  0.2830735862391052
  0.4999893230287356  0.1254815777667346  0.3691279456984375
  0.8329509231412189  0.0627766738888980  0.3679302898725325
  0.6667206513405048  0.0628010954357947  0.3679876367570500
  0.7499153477078764  0.1251623408642430  0.4537546850164063
  0.5836850887355354  0.0627043346798075  0.4545578805251012
  0.9161474723892624  0.0627020357084263  0.4539502619387150
  0.4998644005183266  0.1252985313695163  0.1953546435440927
  0.8292126647899778  0.1846470197754684  0.2017652594521948
  0.6701343009499254  0.1848023927971596  0.2016976432792674
  0.7498674705127044  0.2502152594456462  0.2804526567592376
  0.5824568548235547  0.1878789801459391  0.2832864501082994
  0.9174142510056171  0.1878920679715890  0.2830550570709676
  0.5000138930034836  0.2501503567806935  0.3692295069451959
  0.8330336220081804  0.1878133670095039  0.3678528973598318
  0.6668523126053714  0.1878211195560198  0.3681543923378925
  0.7500495668399623  0.2501269240154187  0.4537671929515525
  0.5834179681304548  0.1877037663557672  0.4543871035876776
  0.9163020529650225  0.1876262587285069  0.4543075748834937
  0.4999677291986231  0.2502950171466480  0.1963118130905883
  0.8292451035607655  0.3158357246420493  0.2018512004488784
  0.6701584246472976  0.3157743476896684  0.2018464453408413
  0.7499885441599332  0.3752021358676814  0.2810758672192719
  0.5824991405094977  0.3126215146761169  0.2833768224154412
  0.9175008403442320  0.3126198289421112  0.2830888715551225
  0.4999711162611433  0.3754874347274324  0.3693106004501914
  0.8330734654001688  0.3127624156961630  0.3679118866191757
  0.6668756364051731  0.3127742205010122  0.3681731518156184
  0.7505614109169230  0.3752407635465076  0.4535846041503575
  0.5837135193067553  0.3127121394566501  0.4548046456754449
  0.9163038730759610  0.3127006620109398  0.4539272397712182
  0.4998824287696308  0.3753154689272691  0.1955004708882910
  0.8292825236266026  0.4346579162402833  0.2019016567610876
  0.6701486958181349  0.4347977591969183  0.2018933259345488
  0.7498807996630177  0.0002730398080288  0.2804575416204571
  0.5824655619497179  0.4378422449726145  0.2834384052754757
  0.9174817956121473  0.4378912549701184  0.2831322003190166
  0.4999357081286249  0.0001474190151924  0.3690600949927898
  0.8331857393004398  0.4378633494824840  0.3679096335867200
  0.6668983026667803  0.4378498886805389  0.3682500677361915
  0.7498288856124162  0.0002578476988688  0.4536071919431066
  0.5836757055693980  0.4379202076088760  0.4545345528755433
  0.9165748159871043  0.4379184384020931  0.4543836036242439
  0.4999033058771758  0.5001891239274485  0.1963948309178676
  0.8292189569368276  0.5658171769000191  0.2018860221098180
  0.6702244511441720  0.5656926389487964  0.2018822850413571
  0.7499889939904989  0.6252500109252210  0.2809962302718958
  0.5824634743776400  0.5625884203850759  0.2833459986823641
  0.9174983940281649  0.5626278372653957  0.2831473167168710
  0.4999453117106185  0.6254426189059785  0.3691797951349827
  0.8330402336048337  0.5628430099882777  0.3679795745513132
  0.6668683033133860  0.5628007551840497  0.3680726429084302
  0.7500713795742584  0.6254458535846723  0.4537283357618804
  0.5836407075044647  0.5630152223127567  0.4547054060026809
  0.9164086083709222  0.5629627057434661  0.4539410197838194
  0.4998489525916412  0.6251200210752756  0.1953991383609761
  0.8292030291505625  0.6846292771262057  0.2018500348784542
  0.6701935122463922  0.6847439415560288  0.2017816498687779
  0.7498623030369203  0.7502718314371393  0.2804118975966148
  0.5824265810402309  0.6878403177995409  0.2832498270742576
  0.9174515470474347  0.6878925345732370  0.2830678396712614
  0.4999360797206904  0.7500976617611954  0.3691027147455799
  0.8330703563424606  0.6878957979942726  0.3678320025734507
  0.6668708637799767  0.6878508231780174  0.3680541157010140
  0.7498723574558426  0.7504050646671274  0.4536477050477643
  0.5836560116184799  0.6879339596231659  0.4541602536888973
  0.9163188265352886  0.6879546359060882  0.4543474202385340
  0.4998967901342155  0.7501301732801622  0.1962905916611390
  0.8291630854691761  0.8158918057003035  0.2017466937708150
  0.6702026000932975  0.8158319405940659  0.2016731408229617
  0.7499605055108560  0.8752527739223268  0.2808710482194954
  0.5824592515592713  0.8126161278822295  0.2831778217115470
  0.9174230460549282  0.8126250268008093  0.2830592874629758
  0.4999150796352225  0.8754700391600423  0.3690146492696300
  0.8329793194912298  0.8128073170684189  0.3678867624531463
  0.6667354763733186  0.8128089650194639  0.3679301792459597
  0.7498899008946083  0.8752676084851743  0.4536061213357314
  0.5836922600330610  0.8128708812512073  0.4544936374241573
  0.9161707646855177  0.8128417074419403  0.4539581044338377
  0.4998258772321122  0.8752493706149451  0.1953398856787061
  0.8291693256826491  0.9345773039859111  0.2017399226111891
  0.6702380683928837  0.9347276605570656  0.2016676191233486
  0.7499160230187059  0.5002447457336032  0.2805759695803900
  0.5824308866361463  0.9378691661042708  0.2831805831974989
  0.9173861444427587  0.9378861205711289  0.2830294029342255
  0.4999599858871733  0.5001361303981611  0.3693723302041221
  0.8330615361270617  0.9378299065193758  0.3678010176705371
  0.6668379211782778  0.9378331964698461  0.3679748670377663
  0.7503105770462639  0.5005518183284536  0.4537030578874734
  0.5835870434158750  0.9378062263952458  0.4540780347886653
  0.9161528084754664  0.9377820014090901  0.4543460557631676
  0.4053272050118153  0.0002280180156404  0.2312193283081356
  0.2499452244131248  0.0002390174676563  0.2102267051571332
  0.0945188323670223  0.0002880234454707  0.2311125897514472
  0.1523686281537309  0.1252459254490432  0.3159696568677575
  0.9999594143549686  0.1252696966234126  0.3019378667576689
  0.3475918660115056  0.1253223707770275  0.3161570237585778
  0.4016531067170916  0.1251903615080394  0.4026622065426153
  0.2499195585649119  0.1252626120075888  0.3864103841221933
  0.0982280287834811  0.1253420909322145  0.4024404186672328
  0.1532238990009489  0.1250425682875829  0.4870151183939484
  0.9998938508114108  0.1245610490950710  0.4750892883105138
  0.3464357714918691  0.1251047703569625  0.4871624007935438
  0.4004587290646882  0.1249859617826132  0.5676208034190395
  0.2497990557161884  0.1251334935400337  0.5573530024658666
  0.0997466930463347  0.1245766627552172  0.5674797826604490
  0.4054687390183318  0.1253058708596271  0.2317013104568062
  0.2498563630106290  0.1252971097814637  0.1769556855682453
  0.0945868898730495  0.1252556258374256  0.2314892808934417
  0.1526623771310156  0.2502822808542859  0.3157540781858756
  0.9999865543268527  0.2502671257301969  0.3020477203382583
  0.3473424656879658  0.2502456150730694  0.3159913789685902
  0.4016134323951377  0.2504222649218306  0.4027281687311870
  0.2499248090311141  0.2502815572807222  0.3863773932048815
  0.0983947935760128  0.2501186472852979  0.4023967192984657
  0.1531287308067490  0.2500449661211732  0.4870536968206451
  0.9999849483549355  0.2506990574664911  0.4749088596375728
  0.3461236452777996  0.2495398327020411  0.4869693594345677
  0.3978468118393650  0.2490378819711907  0.5676579754239626
  0.2491896085803802  0.2498636445939866  0.5574782610684821
  0.0998270570201427  0.2500980260901784  0.5675895051981783
  0.4054481937317149  0.2502734662376227  0.2313139483672586
  0.2499997821302316  0.2502572893798032  0.2101609702744867
  0.0944970982597155  0.2503053213879909  0.2311177753023017
  0.1524509507929466  0.3752660798491192  0.3160795546049044
  0.0000384699295779  0.3752599190823815  0.3019840964635705
  0.3476241426916360  0.3753064550358900  0.3163807456625989
  0.4017718010780484  0.3752394542323501  0.4029489269627007
  0.2500370648665182  0.3753178125770162  0.3865784365353306
  0.0983394491043015  0.3754124256559734  0.4024851804997311
  0.1531048821744534  0.3751848433736313  0.4870837896045046
  0.0001246600682734  0.3746220310281458  0.4749548670968480
  0.3462018989667186  0.3751942576975864  0.4875096205274829
  0.3950845383654524  0.3744056718518536  0.5686505759092810
  0.2485207684610486  0.3751189376614263  0.5575785658500223
  0.0997836319030085  0.3748093772896510  0.5677362682907301
  0.4055265300571023  0.3752739606499418  0.2318704622887040
  0.2498912901069517  0.3752967929645621  0.1771522099762564
  0.0946480218289878  0.3752603800175436  0.2315631913916221
  0.1525668795585773  0.0003009940732426  0.3157601680610327
  0.9999399523925874  0.0002572573187081  0.3020454069906364
  0.3473146210912077  0.0002600350973836  0.3158870385965926
  0.4014928373801467  0.0003951190633558  0.4025473674475180
  0.2498851465366059  0.0002753996078368  0.3864007341504703
  0.0983142851725489  0.0001473950700372  0.4024170469303741
  0.1533015449381594  0.0002345853820245  0.4870527432895599
  0.9998527031114790  0.0007814896731944  0.4750567213534609
  0.3463963255650242  0.9999144061088288  0.4871298496401693
  0.3999452978066174  0.9999893084150955  0.5677110315786393
  0.2498324698921053  0.0000843365724918  0.5573539172449316
  0.0997391854161194  0.0004972700281130  0.5673652078847056
  0.4054370586954263  0.5001627411076512  0.2314609089343733
  0.2500166290645325  0.5002090542116235  0.2103864392339290
  0.0945083831613545  0.5002829656454821  0.2312497424771252
  0.1524211359259482  0.6252493443289922  0.3160865804301238
  0.0000168349728327  0.6252534565121124  0.3019849816015494
  0.3476089558168525  0.6252549877294769  0.3162806000769507
  0.4016692864101685  0.6251660769548906  0.4028113086619172
  0.2499692931984754  0.6253498500335226  0.3865573500849919
  0.0983089805217077  0.6254863301134321  0.4025309290703447
  0.1532791946911445  0.6254543247002786  0.4871815701556201
  0.0000258429694640  0.6249256300608863  0.4751110643176943
  0.3464761635692994  0.6259633850560391  0.4872456480307932
  0.3996281727678053  0.6260102446248794  0.5680163904577000
  0.2497253179487799  0.6253300243077717  0.5575719593593860
  0.0997896235904889  0.6253605180031414  0.5676154970155380
  0.4054932869254486  0.6251940866116570  0.2317861694950167
  0.2498658591876435  0.6251973158372337  0.1771309661376463
  0.0946303459506410  0.6252066354281567  0.2315765055395218
  0.1526202166225943  0.7503027652319432  0.3157876873092818
  0.9999710712411201  0.7502525509085842  0.3020600904255630
  0.3473284692414254  0.7502265873815617  0.3159219690704163
  0.4015132223202755  0.7504441449259787  0.4026293813341582
  0.2499291122014782  0.7503208457314514  0.3864683661456283
  0.0983672783980225  0.7502381666394058  0.4024676769950801
  0.1533707599292669  0.7504819713348425  0.4871200410280352
  0.9999352526297827  0.7509617930350885  0.4750902102950150
  0.3464684120324506  0.7503248169011343  0.4872583119819609
  0.4003772858069610  0.7505245177736271  0.5677258983878062
  0.2499272741472396  0.7503125957063830  0.5574920736025035
  0.0998724946756866  0.7508036092260681  0.5675020634762831
  0.4053711151246873  0.7501788816623360  0.2312583872345826
  0.2499827873600964  0.7502472113641190  0.2102012901246084
  0.0945168086585824  0.7502837310773529  0.2311422476136116
  0.1523621948078997  0.8752532178745227  0.3159693781899051
  0.9999654144851817  0.8752674929375672  0.3019231876724433
  0.3475564978455310  0.8752911200416520  0.3161062603883309
  0.4015928930046044  0.8752203005835355  0.4025761857376366
  0.2498987011603262  0.8753268476834393  0.3864054025873642
  0.0982101751442173  0.8754065493798606  0.4024436340528510
  0.1533219484328541  0.8752408149242328  0.4870453757026212
  0.9998741393153665  0.8747220794963724  0.4751008694871217
  0.3464402827974098  0.8755462112418826  0.4871420258084100
  0.4001309281415573  0.8755008612504653  0.5676280090844088
  0.2499213128764382  0.8754018859106196  0.5573390842050898
  0.0998421769350912  0.8749844561090256  0.5673971640718420
  0.4053794802981301  0.8752537490266974  0.2316637881604038
  0.2498063323719535  0.8752353808463198  0.1766930081821911
  0.0946563223434254  0.8752369290238136  0.2314964292012078
  0.1527047623912807  0.5002891887134950  0.3159332998664510
  0.0000314967765789  0.5002437376093312  0.3021373359298707
  0.3473601210817776  0.5002053725532249  0.3161737605422772
  0.4016268922190065  0.5003845524376516  0.4030107895339867
  0.2500689305327555  0.5002862720534225  0.3867230243127509
  0.0984456818263055  0.5002319770819668  0.4025382665593895
  0.1532557379928008  0.5004884109701138  0.4871292216836238
  0.0001085589499468  0.5010234618202105  0.4750369658576972
  0.3466465492579331  0.5004278406489746  0.4878753934962035
  0.3975033008925735  0.5009502986765568  0.5691971480185956
  0.2490589581335101  0.5004388546847167  0.5577194142410562
  0.0996888702587100  0.5008209681136577  0.5677692787777247
  0.9052694079327779  0.0002944493314629  0.2310843235911761
  0.7497650119135741  0.0002466412589328  0.2102945103860279
  0.5943926956694696  0.0002364307932865  0.2312456146252302
  0.6523136207790756  0.1253340264885168  0.3161644537312327
  0.4999489866365181  0.1252781185463832  0.3021686116048485
  0.8475551379601569  0.1252635034866501  0.3160297904316707
  0.9016138875679829  0.1253615608057856  0.4024740305762080
  0.7499247237449040  0.1252966349939300  0.3865120991698561
  0.5982638182565410  0.1252222855309171  0.4027644245038076
  0.6533695613362624  0.1252266495854357  0.4874103728523096
  0.4999364109588811  0.1257745196927473  0.4755914038130058
  0.8465447623614182  0.1251324512464507  0.4871033926631441
  0.8998655271230760  0.1245957808012079  0.5676103085023882
  0.7498016262667022  0.1256476751817530  0.5574875718785535
  0.5994880482397917  0.1249342500329860  0.5679194562928345
  0.9053767532123658  0.1252667375324137  0.2315309245543062
  0.7495742970523480  0.1253061307411372  0.1769550307795171
  0.5944407452001244  0.1253147807448514  0.2316626415684411
  0.6525781968249547  0.2502359759928154  0.3160280038376300
  0.4999568433727362  0.2502588032044102  0.3023279420254639
  0.8472985801494204  0.2502740391216349  0.3157858245993950
  0.9015605546091265  0.2501297210623221  0.4024333074232374
  0.7499853633559113  0.2502889773543373  0.3865185852248487
  0.5983561001430431  0.2504557773014113  0.4028519598828595
  0.6535791684871555  0.2493562893124519  0.4875813123533561
  0.4999341008786473  0.2499559417716739  0.4754222144346727
  0.8468200190865147  0.2500584610950867  0.4870905315528162
  0.9007916302221730  0.2502068263549972  0.5675938224006245
  0.7510522084911031  0.2499246422760208  0.5578618180062094
  0.6013369345559099  0.2505025144157003  0.5693001954566128
  0.9053578418640953  0.2503079383297049  0.2310952620125093
  0.7497538052286572  0.2502663256329853  0.2101987975238941
  0.5943694681917222  0.2502794136066555  0.2313673014532966
  0.6523787395072205  0.3752740874118174  0.3163131758529119
  0.4999685951089390  0.3752367622370159  0.3023192096652778
  0.8476477999742897  0.3752464554917339  0.3160705806712727
  0.9017661271119621  0.3754146460668579  0.4024862678305681
  0.7500843634187291  0.3753077794043236  0.3864185426451812
  0.5982365800480878  0.3752116346337075  0.4028819492048257
  0.6543263032200670  0.3755154265103045  0.4870613987176000
  0.5000726398039532  0.3754009560249401  0.4754756790818035
  0.8472991768878870  0.3752782964772337  0.4870507155738224
  0.9010627827817856  0.3749446748877361  0.5676832777181886
  0.7520921480888489  0.3750529167430159  0.5574107801909989
  0.6048706607190724  0.3771717596594684  0.5672467581580634
  0.9054613555585362  0.3752673743297308  0.2315721139504561
  0.7496032461461297  0.3752948280919028  0.1772164790623378
  0.5944235927864838  0.3752774414316207  0.2318166478794197
  0.6525025172718628  0.0002812477641712  0.3158913505488812
  0.4999124446449557  0.0002628689866313  0.3021972457797020
  0.8473295520501267  0.0003133500214290  0.3157981194237607
  0.9014701939584597  0.0001550482295229  0.4024427074248038
  0.7499291988681023  0.0002865928945184  0.3864059557149915
  0.5983637312456267  0.0004016650068408  0.4025825218476982
  0.6533772651165535  0.9998918115768305  0.4871862874308945
  0.4998956819300204  0.9998483567501424  0.4751336927753869
  0.8463636723699395  0.0002762706938597  0.4870794441590576
  0.8998451497880211  0.0005032852972278  0.5673940961010260
  0.7497870370690762  0.0001327940835978  0.5574508893827499
  0.5996677661704695  0.9999902966611316  0.5677542684324735
  0.9054075829309625  0.5002896201934917  0.2311816055909759
  0.7498043507827319  0.5002168203606914  0.2103793981154709
  0.5943454321062021  0.5001592856044184  0.2314556743837883
  0.6523345837284182  0.6252815593208396  0.3161842235312875
  0.4999490055832752  0.6252166568076589  0.3022134815554267
  0.8476156876173917  0.6252722559880297  0.3160605339725393
  0.9017020412979235  0.6255148782869284  0.4024955264866747
  0.7500096984375446  0.6253794742382865  0.3865048946919742
  0.5982869332930392  0.6252020645700043  0.4027458101124495
  0.6535146465524875  0.6257806390719693  0.4872615234776561
  0.4999823910452434  0.6259055755957448  0.4754191783149011
  0.8467144770863513  0.6254472524841930  0.4871517255850790
  0.9003724768358126  0.6254119722909692  0.5675050463626619
  0.7500726796218729  0.6253329546849855  0.5575236753983290
  0.6001067328669834  0.6256476276079681  0.5679810271327881
  0.9054294707637496  0.6252140103875874  0.2315780398282428
  0.7495952282366929  0.6251971087534756  0.1771185067474974
  0.5944188699414497  0.6251816131046866  0.2317104428068006
  0.6525176883285866  0.7502385569555798  0.3158765814224225
  0.4999195918306540  0.7502168058748850  0.3022334181304913
  0.8473114921155442  0.7503160298153446  0.3157703260790186
  0.9015392672470384  0.7502392134589755  0.4024497833705283
  0.7499436741901349  0.7503208972738236  0.3864219595995735
  0.5983761103246650  0.7504445304046001  0.4026104477456443
  0.6534122253689176  0.7502688650964586  0.4872659139208011
  0.4999580035904145  0.7498531179416830  0.4752962190087544
  0.8464479737405242  0.7504750883063522  0.4870757043373430
  0.8999147986974165  0.7508236561292989  0.5674792265633002
  0.7498938453468469  0.7502348069369233  0.5574656592306511
  0.5994922471028445  0.7504192419594915  0.5677169543026466
  0.9053162282485658  0.7502902882832103  0.2310826683948619
  0.7497227373110391  0.7502626020594931  0.2102137688327517
  0.5943591323883552  0.7501840051678670  0.2312631586652856
  0.6522939580744023  0.8753026677951823  0.3160636958476886
  0.4999124971650133  0.8752681554846262  0.3020798880760296
  0.8475733235957392  0.8752605901206181  0.3159943544203188
  0.9016140647113531  0.8754143950488995  0.4024571324653934
  0.7499362788580868  0.8753290417885609  0.3863834014642791
  0.5982467710001558  0.8752287792736198  0.4025762418566146
  0.6533387138025191  0.8755419403391187  0.4871796063701339
  0.4999067947991236  0.8758884299392946  0.4752098745246798
  0.8463884985405130  0.8752299424874863  0.4870437271269026
  0.8998655354342660  0.8750040259732259  0.5673817196226523
  0.7498026918484655  0.8753517673367810  0.5573849594851552
  0.5995439025086498  0.8754547005424769  0.5676453823490704
  0.9053246884604391  0.8752366783408689  0.2315195539884556
  0.7496057181899403  0.8752463776297503  0.1766555127323741
  0.5944522021699683  0.8752588477097731  0.2316118303044945
  0.6526042085571859  0.5002135812892519  0.3160770553997594
  0.4999536459097840  0.5002212891215194  0.3024592732182967
  0.8473712164911973  0.5002997428893678  0.3158776222319304
  0.9016592863696928  0.5002520683208900  0.4025000532417593
  0.7500416008013673  0.5003225778590519  0.3865116404620039
  0.5983970656852904  0.5004403657353080  0.4028446780029142
  0.6538509197365485  0.5008243588059216  0.4873309679569360
  0.5001586282026125  0.5001664033167117  0.4756646052843010
  0.8470647571949073  0.5006411609822834  0.4871400701801676
  0.9006574206043823  0.5010608719015508  0.5678027524308433
  0.7512246898282200  0.5009579941894557  0.5576068431079335
  0.6018050955427015  0.4986349490277533  0.5684275695386773
  0.9998516392986190  0.1144370802326691  0.5415897916012398
  0.3357862875589177  0.0622941956187333  0.5392736949533941
  0.1663766578064028  0.0626422851757198  0.5387841878744410
  0.0002783695734365  0.2606208594919224  0.5413846872948938
  0.3330264893788737  0.1870884903749896  0.5387675977890538
  0.1639639951260392  0.1873846344593417  0.5393384989624437
  0.0004453354893741  0.3644910644575745  0.5414144175516640
  0.3332991486356462  0.3113283039445136  0.5389844717389138
  0.1654396961299511  0.3124897762767134  0.5387823151273281
  0.9997973135647129  0.0107994211432114  0.5415255562504129
  0.3300124507416413  0.4377186887008548  0.5387217680342218
  0.1630691919582787  0.4378763318899033  0.5393580371531286
  0.0000999292137607  0.6149443762371192  0.5415979857829498
  0.3342099083567689  0.5641203608721028  0.5394784142068261
  0.1658222367557656  0.5629554115575246  0.5389042791752843
  0.9999174171128615  0.7609996621812201  0.5415826308437133
  0.3336564825545167  0.6882756203427292  0.5390947949643490
  0.1641336891215985  0.6880872843296331  0.5394433832757457
  0.9998666131822205  0.8645982130871559  0.5415601282640523
  0.3358268132046689  0.8129564535202007  0.5393370563895985
  0.1664922634805421  0.8128800446307238  0.5388332507971612
  0.0001973905815191  0.5110651636168697  0.5415371034315939
  0.3334846462381051  0.9376996552183385  0.5389427291553801
  0.1641830563801463  0.9377281553056918  0.5392908815401896
  0.4998858896666079  0.1355271152472426  0.5420738047645486
  0.8333383328420965  0.0627505701184390  0.5388456955612639
  0.6637913131635216  0.0623027035563908  0.5394145045786942
  0.4990590485927555  0.2419190920814671  0.5420130596925219
  0.8361190865300330  0.1876068582775758  0.5393964711564507
  0.6670702003449449  0.1869140826817812  0.5394390371789370
  0.4987355864602208  0.3845459291370901  0.5422626109776445
  0.8354584592539140  0.3125747953701605  0.5388140939018697
  0.6691701958521818  0.3121065246566630  0.5382364538922246
  0.4998111415284043  0.9905791283176697  0.5416377718869114
  0.8379257811288312  0.4380085295652307  0.5393831539411593
  0.6716898475546600  0.4386855345145619  0.5377616117697954
  0.4998748375837039  0.6349596051454824  0.5419439225123597
  0.8341808921215375  0.5631076644924136  0.5389060063967079
  0.6652031641008804  0.5636767468104935  0.5396215986447501
  0.4999311115497775  0.7401354924565382  0.5417763348639824
  0.8357182368097611  0.6881101286357989  0.5393677178862930
  0.6662614012961185  0.6880792059485756  0.5390913141033380
  0.4998427282732933  0.8855587402662763  0.5416667778766850
  0.8332608962889623  0.8128654577591163  0.5388313896696317
  0.6639288628939539  0.8129072897883205  0.5393686658846590
  0.5003486103245862  0.4894277526686039  0.5425013203245612
  0.8354697687510964  0.9377669495389469  0.5393127576673464
  0.6662097286517366  0.9376546323239623  0.5390106155063137
  0.5620862455927238  0.4331559125364279  0.6155786238667389
  0.4519599071047224  0.3757168876751038  0.6251619646112871
  0.4448506796507701  0.4799864682396446  0.6242006453026789
  0.5557967189673505  0.3132105376210603  0.6058134049093482
 
  0.00000000E+00  0.00000000E+00  0.00000000E+00
  0.00000000E+00  0.00000000E+00  0.00000000E+00
  0.00000000E+00  0.00000000E+00  0.00000000E+00