Mo  S Cu                                
   1.00000000000000     
    15.9214998300000001    0.0000000000000000    0.0000000000000000
    -7.9622501300000001   13.7910221699999997    0.0000000000000000
     0.0000000000000000    0.0000000000000000   13.5821998300000004
   Mo   S    Cu
    25    50     4
Direct
  0.1326498514882672  0.0659755595634337  0.6803707385556663
  0.1316935796488679  0.2655433918943615  0.6801715656706193
  0.1327164596401644  0.4658547149036281  0.6795915727347008
  0.1327199348290691  0.6659576541958785  0.6789672114277678
  0.1327336122546683  0.8659882030363519  0.6794147572140616
  0.3328674624177879  0.0659432831057671  0.6800408757353296
  0.3325475983304145  0.2653672704835444  0.6815361732439342
  0.3330693927349202  0.4666271215383162  0.6806014695597185
  0.3326899420020979  0.6660803368638710  0.6792490794205719
  0.3327251791552897  0.8659335250325597  0.6789240896469764
  0.5327767881002643  0.0657233298082076  0.6786166786773720
  0.5334944592063948  0.2654956413188572  0.6795267079807488
  0.5331875699206066  0.4666288682586028  0.6803904186859597
  0.5328363808559260  0.6661466053828136  0.6795580442884912
  0.5327156370099004  0.8659052152125000  0.6785124872367874
  0.7326694949050747  0.0657937873344139  0.6782053145127662
  0.7328892345088533  0.2658436401677449  0.6784489304722428
  0.7326976845688407  0.4658456426717095  0.6793092664109608
  0.7329128650199408  0.6661028845826422  0.6792606998324615
  0.7327005691665747  0.8659320139625137  0.6786972352091780
  0.9325222773423576  0.0657756262886338  0.6791250310160706
  0.9325616860302404  0.2658609919086317  0.6787766008832179
  0.9327008899602518  0.4658605071238284  0.6787989044522149
  0.9327279291800750  0.6659698289186551  0.6789816674717031
  0.9327170343879629  0.8659757208890042  0.6792263318768264
  0.0663401279793234  0.1326294417134761  0.5647842501367322
  0.0650546735629263  0.1320693787303355  0.7952532444836393
  0.0662841206099856  0.3326009730782644  0.5642928512437351
  0.0651537455780158  0.3325450934669476  0.7948801884297652
  0.0662899474511960  0.5325067679121673  0.5640382640285679
  0.0658319474923630  0.5326639672371556  0.7941813173243730
  0.0661542443728607  0.7328537539612725  0.5640271398721382
  0.0659527354191738  0.7324130802549220  0.7942005470340163
  0.0663902703312189  0.9331545021975600  0.5646666455484848
  0.0657081615634070  0.9321609215113753  0.7948351398795452
  0.2662131503974905  0.1330715794678312  0.5656551538215524
  0.2657601988788798  0.1316840039453098  0.7960129774267415
  0.2661756743721142  0.3323940023158940  0.5665656872658644
  0.2649153506663922  0.3327885213080179  0.7961657517561704
  0.2662752674271758  0.5323943757767466  0.5647242028154338
  0.2659086746516763  0.5332487000159247  0.7951055135065559
  0.2660498930391597  0.7325625038158208  0.5639142254843392
  0.2659647615585854  0.7327661268993069  0.7941829542275443
  0.2660837023618399  0.9330394809824796  0.5644325989797210
  0.2660907022189747  0.9322129768190379  0.7946014036508728
  0.4657272270737423  0.1324822544615927  0.5642227219827234
  0.4666748212522265  0.1320966893037294  0.7947092613319597
  0.4657312713848114  0.3324384873796333  0.5662283513273252
  0.4679527141788569  0.3327753122001624  0.7958525858906143
  0.4659639872463899  0.5324714421189469  0.5650860880848043
  0.4666970254216238  0.5336459984523430  0.7956249588413016
  0.4658910296047267  0.7322009925901156  0.5640080012999107
  0.4661780324774725  0.7331639021490872  0.7942415201479918
  0.4658343902189941  0.9324288311956224  0.5635076888447230
  0.4662399987982155  0.9325228384808995  0.7937654814476005
  0.6659642060638191  0.1325264532935861  0.5632229923334293
  0.6662650921259896  0.1323956127416253  0.7934693823906187
  0.6660868119007972  0.3326778746278833  0.5638047626780960
  0.6668498200778359  0.3324489250494906  0.7944463985451620
  0.6657467110009634  0.5325452549472587  0.5645294124680404
  0.6668841561691323  0.5331209444300029  0.7949415338908352
  0.6658868530450377  0.7323118114619049  0.5640798628691783
  0.6664459182692113  0.7331005688296841  0.7943147632592868
  0.6659860971150806  0.9323307876661815  0.5632579058045550
  0.6660466667645224  0.9327411782272534  0.7935234406739156
  0.8663359547206895  0.1325824086418308  0.5635383774627840
  0.8654967018957862  0.1323947186702412  0.7937814949685276
  0.8662437200404298  0.3326569608736492  0.5634710608109472
  0.8659194288850642  0.3324794301435574  0.7937876276630362
  0.8658992274985806  0.5325963223487307  0.5639313053491861
  0.8662381006233062  0.5325954851266346  0.7940817273613732
  0.8660889689784597  0.7327424571181638  0.5640317950069189
  0.8662433937308833  0.7326625664436932  0.7943008517189512
  0.8662283802073816  0.9326077547327714  0.5638795623212758
  0.8656987555609490  0.9324500336348009  0.7941337422651813
  0.2491124762391692  0.3361605116037794  0.9539851619078306
  0.4928913450048213  0.3373805083283159  0.9529169289781123
  0.5147032795067901  0.3444133732412098  0.1166418020078552
  0.2347071256005435  0.3407281644907201  0.1179973901621381
 
  0.00000000E+00  0.00000000E+00  0.00000000E+00
  0.00000000E+00  0.00000000E+00  0.00000000E+00
  0.00000000E+00  0.00000000E+00  0.00000000E+00
  0.00000000E+00  0.00000000E+00  0.00000000E+00
  0.00000000E+00  0.00000000E+00  0.00000000E+00
  0.00000000E+00  0.00000000E+00  0.00000000E+00
  0.00000000E+00  0.00000000E+00  0.00000000E+00
  0.00000000E+00  0.00000000E+00  0.00000000E+00
  0.00000000E+00  0.00000000E+00  0.00000000E+00
  0.00000000E+00  0.00000000E+00  0.00000000E+00
  0.00000000E+00  0.00000000E+00  0.00000000E+00
  0.00000000E+00  0.00000000E+00  0.00000000E+00
  0.00000000E+00  0.00000000E+00  0.00000000E+00
  0.00000000E+00  0.00000000E+00  0.00000000E+00
  0.00000000E+00  0.00000000E+00  0.00000000E+00
  0.00000000E+00  0.00000000E+00  0.00000000E+00
  0.00000000E+00  0.00000000E+00  0.00000000E+00
  0.00000000E+00  0.00000000E+00  0.00000000E+00
  0.00000000E+00  0.00000000E+00  0.00000000E+00
  0.00000000E+00  0.00000000E+00  0.00000000E+00
  0.00000000E+00  0.00000000E+00  0.00000000E+00
  0.00000000E+00  0.00000000E+00  0.00000000E+00
  0.00000000E+00  0.00000000E+00  0.00000000E+00
  0.00000000E+00  0.00000000E+00  0.00000000E+00
  0.00000000E+00  0.00000000E+00  0.00000000E+00
  0.00000000E+00  0.00000000E+00  0.00000000E+00
  0.00000000E+00  0.00000000E+00  0.00000000E+00
  0.00000000E+00  0.00000000E+00  0.00000000E+00
  0.00000000E+00  0.00000000E+00  0.00000000E+00
  0.00000000E+00  0.00000000E+00  0.00000000E+00
  0.00000000E+00  0.00000000E+00  0.00000000E+00
  0.00000000E+00  0.00000000E+00  0.00000000E+00
  0.00000000E+00  0.00000000E+00  0.00000000E+00
  0.00000000E+00  0.00000000E+00  0.00000000E+00
  0.00000000E+00  0.00000000E+00  0.00000000E+00
  0.00000000E+00  0.00000000E+00  0.00000000E+00
  0.00000000E+00  0.00000000E+00  0.00000000E+00
  0.00000000E+00  0.00000000E+00  0.00000000E+00
  0.00000000E+00  0.00000000E+00  0.00000000E+00
  0.00000000E+00  0.00000000E+00  0.00000000E+00
  0.00000000E+00  0.00000000E+00  0.00000000E+00
  0.00000000E+00  0.00000000E+00  0.00000000E+00
  0.00000000E+00  0.00000000E+00  0.00000000E+00
  0.00000000E+00  0.00000000E+00  0.00000000E+00
  0.00000000E+00  0.00000000E+00  0.00000000E+00
  0.00000000E+00  0.00000000E+00  0.00000000E+00
  0.00000000E+00  0.00000000E+00  0.00000000E+00
  0.00000000E+00  0.00000000E+00  0.00000000E+00
  0.00000000E+00  0.00000000E+00  0.00000000E+00
  0.00000000E+00  0.00000000E+00  0.00000000E+00
  0.00000000E+00  0.00000000E+00  0.00000000E+00
  0.00000000E+00  0.00000000E+00  0.00000000E+00
  0.00000000E+00  0.00000000E+00  0.00000000E+00
  0.00000000E+00  0.00000000E+00  0.00000000E+00
  0.00000000E+00  0.00000000E+00  0.00000000E+00
  0.00000000E+00  0.00000000E+00  0.00000000E+00
  0.00000000E+00  0.00000000E+00  0.00000000E+00
  0.00000000E+00  0.00000000E+00  0.00000000E+00
  0.00000000E+00  0.00000000E+00  0.00000000E+00
  0.00000000E+00  0.00000000E+00  0.00000000E+00
  0.00000000E+00  0.00000000E+00  0.00000000E+00
  0.00000000E+00  0.00000000E+00  0.00000000E+00
  0.00000000E+00  0.00000000E+00  0.00000000E+00
  0.00000000E+00  0.00000000E+00  0.00000000E+00
  0.00000000E+00  0.00000000E+00  0.00000000E+00
  0.00000000E+00  0.00000000E+00  0.00000000E+00
  0.00000000E+00  0.00000000E+00  0.00000000E+00
  0.00000000E+00  0.00000000E+00  0.00000000E+00
  0.00000000E+00  0.00000000E+00  0.00000000E+00
  0.00000000E+00  0.00000000E+00  0.00000000E+00
  0.00000000E+00  0.00000000E+00  0.00000000E+00
  0.00000000E+00  0.00000000E+00  0.00000000E+00
  0.00000000E+00  0.00000000E+00  0.00000000E+00
  0.00000000E+00  0.00000000E+00  0.00000000E+00
  0.00000000E+00  0.00000000E+00  0.00000000E+00
  0.00000000E+00  0.00000000E+00  0.00000000E+00
  0.00000000E+00  0.00000000E+00  0.00000000E+00
  0.00000000E+00  0.00000000E+00  0.00000000E+00
  0.00000000E+00  0.00000000E+00  0.00000000E+00
