Ta  N Ru                                
   1.00000000000000     
     9.0548154099999998    0.0000000000000000    0.0000000000000000
     0.0000000000000000   11.6775998899999998    0.0000000000000000
     0.0000000000000000    0.0000000000000000   23.4818170799999990
   Ta   N    Ru
    60    60     2
Selective dynamics
Direct
  0.0000000000000000  0.0000000000000000  0.2546926809530987   F   F   F
  0.6670845899906297  0.1250000003211298  0.2638822399803757   F   F   F
  0.3329153514769843  0.1250000003211298  0.2638822399803757   F   F   F
  0.4999999994478088  0.2499999997859135  0.3618861993156202   F   F   F
  0.1650707596845180  0.1250000003211298  0.3684425577811794   F   F   F
  0.8349292403154820  0.1250000003211298  0.3684425577811794   F   F   F
  0.0005394751097092  0.2498603219881224  0.4798630824706183   T   T   T
  0.6646448783676788  0.1249031911239117  0.4780419519152342   T   T   T
  0.3354650207467667  0.1249904429331694  0.4783208391546859   T   T   T
  0.4972419061687349  0.2498830617850759  0.5919357476356394   T   T   T
  0.1671337340288885  0.1248791950182132  0.5899721392450662   T   T   T
  0.8328877995281995  0.1246540283273865  0.5895761009154445   T   T   T
  0.9923298380119759  0.2513715584691120  0.7038944136356470   T   T   T
  0.6760556959715189  0.1230333214888359  0.7028027102047321   T   T   T
  0.3516502899743312  0.1185256347726474  0.6996004867013518   T   T   T
  0.0000000000000000  0.2499999997859135  0.2546926809530987   F   F   F
  0.6670845899906297  0.3750000001070433  0.2638822399803757   F   F   F
  0.3329153514769843  0.3750000001070433  0.2638822399803757   F   F   F
  0.4999999994478088  0.5000000004281731  0.3618861993156202   F   F   F
  0.1650707596845180  0.3750000001070433  0.3684425577811794   F   F   F
  0.8349292403154820  0.3750000001070433  0.3684425577811794   F   F   F
  0.0003111097320576  0.4998807870963061  0.4798421517571942   T   T   T
  0.6641905648747896  0.3748269849440473  0.4780366317264083   T   T   T
  0.3352025507025370  0.3748504546413858  0.4786309363525015   T   T   T
  0.4971374334862669  0.4998755331707463  0.5912200260205287   T   T   T
  0.1676568872054430  0.3747885809405186  0.5914793949537315   T   T   T
  0.8319358550371528  0.3745061529332252  0.5892619252949856   T   T   T
  0.9982762282613573  0.5021591368174183  0.6992159374584179   T   T   T
  0.6696970494560479  0.3743459436193062  0.7025651007668601   T   T   T
  0.3353321916949519  0.3764128510405252  0.7091951474400436   T   T   T
  0.0000000000000000  0.5000000004281731  0.2546926809530987   F   F   F
  0.6670845899906297  0.6249999998929567  0.2638822399803757   F   F   F
  0.3329153514769843  0.6249999998929567  0.2638822399803757   F   F   F
  0.4999999994478088  0.7500000002140865  0.3618861993156202   F   F   F
  0.1650707596845180  0.6249999998929567  0.3684425577811794   F   F   F
  0.8349292403154820  0.6249999998929567  0.3684425577811794   F   F   F
  0.0002909785516205  0.7498214258043612  0.4797427573574629   T   T   T
  0.6642854467238587  0.6249262505090619  0.4778841076178842   T   T   T
  0.3349777979517843  0.6248600101340192  0.4781125259265660   T   T   T
  0.4990697166181636  0.7495134040002256  0.5909952930465827   T   T   T
  0.1670938634443586  0.6247024234588610  0.5901779849472965   T   T   T
  0.8311323779541584  0.6247551421245374  0.5894006607336501   T   T   T
  0.0018559683235566  0.7510351576063584  0.7021183832348542   T   T   T
  0.6731304493946565  0.6242885876789184  0.7036255542065794   T   T   T
  0.3284714592721301  0.6259149032358856  0.7052267531113395   T   T   T
  0.0000000000000000  0.7500000002140865  0.2546926809530987   F   F   F
  0.6670845899906297  0.8750000005352163  0.2638822399803757   F   F   F
  0.3329153514769843  0.8750000005352163  0.2638822399803757   F   F   F
  0.4999999994478088  0.0000000000000000  0.3618861993156202   F   F   F
  0.1650707596845180  0.8750000005352163  0.3684425577811794   F   F   F
  0.8349292403154820  0.8750000005352163  0.3684425577811794   F   F   F
  0.0003369886278467  0.9998214546544871  0.4797453134831913   T   T   T
  0.6648172885677698  0.8747830809142405  0.4779812772549664   T   T   T
  0.3350083586312440  0.8747749899215016  0.4781837637267629   T   T   T
  0.5005291030834890  0.9992661233127851  0.5904119697168623   T   T   T
  0.1674852402129826  0.8744127236470336  0.5902990089896465   T   T   T
  0.8327833056442060  0.8744856366400923  0.5896539642944179   T   T   T
  0.0015480067967049  0.0027377076458773  0.7022680537297925   T   T   T
  0.6737612664947715  0.8729123247080133  0.7029445966441880   T   T   T
  0.3300015862408521  0.8721110959607584  0.7048081908945520   T   T   T
  0.8141011533980276  0.0000000000000000  0.3013105672926031   F   F   F
  0.4999999994478088  0.0000000000000000  0.2564174481620327   F   F   F
  0.1858988466019724  0.0000000000000000  0.3013105672926031   F   F   F
  0.3088456122590841  0.2499999997859135  0.4099867722441957   F   F   F
  0.0000000000000000  0.2499999997859135  0.3930971035158137   F   F   F
  0.6911543877409159  0.2499999997859135  0.4099867722441957   F   F   F
  0.8024443395336945  0.2495966210619235  0.5216820481303572   T   T   T
  0.4997236559976500  0.2498086641650457  0.5035914637001241   T   T   T
  0.1978597395979123  0.2500179514368207  0.5228263094218349   T   T   T
  0.2997292557328065  0.2507306689824985  0.6371470757849976   T   T   T
  0.9993503787647260  0.2496539571669744  0.6139933484064914   T   T   T
  0.6961124140103468  0.2496637447488916  0.6323687861728823   T   T   T
  0.8021500414911927  0.2511534836502474  0.7406328652096272   T   T   T
  0.5039159408767152  0.2459123869314634  0.7222065641556156   T   T   T
  0.2607756806388980  0.3070585773015507  0.7870376008258227   T   T   T
  0.8141011533980276  0.2499999997859135  0.3013105672926031   F   F   F
  0.4999999994478088  0.2499999997859135  0.2564174481620327   F   F   F
  0.1858988466019724  0.2499999997859135  0.3013105672926031   F   F   F
  0.3088456122590841  0.5000000004281731  0.4099867722441957   F   F   F
  0.0000000000000000  0.5000000004281731  0.3930971035158137   F   F   F
  0.6911543877409159  0.5000000004281731  0.4099867722441957   F   F   F
  0.8017031380921590  0.4998420993709259  0.5215680979911753   T   T   T
  0.4995529884208974  0.4999761010680240  0.5031354719407174   T   T   T
  0.1980321182754228  0.4994196454938282  0.5224517745178168   T   T   T
  0.3015233621115178  0.5014797983526333  0.6347473148111286   T   T   T
  0.9988144840967672  0.5001352264574439  0.6113902533484822   T   T   T
  0.6943702232635366  0.4995746307761598  0.6328057349737031   T   T   T
  0.8066446840974040  0.4978401629929033  0.7401738626323014   T   T   T
  0.4983027598967276  0.4966732803086529  0.7242314368711545   T   T   T
  0.1890598449656250  0.5076129652302417  0.7454267785053963   T   T   T
  0.8141011533980276  0.5000000004281731  0.3013105672926031   F   F   F
  0.4999999994478088  0.5000000004281731  0.2564174481620327   F   F   F
  0.1858988466019724  0.5000000004281731  0.3013105672926031   F   F   F
  0.3088456122590841  0.7500000002140865  0.4099867722441957   F   F   F
  0.0000000000000000  0.7500000002140865  0.3930971035158137   F   F   F
  0.6911543877409159  0.7500000002140865  0.4099867722441957   F   F   F
  0.8023428401772363  0.7498410013351893  0.5217563223207029   T   T   T
  0.4997558847801159  0.7496888857306866  0.5029812612713309   T   T   T
  0.1978766658650605  0.7498935376416230  0.5222858656181453   T   T   T
  0.3030700619722771  0.7495706062991030  0.6339051874194002   T   T   T
  0.9995519601487399  0.7500559922880283  0.6134687314182845   T   T   T
  0.6957356326616602  0.7490551236753266  0.6328240500913024   T   T   T
  0.8072411412538648  0.7484246736281748  0.7401374999088667   T   T   T
  0.5001423031645671  0.7486332167142128  0.7235877172048574   T   T   T
  0.1950664913491326  0.7512992311862441  0.7417526435957481   T   T   T
  0.8141011533980276  0.7500000002140865  0.3013105672926031   F   F   F
  0.4999999994478088  0.7500000002140865  0.2564174481620327   F   F   F
  0.1858988466019724  0.7500000002140865  0.3013105672926031   F   F   F
  0.3088456122590841  0.0000000000000000  0.4099867722441957   F   F   F
  0.0000000000000000  0.0000000000000000  0.3930971035158137   F   F   F
  0.6911543877409159  0.0000000000000000  0.4099867722441957   F   F   F
  0.8026172146897752  0.9997287785053782  0.5217974768633985   T   T   T
  0.5000409083574604  0.9997594443950131  0.5026778154572046   T   T   T
  0.1977823881586352 -0.0000449179498615  0.5221804959834027   T   T   T
  0.3035992299890543  0.9967857335912889  0.6332994457433684   T   T   T
  0.0007377467986407  0.9999100360962681  0.6138330285859335   T   T   T
  0.6973245752989136  0.9987634684378418  0.6324659903343562   T   T   T
  0.8100626833648036  0.9982326208925874  0.7398919846863323   T   T   T
  0.5058941869595903  0.9971280918572789  0.7230494003432527   T   T   T
  0.1984454243886634  0.0002589468309186  0.7458591917947471   T   T   T
  0.1718059749641122  0.1607916183715112  0.7764907852426596   T   T   T
  0.0779990904628291  0.3801713919954907  0.7884988858279818   T   T   T
 
  0.00000000E+00  0.00000000E+00  0.00000000E+00
  0.00000000E+00  0.00000000E+00  0.00000000E+00
  0.00000000E+00  0.00000000E+00  0.00000000E+00
  0.00000000E+00  0.00000000E+00  0.00000000E+00
  0.00000000E+00  0.00000000E+00  0.00000000E+00
  0.00000000E+00  0.00000000E+00  0.00000000E+00
  0.00000000E+00  0.00000000E+00  0.00000000E+00
  0.00000000E+00  0.00000000E+00  0.00000000E+00
  0.00000000E+00  0.00000000E+00  0.00000000E+00
  0.00000000E+00  0.00000000E+00  0.00000000E+00
  0.00000000E+00  0.00000000E+00  0.00000000E+00
  0.00000000E+00  0.00000000E+00  0.00000000E+00
  0.00000000E+00  0.00000000E+00  0.00000000E+00
  0.00000000E+00  0.00000000E+00  0.00000000E+00
  0.00000000E+00  0.00000000E+00  0.00000000E+00
  0.00000000E+00  0.00000000E+00  0.00000000E+00
  0.00000000E+00  0.00000000E+00  0.00000000E+00
  0.00000000E+00  0.00000000E+00  0.00000000E+00
  0.00000000E+00  0.00000000E+00  0.00000000E+00
  0.00000000E+00  0.00000000E+00  0.00000000E+00
  0.00000000E+00  0.00000000E+00  0.00000000E+00
  0.00000000E+00  0.00000000E+00  0.00000000E+00
  0.00000000E+00  0.00000000E+00  0.00000000E+00
  0.00000000E+00  0.00000000E+00  0.00000000E+00
  0.00000000E+00  0.00000000E+00  0.00000000E+00
  0.00000000E+00  0.00000000E+00  0.00000000E+00
  0.00000000E+00  0.00000000E+00  0.00000000E+00
  0.00000000E+00  0.00000000E+00  0.00000000E+00
  0.00000000E+00  0.00000000E+00  0.00000000E+00
  0.00000000E+00  0.00000000E+00  0.00000000E+00
  0.00000000E+00  0.00000000E+00  0.00000000E+00
  0.00000000E+00  0.00000000E+00  0.00000000E+00
  0.00000000E+00  0.00000000E+00  0.00000000E+00
  0.00000000E+00  0.00000000E+00  0.00000000E+00
  0.00000000E+00  0.00000000E+00  0.00000000E+00
  0.00000000E+00  0.00000000E+00  0.00000000E+00
  0.00000000E+00  0.00000000E+00  0.00000000E+00
  0.00000000E+00  0.00000000E+00  0.00000000E+00
  0.00000000E+00  0.00000000E+00  0.00000000E+00
  0.00000000E+00  0.00000000E+00  0.00000000E+00
  0.00000000E+00  0.00000000E+00  0.00000000E+00
  0.00000000E+00  0.00000000E+00  0.00000000E+00
  0.00000000E+00  0.00000000E+00  0.00000000E+00
  0.00000000E+00  0.00000000E+00  0.00000000E+00
  0.00000000E+00  0.00000000E+00  0.00000000E+00
  0.00000000E+00  0.00000000E+00  0.00000000E+00
  0.00000000E+00  0.00000000E+00  0.00000000E+00
  0.00000000E+00  0.00000000E+00  0.00000000E+00
  0.00000000E+00  0.00000000E+00  0.00000000E+00
  0.00000000E+00  0.00000000E+00  0.00000000E+00
  0.00000000E+00  0.00000000E+00  0.00000000E+00
  0.00000000E+00  0.00000000E+00  0.00000000E+00
  0.00000000E+00  0.00000000E+00  0.00000000E+00
  0.00000000E+00  0.00000000E+00  0.00000000E+00
  0.00000000E+00  0.00000000E+00  0.00000000E+00
  0.00000000E+00  0.00000000E+00  0.00000000E+00
  0.00000000E+00  0.00000000E+00  0.00000000E+00
  0.00000000E+00  0.00000000E+00  0.00000000E+00
  0.00000000E+00  0.00000000E+00  0.00000000E+00
  0.00000000E+00  0.00000000E+00  0.00000000E+00
  0.00000000E+00  0.00000000E+00  0.00000000E+00
  0.00000000E+00  0.00000000E+00  0.00000000E+00
  0.00000000E+00  0.00000000E+00  0.00000000E+00
  0.00000000E+00  0.00000000E+00  0.00000000E+00
  0.00000000E+00  0.00000000E+00  0.00000000E+00
  0.00000000E+00  0.00000000E+00  0.00000000E+00
  0.00000000E+00  0.00000000E+00  0.00000000E+00
  0.00000000E+00  0.00000000E+00  0.00000000E+00
  0.00000000E+00  0.00000000E+00  0.00000000E+00
  0.00000000E+00  0.00000000E+00  0.00000000E+00
  0.00000000E+00  0.00000000E+00  0.00000000E+00
  0.00000000E+00  0.00000000E+00  0.00000000E+00
  0.00000000E+00  0.00000000E+00  0.00000000E+00
  0.00000000E+00  0.00000000E+00  0.00000000E+00
  0.00000000E+00  0.00000000E+00  0.00000000E+00
  0.00000000E+00  0.00000000E+00  0.00000000E+00
  0.00000000E+00  0.00000000E+00  0.00000000E+00
  0.00000000E+00  0.00000000E+00  0.00000000E+00
  0.00000000E+00  0.00000000E+00  0.00000000E+00
  0.00000000E+00  0.00000000E+00  0.00000000E+00
  0.00000000E+00  0.00000000E+00  0.00000000E+00
  0.00000000E+00  0.00000000E+00  0.00000000E+00
  0.00000000E+00  0.00000000E+00  0.00000000E+00
  0.00000000E+00  0.00000000E+00  0.00000000E+00
  0.00000000E+00  0.00000000E+00  0.00000000E+00
  0.00000000E+00  0.00000000E+00  0.00000000E+00
  0.00000000E+00  0.00000000E+00  0.00000000E+00
  0.00000000E+00  0.00000000E+00  0.00000000E+00
  0.00000000E+00  0.00000000E+00  0.00000000E+00
  0.00000000E+00  0.00000000E+00  0.00000000E+00
  0.00000000E+00  0.00000000E+00  0.00000000E+00
  0.00000000E+00  0.00000000E+00  0.00000000E+00
  0.00000000E+00  0.00000000E+00  0.00000000E+00
  0.00000000E+00  0.00000000E+00  0.00000000E+00
  0.00000000E+00  0.00000000E+00  0.00000000E+00
  0.00000000E+00  0.00000000E+00  0.00000000E+00
  0.00000000E+00  0.00000000E+00  0.00000000E+00
  0.00000000E+00  0.00000000E+00  0.00000000E+00
  0.00000000E+00  0.00000000E+00  0.00000000E+00
  0.00000000E+00  0.00000000E+00  0.00000000E+00
  0.00000000E+00  0.00000000E+00  0.00000000E+00
  0.00000000E+00  0.00000000E+00  0.00000000E+00
  0.00000000E+00  0.00000000E+00  0.00000000E+00
  0.00000000E+00  0.00000000E+00  0.00000000E+00
  0.00000000E+00  0.00000000E+00  0.00000000E+00
  0.00000000E+00  0.00000000E+00  0.00000000E+00
  0.00000000E+00  0.00000000E+00  0.00000000E+00
  0.00000000E+00  0.00000000E+00  0.00000000E+00
  0.00000000E+00  0.00000000E+00  0.00000000E+00
  0.00000000E+00  0.00000000E+00  0.00000000E+00
  0.00000000E+00  0.00000000E+00  0.00000000E+00
  0.00000000E+00  0.00000000E+00  0.00000000E+00
  0.00000000E+00  0.00000000E+00  0.00000000E+00
  0.00000000E+00  0.00000000E+00  0.00000000E+00
  0.00000000E+00  0.00000000E+00  0.00000000E+00
  0.00000000E+00  0.00000000E+00  0.00000000E+00
  0.00000000E+00  0.00000000E+00  0.00000000E+00
  0.00000000E+00  0.00000000E+00  0.00000000E+00
  0.00000000E+00  0.00000000E+00  0.00000000E+00
  0.00000000E+00  0.00000000E+00  0.00000000E+00
  0.00000000E+00  0.00000000E+00  0.00000000E+00
  0.00000000E+00  0.00000000E+00  0.00000000E+00
