generated by phonopy                    
   1.00000000000000     
     7.5865206351450398    0.0000000000000000   -0.0000000000000000
    -3.7932603175725199    6.5701195963704633    0.0000000000000000
     0.0000000000000000    0.0000000000000000   13.5422511568258113
   B    N    Ga
    34    36     2
Direct
  0.1138268094109832  0.2287904007816330 -0.0020927868663686
  0.4482969247039855  0.2287904007816330 -0.0020927868663686
  0.7777777777777786  0.2222222222222214 -0.0019397574153558
  0.1138268094109832  0.5517030752960144 -0.0020927868663686
  0.4444444444444429  0.5555555555555571 -0.0224912548512381
  0.7712095992183672  0.5517030752960144 -0.0020927868663686
  0.4482969247039855  0.8861731905890167 -0.0020927868663686
  0.7712095992183672  0.8861731905890167 -0.0020927868663686
  0.1045177104299669  0.2184339528179581  0.4981640313958593
  0.4472495757213268  0.2184339528179581  0.4981640313958593
  0.7777777777777786  0.2222222222222214  0.4781661353793200
  0.1045177104299669  0.5527504242786732  0.4981640313958593
  0.7815660471820416  0.5527504242786732  0.4981640313958593
  0.1111111111111143  0.8888888888888857  0.4982826017930019
  0.4472495757213268  0.8954822895700331  0.4981640313958593
  0.7815660471820416  0.8954822895700331  0.4981640313958593
  0.2245421044429248  0.1157508755525209  0.2491853609167813
  0.5560384447853814  0.1113525557260264  0.2517848408620033
  0.8886474442739735  0.1113525557260264  0.2517848408620033
  0.2227769458795330  0.4447218062730986  0.2524461534010496
  0.5552781937269015  0.4447218062730986  0.2524461534010496
  0.8886474442739735  0.4439615552146186  0.2517848408620033
  0.2245421044429248  0.7754578955570752  0.2491853609167813
  0.5552781937269013  0.7772230541204671  0.2524461534010496
  0.8842491244474792  0.7754578955570752  0.2491853609167813
  0.2219645838098969  0.1105958342864651  0.7519580031415734
  0.5560002590505098  0.1113334628585906  0.7524313361053021
  0.8886665371414095  0.1113334628585906  0.7524313361053021
  0.2176563495253196  0.4421615080959921  0.7495114465942502
  0.5578384919040085  0.4421615080959921  0.7495114465942502
  0.8886665371414095  0.4439997409494904  0.7524313361053021
  0.2219645838098969  0.7780354161901033  0.7519580031415734
  0.5578384919040085  0.7823436504746801  0.7495114465942502
  0.8894041657135349  0.7780354161901033  0.7519580031415734
  0.2390946571510575  0.1448559809687865  0.0200437385370777
  0.5553299733166617  0.1109983199916664  0.0002652198212963
  0.8890016800083336  0.1109983199916664  0.0002652198212963
  0.2218992955094876  0.4442829810880760 -0.0230018455874128
  0.5557170189119239  0.4442829810880760 -0.0230018455874128
  0.8890016800083336  0.4446700266833387  0.0002652198212963
  0.2390946571510575  0.7609053428489426  0.0200437385370777
  0.5557170189119239  0.7781007044905124 -0.0230018455874128
  0.8551440190312133  0.7609053428489426  0.0200437385370777
  0.2223139847280237  0.1112946361227190  0.5001901754449978
  0.5552610447673356  0.1109638557170035  0.4779487590385844
  0.8890361442829965  0.1109638557170035  0.4779487590385844
  0.1888796020978587  0.4277731343822613  0.5199022334931860
  0.5722268656177384  0.4277731343822613  0.5199022334931860
  0.8890361442829965  0.4447389552326644  0.4779487590385844
  0.2223139847280237  0.7776860152719766  0.5001901754449978
  0.5722268656177384  0.8111203979021416  0.5199022334931860
  0.8887053638772806  0.7776860152719766  0.5001901754449978
  0.1112806539015709  0.2225222599084795  0.2517977003057943
  0.4445749393402443  0.2225222599084795  0.2517977003057943
  0.7777777777777786  0.2222222222222214  0.2505084273963463
  0.1112806539015709  0.5554250606597556  0.2517977003057943
  0.4444444444444429  0.5555555555555571  0.2520916389698538
  0.7774777400915207  0.5554250606597556  0.2517977003057943
  0.1111111111111143  0.8888888888888857  0.2373531097195161
  0.4445749393402443  0.8887193460984291  0.2517977003057943
  0.7774777400915207  0.8887193460984291  0.2517977003057943
  0.1108630132675292  0.2219266827930078  0.7518052140632734
  0.4443970028588143  0.2219266827930078  0.7518052140632734
  0.7777777777777786  0.2222222222222214  0.7517693132280909
  0.1108630132675292  0.5556029971411859  0.7518052140632734
  0.4444444444444429  0.5555555555555571  0.7371272236841396
  0.7780733172069919  0.5556029971411859  0.7518052140632734
  0.1111111111111143  0.8888888888888857  0.7524993371174645
  0.4443970028588143  0.8891369867324707  0.7518052140632734
  0.7780733172069919  0.8891369867324707  0.7518052140632734
  0.1111111111111143  0.8888888888888857  0.0728458697919186
  0.4444444444444429  0.5555555555555571  0.5730465458717141
 
  0.00000000E+00  0.00000000E+00  0.00000000E+00
  0.00000000E+00  0.00000000E+00  0.00000000E+00
  0.00000000E+00  0.00000000E+00  0.00000000E+00
  0.00000000E+00  0.00000000E+00  0.00000000E+00
  0.00000000E+00  0.00000000E+00  0.00000000E+00
  0.00000000E+00  0.00000000E+00  0.00000000E+00
  0.00000000E+00  0.00000000E+00  0.00000000E+00
  0.00000000E+00  0.00000000E+00  0.00000000E+00
  0.00000000E+00  0.00000000E+00  0.00000000E+00
  0.00000000E+00  0.00000000E+00  0.00000000E+00
  0.00000000E+00  0.00000000E+00  0.00000000E+00
  0.00000000E+00  0.00000000E+00  0.00000000E+00
  0.00000000E+00  0.00000000E+00  0.00000000E+00
  0.00000000E+00  0.00000000E+00  0.00000000E+00
  0.00000000E+00  0.00000000E+00  0.00000000E+00
  0.00000000E+00  0.00000000E+00  0.00000000E+00
  0.00000000E+00  0.00000000E+00  0.00000000E+00
  0.00000000E+00  0.00000000E+00  0.00000000E+00
  0.00000000E+00  0.00000000E+00  0.00000000E+00
  0.00000000E+00  0.00000000E+00  0.00000000E+00
  0.00000000E+00  0.00000000E+00  0.00000000E+00
  0.00000000E+00  0.00000000E+00  0.00000000E+00
  0.00000000E+00  0.00000000E+00  0.00000000E+00
  0.00000000E+00  0.00000000E+00  0.00000000E+00
  0.00000000E+00  0.00000000E+00  0.00000000E+00
  0.00000000E+00  0.00000000E+00  0.00000000E+00
  0.00000000E+00  0.00000000E+00  0.00000000E+00
  0.00000000E+00  0.00000000E+00  0.00000000E+00
  0.00000000E+00  0.00000000E+00  0.00000000E+00
  0.00000000E+00  0.00000000E+00  0.00000000E+00
  0.00000000E+00  0.00000000E+00  0.00000000E+00
  0.00000000E+00  0.00000000E+00  0.00000000E+00
  0.00000000E+00  0.00000000E+00  0.00000000E+00
  0.00000000E+00  0.00000000E+00  0.00000000E+00
  0.00000000E+00  0.00000000E+00  0.00000000E+00
  0.00000000E+00  0.00000000E+00  0.00000000E+00
  0.00000000E+00  0.00000000E+00  0.00000000E+00
  0.00000000E+00  0.00000000E+00  0.00000000E+00
  0.00000000E+00  0.00000000E+00  0.00000000E+00
  0.00000000E+00  0.00000000E+00  0.00000000E+00
  0.00000000E+00  0.00000000E+00  0.00000000E+00
  0.00000000E+00  0.00000000E+00  0.00000000E+00
  0.00000000E+00  0.00000000E+00  0.00000000E+00
  0.00000000E+00  0.00000000E+00  0.00000000E+00
  0.00000000E+00  0.00000000E+00  0.00000000E+00
  0.00000000E+00  0.00000000E+00  0.00000000E+00
  0.00000000E+00  0.00000000E+00  0.00000000E+00
  0.00000000E+00  0.00000000E+00  0.00000000E+00
  0.00000000E+00  0.00000000E+00  0.00000000E+00
  0.00000000E+00  0.00000000E+00  0.00000000E+00
  0.00000000E+00  0.00000000E+00  0.00000000E+00
  0.00000000E+00  0.00000000E+00  0.00000000E+00
  0.00000000E+00  0.00000000E+00  0.00000000E+00
  0.00000000E+00  0.00000000E+00  0.00000000E+00
  0.00000000E+00  0.00000000E+00  0.00000000E+00
  0.00000000E+00  0.00000000E+00  0.00000000E+00
  0.00000000E+00  0.00000000E+00  0.00000000E+00
  0.00000000E+00  0.00000000E+00  0.00000000E+00
  0.00000000E+00  0.00000000E+00  0.00000000E+00
  0.00000000E+00  0.00000000E+00  0.00000000E+00
  0.00000000E+00  0.00000000E+00  0.00000000E+00
  0.00000000E+00  0.00000000E+00  0.00000000E+00
  0.00000000E+00  0.00000000E+00  0.00000000E+00
  0.00000000E+00  0.00000000E+00  0.00000000E+00
  0.00000000E+00  0.00000000E+00  0.00000000E+00
  0.00000000E+00  0.00000000E+00  0.00000000E+00
  0.00000000E+00  0.00000000E+00  0.00000000E+00
  0.00000000E+00  0.00000000E+00  0.00000000E+00
  0.00000000E+00  0.00000000E+00  0.00000000E+00
  0.00000000E+00  0.00000000E+00  0.00000000E+00
  0.00000000E+00  0.00000000E+00  0.00000000E+00
  0.00000000E+00  0.00000000E+00  0.00000000E+00
