Mo  S Cu                                
   1.00000000000000     
    15.9214998300000001    0.0000000000000000    0.0000000000000000
    -7.9622501300000001   13.7910221699999997    0.0000000000000000
     0.0000000000000000    0.0000000000000000   13.5821998300000004
   Mo   S    Cu
    25    50     3
Direct
  0.1310674194091561  0.0652239635901637  0.6769788142775326
  0.1314330726612738  0.2647640464825827  0.6775069451188358
  0.1322478616344682  0.4652645754452678  0.6777851673227531
  0.1322052432162337  0.6656433647962885  0.6772669048547542
  0.1322398043350503  0.8655416751140734  0.6764814665101184
  0.3318151712647506  0.0645253590186172  0.6760963461454992
  0.3311682435152719  0.2652290314681309  0.6777150855976828
  0.3328226943291099  0.4660941351434786  0.6782924315756844
  0.3324727177182822  0.6657951476515791  0.6776569124946690
  0.3322037895733772  0.8653351789920976  0.6768093375583888
  0.5319679599983189  0.0655338665063994  0.6782860688138683
  0.5290752357889801  0.2631592912812764  0.6737805470978344
  0.5317834527848859  0.4654994493681599  0.6800732934580225
  0.5326087167017235  0.6658792839098169  0.6792076360328849
  0.5323819271524641  0.8656989806849822  0.6785370512811681
  0.7328387848819133  0.0658835915521223  0.6795145279194301
  0.7318887712914588  0.2660291236986438  0.6807323091139708
  0.7318558089488647  0.4641984255117251  0.6815330415103489
  0.7331355894041849  0.6658513845577687  0.6803132604443292
  0.7322359370963767  0.8655093195516841  0.6788831075199084
  0.9317227808252326  0.0650346709227350  0.6777152482613928
  0.9324765524654879  0.2646382889205512  0.6769587999262683
  0.9327143076560560  0.4656371846309497  0.6807821478191656
  0.9327764646396233  0.6667666687080640  0.6768925435885578
  0.9319085118337966  0.8655187598127299  0.6776060281952283
  0.0647238863909152  0.1319013706676628  0.5621476312166536
  0.0647821041392689  0.1315106341690964  0.7928772484392823
  0.0654482531042859  0.3318568975552694  0.5621387778803992
  0.0654582283515239  0.3319402475981974  0.7927778033672652
  0.0645112583399126  0.5314029466236718  0.5633350358900771
  0.0678844174221140  0.5334430066775866  0.7937978427766126
  0.0652813032274082  0.7319750325070729  0.5615723757558513
  0.0663306401737955  0.7331735165364393  0.7922438853294764
  0.0648115428786795  0.9320862619466865  0.5617876932852539
  0.0654172981513526  0.9317570076151256  0.7919633077964576
  0.2650023684762886  0.1325404011524896  0.5624083036504643
  0.2633003216996386  0.1284360994903153  0.7949452239048895
  0.2655311766146013  0.3324278198769548  0.5631177490536530
  0.2633564442519329  0.3331717052934806  0.7962834898908255
  0.2659783280494281  0.5321979870033999  0.5627970077904934
  0.2655023122807663  0.5327353717212731  0.7928440620655337
  0.2656036055046371  0.7318130137500347  0.5620224579625486
  0.2655566507968246  0.7325000566302080  0.7922285584501338
  0.2653900827640854  0.9315767706469344  0.5610085259327491
  0.2651548985076744  0.9314875226587489  0.7917078945042775
  0.4646986197242171  0.1302608140009482  0.5605993148180488
  0.4638590083581065  0.1311160281978445  0.7920833572406139
  0.4640212024366477  0.3331821692096426  0.5626302901149529
  0.4663542942476155  0.3315146443893369  0.7960114542765879
  0.4665113525450266  0.5325917902369781  0.5642227563948978
  0.4653782565471047  0.5328038472764902  0.7945648141198944
  0.4664416462693808  0.7324317885289275  0.5633819595521956
  0.4652867088867367  0.7324548699807423  0.7936673731349373
  0.4664828036450146  0.9325956159876512  0.5628039079595410
  0.4648439402936262  0.9319569662966032  0.7928475097637460
  0.6665252285809373  0.1333772528913428  0.5651133055488202
  0.6647618465495739  0.1312780533941975  0.7965772898635706
  0.6659872092300034  0.3324196881300310  0.5637893617011756
  0.6595554035539521  0.3284097893961118  0.7947881175013549
  0.6660246728694403  0.5316010750914941  0.5664791961353259
  0.6656976656100753  0.5324222040562603  0.7981383476954278
  0.6659557249850039  0.7316610892628574  0.5645033563726685
  0.6658332765525472  0.7327055969061576  0.7945719358279533
  0.6659921618729427  0.9327830922396885  0.5639879568638406
  0.6655007188652533  0.9320922741223470  0.7939986075568868
  0.8647569919620608  0.1314259964404201  0.5627989650732914
  0.8665552812617747  0.1320864123251297  0.7936956778225195
  0.8648371165851785  0.3324478354512479  0.5648680752146120
  0.8684931837813181  0.3325176110181189  0.7963708157349316
  0.8645703266365246  0.5309552760442600  0.5652023523435759
  0.8692389979475408  0.5350880615744700  0.7965123973991126
  0.8645262939929736  0.7318851407466269  0.5629936330037992
  0.8672508505069487  0.7335884750961625  0.7939008950763480
  0.8647141204687188  0.9317758890618322  0.5627374684630624
  0.8658292029186541  0.9322673021895724  0.7933451677840537
  0.3303121233215336  0.2640206127267462  0.8889065466103503
  0.7521546495497731  0.4522746054087108  0.9109424684601066
  0.7554698278831609  0.3046726006891021  0.9140127115642116
 
  0.00000000E+00  0.00000000E+00  0.00000000E+00
  0.00000000E+00  0.00000000E+00  0.00000000E+00
  0.00000000E+00  0.00000000E+00  0.00000000E+00
  0.00000000E+00  0.00000000E+00  0.00000000E+00
  0.00000000E+00  0.00000000E+00  0.00000000E+00
  0.00000000E+00  0.00000000E+00  0.00000000E+00
  0.00000000E+00  0.00000000E+00  0.00000000E+00
  0.00000000E+00  0.00000000E+00  0.00000000E+00
  0.00000000E+00  0.00000000E+00  0.00000000E+00
  0.00000000E+00  0.00000000E+00  0.00000000E+00
  0.00000000E+00  0.00000000E+00  0.00000000E+00
  0.00000000E+00  0.00000000E+00  0.00000000E+00
  0.00000000E+00  0.00000000E+00  0.00000000E+00
  0.00000000E+00  0.00000000E+00  0.00000000E+00
  0.00000000E+00  0.00000000E+00  0.00000000E+00
  0.00000000E+00  0.00000000E+00  0.00000000E+00
  0.00000000E+00  0.00000000E+00  0.00000000E+00
  0.00000000E+00  0.00000000E+00  0.00000000E+00
  0.00000000E+00  0.00000000E+00  0.00000000E+00
  0.00000000E+00  0.00000000E+00  0.00000000E+00
  0.00000000E+00  0.00000000E+00  0.00000000E+00
  0.00000000E+00  0.00000000E+00  0.00000000E+00
  0.00000000E+00  0.00000000E+00  0.00000000E+00
  0.00000000E+00  0.00000000E+00  0.00000000E+00
  0.00000000E+00  0.00000000E+00  0.00000000E+00
  0.00000000E+00  0.00000000E+00  0.00000000E+00
  0.00000000E+00  0.00000000E+00  0.00000000E+00
  0.00000000E+00  0.00000000E+00  0.00000000E+00
  0.00000000E+00  0.00000000E+00  0.00000000E+00
  0.00000000E+00  0.00000000E+00  0.00000000E+00
  0.00000000E+00  0.00000000E+00  0.00000000E+00
  0.00000000E+00  0.00000000E+00  0.00000000E+00
  0.00000000E+00  0.00000000E+00  0.00000000E+00
  0.00000000E+00  0.00000000E+00  0.00000000E+00
  0.00000000E+00  0.00000000E+00  0.00000000E+00
  0.00000000E+00  0.00000000E+00  0.00000000E+00
  0.00000000E+00  0.00000000E+00  0.00000000E+00
  0.00000000E+00  0.00000000E+00  0.00000000E+00
  0.00000000E+00  0.00000000E+00  0.00000000E+00
  0.00000000E+00  0.00000000E+00  0.00000000E+00
  0.00000000E+00  0.00000000E+00  0.00000000E+00
  0.00000000E+00  0.00000000E+00  0.00000000E+00
  0.00000000E+00  0.00000000E+00  0.00000000E+00
  0.00000000E+00  0.00000000E+00  0.00000000E+00
  0.00000000E+00  0.00000000E+00  0.00000000E+00
  0.00000000E+00  0.00000000E+00  0.00000000E+00
  0.00000000E+00  0.00000000E+00  0.00000000E+00
  0.00000000E+00  0.00000000E+00  0.00000000E+00
  0.00000000E+00  0.00000000E+00  0.00000000E+00
  0.00000000E+00  0.00000000E+00  0.00000000E+00
  0.00000000E+00  0.00000000E+00  0.00000000E+00
  0.00000000E+00  0.00000000E+00  0.00000000E+00
  0.00000000E+00  0.00000000E+00  0.00000000E+00
  0.00000000E+00  0.00000000E+00  0.00000000E+00
  0.00000000E+00  0.00000000E+00  0.00000000E+00
  0.00000000E+00  0.00000000E+00  0.00000000E+00
  0.00000000E+00  0.00000000E+00  0.00000000E+00
  0.00000000E+00  0.00000000E+00  0.00000000E+00
  0.00000000E+00  0.00000000E+00  0.00000000E+00
  0.00000000E+00  0.00000000E+00  0.00000000E+00
  0.00000000E+00  0.00000000E+00  0.00000000E+00
  0.00000000E+00  0.00000000E+00  0.00000000E+00
  0.00000000E+00  0.00000000E+00  0.00000000E+00
  0.00000000E+00  0.00000000E+00  0.00000000E+00
  0.00000000E+00  0.00000000E+00  0.00000000E+00
  0.00000000E+00  0.00000000E+00  0.00000000E+00
  0.00000000E+00  0.00000000E+00  0.00000000E+00
  0.00000000E+00  0.00000000E+00  0.00000000E+00
  0.00000000E+00  0.00000000E+00  0.00000000E+00
  0.00000000E+00  0.00000000E+00  0.00000000E+00
  0.00000000E+00  0.00000000E+00  0.00000000E+00
  0.00000000E+00  0.00000000E+00  0.00000000E+00
  0.00000000E+00  0.00000000E+00  0.00000000E+00
  0.00000000E+00  0.00000000E+00  0.00000000E+00
  0.00000000E+00  0.00000000E+00  0.00000000E+00
  0.00000000E+00  0.00000000E+00  0.00000000E+00
  0.00000000E+00  0.00000000E+00  0.00000000E+00
  0.00000000E+00  0.00000000E+00  0.00000000E+00
