Cu	N	Ru	Ta                              
   1.00000000000000     
    18.1096308199999996    0.0000000000000000    0.0000000000000000
     0.0000000000000000   23.3551997799999995    0.0000000000000000
     0.0000000000000000    0.0000000000000000   30.4818171199999988
   Cu   N    Ru   Ta
     3   240    48   192
Selective dynamics
Direct
  0.5901584655718692  0.4357469887898139  0.5917617079713386   T   T   T
  0.6225285187702824  0.5793120773012584  0.6063368850354358   T   T   T
  0.3965637240140038  0.4262170251308618  0.5786801628360193   T   T   T
  0.0000000000000000  0.0000000000000000  0.3032267788896164   F   F   F
  0.0000000000000000  0.5000000000000000  0.3032267788896164   F   F   F
  0.0000000000000000  0.6249999998929567  0.3032267788896164   F   F   F
  0.0000000000000000  0.7500000002140865  0.3032267788896164   F   F   F
  0.0000000000000000  0.8750000001070433  0.3032267788896164   F   F   F
  0.0000000000000000  0.1249999998929567  0.3032267788896164   F   F   F
  0.0000000000000000  0.2500000002140865  0.3032267788896164   F   F   F
  0.0000000000000000  0.3750000001070433  0.3032267788896164   F   F   F
  0.0000733521455627  0.3751550629520838  0.4710106168915659   T   T   T
  0.0006957943674075  0.9996621582573207  0.4725956932576366   T   T   T
  0.0026647187986064  0.2490198094116604  0.4735863922755590   T   T   T
  0.5554664947846195  0.3642507482877730  0.5894961448467403   T   T   T
  0.5682566450228015  0.1356329936766536  0.5713750238484318   T   T   T
  0.5708762675459402  0.6375119566973131  0.5788176778479687   T   T   T
  0.5840554718235824  0.7450020481338772  0.5696943107714848   T   T   T
  0.5797624708978194  0.5126341147179557  0.5887813840665094   T   T   T
  0.5941133989389655  0.0000000000000000  0.2322132027803434   F   F   F
  0.5941133989389655  0.5000000000000000  0.2322132027803434   F   F   F
  0.5941133989389655  0.6249999998929567  0.2322132027803434   F   F   F
  0.5941133989389655  0.7500000002140865  0.2322132027803434   F   F   F
  0.5941133989389655  0.8750000001070433  0.2322132027803434   F   F   F
  0.5941133989389655  0.1249999998929567  0.2322132027803434   F   F   F
  0.5941133989389655  0.2500000002140865  0.2322132027803434   F   F   F
  0.5941133989389655  0.3750000001070433  0.2322132027803434   F   F   F
  0.5978900289464143  0.4996297945321515  0.4027014457636307   T   T   T
  0.5979091178874290  0.3746425904113764  0.4030220968392938   T   T   T
  0.5983427209849721  0.6243012495353311  0.4023137858449559   T   T   T
  0.5991363447706231  0.7495559099533047  0.4020211769956809   T   T   T
  0.5990662223139374  0.1245806324278112  0.4015222634824333   T   T   T
  0.5991669982203724  0.2501426841521925  0.4026708941959227   T   T   T
  0.5998201937310360  0.8743608511102481  0.4017951580993849   T   T   T
  0.5997659503385852  0.9994750048354081  0.4014964815171690   T   T   T
  0.5999668849512703  0.8653172907246619  0.5673548850526122   T   T   T
  0.6020470485835407  0.0077134061845388  0.5658319310339275   T   T   T
  0.6124232970314059  0.2537182333618463  0.5675657543981566   T   T   T
  0.6482881739034513  0.3765289857155133  0.4861364759429651   T   T   T
  0.6506313594642714  0.6228538097847934  0.4860521570078686   T   T   T
  0.6496300903956972  0.1212047886956315  0.4848746773146877   T   T   T
  0.6501817033609351  0.4998388045819580  0.4868008907270123   T   T   T
  0.6501449223199518  0.7489964425138206  0.4871098834984440   T   T   T
  0.6520217359392994  0.8742390162579112  0.4846977739127531   T   T   T
  0.6526149104654045  0.2483081885697780  0.4867296273478075   T   T   T
  0.6531214510104553  0.9988152000853862  0.4853624062463160   T   T   T
  0.6545990963497701  0.0000000000000000  0.3156671842141137   F   F   F
  0.6545990963497701  0.5000000000000000  0.3156671842141137   F   F   F
  0.6545990963497701  0.6249999998929567  0.3156671842141137   F   F   F
  0.6545990963497701  0.7500000002140865  0.3156671842141137   F   F   F
  0.6545990963497701  0.8750000001070433  0.3156671842141137   F   F   F
  0.6545990963497701  0.1249999998929567  0.3156671842141137   F   F   F
  0.6545990963497701  0.2500000002140865  0.3156671842141137   F   F   F
  0.6545990963497701  0.3750000001070433  0.3156671842141137   F   F   F
  0.7199757475176100  0.1310951035043269  0.5601440088868317   T   T   T
  0.7281794305888286  0.6379370353279987  0.5580487952153703   T   T   T
  0.7306260340168491  0.9045964188160651  0.5540210651050557   T   T   T
  0.7289167712569576  0.3670519381486967  0.5560200245240001   T   T   T
  0.7382246792350178  0.5000967476534594  0.5562317189467558   T   T   T
  0.7496486898804436  0.6249818978465984  0.3877236006528861   T   T   T
  0.7497133585510696  0.7498818626539953  0.3874504978118419   T   T   T
  0.7496799180673122  0.4996355205035951  0.3879353061579494   T   T   T
  0.7497248330411095  0.3748199186866394  0.3885567880325512   T   T   T
  0.7499109257240045  0.1251851960017235  0.3867148730090330   T   T   T
  0.7501785012454089  0.2499595934961223  0.3882586762691794   T   T   T
  0.7499999997239044  0.0000000000000000  0.1996562654398630   F   F   F
  0.7499999997239044  0.5000000000000000  0.1996562654398630   F   F   F
  0.7499999997239044  0.6249999998929567  0.1996562654398630   F   F   F
  0.7499999997239044  0.7500000002140865  0.1996562654398630   F   F   F
  0.7499999997239044  0.8750000001070433  0.1996562654398630   F   F   F
  0.7499999997239044  0.1249999998929567  0.1996562654398630   F   F   F
  0.7499999997239044  0.2500000002140865  0.1996562654398630   F   F   F
  0.7499999997239044  0.3750000001070433  0.1996562654398630   F   F   F
  0.7503866365820296  0.9998095780345543  0.3869169531850727   T   T   T
  0.7506510119658416  0.8749144654657600  0.3873348233985323   T   T   T
  0.0761871939692176  0.1145597246279545  0.5716179252725793   T   T   T
  0.7636462673295790  0.7708254707327590  0.5558210914482574   T   T   T
  0.7678862991579013  0.0178347692233008  0.5555406528369001   T   T   T
  0.7843186502283930  0.2506446328204091  0.5638586617817906   T   T   T
  0.0812876603347936  0.8786929012620032  0.5738951664821598   T   T   T
  0.0846258682171703  0.0064179821859349  0.5708418637981277   T   T   T
  0.8454009036502299  0.0000000000000000  0.3156671842141137   F   F   F
  0.8454009036502299  0.5000000000000000  0.3156671842141137   F   F   F
  0.8454009036502299  0.6249999998929567  0.3156671842141137   F   F   F
  0.8454009036502299  0.7500000002140865  0.3156671842141137   F   F   F
  0.8454009036502299  0.8750000001070433  0.3156671842141137   F   F   F
  0.8454009036502299  0.1249999998929567  0.3156671842141137   F   F   F
  0.8454009036502299  0.2500000002140865  0.3156671842141137   F   F   F
  0.8454009036502299  0.3750000001070433  0.3156671842141137   F   F   F
  0.8467841043717097  0.1250129014086414  0.4847690795605764   T   T   T
  0.8480595790641458  0.7496519183922459  0.4857694733726545   T   T   T
  0.8481762138813466  0.6276592498482384  0.4894754476804016   T   T   T
  0.8490058769119195  0.4986340033491726  0.4858113982448300   T   T   T
  0.8493611029919560  0.3773870879706088  0.4854138327851012   T   T   T
  0.8502314396402759  0.8755770236450690  0.4869075975176225   T   T   T
  0.8518214544988174  0.0007232943116828  0.4852612439035240   T   T   T
  0.8534011390092165  0.2490527886366168  0.4881735963129044   T   T   T
  0.0878195674939806  0.3703922415370792  0.5715276043135363   T   T   T
  0.0896096683095126  0.5015282331849241  0.5720531146980595   T   T   T
  0.8980738294603862  0.1324760853125048  0.5648433638346650   T   T   T
  0.8999390211274461  0.6255356384170507  0.4026590603216523   T   T   T
  0.8999802490210028  0.5007681744409482  0.4014355339682292   T   T   T
  0.9001560416657647  0.3743358500607131  0.4014793001887517   T   T   T
  0.9006042351735899  0.7498497932446201  0.4019394330203677   T   T   T
  0.9006611333781176  0.1256361904355608  0.4017751098509748   T   T   T
  0.9012010543741450  0.8753215040306406  0.4018311669409207   T   T   T
  0.9010997395385194  0.2503210972721265  0.4026873230075506   T   T   T
  0.9012599253394958  0.0000044399617865  0.4017057391325384   T   T   T
  0.0912474506738048  0.7451147238432480  0.5683922763842862   T   T   T
  0.9058866010610345  0.0000000000000000  0.2322132027803434   F   F   F
  0.9058866010610345  0.5000000000000000  0.2322132027803434   F   F   F
  0.9058866010610345  0.6249999998929567  0.2322132027803434   F   F   F
  0.9058866010610345  0.7500000002140865  0.2322132027803434   F   F   F
  0.9058866010610345  0.8750000001070433  0.2322132027803434   F   F   F
  0.9058866010610345  0.1249999998929567  0.2322132027803434   F   F   F
  0.9058866010610345  0.2500000002140865  0.2322132027803434   F   F   F
  0.9058866010610345  0.3750000001070433  0.2322132027803434   F   F   F
  0.9092032204705556  0.8702960371859655  0.5704855595592562   T   T   T
  0.9088861648682430  0.3651504637975716  0.5671505049942481   T   T   T
  0.9109372950258718  0.5021786564834878  0.5690743464750332   T   T   T
  0.9109006884140003  0.9945122999947459  0.5709131339346547   T   T   T
  0.9204157189203256  0.7567439934280700  0.5731687048764943   T   T   T
  0.9231565516938455  0.6286309937214554  0.5753091700920300   T   T   T
  0.0941133989389655  0.0000000000000000  0.2322132027803434   F   F   F
  0.0941133989389655  0.5000000000000000  0.2322132027803434   F   F   F
  0.0941133989389655  0.6249999998929567  0.2322132027803434   F   F   F
  0.0941133989389655  0.7500000002140865  0.2322132027803434   F   F   F
  0.0941133989389655  0.8750000001070433  0.2322132027803434   F   F   F
  0.0941133989389655  0.1249999998929567  0.2322132027803434   F   F   F
  0.0941133989389655  0.2500000002140865  0.2322132027803434   F   F   F
  0.0941133989389655  0.3750000001070433  0.2322132027803434   F   F   F
  0.9499264278528184  0.2523565992568584  0.5816340597337586   T   T   T
  0.0949055074465586  0.6185086431454284  0.5702549182459069   T   T   T
  0.0987314452249242  0.6255437300158836  0.4013298520216831   T   T   T
  0.0987486707443255  0.5007831711461256  0.4008888933079999   T   T   T
  0.0990626249081290  0.7504441355973310  0.4018521059272421   T   T   T
  0.0990734266427258  0.3750463523331057  0.4007722819676953   T   T   T
  0.0992731590700024  0.1254048288854326  0.4017326191608120   T   T   T
  0.0997200253871426  0.2498219150554075  0.4018917850754108   T   T   T
  0.0997613094677647  0.9996629923661393  0.4021204925259986   T   T   T
  0.0999794554139199  0.8757511365674158  0.4028020426120799   T   T   T
  0.9993681446330955  0.6265813178344195  0.4729709881095839   T   T   T
  0.9995238472250644  0.7499522843315127  0.4725432760145771   T   T   T
  0.9992898297267562  0.1257683624716035  0.4725151920085857   T   T   T
  0.9994449424807436  0.5010399016656039  0.4716426580432141   T   T   T
  0.0005375376617293  0.8764360433467869  0.4736177523726277   T   T   T
  0.1174503690172880  0.2484865750621574  0.5675626068109078   T   T   T
  0.1479123233300354  0.1234799724918724  0.4852370529398427   T   T   T
  0.1491283728100740  0.7502546753178919  0.4846794389333915   T   T   T
  0.1497842595080050  0.6268112329367600  0.4862630198159404   T   T   T
  0.1496980424402059  0.3777684533370299  0.4833143361672104   T   T   T
  0.1498802881956418  0.5001369069506894  0.4842839461225116   T   T   T
  0.1525068104471159  0.8767768194248358  0.4896424632701652   T   T   T
  0.1525595888335257  0.0004600723378238  0.4870021720350428   T   T   T
  0.1541499096186711  0.2507828448252149  0.4859150223209847   T   T   T
  0.1545990963497701  0.0000000000000000  0.3156671842141137   F   F   F
  0.1545990963497701  0.5000000000000000  0.3156671842141137   F   F   F
  0.1545990963497701  0.6249999998929567  0.3156671842141137   F   F   F
  0.1545990963497701  0.7500000002140865  0.3156671842141137   F   F   F
  0.1545990963497701  0.8750000001070433  0.3156671842141137   F   F   F
  0.1545990963497701  0.1249999998929567  0.3156671842141137   F   F   F
  0.1545990963497701  0.2500000002140865  0.3156671842141137   F   F   F
  0.1545990963497701  0.3750000001070433  0.3156671842141137   F   F   F
  0.2237923686113449  0.1306414291308282  0.5570773384792767   T   T   T
  0.2403548077403388  0.7662927507042192  0.5533224554331975   T   T   T
  0.2406002108147812  0.0165235219436058  0.5570542988490668   T   T   T
  0.2413609553538992  0.3712331768423204  0.5548385706859190   T   T   T
  0.2427866101350740  0.5166596451080397  0.5548006613756429   T   T   T
  0.2495981822527470  0.6251899071925570  0.3871973108258074   T   T   T
  0.2496977625064426  0.5001564428446330  0.3869136222898912   T   T   T
  0.2498613990888447  0.3752302923687736  0.3868034113716368   T   T   T
  0.2499905594783202  0.7502319886735503  0.3873030481282697   T   T   T
  0.2498835984662717  0.1249982250732635  0.3871635147722550   T   T   T
  0.2501732849004896  0.8753690704105528  0.3880784475232257   T   T   T
  0.2504188955141930  0.2499800223646677  0.3871557141105064   T   T   T
  0.2499999997239044  0.0000000000000000  0.1996562654398630   F   F   F
  0.2499999997239044  0.5000000000000000  0.1996562654398630   F   F   F
  0.2499999997239044  0.6249999998929567  0.1996562654398630   F   F   F
  0.2499999997239044  0.7500000002140865  0.1996562654398630   F   F   F
  0.2499999997239044  0.8750000001070433  0.1996562654398630   F   F   F
  0.2499999997239044  0.1249999998929567  0.1996562654398630   F   F   F
  0.2499999997239044  0.2500000002140865  0.1996562654398630   F   F   F
  0.2499999997239044  0.3750000001070433  0.1996562654398630   F   F   F
  0.2505400217778191  0.0000765591914367  0.3879479364032341   T   T   T
  0.2692353378272155  0.6547737024342147  0.5540087644589546   T   T   T
  0.2762060920615448  0.8880995310021217  0.5552348425623843   T   T   T
  0.2901832275276692  0.2424094370464992  0.5652126671401049   T   T   T
  0.3457521693112371  0.4985620515526793  0.4872021877103736   T   T   T
  0.3461081869893514  0.3774870308207640  0.4862650242583827   T   T   T
  0.3454009036502299  0.0000000000000000  0.3156671842141137   F   F   F
  0.3454009036502299  0.5000000000000000  0.3156671842141137   F   F   F
  0.3454009036502299  0.6249999998929567  0.3156671842141137   F   F   F
  0.3454009036502299  0.7500000002140865  0.3156671842141137   F   F   F
  0.3454009036502299  0.8750000001070433  0.3156671842141137   F   F   F
  0.3454009036502299  0.1249999998929567  0.3156671842141137   F   F   F
  0.3454009036502299  0.2500000002140865  0.3156671842141137   F   F   F
  0.3454009036502299  0.3750000001070433  0.3156671842141137   F   F   F
  0.3472481919352365  0.6238106357733969  0.4844175213086280   T   T   T
  0.3467284137280279  0.1246497834751594  0.4847477463195151   T   T   T
  0.3477683955370878  0.7498734281286432  0.4868777660005683   T   T   T
  0.3509420497802430  0.2507799192063251  0.4877202318783377   T   T   T
  0.3511470978647361 -0.0000844520766613  0.4875092567901973   T   T   T
  0.3517385414011018  0.8739413660263740  0.4857333573524085   T   T   T
  0.3926175348754267  0.1180079323768245  0.5653172924941964   T   T   T
  0.3988237750829250  0.3470140536913500  0.5681135968070138   T   T   T
  0.4011787968137975  0.6165525956642391  0.5667584405935531   T   T   T
  0.4005428057262908  0.6245217015663731  0.4022889330014325   T   T   T
  0.4006009533447005  0.4995173316421612  0.4029664922508888   T   T   T
  0.4005282211073309  0.7499798333886362  0.4019967106578112   T   T   T
  0.4008715281918681  0.3749719291624627  0.4028162683817521   T   T   T
  0.4005653923119438  0.1250249139371185  0.4022481253818248   T   T   T
  0.4011459641656072  0.2499428698328329  0.4029046393820213   T   T   T
  0.4010452494673117  0.0000416762163213  0.4019180100457777   T   T   T
  0.4013115345157057  0.8745410087310962  0.4018180657286919   T   T   T
  0.4061131300049538  0.7555891852781471  0.5684336253339493   T   T   T
  0.4058866010610345  0.0000000000000000  0.2322132027803434   F   F   F
  0.4058866010610345  0.5000000000000000  0.2322132027803434   F   F   F
  0.4058866010610345  0.6249999998929567  0.2322132027803434   F   F   F
  0.4058866010610345  0.7500000002140865  0.2322132027803434   F   F   F
  0.4058866010610345  0.8750000001070433  0.2322132027803434   F   F   F
  0.4058866010610345  0.1249999998929567  0.2322132027803434   F   F   F
  0.4058866010610345  0.2500000002140865  0.2322132027803434   F   F   F
  0.4058866010610345  0.3750000001070433  0.2322132027803434   F   F   F
  0.4231453186496205  0.9913085676858379  0.5709895029622019   T   T   T
  0.4207640931379479  0.5016990473398144  0.5712130666528391   T   T   T
  0.4284725878604673  0.8816157251335086  0.5743806464900427   T   T   T
  0.4453765172981184  0.2338492704953315  0.5831031159468099   T   T   T
  0.4982514679886831  0.3735726378832425  0.4768195575083047   T   T   T
  0.4986787299691380  0.6237484472776093  0.4736463437455691   T   T   T
  0.4987140921615684  0.5000730309931416  0.4763558535512751   T   T   T
  0.4996258423569600  0.7498887737497631  0.4724327075875484   T   T   T
  0.4991312374493669  0.1233921843624280  0.4720865833714174   T   T   T
  0.5000000000000000  0.0000000000000000  0.3032267788896164   F   F   F
  0.5000000000000000  0.5000000000000000  0.3032267788896164   F   F   F
  0.5000000000000000  0.6249999998929567  0.3032267788896164   F   F   F
  0.5000000000000000  0.7500000002140865  0.3032267788896164   F   F   F
  0.5000000000000000  0.8750000001070433  0.3032267788896164   F   F   F
  0.5000000000000000  0.1249999998929567  0.3032267788896164   F   F   F
  0.5000000000000000  0.2500000002140865  0.3032267788896164   F   F   F
  0.5000000000000000  0.3750000001070433  0.3032267788896164   F   F   F
  0.5009949719560239  0.2500532645311967  0.4739375517486297   T   T   T
  0.5012252723424211  0.8737182145363394  0.4724951693257305   T   T   T
  0.5011218950182245  0.0000703558204184  0.4725767210922372   T   T   T
  0.0010451807240319  0.3670887863291619  0.5381057492396250   T   T   T
  0.0018656800498549  0.5040787480070382  0.5396294420178257   T   T   T
  0.0045973472750525  0.9961282391976516  0.5407470609424847   T   T   T
  0.0109079651390483  0.6301392728690285  0.5414899686981559   T   T   T
  0.0230795571203040  0.2451525671904871  0.5421644511439969   T   T   T
  0.6224681692810208  0.9368279645232249  0.5410220904868199   T   T   T
  0.6363621542305855  0.6865850160418904  0.5400319861568218   T   T   T
  0.6396292979179961  0.1843394654569136  0.5388012793144552   T   T   T
  0.6889326386916504  0.0597527858882484  0.5375115295491614   T   T   T
  0.6962496704233646  0.4343818058768439  0.5326431182307189   T   T   T
  0.7010697349539314  0.5660418742981168  0.5335197841297226   T   T   T
  0.7003944813507296  0.8289239705825576  0.5379392828449365   T   T   T
  0.7044108325723951  0.2940875398351502  0.5423282742303560   T   T   T
  0.7881206798539230  0.6959721282344878  0.5346305377007630   T   T   T
  0.7997532280464612  0.1756183929771970  0.5390505997005385   T   T   T
  0.8085745329061294  0.9497253419865632  0.5376363329322960   T   T   T
  0.8594041071623074  0.8126343138807107  0.5384840396794489   T   T   T
  0.8791018942413603  0.2882294926371465  0.5494625393578411   T   T   T
  0.8803595176397101  0.4342795813081026  0.5379307655944959   T   T   T
  0.8805840342454694  0.0596085318354085  0.5417218865089297   T   T   T
  0.8811314036259819  0.5745616672419669  0.5424036186092026   T   T   T
  0.9925600962202268  0.8830463799682773  0.5416669954971562   T   T   T
  0.9963946202950392  0.7443832979421054  0.5403615251716278   T   T   T
  0.9987817525572781  0.1282809715239277  0.5401709994597172   T   T   T
  0.1102275740941221  0.8162119865709472  0.5435911962955787   T   T   T
  0.1197532870819145  0.4360607650775498  0.5407427684705486   T   T   T
  0.1449487279857359  0.5612344170413249  0.5374781706234867   T   T   T
  0.1465421881716228  0.0661847618490320  0.5382210315644511   T   T   T
  0.1524231645148220  0.3175877285852280  0.5364142739716498   T   T   T
  0.1911372447777101  0.7030967660890842  0.5385085507212409   T   T   T
  0.2043919360033933  0.2062956941598162  0.5431807879742774   T   T   T
  0.2104449164801088  0.9434407397893447  0.5360735109378412   T   T   T
  0.2794672633217370  0.4435490413003506  0.5332685708857563   T   T   T
  0.2986762518553131  0.0787106065277379  0.5378708865627628   T   T   T
  0.3001569976196584  0.5790799589628242  0.5377453505365587   T   T   T
  0.3085155848693442  0.8153442568210705  0.5352396284615974   T   T   T
  0.3105395548664956  0.3143292267175392  0.5359863544279704   T   T   T
  0.3671041837066013  0.9360445729853653  0.5388519223724089   T   T   T
  0.3781405158003028  0.6891313423648786  0.5418847043474263   T   T   T
  0.3762124963408632  0.1943951856363585  0.5494621761184878   T   T   T
  0.4926482045323487  0.1191013237924873  0.5390332312106073   T   T   T
  0.4964216520108947  0.6221540177555078  0.5420874158311402   T   T   T
  0.4949123103791880  0.3547569598986817  0.5470030202628273   T   T   T
  0.5018113162381288  0.7558565471666863  0.5397156428976300   T   T   T
  0.5018055975062379  0.0059914131631387  0.5399043880384683   T   T   T
  0.5034556943804938  0.8693281250083977  0.5408259753677681   T   T   T
  0.5052405726807909  0.5119713025205622  0.5470964226219723   T   T   T
  0.5141696189578786  0.2481254540066080  0.5429428329559082   T   T   T
  0.0000000000000000  0.0000000000000000  0.1972002481458333   F   F   F
  0.0000000000000000  0.5000000000000000  0.1972002481458333   F   F   F
  0.0000000000000000  0.6249999998929567  0.1972002481458333   F   F   F
  0.0000000000000000  0.7500000002140865  0.1972002481458333   F   F   F
  0.0000000000000000  0.8750000001070433  0.1972002481458333   F   F   F
  0.0000000000000000  0.1249999998929567  0.1972002481458333   F   F   F
  0.0000000000000000  0.2500000002140865  0.1972002481458333   F   F   F
  0.0000000000000000  0.3750000001070433  0.1972002481458333   F   F   F
  0.0004407839371632  0.0002045437577790  0.3697407666521285   T   T   T
  0.0007294584877855  0.8751560649849262  0.3699584781930573   T   T   T
  0.0000783199335020  0.2500109662344510  0.3699754766176812   T   T   T
  0.5825161059230783  0.5618246525801242  0.4549987108813111   T   T   T
  0.5826104875737792  0.4373623935764995  0.4554823516937659   T   T   T
  0.5825346300460907  0.4375000002676046  0.2838671249793236   F   F   F
  0.5825346300460907  0.5625000001605613  0.2838671249793236   F   F   F
  0.5825346300460907  0.0625000001605613  0.2838671249793236   F   F   F
  0.5825346300460907  0.6875000000535181  0.2838671249793236   F   F   F
  0.5825346300460907  0.8124999999464819  0.2838671249793236   F   F   F
  0.5825346300460907  0.9375000002676046  0.2838671249793236   F   F   F
  0.5825346300460907  0.1875000000535181  0.2838671249793236   F   F   F
  0.5825346300460907  0.3124999999464819  0.2838671249793236   F   F   F
  0.5834739821401888  0.6867733105522532  0.4547340151212939   T   T   T
  0.5835212189154632  0.1866255221729013  0.4541523713831938   T   T   T
  0.5839758688207884  0.3124012297497861  0.4563929305172724   T   T   T
  0.5844591583722902  0.0613248065196239  0.4533975672649340   T   T   T
  0.5846645991298031  0.9368813165264142  0.4540961841040459   T   T   T
  0.5849555320573768  0.8110177087205946  0.4543680199636186   T   T   T
  0.6657105641648826  0.4375000002676046  0.2025710526275901   F   F   F
  0.6657105641648826  0.5625000001605613  0.2025710526275901   F   F   F
  0.6657105641648826  0.0625000001605613  0.2025710526275901   F   F   F
  0.6657105641648826  0.6875000000535181  0.2025710526275901   F   F   F
  0.6657105641648826  0.8124999999464819  0.2025710526275901   F   F   F
  0.6657105641648826  0.9375000002676046  0.2025710526275901   F   F   F
  0.6657105641648826  0.1875000000535181  0.2025710526275901   F   F   F
  0.6657105641648826  0.3124999999464819  0.2025710526275901   F   F   F
  0.6670099185367081  0.4372792873640666  0.3689826865553436   T   T   T
  0.6670866239819331  0.6871759434741456  0.3683556305605402   T   T   T
  0.6672804629304138  0.5622606680189217  0.3688315198160850   T   T   T
  0.6673721932620686  0.3123824521268113  0.3690344682929301   T   T   T
  0.6675513406511153  0.1876209610127244  0.3683262812746153   T   T   T
  0.6678034407158717  0.8122521530485297  0.3683030867333301   T   T   T
  0.6680002438072865  0.0623323541012236  0.3679669489024339   T   T   T
  0.6684832676580820  0.9372357710303038  0.3678972540484770   T   T   T
  0.7484132403302030  0.7513063312498302  0.4555416322061028   T   T   T
  0.7488335552262155  0.1240283312876467  0.4544065277492931   T   T   T
  0.7494918476099972  0.3729240482849852  0.4569388264240786   T   T   T
  0.7496549865150409  0.5002844234308472  0.4560827765335946   T   T   T
  0.7507375585547931  0.6256391635337397  0.4559343753391051   T   T   T
  0.7499999997239044  0.0000000000000000  0.2777865629422820   F   F   F
  0.7499999997239044  0.5000000000000000  0.2777865629422820   F   F   F
  0.7499999997239044  0.6249999998929567  0.2777865629422820   F   F   F
  0.7499999997239044  0.7500000002140865  0.2777865629422820   F   F   F
  0.7499999997239044  0.8750000001070433  0.2777865629422820   F   F   F
  0.7499999997239044  0.1249999998929567  0.2777865629422820   F   F   F
  0.7499999997239044  0.2500000002140865  0.2777865629422820   F   F   F
  0.7499999997239044  0.3750000001070433  0.2777865629422820   F   F   F
  0.7518492919992722  0.9999083222376166  0.4550168613556186   T   T   T
  0.7521926822572674  0.8768710358270512  0.4555278120541342   T   T   T
  0.7528140020842065  0.2488412563665539  0.4570540099005788   T   T   T
  0.0824284952293491  0.4387000713889622  0.4529098047653890   T   T   T
  0.0829248119347718  0.5634628097039094  0.4535355017931297   T   T   T
  0.0825346300460907  0.4375000002676046  0.2838671249793236   F   F   F
  0.0825346300460907  0.5625000001605613  0.2838671249793236   F   F   F
  0.0825346300460907  0.0625000001605613  0.2838671249793236   F   F   F
  0.0825346300460907  0.6875000000535181  0.2838671249793236   F   F   F
  0.0825346300460907  0.8124999999464819  0.2838671249793236   F   F   F
  0.0825346300460907  0.9375000002676046  0.2838671249793236   F   F   F
  0.0825346300460907  0.1875000000535181  0.2838671249793236   F   F   F
  0.0825346300460907  0.3124999999464819  0.2838671249793236   F   F   F
  0.0833091764783428  0.6877994950453784  0.4538323826151819   T   T   T
  0.8319216421636438  0.5625245496105526  0.3684809745168825   T   T   T
  0.8319825105729887  0.6875231411853711  0.3683703152200501   T   T   T
  0.8318343123539073  0.4373832053698709  0.3677157188296622   T   T   T
  0.8321369167193629  0.3124356230636062  0.3685738825961170   T   T   T
  0.8322720337707299  0.0626133269704803  0.3680370872991771   T   T   T
  0.8325597346476873  0.8124026739499889  0.3682433353414306   T   T   T
  0.8324562215942326  0.1877854202587920  0.3683113989644750   T   T   T
  0.8326341416305023  0.9375288752702324  0.3681239513926794   T   T   T
  0.8342894060167296  0.4375000002676046  0.2025710526275901   F   F   F
  0.8342894060167296  0.5625000001605613  0.2025710526275901   F   F   F
  0.8342894060167296  0.0625000001605613  0.2025710526275901   F   F   F
  0.8342894060167296  0.6875000000535181  0.2025710526275901   F   F   F
  0.8342894060167296  0.8124999999464819  0.2025710526275901   F   F   F
  0.8342894060167296  0.9375000002676046  0.2025710526275901   F   F   F
  0.8342894060167296  0.1875000000535181  0.2025710526275901   F   F   F
  0.8342894060167296  0.3124999999464819  0.2025710526275901   F   F   F
  0.0838823211481261  0.0623969692203117  0.4536437372147901   T   T   T
  0.0841648435115860  0.3133644155585538  0.4533605434046962   T   T   T
  0.0845440173688519  0.8135631862560307  0.4551718354381549   T   T   T
  0.0844950596905103  0.1876894679098443  0.4551759498065091   T   T   T
  0.0855408156374850  0.9377217503245391  0.4553462858819359   T   T   T
  0.9140864382023993  0.5629751998287692  0.4553571850097462   T   T   T
  0.9153201336601313  0.6880325911538002  0.4547299065477904   T   T   T
  0.9150186187211962  0.4380335503270326  0.4526652770162475   T   T   T
  0.9158505814117126  0.1876701976101584  0.4546133756911748   T   T   T
  0.9164342600348203  0.8128933173610789  0.4542698771142724   T   T   T
  0.9161594526641961  0.3131871937569011  0.4560047038201429   T   T   T
  0.9166107960736423  0.0629665454686754  0.4538480470541538   T   T   T
  0.9170841816986640  0.9372765557997268  0.4540848716455645   T   T   T
  0.9174653699539093  0.4375000002676046  0.2838671249793236   F   F   F
  0.9174653699539093  0.5625000001605613  0.2838671249793236   F   F   F
  0.9174653699539093  0.0625000001605613  0.2838671249793236   F   F   F
  0.9174653699539093  0.6875000000535181  0.2838671249793236   F   F   F
  0.9174653699539093  0.8124999999464819  0.2838671249793236   F   F   F
  0.9174653699539093  0.9375000002676046  0.2838671249793236   F   F   F
  0.9174653699539093  0.1875000000535181  0.2838671249793236   F   F   F
  0.9174653699539093  0.3124999999464819  0.2838671249793236   F   F   F
  0.9990809263234446  0.6252950870623191  0.3698628518011857   T   T   T
  0.9993157375428973  0.5003786818492669  0.3696234109643845   T   T   T
  0.9995365224934558  0.3748692545065668  0.3696287255582462   T   T   T
  0.9998605187260666  0.7504548726730171  0.3698012355900077   T   T   T
  0.9999613642370176  0.1252347830928620  0.3696950854826029   T   T   T
  0.1657105641648826  0.4375000002676046  0.2025710526275901   F   F   F
  0.1657105641648826  0.5625000001605613  0.2025710526275901   F   F   F
  0.1657105641648826  0.0625000001605613  0.2025710526275901   F   F   F