Ta N Ru                                 
   1.00000000000000     
    18.1096308199999996    0.0000000000000000    0.0000000000000000
     0.0000000000000000   11.6775998899999998    0.0000000000000000
     0.0000000000000000    0.0000000000000000   23.4818170799999990
   Ta   N    Ru
   119   120     1
Direct
  0.0001171164441630  0.9997618262687638  0.2547458495051291
  0.3334554263960396  0.1250000003211298  0.2636251024613742
  0.1663557062881012  0.1250000003211298  0.2636005583007510
  0.2498801990604081  0.2499369515066738  0.3611885363393875
  0.0822326747377564  0.1250000003211298  0.3682442709042989
  0.4176008513776511  0.1250000003211298  0.3683047251846149
  0.0002283411852057  0.2500542592405658  0.4799007140091354
  0.3325409561027426  0.1250000003211298  0.4775486710700123
  0.1678363569237665  0.1250000003211298  0.4775853202251411
  0.2497937691958993  0.2525130903723108  0.5906908809850291
  0.0840902541216789  0.1250000003211298  0.5897758298430507
  0.4144797252419977  0.1250000003211298  0.5891210602573929
  0.0002333304148889  0.2501109584751437  0.7023649095620449
  0.1674046955043452  0.1250000003211298  0.7058684417291246
  0.0001171164441630  0.2502381735171569  0.2547458495051291
  0.3334324965458884  0.3750586325473484  0.2636711064929113
  0.1665019007351454  0.3749448102178212  0.2637250792971967
  0.2499052872664300  0.5000052016373259  0.3612461261978057
  0.0823130836309288  0.3749899737085414  0.3684330907009422
  0.4175912960473610  0.3749936754683463  0.3682673476874044
  0.0000189056347013  0.4999654630995425  0.4797828908905427
  0.3322736235415709  0.3749956778437439  0.4777948934945789
  0.1678447232979239  0.3750950114208068  0.4780622302935709
  0.2502797580426331  0.4995866291395593  0.5910553795148085
  0.0839071575230677  0.3749364628577918  0.5897732676882250
  0.4168584401127089  0.3762339787216142  0.5890951075094258
  0.9996135815332944  0.5001674397058651  0.7022392820626652
  0.3341202307210827  0.3719597573569144  0.7049866007520114
  0.1641882610531789  0.3763450106845531  0.7039125756860638
  0.0001048023673168  0.4999828387408055  0.2547172247997574
  0.3335091990518854  0.6249999998929567  0.2637147704332228
  0.1664099447217552  0.6249999998929567  0.2636596169249579
  0.2499052872664300  0.7499947990049337  0.3612461261978057
  0.0825883399446857  0.6249999998929567  0.3684097178980458
  0.4174796738089360  0.6249999998929567  0.3682478859379896
  0.0000189056347013  0.7500345375427171  0.4797828908905427
  0.3324160512634962  0.6249999998929567  0.4779304648463185
  0.1675775672051913  0.6249999998929567  0.4781152092072064
  0.2502797580426331  0.7504133715027003  0.5910553795148085
  0.0836830239736502  0.6249999998929567  0.5899743695604048
  0.4165078393616923  0.6249999998929567  0.5898534847657751
  0.9996135815332944  0.7498325609363945  0.7022392820626652
  0.3353192150763633  0.6249999998929567  0.7046503150802277
  0.1647284444959022  0.6249999998929567  0.7041561903379845
  0.0001048023673168  0.7500171619014541  0.2547172247997574
  0.3334324965458884  0.8749413680949112  0.2636711064929113
  0.1665019007351454  0.8750551904244382  0.2637250792971967
  0.2498801990604081  0.0000630482792397  0.3611885363393875
  0.0823130836309288  0.8750100269337183  0.3684330907009422
  0.4175912960473610  0.8750063251739133  0.3682673476874044
  0.0002283411852057  0.9999457405453477  0.4799007140091354
  0.3322736235415709  0.8750043227985157  0.4777948934945789
  0.1678447232979239  0.8749049892214529  0.4780622302935709
  0.2497937691958993  0.9974869094136026  0.5906908809850291
  0.0839071575230677  0.8750635377844677  0.5897732676882250
  0.4168584401127089  0.8737660219206453  0.5890951075094258
  0.0002333304148889  0.9998890413107697  0.7023649095620449
  0.3341202307210827  0.8780402432853451  0.7049866007520114
  0.1641882610531789  0.8736549899577066  0.7039125756860638
  0.5000457355054528  0.0000590291067305  0.2547506365874106
  0.8334327571619271  0.1250000003211298  0.2638210331035377
  0.6665871074601905  0.1250000003211298  0.2637781540153954
  0.7499994367742959  0.2500068494445581  0.3614068829540748
  0.5826897182683876  0.1250000003211298  0.3684325424940353
  0.9172200402862151  0.1250000003211298  0.3683253091911334
  0.5001340080726483  0.2501022308478781  0.4796471614185586
  0.8323625150839837  0.1250000003211298  0.4782486158859881
  0.6674156481414061  0.1250000003211298  0.4782697636662984
  0.7498414259435190  0.2500317234161581  0.5910640098140990
  0.5832427193824605  0.1250000003211298  0.5903004410297140
  0.9160981132048051  0.1250000003211298  0.5900493212871967
  0.4997948113738276  0.2489492495452853  0.7022632811978540
  0.8355680553107122  0.1250000003211298  0.7041610365490286
  0.6647401123192017  0.1250000003211298  0.7042611761282246
  0.5000457355054528  0.2499409706791830  0.2547506365874106
  0.8334101117033842  0.3749072519205871  0.2637769618854598
  0.6665683458968796  0.3751002149488029  0.2637373058723420
  0.7499552771343487  0.4999158971833083  0.3614209837827328
  0.5825669636716651  0.3750380854030031  0.3684267906064306
  0.9174131836562307  0.3749923186638329  0.3684172535056426
  0.5000894574423659  0.4999986878689354  0.4797204033351267
  0.8324499752770039  0.3749345502025292  0.4781658039758138
  0.6674855043567396  0.3749712358872518  0.4781997315639523
  0.7500130308296201  0.4999420392770935  0.5907879947338275
  0.5838316361045205  0.3749602321519149  0.5898908560675457
  0.9163238699786790  0.3749049235078143  0.5900278515797718
  0.4999497755643326  0.4989768294549906  0.7026653161973936
  0.8353375296562671  0.3747537523367501  0.7043656309408018
  0.6646942350389410  0.3743062192181997  0.7041745465470546
  0.5000296290024752  0.4998395924303469  0.2546776889484560
  0.8334406560939719  0.6249999998929567  0.2638080504858058
  0.6664612328392886  0.6249999998929567  0.2637640496027935
  0.7499552771343487  0.7500841034589513  0.3614209837827328
  0.5825456168127965  0.6249999998929567  0.3683715334870956
  0.9173578703023237  0.6249999998929567  0.3683362194581527
  0.5000894574423659  0.7500013127733242  0.4797204033351267
  0.8324838432185441  0.6249999998929567  0.4781625029961442
  0.6676370904358131  0.6249999998929567  0.4780752281486367
  0.7500130308296201  0.7500579613651659  0.5907879947338275
  0.5836264768919613  0.6249999998929567  0.5899571266491282
  0.9163894900037033  0.6249999998929567  0.5898943331905496
  0.4999497755643326  0.7510231711872689  0.7026653161973936
  0.8350256737681320  0.6249999998929567  0.7042567787526500
  0.6651648271690164  0.6249999998929567  0.7043229633192868
  0.5000296290024752  0.7501604082119128  0.2546776889484560
  0.8334101117033842  0.8750927487216725  0.2637769618854598
  0.6665683458968796  0.8748997856934567  0.2637373058723420
  0.7499994367742959  0.9999931503413552  0.3614068829540748
  0.5825669636716651  0.8749619152392566  0.3684267906064306
  0.9174131836562307  0.8750076819784267  0.3684172535056426
  0.5001340080726483  0.9998977689380354  0.4796471614185586
  0.8324499752770039  0.8750654504397304  0.4781658039758138
  0.6674855043567396  0.8750287647550078  0.4781997315639523
  0.7498414259435190  0.9999682763697553  0.5910640098140990
  0.5838316361045205  0.8750397684903447  0.5898908560675457
  0.9163238699786790  0.8750950771344453  0.5900278515797718
  0.4997948113738276  0.0010507502406281  0.7022632811978540
  0.8353375296562671  0.8752462483055166  0.7043656309408018
  0.6646942350389410  0.8756937814240598  0.7041745465470546
  0.4068534536598503  0.0000692506837016  0.3010487356884599
  0.2499742841120865  0.0000734265425289  0.2577036267705742
  0.0931740467772507  0.0000077856086377  0.3012136933047942
  0.1543624835514625  0.2500378652108948  0.4098726917411943
  0.9998928226959647  0.2499755300353650  0.3931773868214066
  0.3454962879504235  0.2501505562118856  0.4096238302037045
  0.4010117764626817  0.2499704771915784  0.5216513007792434
  0.2500316995619029  0.2498082927213240  0.5026882174221975
  0.0991868477124347  0.2499518071791009  0.5220306243571642
  0.1522796628044608  0.2496891192178239  0.6334616739833125
  0.0004544369269860  0.2495615008386935  0.6137996448032648
  0.3478057940580790  0.2538811309423830  0.6314727686032757
  0.4018393721096874  0.2473262807552054  0.7396172144460402
  0.2505177793383936  0.2492977214589512  0.7255165569501694
  0.0975884459400095  0.2494832718973543  0.7403327605970115
  0.4068534536598503  0.2499307491022119  0.3010487356884599
  0.2499742841120865  0.2499265732433845  0.2577036267705742
  0.0931740467772507  0.2499922141772759  0.3012136933047942
  0.1544284768445039  0.4999166522839681  0.4099229302559412
  0.9999594954650679  0.5000740410107581  0.3930812603111262
  0.3455151852534186  0.4999200910590168  0.4097701061970787
  0.4009616948731238  0.5002649933886402  0.5217864284335776
  0.2501492248815583  0.5002245162252722  0.5028228945519873
  0.0990749618682260  0.4996685983135884  0.5220013664061711
  0.1518009595152575  0.5001501699973603  0.6331998860865733
  0.0000554302396643  0.4996624072679696  0.6133720679470869
  0.3486347731530654  0.4996205462316781  0.6331943138370293
  0.4023010385075144  0.4982365243620594  0.7404640937012698
  0.2500273493501852  0.4989683465415581  0.7237357821783440
  0.0966531170585621  0.4999898888969460  0.7404067097897759
  0.4068576667576047  0.4999415531226739  0.3010790140684804
  0.2499433334232256  0.5000413772594031  0.2576340237934506
  0.0932020511000869  0.4999262045581386  0.3011660006100879
  0.1544284768445039  0.7500833483582914  0.4099229302559412
  0.9999594954650679  0.7499259596315014  0.3930812603111262
  0.3455151852534186  0.7500799095832428  0.4097701061970787
  0.4009616948731238  0.7497350072536194  0.5217864284335776
  0.2501492248815583  0.7497754844169874  0.5028228945519873
  0.0990749618682260  0.7503314023286711  0.5220013664061711
  0.1518009595152575  0.7498498306448993  0.6331998860865733
  0.0000554302396643  0.7503375933742900  0.6133720679470869
  0.3486347731530654  0.7503794544105815  0.6331943138370293
  0.4023010385075144  0.7517634762802001  0.7404640937012698
  0.2500273493501852  0.7510316541007014  0.7237357821783440
  0.0966531170585621  0.7500101117453135  0.7404067097897759
  0.4068576667576047  0.7500584475195857  0.3010790140684804
  0.2499433334232256  0.7499586233828565  0.2576340237934506
  0.0932020511000869  0.7500737960841211  0.3011660006100879
  0.1543624835514625  0.9999621345750187  0.4098726917411943
  0.9998928226959647  0.0000244697505485  0.3931773868214066
  0.3454962879504235  0.9998494435740277  0.4096238302037045
  0.4010117764626817  0.0000295225943351  0.5216513007792434
  0.2500316995619029  0.0001917070645895  0.5026882174221975
  0.0991868477124347  0.0000481926068125  0.5220306243571642
  0.1522796628044608  0.0003108805680896  0.6334616739833125
  0.0004544369269860  0.0004384989472199  0.6137996448032648
  0.3478057940580790  0.9961188688435305  0.6314727686032757
  0.4018393721096874  0.0026737190307081  0.7396172144460402
  0.2505177793383936  0.0007022783269622  0.7255165569501694
  0.0975884459400095  0.0005167278885592  0.7403327605970115
  0.9069395969336249  0.9999766488546178  0.3011206001314174
  0.7499535487456542  0.9999988367532973  0.2574505069014691
  0.5932313714402550  0.9999495416209027  0.3011519102494234
  0.6544247524755382  0.2499812558406021  0.4099615344966340
  0.5000550918766588  0.2500486393855346  0.3930463323914977
  0.8455210028999133  0.2499984343688867  0.4099832094823163
  0.9011399659487900  0.2499983063552292  0.5220820930483270
  0.7499071261853251  0.2500536426705429  0.5029187550005729
  0.5988702057104851  0.2499326220646256  0.5222327030832323
  0.6515372039487312  0.2502548823524591  0.6335398050004217
  0.4989255388062638  0.2498206700115227  0.6137641124343539
  0.8481400003499713  0.2502184658863528  0.6333233025943386
  0.9036018867252761  0.2501362162513959  0.7405140205816979
  0.7501735810220843  0.2498586497219465  0.7241365533869950
  0.5962951365408176  0.2498641386420651  0.7406729023378962
  0.9069395969336249  0.2500233509312957  0.3011206001314174
  0.7499535487456542  0.2500011630326163  0.2574505069014691
  0.5932313714402550  0.2500504581650110  0.3011519102494234
  0.6544140969517962  0.4998916781157924  0.4099131325976398
  0.5000004531775110  0.5000658500456377  0.3930276127447100
  0.8455540280916147  0.4999640319830197  0.4098806262579835
  0.9010174521554234  0.4997779912476613  0.5220722665732141
  0.7500137248846075  0.4999658263431916  0.5027135484900810
  0.5989863550253746  0.5000943440182981  0.5220832891319777
  0.6519065212880132  0.5002218683935916  0.6330830583072565
  0.5000557652194879  0.5001378429163750  0.6137841360033677
  0.8482840703420748  0.5000049787233692  0.6332643788424336
  0.9030577525961156  0.5003409808426803  0.7405686248138669
  0.7498391483755446  0.4999168089255608  0.7238364382270923
  0.5966794476064408  0.5000612545612015  0.7402208384341676
  0.9068873901027638  0.4999089494629216  0.3010852998301893
  0.7500215028577140  0.5000366976452311  0.2575912459734115
  0.5930989734705850  0.4999784999864979  0.3011568613172073
  0.6544140969517962  0.7501083225264672  0.4099131325976398
  0.5000004531775110  0.7499341505966218  0.3930276127447100
  0.8455540280916147  0.7500359686592399  0.4098806262579835
  0.9010174521554234  0.7502220093945983  0.5220722665732141
  0.7500137248846075  0.7500341742990680  0.5027135484900810
  0.5989863550253746  0.7499056566239615  0.5220832891319777
  0.6519065212880132  0.7497781322486680  0.6330830583072565
  0.5000557652194879  0.7498621577258846  0.6137841360033677
  0.8482840703420748  0.7499950219188903  0.6332643788424336
  0.9030577525961156  0.7496590197995793  0.7405686248138669
  0.7498391483755446  0.7500831917166987  0.7238364382270923
  0.5966794476064408  0.7499387460810580  0.7402208384341676
  0.9068873901027638  0.7500910511793379  0.3010852998301893
  0.7500215028577140  0.7499633029970285  0.2575912459734115
  0.5930989734705850  0.7500215006557617  0.3011568613172073
  0.6544247524755382  0.0000187439453114  0.4099615344966340
  0.5000550918766588  0.9999513604003717  0.3930463323914977
  0.8455210028999133  0.0000015654170267  0.4099832094823163
  0.9011399659487900  0.0000016934306843  0.5220820930483270
  0.7499071261853251  0.9999463571153706  0.5029187550005729
  0.5988702057104851  0.0000673777212879  0.5222327030832323
  0.6515372039487312  0.9997451174334544  0.6335398050004217
  0.4989255388062638  0.0001793297743908  0.6137641124343539
  0.8481400003499713  0.9997815338995606  0.6333233025943386
  0.9036018867252761  0.9998637835345175  0.7405140205816979
  0.7501735810220843  0.0001413500639669  0.7241365533869950
  0.5962951365408176  0.0001358611438484  0.7406729023378962
  0.3388806882801771  0.1250000003211298  0.6968040853369765
 
  0.00000000E+00  0.00000000E+00  0.00000000E+00
  0.00000000E+00  0.00000000E+00  0.00000000E+00
  0.00000000E+00  0.00000000E+00  0.00000000E+00
  0.00000000E+00  0.00000000E+00  0.00000000E+00
  0.00000000E+00  0.00000000E+00  0.00000000E+00
  0.00000000E+00  0.00000000E+00  0.00000000E+00
  0.00000000E+00  0.00000000E+00  0.00000000E+00
  0.00000000E+00  0.00000000E+00  0.00000000E+00
  0.00000000E+00  0.00000000E+00  0.00000000E+00
  0.00000000E+00  0.00000000E+00  0.00000000E+00
  0.00000000E+00  0.00000000E+00  0.00000000E+00
  0.00000000E+00  0.00000000E+00  0.00000000E+00
  0.00000000E+00  0.00000000E+00  0.00000000E+00
  0.00000000E+00  0.00000000E+00  0.00000000E+00
  0.00000000E+00  0.00000000E+00  0.00000000E+00
  0.00000000E+00  0.00000000E+00  0.00000000E+00
  0.00000000E+00  0.00000000E+00  0.00000000E+00
  0.00000000E+00  0.00000000E+00  0.00000000E+00
  0.00000000E+00  0.00000000E+00  0.00000000E+00
  0.00000000E+00  0.00000000E+00  0.00000000E+00
  0.00000000E+00  0.00000000E+00  0.00000000E+00
  0.00000000E+00  0.00000000E+00  0.00000000E+00
  0.00000000E+00  0.00000000E+00  0.00000000E+00
  0.00000000E+00  0.00000000E+00  0.00000000E+00
  0.00000000E+00  0.00000000E+00  0.00000000E+00
  0.00000000E+00  0.00000000E+00  0.00000000E+00
  0.00000000E+00  0.00000000E+00  0.00000000E+00
  0.00000000E+00  0.00000000E+00  0.00000000E+00
  0.00000000E+00  0.00000000E+00  0.00000000E+00
  0.00000000E+00  0.00000000E+00  0.00000000E+00
  0.00000000E+00  0.00000000E+00  0.00000000E+00
  0.00000000E+00  0.00000000E+00  0.00000000E+00
  0.00000000E+00  0.00000000E+00  0.00000000E+00
  0.00000000E+00  0.00000000E+00  0.00000000E+00
  0.00000000E+00  0.00000000E+00  0.00000000E+00
  0.00000000E+00  0.00000000E+00  0.00000000E+00
  0.00000000E+00  0.00000000E+00  0.00000000E+00
  0.00000000E+00  0.00000000E+00  0.00000000E+00
  0.00000000E+00  0.00000000E+00  0.00000000E+00
  0.00000000E+00  0.00000000E+00  0.00000000E+00
  0.00000000E+00  0.00000000E+00  0.00000000E+00
  0.00000000E+00  0.00000000E+00  0.00000000E+00
  0.00000000E+00  0.00000000E+00  0.00000000E+00
  0.00000000E+00  0.00000000E+00  0.00000000E+00
  0.00000000E+00  0.00000000E+00  0.00000000E+00
  0.00000000E+00  0.00000000E+00  0.00000000E+00
  0.00000000E+00  0.00000000E+00  0.00000000E+00
  0.00000000E+00  0.00000000E+00  0.00000000E+00
  0.00000000E+00  0.00000000E+00  0.00000000E+00
  0.00000000E+00  0.00000000E+00  0.00000000E+00
  0.00000000E+00  0.00000000E+00  0.00000000E+00
  0.00000000E+00  0.00000000E+00  0.00000000E+00
  0.00000000E+00  0.00000000E+00  0.00000000E+00
  0.00000000E+00  0.00000000E+00  0.00000000E+00
  0.00000000E+00  0.00000000E+00  0.00000000E+00
  0.00000000E+00  0.00000000E+00  0.00000000E+00
  0.00000000E+00  0.00000000E+00  0.00000000E+00
  0.00000000E+00  0.00000000E+00  0.00000000E+00
  0.00000000E+00  0.00000000E+00  0.00000000E+00
  0.00000000E+00  0.00000000E+00  0.00000000E+00
  0.00000000E+00  0.00000000E+00  0.00000000E+00
  0.00000000E+00  0.00000000E+00  0.00000000E+00
  0.00000000E+00  0.00000000E+00  0.00000000E+00
  0.00000000E+00  0.00000000E+00  0.00000000E+00
  0.00000000E+00  0.00000000E+00  0.00000000E+00
  0.00000000E+00  0.00000000E+00  0.00000000E+00
  0.00000000E+00  0.00000000E+00  0.00000000E+00
  0.00000000E+00  0.00000000E+00  0.00000000E+00
  0.00000000E+00  0.00000000E+00  0.00000000E+00
  0.00000000E+00  0.00000000E+00  0.00000000E+00
  0.00000000E+00  0.00000000E+00  0.00000000E+00
  0.00000000E+00  0.00000000E+00  0.00000000E+00
  0.00000000E+00  0.00000000E+00  0.00000000E+00
  0.00000000E+00  0.00000000E+00  0.00000000E+00
  0.00000000E+00  0.00000000E+00  0.00000000E+00
  0.00000000E+00  0.00000000E+00  0.00000000E+00
  0.00000000E+00  0.00000000E+00  0.00000000E+00
  0.00000000E+00  0.00000000E+00  0.00000000E+00
  0.00000000E+00  0.00000000E+00  0.00000000E+00
  0.00000000E+00  0.00000000E+00  0.00000000E+00
  0.00000000E+00  0.00000000E+00  0.00000000E+00
  0.00000000E+00  0.00000000E+00  0.00000000E+00
  0.00000000E+00  0.00000000E+00  0.00000000E+00
  0.00000000E+00  0.00000000E+00  0.00000000E+00
  0.00000000E+00  0.00000000E+00  0.00000000E+00
  0.00000000E+00  0.00000000E+00  0.00000000E+00
  0.00000000E+00  0.00000000E+00  0.00000000E+00
  0.00000000E+00  0.00000000E+00  0.00000000E+00
  0.00000000E+00  0.00000000E+00  0.00000000E+00
  0.00000000E+00  0.00000000E+00  0.00000000E+00
  0.00000000E+00  0.00000000E+00  0.00000000E+00
  0.00000000E+00  0.00000000E+00  0.00000000E+00
  0.00000000E+00  0.00000000E+00  0.00000000E+00
  0.00000000E+00  0.00000000E+00  0.00000000E+00
  0.00000000E+00  0.00000000E+00  0.00000000E+00
  0.00000000E+00  0.00000000E+00  0.00000000E+00
  0.00000000E+00  0.00000000E+00  0.00000000E+00
  0.00000000E+00  0.00000000E+00  0.00000000E+00
  0.00000000E+00  0.00000000E+00  0.00000000E+00
  0.00000000E+00  0.00000000E+00  0.00000000E+00
  0.00000000E+00  0.00000000E+00  0.00000000E+00
  0.00000000E+00  0.00000000E+00  0.00000000E+00
  0.00000000E+00  0.00000000E+00  0.00000000E+00
  0.00000000E+00  0.00000000E+00  0.00000000E+00
  0.00000000E+00  0.00000000E+00  0.00000000E+00
  0.00000000E+00  0.00000000E+00  0.00000000E+00
  0.00000000E+00  0.00000000E+00  0.00000000E+00
  0.00000000E+00  0.00000000E+00  0.00000000E+00
  0.00000000E+00  0.00000000E+00  0.00000000E+00
  0.00000000E+00  0.00000000E+00  0.00000000E+00
  0.00000000E+00  0.00000000E+00  0.00000000E+00
  0.00000000E+00  0.00000000E+00  0.00000000E+00
  0.00000000E+00  0.00000000E+00  0.00000000E+00
  0.00000000E+00  0.00000000E+00  0.00000000E+00
  0.00000000E+00  0.00000000E+00  0.00000000E+00
  0.00000000E+00  0.00000000E+00  0.00000000E+00
  0.00000000E+00  0.00000000E+00  0.00000000E+00
  0.00000000E+00  0.00000000E+00  0.00000000E+00
  0.00000000E+00  0.00000000E+00  0.00000000E+00
  0.00000000E+00  0.00000000E+00  0.00000000E+00
  0.00000000E+00  0.00000000E+00  0.00000000E+00
  0.00000000E+00  0.00000000E+00  0.00000000E+00
  0.00000000E+00  0.00000000E+00  0.00000000E+00
  0.00000000E+00  0.00000000E+00  0.00000000E+00
  0.00000000E+00  0.00000000E+00  0.00000000E+00
  0.00000000E+00  0.00000000E+00  0.00000000E+00
  0.00000000E+00  0.00000000E+00  0.00000000E+00
  0.00000000E+00  0.00000000E+00  0.00000000E+00
  0.00000000E+00  0.00000000E+00  0.00000000E+00
  0.00000000E+00  0.00000000E+00  0.00000000E+00
  0.00000000E+00  0.00000000E+00  0.00000000E+00
  0.00000000E+00  0.00000000E+00  0.00000000E+00
  0.00000000E+00  0.00000000E+00  0.00000000E+00
  0.00000000E+00  0.00000000E+00  0.00000000E+00
  0.00000000E+00  0.00000000E+00  0.00000000E+00
  0.00000000E+00  0.00000000E+00  0.00000000E+00
  0.00000000E+00  0.00000000E+00  0.00000000E+00
  0.00000000E+00  0.00000000E+00  0.00000000E+00
  0.00000000E+00  0.00000000E+00  0.00000000E+00
  0.00000000E+00  0.00000000E+00  0.00000000E+00
  0.00000000E+00  0.00000000E+00  0.00000000E+00
  0.00000000E+00  0.00000000E+00  0.00000000E+00
  0.00000000E+00  0.00000000E+00  0.00000000E+00
  0.00000000E+00  0.00000000E+00  0.00000000E+00
  0.00000000E+00  0.00000000E+00  0.00000000E+00
  0.00000000E+00  0.00000000E+00  0.00000000E+00
  0.00000000E+00  0.00000000E+00  0.00000000E+00
  0.00000000E+00  0.00000000E+00  0.00000000E+00
  0.00000000E+00  0.00000000E+00  0.00000000E+00
  0.00000000E+00  0.00000000E+00  0.00000000E+00
  0.00000000E+00  0.00000000E+00  0.00000000E+00
  0.00000000E+00  0.00000000E+00  0.00000000E+00
  0.00000000E+00  0.00000000E+00  0.00000000E+00
  0.00000000E+00  0.00000000E+00  0.00000000E+00
  0.00000000E+00  0.00000000E+00  0.00000000E+00
  0.00000000E+00  0.00000000E+00  0.00000000E+00
  0.00000000E+00  0.00000000E+00  0.00000000E+00
  0.00000000E+00  0.00000000E+00  0.00000000E+00
  0.00000000E+00  0.00000000E+00  0.00000000E+00
  0.00000000E+00  0.00000000E+00  0.00000000E+00
  0.00000000E+00  0.00000000E+00  0.00000000E+00
  0.00000000E+00  0.00000000E+00  0.00000000E+00
  0.00000000E+00  0.00000000E+00  0.00000000E+00
  0.00000000E+00  0.00000000E+00  0.00000000E+00
  0.00000000E+00  0.00000000E+00  0.00000000E+00
  0.00000000E+00  0.00000000E+00  0.00000000E+00
  0.00000000E+00  0.00000000E+00  0.00000000E+00
  0.00000000E+00  0.00000000E+00  0.00000000E+00
  0.00000000E+00  0.00000000E+00  0.00000000E+00
  0.00000000E+00  0.00000000E+00  0.00000000E+00
  0.00000000E+00  0.00000000E+00  0.00000000E+00
  0.00000000E+00  0.00000000E+00  0.00000000E+00
  0.00000000E+00  0.00000000E+00  0.00000000E+00
  0.00000000E+00  0.00000000E+00  0.00000000E+00
  0.00000000E+00  0.00000000E+00  0.00000000E+00
  0.00000000E+00  0.00000000E+00  0.00000000E+00
  0.00000000E+00  0.00000000E+00  0.00000000E+00
  0.00000000E+00  0.00000000E+00  0.00000000E+00
  0.00000000E+00  0.00000000E+00  0.00000000E+00
  0.00000000E+00  0.00000000E+00  0.00000000E+00
  0.00000000E+00  0.00000000E+00  0.00000000E+00
  0.00000000E+00  0.00000000E+00  0.00000000E+00
  0.00000000E+00  0.00000000E+00  0.00000000E+00
  0.00000000E+00  0.00000000E+00  0.00000000E+00
  0.00000000E+00  0.00000000E+00  0.00000000E+00
  0.00000000E+00  0.00000000E+00  0.00000000E+00
  0.00000000E+00  0.00000000E+00  0.00000000E+00
  0.00000000E+00  0.00000000E+00  0.00000000E+00
  0.00000000E+00  0.00000000E+00  0.00000000E+00
  0.00000000E+00  0.00000000E+00  0.00000000E+00
  0.00000000E+00  0.00000000E+00  0.00000000E+00
  0.00000000E+00  0.00000000E+00  0.00000000E+00
  0.00000000E+00  0.00000000E+00  0.00000000E+00
  0.00000000E+00  0.00000000E+00  0.00000000E+00
  0.00000000E+00  0.00000000E+00  0.00000000E+00
  0.00000000E+00  0.00000000E+00  0.00000000E+00
  0.00000000E+00  0.00000000E+00  0.00000000E+00
  0.00000000E+00  0.00000000E+00  0.00000000E+00
  0.00000000E+00  0.00000000E+00  0.00000000E+00
  0.00000000E+00  0.00000000E+00  0.00000000E+00
  0.00000000E+00  0.00000000E+00  0.00000000E+00
  0.00000000E+00  0.00000000E+00  0.00000000E+00
  0.00000000E+00  0.00000000E+00  0.00000000E+00
  0.00000000E+00  0.00000000E+00  0.00000000E+00
  0.00000000E+00  0.00000000E+00  0.00000000E+00
  0.00000000E+00  0.00000000E+00  0.00000000E+00
  0.00000000E+00  0.00000000E+00  0.00000000E+00
  0.00000000E+00  0.00000000E+00  0.00000000E+00
  0.00000000E+00  0.00000000E+00  0.00000000E+00
  0.00000000E+00  0.00000000E+00  0.00000000E+00
  0.00000000E+00  0.00000000E+00  0.00000000E+00
  0.00000000E+00  0.00000000E+00  0.00000000E+00
  0.00000000E+00  0.00000000E+00  0.00000000E+00
  0.00000000E+00  0.00000000E+00  0.00000000E+00
  0.00000000E+00  0.00000000E+00  0.00000000E+00
  0.00000000E+00  0.00000000E+00  0.00000000E+00
  0.00000000E+00  0.00000000E+00  0.00000000E+00
  0.00000000E+00  0.00000000E+00  0.00000000E+00
  0.00000000E+00  0.00000000E+00  0.00000000E+00
  0.00000000E+00  0.00000000E+00  0.00000000E+00
  0.00000000E+00  0.00000000E+00  0.00000000E+00
  0.00000000E+00  0.00000000E+00  0.00000000E+00
  0.00000000E+00  0.00000000E+00  0.00000000E+00
  0.00000000E+00  0.00000000E+00  0.00000000E+00
  0.00000000E+00  0.00000000E+00  0.00000000E+00
  0.00000000E+00  0.00000000E+00  0.00000000E+00
  0.00000000E+00  0.00000000E+00  0.00000000E+00
  0.00000000E+00  0.00000000E+00  0.00000000E+00
  0.00000000E+00  0.00000000E+00  0.00000000E+00
  0.00000000E+00  0.00000000E+00  0.00000000E+00
  0.00000000E+00  0.00000000E+00  0.00000000E+00
  0.00000000E+00  0.00000000E+00  0.00000000E+00
  0.00000000E+00  0.00000000E+00  0.00000000E+00
  0.00000000E+00  0.00000000E+00  0.00000000E+00
  0.00000000E+00  0.00000000E+00  0.00000000E+00
  0.00000000E+00  0.00000000E+00  0.00000000E+00
  0.00000000E+00  0.00000000E+00  0.00000000E+00
  0.00000000E+00  0.00000000E+00  0.00000000E+00
  0.00000000E+00  0.00000000E+00  0.00000000E+00
  0.00000000E+00  0.00000000E+00  0.00000000E+00
