generated by phonopy                    
   1.00000000000000     
     5.3578844858804437   -0.0000000334414940    0.0000000000000000
    -2.6789428898013665    4.6400637018935882    0.0000000000000000
     0.0000000000000000    0.0000000000000000   25.0000000000000000
   B    N    Al
     3     4     1
Direct
 -0.0037304971987402  0.0037304971987587 -0.0000000000000000
 -0.0037304968708258  0.4925390059304156 -0.0000000000000000
  0.5074609940695662  0.0037304968708258 -0.0000000000000000
  0.1315360316343011  0.3157680171816866 -0.0000000000000000
  0.6842319865473891  0.3157680134523999  0.0000000000000000
  0.1666666670000012  0.8333333329999988 -0.0000000000000000
  0.6842319828183135 -0.1315360316340902  0.0000000000000000
  0.5000000000000000  0.5000000000000000 -0.0000000000000000
 
  0.00000000E+00  0.00000000E+00  0.00000000E+00
  0.00000000E+00  0.00000000E+00  0.00000000E+00
  0.00000000E+00  0.00000000E+00  0.00000000E+00
  0.00000000E+00  0.00000000E+00  0.00000000E+00
  0.00000000E+00  0.00000000E+00  0.00000000E+00
  0.00000000E+00  0.00000000E+00  0.00000000E+00
  0.00000000E+00  0.00000000E+00  0.00000000E+00
  0.00000000E+00  0.00000000E+00  0.00000000E+00
