generated by phonopy
1.0
        5.1142263412         0.0000000000         0.0000000000
       -2.5571137604         4.4290495917         0.0000000000
        0.0000000000         0.0000000000        25.0000000000
    B    N   Al
   3   4    1
Direct
     0.000000000         0.000000000         0.000000000
     0.000000000         0.500000000         0.000000000
     0.500000000         0.000000000         0.000000000
     0.166666667         0.333333333         0.000000000
     0.666666667         0.333333333         0.000000000
     0.166666667         0.833333333         0.000000000
     0.666666667         0.833333333         0.000000000
     0.500000000         0.500000000         0.000000000
