POSCAR                                  
   1.00000000000000     
     6.3441836723072456   -0.0000000000000000    0.0000000000000000
    -3.1720918361536228    5.4942242264925252    0.0000000000000000
     0.0000000000000000   -0.0000000000000000   10.0143072013859307
   Al   N    Li   Ta
    14    16     1     1
Direct
  0.1697507989373880  0.3302492010626120 -0.0052177726317074
  0.6604979021252181  0.3302492010626120 -0.0052177726317074
  0.1697507989373880  0.8395020978747819 -0.0052177726317074
  0.6666664999999981  0.8333335000000019 -0.0042635215080532
  0.1703656905483083  0.3296343094516918  0.5067835904918679
  0.6592681189033778  0.3296343094516918  0.5067835904918679
  0.1703656905483083  0.8407318810966222  0.5067835904918679
  0.8417058202093213  0.1834111404186365  0.7504935349413507
  0.3165888595813636  0.6582941797906787  0.7504935349413507
  0.8417058202093213  0.6582941797906787  0.7504935349413507
  0.3333335000000019  0.1666664999999981  0.2398580066555641
  0.8362331878189103  0.1724658756378151  0.2388067773215560
  0.3275341243621850  0.6637668121810897  0.2388067773215560
  0.8362331878189103  0.6637668121810897  0.2388067773215560
  0.1652974955023821  0.3347025044976178  0.1901208690165732
  0.6694045089952297  0.3347025044976178  0.1901208690165732
  0.1652974955023821  0.8305954910047703  0.1901208690165732
  0.6666664999999981  0.8333335000000019  0.1934832696958276
  0.1597012843772042  0.3402987156227958  0.6883155353773454
  0.6805969312455858  0.3402987156227958  0.6883155353773454
  0.1597012843772042  0.8194030687544142  0.6883155353773454
  0.6666664999999981  0.8333335000000019  0.6895427491853819
  0.3333335000000019  0.1666664999999981  0.9583066328963806
  0.8329269164609899  0.1658533329219740  0.9420977367978722
  0.3341466670780260  0.6670730835390101  0.9420977367978722
  0.8329269164609899  0.6670730835390101  0.9420977367978722
  0.3333335000000019  0.1666664999999981  0.4362493677166928
  0.8381065577644562  0.1762126155289066  0.4350208960815931
  0.3237873844710935  0.6618934422355438  0.4350208960815931
  0.8381065577644562  0.6618934422355438  0.4350208960815931
  0.3333335000000019  0.1666664999999981  0.7534242036304603
  0.6666664999999981  0.8333335000000019  0.4941357895383926
 
  0.00000000E+00  0.00000000E+00  0.00000000E+00
  0.00000000E+00  0.00000000E+00  0.00000000E+00
  0.00000000E+00  0.00000000E+00  0.00000000E+00
  0.00000000E+00  0.00000000E+00  0.00000000E+00
  0.00000000E+00  0.00000000E+00  0.00000000E+00
  0.00000000E+00  0.00000000E+00  0.00000000E+00
  0.00000000E+00  0.00000000E+00  0.00000000E+00
  0.00000000E+00  0.00000000E+00  0.00000000E+00
  0.00000000E+00  0.00000000E+00  0.00000000E+00
  0.00000000E+00  0.00000000E+00  0.00000000E+00
  0.00000000E+00  0.00000000E+00  0.00000000E+00
  0.00000000E+00  0.00000000E+00  0.00000000E+00
  0.00000000E+00  0.00000000E+00  0.00000000E+00
  0.00000000E+00  0.00000000E+00  0.00000000E+00
  0.00000000E+00  0.00000000E+00  0.00000000E+00
  0.00000000E+00  0.00000000E+00  0.00000000E+00
  0.00000000E+00  0.00000000E+00  0.00000000E+00
  0.00000000E+00  0.00000000E+00  0.00000000E+00
  0.00000000E+00  0.00000000E+00  0.00000000E+00
  0.00000000E+00  0.00000000E+00  0.00000000E+00
  0.00000000E+00  0.00000000E+00  0.00000000E+00
  0.00000000E+00  0.00000000E+00  0.00000000E+00
  0.00000000E+00  0.00000000E+00  0.00000000E+00
  0.00000000E+00  0.00000000E+00  0.00000000E+00
  0.00000000E+00  0.00000000E+00  0.00000000E+00
  0.00000000E+00  0.00000000E+00  0.00000000E+00
  0.00000000E+00  0.00000000E+00  0.00000000E+00
  0.00000000E+00  0.00000000E+00  0.00000000E+00
  0.00000000E+00  0.00000000E+00  0.00000000E+00
  0.00000000E+00  0.00000000E+00  0.00000000E+00
  0.00000000E+00  0.00000000E+00  0.00000000E+00
  0.00000000E+00  0.00000000E+00  0.00000000E+00
