POSCAR
   1.00000000000000
     6.2939611484099256   0.0000000000000000    0.0000000000000000
    -3.1469805742049628   5.45073024495527499295    0.0000000000000000
     0.0000000000000000    0.0000000000000000    9.9968677820038945
   Al   N      Li     Ta
    14    16    1   1
Direct
  0.16666650  0.33333350  1.00000000
  0.66666650  0.33333350  1.00000000
  0.16666650  0.83333350  1.00000000
  0.66666650  0.83333350  1.00000000
  0.16666650  0.33333350  0.50000000
  0.66666650  0.33333350  0.50000000
  0.16666650  0.83333350  0.50000000
  0.83333350  0.16666650  0.75000000
  0.33333350  0.66666650  0.75000000
  0.83333350  0.66666650  0.75000000
  0.33333350  0.16666650  0.25000000
  0.83333350  0.16666650  0.25000000
  0.33333350  0.66666650  0.25000000
  0.83333350  0.66666650  0.25000000
  0.16666650  0.33333350  0.18750000
  0.66666650  0.33333350  0.18750000
  0.16666650  0.83333350  0.18750000
  0.66666650  0.83333350  0.18750000
  0.16666650  0.33333350  0.68750000
  0.66666650  0.33333350  0.68750000
  0.16666650  0.83333350  0.68750000
  0.66666650  0.83333350  0.68750000
  0.33333350  0.16666650  0.93750000
  0.83333350  0.16666650  0.93750000
  0.33333350  0.66666650  0.93750000
  0.83333350  0.66666650  0.93750000
  0.33333350  0.16666650  0.43750000
  0.83333350  0.16666650  0.43750000
  0.33333350  0.66666650  0.43750000
  0.83333350  0.66666650  0.43750000
  0.33333350  0.16666650  0.75000000
  0.66666650  0.83333350  0.50000000
