Ta N Co                                 
   1.00000000000000     
    18.1096308199999996    0.0000000000000000    0.0000000000000000
     0.0000000000000000   11.6775998899999998    0.0000000000000000
     0.0000000000000000    0.0000000000000000   23.4818170799999990
   Ta   N    Co
   119   120     1
Direct
  0.0001819947377531  0.0001400070422558  0.2547417273594441
  0.3336095455527016  0.1250000003211298  0.2636541447681280
  0.1667179539783353  0.1250000003211298  0.2636167604747762
  0.2502808044566483  0.2498757765764286  0.3615699752150188
  0.0824071908369130  0.1250000003211298  0.3683816487602201
  0.4177822817468834  0.1250000003211298  0.3684643016645538
 -0.0001183045033569  0.2498721568964954  0.4796585574230707
  0.3318657868579500  0.1250000003211298  0.4779863330954389
  0.1677664030651722  0.1250000003211298  0.4777339415827519
  0.2499100431042944  0.2529472717630965  0.5927312915991357
  0.0846300257142793  0.1250000003211298  0.5894737523446351
  0.4164206150526447  0.1250000003211298  0.5891418677679551
 -0.0036784283092783  0.2503909124239923  0.7017027127772092
  0.3325321982885160  0.1250000003211298  0.7066448763552331
  0.0001819947377531  0.2498599927436577  0.2547417273594441
  0.3335524722311169  0.3749822242043450  0.2637430121388354
  0.1669005330718394  0.3749841225191614  0.2636673980753519
  0.2503065241882128  0.5000325582236950  0.3614607043326923
  0.0825103032284148  0.3749745268998655  0.3682632263484997
  0.4177869272053795  0.3749284788072167  0.3685777727744515
  0.0000060135794069  0.5001066483299801  0.4795615620823090
  0.3319157456404649  0.3748983923588483  0.4782751583207180
  0.1678494646358844  0.3750010392347465  0.4778620590587045
  0.2500805005847883  0.4997604467933336  0.5916952099402975
  0.0834687320050421  0.3761536798657590  0.5887861800026679
  0.4172562685248209  0.3749942609370542  0.5892456556262143
  0.0012371935253240  0.4995890720816911  0.7029154382361713
  0.3376290377734250  0.3772832312975685  0.7040771559024456
  0.1670850839062303  0.3642581989582517  0.7051245469141545
  0.0001094619502928  0.5000129692539784  0.2546501396367860
  0.3335447872258347  0.6249999998929567  0.2637220027750090
  0.1669356184420079  0.6249999998929567  0.2636367698908742
  0.2503065241882128  0.7499674424185643  0.3614607043326923
  0.0826288204380420  0.6249999998929567  0.3681233640351753
  0.4176606927977005  0.6249999998929567  0.3684384140357475
  0.0000060135794069  0.7498933523122792  0.4795615620823090
  0.3323016875556679  0.6249999998929567  0.4781579899683052
  0.1678341964333897  0.6249999998929567  0.4776725898257715
  0.2500805005847883  0.7502395538489260  0.5916952099402975
  0.0836910368169287  0.6249999998929567  0.5894991446859025
  0.4169452650031916  0.6249999998929567  0.5893747800696781
  0.0012371935253240  0.7504109285605683  0.7029154382361713
  0.3359258730561934  0.6249999998929567  0.7038588523029490
  0.1657280119200449  0.6249999998929567  0.7046571166485981
  0.0001094619502928  0.7499870313882810  0.2546501396367860
  0.3335524722311169  0.8750177764379148  0.2637430121388354
  0.1669005330718394  0.8750158781230987  0.2636673980753519
  0.2502808044566483  0.0001242232094848  0.3615699752150188
  0.0825103032284148  0.8750254737423944  0.3682632263484997
  0.4177869272053795  0.8750715218350422  0.3685777727744515
 -0.0001183045033569  0.0001278428894182  0.4796585574230707
  0.3319157456404649  0.8751016082834111  0.4782751583207180
  0.1678494646358844  0.8749989614075133  0.4778620590587045
  0.2499100431042944 -0.0029472719771831  0.5927312915991357
  0.0834687320050421  0.8738463207765007  0.5887861800026679
  0.4172562685248209  0.8750057397052051  0.5892456556262143
 -0.0036784283092783 -0.0003909126380788  0.7017027127772092
  0.3376290377734250  0.8727167693446911  0.7040771559024456
  0.1670850839062303  0.8857418016840070  0.7051245469141545
  0.5000441758547579 -0.0001755141797852  0.2548747232978956
  0.8333191124297300  0.1250000003211298  0.2638125327755755
  0.6667977441468592  0.1250000003211298  0.2638531205541063
  0.7500745068639135  0.2500871270008265  0.3616053288029387
  0.5829316768676883  0.1250000003211298  0.3684626187449896
  0.9175215024495291  0.1250000003211298  0.3682867811084654
  0.5000801899919592  0.2501487462318712  0.4797740402970748
  0.8323843921287974  0.1250000003211298  0.4780805736198979
  0.6677972173593993  0.1250000003211298  0.4784567554908215
  0.7500836644007932  0.2498599033342265  0.5912115006817813
  0.5839730985125666  0.1250000003211298  0.5900884677356912
  0.9165505829695512  0.1250000003211298  0.5899644547075961
  0.5006435150003407  0.2507282991430350  0.7019477117086299
  0.8338289418020560  0.1250000003211298  0.7049513246522410
  0.6639363718539200  0.1250000003211298  0.7041629455805583
  0.5000441758547579  0.2501755139656988  0.2548747232978956
  0.8332943135105041  0.3750331161267691  0.2638146760087573
  0.6666077067354650  0.3750077873632325  0.2637651097328646
  0.7501631261798012  0.4999549880354307  0.3616915459032353
  0.5827131189045828  0.3749845346819562  0.3684802334367423
  0.9175735352765758  0.3750405653944740  0.3683531547955872
  0.5003005347470941  0.4998700270738007  0.4797357010016556
  0.8325752213153104  0.3750478040623176  0.4781026957587284
  0.6677787012394348  0.3750345377224376  0.4782173932191728
  0.7500943836865823  0.5001486161674085  0.5910330479633600
  0.5841689939773073  0.3751471414760064  0.5900136611522224
  0.9159121024520038  0.3750632103070308  0.5899874890536052
  0.5011092048084776  0.5003165282320681  0.7022430282309259
  0.8352296436201043  0.3753543376783457  0.7044006356337383
  0.6644008718881969  0.3748629670477390  0.7047271078065055
  0.5000906567094054  0.4998309704259071  0.2547494100629613
  0.8334569428437827  0.6249999998929567  0.2637174453889523
  0.6666103629358698  0.6249999998929567  0.2638644722681726
  0.7501631261798012  0.7500450126068292  0.3616915459032353
  0.5827114720366057  0.6249999998929567  0.3684803812515017
  0.9177221339573840  0.6249999998929567  0.3682880827204336
  0.5003005347470941  0.7501299735684591  0.4797357010016556
  0.8324654591595022  0.6249999998929567  0.4781013862013105
  0.6677776480662188  0.6249999998929567  0.4782443039562087
  0.7500943836865823  0.7498513844748512  0.5910330479633600
  0.5844213204713813  0.6249999998929567  0.5900095344471107
  0.9163651828029068  0.6249999998929567  0.5899842319101671
  0.5011092048084776  0.7496834724101916  0.7022430282309259
  0.8357033546935495  0.6249999998929567  0.7044285089724394
  0.6651864003857797  0.6249999998929567  0.7046800694800013
  0.5000906567094054  0.7501690302163526  0.2547494100629613
  0.8332943135105041  0.8749668845154905  0.2638146760087573
  0.6666077067354650  0.8749922132790271  0.2637651097328646
  0.7500745068639135 -0.0000871272149129  0.3616053288029387
  0.5827131189045828  0.8750154659603033  0.3684802334367423
  0.9175735352765758  0.8749594352477854  0.3683531547955872
  0.5000801899919592 -0.0001487464459577  0.4797740402970748
  0.8325752213153104  0.8749521965799423  0.4781026957587284
  0.6677787012394348  0.8749654629198221  0.4782173932191728
  0.7500836644007932  0.0001400964516869  0.5912115006817813
  0.5841689939773073  0.8748528591662532  0.5900136611522224
  0.9159121024520038  0.8749367903352285  0.5899874890536052
  0.5006435150003407 -0.0007282993571214  0.7019477117086299
  0.8352296436201043  0.8746456629639139  0.7044006356337383
  0.6644008718881969  0.8751370335945203  0.7047271078065055
  0.4068901596790527  0.0000282914646380  0.3012736084542181
  0.2501954376283004  0.0001013220534093  0.2574821690712963
  0.0933746671099244  0.0001177932456912  0.3010756914060863
  0.1546030302313470  0.2500188502578587  0.4097224162103179
  0.0000363863483303  0.2500643614247003  0.3929842849796639
  0.3457506680886466  0.2499899327641863  0.4101176960306826
  0.4009700225105608  0.2499391436475757  0.5217847019152767
  0.2498241272926537  0.2495566882797983  0.5039697951053221
  0.0992619435287673  0.2501078849804712  0.5215653021307327
  0.1498196045967188  0.2523676572248136  0.6325840675206486
  0.0000718222411909  0.2511031294330801  0.6130675632388199
  0.3491095128654385  0.2496898640468037  0.6330427241112276
  0.4042983855809103  0.2485989485117323  0.7401857062415313
  0.2550602814056949  0.2570380242614157  0.7226489532965703
  0.0928208501186347  0.2517297532486811  0.7391744553459759
  0.4068901596790527  0.2499717083212755  0.3012736084542181
  0.2501954376283004  0.2498986777325043  0.2574821690712963
  0.0933746671099244  0.2498822065402223  0.3010756914060863
  0.1545903317266566  0.4999806935293032  0.4096818200550671
  0.0001684976303501  0.5000432159220914  0.3928459079366480
  0.3457997398997851  0.4999359882071404  0.4100410200203427
  0.4011715394090393  0.4998060624345487  0.5217342235390984
  0.2499499233539940  0.5000555789120253  0.5033173653577611
  0.0991083386657331  0.5004249374567595  0.5214735647197554
  0.1514109069366040  0.4996839162826894  0.6328671732115275
  0.0003238888222203  0.5004826102357873  0.6140498573061435
  0.3493038359928579  0.5001414436051147  0.6329410563770613
  0.4051847524211717  0.5012323720117691  0.7409987488449872
  0.2513545528507612  0.5001790320270298  0.7226060512475040
  0.0991080023145901  0.4977530758183422  0.7401002210971199
  0.4069756821708595  0.4998551848447842  0.3012092275495464
  0.2502407259045781  0.4999648789897645  0.2570761309952864
  0.0933636746474658  0.4999550989956240  0.3009411069050650
  0.1545903317266566  0.7500193071129561  0.4096818200550671
  0.0001684976303501  0.7499567847201680  0.3928459079366480
  0.3457997398997851  0.7500640124351194  0.4100410200203427
  0.4011715394090393  0.7501939382077115  0.5217342235390984
  0.2499499233539940  0.7499444217302345  0.5033173653577611
  0.0991083386657331  0.7495750631855000  0.5214735647197554
  0.1514109069366040  0.7503160843595702  0.6328671732115275
  0.0003238888222203  0.7495173904064723  0.6140498573061435
  0.3493038359928579  0.7498585570371447  0.6329410563770613
  0.4051847524211717  0.7487676286304904  0.7409987488449872
  0.2513545528507612  0.7498209686152296  0.7226060512475040
  0.0991080023145901  0.7522469248239172  0.7401002210971199
  0.4069756821708595  0.7501448157974752  0.3012092275495464
  0.2502407259045781  0.7500351216524949  0.2570761309952864
  0.0933636746474658  0.7500449016466356  0.3009411069050650
  0.1546030302313470 -0.0000188504719454  0.4097224162103179
  0.0000363863483303 -0.0000643616387871  0.3929842849796639
  0.3457506680886466  0.0000100670217271  0.4101176960306826
  0.4009700225105608  0.0000608561383379  0.5217847019152767
  0.2498241272926537  0.0004433115061151  0.5039697951053221
  0.0992619435287673 -0.0001078851945577  0.5215653021307327
  0.1498196045967188 -0.0023676574389002  0.6325840675206486
  0.0000718222411909 -0.0011031296471666  0.6130675632388199
  0.3491095128654385  0.0003101357391099  0.6330427241112276
  0.4042983855809103  0.0014010512741812  0.7401857062415313
  0.2550602814056949 -0.0070380244755024  0.7226489532965703
  0.0928208501186347 -0.0017297534627677  0.7391744553459759
  0.9069214671275306 -0.0000583012946438  0.3010439505541834
  0.7500142077033388 -0.0000563554222309  0.2572767911861499
  0.5932388418514453  0.0000118476353711  0.3011847095597909
  0.6545348633210915  0.2500283549016983  0.4100448358331432
  0.5002346588007687  0.2499754223783285  0.3931103216948112
  0.8457305696135027  0.2499573928358075  0.4098800869007219
  0.9009487996577724  0.2499144517509783  0.5219808280630629
  0.7501949107271841  0.2501620268496790  0.5030341825812691
  0.5991391045435098  0.2500220078573575  0.5219728243623356
  0.6517152856968136  0.2501535367667888  0.6334312287931125
  0.4999388351296409  0.2498659785389192  0.6132633761606938
  0.8482674881469230  0.2498017309756024  0.6335327876511350
  0.9006869930773095  0.2495489098834989  0.7417576975319401
  0.7489666507569785  0.2499476380675293  0.7238265753240093
  0.5964393224106704  0.2503392895545088  0.7409943808739610
  0.9069214671275306  0.2500583010805572  0.3010439505541834
  0.7500142077033388  0.2500563552081442  0.2572767911861499
  0.5932388418514453  0.2499881521505425  0.3011847095597909
  0.6544809131530746  0.4999229518856310  0.4099978922981951
  0.5001819272392964  0.5000084084843760  0.3930636242593452
  0.8458604557954056  0.5000133329003555  0.4098643880149445
  0.9011895167590047  0.5001852833696260  0.5220679396024464
  0.7502161776744823  0.4999368120855717  0.5028582372964778
  0.5992880562657958  0.4999990065761658  0.5221197136745547
  0.6520024308348389  0.4999626729972012  0.6335770013381403
  0.5004862150701299  0.5001414726549337  0.6133234743768518
  0.8481103829870833  0.5003526094551504  0.6332711996958441
  0.9040401333597832  0.5003132657131106  0.7403605876961533
  0.7503856480161440  0.4998593548637386  0.7240323085993312
  0.5975640323364325  0.5003719674309156  0.7411875500977517
  0.9069464377236645  0.5000173130013150  0.3010418633364679
  0.7499725207663408  0.5000509166650756  0.2576046674044137
  0.5932160290805275  0.4999431613608143  0.3012327428064152
  0.6544809131530746  0.7500770487566283  0.4099978922981951
  0.5001819272392964  0.7499915921578838  0.3930636242593452
  0.8458604557954056  0.7499866677419039  0.4098643880149445
  0.9011895167590047  0.7498147172726336  0.5220679396024464
  0.7502161776744823  0.7500631885566881  0.5028582372964778
  0.5992880562657958  0.7500009940660936  0.5221197136745547
  0.6520024308348389  0.7500373276450585  0.6335770013381403
  0.5004862150701299  0.7498585279873260  0.6133234743768518
  0.8481103829870833  0.7496473911871092  0.6332711996958441
  0.9040401333597832  0.7496867349291491  0.7403605876961533
  0.7503856480161440  0.7501406457785209  0.7240323085993312
  0.5975640323364325  0.7496280332113440  0.7411875500977517
  0.9069464377236645  0.7499826876409446  0.3010418633364679
  0.7499725207663408  0.7499490839771837  0.2576046674044137
  0.5932160290805275  0.7500568392814447  0.3012327428064152
  0.6545348633210915 -0.0000283551157848  0.4100448358331432
  0.5002346588007687  0.0000245774075850  0.3931103216948112
  0.8457305696135027  0.0000426069501060  0.4098800869007219
  0.9009487996577724  0.0000855480349352  0.5219808280630629
  0.7501949107271841 -0.0001620270637655  0.5030341825812691
  0.5991391045435098 -0.0000220080714440  0.5219728243623356
  0.6517152856968136 -0.0001535369808754  0.6334312287931125
  0.4999388351296409  0.0001340212469942  0.6132633761606938
  0.8482674881469230  0.0001982688103111  0.6335327876511350
  0.9006869930773096  0.0004510899024145  0.7417576975319401
  0.7489666507569785  0.0000523617183842  0.7238265753240093
  0.5964393224106704 -0.0003392897685953  0.7409943808739610
  0.1250849564796255  0.1250000003211298  0.6930884915006530
 
  0.00000000E+00  0.00000000E+00  0.00000000E+00
  0.00000000E+00  0.00000000E+00  0.00000000E+00
  0.00000000E+00  0.00000000E+00  0.00000000E+00
  0.00000000E+00  0.00000000E+00  0.00000000E+00
  0.00000000E+00  0.00000000E+00  0.00000000E+00
  0.00000000E+00  0.00000000E+00  0.00000000E+00
  0.00000000E+00  0.00000000E+00  0.00000000E+00
  0.00000000E+00  0.00000000E+00  0.00000000E+00
  0.00000000E+00  0.00000000E+00  0.00000000E+00
  0.00000000E+00  0.00000000E+00  0.00000000E+00
  0.00000000E+00  0.00000000E+00  0.00000000E+00
  0.00000000E+00  0.00000000E+00  0.00000000E+00
  0.00000000E+00  0.00000000E+00  0.00000000E+00
  0.00000000E+00  0.00000000E+00  0.00000000E+00
  0.00000000E+00  0.00000000E+00  0.00000000E+00
  0.00000000E+00  0.00000000E+00  0.00000000E+00
  0.00000000E+00  0.00000000E+00  0.00000000E+00
  0.00000000E+00  0.00000000E+00  0.00000000E+00
  0.00000000E+00  0.00000000E+00  0.00000000E+00
  0.00000000E+00  0.00000000E+00  0.00000000E+00
  0.00000000E+00  0.00000000E+00  0.00000000E+00
  0.00000000E+00  0.00000000E+00  0.00000000E+00
  0.00000000E+00  0.00000000E+00  0.00000000E+00
  0.00000000E+00  0.00000000E+00  0.00000000E+00
  0.00000000E+00  0.00000000E+00  0.00000000E+00
  0.00000000E+00  0.00000000E+00  0.00000000E+00
  0.00000000E+00  0.00000000E+00  0.00000000E+00
  0.00000000E+00  0.00000000E+00  0.00000000E+00
  0.00000000E+00  0.00000000E+00  0.00000000E+00
  0.00000000E+00  0.00000000E+00  0.00000000E+00
  0.00000000E+00  0.00000000E+00  0.00000000E+00
  0.00000000E+00  0.00000000E+00  0.00000000E+00
  0.00000000E+00  0.00000000E+00  0.00000000E+00
  0.00000000E+00  0.00000000E+00  0.00000000E+00
  0.00000000E+00  0.00000000E+00  0.00000000E+00
  0.00000000E+00  0.00000000E+00  0.00000000E+00
  0.00000000E+00  0.00000000E+00  0.00000000E+00
  0.00000000E+00  0.00000000E+00  0.00000000E+00
  0.00000000E+00  0.00000000E+00  0.00000000E+00
  0.00000000E+00  0.00000000E+00  0.00000000E+00
  0.00000000E+00  0.00000000E+00  0.00000000E+00
  0.00000000E+00  0.00000000E+00  0.00000000E+00
  0.00000000E+00  0.00000000E+00  0.00000000E+00
  0.00000000E+00  0.00000000E+00  0.00000000E+00
  0.00000000E+00  0.00000000E+00  0.00000000E+00
  0.00000000E+00  0.00000000E+00  0.00000000E+00
  0.00000000E+00  0.00000000E+00  0.00000000E+00
  0.00000000E+00  0.00000000E+00  0.00000000E+00
  0.00000000E+00  0.00000000E+00  0.00000000E+00
  0.00000000E+00  0.00000000E+00  0.00000000E+00
  0.00000000E+00  0.00000000E+00  0.00000000E+00
  0.00000000E+00  0.00000000E+00  0.00000000E+00
  0.00000000E+00  0.00000000E+00  0.00000000E+00
  0.00000000E+00  0.00000000E+00  0.00000000E+00
  0.00000000E+00  0.00000000E+00  0.00000000E+00
  0.00000000E+00  0.00000000E+00  0.00000000E+00
  0.00000000E+00  0.00000000E+00  0.00000000E+00
  0.00000000E+00  0.00000000E+00  0.00000000E+00
  0.00000000E+00  0.00000000E+00  0.00000000E+00
  0.00000000E+00  0.00000000E+00  0.00000000E+00
  0.00000000E+00  0.00000000E+00  0.00000000E+00
  0.00000000E+00  0.00000000E+00  0.00000000E+00
  0.00000000E+00  0.00000000E+00  0.00000000E+00
  0.00000000E+00  0.00000000E+00  0.00000000E+00
  0.00000000E+00  0.00000000E+00  0.00000000E+00
  0.00000000E+00  0.00000000E+00  0.00000000E+00
  0.00000000E+00  0.00000000E+00  0.00000000E+00
  0.00000000E+00  0.00000000E+00  0.00000000E+00
  0.00000000E+00  0.00000000E+00  0.00000000E+00
  0.00000000E+00  0.00000000E+00  0.00000000E+00
  0.00000000E+00  0.00000000E+00  0.00000000E+00
  0.00000000E+00  0.00000000E+00  0.00000000E+00
  0.00000000E+00  0.00000000E+00  0.00000000E+00
  0.00000000E+00  0.00000000E+00  0.00000000E+00
  0.00000000E+00  0.00000000E+00  0.00000000E+00
  0.00000000E+00  0.00000000E+00  0.00000000E+00
  0.00000000E+00  0.00000000E+00  0.00000000E+00
  0.00000000E+00  0.00000000E+00  0.00000000E+00
  0.00000000E+00  0.00000000E+00  0.00000000E+00
  0.00000000E+00  0.00000000E+00  0.00000000E+00
  0.00000000E+00  0.00000000E+00  0.00000000E+00
  0.00000000E+00  0.00000000E+00  0.00000000E+00
  0.00000000E+00  0.00000000E+00  0.00000000E+00
  0.00000000E+00  0.00000000E+00  0.00000000E+00
  0.00000000E+00  0.00000000E+00  0.00000000E+00
  0.00000000E+00  0.00000000E+00  0.00000000E+00
  0.00000000E+00  0.00000000E+00  0.00000000E+00
  0.00000000E+00  0.00000000E+00  0.00000000E+00
  0.00000000E+00  0.00000000E+00  0.00000000E+00
  0.00000000E+00  0.00000000E+00  0.00000000E+00
  0.00000000E+00  0.00000000E+00  0.00000000E+00
  0.00000000E+00  0.00000000E+00  0.00000000E+00
  0.00000000E+00  0.00000000E+00  0.00000000E+00
  0.00000000E+00  0.00000000E+00  0.00000000E+00
  0.00000000E+00  0.00000000E+00  0.00000000E+00
  0.00000000E+00  0.00000000E+00  0.00000000E+00
  0.00000000E+00  0.00000000E+00  0.00000000E+00
  0.00000000E+00  0.00000000E+00  0.00000000E+00
  0.00000000E+00  0.00000000E+00  0.00000000E+00
  0.00000000E+00  0.00000000E+00  0.00000000E+00
  0.00000000E+00  0.00000000E+00  0.00000000E+00
  0.00000000E+00  0.00000000E+00  0.00000000E+00
  0.00000000E+00  0.00000000E+00  0.00000000E+00
  0.00000000E+00  0.00000000E+00  0.00000000E+00
  0.00000000E+00  0.00000000E+00  0.00000000E+00
  0.00000000E+00  0.00000000E+00  0.00000000E+00
  0.00000000E+00  0.00000000E+00  0.00000000E+00
  0.00000000E+00  0.00000000E+00  0.00000000E+00
  0.00000000E+00  0.00000000E+00  0.00000000E+00
  0.00000000E+00  0.00000000E+00  0.00000000E+00
  0.00000000E+00  0.00000000E+00  0.00000000E+00
  0.00000000E+00  0.00000000E+00  0.00000000E+00
  0.00000000E+00  0.00000000E+00  0.00000000E+00
  0.00000000E+00  0.00000000E+00  0.00000000E+00
  0.00000000E+00  0.00000000E+00  0.00000000E+00
  0.00000000E+00  0.00000000E+00  0.00000000E+00
  0.00000000E+00  0.00000000E+00  0.00000000E+00
  0.00000000E+00  0.00000000E+00  0.00000000E+00
  0.00000000E+00  0.00000000E+00  0.00000000E+00
  0.00000000E+00  0.00000000E+00  0.00000000E+00
  0.00000000E+00  0.00000000E+00  0.00000000E+00
  0.00000000E+00  0.00000000E+00  0.00000000E+00
  0.00000000E+00  0.00000000E+00  0.00000000E+00
  0.00000000E+00  0.00000000E+00  0.00000000E+00
  0.00000000E+00  0.00000000E+00  0.00000000E+00
  0.00000000E+00  0.00000000E+00  0.00000000E+00
  0.00000000E+00  0.00000000E+00  0.00000000E+00
  0.00000000E+00  0.00000000E+00  0.00000000E+00
  0.00000000E+00  0.00000000E+00  0.00000000E+00
  0.00000000E+00  0.00000000E+00  0.00000000E+00
  0.00000000E+00  0.00000000E+00  0.00000000E+00
  0.00000000E+00  0.00000000E+00  0.00000000E+00
  0.00000000E+00  0.00000000E+00  0.00000000E+00
  0.00000000E+00  0.00000000E+00  0.00000000E+00
  0.00000000E+00  0.00000000E+00  0.00000000E+00
  0.00000000E+00  0.00000000E+00  0.00000000E+00
  0.00000000E+00  0.00000000E+00  0.00000000E+00
  0.00000000E+00  0.00000000E+00  0.00000000E+00
  0.00000000E+00  0.00000000E+00  0.00000000E+00
  0.00000000E+00  0.00000000E+00  0.00000000E+00
  0.00000000E+00  0.00000000E+00  0.00000000E+00
  0.00000000E+00  0.00000000E+00  0.00000000E+00
  0.00000000E+00  0.00000000E+00  0.00000000E+00
  0.00000000E+00  0.00000000E+00  0.00000000E+00
  0.00000000E+00  0.00000000E+00  0.00000000E+00
  0.00000000E+00  0.00000000E+00  0.00000000E+00
  0.00000000E+00  0.00000000E+00  0.00000000E+00
  0.00000000E+00  0.00000000E+00  0.00000000E+00
  0.00000000E+00  0.00000000E+00  0.00000000E+00
  0.00000000E+00  0.00000000E+00  0.00000000E+00
  0.00000000E+00  0.00000000E+00  0.00000000E+00
  0.00000000E+00  0.00000000E+00  0.00000000E+00
  0.00000000E+00  0.00000000E+00  0.00000000E+00
  0.00000000E+00  0.00000000E+00  0.00000000E+00
  0.00000000E+00  0.00000000E+00  0.00000000E+00
  0.00000000E+00  0.00000000E+00  0.00000000E+00
  0.00000000E+00  0.00000000E+00  0.00000000E+00
  0.00000000E+00  0.00000000E+00  0.00000000E+00
  0.00000000E+00  0.00000000E+00  0.00000000E+00
  0.00000000E+00  0.00000000E+00  0.00000000E+00
  0.00000000E+00  0.00000000E+00  0.00000000E+00
  0.00000000E+00  0.00000000E+00  0.00000000E+00
  0.00000000E+00  0.00000000E+00  0.00000000E+00
  0.00000000E+00  0.00000000E+00  0.00000000E+00
  0.00000000E+00  0.00000000E+00  0.00000000E+00
  0.00000000E+00  0.00000000E+00  0.00000000E+00
  0.00000000E+00  0.00000000E+00  0.00000000E+00
  0.00000000E+00  0.00000000E+00  0.00000000E+00
  0.00000000E+00  0.00000000E+00  0.00000000E+00
  0.00000000E+00  0.00000000E+00  0.00000000E+00
  0.00000000E+00  0.00000000E+00  0.00000000E+00
  0.00000000E+00  0.00000000E+00  0.00000000E+00
  0.00000000E+00  0.00000000E+00  0.00000000E+00
  0.00000000E+00  0.00000000E+00  0.00000000E+00
  0.00000000E+00  0.00000000E+00  0.00000000E+00
  0.00000000E+00  0.00000000E+00  0.00000000E+00
  0.00000000E+00  0.00000000E+00  0.00000000E+00
  0.00000000E+00  0.00000000E+00  0.00000000E+00
  0.00000000E+00  0.00000000E+00  0.00000000E+00
  0.00000000E+00  0.00000000E+00  0.00000000E+00
  0.00000000E+00  0.00000000E+00  0.00000000E+00
  0.00000000E+00  0.00000000E+00  0.00000000E+00
  0.00000000E+00  0.00000000E+00  0.00000000E+00
  0.00000000E+00  0.00000000E+00  0.00000000E+00
  0.00000000E+00  0.00000000E+00  0.00000000E+00
  0.00000000E+00  0.00000000E+00  0.00000000E+00
  0.00000000E+00  0.00000000E+00  0.00000000E+00
  0.00000000E+00  0.00000000E+00  0.00000000E+00
  0.00000000E+00  0.00000000E+00  0.00000000E+00
  0.00000000E+00  0.00000000E+00  0.00000000E+00
  0.00000000E+00  0.00000000E+00  0.00000000E+00
  0.00000000E+00  0.00000000E+00  0.00000000E+00
  0.00000000E+00  0.00000000E+00  0.00000000E+00
  0.00000000E+00  0.00000000E+00  0.00000000E+00
  0.00000000E+00  0.00000000E+00  0.00000000E+00
  0.00000000E+00  0.00000000E+00  0.00000000E+00
  0.00000000E+00  0.00000000E+00  0.00000000E+00
  0.00000000E+00  0.00000000E+00  0.00000000E+00
  0.00000000E+00  0.00000000E+00  0.00000000E+00
  0.00000000E+00  0.00000000E+00  0.00000000E+00
  0.00000000E+00  0.00000000E+00  0.00000000E+00
  0.00000000E+00  0.00000000E+00  0.00000000E+00
  0.00000000E+00  0.00000000E+00  0.00000000E+00
  0.00000000E+00  0.00000000E+00  0.00000000E+00
  0.00000000E+00  0.00000000E+00  0.00000000E+00
  0.00000000E+00  0.00000000E+00  0.00000000E+00
  0.00000000E+00  0.00000000E+00  0.00000000E+00
  0.00000000E+00  0.00000000E+00  0.00000000E+00
  0.00000000E+00  0.00000000E+00  0.00000000E+00
  0.00000000E+00  0.00000000E+00  0.00000000E+00
  0.00000000E+00  0.00000000E+00  0.00000000E+00
  0.00000000E+00  0.00000000E+00  0.00000000E+00
  0.00000000E+00  0.00000000E+00  0.00000000E+00
  0.00000000E+00  0.00000000E+00  0.00000000E+00
  0.00000000E+00  0.00000000E+00  0.00000000E+00
  0.00000000E+00  0.00000000E+00  0.00000000E+00
  0.00000000E+00  0.00000000E+00  0.00000000E+00
  0.00000000E+00  0.00000000E+00  0.00000000E+00
  0.00000000E+00  0.00000000E+00  0.00000000E+00
  0.00000000E+00  0.00000000E+00  0.00000000E+00
  0.00000000E+00  0.00000000E+00  0.00000000E+00
  0.00000000E+00  0.00000000E+00  0.00000000E+00
  0.00000000E+00  0.00000000E+00  0.00000000E+00
  0.00000000E+00  0.00000000E+00  0.00000000E+00
  0.00000000E+00  0.00000000E+00  0.00000000E+00
  0.00000000E+00  0.00000000E+00  0.00000000E+00
  0.00000000E+00  0.00000000E+00  0.00000000E+00
  0.00000000E+00  0.00000000E+00  0.00000000E+00
  0.00000000E+00  0.00000000E+00  0.00000000E+00
  0.00000000E+00  0.00000000E+00  0.00000000E+00
  0.00000000E+00  0.00000000E+00  0.00000000E+00
  0.00000000E+00  0.00000000E+00  0.00000000E+00
  0.00000000E+00  0.00000000E+00  0.00000000E+00
  0.00000000E+00  0.00000000E+00  0.00000000E+00
  0.00000000E+00  0.00000000E+00  0.00000000E+00
  0.00000000E+00  0.00000000E+00  0.00000000E+00
  0.00000000E+00  0.00000000E+00  0.00000000E+00
  0.00000000E+00  0.00000000E+00  0.00000000E+00
  0.00000000E+00  0.00000000E+00  0.00000000E+00
  0.00000000E+00  0.00000000E+00  0.00000000E+00
