Mo  S Cu                                
   1.00000000000000     
    15.9214998300000001    0.0000000000000000    0.0000000000000000
    -7.9622501300000001   13.7910221699999997    0.0000000000000000
     0.0000000000000000    0.0000000000000000   13.5821998300000004
   Mo   S    Cu
    25    49     4
Direct
  0.1352952285785356  0.0680442863262861  0.6765564322721744
  0.1380110732884653  0.2682644669550522  0.6725621145467349
  0.1353308371709418  0.4659426124550263  0.6765467808760439
  0.1342201966313175  0.6662769085880212  0.6788974703153887
  0.1342125811630488  0.8666252280118585  0.6789060824611213
  0.3340605694175369  0.0669719924797835  0.6786674688821789
  0.3305093396387496  0.2646330071810489  0.6715984318529744
  0.3307141999334705  0.4647809616477528  0.6713689877884023
  0.3340699360411977  0.6658123414457755  0.6785756467229052
  0.3341208480779153  0.8664169478720950  0.6798844276519519
  0.5343903496470362  0.0663644699750923  0.6804589318185015
  0.5343692289329556  0.2653409568500765  0.6790144905314988
  0.5334142366270699  0.4660730672569351  0.6771822166332033
  0.5344188109476199  0.6677732645579842  0.6788776220999350
  0.5343998315545850  0.8667488493711720  0.6804011314878450
  0.7351009251755425  0.0669029280709097  0.6808481019612441
  0.7350138418150937  0.2666674054667428  0.6805116439302591
  0.7339199695776164  0.4662256091357349  0.6793834230476259
  0.7339265504330968  0.6663925444057179  0.6793306479439348
  0.7350222022981759  0.8670540099546978  0.6804374605406962
  0.9360175088706124  0.0678032488764208  0.6795504178771649
  0.9360338016395130  0.2668995477712446  0.6795796999698381
  0.9344249045194789  0.4662787614581559  0.6792869360247991
  0.9340612562711221  0.6663712186911722  0.6791990001451851
  0.9344155979686178  0.8668231127323603  0.6792482471138083
  0.0671714372686794  0.1335914055433684  0.5609160123040765
  0.0746065338354824  0.1393614490089820  0.7918231458007873
  0.0671971404230901  0.3322635200023747  0.5609560255886638
  0.0746847455784984  0.3338980104196588  0.7917993805463110
  0.0671531067277684  0.5331283050549572  0.5634281323567379
  0.0685829572961868  0.5322346876719921  0.7929252141012626
  0.0673701796225189  0.7330281491772018  0.5640086988020956
  0.0675923049945944  0.7331366332427040  0.7939754112671763
  0.0671635581244512  0.9327051236362452  0.5634098324306497
  0.0685398623532861  0.9349996071710251  0.7929207190308140
  0.2679452765478864  0.1321248223438630  0.5598384100721464
  0.2668750755660458  0.1374148643438076  0.7921039446574580
  0.2679162961468602  0.3333267165600585  0.5572282016384063
  0.2678924426574137  0.5345733685030551  0.5597194696451583
  0.2669912758996427  0.5281745641110857  0.7919813946926063
  0.2678134015678360  0.7335218285030459  0.5642679218405021
  0.2672184861883035  0.7320420735753320  0.7942368527003306
  0.2678250902201257  0.9330443359568504  0.5643017275484565
  0.2671971982141542  0.9338466274149069  0.7942678784777935
  0.4679539408345278  0.1324946176054311  0.5644590395700936
  0.4668787074482790  0.1328059462658539  0.7945858410951913
  0.4681226068577208  0.3324293608505345  0.5622932488366217
  0.4618436276080438  0.3308252106196040  0.7896242816362601
  0.4682750436232344  0.5344666706390721  0.5621204138981712
  0.4618870247364260  0.5298418356929069  0.7895118828935810
  0.4679641924489850  0.7342155887621726  0.5643586971641308
  0.4668993989636052  0.7327798411568018  0.7944826675666411
  0.4678796842134884  0.9333206542270834  0.5652545928897025
  0.4671980351979332  0.9329382336323437  0.7953751296601576
  0.6681676087342547  0.1331472790600878  0.5657409891592542
  0.6680769346206662  0.1334080794337151  0.7956994947479727
  0.6680802648675414  0.3325554289214188  0.5646425906814687
  0.6673748227690109  0.3330671517921538  0.7947679488363915
  0.6677573871804625  0.5332054570937985  0.5636714565711362
  0.6660896559873902  0.5324149496884366  0.7933304847227820
  0.6681452096130834  0.7342605477729065  0.5645438925770991
  0.6673712386578612  0.7330226005888174  0.7946799907217116
  0.6681826766268497  0.9337687589205930  0.5656925210242195
  0.6680745071717251  0.9333522086844231  0.7956538343829768
  0.8681391407108739  0.1334327225979225  0.5653873101899278
  0.8695693281253706  0.1341218835439986  0.7952282475430625
  0.8679149289227054  0.3326142410169085  0.5649198059767211
  0.8694051767031886  0.3335700063114415  0.7949793415820561
  0.8673155356135028  0.5327936630041805  0.5643596169316600
  0.8675948019753665  0.5330475843805852  0.7942787185003811
  0.8673309413115230  0.7331961430666526  0.5643234262846497
  0.8675797646453723  0.7332402712506072  0.7942470118067102
  0.8679268548982946  0.9339979541207303  0.5648626664654878
  0.8693799253289707  0.9345071855261198  0.7949311989902251
  0.2644502281969012  0.3326461587771291  0.9705184119939206
  0.4106751884990357  0.3289227524678193  0.9377801335673546
  0.4117782186828585  0.4815730047263925  0.9381207223926115
  0.4021719818139991  0.4005506333813648  0.0874132880810730
 
  0.00000000E+00  0.00000000E+00  0.00000000E+00
  0.00000000E+00  0.00000000E+00  0.00000000E+00
  0.00000000E+00  0.00000000E+00  0.00000000E+00
  0.00000000E+00  0.00000000E+00  0.00000000E+00
  0.00000000E+00  0.00000000E+00  0.00000000E+00
  0.00000000E+00  0.00000000E+00  0.00000000E+00
  0.00000000E+00  0.00000000E+00  0.00000000E+00
  0.00000000E+00  0.00000000E+00  0.00000000E+00
  0.00000000E+00  0.00000000E+00  0.00000000E+00
  0.00000000E+00  0.00000000E+00  0.00000000E+00
  0.00000000E+00  0.00000000E+00  0.00000000E+00
  0.00000000E+00  0.00000000E+00  0.00000000E+00
  0.00000000E+00  0.00000000E+00  0.00000000E+00
  0.00000000E+00  0.00000000E+00  0.00000000E+00
  0.00000000E+00  0.00000000E+00  0.00000000E+00
  0.00000000E+00  0.00000000E+00  0.00000000E+00
  0.00000000E+00  0.00000000E+00  0.00000000E+00
  0.00000000E+00  0.00000000E+00  0.00000000E+00
  0.00000000E+00  0.00000000E+00  0.00000000E+00
  0.00000000E+00  0.00000000E+00  0.00000000E+00
  0.00000000E+00  0.00000000E+00  0.00000000E+00
  0.00000000E+00  0.00000000E+00  0.00000000E+00
  0.00000000E+00  0.00000000E+00  0.00000000E+00
  0.00000000E+00  0.00000000E+00  0.00000000E+00
  0.00000000E+00  0.00000000E+00  0.00000000E+00
  0.00000000E+00  0.00000000E+00  0.00000000E+00
  0.00000000E+00  0.00000000E+00  0.00000000E+00
  0.00000000E+00  0.00000000E+00  0.00000000E+00
  0.00000000E+00  0.00000000E+00  0.00000000E+00
  0.00000000E+00  0.00000000E+00  0.00000000E+00
  0.00000000E+00  0.00000000E+00  0.00000000E+00
  0.00000000E+00  0.00000000E+00  0.00000000E+00
  0.00000000E+00  0.00000000E+00  0.00000000E+00
  0.00000000E+00  0.00000000E+00  0.00000000E+00
  0.00000000E+00  0.00000000E+00  0.00000000E+00
  0.00000000E+00  0.00000000E+00  0.00000000E+00
  0.00000000E+00  0.00000000E+00  0.00000000E+00
  0.00000000E+00  0.00000000E+00  0.00000000E+00
  0.00000000E+00  0.00000000E+00  0.00000000E+00
  0.00000000E+00  0.00000000E+00  0.00000000E+00
  0.00000000E+00  0.00000000E+00  0.00000000E+00
  0.00000000E+00  0.00000000E+00  0.00000000E+00
  0.00000000E+00  0.00000000E+00  0.00000000E+00
  0.00000000E+00  0.00000000E+00  0.00000000E+00
  0.00000000E+00  0.00000000E+00  0.00000000E+00
  0.00000000E+00  0.00000000E+00  0.00000000E+00
  0.00000000E+00  0.00000000E+00  0.00000000E+00
  0.00000000E+00  0.00000000E+00  0.00000000E+00
  0.00000000E+00  0.00000000E+00  0.00000000E+00
  0.00000000E+00  0.00000000E+00  0.00000000E+00
  0.00000000E+00  0.00000000E+00  0.00000000E+00
  0.00000000E+00  0.00000000E+00  0.00000000E+00
  0.00000000E+00  0.00000000E+00  0.00000000E+00
  0.00000000E+00  0.00000000E+00  0.00000000E+00
  0.00000000E+00  0.00000000E+00  0.00000000E+00
  0.00000000E+00  0.00000000E+00  0.00000000E+00
  0.00000000E+00  0.00000000E+00  0.00000000E+00
  0.00000000E+00  0.00000000E+00  0.00000000E+00
  0.00000000E+00  0.00000000E+00  0.00000000E+00
  0.00000000E+00  0.00000000E+00  0.00000000E+00
  0.00000000E+00  0.00000000E+00  0.00000000E+00
  0.00000000E+00  0.00000000E+00  0.00000000E+00
  0.00000000E+00  0.00000000E+00  0.00000000E+00
  0.00000000E+00  0.00000000E+00  0.00000000E+00
  0.00000000E+00  0.00000000E+00  0.00000000E+00
  0.00000000E+00  0.00000000E+00  0.00000000E+00
  0.00000000E+00  0.00000000E+00  0.00000000E+00
  0.00000000E+00  0.00000000E+00  0.00000000E+00
  0.00000000E+00  0.00000000E+00  0.00000000E+00
  0.00000000E+00  0.00000000E+00  0.00000000E+00
  0.00000000E+00  0.00000000E+00  0.00000000E+00
  0.00000000E+00  0.00000000E+00  0.00000000E+00
  0.00000000E+00  0.00000000E+00  0.00000000E+00
  0.00000000E+00  0.00000000E+00  0.00000000E+00
  0.00000000E+00  0.00000000E+00  0.00000000E+00
  0.00000000E+00  0.00000000E+00  0.00000000E+00
  0.00000000E+00  0.00000000E+00  0.00000000E+00
  0.00000000E+00  0.00000000E+00  0.00000000E+00
