Ta  N Co Cu                             
   1.00000000000000     
    18.1096308199999996    0.0000000000000000    0.0000000000000000
     0.0000000000000000   23.3551997799999995    0.0000000000000000
     0.0000000000000000    0.0000000000000000   30.4818171199999988
   Ta   N    Co   Cu
   216   240    24     4
Direct
  0.0021175457516307  0.9990297352028392  0.1984054096540433
  0.3358683363410861  0.0614648433057496  0.2031765954964726
  0.1678420971546686  0.0614449197984115  0.2032112788692615
  0.2521377834084220  0.1240472689751826  0.2786007403859756
  0.0851478318801142  0.0616553905376875  0.2846768395482115
  0.4192411804248337  0.0616645199608072  0.2844866496769001
  0.0025297444049528  0.1241178316173119  0.3700097926217154
  0.3333922431466121  0.0616169118151575  0.3692278617518241
  0.1709069487135437  0.0616245685071348  0.3694346313853245
  0.2518835472252547  0.1266781036459506  0.4601723927716321
  0.0851927826402559  0.0613406788837167  0.4539624739555492
  0.4190921039331883  0.0614037342938900  0.4538554370509118
  0.0005269106393300  0.1300762816364696  0.5421742986130127
  0.3405510105480118  0.0675071141429484  0.5478274533473950
  0.1619776430578952  0.0676376570296000  0.5479883794419962
  0.0020938918458526  0.1242527227689791  0.1982149147282826
  0.3361084175400464  0.1865541686052055  0.2028712247908899
  0.1674937925403057  0.1866221738056950  0.2029417159572375
  0.2520277314551862  0.2490162994171428  0.2782712470651489
  0.0851820288676990  0.1866016552613274  0.2846268799546010
  0.4193781499191971  0.1865293301071986  0.2843439787155830
  0.0027323423933652  0.2486904999017483  0.3695757293834276
  0.3337226476197799  0.1865644427842525  0.3690972513945283
  0.1706626893656349  0.1866846567914209  0.3693691588120274
  0.2521390797064527  0.2487360613163361  0.4604146535649392
  0.0865807963276026  0.1866510441849059  0.4549657772874198
  0.4179066425546267  0.1868535721824216  0.4548101302880951
  0.0003124219680757  0.2556583359389677  0.5401745919110397
  0.0021730360474734  0.2489229890596789  0.1981581522782108
  0.3352646960936028  0.3117278892271855  0.2029072971355177
  0.1680948234101436  0.3118283153232539  0.2030350106549434
  0.2516663699729378  0.3742753771346727  0.2782335628573165
  0.0852789681718775  0.3117136404557215  0.2845119681796078
  0.4192812163173087  0.3116016071697985  0.2838512402524529
  0.0029626670453027  0.3740671446257764  0.3697177629871788
  0.3338006102900266  0.3114582361876046  0.3679780588831960
  0.1709117345361051  0.3117211292798885  0.3689644956042812
  0.2537622532558146  0.3759375887538567  0.4602121925089975
  0.0857995774743543  0.3115605343893293  0.4526705131083872
  0.4198555455895630  0.3117032364808097  0.4513230207483048
  0.0040840071139172  0.3779510797064063  0.5404238758026381
  0.0020203871446185  0.3745849202845477  0.1984335857755468
  0.3356554421110047  0.4367310976498260  0.2029617875175589
  0.1674817069803964  0.4368115084314965  0.2032473745715109
  0.2521006670396702  0.9992168704546174  0.2787732654068193
  0.0850729801063608  0.4368244550329834  0.2850672804592165
  0.4193581797541128  0.4367459341969422  0.2840992188682705
  0.0022021812409037  0.9992410170575994  0.3697448932058975
  0.3332807139899003  0.4368044099408834  0.3683599470570087
  0.1708889265741647  0.4370382379955657  0.3700789924644425
  0.2517878409885697  0.9998565064304330  0.4628949930431787
  0.0866812160879249  0.4367330112541907  0.4557671779566590
  0.4196319869358476  0.4356728576391262  0.4513108461488073
  0.0014245458218625  0.0016849905456837  0.5441896952247802
  0.0020241680082691  0.4994154911259372  0.1988029214844644
  0.3355904535609611  0.5619363312061907  0.2032035179718861
  0.1674471444217218  0.5620184089635245  0.2035827178132834
  0.2514758998409192  0.6242318027542240  0.2789964304326062
  0.0849212152750880  0.5617206935461141  0.2854728010837988
  0.4192502119957808  0.5617470957270712  0.2844045095809093
  0.0018765082248535  0.6240579573934824  0.3710503207899976
  0.3331976077013010  0.5616962813043003  0.3689430581238469
  0.1706457360007505  0.5616220169591273  0.3704885434423986
  0.2534235581486897  0.6236832690675911  0.4608856980653115
  0.0859000704572068  0.5618194351708965  0.4562904845634677
  0.4186448367249724  0.5619145033731101  0.4532286251027386
  0.0035667942856179  0.6118917345622137  0.5493581486389658
  0.0019064215963311  0.6241041181557065  0.1990239040177570
  0.3353479874884187  0.6866922938456099  0.2034015177452986
  0.1677346277240517  0.6866358317022545  0.2037368687987353
  0.2517147181969293  0.7492566474685916  0.2790542971555894
  0.0847974510890310  0.6866877441063295  0.2854550170852477
  0.4191097874389058  0.6867773918392714  0.2844540268088949
  0.0019878802805522  0.7494098026221536  0.3708395905933273
  0.3335988390262443  0.6868662541461035  0.3689017556971734
  0.1701859904055070  0.6867113891946914  0.3699695980673070
  0.2518294759342510  0.7506799175594878  0.4606310469570118
  0.0844873795294134  0.6866421973724357  0.4543966573474378
  0.4194836279414034  0.6869857125057379  0.4522959973350424
  0.0040496871751969  0.7500321089609727  0.5422832815742069
  0.0019569400525157  0.7491833676722308  0.1989633485415254
  0.3359910839720612  0.8116364457800458  0.2033645355224323
  0.1672585498784258  0.8115511146851304  0.2036085359209707
  0.2519535088205060  0.8742500204257126  0.2789144975833935
  0.0849361658856722  0.8116947482283834  0.2853531619495584
  0.4191938010689071  0.8117997316007362  0.2847653053519892
  0.0021966322209792  0.8742990760156388  0.3705854694189412
  0.3335473324706371  0.8119634268342182  0.3694397354557850
  0.1703020850781627  0.8118453268740708  0.3699977283001417
  0.2517605015346263  0.8729756052219386  0.4601767818399978
  0.0860979262590362  0.8123341360304863  0.4555310383622597
  0.4180632198584036  0.8124845097112754  0.4546600538362924
  0.0025402073074474  0.8708480313109419  0.5425298002433507
  0.0019385758943642  0.8737323791499207  0.1987215655131322
  0.3356753482343464  0.9366259005312756  0.2033775695157729
  0.1678635053283770  0.9365796768879662  0.2034728309901865
  0.2514685527078981  0.4994364287008608  0.2789700791354406
  0.0850756936803947  0.9366361409809727  0.2849215859930894
  0.4192003862447677  0.9366796356854152  0.2846108355803665
  0.0027801845656796  0.4992516001986544  0.3707873918284150
  0.3333644390291468  0.9370524850448163  0.3692969440190339
  0.1708138126500245  0.9370539398624231  0.3695569188554799
  0.2540315297648519  0.4996929781201018  0.4640819092557535
  0.0849762084123284  0.9377430715219077  0.4539288132091883
  0.4191606813312774  0.9377837933286131  0.4537126759230503
  0.9278241650664896  0.4899419164466963  0.5425082817737206
  0.3409211208774394  0.9347411620965502  0.5471314385945760
  0.1626728218591253  0.9346776385705908  0.5474068961629115
  0.5020313057214736  0.9990713052887443  0.1982981958529422
  0.8360603965031146  0.0613066329837793  0.2031962799492177
  0.6681435570623009  0.0613268640558928  0.2031566323752969
  0.7521316846785879  0.1239624084894615  0.2785226493791058
  0.5851082982247817  0.0616382207943857  0.2845391535525863
  0.9193271200364634  0.0615564726523345  0.2845362033423129
  0.5021808407270285  0.1242244590764727  0.3700274527132308
  0.8334042420890668  0.0614042220013431  0.3691609491251526
  0.6708068932799449  0.0614794589530732  0.3692420833761574
  0.7517548226129662  0.1259198307246479  0.4597611572662572
  0.5850000729083220  0.0611720234021078  0.4536336611070979
  0.9191925219616692  0.0612079825126273  0.4539926668799126
  0.5007128923545352  0.1287181261449604  0.5417641515945135
  0.8411337720889378  0.0683809690848065  0.5482439080754773
  0.6624243092344528  0.0663188070821263  0.5473600174399849
  0.5021185784289557  0.1242483949414606  0.1981660103662151
  0.8363080400774194  0.1866115875015950  0.2029322799862854
  0.6677221076599409  0.1865869514390326  0.2028827173178129
  0.7521005819520070  0.2489709754930729  0.2782320945781009
  0.5851533072214821  0.1865384600159317  0.2844662395854769
  0.9194029780768815  0.1864789314741486  0.2843703256263410
  0.5026861186949887  0.2487188580793003  0.3694343760267671
  0.8337459247987340  0.1863027916781235  0.3687288743033719
  0.6705104426128159  0.1865141188542765  0.3691578859255458
  0.7513524092486392  0.2478481155628458  0.4595692222577270
  0.5864058707977833  0.1864956302130096  0.4548164208012793
  0.9182635738691545  0.1856811165057550  0.4535875873030264
  0.5006830928935884  0.2528376891914519  0.5405067244743904
  0.5021938845789577  0.2487900209985554  0.1979991972986568
  0.8357078972624947  0.3116881247585823  0.2030684523089761
  0.6684850925047243  0.3116201366232403  0.2029535811564784
  0.7521517335249115  0.3742079386153065  0.2784822586373465
  0.5853962868930793  0.3116416530553252  0.2842509658414372
  0.9192753650783700  0.3115751052436053  0.2842938507079040
  0.5034659423123742  0.3742509311304119  0.3690401685562108
  0.8338060058104162  0.3112572066135044  0.3686144191152394
  0.6707802018841065  0.3116983639744220  0.3689594173773543
  0.7533338748454312  0.3755756607770024  0.4613608325979683
  0.5862010850236032  0.3116271371622261  0.4527731083631963
  0.9180224310294349  0.3104105938267665  0.4533073203549236
  0.5014920351560619  0.3772698388104061  0.5393186016235347
  0.5024466340211404  0.3745263765132876  0.1980709745337563
  0.8363371896108447  0.4367491983268508  0.2032998373005981
  0.6680553150352608  0.4367619157456915  0.2030991058646450
  0.7522033158118830  0.9990774064884747  0.2787115917224767
  0.5853393623913519  0.4367467181050912  0.2845735545417014
  0.9192735210911067  0.4367120478296940  0.2848592382474138
  0.5021104800745562  0.9993178748568070  0.3695761558158281
  0.8334739376555618  0.4365394297452738  0.3693018980713205
  0.6710367968390898  0.4368928257540148  0.3697688071311092
  0.7517436925701659  0.9996403828448592  0.4628102926214055
  0.5862068977224268  0.4369547439343080  0.4549406619314240
  0.9189835457605113  0.4350882479719687  0.4523099464990068
  0.5010896289219531  0.0005913359200420  0.5438101523068042
  0.5022927665457217  0.4993982769798535  0.1982765884847382
  0.8363021340127830  0.5618022701214258  0.2036882770313824
  0.6681474825307276  0.5618669472035549  0.2034066776909995
  0.7523259104929068  0.6242009977292753  0.2792645530554978
  0.5852455379620309  0.5616819334720731  0.2848347874123078
  0.9192353975076841  0.5616922135310105  0.2853618693169011
  0.5026811620150085  0.6241296328976347  0.3696804823122264
  0.8334172229936101  0.5615501323633083  0.3700567060873112
  0.6707384248258279  0.5615709076916957  0.3700867109319432
  0.7522212362403664  0.6234253975882922  0.4603407775089181
  0.5851587828233065  0.5615553537344766  0.4551739790273999
  0.9188376332463051  0.5612496749220028  0.4546785942744975
  0.4903835675692321  0.6160702826678843  0.5439605583227873
  0.5022529690055464  0.6240533703011337  0.1984316019353116
  0.8359694668725552  0.6865681189188635  0.2038783063670735
  0.6684775069785047  0.6866715075996979  0.2035552919467989
  0.7523425033647797  0.7491564833378845  0.2792658518003392
  0.5851200966869783  0.6867330335920769  0.2847390483403345
  0.9191628216133694  0.6866680783871573  0.2854114834404626
  0.5024766909393250  0.7496231043485508  0.3698800036913497
  0.8338644064048921  0.6867614780133238  0.3701132562313632
  0.6702721909686176  0.6867434479246057  0.3694799170680625
  0.7519199857041414  0.7508206827175101  0.4611210902616918
  0.5845487803084737  0.6867669298189583  0.4537469360075832
  0.9188398328742693  0.6864039007257219  0.4554177591596726
  0.4978337146381264  0.7480938743625458  0.5415104364089558
  0.5020900681368374  0.7493445572051982  0.1985192395563971
  0.8364803547245572  0.8113722450027936  0.2036938386400067
  0.6678324775178268  0.8115374325202183  0.2034728389505744
  0.7522726584234860  0.8741524061802508  0.2791096864712586
  0.5851247258322871  0.8117516675938603  0.2849577259372964
  0.9192062346851628  0.8116578916525441  0.2853511534551174
  0.5021976767015204  0.8743657461091843  0.3701889961670162
  0.8337744859108369  0.8117445012195716  0.3701652328364702
  0.6703966800268262  0.8118211469471746  0.3698329551418595
  0.7514895446560104  0.8727691063373229  0.4605110099794771
  0.5860930735175174  0.8121807741855918  0.4551261690751929
  0.9179829269440205  0.8124057500332142  0.4554701653865081
  0.5011019580199871  0.8704932718254739  0.5420765432042884
  0.5021355887107717  0.8738492845615156  0.1984897048570247
  0.8360586821213758  0.9364684333264890  0.2035028201296214
  0.6682132095231808  0.9366571696242474  0.2033940895272437
  0.7521738903378150  0.4992780095025680  0.2790826323514111
  0.5851201019666448  0.9366582529308474  0.2847140283292973
  0.9192449235973328  0.9365429235148994  0.2848779595412410
  0.5027112417584547  0.4993483617303554  0.3698513475427276
  0.8334080552607830  0.9368466141789824  0.3695150834046643
  0.6708630063987684  0.9369057185377088  0.3694310673847667
  0.7542599459772461  0.4991864247073678  0.4640606563446497
  0.5848978444269406  0.9375803830368739  0.4537325868533415
  0.9190988339127628  0.9377615761383993  0.4538707099356500
  0.4214555362775414  0.4857441065101540  0.5410952983248762
  0.8401826143986000  0.9351920935588964  0.5470576802978542
  0.6618134019024566  0.9335609442309547  0.5474863973235813
  0.4073763806417148  0.9990867956598493  0.2328017590591926
  0.2517943184236131  0.9990591813926670  0.1994567637522238
  0.0966096888073196  0.9990624936412118  0.2330779829856766
  0.1575350889943863  0.1240983548831736  0.3166370679434465
  0.0022480562345564  0.1240755784632981  0.3033894653587339
  0.3468616596461516  0.1240729309956805  0.3164413921720737
  0.4029353020508850  0.1242550976476338  0.4022454280049388
  0.2522752375093376  0.1243247101636555  0.3901694107902003
  0.1016223829811267  0.1241646214174494  0.4024497573712438
  0.1504593186339349  0.1212691041375322  0.4891901307839390
  0.0022797128696368  0.1240816449799453  0.4738776673084857
  0.3535197935578083  0.1212027218132548  0.4887469296093627
  0.4056115897941126  0.1302460667408596  0.5715597473928185
  0.2513091999897981  0.0908243327778138  0.5773376988525882
  0.0954358425903976  0.1289644630562989  0.5717549210868214
  0.4073556516801347  0.1240581790289141  0.2327338767996423
  0.2517640965697439  0.1241004535069337  0.2001937306861379
  0.0967025040945799  0.1240851043746716  0.2329585732590616
  0.1575983888828105  0.2490329393564963  0.3163712754816501
  0.0022772256548151  0.2490072991823382  0.3030777636919311
  0.3468552184711911  0.2488037587185588  0.3158258756990122
  0.4033344645511150  0.2480831679483941  0.4011127991426804
  0.2524893331294180  0.2491655863606184  0.3901214595050178
  0.1016772501275653  0.2483229760213348  0.4018904543654642
  0.1497970495329000  0.2513839451275715  0.4872832541352636
  0.0019446878181668  0.2487175244492832  0.4727767889545405
  0.3546720403854593  0.2530508813716636  0.4868399813785871
  0.3990977513300180  0.2542604842453358  0.5649171573586713
  0.2523400401599147  0.1888584356403271  0.5120431375953771
  0.1019732652074197  0.2516948318372414  0.5657019307615982
  0.4073614322464749  0.2489897117840982  0.2323618104882996
  0.2517074315213463  0.2489181131749234  0.1994967525985984
  0.0967856289006903  0.2491538414530794  0.2328251280877467
  0.1576891157574849  0.3744758498827139  0.3165876247166892
  0.0022607169097100  0.3741102265743024  0.3032326848186742
  0.3465093091887468  0.3742379366105482  0.3154925554586825
  0.4035333033692083  0.3738288180891018  0.3993399208681510
  0.2526692038058016  0.3744508038543728  0.3905362025765626
  0.1018977014118860  0.3747395148956727  0.4018836968690565
  0.1511436977456100  0.3704187969603154  0.4857787862479626
  0.0033374417430281  0.3745939331356354  0.4731674055593231
  0.3570964749546164  0.3711662353030434  0.4834859755476515
  0.3981422253953184  0.3903722086051005  0.5649125945659463
  0.2509601369670094  0.4365305677458196  0.5169808529781363
  0.1032264620737280  0.3817425642651600  0.5658860201859994
  0.4073764877276034  0.3742672831446328  0.2321705489757591
  0.2516326853507138  0.3744603396704420  0.1986154672204563
  0.0967380607862509  0.3743864103882188  0.2329952654270073
  0.1573876711029385  0.9992304896896655  0.3166777947954600
  0.0021885351564563  0.9991411380293584  0.3032806454180630
  0.3469740481700612  0.9992423338348360  0.3164753755740577
  0.4033505137075011  0.9994858089118495  0.4019291956927091
  0.2521990789254716  0.9993606145442229  0.3905734920161450
  0.1009205090217193  0.9994348161934639  0.4021639005174293
  0.1465786071789807  0.9994222598052858  0.4878146261351759
  0.0021044780614261  0.9996116725479567  0.4749682118080258
  0.3573750409999477  0.9994725967368439  0.4876201394809030
  0.4045909469566311  0.0007172625515253  0.5737882115722357
  0.2518066129200562  0.0013136999545722  0.5351884919656626
  0.0981031551472142  0.0005723696086619  0.5736261295365779
  0.4073370007026540  0.4993292111956933  0.2325383504469869
  0.2515241833527639  0.4993903398411135  0.2010576881417308
  0.0966451918083067  0.4994051208997661  0.2335453993356253
  0.1572757384011467  0.6241495874218401  0.3173249640404734
  0.0020100895127655  0.6241775934624556  0.3043111563950873
  0.3465849287931206  0.6242631208973890  0.3161471175501163
  0.4032968252201883  0.6241679211813462  0.4007206426180190
  0.2522434297773373  0.6241137186302410  0.3911088773196383
  0.1008871572996455  0.6238098514690904  0.4031368410690206
  0.1503782322075082  0.6279633790969683  0.4867450201771248
  0.0018983394479406  0.6209539446242331  0.4786275293016828
  0.3573393599079182  0.6280831611890250  0.4847456772483696
  0.3815627145220262  0.6259777031679050  0.5692914284404011
  0.2522264203118283  0.5632987316362161  0.5152718993113297
  0.1089515893165185  0.6237248770360111  0.5670300569996911
  0.4072492643056336  0.6242637959431860  0.2326546909467453
  0.2515590357845383  0.6242459438879067  0.1992284642868327
  0.0965198884516099  0.6242640210239898  0.2336926961839083
  0.1572793707876912  0.7493335519613922  0.3172014232678819
  0.0020382868831277  0.7493035020469989  0.3042383277960425
  0.3466695554221602  0.7495157631783016  0.3164369137751279
  0.4033276829493460  0.7503611876843053  0.4015187336442452
  0.2520882569724563  0.7494438846664266  0.3906136068491932
  0.1009239871755696  0.7499117707316998  0.4028761466541795
  0.1494762989115301  0.7478390824794445  0.4875000536437639
  0.0021030735613508  0.7500340242388148  0.4746791292054624
  0.3547657005129281  0.7478070169518816  0.4860759497741469
  0.3954769581125817  0.7499452401807361  0.5651579678080907
  0.2519104995274049  0.8112194058482984  0.5120999430454987
  0.1053711066342515  0.7502234697529175  0.5665297879479638
  0.4072653231531191  0.7493076216197281  0.2329127124874120
  0.2515879983527256  0.7493412701597464  0.2005637011278765
  0.0964734321339762  0.7490981427447139  0.2336927870831857
  0.1574727631723221  0.8743185973571030  0.3170608514779332
  0.0021327589724649  0.8742125192400962  0.3039767234399520
  0.3467162230325940  0.8743968985406312  0.3166873277181779
  0.4029186189750007  0.8745755946575926  0.4022156368218859
  0.2521037798606045  0.8744418950765436  0.3903011314278046
  0.1013811356212173  0.8745072406261656  0.4027335905005742
  0.1504164243102437  0.8783904864946805  0.4891422266935450
  0.0020616419308297  0.8751890280541659  0.4741094553627079
  0.3534108278202126  0.8784915126858976  0.4885795406239950
  0.4055457291679119  0.8715345895799302  0.5710820948860231
  0.2519613379830403  0.9116720117964761  0.5769835796322340
  0.0980176593302957  0.8721452098777931  0.5716143865882444
  0.4073568598067965  0.8741419876694749  0.2330037698514218
  0.2516615709817458  0.8739509035886215  0.2002787716164818
  0.0964999849211026  0.8740455164381586  0.2334478145579837
  0.1571760920879655  0.4993073286515326  0.3173367961776634
  0.0021361235306472  0.4991893650569068  0.3040699321275895
  0.3466531449058579  0.4992986142494331  0.3159509289698192
  0.4029004737384838  0.4993238700267213  0.4003236913510690
  0.2524979413617743  0.4993602408147453  0.3915491913263907
  0.1016359264719711  0.4993462620209783  0.4034513009534422
  0.1470733934096913  0.4997021072039658  0.4881433739185468
  0.9988373229824177  0.4982530367706488  0.4748582108953343
  0.3607068396164053  0.4981306400699523  0.4854445081961956
  0.3294415400994311  0.5063756032009934  0.5797339670300232
  0.1518022815500615  0.5016506428690732  0.5716067462699499
  0.0008535694877239  0.5359833582774627  0.5708104039916080
  0.9074975335201572  0.9989554195432007  0.2329507991963027
  0.7521558484369208  0.9989363772827531  0.1990215768058547
  0.5966556863376979  0.9990580179625113  0.2328744980940343
  0.6574577916013666  0.1239847485353778  0.3164694073668386
  0.5021969180239054  0.1241128911153169  0.3033617409224476
  0.8469117943351279  0.1238421896041046  0.3163145408809100
  0.9030752439869332  0.1235009870151984  0.4018600232126985
  0.7521338438829446  0.1241391919536525  0.3898837151978114
  0.6014633158929570  0.1241014420816811  0.4022230964996254
  0.6503721316019266  0.1207043419877323  0.4888171880368546
  0.5019723898365456  0.1242041523856514  0.4734712590705215
  0.8533374943953902  0.1213775616842909  0.4886403542258932
  0.9053022684934504  0.1306876892468836  0.5718141924650411
  0.7509783442367279  0.0900872838373488  0.5774364373747645
  0.5958144612533331  0.1280413889332408  0.5713510222085674
  0.9074092671704790  0.1239884602226056  0.2327750224843257
  0.7520565314079235  0.1240326792838786  0.2004112546187358
  0.5968090634242742  0.1240167812751807  0.2328203569357470
  0.6575519731536374  0.2490174489018742  0.3161984647871563
  0.5022570789276841  0.2490363528356596  0.3029024391127493
  0.8467805746440007  0.2488157885453077  0.3159297009080078
  0.9034599966040346  0.2480700202854607  0.4009308002078313
  0.7521793331590771  0.2488237275106968  0.3896587859573017
  0.6016014306267294  0.2483284539561694  0.4017511341304498
  0.6494525842589880  0.2509951665436532  0.4872014638767439
  0.5023611490997766  0.2487147630927211  0.4727836595341799
  0.8541521003967105  0.2476522032991966  0.4839429532854567
  0.8979779007057402  0.2561928167738330  0.5635060263929503
  0.7519443668811974  0.1882177724738980  0.5114567514819797
  0.6019396077960337  0.2498919831727875  0.5660832269749889
  0.9074474945381823  0.2490444582711433  0.2325866181357270
  0.7520568380005912  0.2488834099029305  0.1991757936340903
  0.5968712543925392  0.2490408284743424  0.2326226577781867
  0.6578370176327297  0.3743828227637565  0.3164738617200555
  0.5023721766484996  0.3741546778899050  0.3026401654483664
  0.8465311641403801  0.3740827954438046  0.3161921131984116
  0.9033589485353275  0.3730280499727812  0.4006898427587018
  0.7524820343293541  0.3742055406906175  0.3912785659613363
  0.6021323821306908  0.3747326359642855  0.4016999465764286
  0.6498450318900453  0.3717410255641056  0.4867973544245174
  0.5033739233027390  0.3745745285798776  0.4719298224400319
  0.8559791064923417  0.3691615893628750  0.4855250071063679
  0.9035659465681078  0.4062628626698341  0.5643659949975373
  0.7502338961045965  0.4360960566801637  0.5186762035409203
  0.6031979652821278  0.3769505071139747  0.5674585793715679
  0.9073286338807023  0.3742788046654510  0.2328582078292740
  0.7520873223615467  0.3743963092050961  0.1991943010403361
  0.5970926211725001  0.3742479028183041  0.2326873448100244
  0.6574106569388505  0.9991345036643153  0.3165199752495553
  0.5021511845805122  0.9991913243065937  0.3031054284199044
  0.8469762047458147  0.9990646396371403  0.3165599208085368
  0.9034201508451432  0.9993794016349824  0.4020291803902154
  0.7521408017310307  0.9991822108590185  0.3904730288213898
  0.6008728987039973  0.9992834369558423  0.4019214267357825
  0.6464006847374080  0.9992075567534613  0.4876543158315201
  0.5020427355236379  0.9995455044402703  0.4745766985979003
  0.8572475084494471  0.9993482708117938  0.4876418854435229
  0.9046458141775915  0.0011455682934098  0.5736444794391176
  0.7515993715107925  0.0010136931699947  0.5350318569813979
  0.5976189999466612  0.9999499659744515  0.5733502717794892
  0.9073916097306451  0.4993235012247652  0.2334083265962192
  0.7521606818331747  0.4992982935487973  0.2008164948805486
  0.5970192564829020  0.4992909406061159  0.2330277968920953
  0.6575261769013281  0.6241194104993824  0.3168839292713201
  0.5022009065571993  0.6242341717313167  0.3031454596782694
  0.8468010198165885  0.6241827833938558  0.3172501539621493
  0.9026505243010376  0.6242427863387761  0.4031483584007560
  0.7519194116996175  0.6242393292075050  0.3908509060184286
  0.6011782609147716  0.6237707246269792  0.4024198832736303
  0.6491233050897947  0.6271857198324255  0.4864135595900194
  0.5015499465690709  0.6219916890647781  0.4753113939501219
  0.8538566033790929  0.6266972917858027  0.4888819254851597
  0.9015349989761958  0.6329715133256855  0.5710587971440191
  0.7500031878079909  0.5631084814639067  0.5130832180560461
  0.5949642189473821  0.6210807833168204  0.5632280843437698
  0.9073351021129241  0.6241905848788534  0.2336675202966418
  0.7521646504679609  0.6241439094595904  0.1997812958628060
  0.5969200024182655  0.6242215549699139  0.2330702052745437
  0.6574632288395534  0.7493267450795997  0.3168728401912730
  0.5021010579945226  0.7493543032323728  0.3033771245735082
  0.8468347317760063  0.7493446523738143  0.3172946612949872
  0.9032092704210157  0.7496663388247526  0.4030893597461400
  0.7519704148294224  0.7494241986786747  0.3909077628937254
  0.6010293262227506  0.7500223651274780  0.4024014034050936
  0.6491902958109108  0.7475789362410126  0.4873626448441897
  0.5015460010760222  0.7502376551822181  0.4738799844094075
  0.8545229374459211  0.7486218723647653  0.4875461164883745
  0.9025308148393023  0.7537949649557021  0.5668868844522947
  0.7516317299268138  0.8111656109758769  0.5126223900174267
  0.5992699971237343  0.7494487165230197  0.5657342305189133
  0.9074173285383296  0.7490789828722839  0.2336859450291158
  0.7521276968091755  0.7492625284348406  0.2003766618784724
  0.5967651787926727  0.7492339632125393  0.2331527574386882
  0.6575084896689916  0.8742746502598777  0.3168907457915253
  0.5021462901266318  0.8742480659648066  0.3035733223498056
  0.8468465367974716  0.8741930151797703  0.3171081372110294
  0.9029392347392715  0.8744580398397233  0.4027170269034031
  0.7520372059853457  0.8742667685534755  0.3905236065333355
  0.6013157495448169  0.8744546963330748  0.4025121350624445
  0.6498556383507577  0.8778870685731519  0.4891348972504446
  0.5018631721160176  0.8749002953859275  0.4737118074706004
  0.8532635743431030  0.8785822833251515  0.4888722075062262
  0.9067382649037512  0.8737200445903852  0.5713217478605799
  0.7514535221395491  0.9110970195358092  0.5768214673956678
  0.5964423604179387  0.8715568574738839  0.5715243950987912
  0.9074060280798051  0.8739566840351500  0.2334590479143372
  0.7521105218227504  0.8738745787041111  0.2008732465461094
  0.5967908806238285  0.8741063945605703  0.2331752742480830
  0.6575259544108363  0.4992251534089789  0.3169433212609505
  0.5022208919125717  0.4992489717503332  0.3032038017677010
  0.8466953123973155  0.4991940888426640  0.3168356519889386
  0.9031387678271869  0.4990415624846136  0.4013644953499025
  0.7523174010041060  0.4990177253754737  0.3918364859248271
  0.6014397690350819  0.4993138867603548  0.4026499917558866
  0.6472631085734264  0.4997077757587292  0.4874882018520168
  0.4985056840304338  0.4983862025122505  0.4739510198799337
  0.8611261042796130  0.4965849695214359  0.4853428071504169
  0.8358368144397303  0.5167882619876849  0.5738106700307881
  0.6354075440622964  0.5019916695855855  0.5696117047862401
  0.4810390375889924  0.5414607827102245  0.5737267783494531
  0.3646643944771597  0.1919905252096541  0.5330966232671557
  0.1381750167379892  0.1916909364126340  0.5336662451801146
  0.3747873543901861  0.3174014132936804  0.5314029804010048
  0.1281451636418325  0.3154745322622148  0.5335105130368945
  0.3072909046866457  0.4317888354507957  0.5652546147810966
  0.1510482843319494  0.4424448084971644  0.5384769417727568
  0.3072375893043997  0.5772740760485462  0.5636174574795305
  0.1531295657795226  0.5604868345853973  0.5379092209780580
  0.3692226594319976  0.6854746144489070  0.5330646832832926
  0.1300485233667885  0.6858737739443725  0.5345579609757891
  0.3621990165944524  0.8103454017018095  0.5327199542524426
  0.1414413696013597  0.8098289734659190  0.5336440531530755
  0.8635613473600969  0.1936511462976469  0.5321540362672863
  0.6376318713154632  0.1898976728987662  0.5336802725574614
  0.8788258210714091  0.3289936163122533  0.5415494845645412
  0.6293476072614510  0.3121878554570117  0.5338516190273666
  0.8095303905162083  0.4428425761302321  0.5651734421285113
  0.6479637831584597  0.4407843051153364  0.5360192250964815
  0.8319380926461264  0.5836889104113610  0.5466025856707120
  0.6478863032639453  0.5626341870220699  0.5350442028336317
  0.8757575445203685  0.6905410837288599  0.5363814773623261
  0.6229428408809099  0.6848879947001265  0.5342509071581034
  0.8646595426211618  0.8113638398094807  0.5336949940854225
  0.6382181325180554  0.8083677099601161  0.5336423375948769
  0.5461383138304043  0.4849942879671900  0.5993155141090014
  0.4436651096222590  0.4162078147995132  0.6201417271343814
  0.4079145771285795  0.5170284327634036  0.6240120253219459
  0.5723303474118637  0.3895974917835119  0.6252766380647614
 
  0.00000000E+00  0.00000000E+00  0.00000000E+00
  0.00000000E+00  0.00000000E+00  0.00000000E+00
  0.00000000E+00  0.00000000E+00  0.00000000E+00