POSCAR                                  
   1.00000000000000     
     5.1322933759636920    0.0000000000000000    0.0000000000000000
    -2.5661466879818460    4.4459006401445844   -0.0247267662947655
     0.0000000000000000   -0.1316425412395223   25.3355799489459699
   B    N    Ga
    28    32     4
Direct
  0.1787475712095352  0.3257803624897353  0.0035957036856446
  0.6777427997364485  0.3207912587673741  0.0040581122373826
  0.1845553081117124  0.8281571628334770  0.0031420804907190
  0.6771532897164445  0.8293888593491356  0.0040106720174432
  0.1522350786326897  0.3293888593491358  0.2540106720174428
  0.6436013637217629  0.3281571628334770  0.2531420804907188
  0.1470322852802008  0.8257803624897351  0.2535957036856445
  0.6430479830309219  0.8207912587673745  0.2540581122373828
  0.1777427847364510  0.3207912587673741  0.5040581122373825
  0.6787475862095330  0.3257803624897353  0.5035957036856450
  0.1771532747164468  0.8293888593491356  0.5040106720174437
  0.6845553231117094  0.8281571628334770  0.5031420804907192
  0.1436013487217655  0.3281571628334770  0.7531420804907192
  0.1430479680309241  0.8207912587673745  0.7540581122373825
  0.3637725237905922  0.1808510414368139  0.1259966303781135
  0.8553720584664827  0.6712423903560600  0.1207265436405037
  0.3638378605209267  0.6705036464527487  0.1261728817002166
  0.8158687818895769  0.1712423753560622  0.3707265436405035
  0.3066642959318266  0.1705036314527512  0.3761728817002166
  0.8170770126462220  0.6808510564368121  0.3759966303781133
  0.8638378305209240  0.6705036464527487  0.6261728817002163
  0.3553720884664850  0.6712423903560599  0.6207265436405037
  0.8066642659318241  0.1705036314527512  0.8761728817002163
  0.3158688118895793  0.1712423753560622  0.8707265436405037
  0.3170770426462241  0.6808510564368121  0.8759966303781136
  0.6522350936326878  0.3293888593491358  0.7540106720174437
  0.8637724937905902  0.1808510414368139  0.6259966303781136
  0.6470323002801990  0.8257803624897351  0.7535957036856450
  0.3459360386301135  0.1588851906706575  0.0031334955561378
  0.8465911647907658  0.1596583956113487  0.0037812683856506
  0.3455570185975239  0.6590176957758903  0.0042226900271487
  0.8461429274295625  0.6587123059223281 -0.0029443120540416
  0.3134611531783699  0.1590176807758924  0.2542226900271489
  0.8125698544927691  0.1587122909223305  0.2470556879459583
  0.3130677218205850  0.6596584106113460  0.2537812683856508
  0.8129496430405458  0.6588852056706549  0.2531334955561381
  0.3465911647907653  0.1596583956113487  0.5037812683856503
  0.8459360386301138  0.1588851906706575  0.5031334955561375
  0.3461429274295623  0.6587123059223281  0.4970556879459584
  0.8455570185975245  0.6590176957758903  0.5042226900271488
  0.3125698544927697  0.1587122909223305  0.7470556879459587
  0.8134611531783696  0.1590176807758924  0.7542226900271488
  0.3129496430405455  0.6588852056706549  0.7531334955561375
  0.8130677218205845  0.6596584106113460  0.7537812683856504
  0.2357224970501880  0.3621666212810359  0.1394782416726847
  0.6813540224702092  0.3519351847985566  0.1162229044594345
  0.1934381537522244  0.8404485970264453  0.1258981474508499
  0.6814737441988158  0.8161176513204293  0.1169086920293405
  0.1346434161216121  0.3161176513204293  0.3669086920293406
  0.6470099522742185  0.3404485970264447  0.3758981474508500
  0.1264436182308487  0.8621666212810362  0.3894782416726845
  0.6705806863283432  0.8519351847985558  0.3662229044594345
  0.1813540074702120  0.3519351847985566  0.6162229044594344
  0.7357225120501854  0.3621666212810359  0.6394782416726842
  0.1814737291988181  0.8161176513204293  0.6169086920293398
  0.6934381687522226  0.8404485970264453  0.6258981474508498
  0.1470099372742209  0.3404485970264447  0.8758981474508498
  0.6346434311216098  0.3161176513204293  0.8669086920293398
  0.1705806713283453  0.8519351847985558  0.8662229044594344
  0.6264436332308462  0.8621666212810362  0.8894782416726842
  0.8407482530903952  0.1663435759079734  0.1555962483227689
  0.3255938178175776  0.6663435909079710  0.4055962483227689
  0.3407482830903978  0.1663435759079734  0.6555962483227687
  0.8255937878175751  0.6663435909079710  0.9055962483227687
 
  0.00000000E+00  0.00000000E+00  0.00000000E+00
  0.00000000E+00  0.00000000E+00  0.00000000E+00
  0.00000000E+00  0.00000000E+00  0.00000000E+00
  0.00000000E+00  0.00000000E+00  0.00000000E+00
  0.00000000E+00  0.00000000E+00  0.00000000E+00
  0.00000000E+00  0.00000000E+00  0.00000000E+00
  0.00000000E+00  0.00000000E+00  0.00000000E+00
  0.00000000E+00  0.00000000E+00  0.00000000E+00
  0.00000000E+00  0.00000000E+00  0.00000000E+00
  0.00000000E+00  0.00000000E+00  0.00000000E+00
  0.00000000E+00  0.00000000E+00  0.00000000E+00
  0.00000000E+00  0.00000000E+00  0.00000000E+00
  0.00000000E+00  0.00000000E+00  0.00000000E+00
  0.00000000E+00  0.00000000E+00  0.00000000E+00
  0.00000000E+00  0.00000000E+00  0.00000000E+00
  0.00000000E+00  0.00000000E+00  0.00000000E+00
  0.00000000E+00  0.00000000E+00  0.00000000E+00
  0.00000000E+00  0.00000000E+00  0.00000000E+00
  0.00000000E+00  0.00000000E+00  0.00000000E+00
  0.00000000E+00  0.00000000E+00  0.00000000E+00
  0.00000000E+00  0.00000000E+00  0.00000000E+00
  0.00000000E+00  0.00000000E+00  0.00000000E+00
  0.00000000E+00  0.00000000E+00  0.00000000E+00
  0.00000000E+00  0.00000000E+00  0.00000000E+00
  0.00000000E+00  0.00000000E+00  0.00000000E+00
  0.00000000E+00  0.00000000E+00  0.00000000E+00
  0.00000000E+00  0.00000000E+00  0.00000000E+00
  0.00000000E+00  0.00000000E+00  0.00000000E+00
  0.00000000E+00  0.00000000E+00  0.00000000E+00
  0.00000000E+00  0.00000000E+00  0.00000000E+00
  0.00000000E+00  0.00000000E+00  0.00000000E+00
  0.00000000E+00  0.00000000E+00  0.00000000E+00
  0.00000000E+00  0.00000000E+00  0.00000000E+00
  0.00000000E+00  0.00000000E+00  0.00000000E+00
  0.00000000E+00  0.00000000E+00  0.00000000E+00
  0.00000000E+00  0.00000000E+00  0.00000000E+00
  0.00000000E+00  0.00000000E+00  0.00000000E+00
  0.00000000E+00  0.00000000E+00  0.00000000E+00
  0.00000000E+00  0.00000000E+00  0.00000000E+00
  0.00000000E+00  0.00000000E+00  0.00000000E+00
  0.00000000E+00  0.00000000E+00  0.00000000E+00
  0.00000000E+00  0.00000000E+00  0.00000000E+00
  0.00000000E+00  0.00000000E+00  0.00000000E+00
  0.00000000E+00  0.00000000E+00  0.00000000E+00
  0.00000000E+00  0.00000000E+00  0.00000000E+00
  0.00000000E+00  0.00000000E+00  0.00000000E+00
  0.00000000E+00  0.00000000E+00  0.00000000E+00
  0.00000000E+00  0.00000000E+00  0.00000000E+00
  0.00000000E+00  0.00000000E+00  0.00000000E+00
  0.00000000E+00  0.00000000E+00  0.00000000E+00
  0.00000000E+00  0.00000000E+00  0.00000000E+00
  0.00000000E+00  0.00000000E+00  0.00000000E+00
  0.00000000E+00  0.00000000E+00  0.00000000E+00
  0.00000000E+00  0.00000000E+00  0.00000000E+00
  0.00000000E+00  0.00000000E+00  0.00000000E+00
  0.00000000E+00  0.00000000E+00  0.00000000E+00
  0.00000000E+00  0.00000000E+00  0.00000000E+00
  0.00000000E+00  0.00000000E+00  0.00000000E+00
  0.00000000E+00  0.00000000E+00  0.00000000E+00
  0.00000000E+00  0.00000000E+00  0.00000000E+00
  0.00000000E+00  0.00000000E+00  0.00000000E+00
  0.00000000E+00  0.00000000E+00  0.00000000E+00
  0.00000000E+00  0.00000000E+00  0.00000000E+00
  0.00000000E+00  0.00000000E+00  0.00000000E+00
