Ta  N Ru Cu                             
   1.00000000000000     
    18.1096308199999996    0.0000000000000000    0.0000000000000000
     0.0000000000000000   23.3551997799999995    0.0000000000000000
     0.0000000000000000    0.0000000000000000   30.4818171199999988
   Ta   N    Ru   Cu
   228   240    12    29
Selective dynamics
Direct
  0.0000000000000000  0.0000718897725491  0.1971343760886626   F   F   F
  0.3342926788609191  0.0624132533110782  0.2026937887487748   F   F   F
  0.1663206737861032  0.0625684649998774  0.2026879820083352   F   F   F
  0.2502068123330190  0.1250918008632027  0.2779408447549940   F   F   F
  0.0826029539126765  0.0626929340700357  0.2836274479951371   F   F   F
  0.4173382701790516  0.0622475086359557  0.2840383815018441   F   F   F
  0.0002947602882202  0.1248201697035540  0.3694587811371264   F   F   F
  0.3315835678642500  0.0622690027787911  0.3682106600080530   F   F   F
  0.1677736575747630  0.0625053955329520  0.3684341046922484   F   F   F
  0.2495286096616312  0.1259410764072655  0.4558042568559344   F   F   F
  0.0877562892251191  0.0616587318269595  0.4553664548722907   F   F   F
  0.4148415323686834  0.0616475565853634  0.4542251515220670   F   F   F
  0.0038109004366760  0.1166355683385234  0.5452214982648016   F   F   F
  0.3378469202830487  0.0608023914749865  0.5433728223876955   F   F   F
  0.0000000000000000  0.1251997425645683  0.1971274211227225   F   F   F
  0.3343369646891574  0.1874555577019379  0.2027209852901350   F   F   F
  0.1662604295983101  0.1876312787421597  0.2027221991285302   F   F   F
  0.2501999651476083  0.2498887637432148  0.2779024612165273   F   F   F
  0.0825727489899180  0.1876830445164330  0.2837096281351847   F   F   F
  0.4172972975050442  0.1872505070046557  0.2840867710054695   F   F   F
  0.0002791884633240  0.2502130598345076  0.3694515309131958   F   F   F
  0.3315176360950218  0.1872425002223608  0.3682738452175300   F   F   F
  0.1678062921439505  0.1875724909769971  0.3683709522892116   F   F   F
  0.2501020614400389  0.2491687527752759  0.4552674450269123   F   F   F
  0.0837065655875122  0.1881174231599729  0.4538034903084522   F   F   F
  0.4150694221606415  0.1874490495152585  0.4538727447099120   F   F   F
  0.9942299861858785  0.2402865337425055  0.5483890915752596   F   F   F
  0.3401578453602099  0.1859004864397704  0.5425483308588284   F   F   F
  0.1773546922034939  0.1892212458736680  0.5414761506842893   F   F   F
  0.0000000000000000  0.2500718921274867  0.1971343760886626   F   F   F
  0.3342926788609191  0.3124132556660157  0.2026937887487748   F   F   F
  0.1663206737861032  0.3125684245377940  0.2026879820083352   F   F   F
  0.2502068123330190  0.3750918032181332  0.2779408447549940   F   F   F
  0.0826029539126765  0.3126929364249662  0.2836274479951371   F   F   F
  0.4173382701790516  0.3122475109908933  0.2840383815018441   F   F   F
  0.0002290493959407  0.3749047356682453  0.3693810626733409   F   F   F
  0.3313899139993595  0.3123668420189389  0.3680435111802822   F   F   F
  0.1672190907754825  0.3126606523937028  0.3683865353496998   F   F   F
  0.2504179706961054  0.3769023636243105  0.4548359090739140   F   F   F
  0.0863076125369631  0.3135301375700763  0.4561283517076617   F   F   F
  0.4156537521287831  0.3117906962301333  0.4537000515932519   F   F   F
  0.0047116918532524  0.3707075118841061  0.5491063060350783   F   F   F
  0.3367261354254367  0.3116761178910394  0.5423315130761495   F   F   F
  0.0000000000000000  0.3751997449194988  0.1971274211227225   F   F   F
  0.3343369646891574  0.4374555600568684  0.2027209852901350   F   F   F
  0.1662604295983101  0.4376312382800762  0.2027221991285302   F   F   F
  0.2501999651476083  0.9998887708080204  0.2779024612165273   F   F   F
  0.0825727489899180  0.4376830468713706  0.2837096281351847   F   F   F
  0.4172972975050442  0.4372505093595933  0.2840867710054695   F   F   F
  0.0001468279517383  0.0005468589487663  0.3693933322830745   F   F   F
  0.3315292873540727  0.4375082249885196  0.3682288675839942   F   F   F
  0.1675202564952087  0.4377145173793053  0.3680742180110528   F   F   F
  0.2487125797741712  0.9979226467571678  0.4556599085061350   F   F   F
  0.0827907545384221  0.4388306713940651  0.4537262311348726   F   F   F
  0.4164390801203552  0.4379855062836882  0.4531520527671233   F   F   F
  0.9989872791896062  0.9951141073048007  0.5442824466365010   F   F   F
  0.3379206379647215  0.4388162420591399  0.5398517068460151   F   F   F
  0.1672145627980299  0.4438610715236635  0.5427613102876592   F   F   F
  0.0000000000000000  0.5000718944824172  0.1971343760886626   F   F   F
  0.3342926788609191  0.5624132580209533  0.2026937887487748   F   F   F
  0.1663206737861032  0.5625684268927316  0.2026879820083352   F   F   F
  0.2502068123330190  0.6250918055730708  0.2779408447549940   F   F   F
  0.0826029539126765  0.5626929387799038  0.2836274479951371   F   F   F
  0.4173382701790516  0.5622475133458238  0.2840383815018441   F   F   F
  0.9996595734026101  0.6248927920752720  0.3691505974103180   F   F   F
  0.3315860527299250  0.5623961312139087  0.3684071049895437   F   F   F
  0.1673003734926510  0.5626361205975527  0.3681758851783314   F   F   F
  0.2499372320169684  0.6255784209780799  0.4563119693698923   F   F   F
  0.0833133493993543  0.5637144671857754  0.4549169409884541   F   F   F
  0.4167512344682933  0.5621471930735922  0.4541182353238895   F   F   F
  0.9898895332643818  0.6317034809796027  0.5446013252637769   F   F   F
  0.3251545577338248  0.5646276685371205  0.5429808838115591   F   F   F
  0.0000000000000000  0.6251997472744364  0.1971274211227225   F   F   F
  0.3343369646891574  0.6874555624118059  0.2027209852901350   F   F   F
  0.1662604295983101  0.6876312406350138  0.2027221991285302   F   F   F
  0.2501999651476083  0.7498887684530899  0.2779024612165273   F   F   F
  0.0825727489899180  0.6876830492263082  0.2837096281351847   F   F   F
  0.4172972975050442  0.6872505117145238  0.2840867710054695   F   F   F
  0.9996518979286435  0.7504744196197990  0.3693282114934462   F   F   F
  0.3320955606316431  0.6870773596953583  0.3683132129492961   F   F   F
  0.1684114949837507  0.6874669517384859  0.3676565263770613   F   F   F
  0.2495010000430256  0.7484940897388483  0.4541338839972653   F   F   F
  0.0825635273773102  0.6887127984995587  0.4516490255748877   F   F   F
  0.4172933217199599  0.6876386479790568  0.4537464399038456   F   F   F
  0.0033965217497953  0.7608354601929392  0.5837179021191092   T   T   T
  0.3354422881603512  0.6881967678034542  0.5398505914269478   F   F   F
  0.1678614009426838  0.6889281252810591  0.5422534665479262   F   F   F
  0.0000000000000000  0.7500718968373548  0.1971343760886626   F   F   F
  0.3342926788609191  0.8124132603758838  0.2026937887487748   F   F   F
  0.1663206737861032  0.8125684292476620  0.2026879820083352   F   F   F
  0.2502068123330190  0.8750918079280083  0.2779408447549940   F   F   F
  0.0826029539126765  0.8126929411348414  0.2836274479951371   F   F   F
  0.4173382701790516  0.8122475157007614  0.2840383815018441   F   F   F
  0.9998482575361507  0.8750218021042357  0.3694238750816297   F   F   F
  0.3322172638304508  0.8122830966423891  0.3680596847567443   F   F   F
  0.1688649553597017  0.8124744030770188  0.3676089570345127   F   F   F
  0.2499151443220882  0.8752648743131388  0.4553134724666279   F   F   F
  0.0840484831043042  0.8121111006826922  0.4532573614495874   F   F   F
  0.4165154483254128  0.8119408602207230  0.4540911372018641   F   F   F
  0.9854626352511048  0.8791522204605077  0.5862531296353158   T   T   T
  0.3342056533430764  0.8113902761914176  0.5416625568941811   F   F   F
  0.0000000000000000  0.8751997496293740  0.1971274211227225   F   F   F
  0.3343369646891574  0.9374555647667435  0.2027209852901350   F   F   F
  0.1662604295983101  0.9376312429899514  0.2027221991285302   F   F   F
  0.2501999651476083  0.4998887660981524  0.2779024612165273   F   F   F
  0.0825727489899180  0.9376830087642247  0.2837096281351847   F   F   F
  0.4172972975050442  0.9372505140694614  0.2840867710054695   F   F   F
  0.9999987299575466  0.5003124404872921  0.3693023928227035   F   F   F
  0.3320788292027714  0.9372559090136789  0.3683799740610709   F   F   F
  0.1687550138584228  0.9375258703096421  0.3679626761043977   F   F   F
  0.2496747197632843  0.5003702434610489  0.4553998190249615   F   F   F
  0.0830369771171320  0.9352738664520217  0.4521688108599236   F   F   F
  0.4156544147596293  0.9374129190172127  0.4541102305517697   F   F   F
  0.9944139766842568  0.5041187020837370  0.5451087097133041   F   F   F
  0.3390150280269495  0.9374936719124065  0.5424977761299559   F   F   F
  0.1737617420960760  0.9334435674007295  0.5415268694453772   F   F   F
  0.4999999773601118  0.9997488447945102  0.1972621243782342   F   F   F
  0.8336793361533594  0.0625684649998774  0.2026879820083352   F   F   F
  0.6657072758593117  0.0624132533110782  0.2026937887487748   F   F   F
  0.7497931976064436  0.1250918008632027  0.2779408447549940   F   F   F
  0.5826617397604110  0.0622475086359557  0.2840383815018441   F   F   F
  0.9173970560267861  0.0626929340700357  0.2836274479951371   F   F   F
  0.4995287363897774  0.1245908417572963  0.3696095923562197   F   F   F
  0.8329590564232134  0.0624472928400692  0.3686970155275304   F   F   F
  0.6680907590141558  0.0622301677438273  0.3679505377204393   F   F   F
  0.7483264090084845  0.1255583350869571  0.4549352469837302   F   F   F
  0.5831365699811641  0.0617015916615742  0.4537013638509748   F   F   F
  0.9142673953195484  0.0614786006339187  0.4570706183673892   F   F   F
  0.4979322930228562  0.1267609794772682  0.5410532100193919   F   F   F
  0.6576247808899254  0.0609299861874248  0.5429861656489052   F   F   F
  0.4999999773601118  0.1249314083152768  0.1972730817302377   F   F   F
  0.8337395803411525  0.1876312787421597  0.2027221991285302   F   F   F
  0.6656630452503052  0.1874555577019379  0.2027209852901350   F   F   F
  0.7498000447918542  0.2498887637432148  0.2779024612165273   F   F   F
  0.5827027124344184  0.1872505070046557  0.2840867710054695   F   F   F
  0.9174272609495446  0.1876830445164330  0.2837096281351847   F   F   F
  0.4997159848231547  0.2496957018108645  0.3694948682245780   F   F   F
  0.8324472845327691  0.1872987189664741  0.3684187512768631   F   F   F
  0.6683141208286685  0.1871766476492951  0.3681011521008699   F   F   F
  0.7503617348727403  0.2483170794782197  0.4550030907081322   F   F   F
  0.5833833999714884  0.1872723865006449  0.4533055541145501   F   F   F
  0.9169486206014241  0.1874168083010090  0.4536504154447840   F   F   F
  0.8193644115380181  0.1844718966475938  0.5394383128560705   F   F   F
  0.6558376102776933  0.1853309772886931  0.5413809463863117   F   F   F
  0.4999999773601118  0.2497488377297046  0.1972621243782342   F   F   F
  0.8336793361533594  0.3125684245377940  0.2026879820083352   F   F   F
  0.6657072758593117  0.3124132556660157  0.2026937887487748   F   F   F
  0.7497931976064436  0.3750918032181332  0.2779408447549940   F   F   F
  0.5826617397604110  0.3122475109908933  0.2840383815018441   F   F   F
  0.9173970560267861  0.3126929364249662  0.2836274479951371   F   F   F
  0.4999380765951997  0.3747286292748626  0.3695636961422721   F   F   F
  0.8328712578360538  0.3123496723948804  0.3684333829504993   F   F   F
  0.6685863516681039  0.3122170252743572  0.3679975821598944   F   F   F
  0.7506293825154842  0.3758026941613224  0.4552416919690501   F   F   F
  0.5838772808290713  0.3117625654495697  0.4533907852538164   F   F   F
  0.9156589200971936  0.3121786612265893  0.4559260015664037   F   F   F
  0.4981248425030032  0.3793289752796980  0.5390671407584406   F   F   F
  0.6601941872164545  0.3109048977700510  0.5416030788127770   F   F   F
  0.4999999773601118  0.3749314106702144  0.1972730817302377   F   F   F
  0.8337395803411525  0.4376312382800762  0.2027221991285302   F   F   F
  0.6656630452503052  0.4374555600568684  0.2027209852901350   F   F   F
  0.7498000447918542  0.9998887708080204  0.2779024612165273   F   F   F
  0.5827027124344184  0.4372505093595933  0.2840867710054695   F   F   F
  0.9174272609495446  0.4376830468713706  0.2837096281351847   F   F   F
  0.4996100743261849  0.9997877560437658  0.3695613996912499   F   F   F
  0.8322171307520918  0.4374335949268442  0.3683046832740757   F   F   F
  0.6686214158837274  0.4373038593635172  0.3681766069200805   F   F   F
  0.7493854587589013  0.9981939876174337  0.4549308181139011   F   F   F
  0.5849624492786845  0.4378275114887487  0.4532865263775321   F   F   F
  0.9177862412106279  0.4369995160024303  0.4534039406375143   F   F   F
  0.8251307908219445  0.4365462978711463  0.5406810537284628   F   F   F
  0.6616872601713268  0.4392386319377479  0.5404521959811532   F   F   F
  0.4999999773601118  0.4997488400846350  0.1972621243782342   F   F   F
  0.8336793361533594  0.5625684268927316  0.2026879820083352   F   F   F
  0.6657072758593117  0.5624132580209533  0.2026937887487748   F   F   F
  0.7497931976064436  0.6250918055730708  0.2779408447549940   F   F   F
  0.5826617397604110  0.5622475133458238  0.2840383815018441   F   F   F
  0.9173970560267861  0.5626929387799038  0.2836274479951371   F   F   F
  0.5003633751601768  0.6246698010476166  0.3696314414473463   F   F   F
  0.8322304938074936  0.5625413237205876  0.3682527178681525   F   F   F
  0.6685754182591310  0.5623435519162996  0.3681637796008133   F   F   F
  0.7518690543908093  0.6264714983311492  0.4557603290285712   F   F   F
  0.5845833139960135  0.5621038622517815  0.4543172720143929   F   F   F
  0.9134488805664134  0.5634511425275406  0.4542668485112955   F   F   F
  0.5013432957436734  0.6292345661108314  0.5418989273169714   F   F   F
  0.6649872170061144  0.5636851375287222  0.5431960612720843   F   F   F
  0.4999999773601118  0.6249314130251449  0.1972730817302377   F   F   F
  0.8337395803411525  0.6876312406350138  0.2027221991285302   F   F   F
  0.6656630452503052  0.6874555624118059  0.2027209852901350   F   F   F
  0.7498000447918542  0.7498887684530899  0.2779024612165273   F   F   F
  0.5827027124344184  0.6872505117145238  0.2840867710054695   F   F   F
  0.9174272609495446  0.6876830492263082  0.2837096281351847   F   F   F
  0.5003347163760665  0.7497129617788261  0.3695706183017720   F   F   F
  0.8314619524640321  0.6878454541740595  0.3681802484352659   F   F   F
  0.6682221255794758  0.6873082290542527  0.3684507375589163   F   F   F
  0.7514843419651811  0.7490704496127449  0.4552818798618929   F   F   F
  0.5848658708328074  0.6877786596266091  0.4540235559290053   F   F   F
  0.9176650902041956  0.6896486928702288  0.4521118260681973   F   F   F
  0.8252270379523949  0.6909841984661469  0.5418447310729064   F   F   F
  0.6618772695665598  0.6879584911005168  0.5413237647559228   F   F   F
  0.4999999773601118  0.7497488424395726  0.1972621243782342   F   F   F
  0.8336793361533594  0.8125684292476620  0.2026879820083352   F   F   F
  0.6657072758593117  0.8124132603758838  0.2026937887487748   F   F   F
  0.7497931976064436  0.8750918079280083  0.2779408447549940   F   F   F
  0.5826617397604110  0.8122475157007614  0.2840383815018441   F   F   F
  0.9173970560267861  0.8126929411348414  0.2836274479951371   F   F   F
  0.4999937375863084  0.8746868873925777  0.3696301291896233   F   F   F
  0.8319822833362451  0.8126733309407825  0.3683850590597615   F   F   F
  0.6679674544574752  0.8123727982942555  0.3680983307467613   F   F   F
  0.7507153036485832  0.8761724238181614  0.4550539078885478   F   F   F
  0.5843611670047295  0.8120976133221518  0.4544837319068620   F   F   F
  0.9185825578304119  0.8129722793576519  0.4569066189581577   F   F   F
  0.4987225907457784  0.8770523991638512  0.5419374420812062   F   F   F
  0.6613865914247299  0.8129404663135773  0.5436902903379135   F   F   F
  0.4999999773601118  0.8749314153800825  0.1972730817302377   F   F   F
  0.8337395803411525  0.9376312429899514  0.2027221991285302   F   F   F
  0.6656630452503052  0.9374555647667435  0.2027209852901350   F   F   F
  0.7498000447918542  0.4998887660981524  0.2779024612165273   F   F   F
  0.5827027124344184  0.9372505140694614  0.2840867710054695   F   F   F
  0.9174272609495446  0.9376830087642247  0.2837096281351847   F   F   F
  0.5002384140263771  0.4998510443056432  0.3695368932782301   F   F   F
  0.8317090033312979  0.9375650050637248  0.3683870602527932   F   F   F
  0.6680145564668152  0.9372766324501995  0.3682131861041782   F   F   F
  0.7517147718420460  0.4988345683078563  0.4556335321258587   F   F   F
  0.5834095738899236  0.9374713642462353  0.4536111461323529   F   F   F
  0.9170855643097013  0.9358029135214707  0.4524352319846230   F   F   F
  0.8205226902576896  0.9375337058238600  0.5418711730660775   F   F   F
  0.6566936741121268  0.9380006682177893  0.5417221333949129   F   F   F
  0.4059506829858179  0.9998103728487990  0.2323399872166121   F   F   F
  0.2502818000571452  0.0000100191821204  0.1992701411496398   F   F   F
  0.0942452122279107  0.0001403541836851  0.2320193042349672   F   F   F
  0.1548500920793501  0.1251896377484130  0.3155471657786819   F   F   F
  0.0000000000000000  0.1252068501894854  0.3027729273378696   F   F   F
  0.3452375182102116  0.1246790019965331  0.3159667273799300   F   F   F
  0.4002901589796153  0.1246838403195198  0.4022393727949805   F   F   F
  0.2496873649686009  0.1248837957917033  0.3877372846071339   F   F   F
  0.0984063130669597  0.1246085680025786  0.4028908759491969   F   F   F
  0.1508791662932438  0.1302348097490764  0.4878344339335143   F   F   F
  0.0021664715526200  0.1245258455245803  0.4775194976958801   F   F   F
  0.3494018769842597  0.1246398672424434  0.4885724148718324   F   F   F
  0.4038362831738809  0.1237931179024159  0.5721895099408698   F   F   F
  0.2512775685617186  0.1281772379683730  0.5589012929554613   F   F   F
  0.0726257212569692  0.0546554519774674  0.5581880808817061   F   F   F
  0.4058965681333504  0.1248444897695506  0.2323487465369354   F   F   F
  0.2502658969168294  0.1250292452004871  0.1993221065555701   F   F   F
  0.0942835895977723  0.1251516162367849  0.2320045413355558   F   F   F
  0.1548192245257454  0.2501939206276376  0.3155011055325190   F   F   F
  0.0000000000000000  0.2502658104001867  0.3027806040455658   F   F   F
  0.3452603789744160  0.2497083328310552  0.3159103002977375   F   F   F
  0.4000673493574851  0.2497123576307061  0.4018031127141697   F   F   F
  0.2494849864642319  0.2501352184965100  0.3873517432874110   F   F   F
  0.0982181811257945  0.2507556798985320  0.4029446457094963   F   F   F
  0.1522783113256168  0.2481034653774188  0.4879158923318130   F   F   F
  0.9999730530122406  0.2491587335931555  0.4789140011742177   F   F   F
  0.3482870558042634  0.2498513844868526  0.4889274133930002   F   F   F
  0.4048699320751794  0.2490145686949035  0.5719099662389127   F   F   F
  0.2521702427504238  0.2509620579233598  0.5643372549700558   F   F   F
  0.0747652458218369  0.1881462818298374  0.5658699063804349   F   F   F
  0.4059506829858179  0.2498103657839934  0.2323399872166121   F   F   F
  0.2502818000571452  0.2500100215370509  0.1992701411496398   F   F   F
  0.0942452122279107  0.2501403565386227  0.2320193042349672   F   F   F
  0.1548500920793501  0.3751896401033505  0.3155471657786819   F   F   F
  0.0000000000000000  0.3752068525444230  0.3027729273378696   F   F   F
  0.3452375182102116  0.3746790043514636  0.3159667273799300   F   F   F
  0.4004412940318574  0.3747623262677138  0.4018475654446121   F   F   F
  0.2494868086990607  0.3750775023342570  0.3871904340065129   F   F   F
  0.0982018914508132  0.3749637803355128  0.4025206552384191   F   F   F
  0.1527597678548389  0.3810264987594110  0.4854723044148983   F   F   F
  0.0009961550392319  0.3740627390171696  0.4783771893452027   F   F   F
  0.3502961525308450  0.3747779116621217  0.4880365216232221   F   F   F
  0.4037377168354652  0.3745368946700580  0.5719721672550975   F   F   F
  0.2533641378781013  0.3771849559404643  0.5581424799257491   F   F   F
  0.1042460787171393  0.3775678257118287  0.5677535867323655   F   F   F
  0.4058965681333504  0.3748444921244882  0.2323487465369354   F   F   F
  0.2502658969168294  0.3750292475554247  0.1993221065555701   F   F   F
  0.0942835895977723  0.3751516185917225  0.2320045413355558   F   F   F
  0.1548192245257454  0.0001939182727071  0.3155011055325190   F   F   F
  0.0000000000000000  0.0002658080452491  0.3027806040455658   F   F   F
  0.3452603789744160  0.9997083398958608  0.3159103002977375   F   F   F
  0.4003356596310752  0.9997391159117726  0.4021791729718274   F   F   F
  0.2499004007857550  0.0000306569845989  0.3875563242667965   F   F   F
  0.0987444756756233  0.0005495564208786  0.4024092445575320   F   F   F
  0.1499444150457805  0.9937024824713347  0.4878150453256183   F   F   F
  0.0007566692074619  0.9977113447753183  0.4761706279799398   F   F   F
  0.3480026215134089  0.9990478351626422  0.4884873477647815   F   F   F
  0.4051502249232470  0.9985944885803093  0.5703877144710034   F   F   F
  0.2507787731920175  0.9954968058080951  0.5583583135151358   F   F   F
  0.0701347262472822  0.9289855023453768  0.5671896439748707   F   F   F
  0.4059506829858179  0.4998103681389310  0.2323399872166121   F   F   F
  0.2502818000571452  0.5000100238919885  0.1992701411496398   F   F   F
  0.0942452122279107  0.5001403588935602  0.2320193042349672   F   F   F
  0.1548500920793501  0.6251896424582810  0.3155471657786819   F   F   F
  0.0000000000000000  0.6252068120823395  0.3027729273378696   F   F   F
  0.3452375182102116  0.6246790067064012  0.3159667273799300   F   F   F
  0.4014399339367642  0.6245159595033840  0.4023511115402982   F   F   F
  0.2498770430484143  0.6247271330341846  0.3880677767152747   F   F   F
  0.0986478972297462  0.6251210495960891  0.4015986301541048   F   F   F
  0.1492801276221698  0.6284894215535601  0.4868223551627935   F   F   F
  0.9976217074534475  0.6273907368819778  0.4749966822187943   F   F   F
  0.3507908616769910  0.6245964983134940  0.4886166707636193   F   F   F
  0.4053119201830645  0.6255727231599562  0.5752139262861449   T   T   T
  0.2534856201999602  0.6290998637734617  0.5577141261977374   F   F   F
  0.0874214397706865  0.6369712158377467  0.5700677204246674   F   F   F
  0.4058965681333504  0.6248444516624048  0.2323487465369354   F   F   F
  0.2502658969168294  0.6250292499103622  0.1993221065555701   F   F   F
  0.0942835895977723  0.6251516209466601  0.2320045413355558   F   F   F
  0.1548192245257454  0.7501939253375127  0.3155011055325190   F   F   F
  0.0000000000000000  0.7502658151100619  0.3027806040455658   F   F   F
  0.3452603789744160  0.7497083375409233  0.3159103002977375   F   F   F
  0.4011167909606215  0.7498506613074269  0.4018461547675614   F   F   F
  0.2504485069342763  0.7497103927577697  0.3865881077105584   F   F   F
  0.0997890027666486  0.7506589181486305  0.4004022119794115   F   F   F
  0.1508691163920730  0.7460954375959545  0.4850366348500685   F   F   F
  0.0011356388324231  0.7500507024136454  0.4692655934417616   F   F   F
  0.3486763514265832  0.7498995155245041  0.4871066886054436   F   F   F
  0.4024301805176194  0.7491658031109338  0.5695837269690927   F   F   F
  0.2543559305975975  0.7477231693369859  0.5589095601791314   F   F   F
  0.1058881883932301  0.7554670123228533  0.5671292801195023   F   F   F
  0.4059506829858179  0.7498103704938615  0.2323399872166121   F   F   F
  0.2502818000571452  0.7500100262469260  0.1992701411496398   F   F   F
  0.0942452122279107  0.7501403612484978  0.2320193042349672   F   F   F
  0.1548500920793501  0.8751896448132186  0.3155471657786819   F   F   F
  0.0000000000000000  0.8752068144372771  0.3027729273378696   F   F   F
  0.3452375182102116  0.8746790090613388  0.3159667273799300   F   F   F
  0.4011252947231512  0.8745226413130709  0.4023208968061667   F   F   F
  0.2504759508951722  0.8747920031707821  0.3873236937785265   F   F   F
  0.1000593561520233  0.8742481842302610  0.4007018988374540   F   F   F
  0.1501159259965519  0.8763315746725766  0.4873916125640747   F   F   F
  0.0013789347915605  0.8757749534437949  0.4686134997715641   F   F   F
  0.3500224307720075  0.8743888809500930  0.4886973418072884   F   F   F
  0.4039399967225452  0.8718268487710760  0.5745994717960388   T   T   T
  0.2502699279211456  0.8751577889521300  0.5579178214031586   F   F   F
  0.9640948053296654  0.8199803975301307  0.5441203828074137   F   F   F
  0.4058965681333504  0.8748444540173423  0.2323487465369354   F   F   F
  0.2502658969168294  0.8750292522652927  0.1993221065555701   F   F   F
  0.0942835895977723  0.8751516233015906  0.2320045413355558   F   F   F
  0.1548192245257454  0.5001939229825751  0.3155011055325190   F   F   F
  0.0000000000000000  0.5002658127551243  0.3027806040455658   F   F   F
  0.3452603789744160  0.4997083351859928  0.3159103002977375   F   F   F
  0.4007922675035545  0.5001855736641474  0.4018797157588878   F   F   F
  0.2493997279619862  0.5001584276749895  0.3875061632152494   F   F   F
  0.0985880395766117  0.5003213464269507  0.4022352063767016   F   F   F
  0.1502142162387798  0.5003723843119303  0.4879150065578486   F   F   F
  0.9979536855075466  0.4998581519305674  0.4758715316378783   F   F   F
  0.3480383483598786  0.5013938270837599  0.4878396173515256   F   F   F
  0.4055220712666099  0.5027024007756111  0.5667737566952482   F   F   F
  0.2570607897129946  0.4969235163613774  0.5626116360611491   F   F   F
  0.0914736482739613  0.4959324308550208  0.5723304464205796   F   F   F
  0.9057547977115519  0.0001403541836851  0.2320193042349672   F   F   F
  0.7497182098823174  0.0000100191821204  0.1992701411496398   F   F   F
  0.5940493269536447  0.9998103728487990  0.2323399872166121   F   F   F
  0.6547624917292509  0.1246790019965331  0.3159667273799300   F   F   F
  0.4999999773601118  0.1247350066555484  0.3031144096044613   F   F   F
  0.8451499178601125  0.1251896377484130  0.3155471657786819   F   F   F
  0.9024536260535427  0.1241572338200712  0.4030604524537580   F   F   F
  0.7501670318423450  0.1246188440868039  0.3872651342775342   F   F   F
  0.5988559958948940  0.1246310897538407  0.4018171538718320   F   F   F
  0.6483493847391415  0.1242838437411109  0.4878937479826959   F   F   F
  0.4989711877516925  0.1243271317459076  0.4726204131231952   F   F   F
  0.8476625035915575  0.1286251896064954  0.4860705955183562   F   F   F
  0.9246652881243023  0.0602168687593192  0.5470693211743836   F   F   F
  0.7440160505712612  0.1266856643433059  0.5584018476651735   F   F   F
  0.5919249324597757  0.1239614315985946  0.5718934645980198   F   F   F
  0.9057164203416903  0.1251516162367849  0.2320045413355558   F   F   F
  0.7497341130226332  0.1250292452004871  0.1993221065555701   F   F   F
  0.5941034418061122  0.1248444897695506  0.2323487465369354   F   F   F
  0.6547396309650466  0.2497083328310552  0.3159103002977375   F   F   F
  0.4999999773601118  0.2496370424967509  0.3031199210869104   F   F   F
  0.8451807854137172  0.2501939206276376  0.3155011055325190   F   F   F
  0.9023491512567432  0.2500829389180268  0.4028662711168423   F   F   F
  0.7506277259383722  0.2498825124586475  0.3872539144739804   F   F   F
  0.5994078017323190  0.2496758775317147  0.4015652331949937   F   F   F
  0.6504850991766347  0.2494271962935031  0.4879997127940285   F   F   F
  0.4995539163619469  0.2495508946573466  0.4699676513248505   F   F   F
  0.8490754534332368  0.2463856894483811  0.4873760951164741   F   F   F
  0.9230805512356639  0.1818714907177750  0.5635213587292824   F   F   F
  0.7439061642892142  0.2462328326955543  0.5593448032602097   F   F   F
  0.5920059942999956  0.2485638767676619  0.5712223103843641   F   F   F
  0.9057547977115519  0.2501403565386227  0.2320193042349672   F   F   F
  0.7497182098823174  0.2500100215370509  0.1992701411496398   F   F   F
  0.5940493269536447  0.2498103657839934  0.2323399872166121   F   F   F
  0.6547624917292509  0.3746790043514636  0.3159667273799300   F   F   F
  0.4999999773601118  0.3747350090104860  0.3031144096044613   F   F   F
  0.8451499178601125  0.3751896401033505  0.3155471657786819   F   F   F
  0.9022392649747033  0.3742758821307746  0.4027090626413425   F   F   F
  0.7506019937738273  0.3746332757766737  0.3874427811671097   F   F   F
  0.5993994636274991  0.3747185672757283  0.4017416662461741   F   F   F
  0.6504915046081550  0.3744587107959205  0.4877467751174507   F   F   F
  0.5000437109959819  0.3748743784027724  0.4714588681975513   F   F   F
  0.8496481321423204  0.3778000223982687  0.4874982663107090   F   F   F
  0.9706015906705440  0.3054012199878299  0.5849613292083822   T   T   T
  0.7447494172606213  0.3776778226300408  0.5592313913862910   F   F   F
  0.5940259692163039  0.3748902206992781  0.5683768435390419   F   F   F
  0.9057164203416903  0.3751516185917225  0.2320045413355558   F   F   F
  0.7497341130226332  0.3750292475554247  0.1993221065555701   F   F   F
  0.5941034418061122  0.3748444921244882  0.2323487465369354   F   F   F
  0.6547396309650466  0.9997083398958608  0.3159103002977375   F   F   F
  0.4999999773601118  0.9996370495615636  0.3031199210869104   F   F   F
  0.8451807854137172  0.0001939182727071  0.3155011055325190   F   F   F
  0.9018836530870828  0.0008670874233871  0.4028264769013248   F   F   F
  0.7500375427310928  0.0002257741337957  0.3871553639188008   F   F   F
  0.5989220381026001  0.9997430550773885  0.4018012099404658   F   F   F
  0.6496377599816796  0.9995043930212972  0.4878371896747353   F   F   F
  0.4991392751097479  0.9996538244127180  0.4717558649272533   F   F   F
  0.8482678168698286  0.9951800549316445  0.4868420718351203   F   F   F
  0.9146630490196007  0.9443070302207135  0.5754754502071685   T   T   T