Ta  N Ru Cu                             
   1.00000000000000     
     9.0548154099999998    0.0000000000000000    0.0000000000000000
     0.0000000000000000   11.6775998899999998    0.0000000000000000
     0.0000000000000000    0.0000000000000000   26.4818170799999990
   Ta   N    Ru   Cu
    60    60    32     1
Selective dynamics
Direct
  0.0000000000000000  0.0000000000000000  0.2258397498815228   F   F   F
  0.6670845899906297  0.1250000003211298  0.2339882671631202   F   F   F
  0.3329153514769843  0.1250000003211298  0.2339882671631202   F   F   F
  0.4999999994478088  0.2499999997859135  0.3208898207564346   F   F   F
  0.1650707596845180  0.1250000003211298  0.3267034403329916   F   F   F
  0.8349292403154820  0.1250000003211298  0.3267034403329916   F   F   F
  0.0010945938601954  0.2502615663782467  0.4254758016513758   T   T   T
  0.6650344539604210  0.1252584837871344  0.4239694869377297   T   T   T
  0.3353349045665353  0.1252538453525457  0.4239079869300781   T   T   T
  0.4982962444216796  0.2505936111661963  0.5231503356861227   T   T   T
  0.1678405873626538  0.1255358268743157  0.5234373632389514   T   T   T
  0.8342786249371511  0.1256865523284756  0.5227611804173329   T   T   T
  0.0040657179802888  0.2511771704727764  0.6221186847222091   T   T   T
  0.6649488782060226  0.1262562945907674  0.6206542853914264   T   T   T
  0.3288180414515755  0.1257791949177962  0.6245677266889581   T   T   T
  0.0000000000000000  0.2499999997859135  0.2258397498815228   F   F   F
  0.6670845899906297  0.3750000001070433  0.2339882671631202   F   F   F
  0.3329153514769843  0.3750000001070433  0.2339882671631202   F   F   F
  0.4999999994478088  0.5000000004281731  0.3208898207564346   F   F   F
  0.1650707596845180  0.3750000001070433  0.3267034403329916   F   F   F
  0.8349292403154820  0.3750000001070433  0.3267034403329916   F   F   F
  0.0011332421153493  0.5003795600043460  0.4254743936332138   T   T   T
  0.6652456404439776  0.3752610477566210  0.4239722386206810   T   T   T
  0.3354553681747589  0.3752685383794951  0.4239140109656422   T   T   T
  0.4982216385385521  0.5007217306825293  0.5232698249503462   T   T   T
  0.1676797425026964  0.3755933999478410  0.5233848083054531   T   T   T
  0.8343692121089210  0.3757701448037733  0.5226826534498680   T   T   T
  0.0017158381218285  0.5006899111991023  0.6231091454395356   T   T   T
  0.6661164378485527  0.3767369055953578  0.6201120461473578   T   T   T
  0.3305832573317871  0.3754288955783688  0.6232752112259057   T   T   T
  0.0000000000000000  0.5000000004281731  0.2258397498815228   F   F   F
  0.6670845899906297  0.6249999998929567  0.2339882671631202   F   F   F
  0.3329153514769843  0.6249999998929567  0.2339882671631202   F   F   F
  0.4999999994478088  0.7500000002140865  0.3208898207564346   F   F   F
  0.1650707596845180  0.6249999998929567  0.3267034403329916   F   F   F
  0.8349292403154820  0.6249999998929567  0.3267034403329916   F   F   F
  0.0011258185427491  0.7502562650268871  0.4254974388040568   T   T   T
  0.6650929920901886  0.6252831457609619  0.4239753416010481   T   T   T
  0.3353506546618321  0.6252665758723684  0.4239279204200514   T   T   T
  0.4982925792966654  0.7505691221104452  0.5232329784216604   T   T   T
  0.1679492664613301  0.6255827025883081  0.5235166411443382   T   T   T
  0.8342802159287934  0.6257255119609059  0.5227621796544503   T   T   T
  0.0045973951765125  0.7512363371006094  0.6222457867959842   T   T   T
  0.6654473159848995  0.6263514963109120  0.6208704848130520   T   T   T
  0.3296591569135354  0.6259069310447785  0.6247254316387505   T   T   T
  0.0000000000000000  0.7500000002140865  0.2258397498815228   F   F   F
  0.6670845899906297  0.8750000005352163  0.2339882671631202   F   F   F
  0.3329153514769843  0.8750000005352163  0.2339882671631202   F   F   F
  0.4999999994478088  0.0000000000000000  0.3208898207564346   F   F   F
  0.1650707596845180  0.8750000005352163  0.3267034403329916   F   F   F
  0.8349292403154820  0.8750000005352163  0.3267034403329916   F   F   F
  0.0011121347577089  0.0003342736006290  0.4254767169178175   T   T   T
  0.6651918390886048  0.8752328156239647  0.4239809813323328   T   T   T
  0.3354465697627661  0.8752249127993951  0.4239139218087196   T   T   T
  0.4982417747044331  0.0006012622925852  0.5232513648864378   T   T   T
  0.1675939441186045  0.8755137318333713  0.5234172232278714   T   T   T
  0.8343101524009813  0.8756830151313696  0.5227128124236615   T   T   T
  0.0006980151751812  0.0009082810210039  0.6231654119495031   T   T   T
  0.6662344673963798  0.8764230486566139  0.6202503888764094   T   T   T
  0.3306024236388793  0.8756429930414492  0.6233627389740174   T   T   T
  0.8141011533980276  0.0000000000000000  0.2671765160246267   F   F   F
  0.4999999994478088  0.0000000000000000  0.2273691263583544   F   F   F
  0.1858988466019724  0.0000000000000000  0.2671765160246267   F   F   F
  0.3088456122590841  0.2499999997859135  0.3635413069267344   F   F   F
  0.0000000000000000  0.2499999997859135  0.3485649890092901   F   F   F
  0.6911543877409159  0.2499999997859135  0.3635413069267344   F   F   F
  0.8028480192863827  0.2503784546015262  0.4626516618866741   T   T   T
  0.5001023063220229  0.2503461227816972  0.4456373361565792   T   T   T
  0.1990570993496592  0.2504437491411013  0.4632062721807064   T   T   T
  0.3026543311426662  0.2502675803323763  0.5628017255123199   T   T   T
  0.0010110899423472  0.2507149356421021  0.5437059000273309   T   T   T
  0.6960554895618116  0.2505986864549780  0.5602607610334657   T   T   T
  0.8050442695336043  0.2523264589349336  0.6551653912678067   T   T   T
  0.5026331622077940  0.2512597237913204  0.6424792876189589   T   T   T
  0.1981657453696730  0.2515753585988508  0.6599345651192494   T   T   T
  0.8141011533980276  0.2499999997859135  0.2671765160246267   F   F   F
  0.4999999994478088  0.2499999997859135  0.2273691263583544   F   F   F
  0.1858988466019724  0.2499999997859135  0.2671765160246267   F   F   F
  0.3088456122590841  0.5000000004281731  0.3635413069267344   F   F   F
  0.0000000000000000  0.5000000004281731  0.3485649890092901   F   F   F
  0.6911543877409159  0.5000000004281731  0.3635413069267344   F   F   F
  0.8028921285676868  0.5005217359413189  0.4626778163887420   T   T   T
  0.5000965955826341  0.5003305063125159  0.4456852809332902   T   T   T
  0.1989521488593866  0.5003868643917244  0.4632447243837852   T   T   T
  0.3024891675914703  0.5008836982338193  0.5626924089627251   T   T   T
  0.0008168479836494  0.5007868316117353  0.5442502344467081   T   T   T
  0.6963222764713397  0.5014008821213654  0.5604046524895707   T   T   T
  0.8020705536282466  0.5017603967569220  0.6574919956186943   T   T   T
  0.5016364262540512  0.5007552224620306  0.6407161267849988   T   T   T
  0.1995304160102913  0.4992607756485605  0.6601500686075095   T   T   T
  0.8141011533980276  0.5000000004281731  0.2671765160246267   F   F   F
  0.4999999994478088  0.5000000004281731  0.2273691263583544   F   F   F
  0.1858988466019724  0.5000000004281731  0.2671765160246267   F   F   F
  0.3088456122590841  0.7500000002140865  0.3635413069267344   F   F   F
  0.0000000000000000  0.7500000002140865  0.3485649890092901   F   F   F
  0.6911543877409159  0.7500000002140865  0.3635413069267344   F   F   F
  0.8028515255810864  0.7504301421860821  0.4626707227322135   T   T   T
  0.5001048879293094  0.7503211952224489  0.4456660209948230   T   T   T
  0.1990917794028502  0.7504195249460730  0.4632532266287004   T   T   T
  0.3028393081300418  0.7502875853775868  0.5630119936870087   T   T   T
  0.0010492212401065  0.7506299292886968  0.5437992856226078   T   T   T
  0.6960587933166907  0.7505219988113024  0.5603066894061998   T   T   T
  0.8053441032418289  0.7515134794744801  0.6550693351997157   T   T   T
  0.5031128776401502  0.7512242020674440  0.6434215482222900   T   T   T
  0.1985262839713413  0.7518706386700827  0.6604076188289890   T   T   T
  0.8141011533980276  0.7500000002140865  0.2671765160246267   F   F   F
  0.4999999994478088  0.7500000002140865  0.2273691263583544   F   F   F
  0.1858988466019724  0.7500000002140865  0.2671765160246267   F   F   F
  0.3088456122590841  0.0000000000000000  0.3635413069267344   F   F   F
  0.0000000000000000  0.0000000000000000  0.3485649890092901   F   F   F
  0.6911543877409159  0.0000000000000000  0.3635413069267344   F   F   F
  0.8028884031140608  0.0005124850804443  0.4626796734399914   T   T   T
  0.5000637252286061  0.0002884996544469  0.4456856659044748   T   T   T
  0.1989172481556210  0.0003288420198036  0.4632200877811097   T   T   T
  0.3022876860085462  0.0007705339037294  0.5625673053697524   T   T   T
  0.0006747086769331  0.0007078692166499  0.5442781209304366   T   T   T
  0.6962977127554801  0.0012078175928469  0.5603932571359851   T   T   T
  0.8010946686313978  0.0022007851799713  0.6579279531148143   T   T   T
  0.5010439186477531  0.0007895914798589  0.6402776533288738   T   T   T
  0.1984976815972191  0.9994617328607716  0.6595785303395084   T   T   T
  0.0958662816670381  0.0115166611135666  0.7312536937222982   T   T   T
  0.5689020127576199  0.9891557395185576  0.7141976877948107   T   T   T
  0.8498205308328802  0.1343928268003034  0.7127065478105494   T   T   T
  0.0927124392334029  0.5109486711379543  0.7312571388564328   T   T   T
  0.5691080748279833  0.4913868799934971  0.7150939946795424   T   T   T
  0.8478097391176941  0.6339016532206363  0.7133559649604155   T   T   T
  0.1070064732363621  0.2439732580780575  0.7322657293538045   T   T   T
  0.5497239500541000  0.2621817871703591  0.7193320328519649   T   T   T
  0.8465429691209088  0.3699403498095130  0.7128276914503667   T   T   T
  0.1043487211720671  0.7454193426124519  0.7324996971851923   T   T   T
  0.5553157611398881  0.7609143112298147  0.7210188897608801   T   T   T
  0.8471864249053311  0.8700884186202711  0.7125906278494162   T   T   T
  0.3283013978823084  0.8901417885016779  0.7378005397159633   T   T   T
  0.3459254582978696  0.6159922254331661  0.7434135847611121   T   T   T
  0.3268889729172930  0.3931531311580697  0.7370654155107758   T   T   T
  0.3493050065366670  0.1148001381928315  0.7444909462910589   T   T   T
  0.1410766395309332  0.8816600365943987  0.8061835021493517   T   T   T
  0.6586960437642607  0.8883005131699868  0.7953270640111179   T   T   T
  0.8926280377307978  0.0168309194792706  0.7956239813211452   T   T   T
  0.1406468497833224  0.3813056924860926  0.8061451301285578   T   T   T
  0.6603793125226011  0.3817099194514194  0.7943330139284521   T   T   T
  0.8917702378190114  0.5195639728224242  0.7966105588878946   T   T   T
  0.1465968914492087  0.1232330941921754  0.8107383209142679   T   T   T
  0.6312271433610461  0.1186433451960112  0.7887360713290448   T   T   T
  0.8917746619956036  0.2435124674500740  0.7951627288357302   T   T   T
  0.1437246980887815  0.6226402223197716  0.8099667974699056   T   T   T
  0.6379205092927031  0.6136170162869593  0.7904414406288510   T   T   T
  0.8886341347396139  0.7423908258734833  0.7952326506783819   T   T   T
  0.4215691575820998  0.7646499475031762  0.8077718770979027   T   T   T
  0.3971382760693029  0.4848770590656383  0.8184010403084795   T   T   T
  0.4181209880365582  0.2702493819828060  0.8075760881670903   T   T   T
  0.4011151967795358  0.9786696505007442  0.8193100291622638   T   T   T
  0.7705988685810717  0.1268251128861752  0.8686649455443568   T   T   T
 
  0.00000000E+00  0.00000000E+00  0.00000000E+00
  0.00000000E+00  0.00000000E+00  0.00000000E+00
  0.00000000E+00  0.00000000E+00  0.00000000E+00
  0.00000000E+00  0.00000000E+00  0.00000000E+00
  0.00000000E+00  0.00000000E+00  0.00000000E+00
  0.00000000E+00  0.00000000E+00  0.00000000E+00
  0.00000000E+00  0.00000000E+00  0.00000000E+00
  0.00000000E+00  0.00000000E+00  0.00000000E+00
  0.00000000E+00  0.00000000E+00  0.00000000E+00
  0.00000000E+00  0.00000000E+00  0.00000000E+00
  0.00000000E+00  0.00000000E+00  0.00000000E+00
  0.00000000E+00  0.00000000E+00  0.00000000E+00
  0.00000000E+00  0.00000000E+00  0.00000000E+00
  0.00000000E+00  0.00000000E+00  0.00000000E+00
  0.00000000E+00  0.00000000E+00  0.00000000E+00
  0.00000000E+00  0.00000000E+00  0.00000000E+00
  0.00000000E+00  0.00000000E+00  0.00000000E+00
  0.00000000E+00  0.00000000E+00  0.00000000E+00
  0.00000000E+00  0.00000000E+00  0.00000000E+00
  0.00000000E+00  0.00000000E+00  0.00000000E+00
  0.00000000E+00  0.00000000E+00  0.00000000E+00
  0.00000000E+00  0.00000000E+00  0.00000000E+00
  0.00000000E+00  0.00000000E+00  0.00000000E+00
  0.00000000E+00  0.00000000E+00  0.00000000E+00
  0.00000000E+00  0.00000000E+00  0.00000000E+00
  0.00000000E+00  0.00000000E+00  0.00000000E+00
  0.00000000E+00  0.00000000E+00  0.00000000E+00
  0.00000000E+00  0.00000000E+00  0.00000000E+00
  0.00000000E+00  0.00000000E+00  0.00000000E+00
  0.00000000E+00  0.00000000E+00  0.00000000E+00
  0.00000000E+00  0.00000000E+00  0.00000000E+00
  0.00000000E+00  0.00000000E+00  0.00000000E+00
  0.00000000E+00  0.00000000E+00  0.00000000E+00
  0.00000000E+00  0.00000000E+00  0.00000000E+00
  0.00000000E+00  0.00000000E+00  0.00000000E+00
  0.00000000E+00  0.00000000E+00  0.00000000E+00
  0.00000000E+00  0.00000000E+00  0.00000000E+00
  0.00000000E+00  0.00000000E+00  0.00000000E+00
  0.00000000E+00  0.00000000E+00  0.00000000E+00
  0.00000000E+00  0.00000000E+00  0.00000000E+00
  0.00000000E+00  0.00000000E+00  0.00000000E+00
  0.00000000E+00  0.00000000E+00  0.00000000E+00
  0.00000000E+00  0.00000000E+00  0.00000000E+00
  0.00000000E+00  0.00000000E+00  0.00000000E+00
  0.00000000E+00  0.00000000E+00  0.00000000E+00
  0.00000000E+00  0.00000000E+00  0.00000000E+00
  0.00000000E+00  0.00000000E+00  0.00000000E+00
  0.00000000E+00  0.00000000E+00  0.00000000E+00
  0.00000000E+00  0.00000000E+00  0.00000000E+00
  0.00000000E+00  0.00000000E+00  0.00000000E+00
  0.00000000E+00  0.00000000E+00  0.00000000E+00
  0.00000000E+00  0.00000000E+00  0.00000000E+00
  0.00000000E+00  0.00000000E+00  0.00000000E+00
  0.00000000E+00  0.00000000E+00  0.00000000E+00
  0.00000000E+00  0.00000000E+00  0.00000000E+00
  0.00000000E+00  0.00000000E+00  0.00000000E+00
  0.00000000E+00  0.00000000E+00  0.00000000E+00
  0.00000000E+00  0.00000000E+00  0.00000000E+00
  0.00000000E+00  0.00000000E+00  0.00000000E+00
  0.00000000E+00  0.00000000E+00  0.00000000E+00
  0.00000000E+00  0.00000000E+00  0.00000000E+00
  0.00000000E+00  0.00000000E+00  0.00000000E+00
  0.00000000E+00  0.00000000E+00  0.00000000E+00
  0.00000000E+00  0.00000000E+00  0.00000000E+00
  0.00000000E+00  0.00000000E+00  0.00000000E+00
  0.00000000E+00  0.00000000E+00  0.00000000E+00
  0.00000000E+00  0.00000000E+00  0.00000000E+00
  0.00000000E+00  0.00000000E+00  0.00000000E+00
  0.00000000E+00  0.00000000E+00  0.00000000E+00
  0.00000000E+00  0.00000000E+00  0.00000000E+00
  0.00000000E+00  0.00000000E+00  0.00000000E+00
  0.00000000E+00  0.00000000E+00  0.00000000E+00
  0.00000000E+00  0.00000000E+00  0.00000000E+00
  0.00000000E+00  0.00000000E+00  0.00000000E+00
  0.00000000E+00  0.00000000E+00  0.00000000E+00
  0.00000000E+00  0.00000000E+00  0.00000000E+00
  0.00000000E+00  0.00000000E+00  0.00000000E+00
  0.00000000E+00  0.00000000E+00  0.00000000E+00
  0.00000000E+00  0.00000000E+00  0.00000000E+00
  0.00000000E+00  0.00000000E+00  0.00000000E+00
  0.00000000E+00  0.00000000E+00  0.00000000E+00
  0.00000000E+00  0.00000000E+00  0.00000000E+00
  0.00000000E+00  0.00000000E+00  0.00000000E+00
  0.00000000E+00  0.00000000E+00  0.00000000E+00
  0.00000000E+00  0.00000000E+00  0.00000000E+00
  0.00000000E+00  0.00000000E+00  0.00000000E+00
  0.00000000E+00  0.00000000E+00  0.00000000E+00
  0.00000000E+00  0.00000000E+00  0.00000000E+00
  0.00000000E+00  0.00000000E+00  0.00000000E+00
  0.00000000E+00  0.00000000E+00  0.00000000E+00
  0.00000000E+00  0.00000000E+00  0.00000000E+00
  0.00000000E+00  0.00000000E+00  0.00000000E+00
  0.00000000E+00  0.00000000E+00  0.00000000E+00
  0.00000000E+00  0.00000000E+00  0.00000000E+00
  0.00000000E+00  0.00000000E+00  0.00000000E+00
  0.00000000E+00  0.00000000E+00  0.00000000E+00
  0.00000000E+00  0.00000000E+00  0.00000000E+00
  0.00000000E+00  0.00000000E+00  0.00000000E+00
  0.00000000E+00  0.00000000E+00  0.00000000E+00
  0.00000000E+00  0.00000000E+00  0.00000000E+00
  0.00000000E+00  0.00000000E+00  0.00000000E+00
  0.00000000E+00  0.00000000E+00  0.00000000E+00
  0.00000000E+00  0.00000000E+00  0.00000000E+00
  0.00000000E+00  0.00000000E+00  0.00000000E+00
  0.00000000E+00  0.00000000E+00  0.00000000E+00
  0.00000000E+00  0.00000000E+00  0.00000000E+00
  0.00000000E+00  0.00000000E+00  0.00000000E+00
  0.00000000E+00  0.00000000E+00  0.00000000E+00
  0.00000000E+00  0.00000000E+00  0.00000000E+00
  0.00000000E+00  0.00000000E+00  0.00000000E+00
  0.00000000E+00  0.00000000E+00  0.00000000E+00
  0.00000000E+00  0.00000000E+00  0.00000000E+00
  0.00000000E+00  0.00000000E+00  0.00000000E+00
  0.00000000E+00  0.00000000E+00  0.00000000E+00
  0.00000000E+00  0.00000000E+00  0.00000000E+00
  0.00000000E+00  0.00000000E+00  0.00000000E+00
  0.00000000E+00  0.00000000E+00  0.00000000E+00
  0.00000000E+00  0.00000000E+00  0.00000000E+00
  0.00000000E+00  0.00000000E+00  0.00000000E+00
  0.00000000E+00  0.00000000E+00  0.00000000E+00
  0.00000000E+00  0.00000000E+00  0.00000000E+00
  0.00000000E+00  0.00000000E+00  0.00000000E+00
  0.00000000E+00  0.00000000E+00  0.00000000E+00
  0.00000000E+00  0.00000000E+00  0.00000000E+00
  0.00000000E+00  0.00000000E+00  0.00000000E+00
  0.00000000E+00  0.00000000E+00  0.00000000E+00
  0.00000000E+00  0.00000000E+00  0.00000000E+00
  0.00000000E+00  0.00000000E+00  0.00000000E+00
  0.00000000E+00  0.00000000E+00  0.00000000E+00
  0.00000000E+00  0.00000000E+00  0.00000000E+00
  0.00000000E+00  0.00000000E+00  0.00000000E+00
  0.00000000E+00  0.00000000E+00  0.00000000E+00
  0.00000000E+00  0.00000000E+00  0.00000000E+00
  0.00000000E+00  0.00000000E+00  0.00000000E+00
  0.00000000E+00  0.00000000E+00  0.00000000E+00
  0.00000000E+00  0.00000000E+00  0.00000000E+00
  0.00000000E+00  0.00000000E+00  0.00000000E+00
  0.00000000E+00  0.00000000E+00  0.00000000E+00
  0.00000000E+00  0.00000000E+00  0.00000000E+00
  0.00000000E+00  0.00000000E+00  0.00000000E+00
  0.00000000E+00  0.00000000E+00  0.00000000E+00
  0.00000000E+00  0.00000000E+00  0.00000000E+00
  0.00000000E+00  0.00000000E+00  0.00000000E+00
  0.00000000E+00  0.00000000E+00  0.00000000E+00
  0.00000000E+00  0.00000000E+00  0.00000000E+00
  0.00000000E+00  0.00000000E+00  0.00000000E+00
  0.00000000E+00  0.00000000E+00  0.00000000E+00
  0.00000000E+00  0.00000000E+00  0.00000000E+00
  0.00000000E+00  0.00000000E+00  0.00000000E+00
  0.00000000E+00  0.00000000E+00  0.00000000E+00
  0.00000000E+00  0.00000000E+00  0.00000000E+00
  0.00000000E+00  0.00000000E+00  0.00000000E+00
  0.00000000E+00  0.00000000E+00  0.00000000E+00
