Ta  N Ru Cu                             
   1.00000000000000     
    18.1096308199999996    0.0000000000000000    0.0000000000000000
     0.0000000000000000   23.3551997799999995    0.0000000000000000
     0.0000000000000000    0.0000000000000000   30.4818171199999988
   Ta   N    Ru   Cu
   228   240    12    29
Selective dynamics
Direct
  0.0000000000000000  0.0000718897725491  0.1971343760886626   F   F   F
  0.3342926788609191  0.0624132533110782  0.2026937887487748   F   F   F
  0.1663206737861032  0.0625684649998774  0.2026879820083352   F   F   F
  0.2502068123330190  0.1250918008632027  0.2779408447549940   F   F   F
  0.0826029539126765  0.0626929340700357  0.2836274479951371   F   F   F
  0.4173382701790516  0.0622475086359557  0.2840383815018441   F   F   F
  0.0002270615034021  0.1248069820621325  0.3694555332992593   F   F   F
  0.3315304469580553  0.0622564573926354  0.3681902544004245   F   F   F
  0.1677292060888078  0.0624979453718879  0.3684364011432635   F   F   F
  0.2494039246240121  0.1258720981919197  0.4557758464761790   F   F   F
  0.0876301132680979  0.0616221660939260  0.4553635022924141   F   F   F
  0.4147902889165564  0.0616063237974132  0.4542027119149665   F   F   F
  0.0036293395847338  0.1166009293712804  0.5452628015767047   F   F   F
  0.3377646988388463  0.0606876846848365  0.5433580266818439   F   F   F
  0.0000000000000000  0.1251997425645683  0.1971274211227225   F   F   F
  0.3343369646891574  0.1874555577019379  0.2027209852901350   F   F   F
  0.1662604295983101  0.1876312787421597  0.2027221991285302   F   F   F
  0.2501999651476083  0.2498887637432148  0.2779024612165273   F   F   F
  0.0825727489899180  0.1876830445164330  0.2837096281351847   F   F   F
  0.4172972975050442  0.1872505070046557  0.2840867710054695   F   F   F
  0.0002320312347450  0.2502112615197660  0.3694514653003083   F   F   F
  0.3314800870137233  0.1872360348527096  0.3682586558343601   F   F   F
  0.1677678043356181  0.1875682949092692  0.3683702633539028   F   F   F
  0.2500011758936580  0.2491107785334492  0.4552494670960741   F   F   F
  0.0835861324311651  0.1880858670180032  0.4537966665682802   F   F   F
  0.4149639534175762  0.1874148387181975  0.4538230101421163   F   F   F
  0.9936843649030251  0.2402658959400270  0.5484535890424667   F   F   F
  0.3397312767527723  0.1857511406823846  0.5424166786025282   F   F   F
  0.1770586066535813  0.1891220388438910  0.5414221840853273   F   F   F
  0.0000000000000000  0.2500718921274867  0.1971343760886626   F   F   F
  0.3342926788609191  0.3124132556660157  0.2026937887487748   F   F   F
  0.1663206737861032  0.3125684245377940  0.2026879820083352   F   F   F
  0.2502068123330190  0.3750918032181332  0.2779408447549940   F   F   F
  0.0826029539126765  0.3126929364249662  0.2836274479951371   F   F   F
  0.4173382701790516  0.3122475109908933  0.2840383815018441   F   F   F
  0.0002114344592670  0.3748974567752583  0.3693814891570995   F   F   F
  0.3314059275781531  0.3123694966740302  0.3680696251090154   F   F   F
  0.1671977761499193  0.3126564563259748  0.3683922108643642   F   F   F
  0.2504059329023889  0.3768672536698787  0.4548702574198771   F   F   F
  0.0862550990423756  0.3135007650960020  0.4561368813828750   F   F   F
  0.4156286825950843  0.3117516899270996  0.4537855779905016   F   F   F
  0.0046156103805117  0.3706696188235270  0.5491248416754502   F   F   F
  0.3365482190431521  0.3115687756279186  0.5424029327028492   F   F   F
  0.0000000000000000  0.3751997449194988  0.1971274211227225   F   F   F
  0.3343369646891574  0.4374555600568684  0.2027209852901350   F   F   F
  0.1662604295983101  0.4376312382800762  0.2027221991285302   F   F   F
  0.2501999651476083  0.9998887708080204  0.2779024612165273   F   F   F
  0.0825727489899180  0.4376830468713706  0.2837096281351847   F   F   F
  0.4172972975050442  0.4372505093595933  0.2840867710054695   F   F   F
  0.0000916087145271  0.0005400938599891  0.3693863445106871   F   F   F
  0.3315455770290541  0.4374903274751603  0.3682539645129950   F   F   F
  0.1675328464812935  0.4376991032529745  0.3680724136566838   F   F   F
  0.2486305792069174  0.9978760618420210  0.4556497713152083   F   F   F
  0.0827824164336022  0.4388105902128174  0.4537127476867440   F   F   F
  0.4164669658351414  0.4379343827646736  0.4532521452251288   F   F   F
  0.9988686682680807  0.9950643539303528  0.5442526583861351   F   F   F
  0.3378343855162029  0.4386639419275369  0.5399738780402501   F   F   F
  0.1671744184125785  0.4438292584795889  0.5427741376069264   F   F   F
  0.0000000000000000  0.5000718944824172  0.1971343760886626   F   F   F
  0.3342926788609191  0.5624132580209533  0.2026937887487748   F   F   F
  0.1663206737861032  0.5625684268927316  0.2026879820083352   F   F   F
  0.2502068123330190  0.6250918055730708  0.2779408447549940   F   F   F
  0.0826029539126765  0.5626929387799038  0.2836274479951371   F   F   F
  0.4173382701790516  0.5622475133458238  0.2840383815018441   F   F   F
  0.9996457685933109  0.6248805035912213  0.3691447906698784   F   F   F
  0.3315956056579594  0.5623681717014222  0.3684189153090784   F   F   F
  0.1673083250628054  0.5626184799862983  0.3681779847906910   F   F   F
  0.2498863750995000  0.6255344050839895  0.4562937617939511   F   F   F
  0.0833103675605500  0.5636921167025903  0.4549065085395441   F   F   F
  0.4167078321478428  0.5620972256140533  0.4541380832219915   F   F   F
  0.9898074774778891  0.6317338810620967  0.5445683219819770   F   F   F
  0.3248297581805701  0.5645676818954612  0.5429610031070240   F   F   F
  0.0000000000000000  0.6251997472744364  0.1971274211227225   F   F   F
  0.3343369646891574  0.6874555624118059  0.2027209852901350   F   F   F
  0.1662604295983101  0.6876312406350138  0.2027221991285302   F   F   F
  0.2501999651476083  0.7498887684530899  0.2779024612165273   F   F   F
  0.0825727489899180  0.6876830492263082  0.2837096281351847   F   F   F
  0.4172972975050442  0.6872505117145238  0.2840867710054695   F   F   F
  0.9996231287060553  0.7504649570589095  0.3693216173983771   F   F   F
  0.3320694971516787  0.6870607466925307  0.3683008121137874   F   F   F
  0.1684001750401194  0.6874540209991764  0.3676486856371497   F   F   F
  0.2494209873683104  0.7484685279793410  0.4541205973877993   F   F   F
  0.0825119526097566  0.6886842823658341  0.4516290792574651   F   F   F
  0.4172230276309961  0.6875924912340849  0.4537157330730679   F   F   F
  0.0034102435033778  0.7608515427870390  0.5837726561015089   T   T   T
  0.3353066144945274  0.6881526662753288  0.5398020378911070   F   F   F
  0.1677338997239701  0.6889026491555867  0.5422315846503594   F   F   F
  0.0000000000000000  0.7500718968373548  0.1971343760886626   F   F   F
  0.3342926788609191  0.8124132603758838  0.2026937887487748   F   F   F
  0.1663206737861032  0.8125684292476620  0.2026879820083352   F   F   F
  0.2502068123330190  0.8750918079280083  0.2779408447549940   F   F   F
  0.0826029539126765  0.8126929411348414  0.2836274479951371   F   F   F
  0.4173382701790516  0.8122475157007614  0.2840383815018441   F   F   F
  0.9998130828820493  0.8750156792707173  0.3694172481801203   F   F   F
  0.3321823652725371  0.8122712363285132  0.3680472511147954   F   F   F
  0.1688454629689673  0.8124612582526183  0.3676031831005204   F   F   F
  0.2498534092148859  0.8752343029625749  0.4553010388246861   F   F   F
  0.0839825513350831  0.8120911051354724  0.4532432874854777   F   F   F
  0.4164661375465855  0.8119108454913828  0.4540705019491327   F   F   F
  0.9854686563953224  0.8790818018821679  0.5863084850914821   T   T   T
  0.3341402737662236  0.8113239954481770  0.5416407406094947   F   F   F
  0.0000000000000000  0.8751997496293740  0.1971274211227225   F   F   F
  0.3343369646891574  0.9374555647667435  0.2027209852901350   F   F   F
  0.1662604295983101  0.9376312429899514  0.2027221991285302   F   F   F
  0.2501999651476083  0.4998887660981524  0.2779024612165273   F   F   F
  0.0825727489899180  0.9376830087642247  0.2837096281351847   F   F   F
  0.4172972975050442  0.9372505140694614  0.2840867710054695   F   F   F
  0.9999986747383076  0.5002990387607795  0.3693004572425593   F   F   F
  0.3320431575755336  0.9372478165973561  0.3683701649345750   F   F   F
  0.1687164708308515  0.9375155942254167  0.3679588705569898   F   F   F
  0.2496941017155407  0.5003448957866325  0.4554187155362115   F   F   F
  0.0829672352205364  0.9352444939779474  0.4521439435760257   F   F   F
  0.4155817462434612  0.9373820051305088  0.4540921213951563   F   F   F
  0.9944650544786739  0.5041690548964368  0.5450896491698387   F   F   F
  0.3388690283637743  0.9373960062952662  0.5424710716852417   F   F   F
  0.1736722317125654  0.9333958692431281  0.5415130907392580   F   F   F
  0.4999999773601118  0.9997488447945102  0.1972621243782342   F   F   F
  0.8336793361533594  0.0625684649998774  0.2026879820083352   F   F   F
  0.6657072758593117  0.0624132533110782  0.2026937887487748   F   F   F
  0.7497931976064436  0.1250918008632027  0.2779408447549940   F   F   F
  0.5826617397604110  0.0622475086359557  0.2840383815018441   F   F   F
  0.9173970560267861  0.0626929340700357  0.2836274479951371   F   F   F
  0.4994948869973683  0.1245729014269230  0.3696022109065140   F   F   F
  0.8329070399017695  0.0624451519891878  0.3686857957239766   F   F   F
  0.6680699965809680  0.0622220753275045  0.3679383665300335   F   F   F
  0.7483207214270564  0.1255450618115006  0.4549190406008208   F   F   F
  0.5830827864441233  0.0616730755278496  0.4536864697257883   F   F   F
  0.9141683320079963  0.0614719639961905  0.4570668456264286   F   F   F
  0.4977348290305983  0.1270815933050429  0.5410125300299029   F   F   F
  0.6575535480739276  0.0608611364231280  0.5429642837513384   F   F   F
  0.4999999773601118  0.1249314083152768  0.1972730817302377   F   F   F
  0.8337395803411525  0.1876312787421597  0.2027221991285302   F   F   F
  0.6656630452503052  0.1874555577019379  0.2027209852901350   F   F   F
  0.7498000447918542  0.2498887637432148  0.2779024612165273   F   F   F
  0.5827027124344184  0.1872505070046557  0.2840867710054695   F   F   F
  0.9174272609495446  0.1876830445164330  0.2837096281351847   F   F   F
  0.4996842889809940  0.2496871812243597  0.3694971646755931   F   F   F
  0.8324008451542824  0.1873009882684045  0.3684162579871781   F   F   F
  0.6682871738409091  0.1871809293510580  0.3680955093926528   F   F   F
  0.7503478196249631  0.2482909182804676  0.4550029922888044   F   F   F
  0.5833517041293277  0.1872528619406211  0.4532707464783812   F   F   F
  0.9168746268235637  0.1874001524811604  0.4536453304461006   F   F   F
  0.8193633071532673  0.1845642101375304  0.5395036960972348   F   F   F
  0.6560324789657983  0.1851532866656527  0.5412241972010108   F   F   F
  0.4999999773601118  0.2497488377297046  0.1972621243782342   F   F   F
  0.8336793361533594  0.3125684245377940  0.2026879820083352   F   F   F
  0.6657072758593117  0.3124132556660157  0.2026937887487748   F   F   F
  0.7497931976064436  0.3750918032181332  0.2779408447549940   F   F   F
  0.5826617397604110  0.3122475109908933  0.2840383815018441   F   F   F
  0.9173970560267861  0.3126929364249662  0.2836274479951371   F   F   F
  0.4999178111351483  0.3747252039134565  0.3695798697187413   F   F   F
  0.8328360279627134  0.3123521557819018  0.3684323003378722   F   F   F
  0.6685412927705414  0.3122191233082248  0.3680126075108490   F   F   F
  0.7505977971118014  0.3757777746570810  0.4552640331568298   F   F   F
  0.5838043914359616  0.3117492065400782  0.4534591210748644   F   F   F
  0.9156201009734346  0.3121714251506162  0.4559417814655546   F   F   F
  0.4981595201839681  0.3795556485708644  0.5394449397575798   F   F   F
  0.6600824786995858  0.3108261572746898  0.5416847996626259   F   F   F
  0.4999999773601118  0.3749314106702144  0.1972730817302377   F   F   F
  0.8337395803411525  0.4376312382800762  0.2027221991285302   F   F   F
  0.6656630452503052  0.4374555600568684  0.2027209852901350   F   F   F
  0.7498000447918542  0.9998887708080204  0.2779024612165273   F   F   F
  0.5827027124344184  0.4372505093595933  0.2840867710054695   F   F   F
  0.9174272609495446  0.4376830468713706  0.2837096281351847   F   F   F
  0.4995882075082534  0.9997711430409382  0.3695550352412837   F   F   F
  0.8321914538067858  0.4374234472936749  0.3683062907897892   F   F   F
  0.6685722707626098  0.4372923415857812  0.3681996042367146   F   F   F
  0.7493319513180481  0.9981780596868859  0.4549289153402043   F   F   F
  0.5849060152182588  0.4377914167429111  0.4533612266485534   F   F   F
  0.9177819341101312  0.4370004579768150  0.4534014145413892   F   F   F
  0.8251225631555954  0.4365647091887155  0.5406800695351706   F   F   F
  0.6616694243577044  0.4392168808928076  0.5404830996505865   F   F   F
  0.4999999773601118  0.4997488400846350  0.1972621243782342   F   F   F
  0.8336793361533594  0.5625684268927316  0.2026879820083352   F   F   F
  0.6657072758593117  0.5624132580209533  0.2026937887487748   F   F   F
  0.7497931976064436  0.6250918055730708  0.2779408447549940   F   F   F
  0.5826617397604110  0.5622475133458238  0.2840383815018441   F   F   F
  0.9173970560267861  0.5626929387799038  0.2836274479951371   F   F   F
  0.5003438275502106  0.6246505333896977  0.3696293090285394   F   F   F
  0.8322110014167592  0.5625266374835505  0.3682503886106900   F   F   F
  0.6685588524879691  0.5623247124285555  0.3681606301822740   F   F   F
  0.7518590044896314  0.6264704279057156  0.4557368724217312   F   F   F
  0.5845494093843726  0.5620690948334968  0.4543033948889459   F   F   F
  0.9134334743992341  0.5634483594214004  0.4542454259039275   F   F   F
  0.5012611847379418  0.6294747267625382  0.5418497176522692   F   F   F
  0.6650163175441222  0.5637228165042032  0.5431111581972488   F   F   F
  0.4999999773601118  0.6249314130251449  0.1972730817302377   F   F   F
  0.8337395803411525  0.6876312406350138  0.2027221991285302   F   F   F
  0.6656630452503052  0.6874555624118059  0.2027209852901350   F   F   F
  0.7498000447918542  0.7498887684530899  0.2779024612165273   F   F   F
  0.5827027124344184  0.6872505117145238  0.2840867710054695   F   F   F
  0.9174272609495446  0.6876830492263082  0.2837096281351847   F   F   F
  0.5003151135468613  0.7496958349717886  0.3695641554324780   F   F   F
  0.8314341219684778  0.6878371904896667  0.3681666665678094   F   F   F
  0.6682111921705101  0.6872956408510760  0.3684432248834355   F   F   F
  0.7514443080182005  0.7490626140985199  0.4552622944153413   F   F   F
  0.5848308066171839  0.6877562663264030  0.4539954736136806   F   F   F
  0.9176232340223933  0.6896464235682913  0.4520905346866044   F   F   F
  0.8251734752923028  0.6910037658431918  0.5418224554980213   F   F   F
  0.6618574458603987  0.6879638432277204  0.5412842986048361   F   F   F
  0.4999999773601118  0.7497488424395726  0.1972621243782342   F   F   F
  0.8336793361533594  0.8125684292476620  0.2026879820083352   F   F   F
  0.6657072758593117  0.8124132603758838  0.2026937887487748   F   F   F
  0.7497931976064436  0.8750918079280083  0.2779408447549940   F   F   F
  0.5826617397604110  0.8122475157007614  0.2840383815018441   F   F   F
  0.9173970560267861  0.8126929411348414  0.2836274479951371   F   F   F
  0.4999737482224376  0.8746820918866050  0.3696256347069138   F   F   F
  0.8319526858251010  0.8126645106351589  0.3683717068374008   F   F   F
  0.6679489560130065  0.8123677458861778  0.3680916382323574   F   F   F
  0.7506578756418847  0.8761582513853341  0.4550409165370652   F   F   F
  0.5842982722935517  0.8120807434172193  0.4544665741371006   F   F   F
  0.9185367258635253  0.8129575503036008  0.4568692196129831   F   F   F
  0.4986441794289433  0.8772555230953358  0.5419359657912679   F   F   F
  0.6612642808143150  0.8129159749795107  0.5436868456613837   F   F   F
  0.4999999773601118  0.8749314153800825  0.1972730817302377   F   F   F
  0.8337395803411525  0.9376312429899514  0.2027221991285302   F   F   F
  0.6656630452503052  0.9374555647667435  0.2027209852901350   F   F   F
  0.7498000447918542  0.4998887660981524  0.2779024612165273   F   F   F
  0.5827027124344184  0.9372505140694614  0.2840867710054695   F   F   F
  0.9174272609495446  0.9376830087642247  0.2837096281351847   F   F   F
  0.5002132892734465  0.4998156346320926  0.3695491628879637   F   F   F
  0.8316773074891444  0.9375622647745985  0.3683799084481905   F   F   F
  0.6679887138637994  0.9372688825700095  0.3682089868794520   F   F   F
  0.7517195206964473  0.4988198392537981  0.4556340570289450   F   F   F
  0.5833634106076175  0.9374531241967361  0.4535978923293271   F   F   F
  0.9170139449590380  0.9357856154463633  0.4524240777939568   F   F   F
  0.8204723855325966  0.9374883197852029  0.5418429595249776   F   F   F
  0.6566948337161094  0.9379552393621182  0.5417116025266679   F   F   F
  0.4059506829858179  0.9998103728487990  0.2323399872166121   F   F   F
  0.2502818000571452  0.0000100191821204  0.1992701411496398   F   F   F
  0.0942452122279107  0.0001403541836851  0.2320193042349672   F   F   F
  0.1548500920793501  0.1251896377484130  0.3155471657786819   F   F   F
  0.0000000000000000  0.1252068501894854  0.3027729273378696   F   F   F
  0.3452375182102116  0.1246790019965331  0.3159667273799300   F   F   F
  0.4002512294173854  0.1246426503485907  0.4022145383175229   F   F   F
  0.2496400420823122  0.1248692808227361  0.3877212750628800   F   F   F
  0.0983299448619022  0.1245964936036188  0.4028870047889086   F   F   F
  0.1507371976343777  0.1301743949372494  0.4878114038104329   F   F   F
  0.0020092623842913  0.1245188235336911  0.4775491219140306   F   F   F
  0.3492868553131530  0.1245346658302040  0.4885053585020671   F   F   F
  0.4036265605109648  0.1236911277664987  0.5721289492468387   F   F   F
  0.2510422793919744  0.1280582922934883  0.5588603833208765   F   F   F
  0.0725453772668345  0.0546876931917240  0.5580730614920739   F   F   F
  0.4058965681333504  0.1248444897695506  0.2323487465369354   F   F   F
  0.2502658969168294  0.1250292452004871  0.1993221065555701   F   F   F
  0.0942835895977723  0.1251516162367849  0.2320045413355558   F   F   F
  0.1548192245257454  0.2501939206276376  0.3155011055325190   F   F   F
  0.0000000000000000  0.2502658104001867  0.3027806040455658   F   F   F
  0.3452603789744160  0.2497083328310552  0.3159103002977375   F   F   F
  0.4000348252267685  0.2497184376472106  0.4018076728097668   F   F   F
  0.2494610213152839  0.2501337199008944  0.3873406219031850   F   F   F
  0.0981583786918989  0.2507382105553546  0.4029435959033165   F   F   F
  0.1521597004040984  0.2480031879222082  0.4878889254355556   F   F   F
  0.9998414655699790  0.2491418208712091  0.4789582242595642   F   F   F
  0.3481653526054629  0.2497950372916904  0.4888957551753705   F   F   F
  0.4042033806628424  0.2487762491749521  0.5719147559796127   F   F   F
  0.2519399233120296  0.2507713509269749  0.5641661037562216   F   F   F
  0.0744057685876101  0.1882448894213624  0.5658015705593868   F   F   F
  0.4059506829858179  0.2498103657839934  0.2323399872166121   F   F   F
  0.2502818000571452  0.2500100215370509  0.1992701411496398   F   F   F
  0.0942452122279107  0.2501403565386227  0.2320193042349672   F   F   F
  0.1548500920793501  0.3751896401033505  0.3155471657786819   F   F   F
  0.0000000000000000  0.3752068525444230  0.3027729273378696   F   F   F
  0.3452375182102116  0.3746790043514636  0.3159667273799300   F   F   F
  0.4004681858003778  0.3747358653508357  0.4019194443615248   F   F   F
  0.2494900666340598  0.3750645287779264  0.3872119878396560   F   F   F
  0.0981849943642317  0.3749421577416285  0.4025187196582749   F   F   F
  0.1527078617718587  0.3810167364794026  0.4854663664486907   F   F   F
  0.0009626369622495  0.3740486522183772  0.4783818806665678   F   F   F
  0.3502812985560340  0.3747252895474915  0.4881363844361246   F   F   F
  0.4036803992672446  0.3743824536875806  0.5722492832802644   F   F   F
  0.2532274150467728  0.3770974807735072  0.5580427811450619   F   F   F
  0.1041518194792204  0.3775587485041001  0.5677745500495277   F   F   F
  0.4058965681333504  0.3748444921244882  0.2323487465369354   F   F   F
  0.2502658969168294  0.3750292475554247  0.1993221065555701   F   F   F
  0.0942835895977723  0.3751516185917225  0.2320045413355558   F   F   F
  0.1548192245257454  0.0001939182727071  0.3155011055325190   F   F   F
  0.0000000000000000  0.0002658080452491  0.3027806040455658   F   F   F
  0.3452603789744160  0.9997083398958608  0.3159103002977375   F   F   F
  0.4003057308045115  0.9997245581257914  0.4021650005883899   F   F   F
  0.2498563910536973  0.0000148575051071  0.3875485819462199   F   F   F
  0.0986785439063951  0.0005446324638569  0.4023999931405697   F   F   F
  0.1498381180141592  0.9936516586714461  0.4877891610419880   F   F   F
  0.0006452920060127  0.9976917345812595  0.4761513705978189   F   F   F
  0.3479270815969073  0.9989901178229204  0.4884677951246772   F   F   F
  0.4050587818664297  0.9984427022529232  0.5703612724778395   F   F   F
  0.2506802068536018  0.9954498783568084  0.5583448300670071   F   F   F
  0.0701116998253610  0.9290394946045737  0.5672505327333326   F   F   F
  0.4059506829858179  0.4998103681389310  0.2323399872166121   F   F   F
  0.2502818000571452  0.5000100238919885  0.1992701411496398   F   F   F
  0.0942452122279107  0.5001403588935602  0.2320193042349672   F   F   F
  0.1548500920793501  0.6251896424582810  0.3155471657786819   F   F   F
  0.0000000000000000  0.6252068120823395  0.3027729273378696   F   F   F
  0.3452375182102116  0.6246790067064012  0.3159667273799300   F   F   F
  0.4014201102306103  0.6244703593796430  0.4023483557990701   F   F   F
  0.2498747238404491  0.6247094496059162  0.3880580003952190   F   F   F
  0.0986369086015415  0.6250999836234357  0.4015848514479927   F   F   F
  0.1492259023312315  0.6284746924995019  0.4868063456185467   F   F   F
  0.9975881893764651  0.6273769498023114  0.4749657457429137   F   F   F
  0.3507168678991306  0.6245476869134308  0.4885936078340976   F   F   F
  0.4053567941422455  0.6253485936265516  0.5752171259150459   T   T   T
  0.2533099678064019  0.6289860989577036  0.5576848300440176   F   F   F
  0.0873100073499984  0.6369584991835140  0.5700583377819299   F   F   F
  0.4058965681333504  0.6248444516624048  0.2323487465369354   F   F   F
  0.2502658969168294  0.6250292499103622  0.1993221065555701   F   F   F
  0.0942835895977723  0.6251516209466601  0.2320045413355558   F   F   F
  0.1548192245257454  0.7501939253375127  0.3155011055325190   F   F   F
  0.0000000000000000  0.7502658151100619  0.3027806040455658   F   F   F
  0.3452603789744160  0.7497083375409233  0.3159103002977375   F   F   F
  0.4010875799841429  0.7498373023979354  0.4018261428372512   F   F   F
  0.2504245417853284  0.7496952355335438  0.3865800045191037   F   F   F
  0.0997597365709311  0.7506453879710691  0.4003907625307619   F   F   F
  0.1507853488092223  0.7460854612308552  0.4850236763050333   F   F   F
  0.0010770512217420  0.7500325479981811  0.4692438755764030   F   F   F
  0.3486008667293206  0.7498500618691750  0.4870752928393642   F   F   F
  0.4023168706428635  0.7490537937928963  0.5695388149484444   F   F   F
  0.2542677454757722  0.7476527781600524  0.5588848241210087   F   F   F
  0.1058671498638546  0.7554372544956252  0.5671463394699359   F   F   F
  0.4059506829858179  0.7498103704938615  0.2323399872166121   F   F   F
  0.2502818000571452  0.7500100262469260  0.1992701411496398   F   F   F
  0.0942452122279107  0.7501403612484978  0.2320193042349672   F   F   F
  0.1548500920793501  0.8751896448132186  0.3155471657786819   F   F   F
  0.0000000000000000  0.8752068144372771  0.3027729273378696   F   F   F
  0.3452375182102116  0.8746790090613388  0.3159667273799300   F   F   F
  0.4010876352033748  0.8745036733742708  0.4023086600028805   F   F   F
  0.2504420462835242  0.8747805282100671  0.3873158858450623   F   F   F
  0.1000253411019045  0.8742227081047886  0.4006924833882763   F   F   F
  0.1500449692767418  0.8762901706165565  0.4873806880185114   F   F   F
  0.0013115121029301  0.8757552576157011  0.4686048716770230   F   F   F
  0.3499514740521903  0.8743346746058123  0.4886820868112309   F   F   F
  0.4038250629791346  0.8717837533345258  0.5745576019289008   T   T   T
  0.2501840620072926  0.8751019555611776  0.5579139174364300   F   F   F
  0.9642499713862165  0.8199769293517036  0.5441359658679019   F   F   F
  0.4058965681333504  0.8748444540173423  0.2323487465369354   F   F   F
  0.2502658969168294  0.8750292522652927  0.1993221065555701   F   F   F
  0.0942835895977723  0.8751516233015906  0.2320045413355558   F   F   F
  0.1548192245257454  0.5001939229825751  0.3155011055325190   F   F   F
  0.0000000000000000  0.5002658127551243  0.3027806040455658   F   F   F
  0.3452603789744160  0.4997083351859928  0.3159103002977375   F   F   F
  0.4007903348302477  0.5001326518303912  0.4019232827153729   F   F   F
  0.2494096674246862  0.5001236174396766  0.3875188265022942   F   F   F
  0.0985990834240553  0.5003008370755211  0.4022292027976064   F   F   F
  0.1502138849233603  0.5003386445020581  0.4879070017857288   F   F   F
  0.9979764358332730  0.4998354589112424  0.4758556205129523   F   F   F
  0.3480201260116047  0.5012980882324101  0.4879124148488430   F   F   F
  0.4054185904160832  0.5026777381734746  0.5669266675267011   F   F   F
  0.2570563169547810  0.4967816635820697  0.5627064466818084   F   F   F
  0.0914782866898918  0.4959300759190484  0.5723352033548323   F   F   F
  0.9057547977115519  0.0001403541836851  0.2320193042349672   F   F   F
  0.7497182098823174  0.0000100191821204  0.1992701411496398   F   F   F
  0.5940493269536447  0.9998103728487990  0.2323399872166121   F   F   F
  0.6547624917292509  0.1246790019965331  0.3159667273799300   F   F   F
  0.4999999773601118  0.1247350066555484  0.3031144096044613   F   F   F
  0.8451499178601125  0.1251896377484130  0.3155471657786819   F   F   F
  0.9023810127566136  0.1241471290039229  0.4030667512908437   F   F   F
  0.7501204268061414  0.1246219697290911  0.3872497480557016   F   F   F
  0.5988167902364765  0.1246118649129357  0.4018038672623589   F   F   F
  0.6483614777520899  0.1242191472275209  0.4878287912252901   F   F   F
  0.4989043724746693  0.1243190821465987  0.4726224471226672   F   F   F
  0.8475560409022194  0.1286627401309275  0.4861355522757620   F   F   F
  0.9245510947417515  0.0601446792676512  0.5471174810328989   F   F   F
  0.7440778408976954  0.1267041184778961  0.5584427901062057   F   F   F
  0.5918488403509059  0.1239572783478877  0.5717542668597986   F   F   F
  0.9057164203416903  0.1251516162367849  0.2320045413355558   F   F   F
  0.7497341130226332  0.1250292452004871  0.1993221065555701   F   F   F
  0.5941034418061122  0.1248444897695506  0.2323487465369354   F   F   F
  0.6547396309650466  0.2497083328310552  0.3159103002977375   F   F   F
  0.4999999773601118  0.2496370424967509  0.3031199210869104   F   F   F
  0.8451807854137172  0.2501939206276376  0.3155011055325190   F   F   F
  0.9022966377621628  0.2500886763983843  0.4028661726975145   F   F   F
  0.7505823357253831  0.2498869654284732  0.3872512899585274   F   F   F
  0.5993617488884837  0.2496912488410317  0.4015706462581150   F   F   F
  0.6504824486532499  0.2494047601762830  0.4879829815080257   F   F   F
  0.4994798121456157  0.2494885102627009  0.4699749343552284   F   F   F
  0.8490462424567511  0.2463463834262285  0.4873959758210091   F   F   F
  0.9227133433082315  0.1817683445223750  0.5638447974521554   F   F   F
  0.7439568555489728  0.2465203917857508  0.5597723368271446   F   F   F
  0.5916525911818695  0.2480130786532726  0.5706518719511280   F   F   F
  0.9057547977115519  0.2501403565386227  0.2320193042349672   F   F   F
  0.7497182098823174  0.2500100215370509  0.1992701411496398   F   F   F
  0.5940493269536447  0.2498103657839934  0.2323399872166121   F   F   F
  0.6547624917292509  0.3746790043514636  0.3159667273799300   F   F   F
  0.4999999773601118  0.3747350090104860  0.3031144096044613   F   F   F
  0.8451499178601125  0.3751896401033505  0.3155471657786819   F   F   F
  0.9022138089063461  0.3742639789998847  0.4027063397065618   F   F   F
  0.7505654386388017  0.3746240273008681  0.3874658440966314   F   F   F
  0.5993278442768357  0.3746956173542983  0.4018006522309321   F   F   F
  0.6504542316230371  0.3743909742740783  0.4878069093277233   F   F   F
  0.5000227276858453  0.3748322036404375  0.4717586534749216   F   F   F
  0.8496513900773124  0.3778177058265371  0.4874730381559331   F   F   F
  0.9709657986366023  0.3053877924591663  0.5850285080845180   T   T   T
  0.7447375451246216  0.3776488355091274  0.5589041799224574   F   F   F
  0.5941342541404708  0.3746823868958558  0.5686115408332313   F   F   F
  0.9057164203416903  0.3751516185917225  0.2320045413355558   F   F   F
  0.7497341130226332  0.3750292475554247  0.1993221065555701   F   F   F
  0.5941034418061122  0.3748444921244882  0.2323487465369354   F   F   F
  0.6547396309650466  0.9997083398958608  0.3159103002977375   F   F   F
  0.4999999773601118  0.9996370495615636  0.3031199210869104   F   F   F
  0.8451807854137172  0.0001939182727071  0.3155011055325190   F   F   F
  0.9018228567069144  0.0008699561635694  0.4028217855799525   F   F   F
  0.7499995518958897  0.0002172107302769  0.3871540516610779   F   F   F
  0.5988920540567904  0.9997338922356249  0.4017967482641964   F   F   F
  0.6495800006595616  0.9994682126414247  0.4878260026776218   F   F   F
  0.4990841663110146  0.9996072394975641  0.4717742693418501   F   F   F
  0.8482034864584804  0.9951631850267120  0.4868422358673357   F   F   F
  0.9145992004081123  0.9442214469610568  0.5754341437703080   T   T   T