Ta  N Cu                                
   1.00000000000000     
    10.4555999800000006    0.0000000000000000    0.0000000000000000
     0.0000000000000000   11.6775998899999998    0.0000000000000000
     0.0000000000000000    0.0000000000000000   24.0732377500000005
   Ta   N    Cu
    64    64     2
Selective dynamics
Direct
  0.4991785186325330  0.1250000003211298  0.3753726828051569   F   F   F
  0.2600588226580172  0.1250000003211298  0.3190980514078845   F   F   F
  0.2470962603561304  0.0000000000000000  0.4358978840493251   F   F   F
  0.2478461129044277  0.1249155463211248  0.5616532130531522   T   T   T
  0.9982709482999744  0.1249919158780159  0.5004689146832875   T   T   T
  0.9966180615632042  0.9998760524938975  0.6267553776703301   T   T   T
  0.5046704373795463  0.1285880991942105  0.7433803695369098   T   T   T
  0.2505192997682327  0.1245353360737495  0.6869862175334267   T   T   T
  0.4991785186325330  0.3750000001070433  0.3753726828051569   F   F   F
  0.2600588226580172  0.3750000001070433  0.3190980514078845   F   F   F
  0.2470962603561304  0.2499999997859135  0.4358978840493251   F   F   F
  0.2472969873660138  0.3750311544485769  0.5617637634449137   T   T   T
  0.9982295635569409  0.3750183940658219  0.5004792997248866   T   T   T
  0.9963010947782776  0.2498422784064445  0.6269971641683502   T   T   T
  0.5022595846053255  0.3751327302627535  0.7435318140916126   T   T   T
  0.2502584144608624  0.3750815892650244  0.6863933537095104   T   T   T
  0.4991785186325330  0.6249999998929567  0.3753726828051569   F   F   F
  0.2600588226580172  0.6249999998929567  0.3190980514078845   F   F   F
  0.2470962603561304  0.5000000004281731  0.4358978840493251   F   F   F
  0.2478452649555566  0.6251353511572850  0.5616547679784906   T   T   T
  0.9982799711475393  0.6250501662405654  0.5004662510978679   T   T   T
  0.9963143990461173  0.5002722153699136  0.6269946798527073   T   T   T
  0.5047299370912001  0.6216530385659941  0.7433445095822585   T   T   T
  0.2505910298753486  0.6256030942813439  0.6869914491190077   T   T   T
  0.4991785186325330  0.8750000005352163  0.3753726828051569   F   F   F
  0.2600588226580172  0.8750000005352163  0.3190980514078845   F   F   F
  0.2470962603561304  0.7500000002140865  0.4358978840493251   F   F   F
  0.2483149132937535  0.8750352882572062  0.5614932074838930   T   T   T
  0.9982011413801325  0.8750181783598413  0.5005350479196241   T   T   T
  0.9966151130118394  0.7502444107604852  0.6267479951581307   T   T   T
  0.5108132738131324  0.8751160392489818  0.7421745327302323   T   T   T
  0.2486478515020289  0.8750600383256667  0.6864752778332474   T   T   T
  0.9991784928090510  0.1250000003211298  0.3753726828051569   F   F   F
  0.7600587968345351  0.1250000003211298  0.3190980514078845   F   F   F
  0.7470962345326484  0.0000000000000000  0.4358978840493251   F   F   F
  0.7490615936145519  0.1251508761144911  0.5620763128460797   T   T   T
  0.4987667103075801  0.1249253864113610  0.5002626156241339   T   T   T
  0.4977807933930979  0.9996382211482386  0.6255530950926057   T   T   T
  0.0110706121410830  0.1246755258501739  0.7436191713552469   T   T   T
  0.7479984564784214  0.1253432569327948  0.6878762093541784   T   T   T
  0.9991784928090510  0.3750000001070433  0.3753726828051569   F   F   F
  0.7600587968345351  0.3750000001070433  0.3190980514078845   F   F   F
  0.7470962345326484  0.2499999997859135  0.4358978840493251   F   F   F
  0.7492680702909308  0.3750402909039244  0.5621531382372353   T   T   T
  0.4988054863528315  0.3750183543064184  0.5001050462063534   T   T   T
  0.4997447344994697  0.2496826820926925  0.6234316421911632   T   T   T
  0.0123246462906870  0.3750782986282425  0.7441594903134844   T   T   T
  0.7488017837229889  0.3750688807492639  0.6880998335810994   T   T   T
  0.9991784928090510  0.6249999998929567  0.3753726828051569   F   F   F
  0.7600587968345351  0.6249999998929567  0.3190980514078845   F   F   F
  0.7470962345326484  0.5000000004281731  0.4358978840493251   F   F   F
  0.7490824902615667  0.6249206366165313  0.5620615155693690   T   T   T
  0.4987729373548486  0.6251122858827675  0.5002579988735030   T   T   T
  0.4997614784268840  0.5004423137928568  0.6234139149428390   T   T   T
  0.0110708056405064  0.6255106651536143  0.7436039268070631   T   T   T
  0.7480194568554915  0.6248332337229249  0.6878633507809534   T   T   T
  0.9991784928090439  0.8750000005352163  0.3753726828051569   F   F   F
  0.7600587968345351  0.8750000005352163  0.3190980514078845   F   F   F
  0.7470962345326484  0.7500000002140865  0.4358978840493251   F   F   F
  0.7485590157193265  0.8750417852130867  0.5621074326608787   T   T   T
  0.4988082005884188  0.8750187744240545  0.5004812400885265   T   T   T
  0.4978025434584010  0.7505112952521802  0.6255419970313894   T   T   T
  0.0099603405351187  0.8750884699438920  0.7432016917290184   T   T   T
  0.7485779050989614  0.8750906929577275  0.6872761245842030   T   T   T
  0.1472195596423447  0.0000000000000000  0.3601606351366584   F   F   F
  0.4003222342624682  0.0000000000000000  0.3237632067519129   F   F   F
  0.4439214822817661  0.0000000000000000  0.4377276028165085   F   F   F
  0.4003324039083470  0.0000451848807545  0.5515036654633073   T   T   T
  0.1503583673674244  0.9998746539926427  0.5101997730145930   T   T   T
  0.1935690662503936  0.9998905448940261  0.6243541488787655   T   T   T
  0.1501169455494003  0.9995464920079016  0.7379156666533715   T   T   T
  0.3980814683248009  0.0001191866215262  0.7009570929572125   T   T   T
  0.1472195596423447  0.2499999997859135  0.3601606351366584   F   F   F
  0.4003222342624682  0.2499999997859135  0.3237632067519129   F   F   F
  0.4439214822817661  0.2499999997859135  0.4377276028165085   F   F   F
  0.3992177427611193  0.2500116268967670  0.5506288711541382   T   T   T
  0.1502264688403015  0.2499188790184777  0.5101475122278645   T   T   T
  0.1928634576640714  0.2495312324929607  0.6245517504908443   T   T   T
  0.1564571165268217  0.2489794975553839  0.7416624271415267   T   T   T
  0.4000448869136276  0.2510701473214639  0.6952734454022211   T   T   T
  0.1472195596423447  0.5000000004281731  0.3601606351366584   F   F   F
  0.4003222342624682  0.5000000004281731  0.3237632067519129   F   F   F
  0.4439214822817661  0.5000000004281731  0.4377276028165085   F   F   F
  0.3992157843288352  0.5000481109568009  0.5506194556883205   T   T   T
  0.1502289122365300  0.5001236963472997  0.5101466044572524   T   T   T
  0.1928705238072347  0.5005836900009883  0.6245487048869681   T   T   T
  0.1564572682367452  0.5012135358773806  0.7416490400415438   T   T   T
  0.4000718048756821  0.4990996893308645  0.6952490206657821   T   T   T
  0.1472195596423447  0.7500000002140865  0.3601606351366584   F   F   F
  0.4003222342624682  0.7500000002140865  0.3237632067519129   F   F   F
  0.4439214822817661  0.7500000002140865  0.4377276028165085   F   F   F
  0.4003373533148186  0.7500220012138671  0.5514994375843866   T   T   T
  0.1503619850399451  0.7501709606541193  0.5101987263462575   T   T   T
  0.1935725615786796  0.7502183613686287  0.6243508419801738   T   T   T
  0.1501262862290375  0.7506274106102253  0.7379128284483040   T   T   T
  0.3981179110588559  0.7500828102154320  0.7009369084183878   T   T   T
  0.6472195338188556  0.0000000000000000  0.3601606351366584   F   F   F
  0.9003222591295312  0.0000000000000000  0.3237632067519129   F   F   F
  0.9439215071488221  0.0000000000000000  0.4377276028165085   F   F   F
  0.9008983822161341  0.9999737719387293  0.5521171530027347   T   T   T
  0.6510237090347007  0.0000090180316704  0.5104847204070786   T   T   T
  0.6948499594356585  0.0004266746816520  0.6247482745908562   T   T   T
  0.6482305994445735  0.0008133004204925  0.7390908712401154   T   T   T
  0.8962908936515771  0.0003833487775071  0.7026723974618269   T   T   T
  0.6472195338188556  0.2499999997859135  0.3601606351366584   F   F   F
  0.9003222591295312  0.2499999997859135  0.3237632067519129   F   F   F
  0.9439215071488221  0.2499999997859135  0.4377276028165085   F   F   F
  0.9011633560360516  0.2499934977737616  0.5520480079987982   T   T   T
  0.6509714775181026  0.2500245728078007  0.5104488138970421   T   T   T
  0.6966061302028936  0.2501272677684214  0.6248607053184864   T   T   T
  0.6485106694738337  0.2501542326352962  0.7391126272866884   T   T   T
  0.8973113370279864  0.2502377389094692  0.7030537790686396   T   T   T
  0.6472195338188556  0.5000000004281731  0.3601606351366584   F   F   F
  0.9003222591295312  0.5000000004281731  0.3237632067519129   F   F   F
  0.9439215071488221  0.5000000004281731  0.4377276028165085   F   F   F
  0.9011712245941379  0.5000682722042720  0.5520438555952376   T   T   T
  0.6509733958578580  0.5000212542324234  0.5104469902674462   T   T   T
  0.6966279705087831  0.4999905661402643  0.6248537731683446   T   T   T
  0.6485565943190382  0.5000485842191849  0.7390996776995979   T   T   T
  0.8973260309274711  0.4999136081950576  0.7030434337599064   T   T   T
  0.6472195338188556  0.7500000002140865  0.3601606351366584   F   F   F
  0.9003222591295312  0.7500000002140865  0.3237632067519129   F   F   F
  0.9439215071488221  0.7500000002140865  0.4377276028165085   F   F   F
  0.9009034133698790  0.7500955566072718  0.5521127518023889   T   T   T
  0.6510261192126765  0.7500413109882553  0.5104835422511583   T   T   T
  0.6948793795621483  0.7497035200684912  0.6247392842832502   T   T   T
  0.6482741908760935  0.7494233290038171  0.7390818852444130   T   T   T
  0.8963020640304070  0.7497985278954165  0.7026607309718443   T   T   T
  0.3147301818468752  0.2603625830794466  0.7932836963107095   T   T   T
  0.3149702472228772  0.4909969180022835  0.7932167098901044   T   T   T
 
  0.00000000E+00  0.00000000E+00  0.00000000E+00
  0.00000000E+00  0.00000000E+00  0.00000000E+00
  0.00000000E+00  0.00000000E+00  0.00000000E+00
  0.00000000E+00  0.00000000E+00  0.00000000E+00
  0.00000000E+00  0.00000000E+00  0.00000000E+00
  0.00000000E+00  0.00000000E+00  0.00000000E+00
  0.00000000E+00  0.00000000E+00  0.00000000E+00
  0.00000000E+00  0.00000000E+00  0.00000000E+00
  0.00000000E+00  0.00000000E+00  0.00000000E+00
  0.00000000E+00  0.00000000E+00  0.00000000E+00
  0.00000000E+00  0.00000000E+00  0.00000000E+00
  0.00000000E+00  0.00000000E+00  0.00000000E+00
  0.00000000E+00  0.00000000E+00  0.00000000E+00
  0.00000000E+00  0.00000000E+00  0.00000000E+00
  0.00000000E+00  0.00000000E+00  0.00000000E+00
  0.00000000E+00  0.00000000E+00  0.00000000E+00
  0.00000000E+00  0.00000000E+00  0.00000000E+00
  0.00000000E+00  0.00000000E+00  0.00000000E+00
  0.00000000E+00  0.00000000E+00  0.00000000E+00
  0.00000000E+00  0.00000000E+00  0.00000000E+00
  0.00000000E+00  0.00000000E+00  0.00000000E+00
  0.00000000E+00  0.00000000E+00  0.00000000E+00
  0.00000000E+00  0.00000000E+00  0.00000000E+00
  0.00000000E+00  0.00000000E+00  0.00000000E+00
  0.00000000E+00  0.00000000E+00  0.00000000E+00
  0.00000000E+00  0.00000000E+00  0.00000000E+00
  0.00000000E+00  0.00000000E+00  0.00000000E+00
  0.00000000E+00  0.00000000E+00  0.00000000E+00
  0.00000000E+00  0.00000000E+00  0.00000000E+00
  0.00000000E+00  0.00000000E+00  0.00000000E+00
  0.00000000E+00  0.00000000E+00  0.00000000E+00
  0.00000000E+00  0.00000000E+00  0.00000000E+00
  0.00000000E+00  0.00000000E+00  0.00000000E+00
  0.00000000E+00  0.00000000E+00  0.00000000E+00
  0.00000000E+00  0.00000000E+00  0.00000000E+00
  0.00000000E+00  0.00000000E+00  0.00000000E+00
  0.00000000E+00  0.00000000E+00  0.00000000E+00
  0.00000000E+00  0.00000000E+00  0.00000000E+00
  0.00000000E+00  0.00000000E+00  0.00000000E+00
  0.00000000E+00  0.00000000E+00  0.00000000E+00
  0.00000000E+00  0.00000000E+00  0.00000000E+00
  0.00000000E+00  0.00000000E+00  0.00000000E+00
  0.00000000E+00  0.00000000E+00  0.00000000E+00
  0.00000000E+00  0.00000000E+00  0.00000000E+00
  0.00000000E+00  0.00000000E+00  0.00000000E+00
  0.00000000E+00  0.00000000E+00  0.00000000E+00
  0.00000000E+00  0.00000000E+00  0.00000000E+00
  0.00000000E+00  0.00000000E+00  0.00000000E+00
  0.00000000E+00  0.00000000E+00  0.00000000E+00
  0.00000000E+00  0.00000000E+00  0.00000000E+00
  0.00000000E+00  0.00000000E+00  0.00000000E+00
  0.00000000E+00  0.00000000E+00  0.00000000E+00
  0.00000000E+00  0.00000000E+00  0.00000000E+00
  0.00000000E+00  0.00000000E+00  0.00000000E+00
  0.00000000E+00  0.00000000E+00  0.00000000E+00
  0.00000000E+00  0.00000000E+00  0.00000000E+00
  0.00000000E+00  0.00000000E+00  0.00000000E+00
  0.00000000E+00  0.00000000E+00  0.00000000E+00
  0.00000000E+00  0.00000000E+00  0.00000000E+00
  0.00000000E+00  0.00000000E+00  0.00000000E+00
  0.00000000E+00  0.00000000E+00  0.00000000E+00
  0.00000000E+00  0.00000000E+00  0.00000000E+00
  0.00000000E+00  0.00000000E+00  0.00000000E+00
  0.00000000E+00  0.00000000E+00  0.00000000E+00
  0.00000000E+00  0.00000000E+00  0.00000000E+00
  0.00000000E+00  0.00000000E+00  0.00000000E+00
  0.00000000E+00  0.00000000E+00  0.00000000E+00
  0.00000000E+00  0.00000000E+00  0.00000000E+00
  0.00000000E+00  0.00000000E+00  0.00000000E+00
  0.00000000E+00  0.00000000E+00  0.00000000E+00
  0.00000000E+00  0.00000000E+00  0.00000000E+00
  0.00000000E+00  0.00000000E+00  0.00000000E+00
  0.00000000E+00  0.00000000E+00  0.00000000E+00
  0.00000000E+00  0.00000000E+00  0.00000000E+00
  0.00000000E+00  0.00000000E+00  0.00000000E+00
  0.00000000E+00  0.00000000E+00  0.00000000E+00
  0.00000000E+00  0.00000000E+00  0.00000000E+00
  0.00000000E+00  0.00000000E+00  0.00000000E+00
  0.00000000E+00  0.00000000E+00  0.00000000E+00
  0.00000000E+00  0.00000000E+00  0.00000000E+00
  0.00000000E+00  0.00000000E+00  0.00000000E+00
  0.00000000E+00  0.00000000E+00  0.00000000E+00
  0.00000000E+00  0.00000000E+00  0.00000000E+00
  0.00000000E+00  0.00000000E+00  0.00000000E+00
  0.00000000E+00  0.00000000E+00  0.00000000E+00
  0.00000000E+00  0.00000000E+00  0.00000000E+00
  0.00000000E+00  0.00000000E+00  0.00000000E+00
  0.00000000E+00  0.00000000E+00  0.00000000E+00
  0.00000000E+00  0.00000000E+00  0.00000000E+00
  0.00000000E+00  0.00000000E+00  0.00000000E+00
  0.00000000E+00  0.00000000E+00  0.00000000E+00
  0.00000000E+00  0.00000000E+00  0.00000000E+00
  0.00000000E+00  0.00000000E+00  0.00000000E+00
  0.00000000E+00  0.00000000E+00  0.00000000E+00
  0.00000000E+00  0.00000000E+00  0.00000000E+00
  0.00000000E+00  0.00000000E+00  0.00000000E+00
  0.00000000E+00  0.00000000E+00  0.00000000E+00
  0.00000000E+00  0.00000000E+00  0.00000000E+00
  0.00000000E+00  0.00000000E+00  0.00000000E+00
  0.00000000E+00  0.00000000E+00  0.00000000E+00
  0.00000000E+00  0.00000000E+00  0.00000000E+00
  0.00000000E+00  0.00000000E+00  0.00000000E+00
  0.00000000E+00  0.00000000E+00  0.00000000E+00
  0.00000000E+00  0.00000000E+00  0.00000000E+00
  0.00000000E+00  0.00000000E+00  0.00000000E+00
  0.00000000E+00  0.00000000E+00  0.00000000E+00
  0.00000000E+00  0.00000000E+00  0.00000000E+00
  0.00000000E+00  0.00000000E+00  0.00000000E+00
  0.00000000E+00  0.00000000E+00  0.00000000E+00
  0.00000000E+00  0.00000000E+00  0.00000000E+00
  0.00000000E+00  0.00000000E+00  0.00000000E+00
  0.00000000E+00  0.00000000E+00  0.00000000E+00
  0.00000000E+00  0.00000000E+00  0.00000000E+00
  0.00000000E+00  0.00000000E+00  0.00000000E+00
  0.00000000E+00  0.00000000E+00  0.00000000E+00
  0.00000000E+00  0.00000000E+00  0.00000000E+00
  0.00000000E+00  0.00000000E+00  0.00000000E+00
  0.00000000E+00  0.00000000E+00  0.00000000E+00
  0.00000000E+00  0.00000000E+00  0.00000000E+00
  0.00000000E+00  0.00000000E+00  0.00000000E+00
  0.00000000E+00  0.00000000E+00  0.00000000E+00
  0.00000000E+00  0.00000000E+00  0.00000000E+00
  0.00000000E+00  0.00000000E+00  0.00000000E+00
  0.00000000E+00  0.00000000E+00  0.00000000E+00
  0.00000000E+00  0.00000000E+00  0.00000000E+00
  0.00000000E+00  0.00000000E+00  0.00000000E+00
  0.00000000E+00  0.00000000E+00  0.00000000E+00
  0.00000000E+00  0.00000000E+00  0.00000000E+00
  0.00000000E+00  0.00000000E+00  0.00000000E+00
  0.00000000E+00  0.00000000E+00  0.00000000E+00
