Ta  N Ru Cu                             
   1.00000000000000     
     9.0548154099999998    0.0000000000000000    0.0000000000000000
     0.0000000000000000   11.6775998899999998    0.0000000000000000
     0.0000000000000000    0.0000000000000000   26.4818170799999990
   Ta   N    Ru   Cu
    60    60    32     1
Selective dynamics
Direct
  0.0000000000000000  0.0000000000000000  0.2258397498815228   F   F   F
  0.6670845899906297  0.1250000003211298  0.2339882671631202   F   F   F
  0.3329153514769843  0.1250000003211298  0.2339882671631202   F   F   F
  0.4999999994478088  0.2499999997859135  0.3208898207564346   F   F   F
  0.1650707596845180  0.1250000003211298  0.3267034403329916   F   F   F
  0.8349292403154820  0.1250000003211298  0.3267034403329916   F   F   F
  0.0012783855508151  0.2500309738657676  0.4254773910202562   T   T   T
  0.6650456519422859  0.1250829703733533  0.4239436442651584   T   T   T
  0.3355132469271049  0.1250604111523619  0.4238990805281309   T   T   T
  0.4981740398596394  0.2501422255536238  0.5232310242740471   T   T   T
  0.1680160734806789  0.1250792192305717  0.5234102858621175   T   T   T
  0.8343645869492334  0.1252556464001404  0.5225922626341656   T   T   T
  0.0056270677413482  0.2501317936278019  0.6220330673702331   T   T   T
  0.6666747667293138  0.1255096456851686  0.6207067771042415   T   T   T
  0.3306445010018484  0.1251080253057915  0.6246326548933111   T   T   T
  0.0000000000000000  0.2499999997859135  0.2258397498815228   F   F   F
  0.6670845899906297  0.3750000001070433  0.2339882671631202   F   F   F
  0.3329153514769843  0.3750000001070433  0.2339882671631202   F   F   F
  0.4999999994478088  0.5000000004281731  0.3208898207564346   F   F   F
  0.1650707596845180  0.3750000001070433  0.3267034403329916   F   F   F
  0.8349292403154820  0.3750000001070433  0.3267034403329916   F   F   F
  0.0012078368843304  0.5001470313527441  0.4254779604705756   T   T   T
  0.6651421119704016  0.3750750371545581  0.4239490789772855   T   T   T
  0.3355082896451880  0.3750852939675906  0.4239164409340455   T   T   T
  0.4980513352610865  0.5002845964619655  0.5233114347311766   T   T   T
  0.1678100377042706  0.3751083407768017  0.5233860419202350   T   T   T
  0.8343804829951070  0.3752871805449075  0.5225670380773274   T   T   T
  0.0022428037566139  0.5002559856591470  0.6228225800709984   T   T   T
  0.6668951639025652  0.3757483637604867  0.6201478636902741   T   T   T
  0.3306335203251825  0.3748393929294465  0.6235316969390113   T   T   T
  0.0000000000000000  0.5000000004281731  0.2258397498815228   F   F   F
  0.6670845899906297  0.6249999998929567  0.2339882671631202   F   F   F
  0.3329153514769843  0.6249999998929567  0.2339882671631202   F   F   F
  0.4999999994478088  0.7500000002140865  0.3208898207564346   F   F   F
  0.1650707596845180  0.6249999998929567  0.3267034403329916   F   F   F
  0.8349292403154820  0.6249999998929567  0.3267034403329916   F   F   F
  0.0012364210475084  0.7500083713335295  0.4254923299334120   T   T   T
  0.6650689540823165  0.6250870332878438  0.4239538451770368   T   T   T
  0.3355150558584654  0.6250740288720906  0.4239248164971908   T   T   T
  0.4980733703424239  0.7500672604740787  0.5232656043610118   T   T   T
  0.1678657634887277  0.6250863980938177  0.5235165918007010   T   T   T
  0.8342852879126307  0.6252801430453991  0.5226918686122020   T   T   T
  0.0049014290340234  0.7506173347287834  0.6222559417536652   T   T   T
  0.6655217728616121  0.6256884753033342  0.6207342207888713   T   T   T
  0.3295580042987579  0.6250930628063252  0.6248186308830175   T   T   T
  0.0000000000000000  0.7500000002140865  0.2258397498815228   F   F   F
  0.6670845899906297  0.8750000005352163  0.2339882671631202   F   F   F
  0.3329153514769843  0.8750000005352163  0.2339882671631202   F   F   F
  0.4999999994478088  0.0000000000000000  0.3208898207564346   F   F   F
  0.1650707596845180  0.8750000005352163  0.3267034403329916   F   F   F
  0.8349292403154820  0.8750000005352163  0.3267034403329916   F   F   F
  0.0012191022774205  0.0001064476290702  0.4254797588977026   T   T   T
  0.6651613968698944  0.8750482571025737  0.4239370226134755   T   T   T
  0.3355321515150272  0.8750170611682080  0.4239177645371978   T   T   T
  0.4980686335221457  0.0001892936332350  0.5232947894939504   T   T   T
  0.1678643364570860  0.8750757111276660  0.5234200469738340   T   T   T
  0.8342880064667269  0.8752740011754134  0.5226183412308493   T   T   T
  0.0039431676470379  0.0000321734756133  0.6225723209296952   T   T   T
  0.6664893905211576  0.8759076492450556  0.6202037530408669   T   T   T
  0.3312252805024020  0.8748228118570662  0.6235419838089191   T   T   T
  0.8141011533980276  0.0000000000000000  0.2671765160246267   F   F   F
  0.4999999994478088  0.0000000000000000  0.2273691263583544   F   F   F
  0.1858988466019724  0.0000000000000000  0.2671765160246267   F   F   F
  0.3088456122590841  0.2499999997859135  0.3635413069267344   F   F   F
  0.0000000000000000  0.2499999997859135  0.3485649890092901   F   F   F
  0.6911543877409159  0.2499999997859135  0.3635413069267344   F   F   F
  0.8028420795023153  0.2501234665131204  0.4625733974069113   T   T   T
  0.5001410000564891  0.2501066150917494  0.4456897790574635   T   T   T
  0.1992601143301180  0.2500987268258013  0.4632288680834779   T   T   T
  0.3027565797839276  0.2497927871328367  0.5630273144580514   T   T   T
  0.0011888508507520  0.2501799481453435  0.5436125909826793   T   T   T
  0.6962222839822965  0.2500423213344700  0.5602507026165602   T   T   T
  0.8067025128996930  0.2509842354972436  0.6550779912364023   T   T   T
  0.5035054179613191  0.2506979165963166  0.6428293764509364   T   T   T
  0.1985834385893684  0.2509377103811151  0.6604608758924890   T   T   T
  0.8141011533980276  0.2499999997859135  0.2671765160246267   F   F   F
  0.4999999994478088  0.2499999997859135  0.2273691263583544   F   F   F
  0.1858988466019724  0.2499999997859135  0.2671765160246267   F   F   F
  0.3088456122590841  0.5000000004281731  0.3635413069267344   F   F   F
  0.0000000000000000  0.5000000004281731  0.3485649890092901   F   F   F
  0.6911543877409159  0.5000000004281731  0.3635413069267344   F   F   F
  0.8029281063161247  0.5002193928527039  0.4626100522636305   T   T   T
  0.5001063710989156  0.5001024266418118  0.4457319311532765   T   T   T
  0.1990898750973430  0.5001000512260784  0.4632435764155985   T   T   T
  0.3022252643472881  0.5003325812012404  0.5627782521668442   T   T   T
  0.0007569270956395  0.5002590424196971  0.5440656148831585   T   T   T
  0.6963313182173831  0.5006679646262764  0.5602909511420701   T   T   T
  0.8026256184328882  0.5011865629786174  0.6569150686668332   T   T   T
  0.5014612991328671  0.4998875069690880  0.6403581554623468   T   T   T
  0.1989667125128154  0.4988840490593687  0.6602143727801497   T   T   T
  0.8141011533980276  0.5000000004281731  0.2671765160246267   F   F   F
  0.4999999994478088  0.5000000004281731  0.2273691263583544   F   F   F
  0.1858988466019724  0.5000000004281731  0.2671765160246267   F   F   F
  0.3088456122590841  0.7500000002140865  0.3635413069267344   F   F   F
  0.0000000000000000  0.7500000002140865  0.3485649890092901   F   F   F
  0.6911543877409159  0.7500000002140865  0.3635413069267344   F   F   F
  0.8028498227090058  0.7501019803898336  0.4626198561146512   T   T   T
  0.5001281535907643  0.7500793809900749  0.4457006539542162   T   T   T
  0.1991983937616948  0.7500406652815998  0.4632686961414610   T   T   T
  0.3025679263473203  0.7496461457450945  0.5631249337636123   T   T   T
  0.0010233455134840  0.7501774469444110  0.5437747017554181   T   T   T
  0.6959941783872520  0.7501037952167695  0.5602743529727713   T   T   T
  0.8055441418338140  0.7519591788305701  0.6551313111311572   T   T   T
  0.5028888261289738  0.7504778934953421  0.6431087780911448   T   T   T
  0.1982972806655436  0.7508196646000171  0.6607429189404982   T   T   T
  0.8141011533980276  0.7500000002140865  0.2671765160246267   F   F   F
  0.4999999994478088  0.7500000002140865  0.2273691263583544   F   F   F
  0.1858988466019724  0.7500000002140865  0.2671765160246267   F   F   F
  0.3088456122590841  0.0000000000000000  0.3635413069267344   F   F   F
  0.0000000000000000  0.0000000000000000  0.3485649890092901   F   F   F
  0.6911543877409159  0.0000000000000000  0.3635413069267344   F   F   F
  0.8028704409300451  0.0001549866494192  0.4625812646247238   T   T   T
  0.5001152330747136  0.0000510360801255  0.4457279584138350   T   T   T
  0.1991733172472496  0.0000491138336333  0.4632214287733895   T   T   T
  0.3024338108226587  0.0002302596214271  0.5628020383533431   T   T   T
  0.0009402591456658  0.0001987366400866  0.5438674192447260   T   T   T
  0.6963265413292100  0.0007742395845979  0.5603027450340913   T   T   T
  0.8047508426317734  0.0007694723556187  0.6564318379546320   T   T   T
  0.5025054344130619  0.0001589995955913  0.6409858244647664   T   T   T
  0.2004641428470433  0.9986016434985441  0.6606189620596278   T   T   T
  0.0861724118480179  0.0104505617942784  0.7309227041869149   T   T   T
  0.5641705451314502  0.9900325189417665  0.7158450497786814   T   T   T
  0.8379640354378404  0.1310719072291650  0.7135885734365399   T   T   T
  0.0909865277944846  0.5088610811705983  0.7313868893208096   T   T   T
  0.5641671158354472  0.4944967948407974  0.7147545085919180   T   T   T
  0.8461433239004148  0.6324202437858873  0.7125946535814047   T   T   T
  0.0994319450090927  0.2489844246832648  0.7320631368298326   T   T   T
  0.5473220574093889  0.2606080202720435  0.7200959547411713   T   T   T
  0.8366600008806143  0.3708787240172719  0.7128596253858797   T   T   T
  0.1012888408453242  0.7429497101471572  0.7328629546107228   T   T   T
  0.5481797206248594  0.7583130450131030  0.7206833892925834   T   T   T
  0.8416064575940393  0.8718137575928095  0.7123979113249435   T   T   T
  0.3206901492816577  0.8910199093190595  0.7363970540121271   T   T   T
  0.3422077537430689  0.6141781584474879  0.7446938038482219   T   T   T
  0.3250901425275867  0.3903698104898851  0.7389188155474556   T   T   T
  0.3383912650450471  0.1159570394829389  0.7418181435022349   T   T   T
  0.1346849292210814  0.8823995672110810  0.8058987704229739   T   T   T
  0.6546924034703693  0.8834657544063781  0.7943191079807614   T   T   T
  0.8875198208617262  0.0200552622324652  0.7970348036158725   T   T   T
  0.1372603273247115  0.3806985081644783  0.8069466047414652   T   T   T
  0.6575175400491803  0.3867472649294625  0.7928719815469348   T   T   T
  0.8873430570233298  0.5179979021451639  0.7958907934150675   T   T   T
  0.1412344271127492  0.1241026533045316  0.8091435488983642   T   T   T
  0.6337851175750198  0.1182798648221548  0.7900878755856385   T   T   T
  0.8850299617529868  0.2420535239200825  0.7953998542413832   T   T   T
  0.1399312445144523  0.6206964284716058  0.8108243542902376   T   T   T
  0.6314377641452598  0.6159406521245401  0.7913915087802277   T   T   T
  0.8854900093641258  0.7413970270577865  0.7951643937444379   T   T   T
  0.4133674687744264  0.7693198532663128  0.8071083156456219   T   T   T
  0.3917856412826992  0.4819841683604828  0.8207173553350428   T   T   T
  0.4121330101403057  0.2613793463353005  0.8089396541799253   T   T   T
  0.3921266449876606  0.9856460764469561  0.8167343965266716   T   T   T
  0.5594883421871322  0.3610061737653551  0.8794650663730350   T   T   T
 
  0.00000000E+00  0.00000000E+00  0.00000000E+00
  0.00000000E+00  0.00000000E+00  0.00000000E+00
  0.00000000E+00  0.00000000E+00  0.00000000E+00
  0.00000000E+00  0.00000000E+00  0.00000000E+00
  0.00000000E+00  0.00000000E+00  0.00000000E+00
  0.00000000E+00  0.00000000E+00  0.00000000E+00
  0.00000000E+00  0.00000000E+00  0.00000000E+00
  0.00000000E+00  0.00000000E+00  0.00000000E+00
  0.00000000E+00  0.00000000E+00  0.00000000E+00
  0.00000000E+00  0.00000000E+00  0.00000000E+00
  0.00000000E+00  0.00000000E+00  0.00000000E+00
  0.00000000E+00  0.00000000E+00  0.00000000E+00
  0.00000000E+00  0.00000000E+00  0.00000000E+00
  0.00000000E+00  0.00000000E+00  0.00000000E+00
  0.00000000E+00  0.00000000E+00  0.00000000E+00
  0.00000000E+00  0.00000000E+00  0.00000000E+00
  0.00000000E+00  0.00000000E+00  0.00000000E+00
  0.00000000E+00  0.00000000E+00  0.00000000E+00
  0.00000000E+00  0.00000000E+00  0.00000000E+00
  0.00000000E+00  0.00000000E+00  0.00000000E+00
  0.00000000E+00  0.00000000E+00  0.00000000E+00
  0.00000000E+00  0.00000000E+00  0.00000000E+00
  0.00000000E+00  0.00000000E+00  0.00000000E+00
  0.00000000E+00  0.00000000E+00  0.00000000E+00
  0.00000000E+00  0.00000000E+00  0.00000000E+00
  0.00000000E+00  0.00000000E+00  0.00000000E+00
  0.00000000E+00  0.00000000E+00  0.00000000E+00
  0.00000000E+00  0.00000000E+00  0.00000000E+00
  0.00000000E+00  0.00000000E+00  0.00000000E+00
  0.00000000E+00  0.00000000E+00  0.00000000E+00
  0.00000000E+00  0.00000000E+00  0.00000000E+00
  0.00000000E+00  0.00000000E+00  0.00000000E+00
  0.00000000E+00  0.00000000E+00  0.00000000E+00
  0.00000000E+00  0.00000000E+00  0.00000000E+00
  0.00000000E+00  0.00000000E+00  0.00000000E+00
  0.00000000E+00  0.00000000E+00  0.00000000E+00
  0.00000000E+00  0.00000000E+00  0.00000000E+00
  0.00000000E+00  0.00000000E+00  0.00000000E+00
  0.00000000E+00  0.00000000E+00  0.00000000E+00
  0.00000000E+00  0.00000000E+00  0.00000000E+00
  0.00000000E+00  0.00000000E+00  0.00000000E+00
  0.00000000E+00  0.00000000E+00  0.00000000E+00
  0.00000000E+00  0.00000000E+00  0.00000000E+00
  0.00000000E+00  0.00000000E+00  0.00000000E+00
  0.00000000E+00  0.00000000E+00  0.00000000E+00
  0.00000000E+00  0.00000000E+00  0.00000000E+00
  0.00000000E+00  0.00000000E+00  0.00000000E+00
  0.00000000E+00  0.00000000E+00  0.00000000E+00
  0.00000000E+00  0.00000000E+00  0.00000000E+00
  0.00000000E+00  0.00000000E+00  0.00000000E+00
  0.00000000E+00  0.00000000E+00  0.00000000E+00
  0.00000000E+00  0.00000000E+00  0.00000000E+00
  0.00000000E+00  0.00000000E+00  0.00000000E+00
  0.00000000E+00  0.00000000E+00  0.00000000E+00
  0.00000000E+00  0.00000000E+00  0.00000000E+00
  0.00000000E+00  0.00000000E+00  0.00000000E+00
  0.00000000E+00  0.00000000E+00  0.00000000E+00
  0.00000000E+00  0.00000000E+00  0.00000000E+00
  0.00000000E+00  0.00000000E+00  0.00000000E+00
  0.00000000E+00  0.00000000E+00  0.00000000E+00
  0.00000000E+00  0.00000000E+00  0.00000000E+00
  0.00000000E+00  0.00000000E+00  0.00000000E+00
  0.00000000E+00  0.00000000E+00  0.00000000E+00
  0.00000000E+00  0.00000000E+00  0.00000000E+00
  0.00000000E+00  0.00000000E+00  0.00000000E+00
  0.00000000E+00  0.00000000E+00  0.00000000E+00
  0.00000000E+00  0.00000000E+00  0.00000000E+00
  0.00000000E+00  0.00000000E+00  0.00000000E+00
  0.00000000E+00  0.00000000E+00  0.00000000E+00
  0.00000000E+00  0.00000000E+00  0.00000000E+00
  0.00000000E+00  0.00000000E+00  0.00000000E+00
  0.00000000E+00  0.00000000E+00  0.00000000E+00
  0.00000000E+00  0.00000000E+00  0.00000000E+00
  0.00000000E+00  0.00000000E+00  0.00000000E+00
  0.00000000E+00  0.00000000E+00  0.00000000E+00
  0.00000000E+00  0.00000000E+00  0.00000000E+00
  0.00000000E+00  0.00000000E+00  0.00000000E+00
  0.00000000E+00  0.00000000E+00  0.00000000E+00
  0.00000000E+00  0.00000000E+00  0.00000000E+00
  0.00000000E+00  0.00000000E+00  0.00000000E+00
  0.00000000E+00  0.00000000E+00  0.00000000E+00
  0.00000000E+00  0.00000000E+00  0.00000000E+00
  0.00000000E+00  0.00000000E+00  0.00000000E+00
  0.00000000E+00  0.00000000E+00  0.00000000E+00
  0.00000000E+00  0.00000000E+00  0.00000000E+00
  0.00000000E+00  0.00000000E+00  0.00000000E+00
  0.00000000E+00  0.00000000E+00  0.00000000E+00
  0.00000000E+00  0.00000000E+00  0.00000000E+00
  0.00000000E+00  0.00000000E+00  0.00000000E+00
  0.00000000E+00  0.00000000E+00  0.00000000E+00
  0.00000000E+00  0.00000000E+00  0.00000000E+00
  0.00000000E+00  0.00000000E+00  0.00000000E+00
  0.00000000E+00  0.00000000E+00  0.00000000E+00
  0.00000000E+00  0.00000000E+00  0.00000000E+00
  0.00000000E+00  0.00000000E+00  0.00000000E+00
  0.00000000E+00  0.00000000E+00  0.00000000E+00
  0.00000000E+00  0.00000000E+00  0.00000000E+00
  0.00000000E+00  0.00000000E+00  0.00000000E+00
  0.00000000E+00  0.00000000E+00  0.00000000E+00
  0.00000000E+00  0.00000000E+00  0.00000000E+00
  0.00000000E+00  0.00000000E+00  0.00000000E+00
  0.00000000E+00  0.00000000E+00  0.00000000E+00
  0.00000000E+00  0.00000000E+00  0.00000000E+00
  0.00000000E+00  0.00000000E+00  0.00000000E+00
  0.00000000E+00  0.00000000E+00  0.00000000E+00
  0.00000000E+00  0.00000000E+00  0.00000000E+00
  0.00000000E+00  0.00000000E+00  0.00000000E+00
  0.00000000E+00  0.00000000E+00  0.00000000E+00
  0.00000000E+00  0.00000000E+00  0.00000000E+00
  0.00000000E+00  0.00000000E+00  0.00000000E+00
  0.00000000E+00  0.00000000E+00  0.00000000E+00
  0.00000000E+00  0.00000000E+00  0.00000000E+00
  0.00000000E+00  0.00000000E+00  0.00000000E+00
  0.00000000E+00  0.00000000E+00  0.00000000E+00
  0.00000000E+00  0.00000000E+00  0.00000000E+00
  0.00000000E+00  0.00000000E+00  0.00000000E+00
  0.00000000E+00  0.00000000E+00  0.00000000E+00
  0.00000000E+00  0.00000000E+00  0.00000000E+00
  0.00000000E+00  0.00000000E+00  0.00000000E+00
  0.00000000E+00  0.00000000E+00  0.00000000E+00
  0.00000000E+00  0.00000000E+00  0.00000000E+00
  0.00000000E+00  0.00000000E+00  0.00000000E+00
  0.00000000E+00  0.00000000E+00  0.00000000E+00
  0.00000000E+00  0.00000000E+00  0.00000000E+00
  0.00000000E+00  0.00000000E+00  0.00000000E+00
  0.00000000E+00  0.00000000E+00  0.00000000E+00
  0.00000000E+00  0.00000000E+00  0.00000000E+00
  0.00000000E+00  0.00000000E+00  0.00000000E+00
  0.00000000E+00  0.00000000E+00  0.00000000E+00
  0.00000000E+00  0.00000000E+00  0.00000000E+00
  0.00000000E+00  0.00000000E+00  0.00000000E+00
  0.00000000E+00  0.00000000E+00  0.00000000E+00
  0.00000000E+00  0.00000000E+00  0.00000000E+00
  0.00000000E+00  0.00000000E+00  0.00000000E+00
  0.00000000E+00  0.00000000E+00  0.00000000E+00
  0.00000000E+00  0.00000000E+00  0.00000000E+00
  0.00000000E+00  0.00000000E+00  0.00000000E+00
  0.00000000E+00  0.00000000E+00  0.00000000E+00
  0.00000000E+00  0.00000000E+00  0.00000000E+00
  0.00000000E+00  0.00000000E+00  0.00000000E+00
  0.00000000E+00  0.00000000E+00  0.00000000E+00
  0.00000000E+00  0.00000000E+00  0.00000000E+00
  0.00000000E+00  0.00000000E+00  0.00000000E+00
  0.00000000E+00  0.00000000E+00  0.00000000E+00
  0.00000000E+00  0.00000000E+00  0.00000000E+00
  0.00000000E+00  0.00000000E+00  0.00000000E+00
  0.00000000E+00  0.00000000E+00  0.00000000E+00
  0.00000000E+00  0.00000000E+00  0.00000000E+00
  0.00000000E+00  0.00000000E+00  0.00000000E+00
  0.00000000E+00  0.00000000E+00  0.00000000E+00
  0.00000000E+00  0.00000000E+00  0.00000000E+00
  0.00000000E+00  0.00000000E+00  0.00000000E+00
  0.00000000E+00  0.00000000E+00  0.00000000E+00
