Ta  N Co Cu                             
   1.00000000000000     
    18.1096308199999996    0.0000000000000000    0.0000000000000000
     0.0000000000000000   23.3551997799999995    0.0000000000000000
     0.0000000000000000    0.0000000000000000   30.4818171199999988
   Ta   N    Co   Cu
   192   240    48     4
Direct
  0.0003356007723951  0.9996677143253052  0.1966917990411545
  0.3341895603371228  0.0621978916170178  0.2030216268586642
  0.1654938245720103  0.0621997760590602  0.2024622813121866
  0.2494630882588638  0.1246482298881872  0.2783180946012607
  0.0822922767845427  0.0621760744075459  0.2836900440685284
  0.4161331881019805  0.0621010496343786  0.2851611650362571
  0.9990931704161810  0.1246503193889197  0.3691677319796511
  0.3312638941747466  0.0620423421604528  0.3699936002892699
  0.1665060391830337  0.0622379405907623  0.3687371638157799
  0.2454971253343530  0.1262033579550206  0.4567102155301654
  0.0821013039309193  0.0627984899494862  0.4541751755794081
  0.4118743245605287  0.0620041917795291  0.4580570424136781
  0.0002808449731333  0.1246005534483601  0.1966481566733762
  0.3341733602177754  0.1870832806447567  0.2028988227556709
  0.1654686255122897  0.1871761306036319  0.2022981822328020
  0.2494839644368696  0.2495686259933478  0.2779013457568453
  0.0822157758052526  0.1871739075225776  0.2835500115770131
  0.4161261632692757  0.1870054157096490  0.2848637599288253
  0.9994085717799237  0.2497126605601636  0.3689656691926828
  0.3312555345643631  0.1871005347546841  0.3689955824106050
  0.1666847776645710  0.1872910411546158  0.3682823808969360
  0.2466718661856291  0.2490155451172242  0.4563324159112199
  0.0814434477335411  0.1879675916852861  0.4541894371564510
  0.4136921234006152  0.1875306480718919  0.4543491965531459
  0.0001234356832924  0.2494454877485239  0.1965522779891131
  0.3341725446630974  0.3119963422765366  0.2027220882968024
  0.1657069344517339  0.3121014503708324  0.2021320616746820
  0.2498298475427205  0.3746745660091690  0.2777289450925835
  0.0823565906597779  0.3121635024073228  0.2833199966683537
  0.4163453225174010  0.3120148702115557  0.2845713193284851
  0.9995674512661665  0.3746709235915091  0.3688284526043901
  0.3315072005028910  0.3121265268327562  0.3689493416228657
  0.1670280700651503  0.3122846718446723  0.3680458038465417
  0.2492085813422875  0.3766015655426642  0.4564382847850013
  0.0829359994325074  0.3129392264274244  0.4536551300577472
  0.4128299102344997  0.3116552784526974  0.4563027469030061
  0.0001669006573479  0.3745642679104435  0.1963777816157233
  0.3343528358901438  0.4370674702913036  0.2024894272406215
  0.1658526283933597  0.4370777470001315  0.2019531908659218
  0.2494551042645057  0.9997155796887185  0.2783926581728053
  0.0824173130510175  0.4370809655453414  0.2831268193177650
  0.4166091804087202  0.4370300609525231  0.2843395545714458
  0.9992947710214679  0.9995712034206434  0.3691284754867397
  0.3321574035003465  0.4369974173708400  0.3690257017018865
  0.1675882198208356  0.4371906689438845  0.3677078363402728
  0.2456341281720924  0.9990842108974363  0.4570015310728266
  0.0829318284394134  0.4377976512057131  0.4533259388567643
  0.4169848318323943  0.4359738888918727  0.4553551142068315
  0.0001745854384225  0.4995779606692494  0.1962735717527337
  0.3344741625391947  0.5621458670322497  0.2024041792273295
  0.1659150625038990  0.5620624182246416  0.2018923577332288
  0.2501026922719021  0.6245678113980517  0.2775613551079417
  0.0824706481613617  0.5620876656575859  0.2829478229797857
  0.4167394040440300  0.5620479841200563  0.2842333253664577
  0.9998084308328927  0.6246048637693633  0.3684081302639797
  0.3323175480126039  0.5616849624167699  0.3688220481552662
  0.1672948047820810  0.5620403181519009  0.3672256453406746
  0.2498972124373608  0.6232007305627860  0.4552901087995807
  0.0832200818152629  0.5624660077891406  0.4530304677764363
  0.4201272137785210  0.5614510246072157  0.4550450579063465
  0.0003643739532819  0.6245881844149395  0.1962425184345733
  0.3343810066742989  0.6873125124223876  0.2024667789866683
  0.1658028165518743  0.6873140370054145  0.2019090452800540
  0.2497102034520537  0.7497312469545818  0.2776904345496973
  0.0825160666906584  0.6871330019358197  0.2830471537460255
  0.4162362736693197  0.6870468554637981  0.2843874089862126
  0.0000802468752212  0.7494434497676963  0.3685267796783549
  0.3316647604633189  0.6868603093525607  0.3689954331536285
  0.1673904331440568  0.6870490322166063  0.3676977793314222
  0.2522618130204606  0.7468302795131407  0.4575998200542628
  0.0833425744085474  0.6869760864903682  0.4531193515487431
  0.4163258840151656  0.6863777770466442  0.4534802944117402
  0.0003780182952582  0.7497164773765590  0.1964009632727439
  0.3341685991148040  0.8122830096420941  0.2026395855173817
  0.1658371108453736  0.8122782956484329  0.2022036310612592
  0.2494493554860000  0.8748331266017786  0.2781502098401418
  0.0826386512070911  0.8122291165224240  0.2833471222810857
  0.4159503502661792  0.8121155484320823  0.2845963951236854
  0.9996289280037374  0.8745105858430051  0.3690714921469791
  0.3309225702181209  0.8121698545279159  0.3694091593445776
  0.1666172568548987  0.8119765814110167  0.3685066693967869
  0.2446799411946756  0.8750933950228656  0.4560368762655784
  0.0829034915094766  0.8117668917472116  0.4547476321416539
  0.4128725626537033  0.8121015124627888  0.4566520095461684
  0.0004587635756721  0.8747914255669045  0.1966034523286595
  0.3341902522465858  0.9373664929558885  0.2029322387714743
  0.1656268664761882  0.9373875753888541  0.2024066246390177
  0.2501578890859051  0.4996233428538801  0.2775795894847448
  0.0822605853155167  0.9371988220186722  0.2836805963484110
  0.4158644918470884  0.9371909114945325  0.2848352845145286
  0.9994276442491881  0.4996783808043688  0.3685954771123789
  0.3313513197160418  0.9372826872296685  0.3694495743266586
  0.1665303062627075  0.9371910100862451  0.3686834901746252
  0.2492691295515428  0.4990195169866496  0.4557692113607104
  0.0813278381980780  0.9373011401184073  0.4550350121667961
  0.4136184178537050  0.9373919944521916  0.4560263890397565
  0.4980734491435470  0.9996252353784385  0.1976105957580216
  0.8328480078772813  0.0619808162579218  0.2015944899717539
  0.6636837636982520  0.0619969316500075  0.2022466388704274
  0.7481209620929334  0.1243719449294289  0.2768794164213730
  0.5812629417762665  0.0619691156218991  0.2840410895422991
  0.9167785558260206  0.0620544712849522  0.2824464590496660
  0.4993485958478772  0.1241900075842963  0.3711396580529041
  0.8313128200247490  0.0617856862484132  0.3660026607938534
  0.6647245034991158  0.0617483528807057  0.3686484475983676
  0.7492687266664362  0.1227274738656234  0.4521674411085357
  0.5843428724131599  0.0614260044343808  0.4596447536926078
  0.9127114137066172  0.0613684440012676  0.4533381390311462
  0.4981963882038016  0.1244533849813223  0.1976807281912372
  0.8328560534046119  0.1869168151104930  0.2015819363150939
  0.6638774013476336  0.1869130140154098  0.2021405501352973
  0.7484861970824994  0.2494987999642220  0.2768143879414851
  0.5813204282399198  0.1868959159631274  0.2839823182456200
  0.9166459692337696  0.1870589549314587  0.2825253857818240
  0.4993693019476382  0.2494777952590184  0.3706503828611645
  0.8313562560604240  0.1870213057724328  0.3666024783003365
  0.6660089062821584  0.1868161309012208  0.3683840631354371
  0.7474671337088665  0.2484805790328721  0.4543692666293992
  0.5822262349621923  0.1877938331342222  0.4559023481348348
  0.9130994000854145  0.1865432753637322  0.4529186048716483
  0.4984876997840644  0.2493528058111565  0.1975406421590833
  0.8329963685762962  0.3118575885994233  0.2014282544670039
  0.6641843322526242  0.3118122426519037  0.2020221559883169
  0.7488317914184606  0.3744386327338205  0.2766797556784795
  0.5816077643748301  0.3119095458334300  0.2836936650777560
  0.9167009326425131  0.3120521065916009  0.2824010325445343
  0.4998332337771885  0.3747408042959961  0.3702781557542991
  0.8316971491998970  0.3118959115640862  0.3664472697766286
  0.6664781884105651  0.3118751160014170  0.3675468616301103
  0.7518870595337646  0.3728418525655783  0.4517955933666613
  0.5824458404047377  0.3115817334912450  0.4543437695502703
  0.9138341218961088  0.3117393922692315  0.4530512708348269
  0.4986841923259888  0.3744808797735502  0.1972494473653157
  0.8330437430255202  0.4369233441126994  0.2013558259967709
  0.6643293727776793  0.4368561673722056  0.2018585425712374
  0.7480263739547297  0.9994599060986857  0.2769060391518181
  0.5818045096708460  0.4370089630916993  0.2834687408066614
  0.9168792444257363  0.4370665645848248  0.2822794718932826
  0.4992445054339925  0.9995778915600084  0.3713210650507079
  0.8321574907135414  0.4372120104021562  0.3665474666496848
  0.6664214102935375  0.4372143826616153  0.3676350607102918
  0.7497352444155680  0.9977778181742920  0.4518278163570457
  0.5884405641910675  0.4380864584906519  0.4567872445857759
  0.9145322619407779  0.4373452897111747  0.4533094863605669
  0.4989002949160977  0.4995376607410762  0.1971080138449182
  0.8330377500642712  0.5620477434787077  0.2013213902301345
  0.6642605558792312  0.5619652300909266  0.2017764361305581
  0.7489548487932112  0.6245110575672470  0.2766976680054825
  0.5821665526955897  0.5620733848829289  0.2834988459314118
  0.9169145154787159  0.5620428530961021  0.2822309382023462
  0.5010305689127250  0.6242494568174877  0.3699648067809491
  0.8321992553737019  0.5621524049806084  0.3666057370165561
  0.6667017382657789  0.5620956648288242  0.3679586099429457
  0.7516434931578075  0.6254113334033775  0.4536945037139617
  0.5908153833604146  0.5622859853070850  0.4567626232199373
  0.9132545393750604  0.5622099105822898  0.4536479228554029
  0.4987714909693111  0.6246598308102094  0.1971317348355157
  0.8329114999776408  0.6870529834178001  0.2012791114495371
  0.6641013578421209  0.6870689643740775  0.2017631050042539
  0.7487238383216166  0.7495579153002012  0.2766366086144458
  0.5817089221348652  0.6870608198550201  0.2836069641700831
  0.9170637533570911  0.6870675649007083  0.2820636274465684
  0.4984166984334806  0.7495120525173036  0.3700374670594542
  0.8322359008888185  0.6869655976521400  0.3662513873458622
  0.6667588923551477  0.6870012837325206  0.3679326409199248
  0.7494278966862709  0.7489801371371172  0.4539089355703538
  0.5854858491217669  0.6868565773992188  0.4555147526223422
  0.9138721638996188  0.6871918335034550  0.4531085035616584
  0.4984254476129522  0.7496290835476742  0.1972758604674496
  0.8328248054123009  0.8121847350689251  0.2013578787540098
  0.6639330272852533  0.8121154085149271  0.2018658958385231
  0.7482982279688670  0.8744273450589901  0.2767142175245709
  0.5813747156888667  0.8120590843422093  0.2835764859650922
  0.9170670760009614  0.8120472403912942  0.2821811958291462
  0.4980223442599225  0.8746586064020008  0.3701939861831676
  0.8317465253329033  0.8117213974047246  0.3659198797622309
  0.6661092931473647  0.8118294924266181  0.3674660592515053
  0.7470104392332502  0.8720628840542588  0.4527439366095649
  0.5812909077216659  0.8133714311860700  0.4530934409545040
  0.9135367694043879  0.8103766333063973  0.4528994716140744
  0.4980283702383588  0.8747109536538247  0.1973925291194831
  0.8328003852257737  0.9370800068264344  0.2014710220606375
  0.6637574033853610  0.9370988127106088  0.2020191287414121
  0.7489421048403457  0.4995512321158841  0.2766969007799958
  0.5809546543266890  0.9370564913115800  0.2838537281982951
  0.9169094600697321  0.9370228122768935  0.2823577671514172
  0.5006300393978904  0.4992390322580391  0.3700014859230194
  0.8312948707868912  0.9367109306952557  0.3659587822031298
  0.6654531061619693  0.9369065842028093  0.3681779210714780
  0.7511747135727020  0.4995686768773027  0.4530425642339395
  0.5856755205422886  0.9363588987521609  0.4568400678422293
  0.9137653777620400  0.9363313376679443  0.4522495831028053
  0.4046154024428148  0.9998514325724841  0.2333564127655876
  0.2498518888930974  0.9998624749112821  0.1998543698835391
  0.0942819714182619  0.9997191450058338  0.2320718894810057
  0.1540781793373043  0.1246906266094001  0.3157539693183509
  0.9991888812290526  0.1246189942672302  0.3023524490907405
  0.3439026641583993  0.1243880293084842  0.3167296269268078
  0.4003101052071116  0.1239145100279089  0.4031489791922880
  0.2484535952739648  0.1249904360268346  0.3885825321511405
  0.0983790897385290  0.1252270759774277  0.4018781375222744
  0.1463241335873420  0.1260358156232826  0.4890856505846344
  0.9962442531491220  0.1252116514083994  0.4709971121855006
  0.3443690649306177  0.1272027806328566  0.4849838354963865
  0.4483678514941545  0.1343823084911762  0.5773928546572407
  0.2818061950230017  0.1348950471996062  0.5643273657279408
  0.0690697737581729  0.1306337869932221  0.5618309575224814
  0.4046769776995589  0.1245132456234614  0.2333297149097717
  0.2497914199699025  0.1246513429571650  0.2001259281685961
  0.0941787381816681  0.1246865878211949  0.2319875399524420
  0.1541907762754704  0.2497251457553062  0.3154720297647984
  0.9992735542275426  0.2496351937238614  0.3021723774132283
  0.3438586342771615  0.2496328488354109  0.3162372273276262
  0.3996727925367765  0.2500544438260377  0.4017980782657844
  0.2486387878054970  0.2496457395220588  0.3882310273622309
  0.0987482575778103  0.2499062499456386  0.4015750383087493
  0.1478862937105632  0.2510124235829991  0.4885730870470084
  0.9971978344176762  0.2508990199011976  0.4711597532326977
  0.3460626663402877  0.2476283311429839  0.4841349879145724
  0.4814976016398731  0.2604771177261895  0.5731805752739874
  0.3167454662030806  0.2474714518815944  0.5666436161588351
  0.0737166455014915  0.2556555165376295  0.5616171317147476
  0.4048075421854875  0.2494583230449550  0.2329914998949150
  0.2498780492353845  0.2495266410141639  0.1993673694311298
  0.0942033026181335  0.2496031825560650  0.2317455751505264
  0.1545158762375607  0.3746605427963985  0.3151454155117932
  0.9994060688564019  0.3745998929185461  0.3020302402654025
  0.3442852671688712  0.3746787190320688  0.3162295478579935
  0.4007554872984045  0.3741932804376802  0.4025146708933036
  0.2492674310859115  0.3748002939994350  0.3881672802376031
  0.0990877342011558  0.3751749123776520  0.4011911410860449
  0.1501397618418068  0.3759049435945983  0.4880146030503738
  0.9979555181119082  0.3756640530859059  0.4709037705426056
  0.3479867914237005  0.3769982506996925  0.4855469459386015
  0.4549750286115355  0.3088327968057527  0.5646286534331821
  0.3270270321683810  0.3823022694597711  0.5725590300770662
  0.0756840782049295  0.3787171892532797  0.5606749717650672
  0.4049826069077866  0.3744947160347323  0.2327311755632380
  0.2500376311278174  0.3745568263241168  0.1992365542990768
  0.0942458348120923  0.3746027898667137  0.2315030497399491
  0.1541177199710404  0.9996716766505571  0.3159095291217255
  0.9992612922945980  0.9996251710187920  0.3023097408188633
  0.3439224756454919  0.9997974172827995  0.3169135601496293
  0.4004120455809357  0.0000031177575224  0.4037143406940018
  0.2485187396353581  0.9995877263802839  0.3887469718157348
  0.0984028545233571  0.9994217809862675  0.4021996386705595
  0.1469878687690809  0.0007227996303243  0.4894164314330425
  0.9966354340624690  0.0004637313975167  0.4711813338631572
  0.3449117039936169  0.9988757726657127  0.4872523667628101
  0.4361984014317883  0.0019904632194283  0.5745075087042295
  0.3887821163341485  0.0326851412480806  0.5853182934844767
  0.0685077912839560  0.0062405605930422  0.5615921668963963
  0.4051670599944188  0.4995904729632628  0.2325294702113752
  0.2501762432444750  0.4996126528448954  0.1990956499939287
  0.0943316918637436  0.4995233536981161  0.2313302983325300
  0.1547276412012835  0.6246912083585414  0.3148340073262759
  0.9996103889066461  0.6245493571620813  0.3016489240481732
  0.3445940847451823  0.6244031621801156  0.3160232434944419
  0.4022318885151464  0.6231276456204071  0.4016045311256704
  0.2493871023954171  0.6241263908102397  0.3874002562680516
  0.0990460369928243  0.6245910410804569  0.4006095117261097
  0.1502239869810751  0.6249898356725936  0.4857832334350647
  0.9992541643719477  0.6242728088675804  0.4713422938012855
  0.3508176898555817  0.6211764355200700  0.4829137624131619
  0.4439761744330895  0.6257353907595657  0.5824237800582495
  0.2751734579168286  0.6206981043722806  0.5539385352877844
  0.0920556478718240  0.6281738689002339  0.5608542376998855
  0.4050424892587401  0.6245989921204966  0.2325830308254098
  0.2500619203088661  0.6246914947320263  0.1995227433620812
  0.0945029975109790  0.6246295535262902  0.2313013047937105
  0.1547245306845113  0.7496722188156255  0.3153643324568307
  0.9996947339059687  0.7496429784644718  0.3017661333152830
  0.3437521057690986  0.7496095072575812  0.3163877120116254
  0.3988628710235460  0.7498695991418174  0.4023295586765485
  0.2491896981238284  0.7491972237210547  0.3891243818866101
  0.0988635213619062  0.7494520975939949  0.4013123281355249
  0.1524454953205989  0.7484962075353465  0.4863299778688983
  0.9984749071521364  0.7489034686699014  0.4724383171359037
  0.3519359275376814  0.7461651102049487  0.4902471354804305
  0.3555487096783381  0.7575318578568400  0.6151719379651652
  0.3389802602101000  0.8052986915167963  0.6147570667728033
  0.0790354872634111  0.7540262449882462  0.5583495076460565
  0.4047341452828945  0.7497120154072476  0.2328031718298860
  0.2500388022532150  0.7497858193159743  0.1989709912057691
  0.0945118648945922  0.7497621654849880  0.2315416823198504
  0.1541710689242635  0.8747248154030132  0.3157614453363919
  0.9994445753311041  0.8745748900996304  0.3021858489079676
  0.3438303506124569  0.8746478769541071  0.3165827475321805
  0.3997210840530485  0.8749025044401435  0.4027421648064049
  0.2482684240444968  0.8747431194458528  0.3881329889767713
  0.0985329815133014  0.8746037655726084  0.4023484065882101
  0.1462455015359936  0.8741945756935010  0.4895783871413073
  0.9964348386112860  0.8745841848579445  0.4722544158526176
  0.3434943973510016  0.8751341075172547  0.4844407835142874
  0.4209806156815077  0.8808075666677055  0.5684265677517786
  0.2675715727947861  0.9121064319252810  0.5662065636062081
  0.0624633002044206  0.8816995206634601  0.5600208477313728
  0.4045627429947771  0.8747100583267482  0.2330623308223068
  0.2499564957723877  0.8748942449656099  0.1998446646371619
  0.0944489205263892  0.8748306539039419  0.2318862125447509
  0.1547067836135554  0.4994965968795029  0.3148495014537858
  0.9994765441471429  0.4995798208093163  0.3018226445864585
  0.3447614816538760  0.4994708104491394  0.3160731981384757
  0.4020335052738702  0.4993580630303995  0.4026351337401479
  0.2494899332226481  0.4995938812475345  0.3876747922621746
  0.0988741389883927  0.4997580879825279  0.4007077806893662
  0.1495317345983977  0.5000992901146475  0.4863471020047641
  0.9984173218395824  0.5006716715155832  0.4713854256665400
  0.3497357596901693  0.5003946490218283  0.4849854748079849
  0.4252008247608003  0.4726528999704414  0.5640774448288184
  0.2709919746291263  0.4964952780734677  0.5562564665816652
  0.0886750695261611  0.5038881546560390  0.5617154236691349
  0.9051799984838738  0.9995628884741379  0.2306308882680739
  0.7483520920623903  0.9995655929899456  0.1989978755489759
  0.5926626718090162  0.9995106678696430  0.2322204568491699
  0.6532692039337817  0.1243955805386818  0.3156248996763296
  0.4989539990702880  0.1245180609842507  0.3041168172875288
  0.8439257644219396  0.1245846683666798  0.3138412531602057
  0.8990390914029760  0.1240888384439458  0.4000786898085735
  0.7489245413334231  0.1239734936816888  0.3851129016887000
  0.5982068985893960  0.1241299619413851  0.4035364694064612
  0.6552737267597735  0.1279828111607131  0.4840505091878669
  0.4976586298474786  0.1251301415408648  0.4758658898635701
  0.8451882090924627  0.1229409477406378  0.4835934145000707
  0.9024082476733994  0.1531412940836248  0.5634596075698113
  0.7482236694964399  0.0896117246770984  0.5534303547828188
  0.5765944980679905  0.0650510965692561  0.5334553252265053
  0.9051229425532838  0.1245331505932086  0.2307058453286146
  0.7484012742027772  0.1244000617472949  0.1987885272418168
  0.5927871579221033  0.1244909539128187  0.2323000560202360
  0.6538072569323674  0.2492096596015969  0.3153370512437519
  0.4991194733166822  0.2494606253968641  0.3037575397207704
  0.8440837655903195  0.2494519418435388  0.3140039528613201
  0.8996497734139766  0.2494640165146009  0.4000849155161319
  0.7489545332622285  0.2494732081829127  0.3863271173595777
  0.5991945389493267  0.2493045562300935  0.4022456752418222
  0.6484563974039972  0.2506530471059065  0.4877505410593983
  0.4980894781633793  0.2493552385484250  0.4712757176441258
  0.8470153618276441  0.2474067411936574  0.4830165238175113
  0.9073235658094063  0.2823639024949216  0.5643532468055454
  0.7708278829144817  0.2259540407263856  0.5554998007287253
  0.5956544345859740  0.1779453530349357  0.5568612442706566
  0.9050912864994274  0.2494520630019039  0.2306989652719196
  0.7485584461508310  0.2493256399013575  0.1986460626964757
  0.5929986440796640  0.2493230428769166  0.2321550872012281
  0.6539496748308764  0.3745188711812588  0.3149483425461383
  0.4993656462830316  0.3745389373213115  0.3033767119382134
  0.8444987105896189  0.3745622900755592  0.3138808484375417
  0.8997471094706313  0.3745190948874111  0.4002577419679199
  0.7496146606760590  0.3743383171895189  0.3848800930321943
  0.5991845095171229  0.3751157220541685  0.4019327365437420
  0.6562469878344217  0.3727362096715865  0.4819673263995554
  0.5000726562262301  0.3718019167847260  0.4732892633669366
  0.8476221052426141  0.3737420014145840  0.4836188617380799
  0.9055839288705627  0.4048885857963853  0.5617867156157814
  0.7549651385623690  0.3410561843710127  0.5510941689931812
  0.6040469639610748  0.3167781670595176  0.5640918414581719
  0.9051539387675902  0.3744515159448554  0.2305458224841672
  0.7486868637568946  0.3743539417274633  0.1984401364418957
  0.5932098547126756  0.3743875294572234  0.2318267564975542
  0.6529827575446134  0.9994489758175504  0.3155094185624279
  0.4988038269926065  0.9996189883404298  0.3042093908147976
  0.8440696226951943  0.9993752851763205  0.3135801956443700
  0.8992033708896088  0.9994220012840387  0.3998439759583761
  0.7488618937267546  0.9993471592760486  0.3843995971777261
  0.5981701603121294  0.9994017400863058  0.4038151878603031
  0.6564596452300933  0.9963048287666894  0.4859207643588022
  0.4983380347485067  0.9981711024288487  0.4770210764651210
  0.8465847869260301  0.9960824474739098  0.4833582494446134
  0.9017999883090724  0.0318979787990656  0.5633964952242536
  0.7597102290321587  0.9692673521327251  0.5683348246353788
  0.5831983367927833  0.9486808719483619  0.5690797155692451
  0.9051747580548906  0.4995053346660185  0.2304620283428989
  0.7486958953312524  0.4994602953795777  0.1985757100841354
  0.5933413219274328  0.4994952876099745  0.2317874616821314
  0.6541399217433934  0.6246394622060691  0.3151378819956108
  0.4995488080232917  0.6245418067072563  0.3031630737415654
  0.8445920477077919  0.6245311862193432  0.3137669136991548
  0.9005806307408548  0.6241557985642174  0.4000280219617949
  0.7500447171056734  0.6246706527101367  0.3857537610266633
  0.5999820692060069  0.6245606436452462  0.4026835409568577
  0.6571260841582998  0.6256782369097706  0.4867515208392916
  0.5032047370675201  0.6248613882166651  0.4755379447672752
  0.8495825617525341  0.6246456131201086  0.4837110893003498
  0.9293180782105281  0.6205883523606630  0.5691256363748636
  0.7851278342843813  0.6354167818802949  0.5607144000464643
  0.5896975333483212  0.6632166688958350  0.5585912936892257
  0.9052420589069285  0.6245432437948821  0.2303456246834656
  0.7486057350637694  0.6245436479804809  0.1983958009252049
  0.5933017731297170  0.6246097683705472  0.2318134396219236
  0.6538919282866402  0.7494012759884612  0.3149751939872658
  0.4989032374180766  0.7495580220918754  0.3033257982066786
  0.8445773628323607  0.7494000219779835  0.3136047733343403
  0.9006236373102681  0.7493223739305961  0.3994110499318424
  0.7496362097854643  0.7495044224340219  0.3859295443857960
  0.5980294757534566  0.7492591806675293  0.4013601569908829
  0.6484878856894980  0.7543106002311006  0.4834457719915619
  0.4973601883543282  0.7493228751955670  0.4696672645970708
  0.8471273093584415  0.7494500811650369  0.4820124502584093
  0.9135394023896666  0.7330550269201765  0.5640713004133744
  0.6990027969888573  0.7403366871495436  0.5554910601259877
  0.5258779190591838  0.7822520374789903  0.5526464184615065
  0.9051528562524851  0.7496463430784459  0.2303247562053699
  0.7485410793520586  0.7496160407331161  0.1986819841886174
  0.5930664992726022  0.7495595295316733  0.2318273146355523
  0.6532607252107709  0.8745658557238158  0.3150681740169432
  0.4986988936412686  0.8745568252826956  0.3033947728230189
  0.8441748329578758  0.8743515093889300  0.3135183775564343
  0.8997412481754736  0.8739899193288068  0.3994986759599399
  0.7488579665280142  0.8738066884120101  0.3852909524437678
  0.5973139730900385  0.8751477911434904  0.4018868112459160
  0.6503667422812711  0.8712847661265712  0.4850884497651791
  0.4980192805001380  0.8740576033155563  0.4760842329942747
  0.8465203691865142  0.8726123803173209  0.4808402347481788
  0.8937328822297417  0.9030355825297960  0.5656971545439475
  0.7402883948292711  0.8600564455714803  0.5617972836716234
  0.5762429460164640  0.8970905815887562  0.5693168290363673
  0.9051764817049417  0.8746545081110142  0.2304719151245180
  0.7483653613369583  0.8746524296938318  0.1984503816248875
  0.5927605954229520  0.8746496895469846  0.2318836831872630
  0.6541044325382259  0.4995919606342483  0.3151013584100397
  0.4995817045208213  0.4995455753125100  0.3031794220376938
  0.8445970867948702  0.4995857014806546  0.3138961118098109
  0.8999975116219545  0.4997358023225686  0.4005684614651344
  0.7497889643609241  0.4996156370453519  0.3854654910948341
  0.5993076682604013  0.4994135344881201  0.4022914335749448
  0.6570849867960575  0.5008292921991497  0.4839181368230143
  0.5028922102429050  0.4993542786036045  0.4748266192772306
  0.8476678640726050  0.4980414358710590  0.4854205182243518
  0.9313139942506510  0.5210980012055799  0.5719244533979406
  0.8022837105087319  0.5113265456365070  0.5751969407899438
  0.5834129575883509  0.4257198116612457  0.5394679127338904
  0.9833380631230568  0.1353021045899112  0.5345452285413188
  0.3611397798898679  0.1081615319000022  0.5848271487638641
  0.1074246818107554  0.0684089350524459  0.5370114995165665
  0.9883519847026037  0.2649784181313066  0.5348448969154944
  0.3123386238496479  0.1875392361358266  0.5287985829044430
  0.1086998635483170  0.1922048949775643  0.5366563534748110
  0.9889367846401242  0.3862810953140610  0.5342807235959057
  0.3511608656521545  0.3126571057933631  0.5777920756688459
  0.1131613000556868  0.3165164004179388  0.5356751592885445
  0.9829930386603181  0.0114583191015214  0.5343393328285444
  0.3288055714433469  0.4431940011447182  0.5347701413588837
  0.1165246024626043  0.4395604945934579  0.5351916399831609
  0.0053156675770367  0.6281881285303967  0.5359606422715189
  0.3052736213183351  0.5563016780316303  0.5308614150628799
  0.1259944710065071  0.5650195526005461  0.5347513916531526
  0.9928877649399297  0.7352934114824237  0.5359041303121685
  0.3208700037844068  0.6725885908077487  0.5269666246298144
  0.1232476408758387  0.6919105012602245  0.5335112695719388
  0.9762404629901624  0.8914707419658399  0.5345418268599573
  0.3384659512518624  0.8756954850379159  0.5923265648964176
  0.1096301548394862  0.8215070035154852  0.5382526396988752
  0.0025212477939007  0.5071462486575697  0.5359367460305222
  0.3077169343717898  0.9334030521926380  0.5208897281203164
  0.1074050517285414  0.9432086409113580  0.5378810999879207
  0.5233368688072915  0.1310097347815358  0.5410506236295447
  0.8509948980082527  0.0931875584501753  0.5433847408606809
  0.7184503563823625  0.0219757966270038  0.5369120703063714
  0.5719516180475068  0.2496775021792246  0.5423477251556932
  0.8636161116966576  0.2190008837687571  0.5434625975336189
  0.6553743526824860  0.1168855771634227  0.5462943045454054
  0.5310699537417847  0.3556534733437360  0.5380070549800777
  0.8576238563281038  0.3438778623138390  0.5422179535628970
  0.7117303391831200  0.2755951668177019  0.5388879403825584
  0.5213881795705504  0.0038999396554331  0.5416833401435284
  0.8695633618837775  0.4731404021276049  0.5463624473408402
  0.6617550503820411  0.3729952688706817  0.5437690357369931
  0.5045038752839304  0.6438687352390602  0.5396800035517302
  0.8464245145177571  0.5760753364675324  0.5750516370352585
  0.7013100615484902  0.6642849861498306  0.5420192430062727
  0.4513566640370144  0.7482457776430280  0.5278125656309030
  0.8734268001757997  0.6719209310197840  0.5423265299612012
  0.6020134854214234  0.7336699369514079  0.5417196625533478
  0.4942441327455782  0.8522950335950128  0.5431998674663348
  0.8290335516224090  0.8599840443475699  0.5398041318236011
  0.6975070368754430  0.8082237275645099  0.5276641029769138
  0.5049117294100611  0.4663082466545703  0.5324306001000849
  0.8537048296779020  0.9692507594319792  0.5463690619973463
  0.6875137500549968  0.9222604627754478  0.5728468924962371
  0.4332063092499325  0.5506808040797466  0.5699335369129201
  0.3970977125824220  0.6910101081504649  0.5957353559543535
  0.4287961975094774  0.3988224262360447  0.5871905092495950
  0.4048152478713121  0.2055331438750869  0.5877142703667957
 
  0.00000000E+00  0.00000000E+00  0.00000000E+00
  0.00000000E+00  0.00000000E+00  0.00000000E+00
  0.00000000E+00  0.00000000E+00  0.00000000E+00