Ta  N Cu                                
   1.00000000000000     
    18.1096308199999996    0.0000000000000000    0.0000000000000000
     0.0000000000000000   11.6775998899999998    0.0000000000000000
     0.0000000000000000    0.0000000000000000   23.4818170799999990
   Ta   N    Cu
   120   120     2
Direct
  0.9994142024103232  0.0001032393051405  0.2547859191036007
  0.3331468354732135  0.1250138676711885  0.2640203772846227
  0.1663648137851306  0.1250617055258908  0.2639073468557453
  0.2497643314184355  0.2500986402711470  0.3617141208626296
  0.0820727584325859  0.1251806398928660  0.3683176670335396
  0.4170084630160218  0.1250842980634587  0.3687206678260469
  0.9995801667200203  0.2502826846663173  0.4797125912821789
  0.3320620601362090  0.1250458332657446  0.4785138503619305
  0.1673466387374541  0.1250888036526907  0.4780505633299283
  0.2496146424601123  0.2499705056560091  0.5911439789124434
  0.0834001544147927  0.1249459933858898  0.5896390321951802
  0.4159432152948368  0.1246282433658743  0.5903471019159190
  0.9996728062602247  0.2500293897041908  0.7017715537417105
  0.3336228291292407  0.1234520024468892  0.7044447201306654
  0.1634818226172002  0.1249862778225470  0.7041193761154504
  0.9995747454349740  0.2503902851930636  0.2547757067286769
  0.3332507801067141  0.3752964115589976  0.2639727327867323
  0.1662199738865908  0.3752737378957489  0.2638315446129125
  0.2497765628307152  0.5001390652498409  0.3616680757498253
  0.0820361757523262  0.3751463076300979  0.3683189744023436
  0.4170482234167990  0.3750730883194614  0.3688981994045812
  0.9995768826020213  0.4999768551934825  0.4797205431739953
  0.3323635062839446  0.3749757724690657  0.4787048242937941
  0.1674707033822241  0.3750808459072865  0.4780091427097239
  0.2496192846418057  0.4997907274123238  0.5911569668558437
  0.0831626280090968  0.3750345148937348  0.5895866268480712
  0.4160922137467098  0.3747414679379142  0.5908382215858127
  0.9996760758433755  0.4999932927777505  0.7017639221374273
  0.3311638756033434  0.3745997512046759  0.7025037399301380
  0.1630153094511324  0.3748688220386774  0.7040592009286147
  0.9994281748575364  0.4999584649957837  0.2547792361375545
  0.3331516384417750  0.6249798460994809  0.2640232180712387
  0.1663626087821130  0.6249623488369286  0.2639162122623510
  0.2496738927995102  0.7500129552893772  0.3617129334680168
  0.0820742958062166  0.6250883252814189  0.3683223523091647
  0.4170117811524272  0.6250499867038407  0.3687477929580255
  0.9995854149681758  0.7501342377368283  0.4796629187388821
  0.3320641975918416  0.6249063735956258  0.4785384510644042
  0.1673444338081338  0.6250507357925351  0.4780540585611105
  0.2495948536445604  0.7499496944723019  0.5909792513991342
  0.0833947839791311  0.6251284931862636  0.5896495906995323
  0.4159478543780756  0.6248623409564761  0.5904014081564718
  0.9996926985589430  0.7501672871360546  0.7019590513823452
  0.3336734036265290  0.6256911182693151  0.7045036284111823
  0.1634839424568472  0.6247228617551381  0.7041459170737471
  0.9995745382583121  0.7502449898076797  0.2547844966004184
  0.3330476295855606  0.8752369060374072  0.2640136855978275
  0.1664080565660976  0.8752785313321122  0.2638560313703476
  0.2496606155365652  0.0002036063722907  0.3616608944072982
  0.0819890988362099  0.8751425795995955  0.3683181794763141
  0.4170578853552867  0.8750648984090323  0.3687105257698670
  0.9995889418214061  0.0001026087323547  0.4796549886285497
  0.3320356100048790  0.8749770499192132  0.4783844174263803
  0.1672941934404305  0.8750709324283180  0.4780351563956870
  0.2495734186827793  0.9998003136053619  0.5909770744617641
  0.0833377221893375  0.8750311082595540  0.5896934328687529
  0.4159710509754040  0.8747418267784780  0.5900431180159884
  0.9997165934343758  0.9998291927381761  0.7019725415651951
  0.3345979496753470  0.8745968715976741  0.7045049551045791
  0.1640479495164510  0.8748301228607361  0.7041227788246385
  0.4995394853072019  0.0002060721993461  0.2550341093075172
  0.8328035252546927  0.1253740030701832  0.2638976205876062
  0.6659653287195859  0.1253030780061252  0.2640586240094183
  0.7493381662943581  0.2501046038435826  0.3616455690656126
  0.5819752823111602  0.1251051372758278  0.3686971017424048
  0.9169686853622583  0.1252062068549002  0.3683345453422001
  0.4995237824177252  0.2499721288495719  0.4802796332836652
  0.8318442625592893  0.1251021614762245  0.4780516037341574
  0.6671035977747100  0.1250878738922408  0.4784586662225270
  0.7497704615203686  0.2500627092279894  0.5911135007961527
  0.5833361575553218  0.1247050073133748  0.5902724778110285
  0.9159591439149140  0.1250036402589380  0.5896235849614877
  0.4996609175783114  0.2516782299722460  0.7036106179972158
  0.8358613340757528  0.1251621483551990  0.7040560662698837
  0.6657033109900322  0.1235642813222068  0.7043064385384671
  0.4993855052499507  0.2502783302906786  0.2550924420880258
  0.8329960350460990  0.3750583478324815  0.2637995825101367
  0.6658570077665341  0.3750235373404665  0.2640234047329066
  0.7493265273068022  0.5001495369536239  0.3617034523179210
  0.5819288736256745  0.3750727179996068  0.3688509820291359
  0.9170052935144017  0.3751789097247450  0.3683300519293812
  0.4995268820215276  0.4999184205587800  0.4803050429263121
  0.8317200571250075  0.3750958666171472  0.4780168039265817
  0.6668201199226694  0.3750117473828073  0.4786110589302952
  0.7497790076761551  0.4998723038286992  0.5911080910282920
  0.5831861476086718  0.3747994676245229  0.5907664892345375
  0.9161783190913294  0.3750929836363529  0.5895692285168198
  0.4996728050679223  0.4974998684808988  0.7036575975713623
  0.8363415988847335  0.3750490511959895  0.7040341415794631
  0.6681615123575674  0.3746895050274552  0.7023748942213479
  0.4995303146315833  0.5000401561254384  0.2551016270775422
  0.8328202882949017  0.6252398653119715  0.2638946937023998
  0.6659416810141683  0.6252665720539778  0.2640698426402984
  0.7494117193981491  0.7500173670035145  0.3616449919120054
  0.5819611115992910  0.6250571061527120  0.3687249245957008
  0.9169619090476315  0.6251347775067450  0.3683322875698632
  0.4995176765189783  0.7498375137928193  0.4801647645900026
  0.8318361027181574  0.6250843407206774  0.4780594257236925
  0.6670986134576578  0.6249296889991993  0.4784817952275497
  0.7497683040268481  0.7500312436995281  0.5909563930105194
  0.5833050401826093  0.6249049319397774  0.5903299892896893
  0.9159327716750226  0.6251711503438477  0.5896328216400580
  0.4996915688681078  0.7496591138892418  0.7024688294149046
  0.8358654942064521  0.6249317417148831  0.7040952549880821
  0.6657346891161139  0.6257505426264915  0.7043602599034543
  0.4993841787535976  0.7500820140745367  0.2550432968279449
  0.8327929995527996  0.8750388322663079  0.2638307164226534
  0.6660735497150377  0.8749942768763848  0.2640671459716129
  0.7494174648244375  0.0002076740952166  0.3616853216174667
  0.5819255415960247  0.8750883471584827  0.3686759974489045
  0.9170334180429176  0.8751622160168711  0.3683312720503289
  0.4995272681273403  0.0000321006278057  0.4801385411760197
  0.8318824854573060  0.8750972727151251  0.4780478224131620
  0.6671216192595362  0.8750044170654927  0.4783258832553623
  0.7497841841060424  0.9998799385601563  0.5909383510784491
  0.5832957303966905  0.8747860329053614  0.5899761784618622
  0.9160218500632373  0.8750967093206918  0.5896728674083906
  0.4996914619022111  0.9995954187795653  0.7023933366645602
  0.8353152518731385  0.8750300120538966  0.7040504901821112
  0.6647504817204342  0.8746499405372931  0.7043895860298440
  0.4064637094909732  0.0001219887226311  0.3014853745815324
  0.2497293201823627  0.0001767368316380  0.2572527374352340
  0.0926976871300605  0.0001815685608380  0.3010430418305566
  0.1540046438329341  0.2501885538191438  0.4099085205973710
  0.9995377795598506  0.2501787050404830  0.3930079661760784
  0.3452321924169520  0.2500274871314612  0.4103333400981853
  0.4006955030244007  0.2498589069068945  0.5226960068289663
  0.2497242756694746  0.2501236578858976  0.5030617640010233
  0.0986795857796715  0.2501322369496878  0.5217844776642778
  0.1510748444190158  0.2498668663848486  0.6331122013494594
  0.9996598833752945  0.2499085988301127  0.6129493181631576
  0.3479809924498269  0.2488759718457170  0.6339242086428383
  0.3995061212563844  0.2488142927891473  0.7424508234732162
  0.2479730619377176  0.2497565148988493  0.7241731222479462
  0.0957317683826298  0.2496843009972055  0.7405421724486447
  0.4063544639759028  0.2502003936398493  0.3015827508318223
  0.2497751118985307  0.2502267821045102  0.2581281100895638
  0.0928024067302226  0.2502148364653206  0.3011037813140907
  0.1540089649870847  0.5000392345116578  0.4099089535908444
  0.9995156769007066  0.5001412341919761  0.3930131701390532
  0.3452319205864012  0.5000471573177059  0.4103474371408430
  0.4006926650614580  0.4998869619764503  0.5227255002872238
  0.2497247645169724  0.4998915874350726  0.5030695177372078
  0.0986836739013606  0.5000312924212310  0.5217919828045697
  0.1510754078319386  0.5000831281397207  0.6331219432769007
  0.9996607648982208  0.5002334564672365  0.6129592016530451
  0.3479850797993295  0.5004904356160588  0.6339448011517395
  0.3995169987534766  0.5001459344045379  0.7424869212033326
  0.2479879036196598  0.4996355261664244  0.7242150919937049
  0.0957352707565306  0.5000541675833625  0.7405541537482521
  0.4064769817611102  0.5000260559105600  0.3015805195003404
  0.2497610565113608  0.5000614038597248  0.2575535444553197
  0.0926971517311341  0.5000843402747014  0.3010884962337913
  0.1539187660315035  0.7501391684837447  0.4098710896095906
  0.9995365308667435  0.7500770973095454  0.3929654017779160
  0.3452069559363549  0.7500088690269826  0.4102387230295456
  0.4006114377548005  0.7496960900111642  0.5224170211506055
  0.2496222404580357  0.7500770480625462  0.5029017732217759
  0.0986302356011710  0.7500550962855771  0.5218396875599947
  0.1513212772516493  0.7501585358529820  0.6331734670183833
  0.9996715042973613  0.7500851643805257  0.6131761874620930
  0.3477167541907804  0.7500606746644830  0.6334069393077646
  0.4025991665229731  0.7493118723204737  0.7406001535534327
  0.2495316603114937  0.7491411856714626  0.7240128032095106
  0.0962130086090548  0.7501563212475452  0.7404937355744112
  0.4063552087823943  0.7500808502486835  0.3015218970285872
  0.2497237673470288  0.7500837582345099  0.2577746140680608
  0.0928120550912730  0.7501306458967723  0.3010660464927609
  0.1539156841931520  0.0000813670371567  0.4098673741205415
  0.9995177013127281  0.0002240930409106  0.3929572241785404
  0.3452022384470976  0.0000705710217866  0.4102202739759545
  0.4006191585815961  0.0000113776632253  0.5223901232035788
  0.2496168540830631  0.9999398400077636  0.5028921233766402
  0.0986224304300684  0.0000872323216368  0.5218348157186268
  0.1513046129181388  0.9997552990999898  0.6331606268867896
  0.9996803392261275  0.0000494627202070  0.6131816466387049
  0.3477203817099694  0.9993317151674685  0.6333578361922114
  0.4026092656849379  0.9997858939620157  0.7405286923960837
  0.2495387026879020  0.0002488026938069  0.7239479975343657
  0.0962422939687000  0.9995559602435301  0.7405007762261063
  0.9062496948579655  0.0001989606701892  0.3011057470736968
  0.7494282210393680  0.0001976719789824  0.2578513206224060
  0.5926499699815817  0.0001408633823583  0.3014473092681789
  0.6538309159081570  0.2500475800370623  0.4102623507519783
  0.4994830588583899  0.2499886264578763  0.3935349470547727
  0.8450756194555695  0.2502076504239191  0.4099123409879257
  0.9005108822761781  0.2501586228145254  0.5217841408868293
  0.7494605403262332  0.2501656080666052  0.5030173279845267
  0.5984408870369896  0.2499170539314260  0.5226053608953721
  0.6513513128101022  0.2489734462436403  0.6337902282343766
  0.4996406805444551  0.2493632335851877  0.6149420554583752
  0.8483107204141856  0.2499739432722882  0.6330840623108653
  0.9035931740690483  0.2498588623558707  0.7405146986967740
  0.7513637078906303  0.2499137575799484  0.7240537979628737
  0.5998329266787223  0.2489210222453956  0.7423505217771412
  0.9063783391141397  0.2502500693997122  0.3011228704249548
  0.7493908419280494  0.2502759480933039  0.2576408700596914
  0.5925238060741104  0.2502140976481057  0.3015076340504562
  0.6538153862443685  0.5000833752803785  0.4102823516149299
  0.4995007496018090  0.5001287278753672  0.3935619765507661
  0.8450712956363257  0.5000703397613599  0.4099151053709548
  0.9004958354648204  0.5000743054539646  0.5217882469149430
  0.7494506280448420  0.4999342657613109  0.5030317665948615
  0.5984337630827031  0.4999123452341268  0.5226391375761059
  0.6513472492927315  0.5005818033740581  0.6338412532745604
  0.4996403491440752  0.5001077772621515  0.6149956813889303
  0.8482769281627623  0.5001816595581902  0.6331065386173164
  0.9036039514335582  0.5002364010199679  0.7405272040014033
  0.7513700308781337  0.4997801807413306  0.7241162851886209
  0.5998626208027634  0.5002955791687638  0.7424165251516432
  0.9062701366770481  0.5001131356485379  0.3011453671051794
  0.7493892475774449  0.5000727582835655  0.2582154009247305
  0.5926297478380056  0.5000415845994926  0.3015492168425909
  0.6538430245157701  0.7500301058471197  0.4101824235766793
  0.4994850594219759  0.7500413167778820  0.3934294550114893
  0.8451471502467265  0.7501670937589434  0.4098717242935879
  0.9005651126745635  0.7501036888642085  0.5218342530738678
  0.7495472043735760  0.7501210907035576  0.5028731908186881
  0.5985039948457382  0.7497239968942369  0.5223382582736321
  0.6516013015009277  0.7501199091855256  0.6332883941157069
  0.4996369097351695  0.7500515535951162  0.6138051433734818
  0.8480612576632455  0.7502855373266009  0.6331374581646945
  0.9031226772177571  0.7503534612790190  0.7404440516188584
  0.7498273326695081  0.7492852091078877  0.7238827110651446
  0.5968355837777769  0.7493969756553587  0.7405119909862709
  0.9063646662126027  0.7501369227341169  0.3010789787771379
  0.7494375702350601  0.7500988232111392  0.2572844733371976
  0.5925289864437620  0.7500908663232085  0.3014468307463529
  0.6538484283091311  0.0000893461181419  0.4101682158686332
  0.4995055382625004  0.0000928890420995  0.3934038012615947
  0.8451521885231243  0.0001040972763724  0.4098723416446663
  0.9005801012817116  0.0001322081932725  0.5218307759964648
  0.7495530517827024  0.9999775840452876  0.5028619413298325
  0.5985096606548729  0.0000603941454176  0.5223022779912505
  0.6515956309977005  0.9994230692084014  0.6332390081569486
  0.4996445837842982  0.9994102195154000  0.6137410476247641
  0.8480766931717443  0.9998772700720282  0.6331197661058791
  0.9031329656295431  0.9997573332498221  0.7404245325225853
  0.7498250896251824  0.0004060362584861  0.7238069787396775
  0.5967958963501472  0.9998770890568716  0.7404400709372533
  0.4331064397258995  0.3743214023519537  0.7919420277075424
  0.5665655890745149  0.3744525655220885  0.7918793015675191
 
  0.00000000E+00  0.00000000E+00  0.00000000E+00
  0.00000000E+00  0.00000000E+00  0.00000000E+00
  0.00000000E+00  0.00000000E+00  0.00000000E+00
  0.00000000E+00  0.00000000E+00  0.00000000E+00
  0.00000000E+00  0.00000000E+00  0.00000000E+00
  0.00000000E+00  0.00000000E+00  0.00000000E+00
  0.00000000E+00  0.00000000E+00  0.00000000E+00
  0.00000000E+00  0.00000000E+00  0.00000000E+00
  0.00000000E+00  0.00000000E+00  0.00000000E+00
  0.00000000E+00  0.00000000E+00  0.00000000E+00
  0.00000000E+00  0.00000000E+00  0.00000000E+00
  0.00000000E+00  0.00000000E+00  0.00000000E+00
  0.00000000E+00  0.00000000E+00  0.00000000E+00
  0.00000000E+00  0.00000000E+00  0.00000000E+00
  0.00000000E+00  0.00000000E+00  0.00000000E+00
  0.00000000E+00  0.00000000E+00  0.00000000E+00
  0.00000000E+00  0.00000000E+00  0.00000000E+00
  0.00000000E+00  0.00000000E+00  0.00000000E+00
  0.00000000E+00  0.00000000E+00  0.00000000E+00
  0.00000000E+00  0.00000000E+00  0.00000000E+00
  0.00000000E+00  0.00000000E+00  0.00000000E+00
  0.00000000E+00  0.00000000E+00  0.00000000E+00
  0.00000000E+00  0.00000000E+00  0.00000000E+00
  0.00000000E+00  0.00000000E+00  0.00000000E+00
  0.00000000E+00  0.00000000E+00  0.00000000E+00
  0.00000000E+00  0.00000000E+00  0.00000000E+00
  0.00000000E+00  0.00000000E+00  0.00000000E+00
  0.00000000E+00  0.00000000E+00  0.00000000E+00
  0.00000000E+00  0.00000000E+00  0.00000000E+00
  0.00000000E+00  0.00000000E+00  0.00000000E+00
  0.00000000E+00  0.00000000E+00  0.00000000E+00
  0.00000000E+00  0.00000000E+00  0.00000000E+00
  0.00000000E+00  0.00000000E+00  0.00000000E+00
  0.00000000E+00  0.00000000E+00  0.00000000E+00
  0.00000000E+00  0.00000000E+00  0.00000000E+00
  0.00000000E+00  0.00000000E+00  0.00000000E+00
  0.00000000E+00  0.00000000E+00  0.00000000E+00
  0.00000000E+00  0.00000000E+00  0.00000000E+00
  0.00000000E+00  0.00000000E+00  0.00000000E+00
  0.00000000E+00  0.00000000E+00  0.00000000E+00
  0.00000000E+00  0.00000000E+00  0.00000000E+00
  0.00000000E+00  0.00000000E+00  0.00000000E+00
  0.00000000E+00  0.00000000E+00  0.00000000E+00
  0.00000000E+00  0.00000000E+00  0.00000000E+00
  0.00000000E+00  0.00000000E+00  0.00000000E+00
  0.00000000E+00  0.00000000E+00  0.00000000E+00
  0.00000000E+00  0.00000000E+00  0.00000000E+00
  0.00000000E+00  0.00000000E+00  0.00000000E+00
  0.00000000E+00  0.00000000E+00  0.00000000E+00
  0.00000000E+00  0.00000000E+00  0.00000000E+00
  0.00000000E+00  0.00000000E+00  0.00000000E+00
  0.00000000E+00  0.00000000E+00  0.00000000E+00
  0.00000000E+00  0.00000000E+00  0.00000000E+00
  0.00000000E+00  0.00000000E+00  0.00000000E+00
  0.00000000E+00  0.00000000E+00  0.00000000E+00
  0.00000000E+00  0.00000000E+00  0.00000000E+00
  0.00000000E+00  0.00000000E+00  0.00000000E+00
  0.00000000E+00  0.00000000E+00  0.00000000E+00
  0.00000000E+00  0.00000000E+00  0.00000000E+00
  0.00000000E+00  0.00000000E+00  0.00000000E+00
  0.00000000E+00  0.00000000E+00  0.00000000E+00
  0.00000000E+00  0.00000000E+00  0.00000000E+00
  0.00000000E+00  0.00000000E+00  0.00000000E+00
  0.00000000E+00  0.00000000E+00  0.00000000E+00
  0.00000000E+00  0.00000000E+00  0.00000000E+00
  0.00000000E+00  0.00000000E+00  0.00000000E+00
  0.00000000E+00  0.00000000E+00  0.00000000E+00
  0.00000000E+00  0.00000000E+00  0.00000000E+00
  0.00000000E+00  0.00000000E+00  0.00000000E+00
  0.00000000E+00  0.00000000E+00  0.00000000E+00
  0.00000000E+00  0.00000000E+00  0.00000000E+00
  0.00000000E+00  0.00000000E+00  0.00000000E+00
  0.00000000E+00  0.00000000E+00  0.00000000E+00
  0.00000000E+00  0.00000000E+00  0.00000000E+00
  0.00000000E+00  0.00000000E+00  0.00000000E+00
  0.00000000E+00  0.00000000E+00  0.00000000E+00
  0.00000000E+00  0.00000000E+00  0.00000000E+00
  0.00000000E+00  0.00000000E+00  0.00000000E+00
  0.00000000E+00  0.00000000E+00  0.00000000E+00
  0.00000000E+00  0.00000000E+00  0.00000000E+00
  0.00000000E+00  0.00000000E+00  0.00000000E+00
  0.00000000E+00  0.00000000E+00  0.00000000E+00
  0.00000000E+00  0.00000000E+00  0.00000000E+00
  0.00000000E+00  0.00000000E+00  0.00000000E+00
  0.00000000E+00  0.00000000E+00  0.00000000E+00
  0.00000000E+00  0.00000000E+00  0.00000000E+00
  0.00000000E+00  0.00000000E+00  0.00000000E+00
  0.00000000E+00  0.00000000E+00  0.00000000E+00
  0.00000000E+00  0.00000000E+00  0.00000000E+00
  0.00000000E+00  0.00000000E+00  0.00000000E+00
  0.00000000E+00  0.00000000E+00  0.00000000E+00
  0.00000000E+00  0.00000000E+00  0.00000000E+00
  0.00000000E+00  0.00000000E+00  0.00000000E+00
  0.00000000E+00  0.00000000E+00  0.00000000E+00
  0.00000000E+00  0.00000000E+00  0.00000000E+00
  0.00000000E+00  0.00000000E+00  0.00000000E+00
  0.00000000E+00  0.00000000E+00  0.00000000E+00
  0.00000000E+00  0.00000000E+00  0.00000000E+00
  0.00000000E+00  0.00000000E+00  0.00000000E+00
  0.00000000E+00  0.00000000E+00  0.00000000E+00
  0.00000000E+00  0.00000000E+00  0.00000000E+00
  0.00000000E+00  0.00000000E+00  0.00000000E+00
  0.00000000E+00  0.00000000E+00  0.00000000E+00
  0.00000000E+00  0.00000000E+00  0.00000000E+00
  0.00000000E+00  0.00000000E+00  0.00000000E+00
  0.00000000E+00  0.00000000E+00  0.00000000E+00
  0.00000000E+00  0.00000000E+00  0.00000000E+00
  0.00000000E+00  0.00000000E+00  0.00000000E+00
  0.00000000E+00  0.00000000E+00  0.00000000E+00
  0.00000000E+00  0.00000000E+00  0.00000000E+00
  0.00000000E+00  0.00000000E+00  0.00000000E+00
  0.00000000E+00  0.00000000E+00  0.00000000E+00
  0.00000000E+00  0.00000000E+00  0.00000000E+00
  0.00000000E+00  0.00000000E+00  0.00000000E+00
  0.00000000E+00  0.00000000E+00  0.00000000E+00
  0.00000000E+00  0.00000000E+00  0.00000000E+00
  0.00000000E+00  0.00000000E+00  0.00000000E+00
  0.00000000E+00  0.00000000E+00  0.00000000E+00
  0.00000000E+00  0.00000000E+00  0.00000000E+00
  0.00000000E+00  0.00000000E+00  0.00000000E+00
  0.00000000E+00  0.00000000E+00  0.00000000E+00
  0.00000000E+00  0.00000000E+00  0.00000000E+00
  0.00000000E+00  0.00000000E+00  0.00000000E+00
  0.00000000E+00  0.00000000E+00  0.00000000E+00
  0.00000000E+00  0.00000000E+00  0.00000000E+00
  0.00000000E+00  0.00000000E+00  0.00000000E+00
  0.00000000E+00  0.00000000E+00  0.00000000E+00
  0.00000000E+00  0.00000000E+00  0.00000000E+00
  0.00000000E+00  0.00000000E+00  0.00000000E+00
  0.00000000E+00  0.00000000E+00  0.00000000E+00
  0.00000000E+00  0.00000000E+00  0.00000000E+00
  0.00000000E+00  0.00000000E+00  0.00000000E+00
  0.00000000E+00  0.00000000E+00  0.00000000E+00
  0.00000000E+00  0.00000000E+00  0.00000000E+00
  0.00000000E+00  0.00000000E+00  0.00000000E+00
  0.00000000E+00  0.00000000E+00  0.00000000E+00
  0.00000000E+00  0.00000000E+00  0.00000000E+00
  0.00000000E+00  0.00000000E+00  0.00000000E+00
  0.00000000E+00  0.00000000E+00  0.00000000E+00
  0.00000000E+00  0.00000000E+00  0.00000000E+00
  0.00000000E+00  0.00000000E+00  0.00000000E+00
  0.00000000E+00  0.00000000E+00  0.00000000E+00
  0.00000000E+00  0.00000000E+00  0.00000000E+00
  0.00000000E+00  0.00000000E+00  0.00000000E+00
  0.00000000E+00  0.00000000E+00  0.00000000E+00
  0.00000000E+00  0.00000000E+00  0.00000000E+00
  0.00000000E+00  0.00000000E+00  0.00000000E+00
  0.00000000E+00  0.00000000E+00  0.00000000E+00
  0.00000000E+00  0.00000000E+00  0.00000000E+00
  0.00000000E+00  0.00000000E+00  0.00000000E+00
  0.00000000E+00  0.00000000E+00  0.00000000E+00
  0.00000000E+00  0.00000000E+00  0.00000000E+00
  0.00000000E+00  0.00000000E+00  0.00000000E+00
  0.00000000E+00  0.00000000E+00  0.00000000E+00
  0.00000000E+00  0.00000000E+00  0.00000000E+00
  0.00000000E+00  0.00000000E+00  0.00000000E+00
  0.00000000E+00  0.00000000E+00  0.00000000E+00
  0.00000000E+00  0.00000000E+00  0.00000000E+00
  0.00000000E+00  0.00000000E+00  0.00000000E+00
  0.00000000E+00  0.00000000E+00  0.00000000E+00
  0.00000000E+00  0.00000000E+00  0.00000000E+00
  0.00000000E+00  0.00000000E+00  0.00000000E+00
  0.00000000E+00  0.00000000E+00  0.00000000E+00
  0.00000000E+00  0.00000000E+00  0.00000000E+00
  0.00000000E+00  0.00000000E+00  0.00000000E+00
  0.00000000E+00  0.00000000E+00  0.00000000E+00
  0.00000000E+00  0.00000000E+00  0.00000000E+00
  0.00000000E+00  0.00000000E+00  0.00000000E+00
  0.00000000E+00  0.00000000E+00  0.00000000E+00
  0.00000000E+00  0.00000000E+00  0.00000000E+00
  0.00000000E+00  0.00000000E+00  0.00000000E+00
  0.00000000E+00  0.00000000E+00  0.00000000E+00
  0.00000000E+00  0.00000000E+00  0.00000000E+00
  0.00000000E+00  0.00000000E+00  0.00000000E+00
  0.00000000E+00  0.00000000E+00  0.00000000E+00
  0.00000000E+00  0.00000000E+00  0.00000000E+00
  0.00000000E+00  0.00000000E+00  0.00000000E+00
  0.00000000E+00  0.00000000E+00  0.00000000E+00
  0.00000000E+00  0.00000000E+00  0.00000000E+00
  0.00000000E+00  0.00000000E+00  0.00000000E+00
  0.00000000E+00  0.00000000E+00  0.00000000E+00
  0.00000000E+00  0.00000000E+00  0.00000000E+00
  0.00000000E+00  0.00000000E+00  0.00000000E+00
  0.00000000E+00  0.00000000E+00  0.00000000E+00
  0.00000000E+00  0.00000000E+00  0.00000000E+00
  0.00000000E+00  0.00000000E+00  0.00000000E+00
  0.00000000E+00  0.00000000E+00  0.00000000E+00
  0.00000000E+00  0.00000000E+00  0.00000000E+00
  0.00000000E+00  0.00000000E+00  0.00000000E+00
  0.00000000E+00  0.00000000E+00  0.00000000E+00
  0.00000000E+00  0.00000000E+00  0.00000000E+00
  0.00000000E+00  0.00000000E+00  0.00000000E+00
  0.00000000E+00  0.00000000E+00  0.00000000E+00
  0.00000000E+00  0.00000000E+00  0.00000000E+00
  0.00000000E+00  0.00000000E+00  0.00000000E+00
  0.00000000E+00  0.00000000E+00  0.00000000E+00
  0.00000000E+00  0.00000000E+00  0.00000000E+00
  0.00000000E+00  0.00000000E+00  0.00000000E+00
  0.00000000E+00  0.00000000E+00  0.00000000E+00
  0.00000000E+00  0.00000000E+00  0.00000000E+00
  0.00000000E+00  0.00000000E+00  0.00000000E+00
  0.00000000E+00  0.00000000E+00  0.00000000E+00
  0.00000000E+00  0.00000000E+00  0.00000000E+00
  0.00000000E+00  0.00000000E+00  0.00000000E+00
  0.00000000E+00  0.00000000E+00  0.00000000E+00
  0.00000000E+00  0.00000000E+00  0.00000000E+00
  0.00000000E+00  0.00000000E+00  0.00000000E+00
  0.00000000E+00  0.00000000E+00  0.00000000E+00
  0.00000000E+00  0.00000000E+00  0.00000000E+00
  0.00000000E+00  0.00000000E+00  0.00000000E+00
  0.00000000E+00  0.00000000E+00  0.00000000E+00
  0.00000000E+00  0.00000000E+00  0.00000000E+00
  0.00000000E+00  0.00000000E+00  0.00000000E+00
  0.00000000E+00  0.00000000E+00  0.00000000E+00
  0.00000000E+00  0.00000000E+00  0.00000000E+00
  0.00000000E+00  0.00000000E+00  0.00000000E+00
  0.00000000E+00  0.00000000E+00  0.00000000E+00
  0.00000000E+00  0.00000000E+00  0.00000000E+00
  0.00000000E+00  0.00000000E+00  0.00000000E+00
  0.00000000E+00  0.00000000E+00  0.00000000E+00
  0.00000000E+00  0.00000000E+00  0.00000000E+00
  0.00000000E+00  0.00000000E+00  0.00000000E+00
  0.00000000E+00  0.00000000E+00  0.00000000E+00
  0.00000000E+00  0.00000000E+00  0.00000000E+00
  0.00000000E+00  0.00000000E+00  0.00000000E+00
  0.00000000E+00  0.00000000E+00  0.00000000E+00
  0.00000000E+00  0.00000000E+00  0.00000000E+00
  0.00000000E+00  0.00000000E+00  0.00000000E+00
  0.00000000E+00  0.00000000E+00  0.00000000E+00
  0.00000000E+00  0.00000000E+00  0.00000000E+00
  0.00000000E+00  0.00000000E+00  0.00000000E+00
  0.00000000E+00  0.00000000E+00  0.00000000E+00
  0.00000000E+00  0.00000000E+00  0.00000000E+00
  0.00000000E+00  0.00000000E+00  0.00000000E+00
  0.00000000E+00  0.00000000E+00  0.00000000E+00
  0.00000000E+00  0.00000000E+00  0.00000000E+00
  0.00000000E+00  0.00000000E+00  0.00000000E+00
  0.00000000E+00  0.00000000E+00  0.00000000E+00
  0.00000000E+00  0.00000000E+00  0.00000000E+00
  0.00000000E+00  0.00000000E+00  0.00000000E+00
  0.00000000E+00  0.00000000E+00  0.00000000E+00
  0.00000000E+00  0.00000000E+00  0.00000000E+00
