Ta N                                    
   1.00000000000000     
    18.1096308199999996    0.0000000000000000    0.0000000000000000
     0.0000000000000000   23.3551997799999995    0.0000000000000000
     0.0000000000000000    0.0000000000000000   30.4818170799999990
   Ta   N 
   240   240
Direct
 -0.0000000000000000 -0.0000000000000000  0.1972746567529731
  0.3341730159070562  0.0625000001605613  0.2025464025189404
  0.1658269548267471  0.0625000001605613  0.2025464025189404
  0.2499999997239044  0.1249999998929567  0.2778824059534066
  0.0827770546495277  0.0625000001605613  0.2838873964629560
  0.4172229453504723  0.0625000001605613  0.2838873964629560
 -0.0000000000000000  0.1249999998929567  0.3695317209989157
  0.3321673787240362  0.0625000001605613  0.3683055898154012
  0.1678325920097743  0.0625000001605613  0.3683055898154012
  0.2499999997239044  0.1249999998929567  0.4556610146239595
  0.0838904391563911  0.0625000001605613  0.4542238021265050
  0.4161095608436088  0.0625000001605613  0.4542238021265050
 -0.0000000000000000  0.1249999998929567  0.5406022910453795
  0.3352054529949616  0.0625000001605613  0.5425686891364226
  0.1647945177388417  0.0625000001605613  0.5425686891364226
 -0.0000000000000000  0.1249999998929567  0.1972746567529731
  0.3341730159070562  0.1875000000535181  0.2025464025189404
  0.1658269548267471  0.1875000000535181  0.2025464025189404
  0.2499999997239044  0.2500000002140865  0.2778824059534066
  0.0827770546495277  0.1875000000535181  0.2838873964629560
  0.4172229453504723  0.1875000000535181  0.2838873964629560
 -0.0000000000000000  0.2500000002140865  0.3695317209989157
  0.3321673787240362  0.1875000000535181  0.3683055898154012
  0.1678325920097743  0.1875000000535181  0.3683055898154012
  0.2499999997239044  0.2500000002140865  0.4556610146239595
  0.0838904391563911  0.1875000000535181  0.4542238021265050
  0.4161095608436088  0.1875000000535181  0.4542238021265050
 -0.0000000000000000  0.2500000002140865  0.5406022910453795
  0.3352054529949616  0.1875000000535181  0.5425686891364226
  0.1647945177388417  0.1875000000535181  0.5425686891364226
 -0.0000000000000000  0.2500000002140865  0.1972746567529731
  0.3341730159070562  0.3124999999464819  0.2025464025189404
  0.1658269548267471  0.3124999999464819  0.2025464025189404
  0.2499999997239044  0.3750000001070433  0.2778824059534066
  0.0827770546495277  0.3124999999464819  0.2838873964629560
  0.4172229453504723  0.3124999999464819  0.2838873964629560
 -0.0000000000000000  0.3750000001070433  0.3695317209989157
  0.3321673787240362  0.3124999999464819  0.3683055898154012
  0.1678325920097743  0.3124999999464819  0.3683055898154012
  0.2499999997239044  0.3750000001070433  0.4556610146239595
  0.0838904391563911  0.3124999999464819  0.4542238021265050
  0.4161095608436088  0.3124999999464819  0.4542238021265050
 -0.0000000000000000  0.3750000001070433  0.5406022910453795
  0.3352054529949616  0.3124999999464819  0.5425686891364226
  0.1647945177388417  0.3124999999464819  0.5425686891364226
 -0.0000000000000000  0.3750000001070433  0.1972746567529731
  0.3341730159070562  0.4375000002676046  0.2025464025189404
  0.1658269548267471  0.4375000002676046  0.2025464025189404
  0.2499999997239044 -0.0000000000000000  0.2778824059534066
  0.0827770546495277  0.4375000002676046  0.2838873964629560
  0.4172229453504723  0.4375000002676046  0.2838873964629560
 -0.0000000000000000  0.0000000000000000  0.3695317209989157
  0.3321673787240362  0.4375000002676046  0.3683055898154012
  0.1678325920097743  0.4375000002676046  0.3683055898154012
  0.2499999997239044  0.0000000000000000  0.4556610146239595
  0.0838904391563911  0.4375000002676046  0.4542238021265050
  0.4161095608436088  0.4375000002676046  0.4542238021265050
 -0.0000000000000000  0.0000000000000000  0.5406022910453795
  0.3352054529949616  0.4375000002676046  0.5425686891364226
  0.1647945177388417  0.4375000002676046  0.5425686891364226
 -0.0000000000000000  0.5000000000000000  0.1972746567529731
  0.3341730159070562  0.5625000001605613  0.2025464025189404
  0.1658269548267471  0.5625000001605613  0.2025464025189404
  0.2499999997239044  0.6249999998929567  0.2778824059534066
  0.0827770546495277  0.5625000001605613  0.2838873964629560
  0.4172229453504723  0.5625000001605613  0.2838873964629560
 -0.0000000000000000  0.6249999998929567  0.3695317209989157
  0.3321673787240362  0.5625000001605613  0.3683055898154012
  0.1678325920097743  0.5625000001605613  0.3683055898154012
  0.2499999997239044  0.6249999998929567  0.4556610146239595
  0.0838904391563911  0.5625000001605613  0.4542238021265050
  0.4161095608436088  0.5625000001605613  0.4542238021265050
 -0.0000000000000000  0.6249999998929567  0.5406022910453795
  0.3352054529949616  0.5625000001605613  0.5425686891364226
  0.1647945177388417  0.5625000001605613  0.5425686891364226
 -0.0000000000000000  0.6249999998929567  0.1972746567529731
  0.3341730159070562  0.6875000000535181  0.2025464025189404
  0.1658269548267471  0.6875000000535181  0.2025464025189404
  0.2499999997239044  0.7500000002140865  0.2778824059534066
  0.0827770546495277  0.6875000000535181  0.2838873964629560
  0.4172229453504723  0.6875000000535181  0.2838873964629560
 -0.0000000000000000  0.7500000002140865  0.3695317209989157
  0.3321673787240362  0.6875000000535181  0.3683055898154012
  0.1678325920097743  0.6875000000535181  0.3683055898154012
  0.2499999997239044  0.7500000002140865  0.4556610146239595
  0.0838904391563911  0.6875000000535181  0.4542238021265050
  0.4161095608436088  0.6875000000535181  0.4542238021265050
 -0.0000000000000000  0.7500000002140865  0.5406022910453795
  0.3352054529949616  0.6875000000535181  0.5425686891364226
  0.1647945177388417  0.6875000000535181  0.5425686891364226
 -0.0000000000000000  0.7500000002140865  0.1972746567529731
  0.3341730159070562  0.8124999999464819  0.2025464025189404
  0.1658269548267471  0.8124999999464819  0.2025464025189404
  0.2499999997239044  0.8750000001070433  0.2778824059534066
  0.0827770546495277  0.8124999999464819  0.2838873964629560
  0.4172229453504723  0.8124999999464819  0.2838873964629560
 -0.0000000000000000  0.8750000001070433  0.3695317209989157
  0.3321673787240362  0.8124999999464819  0.3683055898154012
  0.1678325920097743  0.8124999999464819  0.3683055898154012
  0.2499999997239044  0.8750000001070433  0.4556610146239595
  0.0838904391563911  0.8124999999464819  0.4542238021265050
  0.4161095608436088  0.8124999999464819  0.4542238021265050
 -0.0000000000000000  0.8750000001070433  0.5406022910453795
  0.3352054529949616  0.8124999999464819  0.5425686891364226
  0.1647945177388417  0.8124999999464819  0.5425686891364226
 -0.0000000000000000  0.8750000001070433  0.1972746567529731
  0.3341730159070562  0.9375000002676046  0.2025464025189404
  0.1658269548267471  0.9375000002676046  0.2025464025189404
  0.2499999997239044  0.5000000000000000  0.2778824059534066
  0.0827770546495277  0.9375000002676046  0.2838873964629560
  0.4172229453504723  0.9375000002676046  0.2838873964629560
 -0.0000000000000000  0.5000000000000000  0.3695317209989157
  0.3321673787240362  0.9375000002676046  0.3683055898154012
  0.1678325920097743  0.9375000002676046  0.3683055898154012
  0.2499999997239044  0.5000000000000000  0.4556610146239595
  0.0838904391563911  0.9375000002676046  0.4542238021265050
  0.4161095608436088  0.9375000002676046  0.4542238021265050
 -0.0000000000000000  0.5000000000000000  0.5406022910453795
  0.3352054529949616  0.9375000002676046  0.5425686891364226
  0.1647945177388417  0.9375000002676046  0.5425686891364226
  0.5000000000000000  0.0000000000000000  0.1972746567529731
  0.8341730153548650  0.0625000001605613  0.2025464025189404
  0.6658269548267473  0.0625000001605613  0.2025464025189404
  0.7499999997239044  0.1249999998929567  0.2778824059534066
  0.5827770546495277  0.0625000001605613  0.2838873964629560
  0.9172229453504723  0.0625000001605613  0.2838873964629560
  0.5000000000000000  0.1249999998929567  0.3695317209989157
  0.8321673781718379  0.0625000001605613  0.3683055898154012
  0.6678325920097743  0.0625000001605613  0.3683055898154012
  0.7499999997239044  0.1249999998929567  0.4556610146239595
  0.5838904391563912  0.0625000001605613  0.4542238021265050
  0.9161095608436088  0.0625000001605613  0.4542238021265050
  0.5000000000000000  0.1249999998929567  0.5406022910453795
  0.8352054529949617  0.0625000001605613  0.5425686891364226
  0.6647945177388417  0.0625000001605613  0.5425686891364226
  0.5000000000000000  0.1249999998929567  0.1972746567529731
  0.8341730153548650  0.1875000000535181  0.2025464025189404
  0.6658269548267473  0.1875000000535181  0.2025464025189404
  0.7499999997239044  0.2500000002140865  0.2778824059534066
  0.5827770546495277  0.1875000000535181  0.2838873964629560
  0.9172229453504723  0.1875000000535181  0.2838873964629560
  0.5000000000000000  0.2500000002140865  0.3695317209989157
  0.8321673781718379  0.1875000000535181  0.3683055898154012
  0.6678325920097743  0.1875000000535181  0.3683055898154012
  0.7499999997239044  0.2500000002140865  0.4556610146239595
  0.5838904391563912  0.1875000000535181  0.4542238021265050
  0.9161095608436088  0.1875000000535181  0.4542238021265050
  0.5000000000000000  0.2500000002140865  0.5406022910453795
  0.8352054529949617  0.1875000000535181  0.5425686891364226
  0.6647945177388417  0.1875000000535181  0.5425686891364226
  0.5000000000000000  0.2500000002140865  0.1972746567529731
  0.8341730153548650  0.3124999999464819  0.2025464025189404
  0.6658269548267473  0.3124999999464819  0.2025464025189404
  0.7499999997239044  0.3750000001070433  0.2778824059534066
  0.5827770546495277  0.3124999999464819  0.2838873964629560
  0.9172229453504723  0.3124999999464819  0.2838873964629560
  0.5000000000000000  0.3750000001070433  0.3695317209989157
  0.8321673781718379  0.3124999999464819  0.3683055898154012
  0.6678325920097743  0.3124999999464819  0.3683055898154012
  0.7499999997239044  0.3750000001070433  0.4556610146239595
  0.5838904391563912  0.3124999999464819  0.4542238021265050
  0.9161095608436088  0.3124999999464819  0.4542238021265050
  0.5000000000000000  0.3750000001070433  0.5406022910453795
  0.8352054529949617  0.3124999999464819  0.5425686891364226
  0.6647945177388417  0.3124999999464819  0.5425686891364226
  0.5000000000000000  0.3750000001070433  0.1972746567529731
  0.8341730153548650  0.4375000002676046  0.2025464025189404
  0.6658269548267473  0.4375000002676046  0.2025464025189404
  0.7499999997239044 -0.0000000000000000  0.2778824059534066
  0.5827770546495277  0.4375000002676046  0.2838873964629560
  0.9172229453504723  0.4375000002676046  0.2838873964629560
  0.5000000000000000  0.0000000000000000  0.3695317209989157
  0.8321673781718379  0.4375000002676046  0.3683055898154012
  0.6678325920097743  0.4375000002676046  0.3683055898154012
  0.7499999997239044 -0.0000000000000000  0.4556610146239595
  0.5838904391563912  0.4375000002676046  0.4542238021265050
  0.9161095608436088  0.4375000002676046  0.4542238021265050
  0.5000000000000000 -0.0000000000000000  0.5406022910453795
  0.8352054529949617  0.4375000002676046  0.5425686891364226
  0.6647945177388417  0.4375000002676046  0.5425686891364226
  0.5000000000000000  0.5000000000000000  0.1972746567529731
  0.8341730153548650  0.5625000001605613  0.2025464025189404
  0.6658269548267473  0.5625000001605613  0.2025464025189404
  0.7499999997239044  0.6249999998929567  0.2778824059534066
  0.5827770546495277  0.5625000001605613  0.2838873964629560
  0.9172229453504723  0.5625000001605613  0.2838873964629560
  0.5000000000000000  0.6249999998929567  0.3695317209989157
  0.8321673781718379  0.5625000001605613  0.3683055898154012
  0.6678325920097743  0.5625000001605613  0.3683055898154012
  0.7499999997239044  0.6249999998929567  0.4556610146239595
  0.5838904391563912  0.5625000001605613  0.4542238021265050
  0.9161095608436088  0.5625000001605613  0.4542238021265050
  0.5000000000000000  0.6249999998929567  0.5406022910453795
  0.8352054529949617  0.5625000001605613  0.5425686891364226
  0.6647945177388417  0.5625000001605613  0.5425686891364226
  0.5000000000000000  0.6249999998929567  0.1972746567529731
  0.8341730153548650  0.6875000000535181  0.2025464025189404
  0.6658269548267473  0.6875000000535181  0.2025464025189404
  0.7499999997239044  0.7500000002140865  0.2778824059534066
  0.5827770546495277  0.6875000000535181  0.2838873964629560
  0.9172229453504723  0.6875000000535181  0.2838873964629560
  0.5000000000000000  0.7500000002140865  0.3695317209989157
  0.8321673781718379  0.6875000000535181  0.3683055898154012
  0.6678325920097743  0.6875000000535181  0.3683055898154012
  0.7499999997239044  0.7500000002140865  0.4556610146239595
  0.5838904391563912  0.6875000000535181  0.4542238021265050
  0.9161095608436088  0.6875000000535181  0.4542238021265050
  0.5000000000000000  0.7500000002140865  0.5406022910453795
  0.8352054529949617  0.6875000000535181  0.5425686891364226
  0.6647945177388417  0.6875000000535181  0.5425686891364226
  0.5000000000000000  0.7500000002140865  0.1972746567529731
  0.8341730153548650  0.8124999999464819  0.2025464025189404
  0.6658269548267473  0.8124999999464819  0.2025464025189404
  0.7499999997239044  0.8750000001070433  0.2778824059534066
  0.5827770546495277  0.8124999999464819  0.2838873964629560
  0.9172229453504723  0.8124999999464819  0.2838873964629560
  0.5000000000000000  0.8750000001070433  0.3695317209989157
  0.8321673781718379  0.8124999999464819  0.3683055898154012
  0.6678325920097743  0.8124999999464819  0.3683055898154012
  0.7499999997239044  0.8750000001070433  0.4556610146239595
  0.5838904391563912  0.8124999999464819  0.4542238021265050
  0.9161095608436088  0.8124999999464819  0.4542238021265050
  0.5000000000000000  0.8750000001070433  0.5406022910453795
  0.8352054529949617  0.8124999999464819  0.5425686891364226
  0.6647945177388417  0.8124999999464819  0.5425686891364226
  0.5000000000000000  0.8750000001070433  0.1972746567529731
  0.8341730153548650  0.9375000002676046  0.2025464025189404
  0.6658269548267473  0.9375000002676046  0.2025464025189404
  0.7499999997239044  0.5000000000000000  0.2778824059534066
  0.5827770546495277  0.9375000002676046  0.2838873964629560
  0.9172229453504723  0.9375000002676046  0.2838873964629560
  0.5000000000000000  0.5000000000000000  0.3695317209989157
  0.8321673781718379  0.9375000002676046  0.3683055898154012
  0.6678325920097743  0.9375000002676046  0.3683055898154012
  0.7499999997239044  0.5000000000000000  0.4556610146239595
  0.5838904391563912  0.9375000002676046  0.4542238021265050
  0.9161095608436088  0.9375000002676046  0.4542238021265050
  0.5000000000000000  0.5000000000000000  0.5406022910453795
  0.8352054529949617  0.9375000002676046  0.5425686891364226
  0.6647945177388417  0.9375000002676046  0.5425686891364226
  0.4056432714970087  0.0000000000000000  0.2321484879952017
  0.2499999997239044 -0.0000000000000000  0.1991425114580105
  0.0943567285029913  0.0000000000000000  0.2321484879952017
  0.1548934504957022  0.1249999998929567  0.3156841647323737
 -0.0000000000000000  0.1249999998929567  0.3028570658764995
  0.3451065495042976  0.1249999998929567  0.3156841647323737
  0.4009822472189233  0.1249999998929567  0.4019889500635587
  0.2499999997239044  0.1249999998929567  0.3875753317179680
  0.0990177522288855  0.1249999998929567  0.4019889500635587
  0.1513979757274953  0.1249999998929567  0.4876931233796886
 -0.0000000000000000  0.1249999998929567  0.4724000147887158
  0.3486020237203135  0.1249999998929567  0.4876931233796886
  0.4031530995372081  0.1249999998929567  0.5702320387445665
  0.2499999997239044  0.1249999998929567  0.5576049276905611
  0.0968469004627919  0.1249999998929567  0.5702320387445665
  0.4056432714970087  0.1249999998929567  0.2321484879952017
  0.2499999997239044  0.1249999998929567  0.1991425114580105
  0.0943567285029913  0.1249999998929567  0.2321484879952017
  0.1548934504957022  0.2500000002140865  0.3156841647323737
 -0.0000000000000000  0.2500000002140865  0.3028570658764995
  0.3451065495042976  0.2500000002140865  0.3156841647323737
  0.4009822472189233  0.2500000002140865  0.4019889500635587
  0.2499999997239044  0.2500000002140865  0.3875753317179680
  0.0990177522288855  0.2500000002140865  0.4019889500635587
  0.1513979757274953  0.2500000002140865  0.4876931233796886
 -0.0000000000000000  0.2500000002140865  0.4724000147887158
  0.3486020237203135  0.2500000002140865  0.4876931233796886
  0.4031530995372081  0.2500000002140865  0.5702320387445665
  0.2499999997239044  0.2500000002140865  0.5576049276905611
  0.0968469004627919  0.2500000002140865  0.5702320387445665
  0.4056432714970087  0.2500000002140865  0.2321484879952017
  0.2499999997239044  0.2500000002140865  0.1991425114580105
  0.0943567285029913  0.2500000002140865  0.2321484879952017
  0.1548934504957022  0.3750000001070433  0.3156841647323737
 -0.0000000000000000  0.3750000001070433  0.3028570658764995
  0.3451065495042976  0.3750000001070433  0.3156841647323737
  0.4009822472189233  0.3750000001070433  0.4019889500635587
  0.2499999997239044  0.3750000001070433  0.3875753317179680
  0.0990177522288855  0.3750000001070433  0.4019889500635587
  0.1513979757274953  0.3750000001070433  0.4876931233796886
 -0.0000000000000000  0.3750000001070433  0.4724000147887158
  0.3486020237203135  0.3750000001070433  0.4876931233796886
  0.4031530995372081  0.3750000001070433  0.5702320387445665
  0.2499999997239044  0.3750000001070433  0.5576049276905611
  0.0968469004627919  0.3750000001070433  0.5702320387445665
  0.4056432714970087  0.3750000001070433  0.2321484879952017
  0.2499999997239044  0.3750000001070433  0.1991425114580105
  0.0943567285029913  0.3750000001070433  0.2321484879952017
  0.1548934504957022  0.0000000000000000  0.3156841647323737
 -0.0000000000000000 -0.0000000000000000  0.3028570658764995
  0.3451065495042976 -0.0000000000000000  0.3156841647323737
  0.4009822472189233  0.0000000000000000  0.4019889500635587
  0.2499999997239044 -0.0000000000000000  0.3875753317179680
  0.0990177522288855  0.0000000000000000  0.4019889500635587
  0.1513979757274953  0.0000000000000000  0.4876931233796886
 -0.0000000000000000 -0.0000000000000000  0.4724000147887158
  0.3486020237203135 -0.0000000000000000  0.4876931233796886
  0.4031530995372081  0.0000000000000000  0.5702320387445665
  0.2499999997239044 -0.0000000000000000  0.5576049276905611
  0.0968469004627919 -0.0000000000000000  0.5702320387445665
  0.4056432714970087  0.5000000000000000  0.2321484879952017
  0.2499999997239044  0.5000000000000000  0.1991425114580105
  0.0943567285029913  0.5000000000000000  0.2321484879952017
  0.1548934504957022  0.6249999998929567  0.3156841647323737
 -0.0000000000000000  0.6249999998929567  0.3028570658764995
  0.3451065495042976  0.6249999998929567  0.3156841647323737
  0.4009822472189233  0.6249999998929567  0.4019889500635587
  0.2499999997239044  0.6249999998929567  0.3875753317179680
  0.0990177522288855  0.6249999998929567  0.4019889500635587
  0.1513979757274953  0.6249999998929567  0.4876931233796886
 -0.0000000000000000  0.6249999998929567  0.4724000147887158
  0.3486020237203135  0.6249999998929567  0.4876931233796886
  0.4031530995372081  0.6249999998929567  0.5702320387445665
  0.2499999997239044  0.6249999998929567  0.5576049276905611
  0.0968469004627919  0.6249999998929567  0.5702320387445665
  0.4056432714970087  0.6249999998929567  0.2321484879952017
  0.2499999997239044  0.6249999998929567  0.1991425114580105
  0.0943567285029913  0.6249999998929567  0.2321484879952017
  0.1548934504957022  0.7500000002140865  0.3156841647323737
 -0.0000000000000000  0.7500000002140865  0.3028570658764995
  0.3451065495042976  0.7500000002140865  0.3156841647323737
  0.4009822472189233  0.7500000002140865  0.4019889500635587
  0.2499999997239044  0.7500000002140865  0.3875753317179680
  0.0990177522288855  0.7500000002140865  0.4019889500635587
  0.1513979757274953  0.7500000002140865  0.4876931233796886
 -0.0000000000000000  0.7500000002140865  0.4724000147887158
  0.3486020237203135  0.7500000002140865  0.4876931233796886
  0.4031530995372081  0.7500000002140865  0.5702320387445665
  0.2499999997239044  0.7500000002140865  0.5576049276905611
  0.0968469004627919  0.7500000002140865  0.5702320387445665
  0.4056432714970087  0.7500000002140865  0.2321484879952017
  0.2499999997239044  0.7500000002140865  0.1991425114580105
  0.0943567285029913  0.7500000002140865  0.2321484879952017
  0.1548934504957022  0.8750000001070433  0.3156841647323737
 -0.0000000000000000  0.8750000001070433  0.3028570658764995
  0.3451065495042976  0.8750000001070433  0.3156841647323737
  0.4009822472189233  0.8750000001070433  0.4019889500635587
  0.2499999997239044  0.8750000001070433  0.3875753317179680
  0.0990177522288855  0.8750000001070433  0.4019889500635587
  0.1513979757274953  0.8750000001070433  0.4876931233796886
 -0.0000000000000000  0.8750000001070433  0.4724000147887158
  0.3486020237203135  0.8750000001070433  0.4876931233796886
  0.4031530995372081  0.8750000001070433  0.5702320387445665
  0.2499999997239044  0.8750000001070433  0.5576049276905611
  0.0968469004627919  0.8750000001070433  0.5702320387445665
  0.4056432714970087  0.8750000001070433  0.2321484879952017
  0.2499999997239044  0.8750000001070433  0.1991425114580105
  0.0943567285029913  0.8750000001070433  0.2321484879952017
  0.1548934504957022  0.5000000000000000  0.3156841647323737
 -0.0000000000000000  0.5000000000000000  0.3028570658764995
  0.3451065495042976  0.5000000000000000  0.3156841647323737
  0.4009822472189233  0.5000000000000000  0.4019889500635587
  0.2499999997239044  0.5000000000000000  0.3875753317179680
  0.0990177522288855  0.5000000000000000  0.4019889500635587
  0.1513979757274953  0.5000000000000000  0.4876931233796886
 -0.0000000000000000  0.5000000000000000  0.4724000147887158
  0.3486020237203135  0.5000000000000000  0.4876931233796886
  0.4031530995372081  0.5000000000000000  0.5702320387445665
  0.2499999997239044  0.5000000000000000  0.5576049276905611
  0.0968469004627919  0.5000000000000000  0.5702320387445665
  0.9056432714970086  0.0000000000000000  0.2321484879952017
  0.7499999997239044  0.0000000000000000  0.1991425114580105
  0.5943567285029914 -0.0000000000000000  0.2321484879952017
  0.6548934504957022  0.1249999998929567  0.3156841647323737
  0.5000000000000000  0.1249999998929567  0.3028570658764995
  0.8451065495042978  0.1249999998929567  0.3156841647323737
  0.9009822472189234  0.1249999998929567  0.4019889500635587
  0.7499999997239044  0.1249999998929567  0.3875753317179680
  0.5990177522288854  0.1249999998929567  0.4019889500635587
  0.6513979757274952  0.1249999998929567  0.4876931233796886
  0.5000000000000000  0.1249999998929567  0.4724000147887158
  0.8486020237203136  0.1249999998929567  0.4876931233796886
  0.9031530995372081  0.1249999998929567  0.5702320387445665
  0.7499999997239044  0.1249999998929567  0.5576049276905611
  0.5968469004627919  0.1249999998929567  0.5702320387445665
  0.9056432714970086  0.1249999998929567  0.2321484879952017
  0.7499999997239044  0.1249999998929567  0.1991425114580105
  0.5943567285029914  0.1249999998929567  0.2321484879952017
  0.6548934504957022  0.2500000002140865  0.3156841647323737
  0.5000000000000000  0.2500000002140865  0.3028570658764995
  0.8451065495042978  0.2500000002140865  0.3156841647323737
  0.9009822472189234  0.2500000002140865  0.4019889500635587
  0.7499999997239044  0.2500000002140865  0.3875753317179680
  0.5990177522288854  0.2500000002140865  0.4019889500635587
  0.6513979757274952  0.2500000002140865  0.4876931233796886
  0.5000000000000000  0.2500000002140865  0.4724000147887158
  0.8486020237203136  0.2500000002140865  0.4876931233796886
  0.9031530995372081  0.2500000002140865  0.5702320387445665
  0.7499999997239044  0.2500000002140865  0.5576049276905611
  0.5968469004627919  0.2500000002140865  0.5702320387445665
  0.9056432714970086  0.2500000002140865  0.2321484879952017
  0.7499999997239044  0.2500000002140865  0.1991425114580105
  0.5943567285029914  0.2500000002140865  0.2321484879952017
  0.6548934504957022  0.3750000001070433  0.3156841647323737
  0.5000000000000000  0.3750000001070433  0.3028570658764995
  0.8451065495042978  0.3750000001070433  0.3156841647323737
  0.9009822472189234  0.3750000001070433  0.4019889500635587
  0.7499999997239044  0.3750000001070433  0.3875753317179680
  0.5990177522288854  0.3750000001070433  0.4019889500635587
  0.6513979757274952  0.3750000001070433  0.4876931233796886
  0.5000000000000000  0.3750000001070433  0.4724000147887158
  0.8486020237203136  0.3750000001070433  0.4876931233796886
  0.9031530995372081  0.3750000001070433  0.5702320387445665
  0.7499999997239044  0.3750000001070433  0.5576049276905611
  0.5968469004627919  0.3750000001070433  0.5702320387445665
  0.9056432714970086  0.3750000001070433  0.2321484879952017
  0.7499999997239044  0.3750000001070433  0.1991425114580105
  0.5943567285029914  0.3750000001070433  0.2321484879952017
  0.6548934504957022  0.0000000000000000  0.3156841647323737
  0.5000000000000000  0.0000000000000000  0.3028570658764995
  0.8451065495042978 -0.0000000000000000  0.3156841647323737
  0.9009822472189234 -0.0000000000000000  0.4019889500635587
  0.7499999997239044  0.0000000000000000  0.3875753317179680
  0.5990177522288854 -0.0000000000000000  0.4019889500635587
  0.6513979757274952 -0.0000000000000000  0.4876931233796886
  0.5000000000000000 -0.0000000000000000  0.4724000147887158
  0.8486020237203136  0.0000000000000000  0.4876931233796886
  0.9031530995372081 -0.0000000000000000  0.5702320387445665
  0.7499999997239044 -0.0000000000000000  0.5576049276905611
  0.5968469004627919 -0.0000000000000000  0.5702320387445665
  0.9056432714970086  0.5000000000000000  0.2321484879952017
  0.7499999997239044  0.5000000000000000  0.1991425114580105
  0.5943567285029914  0.5000000000000000  0.2321484879952017
  0.6548934504957022  0.6249999998929567  0.3156841647323737
  0.5000000000000000  0.6249999998929567  0.3028570658764995
  0.8451065495042978  0.6249999998929567  0.3156841647323737
  0.9009822472189234  0.6249999998929567  0.4019889500635587
  0.7499999997239044  0.6249999998929567  0.3875753317179680
  0.5990177522288854  0.6249999998929567  0.4019889500635587
  0.6513979757274952  0.6249999998929567  0.4876931233796886
  0.5000000000000000  0.6249999998929567  0.4724000147887158
  0.8486020237203136  0.6249999998929567  0.4876931233796886
  0.9031530995372081  0.6249999998929567  0.5702320387445665
  0.7499999997239044  0.6249999998929567  0.5576049276905611
  0.5968469004627919  0.6249999998929567  0.5702320387445665
  0.9056432714970086  0.6249999998929567  0.2321484879952017
  0.7499999997239044  0.6249999998929567  0.1991425114580105
  0.5943567285029914  0.6249999998929567  0.2321484879952017
  0.6548934504957022  0.7500000002140865  0.3156841647323737
  0.5000000000000000  0.7500000002140865  0.3028570658764995
  0.8451065495042978  0.7500000002140865  0.3156841647323737
  0.9009822472189234  0.7500000002140865  0.4019889500635587
  0.7499999997239044  0.7500000002140865  0.3875753317179680
  0.5990177522288854  0.7500000002140865  0.4019889500635587
  0.6513979757274952  0.7500000002140865  0.4876931233796886
  0.5000000000000000  0.7500000002140865  0.4724000147887158
  0.8486020237203136  0.7500000002140865  0.4876931233796886
  0.9031530995372081  0.7500000002140865  0.5702320387445665
  0.7499999997239044  0.7500000002140865  0.5576049276905611
  0.5968469004627919  0.7500000002140865  0.5702320387445665
  0.9056432714970086  0.7500000002140865  0.2321484879952017
  0.7499999997239044  0.7500000002140865  0.1991425114580105
  0.5943567285029914  0.7500000002140865  0.2321484879952017
  0.6548934504957022  0.8750000001070433  0.3156841647323737
  0.5000000000000000  0.8750000001070433  0.3028570658764995
  0.8451065495042978  0.8750000001070433  0.3156841647323737
  0.9009822472189234  0.8750000001070433  0.4019889500635587
  0.7499999997239044  0.8750000001070433  0.3875753317179680
  0.5990177522288854  0.8750000001070433  0.4019889500635587
  0.6513979757274952  0.8750000001070433  0.4876931233796886
  0.5000000000000000  0.8750000001070433  0.4724000147887158
  0.8486020237203136  0.8750000001070433  0.4876931233796886
  0.9031530995372081  0.8750000001070433  0.5702320387445665
  0.7499999997239044  0.8750000001070433  0.5576049276905611
  0.5968469004627919  0.8750000001070433  0.5702320387445665
  0.9056432714970086  0.8750000001070433  0.2321484879952017
  0.7499999997239044  0.8750000001070433  0.1991425114580105
  0.5943567285029914  0.8750000001070433  0.2321484879952017
  0.6548934504957022  0.5000000000000000  0.3156841647323737
  0.5000000000000000  0.5000000000000000  0.3028570658764995
  0.8451065495042978  0.5000000000000000  0.3156841647323737
  0.9009822472189234  0.5000000000000000  0.4019889500635587
  0.7499999997239044  0.5000000000000000  0.3875753317179680
  0.5990177522288854  0.5000000000000000  0.4019889500635587
  0.6513979757274952  0.5000000000000000  0.4876931233796886
  0.5000000000000000  0.5000000000000000  0.4724000147887158
  0.8486020237203136  0.5000000000000000  0.4876931233796886
  0.9031530995372081  0.5000000000000000  0.5702320387445665
  0.7499999997239044  0.5000000000000000  0.5576049276905611
  0.5968469004627919  0.5000000000000000  0.5702320387445665
 
  0.00000000E+00  0.00000000E+00  0.00000000E+00
  0.00000000E+00  0.00000000E+00  0.00000000E+00
  0.00000000E+00  0.00000000E+00  0.00000000E+00
  0.00000000E+00  0.00000000E+00  0.00000000E+00
  0.00000000E+00  0.00000000E+00  0.00000000E+00
  0.00000000E+00  0.00000000E+00  0.00000000E+00
  0.00000000E+00  0.00000000E+00  0.00000000E+00
  0.00000000E+00  0.00000000E+00  0.00000000E+00