SYSTEM = TaN
ISMEAR = 1
SIGMA = 0.1
LREAL = Auto
IBRION = 2
ISIF = 2
ENCUT = 400
ISPIN = 2
NSW = 20
LPLANE = .TRUE.
NPAR = 20
NSIM = 4
PREC = normal
LASPH = .TRUE.
LORBIT = 11
