POSCAR                                  
   1.00000000000000     
     6.4864091119131801    0.0000000000000000    0.0000000000000000
    -3.24320455595659005   5.6173950702556739    0.0000000000000000
     0.0000000000000000    0.0000000000000000    9.7695501579214099
   Al   N    Li    Nb
    12    16     2     2
Direct
  0.1666666666666667  0.3333333333333333  0.0000000000000000
  0.6666666666666667  0.3333333333333333  0.0000000000000000
  0.1666666666666667  0.8333333333333333  0.0000000000000000
  0.6666666666666667  0.8333333333333333  0.0000000000000000
  0.1666666666666667  0.8333333333333333  0.5000000000000000
  0.6666666666666667  0.8333333333333333  0.5000000000000000
  0.8333333333333333  0.1666666666666667  0.7500000000000000
  0.3333333333333333  0.6666666666666667  0.7500000000000000
  0.8333333333333333  0.6666666666666667  0.7500000000000000
  0.8333333333333333  0.1666666666666667  0.2500000000000000
  0.3333333333333333  0.6666666666666667  0.2500000000000000
  0.8333333333333333  0.6666666666666667  0.2500000000000000
  0.1666666666666667  0.3333333333333333  0.1875000000000000
  0.6666666666666667  0.3333333333333333  0.1875000000000000
  0.1666666666666667  0.8333333333333333  0.1875000000000000
  0.6666666666666667  0.8333333333333333  0.1875000000000000
  0.1666666666666667  0.3333333333333333  0.6875000000000000
  0.6666666666666667  0.3333333333333333  0.6875000000000000
  0.1666666666666667  0.8333333333333333  0.6875000000000000
  0.6666666666666667  0.8333333333333333  0.6875000000000000
  0.3333333333333333  0.1666666666666667  0.9375000000000000
  0.8333333333333333  0.1666666666666667  0.9375000000000000
  0.3333333333333333  0.6666666666666667  0.9375000000000000
  0.8333333333333333  0.6666666666666667  0.9375000000000000
  0.3333333333333333  0.1666666666666667  0.4375000000000000
  0.8333333333333333  0.1666666666666667  0.4375000000000000
  0.3333333333333333  0.6666666666666667  0.4375000000000000
  0.8333333333333333  0.6666666666666667  0.4375000000000000
  0.3333333333333333  0.1666666666666667  0.7500000000000000
  0.3333333333333333  0.1666666666666667  0.2500000000000000
  0.1666666666666667  0.3333333333333333  0.5000000000000000
  0.6666666666666667  0.3333333333333333  0.5000000000000000
