Ta  N Ru Cu                             
   1.00000000000000     
    18.1096308199999996    0.0000000000000000    0.0000000000000000
     0.0000000000000000   23.3551997799999995    0.0000000000000000
     0.0000000000000000    0.0000000000000000   30.4818171199999988
   Ta   N    Ru   Cu
   216   240    24    29
Selective dynamics
Direct
  0.0000000000000000  0.9999830748208893  0.1973415401966889   F   F   F
  0.3340836453085174  0.0625456427909796  0.2025671507649847   F   F   F
  0.1659163254252860  0.0625456427909796  0.2025671507649847   F   F   F
  0.2499999997239044  0.1249264343318970  0.2780286427457455   F   F   F
  0.0827651805981162  0.0624885323955127  0.2838652795942167   F   F   F
  0.4172348194018838  0.0624885323955127  0.2838652795942167   F   F   F
  0.0000877691947950  0.1250092375476647  0.3697157221944299   T   T   T
  0.3326790793517903  0.0624908095146647  0.3685194142053540   T   T   T
  0.1679192854411196  0.0625046007494165  0.3683418834353350   T   T   T
  0.2519594869008617  0.1259289544057609  0.4571977018399088   T   T   T
  0.0855532809282864  0.0618137376864428  0.4545326118358758   T   T   T
  0.4155224914157129  0.0618505250745478  0.4559640304141074   T   T   T
  0.0014951728274181  0.1288819671753334  0.5432097812373232   T   T   T
  0.0000000000000000  0.1250597901973052  0.1972695212644311   F   F   F
  0.3340101687179526  0.1875125968246536  0.2025194439736353   F   F   F
  0.1659898020158508  0.1875125968246536  0.2025194439736353   F   F   F
  0.2499999997239044  0.2501643478293474  0.2779548773134195   F   F   F
  0.0824959421597526  0.1874754613012257  0.2839355728384874   F   F   F
  0.4175040578402474  0.1874754613012257  0.2839355728384874   F   F   F
  0.0002710925395679  0.2500447725391346  0.3697812768531751   T   T   T
  0.3319321838396386  0.1873459454789911  0.3686970046293666   T   T   T
  0.1679738933984128  0.1874640994320046  0.3687607809969856   T   T   T
  0.2503327827325724  0.2481965899308295  0.4564310968031589   T   T   T
  0.0839196600296132  0.1878357267291458  0.4542986844952346   T   T   T
  0.4160382620716536  0.1876527089375060  0.4538698715791379   T   T   T
  0.3395792178826484  0.1845257239485441  0.5463306649048932   T   T   T
  0.1666711182134892  0.1829909139925357  0.5466000204184454   T   T   T
  0.0000000000000000  0.2499830750349759  0.1973415401966889   F   F   F
  0.3340836453085174  0.3125456425769002  0.2025671507649847   F   F   F
  0.1659163254252860  0.3125456425769002  0.2025671507649847   F   F   F
  0.2499999997239044  0.3749264345459835  0.2780286427457455   F   F   F
  0.0827651805981162  0.3124885321814332  0.2838652795942167   F   F   F
  0.4172348194018838  0.3124885321814332  0.2838652795942167   F   F   F
 -0.0001673018214863  0.3748231148000924  0.3697900797964699   T   T   T
  0.3319311528176489  0.3124045168049819  0.3681570957331723   T   T   T
  0.1675558166570871  0.3124103150711920  0.3684427099569192   T   T   T
  0.2488010451884760  0.3774758751789028  0.4554648958942040   T   T   T
  0.0848240489706296  0.3124927561867059  0.4555339959652905   T   T   T
  0.4138265758317664  0.3129759905246917  0.4545055136233675   T   T   T
 -0.0005724051960402  0.3810631500472001  0.5445398016679297   T   T   T
  0.0000000000000000  0.3750597904113917  0.1972695212644311   F   F   F
  0.3340101687179526  0.4375125970387401  0.2025194439736353   F   F   F
  0.1659898020158508  0.4375125970387401  0.2025194439736353   F   F   F
  0.2499999997239044  0.0001643476152609  0.2779548773134195   F   F   F
  0.0824959421597526  0.4374754615153122  0.2839355728384874   F   F   F
  0.4175040578402474  0.4374754615153122  0.2839355728384874   F   F   F
 -0.0001328325413048  0.0000207019057296  0.3696010910989522   T   T   T
  0.3317070083122986  0.4374573745085826  0.3677921395423585   T   T   T
  0.1670072673742441  0.4373156751491448  0.3682142788146464   T   T   T
  0.2508685079979286 -0.0027807634141759  0.4547702545920252   T   T   T
  0.0828788037663165  0.4377831386946056  0.4535455238961352   T   T   T
  0.4164155007124989  0.4384848010887480  0.4526538641192951   T   T   T
  0.3354941569695087  0.4420948367097297  0.5408142478953621   T   T   T
  0.1629843958237238  0.4423629482441807  0.5418609570750715   T   T   T
  0.0000000000000000  0.4999830748208893  0.1973415401966889   F   F   F
  0.3340836453085174  0.5625456427909796  0.2025671507649847   F   F   F
  0.1659163254252860  0.5625456427909796  0.2025671507649847   F   F   F
  0.2499999997239044  0.6249264343318970  0.2780286427457455   F   F   F
  0.0827651805981162  0.5624885323955127  0.2838652795942167   F   F   F
  0.4172348194018838  0.5624885323955127  0.2838652795942167   F   F   F
 -0.0005872819406637  0.6247677959548689  0.3695743669581745   T   T   T
  0.3317007058901616  0.5625528582792332  0.3674135771754797   T   T   T
  0.1669092900770321  0.5624278834138967  0.3680912070772668   T   T   T
  0.2470761072608997  0.6271471571267848  0.4543408996296610   T   T   T
  0.0862013242013465  0.5620326303245577  0.4550680792039281   T   T   T
  0.4149329441352952  0.5629537998946413  0.4523357566991743   T   T   T
  0.0015211238167194  0.6284726230837641  0.5433939795952596   T   T   T
  0.0000000000000000  0.6250597901973052  0.1972695212644311   F   F   F
  0.3340101687179526  0.6875125968246536  0.2025194439736353   F   F   F
  0.1659898020158508  0.6875125968246536  0.2025194439736353   F   F   F
  0.2499999997239044  0.7501643478293474  0.2779548773134195   F   F   F
  0.0824959421597526  0.6874754613012257  0.2839355728384874   F   F   F
  0.4175040578402474  0.6874754613012257  0.2839355728384874   F   F   F
 -0.0003485555814667  0.7499474804322164  0.3695092035333811   T   T   T
  0.3313265503895004  0.6877017649367261  0.3679001815953518   T   T   T
  0.1673586076999525  0.6875818288617934  0.3681297176970262   T   T   T
  0.2471837202142334  0.7488746661961024  0.4555975041390836   T   T   T
  0.0825619140652138  0.6874898812791186  0.4528244906621320   T   T   T
  0.4164108827310208  0.6874128039238042  0.4528349644219005   T   T   T
  0.3298837025412270  0.6830297142146882  0.5407611401269036   T   T   T
  0.1628754809076923  0.6809541235024060  0.5431852190250362   T   T   T
  0.0000000000000000  0.7499830750349759  0.1973415401966889   F   F   F
  0.3340836453085174  0.8125456425769002  0.2025671507649847   F   F   F
  0.1659163254252860  0.8125456425769002  0.2025671507649847   F   F   F
  0.2499999997239044  0.8749264345459835  0.2780286427457455   F   F   F
  0.0827651805981162  0.8124885321814332  0.2838652795942167   F   F   F
  0.4172348194018838  0.8124885321814332  0.2838652795942167   F   F   F
 -0.0001011151284855  0.8748270168280866  0.3695407800321617   T   T   T
  0.3320789100946887  0.8124562454867512  0.3681877644169362   T   T   T
  0.1679428228464947  0.8125505129453620  0.3680592267887211   T   T   T
  0.2511580491363959  0.8749180848772702  0.4567154205582273   T   T   T
  0.0834878304826134  0.8118815477423861  0.4545607979101258   T   T   T
  0.4159525687433028  0.8115723530736572  0.4548007456818050   T   T   T
  0.0030369126802366  0.8785472808757320  0.5426342770472142   T   T   T
  0.0000000000000000  0.8750597904113917  0.1972695212644311   F   F   F
  0.3340101687179526  0.9375125970387401  0.2025194439736353   F   F   F
  0.1659898020158508  0.9375125970387401  0.2025194439736353   F   F   F
  0.2499999997239044  0.5001643476152609  0.2779548773134195   F   F   F
  0.0824959421597526  0.9374754615153122  0.2839355728384874   F   F   F
  0.4175040578402474  0.9374754615153122  0.2839355728384874   F   F   F
 -0.0005793685823456  0.4998750920639531  0.3695037251441456   T   T   T
  0.3326688633666031  0.9371649014998399  0.3685770157672512   T   T   T
  0.1683328593210859  0.9373389317846818  0.3683677127713126   T   T   T
  0.2484148147130938  0.4985479057498745  0.4540405788778804   T   T   T
  0.0834979659239199  0.9369281348416835  0.4534117939224122   T   T   T
  0.4192853524511753  0.9364131514835390  0.4529740832356818   T   T   T
  0.3503419685122728  0.9293185698375230  0.5423861079917335   T   T   T
  0.1709898955014538  0.9338916217376148  0.5417755599044679   T   T   T
  0.5000000000000000  0.9999830748208893  0.1973415401966889   F   F   F
  0.8340836447563262  0.0625456427909796  0.2025671507649847   F   F   F
  0.6659163254252860  0.0625456427909796  0.2025671507649847   F   F   F
  0.7499999997239044  0.1249264343318970  0.2780286427457455   F   F   F
  0.5827651805981162  0.0624885323955127  0.2838652795942167   F   F   F
  0.9172348194018838  0.0624885323955127  0.2838652795942167   F   F   F
  0.4994252826318064  0.1247714448305491  0.3695304813544866   T   T   T
  0.8321252129768261  0.0625742517431608  0.3683559544675702   T   T   T
  0.6678441134022662  0.0625428604867401  0.3682289980870357   T   T   T
  0.7505796802362964  0.1271220967036342  0.4561644638224938   T   T   T
  0.5841081749661539  0.0627385784435176  0.4542754744983389   T   T   T
  0.9159585491723055  0.0618954778892372  0.4553003124321039   T   T   T
  0.4998423614584589  0.1222938522027476  0.5440987354061925   T   T   T
  0.5000000000000000  0.1250597901973052  0.1972695212644311   F   F   F
  0.8340101681657615  0.1875125968246536  0.2025194439736353   F   F   F
  0.6659898020158508  0.1875125968246536  0.2025194439736353   F   F   F
  0.7499999997239044  0.2501643478293474  0.2779548773134195   F   F   F
  0.5824959421597526  0.1874754613012257  0.2839355728384874   F   F   F
  0.9175040578402474  0.1874754613012257  0.2839355728384874   F   F   F
  0.4992362476130370  0.2503869036173559  0.3693985184904860   T   T   T
  0.8323716925802398  0.1874886862111333  0.3685664073208018   T   T   T
  0.6679554647153350  0.1876211043344782  0.3682202669964662   T   T   T
  0.7514497118903330  0.2492246217603682  0.4552371029283411   T   T   T
  0.5810198477207114  0.1889119104477691  0.4524351065604911   T   T   T
  0.9172136752339450  0.1875172965740661  0.4538857688295229   T   T   T
  0.8294686423951634  0.1816021398426163  0.5430067248473784   T   T   T
  0.6637517635155770  0.1910663048827468  0.5406126635274373   T   T   T
  0.5000000000000000  0.2499830750349759  0.1973415401966889   F   F   F
  0.8340836447563262  0.3125456425769002  0.2025671507649847   F   F   F
  0.6659163254252860  0.3125456425769002  0.2025671507649847   F   F   F
  0.7499999997239044  0.3749264345459835  0.2780286427457455   F   F   F
  0.5827651805981162  0.3124885321814332  0.2838652795942167   F   F   F
  0.9172348194018838  0.3124885321814332  0.2838652795942167   F   F   F
  0.4993673068287625  0.3748537977812477  0.3693190394585764   T   T   T
  0.8325706031551210  0.3124544952154994  0.3683913851303200   T   T   T
  0.6681097512187191  0.3125717304038591  0.3681128859767848   T   T   T
  0.7493143984984962  0.3767520162497771  0.4563186267947908   T   T   T
  0.5835609707730229  0.3132287440673896  0.4543470514699459   T   T   T
  0.9155208192890087  0.3122565987960503  0.4557316344550680   T   T   T
  0.5004263648360973  0.3800834432041089  0.5423466998604410   T   T   T
  0.5000000000000000  0.3750597904113917  0.1972695212644311   F   F   F
  0.8340101681657615  0.4375125970387401  0.2025194439736353   F   F   F
  0.6659898020158508  0.4375125970387401  0.2025194439736353   F   F   F
  0.7499999997239044  0.0001643476152609  0.2779548773134195   F   F   F
  0.5824959421597526  0.4374754615153122  0.2839355728384874   F   F   F
  0.9175040578402474  0.4374754615153122  0.2839355728384874   F   F   F
  0.5002814660768149 -0.0000747645211786  0.3696004421387650   T   T   T
  0.8324252176321474  0.4373120990163309  0.3683172302794370   T   T   T
  0.6681829433562538  0.4373424613322011  0.3680548204127210   T   T   T
  0.7511601977067753  0.9990034836819822  0.4560903905663161   T   T   T
  0.5819726839154830  0.4381466617864939  0.4520745415133626   T   T   T
  0.9162937081231957  0.4375814345376923  0.4539750717007604   T   T   T
  0.8316870939001048  0.4368861679036929  0.5420441077842769   T   T   T
  0.6604104023059439  0.4427588592481095  0.5398570877580439   T   T   T
  0.5000000000000000  0.4999830748208893  0.1973415401966889   F   F   F
  0.8340836447563262  0.5625456427909796  0.2025671507649847   F   F   F
  0.6659163254252860  0.5625456427909796  0.2025671507649847   F   F   F
  0.7499999997239044  0.6249264343318970  0.2780286427457455   F   F   F
  0.5827651805981162  0.5624885323955127  0.2838652795942167   F   F   F
  0.9172348194018838  0.5624885323955127  0.2838652795942167   F   F   F
  0.4998117400457564  0.6250805961574077  0.3691853373611677   T   T   T
  0.8325179450258429  0.5623519939503769  0.3680702306899811   T   T   T
  0.6678423824389161  0.5625205362307275  0.3677872988401797   T   T   T
  0.7500138867799113  0.6267415347091319  0.4545939280714585   T   T   T
  0.5855569529374728  0.5618399321904447  0.4537303051856701   T   T   T
  0.9152394386681652  0.5617546883680058  0.4549130408342776   T   T   T
  0.4973047387969518  0.6318439893039379  0.5416970691959524   T   T   T
  0.5000000000000000  0.6250597901973052  0.1972695212644311   F   F   F
  0.8340101681657615  0.6875125968246536  0.2025194439736353   F   F   F
  0.6659898020158508  0.6875125968246536  0.2025194439736353   F   F   F
  0.7499999997239044  0.7501643478293474  0.2779548773134195   F   F   F
  0.5824959421597526  0.6874754613012257  0.2839355728384874   F   F   F
  0.9175040578402474  0.6874754613012257  0.2839355728384874   F   F   F
  0.5003591097286311  0.7501655336971178  0.3694630019514454   T   T   T
  0.8321490116185674  0.6874580447592309  0.3681796211076488   T   T   T
  0.6682705640037029  0.6876063418139612  0.3682319410356170   T   T   T
  0.7489652408013110  0.7476906137965449  0.4555549398870979   T   T   T
  0.5832382620748823  0.6871859498556522  0.4528822383277052   T   T   T
  0.9161119112546569  0.6867689108527482  0.4541001928921366   T   T   T
  0.8327275742636412  0.6835294581533850  0.5433822401487340   T   T   T
  0.6628693573675691  0.6774838616254305  0.5387487637696544   T   T   T
  0.5000000000000000  0.7499830750349759  0.1973415401966889   F   F   F
  0.8340836447563262  0.8125456425769002  0.2025671507649847   F   F   F
  0.6659163254252860  0.8125456425769002  0.2025671507649847   F   F   F
  0.7499999997239044  0.8749264345459835  0.2780286427457455   F   F   F
  0.5827651805981162  0.8124885321814332  0.2838652795942167   F   F   F
  0.9172348194018838  0.8124885321814332  0.2838652795942167   F   F   F
  0.5011645067495235  0.8745607361554457  0.3697653267920518   T   T   T
  0.8321408114016215  0.8124426404414067  0.3682724318828495   T   T   T
  0.6678326574616322  0.8125407784775636  0.3685722835467053   T   T   T
  0.7487145705834553  0.8763416616957842  0.4570203170379061   T   T   T
  0.5858525268993395  0.8122779606600286  0.4560922981424346   T   T   T
  0.9147532425004711  0.8117738779226741  0.4539801802176609   T   T   T
  0.5204422313874733  0.8629946684711611  0.5514948525765689   T   T   T
  0.5000000000000000  0.8750597904113917  0.1972695212644311   F   F   F
  0.8340101681657615  0.9375125970387401  0.2025194439736353   F   F   F
  0.6659898020158508  0.9375125970387401  0.2025194439736353   F   F   F
  0.7499999997239044  0.5001643476152609  0.2779548773134195   F   F   F
  0.5824959421597526  0.9374754615153122  0.2839355728384874   F   F   F
  0.9175040578402474  0.9374754615153122  0.2839355728384874   F   F   F
  0.4998071870331450  0.5000935297332948  0.3690096685621739   T   T   T
  0.8317134615713629  0.9375217585100752  0.3684857740864134   T   T   T
  0.6680756707730795  0.9374182429255092  0.3687636483505651   T   T   T
  0.7502434331089202  0.4976087883665942  0.4544188512266945   T   T   T
  0.5850593671928237  0.9369962224073498  0.4550146303009577   T   T   T
  0.9166042657517173  0.9375659145918626  0.4534033209087359   T   T   T
  0.8364268610903074  0.9323948977082263  0.5456231337295938   T   T   T
  0.6592465305966467  0.9510080683812893  0.5473671944948163   T   T   T
  0.4056069474266053  0.9999373616505167  0.2321734907340058   F   F   F
  0.2499999997239044  0.0000513587277524  0.1992858819354737   F   F   F
  0.0943930525733947  0.9999373616505167  0.2321734907340058   F   F   F
  0.1547082680068357  0.1251230653872994  0.3157550047969764   F   F   F
  0.0000000000000000  0.1248851797808541  0.3029475127512455   F   F   F
  0.3452917319931643  0.1251230653872994  0.3157550047969764   F   F   F
  0.4008040693321018  0.1244223687154740  0.4028265180075590   T   T   T
  0.2501857115287709  0.1247331191394131  0.3886482957927885   T   T   T
  0.0992056036668172  0.1248843335061240  0.4023421458438381   T   T   T
  0.1510138358249954  0.1276363983743503  0.4869557584410334   T   T   T
  0.0011484414117427  0.1245647050249289  0.4737949218734644   T   T   T
  0.3517692518742888  0.1268879925478933  0.4887404261173517   T   T   T
  0.4140672060719983  0.1406190909605491  0.5767047765531330   T   T   T
  0.2464800851511018  0.1099702875738047  0.5533402666728829   T   T   T
  0.0962812546977653  0.1247919640207628  0.5739350464795127   T   T   T
  0.4056495225775905  0.1250779796458588  0.2321437934505610   F   F   F
  0.2499999997239044  0.1250070554064280  0.1993925282839726   F   F   F
  0.0943504774224095  0.1250779796458588  0.2321437934505610   F   F   F
  0.1547523877655834  0.2498547720176418  0.3156484410005831   F   F   F
  0.0000000000000000  0.2500770228524942  0.3028264942509225   F   F   F
  0.3452476122344166  0.2498547720176418  0.3156484410005831   F   F   F
  0.4001389259487576  0.2502441942731889  0.4022847884886855   T   T   T
  0.2498811768525724  0.2499570123861014  0.3881666418583689   T   T   T
  0.0997635245880800  0.2502226434234041  0.4025862392546107   T   T   T
  0.1533196822396483  0.2476129203938140  0.4900895802585601   T   T   T
  0.0006045826074835  0.2497886434139795  0.4724757899122738   T   T   T
  0.3475637844579054  0.2472397702012090  0.4887514990006881   T   T   T
  0.4071000972471535  0.2538869859196687  0.5709999037670885   T   T   T
  0.2519719074353549  0.2183632659780140  0.5784694608657991   T   T   T
  0.0900677293371095  0.2425120551789454  0.5713985923720976   T   T   T
  0.4056069474266053  0.2499373618646032  0.2321734907340058   F   F   F
  0.2499999997239044  0.2500513589418389  0.1992858819354737   F   F   F
  0.0943930525733947  0.2499373618646032  0.2321734907340058   F   F   F
  0.1547082680068357  0.3751230656013860  0.3157550047969764   F   F   F
  0.0000000000000000  0.3748851799949406  0.3029475127512455   F   F   F
  0.3452917319931643  0.3751230656013860  0.3157550047969764   F   F   F
  0.4000982900618471  0.3749779201536513  0.4016089603613076   T   T   T
  0.2495504051741945  0.3750359069543441  0.3876301263921243   T   T   T
  0.0990241914060604  0.3746346467763944  0.4023310022466110   T   T   T
  0.1510834690767231  0.3780335235387907  0.4887145247752248   T   T   T
 -0.0001971840772027  0.3754751617212648  0.4745559388323833   T   T   T
  0.3471910717269867  0.3798401568196025  0.4861504645852187   T   T   T
  0.4043022944298639  0.3829617613839473  0.5731964472141006   T   T   T
  0.2509448152489126  0.3908442256294173  0.5653954261330932   T   T   T
  0.0949680691178559  0.3794860420640830  0.5763069948798645   T   T   T
  0.4056495225775905  0.3750779798599453  0.2321437934505610   F   F   F
  0.2499999997239044  0.3750070556205145  0.1993925282839726   F   F   F
  0.0943504774224095  0.3750779798599453  0.2321437934505610   F   F   F
  0.1547523877655834  0.9998547718035553  0.3156484410005831   F   F   F
  0.0000000000000000  0.0000770226384077  0.3028264942509225   F   F   F
  0.3452476122344166  0.9998547718035553  0.3156484410005831   F   F   F
  0.4015108901771974  0.0002893595974061  0.4023408831455449   T   T   T
  0.2504166117704492 -0.0000615926851185  0.3870705957460036   T   T   T
  0.0995911709996827 -0.0001481273626478  0.4017486151405787   T   T   T
  0.1536323591718936 -0.0045518280734140  0.4869747735571660   T   T   T
  0.0007440358445456 -0.0006142304107577  0.4721959771081272   T   T   T
  0.3485791371111525  0.9944360233990135  0.4862811848363807   T   T   T
  0.4020423025346115  0.0103468764396522  0.5608796448004556   T   T   T
  0.2609214576267060 -0.0206944803667324  0.5626828150265557   T   T   T
  0.0979398482134635 -0.0011777829970631  0.5687094366971928   T   T   T
  0.4056069474266053  0.4999373616505167  0.2321734907340058   F   F   F
  0.2499999997239044  0.5000513587277524  0.1992858819354737   F   F   F
  0.0943930525733947  0.4999373616505167  0.2321734907340058   F   F   F
  0.1547082680068357  0.6251230653872994  0.3157550047969764   F   F   F
  0.0000000000000000  0.6248851797808541  0.3029475127512455   F   F   F
  0.3452917319931643  0.6251230653872994  0.3157550047969764   F   F   F
  0.4001477844416547  0.6252771801671276  0.4008280546538469   T   T   T
  0.2494416500549727  0.6249949196363167  0.3868411884337832   T   T   T
  0.0986200444798930  0.6243517507471537  0.4017434235081085   T   T   T
  0.1490971999709184  0.6274680354934523  0.4860120920496482   T   T   T
  0.0005103340582899  0.6239159602326775  0.4740669028415600   T   T   T
  0.3464985823727646  0.6265408923258964  0.4850937302993242   T   T   T
  0.4012827143080322  0.6264113238529864  0.5756550086547111   T   T   T
  0.2432140818261040  0.6271288976419493  0.5674699665593064   T   T   T
  0.0971640720845273  0.6186374336392584  0.5738184104704102   T   T   T
  0.4056495225775905  0.6250779796458588  0.2321437934505610   F   F   F
  0.2499999997239044  0.6250070554064280  0.1993925282839726   F   F   F
  0.0943504774224095  0.6250779796458588  0.2321437934505610   F   F   F
  0.1547523877655834  0.7498547720176418  0.3156484410005831   F   F   F
  0.0000000000000000  0.7500770228524942  0.3028264942509225   F   F   F
  0.3452476122344166  0.7498547720176418  0.3156484410005831   F   F   F
  0.4008215894958834  0.7503400116351577  0.4013889398821525   T   T   T
  0.2495151224407157  0.7502821586055871  0.3874211447652611   T   T   T
  0.0989886978618581  0.7502614654599576  0.4017315234011454   T   T   T
  0.1482544617983929  0.7478023231649682  0.4884391074616621   T   T   T
 -0.0011142790434934  0.7491031086393324  0.4720257601549638   T   T   T
  0.3461725312546690  0.7471014373059134  0.4849378937848378   T   T   T
  0.3915042718650204  0.7486699354201425  0.5666869984508143   T   T   T
  0.2475035723903337  0.7397365322009751  0.5568906929773151   T   T   T
  0.0875474549120619  0.7391052210152319  0.5714267829391566   T   T   T
  0.4056069474266053  0.7499373618646032  0.2321734907340058   F   F   F
  0.2499999997239044  0.7500513589418389  0.1992858819354737   F   F   F
  0.0943930525733947  0.7499373618646032  0.2321734907340058   F   F   F
  0.1547082680068357  0.8751230656013860  0.3157550047969764   F   F   F
  0.0000000000000000  0.8748851799949406  0.3029475127512455   F   F   F
  0.3452917319931643  0.8751230656013860  0.3157550047969764   F   F   F
  0.4024803172752958  0.8736696442686068  0.4021870428423741   T   T   T
  0.2503344433567620  0.8745468367690971  0.3883075245381518   T   T   T
  0.0991960225690415  0.8746909265763296  0.4018953735765907   T   T   T
  0.1498051952674287  0.8758172627401553  0.4867771676747512   T   T   T
 -0.0007832968469703  0.8748890439992321  0.4733438249040032   T   T   T
  0.3533396969786989  0.8753559569417945  0.4863726830384906   T   T   T
  0.4273144795666602  0.8870578112625895  0.5733875209941377   T   T   T
  0.2567531176644513  0.8698779854687138  0.5521720797030030   T   T   T
  0.1002057914481675  0.8768554969691530  0.5731457728393106   T   T   T
  0.4056495225775905  0.8750779798599453  0.2321437934505610   F   F   F
  0.2499999997239044  0.8750070556205145  0.1993925282839726   F   F   F
  0.0943504774224095  0.8750779798599453  0.2321437934505610   F   F   F
  0.1547523877655834  0.4998547718035553  0.3156484410005831   F   F   F
  0.0000000000000000  0.5000770226384077  0.3028264942509225   F   F   F
  0.3452476122344166  0.4998547718035553  0.3156484410005831   F   F   F
  0.3999575304004121  0.5001663800874863  0.4005974262087832   T   T   T
  0.2494599391648363  0.4998465007279286  0.3866435112598242   T   T   T
  0.0988272465096196  0.5002124483604266  0.4015121886406617   T   T   T
  0.1508485021079146  0.4974784376315515  0.4853512160769655   T   T   T
  0.0003996839587608  0.5000894891072816  0.4720595097241010   T   T   T
  0.3477073671562343  0.4997366423239884  0.4848975549911247   T   T   T
  0.4087943946545208  0.5000236908778661  0.5720712009027168   T   T   T
  0.2479156500182873  0.4989421899837377  0.5621954987463027   T   T   T
  0.0909912313294934  0.5060361723647838  0.5713925755345267   T   T   T
  0.9056069474266053  0.9999373616505167  0.2321734907340058   F   F   F
  0.7499999997239044  0.0000513587277524  0.1992858819354737   F   F   F
  0.5943930525733947  0.9999373616505167  0.2321734907340058   F   F   F
  0.6547082680068357  0.1251230653872994  0.3157550047969764   F   F   F
  0.5000000000000000  0.1248851797808541  0.3029475127512455   F   F   F
  0.8452917319931643  0.1251230653872994  0.3157550047969764   F   F   F
  0.9010313980000585  0.1247704860132701  0.4023386389572647   T   T   T
  0.7499224627449835  0.1249750164612891  0.3879761060408584   T   T   T
  0.5982904432523688  0.1251030216354019  0.4017560883942882   T   T   T
  0.6491394583810400  0.1295994580901988  0.4848165229244101   T   T   T
  0.4995723999602558  0.1261383164524609  0.4740551306022717   T   T   T
  0.8500983483524344  0.1265455930630418  0.4872763755171617   T   T   T
  0.9037028830007796  0.1265508426798887  0.5731220457271692   T   T   T
  0.7415077380577629  0.1275932107836194  0.5527452369770997   T   T   T
  0.5938151050494838  0.1387953118534268  0.5727908253616232   T   T   T
  0.9056495225775905  0.1250779796458588  0.2321437934505610   F   F   F
  0.7499999997239044  0.1250070554064280  0.1993925282839726   F   F   F
  0.5943504774224095  0.1250779796458588  0.2321437934505610   F   F   F
  0.6547523877655834  0.2498547720176418  0.3156484410005831   F   F   F
  0.5000000000000000  0.2500770228524942  0.3028264942509225   F   F   F
  0.8452476122344166  0.2498547720176418  0.3156484410005831   F   F   F
  0.9007840402015431  0.2500648792077445  0.4023933252676415   T   T   T
  0.7502898396764840  0.2501177528053093  0.3873094789688263   T   T   T
  0.5984870946261153  0.2510679675045447  0.4013460855726104   T   T   T
  0.6520907859988028  0.2492254995130414  0.4845175390695499   T   T   T
  0.4995002960218593  0.2514318996357849  0.4730015944602789   T   T   T
  0.8490993337148132  0.2472181331636724  0.4889243279092887   T   T   T
  0.9087255761075843  0.2411695646703716  0.5702680868070676   T   T   T
  0.7492608431564352  0.2435420279960488  0.5638877813249078   T   T   T
  0.6003577788867666  0.2616499342033201  0.5633041432170003   T   T   T
  0.9056069474266053  0.2499373618646032  0.2321734907340058   F   F   F
  0.7499999997239044  0.2500513589418389  0.1992858819354737   F   F   F
  0.5943930525733947  0.2499373618646032  0.2321734907340058   F   F   F
  0.6547082680068357  0.3751230656013860  0.3157550047969764   F   F   F
  0.5000000000000000  0.3748851799949406  0.3029475127512455   F   F   F
  0.8452917319931643  0.3751230656013860  0.3157550047969764   F   F   F
  0.9007610987023995  0.3747851814458133  0.4024251384700374   T   T   T
  0.7503044629363156  0.3748239564557637  0.3880596640078606   T   T   T
  0.5985972648642819  0.3745541685105572  0.4015543677579023   T   T   T
  0.6480353348534371  0.3782556837129513  0.4872273859515197   T   T   T
  0.4993558201629554  0.3761075486239161  0.4729103308073449   T   T   T
  0.8493431144052875  0.3766457519901047  0.4882534303862698   T   T   T
  0.9043806823954830  0.3780643215401219  0.5769281391861510   T   T   T
  0.7437964623760460  0.3779435747296325  0.5549007271681441   T   T   T
  0.5868443238036513  0.3950240517086197  0.5781608157649814   T   T   T
  0.9056495225775905  0.3750779798599453  0.2321437934505610   F   F   F
  0.7499999997239044  0.3750070556205145  0.1993925282839726   F   F   F
  0.5943504774224095  0.3750779798599453  0.2321437934505610   F   F   F
  0.6547523877655834  0.9998547718035553  0.3156484410005831   F   F   F
  0.5000000000000000  0.0000770226384077  0.3028264942509225   F   F   F
  0.8452476122344166  0.9998547718035553  0.3156484410005831   F   F   F
  0.9003673595130010  0.0001968463821966  0.4023018330884652   T   T   T
  0.7499922707071399  0.0002614532870263  0.3879452067291196   T   T   T
  0.5991193665607112 -0.0000786454044903  0.4025181405595871   T   T   T
  0.6532683502307022  0.0000314337592715  0.4866301336160181   T   T   T
  0.5002693293476138 -0.0000608471592582  0.4741172419697810   T   T   T
  0.8486875655122563 -0.0025271678208531  0.4902020012503228   T   T   T
  0.9162700673495949 -0.0105601544995188  0.5708883390601514   T   T   T
  0.7526369105618860 -0.0313361507303959  0.5734295480744338   T   T   T
  0.5943169079918726  0.0191086728318074  0.5677733069259213   T   T   T
  0.9056069474266053  0.4999373616505167  0.2321734907340058   F   F   F
  0.7499999997239044  0.5000513587277524  0.1992858819354737   F   F   F
  0.5943930525733947  0.4999373616505167  0.2321734907340058   F   F   F
  0.6547082680068357  0.6251230653872994  0.3157550047969764   F   F   F
  0.5000000000000000  0.6248851797808541  0.3029475127512455   F   F   F
  0.8452917319931643  0.6251230653872994  0.3157550047969764   F   F   F
  0.9003399281023016  0.6247164569056276  0.4023139119277293   T   T   T
  0.7503710140947613  0.6248757503511349  0.3870811334154530   T   T   T
  0.5991298927329788  0.6246824225288896  0.4011617364355725   T   T   T
  0.6504565252267142  0.6245637961364108  0.4842988735301653   T   T   T