Ta  N Co Cu                             
   1.00000000000000     
    18.1096308199999996    0.0000000000000000    0.0000000000000000
     0.0000000000000000   23.3551997799999995    0.0000000000000000
     0.0000000000000000    0.0000000000000000   30.4818171199999988
   Ta   N    Co   Cu
   192   240    48     1
Direct
  0.0006556686681805  0.9999708203492546  0.1971032101612380
  0.3343498502414022  0.0624426855059568  0.2034534942318516
  0.1656610826540188  0.0624502706503236  0.2029217682226019
  0.2497147973924712  0.1250731684108075  0.2788402901280094
  0.0825991217031685  0.0625266604862560  0.2842184836858976
  0.4161484248189353  0.0625011259699519  0.2855880508212962
  0.9993416939503845  0.1251686773410157  0.3695464735885565
  0.3313800391125454  0.0626481883415337  0.3706232523441884
  0.1668218558088483  0.0627643834760079  0.3693430375980569
  0.2461463089734011  0.1272451930251108  0.4576965583729873
  0.0821349475483260  0.0634449570644691  0.4545025905880351
  0.4115237394068103  0.0625696381703804  0.4585790352722725
  0.0006783336086187  0.1248787935215034  0.1970505342058644
  0.3342440854779483  0.1873445821100219  0.2032656270642548
  0.1656799785139498  0.1873845737312578  0.2027320426563932
  0.2497221238947986  0.2499982184215455  0.2783870619563444
  0.0825693618951959  0.1875070025429011  0.2840598370477991
  0.4162246700195453  0.1874006541766633  0.2851600974841375
  0.9996255684150128  0.2501525905892237  0.3692733305748206
  0.3316141207759884  0.1876808608153695  0.3695306370721383
  0.1670369357538064  0.1878335564742812  0.3688498051850644
  0.2469755107087934  0.2501283018280134  0.4568719299846151
  0.0819721838322351  0.1885790686581359  0.4545520367336877
  0.4141096421360331  0.1879903334682922  0.4549350381802313
  0.0005370480505960  0.2497255411560388  0.1969002983452768
  0.3342222954926299  0.3122824892747644  0.2030213184927447
  0.1657603950298565  0.3123405837189637  0.2024871346099175
  0.2500208409797722  0.3749864790719144  0.2781465189076400
  0.0827375930254632  0.3124938919063851  0.2837406511092553
  0.4164742775534052  0.3124302531039547  0.2847730607729773
  0.9996771226763670  0.3751209974877696  0.3690895433661794
  0.3318315775581340  0.3126891801575056  0.3693387745140200
  0.1673567320401901  0.3128052682196127  0.3685427807089638
  0.2488401189890652  0.3770060797141639  0.4569232926638662
  0.0829971498181123  0.3134688694647565  0.4539919794184257
  0.4132170108231747  0.3125215820337317  0.4564217012065797
  0.0004943877005701  0.3747663614666479  0.1966668738792876
  0.3343432070758325  0.4373911665026071  0.2027214202486007
  0.1658631946515712  0.4373759786265410  0.2022292633726792
  0.2496490816963544  0.0000954950825829  0.2788878300311026
  0.0827375322930237  0.4374036859890538  0.2834815750720026
  0.4167369688109019  0.4374205722156290  0.2845471797965331
  0.9994419008087121  0.0000324947916397  0.3695238956145772
  0.3323891186556480  0.4375142980361275  0.3693905103099056
  0.1677566899620970  0.4376792928636988  0.3682219699978546
  0.2454360335120356  0.9999177617165458  0.4578994080116559
  0.0827582082137255  0.4382648575579680  0.4536345248417248
  0.4172818662201365  0.4366550349689717  0.4559841711834665
  0.0004314119309754  0.4998887687925730  0.1965580854812856
  0.3344670480654344  0.5623921488480406  0.2025556668736996
  0.1658608011995284  0.5623231274008376  0.2021469962116029
  0.2501662832344635  0.6248143812944207  0.2778351187833366
  0.0827416700391055  0.5624004037883523  0.2833707040986226
  0.4168521273805794  0.5623647120252357  0.2844023493255747
  0.9998286254470798  0.6248959387826432  0.3687191495392526
  0.3325986777655245  0.5621156060613046  0.3691637981707387
  0.1674584482575625  0.5624505205144175  0.3678604550223668
  0.2498133419588058  0.6241729967614376  0.4562206122934214
  0.0831802023914037  0.5629945316654457  0.4534870448675576
  0.4199171559460595  0.5621394461470715  0.4551737544297154
  0.0005899392889361  0.6248932991446949  0.1965146637322874
  0.3344084773280187  0.6875518951564885  0.2026316819529654
  0.1658054760187895  0.6876016430864667  0.2021865899257378
  0.2497502023788556  0.7499896186435677  0.2779147851395365
  0.0827254605546486  0.6874146373961807  0.2833783092395095
  0.4164135108092353  0.6873415365132871  0.2845081944060084
  0.0001730484587910  0.7497808739171248  0.3688540230076924
  0.3318626005458967  0.6871664429545348  0.3689206265543703
  0.1675281866429330  0.6873866414457481  0.3680207129942943
  0.2509814694754837  0.7478025553331022  0.4570243149360422
  0.0833460103180386  0.6874307623958558  0.4533020650919397
  0.4166887891777051  0.6867980030600478  0.4534541501112628
  0.0005155071430636  0.7500399562099744  0.1966852261732370
  0.3342535145800767  0.8125444463075340  0.2029295056303155
  0.1658610075959857  0.8125368322761517  0.2025856685821097
  0.2495074248561906  0.8751844505243227  0.2785449614137718
  0.0827385574248609  0.8125051681474673  0.2837570872953563
  0.4160744047639255  0.8124761496498039  0.2847909763331629
  0.9997740223741758  0.8749403716810988  0.3694251858080264
  0.3310798587326715  0.8126118117762076  0.3694751003489358
  0.1668057834271863  0.8124460610923450  0.3689061422334774
  0.2445550322063923  0.8754776429771525  0.4565954200515634
  0.0826867810051510  0.8122632774880927  0.4552615075376565
  0.4130561755870161  0.8127274647120117  0.4561973758591975
  0.0007229404038682  0.8751398560986559  0.1969593826618592
  0.3342584464560758  0.9376475977681480  0.2033547173799306
  0.1657021218755901  0.9376092921442307  0.2028719253443754
  0.2502623444068988  0.4999104839438644  0.2778666104803307
  0.0824425462494531  0.9375333348757309  0.2841760025230968
  0.4159528840142102  0.9375899081662453  0.2852169646009060
  0.9994377472122622  0.5000639409905787  0.3688555275119398
  0.3314803047245363  0.9378158139152504  0.3698559454370454
  0.1667161695809511  0.9376780761379422  0.3691782533108565
  0.2485531899588764  0.4999058147268514  0.4565035433404745
  0.0812954859492123  0.9378486675951550  0.4553957899504013
  0.4135572406892862  0.9378345971984814  0.4564340869285033
  0.4980554762256588  0.9999410331407574  0.1979750951583199
  0.8331731840475669  0.0623084239270142  0.2018915157103933
  0.6639439109267613  0.0623143179875925  0.2024657733283917
  0.7484302476410249  0.1247470465898175  0.2770606187879707
  0.5813014848475859  0.0623492479348613  0.2842389245928061
  0.9170256897877564  0.0624103857747258  0.2828097369288116
  0.4993238317814459  0.1246412138848143  0.3713167785711065
  0.8314321679699930  0.0622437115518224  0.3663651748214178
  0.6649979748721933  0.0621481536147002  0.3686947012276534
  0.7495455745658006  0.1233930631087148  0.4524976412137249
  0.5841871265047160  0.0616351566208166  0.4594103905850559
  0.9129240847615492  0.0618825778125398  0.4535118524234178
  0.4981114352156339  0.1246875098334357  0.1979182167266629
  0.8332320985886312  0.1872187052399994  0.2017385285187672
  0.6641986436186471  0.1871351681667193  0.2022350204287235
  0.7488692784792903  0.2498328064407147  0.2769223497196762
  0.5814742963710344  0.1872496711536229  0.2839683044839347
  0.9169817127644890  0.1873910505300387  0.2827606219460961
  0.4993806929599600  0.2499484188036547  0.3705523067800200
  0.8315117817622024  0.1874628897446939  0.3667266831527769
  0.6662768536567540  0.1872533670168934  0.3682158624827281
  0.7479342936981581  0.2489513994287407  0.4540992040458107
  0.5827518704796546  0.1881452246969104  0.4552214473088441
  0.9137149645308824  0.1871754524914522  0.4530848136739749
  0.4983966951522660  0.2497085116010922  0.1976360998384408
  0.8333585014371820  0.3121509328360332  0.2015513884557265
  0.6644373019154060  0.3120921767399878  0.2020198285598482
  0.7491376834838519  0.3747315815164214  0.2766963094854304
  0.5818155397894174  0.3122943391015696  0.2835651141916742
  0.9170646746141244  0.3123686427496324  0.2826043194546699
  0.4998741765950427  0.3752145809258778  0.3702746803214154
  0.8318296555185682  0.3123004801572762  0.3664479794501787
  0.6664976517693475  0.3123043680801914  0.3673507603677777
  0.7514080160291243  0.3734763796763758  0.4517390503173573
  0.5830154556301181  0.3120828604568118  0.4543412743008730
  0.9139823150730635  0.3123379092886651  0.4531963626427995
  0.4985586979450787  0.3747872772631879  0.1973248295901584
  0.8333018260278990  0.4372717156220460  0.2015013322263357
  0.6646869794628643  0.4372753181436480  0.2018639695560509
  0.7482021811106705  0.9998547817396002  0.2771614908058240
  0.5820010561777664  0.4373946088507310  0.2834083930582025
  0.9171147965455120  0.4373804224093689  0.2824830964341132
  0.4991552221576327  0.0000646512140463  0.3716394781116747
  0.8320555558929996  0.4375519945945712  0.3665908731312300
  0.6664145403877555  0.4375855638897548  0.3676686422737703
  0.7499606073391547  0.9983064291692898  0.4521696257295531
  0.5883816843073788  0.4385348037297945  0.4567492319197513
  0.9142543884173264  0.4377081518128918  0.4534241226053979
  0.4988359228394756  0.4998980312604147  0.1971760135058886
  0.8333302786790497  0.5624396430279717  0.2014679279393690
  0.6646741800734191  0.5624544701813363  0.2018079724183934
  0.7490999270876628  0.6248945437656062  0.2768515829215374
  0.5823683400589772  0.5624376065249095  0.2834770237848900
  0.9170907455381965  0.5623574940797980  0.2824708063068826
  0.5010979604883659  0.6245533045425731  0.3700479761281272
  0.8321214768374929  0.5624786308280960  0.3666737580043389
  0.6666709739887864  0.5624850621761652  0.3680776940461641
  0.7518327662418898  0.6256187361617123  0.4538036335716171
  0.5908741873141565  0.5624607213199226  0.4567254122103321
  0.9131141877592555  0.5625039689689046  0.4538131497259457
  0.4987938451459755  0.6250162404760147  0.1972474253151333
  0.8332727614749444  0.6874634313965160  0.2015192547181073
  0.6644284019421676  0.6875063881648558  0.2018838335266935
  0.7488288985692293  0.7499670779978871  0.2769568427474240
  0.5819452748354763  0.6874146981735123  0.2837022448797555
  0.9171636449344689  0.6873919098219972  0.2823774306653704
  0.4988390175741841  0.7497621165433159  0.3700036561043163
  0.8321884387882079  0.6873067796299566  0.3665096685132383
  0.6666748264064708  0.6873653842896985  0.3682264565306994
  0.7494080565506920  0.7493714194459500  0.4541694840422466
  0.5861603242308391  0.6873150436263913  0.4559876244629351
  0.9137371930572797  0.6877055008442454  0.4533779862182783
  0.4986184616081459  0.7500468005916971  0.1974989503412630
  0.8330871352191238  0.8126087902967924  0.2016918392203451
  0.6642086478862481  0.8126144814867970  0.2021363666332121
  0.7483658863857912  0.8747782381838789  0.2770112269555725
  0.5815546250080601  0.8124413688982202  0.2837941606735868
  0.9172055902438103  0.8124033018787600  0.2824840273051024
  0.4982279634352906  0.8751691577280880  0.3704255360165831
  0.8317221914885593  0.8121204345569950  0.3661759028377745
  0.6661073838654445  0.8121995855351258  0.3678628917378575
  0.7467582178820535  0.8725500411352414  0.4531559776269702
  0.5810445748394386  0.8137348772576587  0.4535935712203596
  0.9134469023845213  0.8108465825009006  0.4530885608719473
  0.4981233088352397  0.8750802107821443  0.1977232751634901
  0.8330717839301016  0.9374304549334838  0.2018182649165254
  0.6639965446685494  0.9375140622073843  0.2023026849306007
  0.7491264918251801  0.4999527016456540  0.2766976950227900
  0.5810553339939872  0.9374535405859916  0.2841506563928604
  0.9170712622052406  0.9373844985889832  0.2827472119952716
  0.5006332020731890  0.4996475236297684  0.3700660266575895
  0.8313645404495063  0.9371079373841695  0.3662969114242927
  0.6655741849874133  0.9372913207856612  0.3684907441741885
  0.7507213636577461  0.4997390858584794  0.4531778134314166
  0.5854905785490772  0.9366626465166306  0.4570686314976840
  0.9138557361391548  0.9367524128405620  0.4524123861585210
  0.4046673923959787  0.0001591608502949  0.2337967547268320
  0.2499455698715138  0.0001034114480873  0.2003348987019962
  0.0944890116487116  0.0000183590785454  0.2325904947196804
  0.1544584954286137  0.1250953338752296  0.3163331215075331
  0.9994708706577882  0.1249548482947205  0.3027541431533791
  0.3440978760804327  0.1248934930872636  0.3172688812572204
  0.4003977223908990  0.1245021532984438  0.4037087544947369
  0.2487713077467433  0.1256365829264610  0.3894813446257714
  0.0986348575417679  0.1257856706305063  0.4023234549863020
  0.1467572724271022  0.1266426817629238  0.4897372518085916
  0.9964829105190489  0.1257687318395568  0.4714328760856716
  0.3449019092280565  0.1289534209755558  0.4862539871030194
  0.4482956881454925  0.1310329802596399  0.5735572460040430
  0.2927157144668371  0.1400082876275093  0.5679563297638310
  0.0689452620303683  0.1312879883042442  0.5620964981256549
  0.4047501505904663  0.1248232280751012  0.2337262626855932
  0.2499455560719213  0.1248706224195644  0.2005792635893613
  0.0944657751466593  0.1249589600027363  0.2325105830576817
  0.1545140922511266  0.2501463303042968  0.3159741635963513
  0.9995780080551171  0.2499836457383182  0.3025019579342754
  0.3442059507803492  0.2501160586513222  0.3166742722149536
  0.4002200953960369  0.2505787845541434  0.4022975331079977
  0.2490354558208949  0.2502411892544316  0.3888239269681719
  0.0989948731420043  0.2504393025965825  0.4019510458039264
  0.1480117044356248  0.2516913138008334  0.4890229191795186
  0.9973837851353693  0.2514667514732025  0.4714097151085710
  0.3470039270736791  0.2487298169927641  0.4844809510425563
  0.4725457167068186  0.2580303656414884  0.5693579949384286
  0.3117296758767694  0.2537234877189363  0.5637208081115332
  0.0730660345127134  0.2560872103680296  0.5619409269164706
  0.4048693295645052  0.2497808666095764  0.2332540577908020
  0.2499737997465417  0.2498082810358184  0.1997642215129147
  0.0945399514998329  0.2498490463738250  0.2322217786982748
  0.1547534234361478  0.3750894534811664  0.3155964307746117
  0.9996700206783089  0.3749676286453791  0.3023152509437921
  0.3445491235987888  0.3750831735140494  0.3165705017374378
  0.4011882855567634  0.3749956750992709  0.4028535040909773
  0.2495657833856058  0.3753666867930434  0.3886325496574443
  0.0992187119024237  0.3756276195392516  0.4015716917524585
  0.1497402461820556  0.3763245939070430  0.4884939741945189
  0.9976648507646715  0.3761176272483056  0.4711617042445653
  0.3479146274949443  0.3771672300967523  0.4855707523821877
  0.4492033504261386  0.3063468265889639  0.5663153614906307
  0.3187485004394901  0.3847321173452301  0.5714220148853855
  0.0741073468119069  0.3792140918647675  0.5608505103721555
  0.4049875005872892  0.3748834574851614  0.2329469332633991
  0.2500592351268764  0.3748268946489972  0.1996790685378400
  0.0944726776851681  0.3748881964435995  0.2318902368485496
  0.1543804233811059  0.0001022508631365  0.3164538676115711
  0.9994703293388909  0.9999912453791140  0.3027320204001853
  0.3440341697744032  0.0002792545687029  0.3174472037126037
  0.4003717756198952  0.0005902037693417  0.4041921889562374
  0.2486564424132567  0.0000944747318385  0.3895358749192610
  0.0985651072615497  0.9999711528366646  0.4026436223158854
  0.1465203501498848  0.0013978276431814  0.4900922596483781
  0.9965006004591146  0.0011160674012132  0.4713926008076399
  0.3448577679456264  0.9997283333976199  0.4881044456834331
  0.4357055427108847  0.9992309429565864  0.5747761203775781
  0.3893311966291861  0.0295742519636804  0.5881128056283558
  0.0662264981879161  0.0070236670884256  0.5618685510302015
  0.4052086991411556  0.4999130564425371  0.2327231754734811
  0.2501488982901989  0.4998974137855186  0.1992145131317216
  0.0945062288495677  0.4998510803229195  0.2317328227592697
  0.1549113653775294  0.6249551794041608  0.3152589868574651
  0.9997568674833772  0.6248544229986663  0.3019775335383486
  0.3447134637397156  0.6246196956429273  0.3162277341864694
  0.4022977029153765  0.6235893340489511  0.4019766514204122
  0.2496844308699693  0.6245143020831421  0.3881623813597344
  0.0991551621114937  0.6249328442932267  0.4010156806992953
  0.1502380864441832  0.6257803624872054  0.4866157360515047
  0.9991088424458283  0.6246355085862803  0.4715548427109653
  0.3505097867744666  0.6224031621772568  0.4841714155401746
  0.4477793998323492  0.6094297231714592  0.5669301899331245
  0.2821405941234190  0.6225437422947735  0.5555072410811093
  0.0907795255890775  0.6283728458931606  0.5611905676087261
  0.4050933178746519  0.6248740222957565  0.2327384139586854
  0.2500655354254064  0.6249551342405297  0.1998751207189926
  0.0946449734296806  0.6248895266400680  0.2316922677873094
  0.1548152635790601  0.7500248555044209  0.3156834314567405
  0.9998066837766970  0.7499117526049943  0.3021046067030539
  0.3439172754970272  0.7499869402153507  0.3163761246946990
  0.3995041901877912  0.7501947474530937  0.4019550430503287
  0.2493389438644940  0.7495417108569384  0.3888658017537097
  0.0989755530857721  0.7499598813670687  0.4016254644982169
  0.1520018021705738  0.7488924435645288  0.4867326262303848
  0.9982834182755198  0.7492986029231119  0.4725865657920494
  0.3509710860382214  0.7466434877715713  0.4872189314229729
  0.3650934306232969  0.7425391133930930  0.5709252220296008
  0.3339726912301089  0.7809012492300695  0.5880478644270184
  0.0772244169965575  0.7555417824704236  0.5576477086005198
  0.4048375586269302  0.7500127282026767  0.2329393056415583
  0.2500926217258623  0.7500568810197166  0.1991271995779300
  0.0945712912537005  0.7500469334405508  0.2319004486165923
  0.1542764982249381  0.8751118272371343  0.3162337402908406
  0.9995815714056562  0.8749118122259674  0.3025590220975971
  0.3439570716090046  0.8750877688461927  0.3168919919595581
  0.3999299063152364  0.8754836500531979  0.4028934417984686
  0.2484584056641239  0.8752747247290316  0.3886379109752482
  0.0986282620626326  0.8749975694558074  0.4027997271894819
  0.1459358305568941  0.8748008568414889  0.4900691942341879
  0.9961430674399736  0.8750244219539667  0.4725981416704812
  0.3442042587073004  0.8753011206957240  0.4843602276686028
  0.4202671017589381  0.8726064671169382  0.5712126605931331
  0.2717152883089540  0.9025856369225238  0.5646496642547518
  0.0600527583267052  0.8828556928241156  0.5598422727373986
  0.4046318639532771  0.8750733698550022  0.2333864225882749
  0.2500355905552993  0.8751503029255474  0.2003149961390349
  0.0945738530076170  0.8751324525211501  0.2323587277447601
  0.1549684029693736  0.4998759486786568  0.3153405965613132
  0.9996753250915589  0.4998911045479488  0.3021082322633504
  0.3448581294361190  0.4998824624272231  0.3163844569070875
  0.4023511432509324  0.4997308848340225  0.4029892772244992
  0.2496637348417039  0.5001278465667482  0.3883232293416441
  0.0989152431221214  0.5002535625236533  0.4011234361218499
  0.1485114897175279  0.5006963466704804  0.4870126974310480
  0.9980020534916392  0.5010265864977157  0.4714988838031360
  0.3495672760975381  0.5015048939013269  0.4847401215611882
  0.4214744705327504  0.4602423504709563  0.5577129582901890
  0.2689999168735540  0.4990844294131094  0.5534206811102393
  0.0866516781166240  0.5037648875164749  0.5623873306597176
  0.9054677132984992  0.9999091988274529  0.2310208655592234
  0.7486411945571234  0.9999000083966223  0.1992633720479091
  0.5927744080836703  0.9998708035704951  0.2324735220979832
  0.6534909662379178  0.1247229145795927  0.3156293749126249
  0.4990786992597620  0.1249040836268946  0.3043047014634865
  0.8441956798172043  0.1249409962466572  0.3140986791416793
  0.8991608452880087  0.1246628735542430  0.4004026074566625
  0.7490490519558861  0.1244480608189704  0.3854003822968082
  0.5984604038436885  0.1243845469839258  0.4032635435497340
  0.6548030151219919  0.1281370704305047  0.4840470476653636
  0.4981840746289024  0.1256289398791210  0.4755332755178330
  0.8454861528312563  0.1237121506446357  0.4839256202463247
  0.9025933544578209  0.1531959458456669  0.5642216571197807
  0.7473906971935662  0.0900728983414822  0.5532881518666244
  0.5767915539377668  0.0643154512370643  0.5333043094035403
  0.9054252625020922  0.1248245375318859  0.2310146260043524
  0.7487370165446592  0.1246899137027526  0.1989518235119689
  0.5928752198933651  0.1247623528717554  0.2323600136097923
  0.6539133868102383  0.2496035708136759  0.3151775018810241
  0.4993170647795466  0.2498969435542122  0.3036874484169303
  0.8444567321691139  0.2497878296938794  0.3141072530742903
  0.8997112205335327  0.2499306252465701  0.4002884307759160
  0.7491408480050765  0.2499507119638125  0.3861065809515196
  0.5992156491829448  0.2499059830933916  0.4019245836942531
  0.6491918812540689  0.2504453500634654  0.4864748434686419
  0.4995748699028937  0.2494974207516876  0.4725080640393244
  0.8473193168009701  0.2480977465541585  0.4832144463479011
  0.9061483252098128  0.2811591017110544  0.5647892182234102
  0.7693816506504163  0.2241661277858640  0.5543735046873053
  0.5952002337792734  0.1778005918650578  0.5574285503435519
  0.9054102713994752  0.2497537571180573  0.2309097732058589
  0.7488627087628714  0.2495990128866268  0.1988291742040076
  0.5931256271495968  0.2496062942053499  0.2320392028494709
  0.6540582116943341  0.3749415372766194  0.3148565750519055
  0.4995733271917757  0.3749271903360523  0.3033765479468400
  0.8447342789216563  0.3749229513667274  0.3139528483881975
  0.8996862363620650  0.3749666262097264  0.4003788799786605
  0.7496020693621830  0.3746569613557327  0.3847652748707659
  0.5991822684487076  0.3754900046033285  0.4019855770415859
  0.6561528800107084  0.3736439150149877  0.4824544337891723
  0.5000036595243813  0.3716805360765321  0.4740512011283116
  0.8468280471238501  0.3740126713623084  0.4837324851481313
  0.9035962783227731  0.4029881108432747  0.5623792402439420
  0.7528507717606843  0.3392305165153928  0.5515264681884631
  0.6024372072643729  0.3112256330846250  0.5621873104632087
  0.9054113348151986  0.3747596416514156  0.2307255180935996
  0.7489684797914009  0.3746403824128208  0.1984609375506992
  0.5933474549055546  0.3747836458214024  0.2316705427026875
  0.6531705872539249  0.9998227717004653  0.3157493055787199
  0.4989044117714059  0.0000424112086037  0.3045396897567585
  0.8442108926374488  0.9997813863990785  0.3139100520917708
  0.8992407112909859  0.9999181177035013  0.4000977676070363
  0.7489789333629844  0.9997889731065470  0.3847423293332923
  0.5982232506179059  0.9997838398974608  0.4039855521246949
  0.6563602360702419  0.9964716769113977  0.4859190002685736
  0.4981944693104268  0.9987661026183829  0.4772178459980694
  0.8468577354395350  0.9964702543952484  0.4836546574080245
  0.9001288958354934  0.0326112811807349  0.5640124928272670
  0.7574172493398663  0.9704139613708449  0.5691517881862609
  0.5805189299074698  0.9476675225556335  0.5683639028895229
  0.9054011221490725  0.4998275562358359  0.2306673595642224
  0.7490241497445140  0.4998570557078281  0.1984936957431671
  0.5934918053909826  0.4999040535879331  0.2316746631857427
  0.6542420342861845  0.6250202864757668  0.3152714121720592
  0.4997288390526862  0.6248169502497305  0.3032248987700115
  0.8447228090104275  0.6248641146922012  0.3139688315703353
  0.9004893508692078  0.6245054288981677  0.4003013193851714
  0.7500125193051232  0.6250094842004543  0.3858645375948271
  0.5999892564418730  0.6249185325051911  0.4028774188864901
  0.6574080796486825  0.6255651323097027  0.4866845385936855
  0.5034191418470328  0.6253467528288041  0.4757842543565474
  0.8495440817287445  0.6250496522053837  0.4840775231017460
  0.9286583562407031  0.6193062869321224  0.5693978543010871
  0.7843512484364368  0.6334749999817646  0.5611726443596297
  0.5949048771889238  0.6616488164714767  0.5574610349963933
  0.9054741697322868  0.6248782012093699  0.2306205376061428
  0.7489762013436234  0.6250097873992146  0.1984310026892189
  0.5934827753124097  0.6250049187874467  0.2318041702389522
  0.6539019031110982  0.7497853041311728  0.3152494190700565
  0.4991064087679433  0.7498864843910624  0.3033334343133589
  0.8446741693276891  0.7497789350664377  0.3138963382500251
  0.9006603137559424  0.7496656575775447  0.3995913576368721
  0.7496046361334976  0.7498768866825429  0.3862038584743388
  0.5979101474409063  0.7496632047999441  0.4018503251849666
  0.6486553847864442  0.7548489543032204  0.4840050820666804
  0.4967405442674746  0.7496236128699820  0.4706729148817885
  0.8470234765816613  0.7501684982214911  0.4820055548780005
  0.9126123116316975  0.7313755115462612  0.5643348592636386
  0.7007156506323469  0.7413061254071991  0.5560762230473202
  0.5257293271938579  0.7794641332633603  0.5518502698406138
  0.9053653596666393  0.7500037040759793  0.2306756691716387
  0.7488419316451242  0.7500437187551228  0.1991321249880542
  0.5933265250191795  0.7499683178631642  0.2319898483130771
  0.6533741277221878  0.8749441155390869  0.3153996320207710
  0.4988582223864100  0.8749211206538732  0.3036615473880104
  0.8442437510982970  0.8747222058500128  0.3138417131161120
  0.8997755643734280  0.8743944495475588  0.3997378376157315
  0.7488988540959127  0.8742239665383238  0.3856724695580880
  0.5973568272207075  0.8754617624501009  0.4022527295113676
  0.6500157699360400  0.8716973281155944  0.4854901676318804
  0.4981209435120988  0.8746468551871871  0.4765975047384643
  0.8465092602331836  0.8731253748180094  0.4810195238190147
  0.8915538517260018  0.9042754028059434  0.5659002091588761
  0.7385541848208064  0.8609628965341827  0.5621526608029725
  0.5741341847842349  0.8961816251106285  0.5702216937403151
  0.9054270721178810  0.8750473222352113  0.2308536286872922
  0.7486112712113382  0.8750769356730785  0.1986809252803567
  0.5929452099300363  0.8750954012343541  0.2321703009092886
  0.6541742991555424  0.4999819379661261  0.3150945388605066
  0.4997816641325059  0.4999531409579845  0.3032165328274132
  0.8446961434400961  0.4999348856958790  0.3140086428718263
  0.8998935977817126  0.5001215675853175  0.4006746967464494
  0.7497218853635843  0.4999954080282905  0.3855222418880260
  0.5992525439354282  0.4996908427364417  0.4023678706681224
  0.6564253248737515  0.5005689780639102  0.4842784372617004
  0.5031806344237637  0.4998225377856613  0.4755939997609673
  0.8472609009175756  0.4984452447155547  0.4853673982284121
  0.9291556985233456  0.5197805895862260  0.5716935966224312
  0.8010723208343578  0.5094631113877099  0.5751286787074790
  0.5805809002396103  0.4215762444496249  0.5429206126572979
  0.9830253127411268  0.1349649736572474  0.5350244076237303
  0.3674454425067566  0.1064020282055154  0.5886425540222149
  0.1061116470339130  0.0686595241429444  0.5372063582908808
  0.9876662429527201  0.2651052776312710  0.5351651051956665
  0.3140221887766117  0.1930268996603814  0.5315928573405628
  0.1085614198859375  0.1929882157973992  0.5370754238207596
  0.9869947836935395  0.3865982654581259  0.5345688345136779
  0.3440909898822113  0.3173590127628785  0.5783139350967730
  0.1123771476638922  0.3171101209650757  0.5362122063524524
  0.9806677039605276  0.0122864609054005  0.5344553741968454
  0.3271972721951144  0.4417248117682178  0.5352125596201134
  0.1150465825617673  0.4400162319131553  0.5354044066826376
  0.0043115846623181  0.6277993261387778  0.5360699608731423
  0.3063920611592224  0.5591945813155661  0.5294629418864787
  0.1236376000168278  0.5648472340688571  0.5354018016590700
  0.9915715712094055  0.7343146232238524  0.5360817350397085
  0.3300108101794237  0.6764127567930771  0.5312539828816298
  0.1215584087303512  0.6922832305574289  0.5335779807731029
  0.9735540210106066  0.8924470100836572  0.5346878283780825
  0.3359832921579056  0.8590630878873284  0.5897430957514302
  0.1094817778898616  0.8232637781235113  0.5389783857216344
  0.0007496227849018  0.5064048980250604  0.5360134085952595
  0.3083905133277511  0.9330481596564510  0.5210916638065797
  0.1053197646599742  0.9443410758842674  0.5381075820505217
  0.5222254649242046  0.1303224183726144  0.5402633484857517
  0.8501374932083152  0.0940444715812063  0.5434926906446336
  0.7165246309413433  0.0226019083474327  0.5370437292076247
  0.5647081250549135  0.2469014323173511  0.5393813635771636
  0.8628251228951100  0.2182562101557863  0.5428040272133288
  0.6540180555257038  0.1177172712400463  0.5458741476854598
  0.5289767371765706  0.3534058705049006  0.5390201881549928
  0.8559709193130374  0.3419541074633443  0.5419576218612718
  0.7094091738081687  0.2738591157496160  0.5390736692860756
  0.5199901483409377  0.0038211130633030  0.5418803899047262
  0.8680753809657844  0.4710842282729004  0.5461705515917643
  0.6595796265575729  0.3708155358019312  0.5442524214311604
  0.5076782734975467  0.6466689279889479  0.5388364741098357
  0.8455815048439419  0.5740429351975109  0.5751700959615604
  0.7020558856465797  0.6647017551785552  0.5422383866888083
  0.4464943504304344  0.7479712078605658  0.5281074783595372
  0.8722529470131875  0.6700744729513062  0.5427266913070312
  0.6035865637910121  0.7336901532554663  0.5431321001147040
  0.4940737776716091  0.8489224083515197  0.5435943076605128
  0.8269419104587215  0.8614078352899668  0.5399214110686472
  0.6971898985840213  0.8087062471114308  0.5278138482516752
  0.5043728534376157  0.4634470387644498  0.5328011795916083
  0.8509488418595481  0.9705523792086623  0.5469886395588262
  0.6851151464031773  0.9233571648456547  0.5720249306325371
  0.4232849791853752  0.5365266046381478  0.5727127140635773
 
  0.00000000E+00  0.00000000E+00  0.00000000E+00
  0.00000000E+00  0.00000000E+00  0.00000000E+00
  0.00000000E+00  0.00000000E+00  0.00000000E+00
  0.00000000E+00  0.00000000E+00  0.00000000E+00
  0.00000000E+00  0.00000000E+00  0.00000000E+00
  0.00000000E+00  0.00000000E+00  0.00000000E+00