Cu	N	Ru	Ta                              
   1.00000000000000     
    18.1096308199999996    0.0000000000000000    0.0000000000000000
     0.0000000000000000   23.3551997799999995    0.0000000000000000
     0.0000000000000000    0.0000000000000000   30.4818171199999988
   Cu   N    Ru   Ta
     3   240    24   216
Selective dynamics
Direct
  0.5671963188379286  0.4488370895721759  0.6135861788863578   T   T   T
  0.0959910970036461  0.0586148464532644  0.5819164529262413   T   T   T
  0.4334275261284359  0.4408000433540428  0.6124780657870350   T   T   T
  0.0000000000000000  0.0000770226766207  0.3028264943543491   F   F   F
  0.0000000000000000  0.5000770226766207  0.3028264943543491   F   F   F
  0.0000000000000000  0.6248851796377153  0.3029475127301708   F   F   F
  0.0000000000000000  0.7500770228907001  0.3028264943543491   F   F   F
  0.0000000000000000  0.8748851798518018  0.3029475127301708   F   F   F
  0.0000000000000000  0.1248851796377153  0.3029475127301708   F   F   F
  0.0000000000000000  0.2500770228907001  0.3028264943543491   F   F   F
  0.0000000000000000  0.3748851798518018  0.3029475127301708   F   F   F
  0.0005271092398929  0.5007825034275695  0.4718663925670731   T   T   T
  0.0007100941261196  0.3760538942388132  0.4734888312195667   T   T   T
  0.0001170576903206  0.2498006998433595  0.4722803051740777   T   T   T
  0.9998942724655273  0.0001849540620327  0.4741587281107891   T   T   T
  0.0013434541286731  0.1248953665350022  0.4755902654078124   T   T   T
  0.9994755839574601  0.7508543999746332  0.4718369952181944   T   T   T
  0.9985974432509188  0.6262753330197141  0.4730662300210138   T   T   T
  0.5862500329541541  0.0183736172063336  0.5626411982111796   T   T   T
  0.5923478827020310  0.3829839711847168  0.5791175104968284   T   T   T
  0.5944242649204006  0.5042449288905462  0.5695732876705332   T   T   T
  0.5943504772119894  0.6250779795299195  0.2321437935324795   F   F   F
  0.5943504772119894  0.8750779797440060  0.2321437935324795   F   F   F
  0.5943504772119894  0.1250779795299195  0.2321437935324795   F   F   F
  0.5943504772119894  0.3750779797440060  0.2321437935324795   F   F   F
  0.5943930523482663  0.9999373617004466  0.2321734905809336   F   F   F
  0.5943930523482663  0.4999373617004466  0.2321734905809336   F   F   F
  0.5943930523482663  0.7499373619145331  0.2321734905809336   F   F   F
  0.5943930523482663  0.2499373619145331  0.2321734905809336   F   F   F
  0.5964026960343926  0.6269601591575739  0.5718539302059017   T   T   T
  0.5967830467166363  0.7592210903699261  0.5669180884585470   T   T   T
  0.5986851340662329  0.8745213277170821  0.4010976420309611   T   T   T
  0.5984238249442837  0.3739543684158461  0.4024222286341513   T   T   T
  0.5988184864566064  0.6249266679430450  0.4022991668780245   T   T   T
  0.5987395184689737  0.5002601834465613  0.4023823612146225   T   T   T
  0.5985066393948514  0.2552989835105872  0.5631425443166201   T   T   T
  0.5986659280472224  0.2500340217054653  0.4014724068615738   T   T   T
  0.5992543045551924  0.8862732804536603  0.5723946029287303   T   T   T
  0.5989846240248908  0.0000272798204241  0.3997927260052788   T   T   T
  0.5989804393555839  0.1243562196799328  0.4007137977445942   T   T   T
  0.5994079361230608  0.7509210662709441  0.4014702896722011   T   T   T
  0.6039750159042951  0.1322851140656723  0.5802564056962428   T   T   T
  0.6471361880767373  0.1252010185743031  0.4851128487490692   T   T   T
  0.6470171848237579  0.3761167864356694  0.4879085583866250   T   T   T
  0.6484320631124046  0.6310700598360013  0.4873657277964787   T   T   T
  0.6488843107917812  0.4947205573243326  0.4879591155029721   T   T   T
  0.6493175795075798  0.9980140673582978  0.4828603955458861   T   T   T
  0.6495031026358963  0.8801316848369557  0.4866084202324276   T   T   T
  0.6513957136206182  0.2445868988035713  0.4848920511208669   T   T   T
  0.6529953019627670  0.7496828778524877  0.4866143139704685   T   T   T
  0.6547082680948861  0.6251230654212776  0.3157550047659328   F   F   F
  0.6547082680948861  0.8751230656353641  0.3157550047659328   F   F   F
  0.6547082680948861  0.1251230654212776  0.3157550047659328   F   F   F
  0.6547082680948861  0.3751230656353641  0.3157550047659328   F   F   F
  0.6547523877132235  0.9998547719551993  0.3156484409089586   F   F   F
  0.6547523877132235  0.4998547719551993  0.3156484409089586   F   F   F
  0.6547523877132235  0.7498547721692859  0.3156484409089586   F   F   F
  0.6547523877132235  0.2498547721692859  0.3156484409089586   F   F   F
  0.7424637234961186  0.9890073431843114  0.5679477170186579   T   T   T
  0.7454838732573110  0.2375246257377630  0.5595695217615752   T   T   T
  0.7485353368867870  0.4623325765654258  0.5751081777586978   T   T   T
  0.7494598586674743  0.6899212575056991  0.5746710210226672   T   T   T
  0.7497657927026882  0.5636560576833261  0.5111972067230172   T   T   T
  0.7496880209136774  0.6249020298031251  0.3885298745924116   T   T   T
  0.7496476195603621  0.5000990420842205  0.3886926777718104   T   T   T
  0.7497757551674420  0.7503607833303593  0.3871401109570792   T   T   T
  0.7498814031849638  0.3747066399331369  0.3893318983672956   T   T   T
  0.7502125599064633  0.8752200802419550  0.3877493337962613   T   T   T
  0.7494145890304070  0.1200491222346773  0.5579986859504346   T   T   T
  0.7503862474645504  0.9999960705603230  0.3870202890562168   T   T   T
  0.7502746204448099  0.1247725238211918  0.3881354917014612   T   T   T
  0.7503544913250199  0.2501033720190768  0.3873488726248164   T   T   T
  0.7499999997239044  0.0000513585844359  0.1992858820091215   F   F   F
  0.7499999997239044  0.5000513585844431  0.1992858820091215   F   F   F
  0.7499999997239044  0.6250070552811167  0.1993925282102751   F   F   F
  0.7499999997239044  0.7500513587985225  0.1992858820091215   F   F   F
  0.7499999997239044  0.8750070554952032  0.1993925282102751   F   F   F
  0.7499999997239044  0.1250070552811167  0.1993925282102751   F   F   F
  0.7499999997239044  0.2500513587985225  0.1992858820091215   F   F   F
  0.7499999997239044  0.3750070554952032  0.1993925282102751   F   F   F
  0.7519520921278156  0.8603430836518874  0.5512832532507224   T   T   T
  0.7586617697941268  0.3580364286251604  0.5436692236247177   T   T   T
  0.0829268739004673  0.9822660994505562  0.5733289459340550   T   T   T
  0.8455112079789271  0.9980105869813600  0.4885695135835219   T   T   T
  0.8452476122867765  0.9998547719551993  0.3156484409089586   F   F   F
  0.8452476122867765  0.4998547719551993  0.3156484409089586   F   F   F
  0.8452476122867765  0.7498547721692859  0.3156484409089586   F   F   F
  0.8452476122867765  0.2498547721692859  0.3156484409089586   F   F   F
  0.8452917319051139  0.6251230654212776  0.3157550047659328   F   F   F
  0.8452917319051139  0.8751230656353641  0.3157550047659328   F   F   F
  0.8452917319051139  0.1251230654212776  0.3157550047659328   F   F   F
  0.8452917319051139  0.3751230656353641  0.3157550047659328   F   F   F
  0.8465599051943337  0.7489674369665025  0.4866688949324233   T   T   T
  0.8486592788064645  0.2482042270824031  0.4882247811456825   T   T   T
  0.8490576133069054  0.8784634246841327  0.4867204935888781   T   T   T
  0.8488535676258997  0.1266629273894376  0.4875622282351721   T   T   T
  0.8499694985610237  0.4950615134598438  0.4871421488331159   T   T   T
  0.8511103672312115  0.6302247938408441  0.4872462442777116   T   T   T
  0.8528095610008900  0.3770991643538154  0.4858972053894143   T   T   T
  0.0897595769110738  0.1372555044376423  0.5797333599583623   T   T   T
  0.8974079348076666  0.8813574948868136  0.5748871762435938   T   T   T
  0.8998341888582521  0.7509791688786731  0.4015113324385302   T   T   T
  0.9003882025644205  0.6248874565374717  0.4017739282657045   T   T   T
  0.9006558899303962  0.0003079670458551  0.4026860664366783   T   T   T
  0.9008477541860139  0.5007010751601744  0.4016391580306544   T   T   T
  0.9008466391892690  0.2498324316362343  0.4020988167427130   T   T   T
  0.9010436477131187  0.8754984100923837  0.4023794008027103   T   T   T
  0.9012492320556494  0.3747151734110869  0.4016534570489084   T   T   T
  0.9013371200866505  0.1247801096892906  0.4025532577837481   T   T   T
  0.0900260250567595  0.2552706317210287  0.5690320873342902   T   T   T
  0.9023029830300324  0.9956765536460106  0.5708812598391904   T   T   T
  0.0909123119037090  0.7575190199296020  0.5652795621036181   T   T   T
  0.9034977486251576  0.1318325784647234  0.5752059297950942   T   T   T
  0.9040928471640289  0.6264554021502194  0.5719707898326584   T   T   T
  0.9052616788978908  0.7549752185554169  0.5667369391902199   T   T   T
  0.9055031849648525  0.2459907919248998  0.5696212403068397   T   T   T
  0.9057284384864711  0.3814420365644340  0.5745221191269899   T   T   T
  0.9056069476517337  0.9999373617004466  0.2321734905809336   F   F   F
  0.9056069476517337  0.4999373617004466  0.2321734905809336   F   F   F
  0.9056069476517337  0.7499373619145331  0.2321734905809336   F   F   F
  0.9056069476517337  0.2499373619145331  0.2321734905809336   F   F   F
  0.9056495227880106  0.6250779795299195  0.2321437935324795   F   F   F
  0.9056495227880106  0.8750779797440060  0.2321437935324795   F   F   F
  0.9056495227880106  0.1250779795299195  0.2321437935324795   F   F   F
  0.9056495227880106  0.3750779797440060  0.2321437935324795   F   F   F
  0.9076340672055783  0.5015940319065142  0.5679318794247358   T   T   T
  0.0910287573454397  0.8659939756741294  0.5741437666675644   T   T   T
  0.0928167885645723  0.5001615845883660  0.5699185576644714   T   T   T
  0.0943504772119894  0.6250779795299195  0.2321437935324795   F   F   F
  0.0943504772119894  0.8750779797440060  0.2321437935324795   F   F   F
  0.0943504772119894  0.1250779795299195  0.2321437935324795   F   F   F
  0.0943504772119894  0.3750779797440060  0.2321437935324795   F   F   F
  0.0952054795933367  0.6355968356310683  0.5732229109665244   T   T   T
  0.0943930523482663  0.9999373617004466  0.2321734905809336   F   F   F
  0.0943930523482663  0.4999373617004466  0.2321734905809336   F   F   F
  0.0943930523482663  0.7499373619145331  0.2321734905809336   F   F   F
  0.0943930523482663  0.2499373619145331  0.2321734905809336   F   F   F
  0.0957398675381298  0.3758599389263610  0.5719002002972337   T   T   T
  0.0985727702651332  0.6250325480068087  0.4010965180014160   T   T   T
  0.0984054807912011  0.8748177569504482  0.4019863858742889   T   T   T
  0.0986716468989647  0.7510840462398694  0.4007155415794752   T   T   T
  0.0987508944426373  0.0007772978357474  0.4025517287379055   T   T   T
  0.0992035310999415  0.3751073379881847  0.4019589656030182   T   T   T
  0.0992699657240906  0.2499217219217096  0.4022369096070764   T   T   T
  0.0992870594426568  0.1238214708129699  0.4031056974827253   T   T   T
  0.0999040412768318  0.5010096496521935  0.4015404854045261   T   T   T
  0.9996805156619973  0.8741471641215250  0.4753346672134238   T   T   T
  0.1453675744847139  0.6295078077131810  0.4851421951207011   T   T   T
  0.1485616755497971  0.3802954583776966  0.4870637815780279   T   T   T
  0.1491218604572495  0.8768534713527716  0.4845513251128520   T   T   T
  0.1498884998321676  0.2455453532620908  0.4877097974038353   T   T   T
  0.1505161853745077  0.7469275283469076  0.4836198996929177   T   T   T
  0.1520732702366736  0.9972765761018810  0.4881516567183359   T   T   T
  0.1526717746068903  0.5001925594454761  0.4878973029288450   T   T   T
  0.1529367794545133  0.1257330058508983  0.4904469957662749   T   T   T
  0.1547082680948861  0.6251230654212776  0.3157550047659328   F   F   F
  0.1547082680948861  0.8751230656353641  0.3157550047659328   F   F   F
  0.1547082680948861  0.1251230654212776  0.3157550047659328   F   F   F
  0.1547082680948861  0.3751230656353641  0.3157550047659328   F   F   F
  0.1547523877132235  0.9998547719551993  0.3156484409089586   F   F   F
  0.1547523877132235  0.4998547719551993  0.3156484409089586   F   F   F
  0.1547523877132235  0.7498547721692859  0.3156484409089586   F   F   F
  0.1547523877132235  0.2498547721692859  0.3156484409089586   F   F   F
  0.2410956997400037  0.9800788175370975  0.5621648274620802   T   T   T
  0.2435744957363974  0.8679552449579503  0.5609025399211619   T   T   T
  0.2463334185107895  0.7379149941975288  0.5664281326528748   T   T   T
  0.2471741222758652  0.6202069887656685  0.5388435787574035   T   T   T
  0.2496147357271170  0.8746810272946277  0.3872041385856795   T   T   T
  0.2498037824653101  0.7499169717633319  0.3871945033658330   T   T   T
  0.2499860532386352  0.6247076237654287  0.3890005627536593   T   T   T
  0.2501788879321061  0.4402959203061110  0.5743794532585236   T   T   T
  0.2497607257135799  0.0000224692626422  0.3866741951625439   T   T   T
  0.2502151406106100  0.5007626043570025  0.3879503784844323   T   T   T
  0.2499669230512573  0.1245352094229545  0.3882211118115912   T   T   T
  0.2502900960048653  0.3746700118434687  0.3886281223867960   T   T   T
  0.2499999997239044  0.0000513585844359  0.1992858820091215   F   F   F
  0.2499999997239044  0.5000513585844431  0.1992858820091215   F   F   F
  0.2499999997239044  0.6250070552811167  0.1993925282102751   F   F   F
  0.2499999997239044  0.7500513587985225  0.1992858820091215   F   F   F
  0.2499999997239044  0.8750070554952032  0.1993925282102751   F   F   F
  0.2499999997239044  0.1250070552811167  0.1993925282102751   F   F   F
  0.2499999997239044  0.2500513587985225  0.1992858820091215   F   F   F
  0.2499999997239044  0.3750070554952032  0.1993925282102751   F   F   F
  0.2502862892652309  0.2500858487322809  0.3891511033750299   T   T   T
  0.2507810063698656  0.3140949098016823  0.5112804242432318   T   T   T
  0.2508538603383312  0.2068424627385630  0.5724612496382881   T   T   T
  0.2850142840389653  0.1003304131459586  0.5608038372457106   T   T   T
  0.3452476122867765  0.9998547719551993  0.3156484409089586   F   F   F
  0.3452476122867765  0.4998547719551993  0.3156484409089586   F   F   F
  0.3452476122867765  0.7498547721692859  0.3156484409089586   F   F   F
  0.3452476122867765  0.2498547721692859  0.3156484409089586   F   F   F
  0.3452917319051139  0.6251230654212776  0.3157550047659328   F   F   F
  0.3452917319051139  0.8751230656353641  0.3157550047659328   F   F   F
  0.3452917319051139  0.1251230654212776  0.3157550047659328   F   F   F
  0.3452917319051139  0.3751230656353641  0.3157550047659328   F   F   F
  0.3473826289001026  0.4985532985159793  0.4877926680224033   T   T   T
  0.3475441756753260  0.7476720565649044  0.4885278903894033   T   T   T
  0.3478470285070104  0.8755218327153852  0.4870945960926970   T   T   T
  0.3478280508184163  0.9959764892659159  0.4867168918154323   T   T   T
  0.3508413824451014  0.1267879855664933  0.4862534677334507   T   T   T
  0.3510782607598537  0.2424398938342864  0.4890642685200716   T   T   T
  0.3535238824966046  0.6288447693468001  0.4863138535068114   T   T   T
  0.3532082100253605  0.3790308976683647  0.4869395387135276   T   T   T
  0.3998445624802505  0.8744957364120480  0.4019654257047388   T   T   T
  0.4001199036826752  0.7504758850603194  0.4018329977670181   T   T   T
  0.3998625572642056  0.9993490762518960  0.4015219121949575   T   T   T
  0.4006301077275030  0.5006572834220097  0.4019266991956110   T   T   T
  0.4011539110398086  0.6250750618908146  0.4019279103133546   T   T   T
  0.4008633995598310  0.1241710272061244  0.4018799878271631   T   T   T
  0.4012030903500152  0.2499530478577697  0.4025381918558477   T   T   T
  0.4014666941850532  0.3746472432983030  0.4022717986109754   T   T   T
  0.4029536174155554  0.6323684275582335  0.5734771379617093   T   T   T
  0.4029633116259583  0.5003603436926395  0.5716759350372403   T   T   T
  0.4041227079063853  0.9903545534248445  0.5691731529621676   T   T   T
  0.4057001279934639  0.3762191912141145  0.5747531546929168   T   T   T
  0.4056069476517337  0.9999373617004466  0.2321734905809336   F   F   F
  0.4056069476517337  0.4999373617004466  0.2321734905809336   F   F   F
  0.4056069476517337  0.7499373619145331  0.2321734905809336   F   F   F
  0.4056069476517337  0.2499373619145331  0.2321734905809336   F   F   F
  0.4056495227880106  0.6250779795299195  0.2321437935324795   F   F   F
  0.4056495227880106  0.8750779797440060  0.2321437935324795   F   F   F
  0.4056495227880106  0.1250779795299195  0.2321437935324795   F   F   F
  0.4056495227880106  0.3750779797440060  0.2321437935324795   F   F   F
  0.4063790076957980  0.8768822592957519  0.5735778498495144   T   T   T
  0.4113104018016681  0.7441641788900736  0.5705695738822503   T   T   T
  0.4122809840481509  0.2460575931752889  0.5688946364034740   T   T   T
  0.4270098668838669  0.1239622391319188  0.5673939147180239   T   T   T
  0.4992742966548918  0.5004874861077681  0.4739968832582696   T   T   T
  0.4999656855716899  0.8745480488502904  0.4733137208420135   T   T   T
  0.5003288768029788  0.6263402905475794  0.4741077904415142   T   T   T
  0.4998868427799368  0.9991667060663224  0.4697921719946734   T   T   T
  0.5003378494439785  0.7506962347257790  0.4722462963899517   T   T   T
  0.5000000000000000  0.0000770226766207  0.3028264943543491   F   F   F
  0.5000000000000000  0.5000770226766207  0.3028264943543491   F   F   F
  0.5000000000000000  0.6248851796377153  0.3029475127301708   F   F   F
  0.5000000000000000  0.7500770228907001  0.3028264943543491   F   F   F
  0.5000000000000000  0.8748851798518018  0.3029475127301708   F   F   F
  0.5000000000000000  0.1248851796377153  0.3029475127301708   F   F   F
  0.5000000000000000  0.2500770228907001  0.3028264943543491   F   F   F
  0.5000000000000000  0.3748851798518018  0.3029475127301708   F   F   F
  0.5006656943732272  0.3745248734466934  0.4749977862251125   T   T   T
  0.5006102747301193  0.2490137651674741  0.4740224130524739   T   T   T
  0.5024274379454173  0.1221670271135926  0.4760368217138645   T   T   T
  0.0003974385224306  0.2463962348704057  0.5392892477445065   T   T   T
  0.9994581883425886  0.7454790050522794  0.5388773470708847   T   T   T
  0.6420329524339815  0.5630962336524024  0.5354416015623993   T   T   T
  0.6538555020173250  0.8216434490445933  0.5374278666162081   T   T   T
  0.6755288729838920  0.0627773450259538  0.5720128136492425   T   T   T
  0.6871930157990331  0.3034933873740083  0.5324638537546051   T   T   T
  0.8515170560192442  0.8177168961997296  0.5379230610156259   T   T   T
  0.8587437862684212  0.5614319526847904  0.5352777374453184   T   T   T
  0.8776718522938008  0.0636746669867220  0.5408321240799203   T   T   T
  0.8786492393863816  0.3122047493893161  0.5409774721399773   T   T   T
  0.9960261042757037  0.9878640001149190  0.5414266561918685   T   T   T
  0.9982830823160440  0.4975470585285063  0.5390049667940123   T   T   T
  0.1255460011326682  0.5661542176418953  0.5393646730353173   T   T   T
  0.1418229286411087  0.3130052488416706  0.5347433452323350   T   T   T
  0.1750814081039551  0.8019370226663839  0.5733387762018881   T   T   T
  0.2170008378591898  0.0520637105187747  0.5353229186552596   T   T   T
  0.3654124633019091  0.3075907472856997  0.5355630740876698   T   T   T
  0.3666150924246580  0.0550608555967092  0.5372738407279596   T   T   T
  0.3707615881548273  0.5651743345289494  0.5386351178323049   T   T   T
  0.3801344631808367  0.8089122293780899  0.5400081679482880   T   T   T
  0.4943863876496580  0.9897567214580026  0.5366693678925626   T   T   T
  0.4994385969549218  0.5014826670315586  0.5412910657728774   T   T   T
  0.5039966538111539  0.7459918401835407  0.5396171504633771   T   T   T
  0.5059727449325273  0.2581228034535545  0.5405810324397463   T   T   T
  0.0000000000000000  0.9999830748611132  0.1973415402473861   F   F   F
  0.0000000000000000  0.4999830748611132  0.1973415402473861   F   F   F
  0.0000000000000000  0.6250597900044994  0.1972695212469660   F   F   F
  0.0000000000000000  0.7499830750751997  0.1973415402473861   F   F   F
  0.0000000000000000  0.8750597902185859  0.1972695212469660   F   F   F
  0.0000000000000000  0.1250597900044994  0.1972695212469660   F   F   F
  0.0000000000000000  0.2499830750751997  0.1973415402473861   F   F   F
  0.0000000000000000  0.3750597902185859  0.1972695212469660   F   F   F
  0.0002843201428852  0.2498584701448605  0.3696382469781411   T   T   T
  0.0003936598054786  0.1246674101099738  0.3699081363765048   T   T   T
  0.0003094506885437  0.3749244138130038  0.3694733900565534   T   T   T
  0.0001593990417204  0.5004186042053431  0.3694208796466470   T   T   T
  0.9999650605603961  0.3830710812312065  0.5426721953044514   T   T   T
  0.9996439091069309  0.6330259529824211  0.5423364249559505   T   T   T
  0.5817325956760462  0.4367304792616011  0.4536891646494511   T   T   T
  0.5821771571600816  0.9375706891277079  0.4514174348723907   T   T   T
  0.5822721133329615  0.1859822753772439  0.4523166050138352   T   T   T
  0.5824959423441172  0.4374754614066489  0.2839355729984092   F   F   F
  0.5824959423441172  0.6874754611925624  0.2839355729984092   F   F   F
  0.5824959423441172  0.9374754614066489  0.2839355729984092   F   F   F
  0.5824959423441172  0.1874754611925624  0.2839355729984092   F   F   F
  0.5835385930415929  0.6891109453911811  0.4530586787064402   T   T   T
  0.5827651808530874  0.5624885324787385  0.2838652796168972   F   F   F
  0.5827651808530874  0.0624885324787385  0.2838652796168972   F   F   F
  0.5827651808530874  0.8124885322646520  0.2838652796168972   F   F   F
  0.5827651808530874  0.3124885322646520  0.2838652796168972   F   F   F
  0.5842440102547891  0.5627282413741075  0.4553331432919990   T   T   T
  0.5844933357629339  0.8133243693882950  0.4541256581183710   T   T   T
  0.5842623597027722  0.3110711078175657  0.4548979338643377   T   T   T
  0.5855279081861872  0.0618689914298799  0.4522138575291219   T   T   T
  0.6567932366640240  0.9489111757468320  0.5409979625426236   T   T   T
  0.6581044266860179  0.6898953945255170  0.5439503285616339   T   T   T
  0.6639773271000570  0.4344231249571200  0.5438688899215859   T   T   T
  0.6645062003371693  0.1824206198791146  0.5416070328126507   T   T   T
  0.6659163253997278  0.5625456426731574  0.2025671506292426   F   F   F
  0.6659163253997278  0.0625456426731503  0.2025671506292426   F   F   F
  0.6659163253997278  0.8125456424590709  0.2025671506292426   F   F   F
  0.6659163253997278  0.3125456424590709  0.2025671506292426   F   F   F
  0.6659898017733283  0.4375125970341855  0.2025194438276969   F   F   F
  0.6659898017733283  0.6875125968200990  0.2025194438276969   F   F   F
  0.6659898017733283  0.9375125970341855  0.2025194438276969   F   F   F
  0.6659898017733283  0.1875125968200990  0.2025194438276969   F   F   F
  0.6674437770422136  0.5625196672815400  0.3688672724852552   T   T   T
  0.6678856999006613  0.6874257879898884  0.3683629329417376   T   T   T
  0.6678918472104752  0.8126397743605734  0.3678254373849810   T   T   T
  0.6679001840849043  0.4373936752680471  0.3689205580113117   T   T   T
  0.6679338661382205  0.3125714479410413  0.3684587292741945   T   T   T
  0.6681622602273839  0.9373183826055259  0.3678125595160341   T   T   T
  0.6682538622232793  0.1874546184278006  0.3680459836095977   T   T   T
  0.6684388704927986  0.0624736526111875  0.3672587151933078   T   T   T
  0.7492411063113419  0.5003869949010404  0.4577466375657217   T   T   T
  0.7488019748587545  0.1266306489277379  0.4561793132949192   T   T   T
  0.7492746059072847  0.3750185669979421  0.4584715132789626   T   T   T
  0.7491428557469069  0.9977760219872533  0.4545882243668610   T   T   T
  0.7497465105617351  0.6260079807468198  0.4577948892108564   T   T   T
  0.7494359424742423  0.8772912133161375  0.4558645136692787   T   T   T
  0.7497586134474967  0.7502341452514260  0.4546774687770369   T   T   T
  0.7505663802007905  0.2481098311400242  0.4552294892739915   T   T   T
  0.7499999997239044  0.0001643475558382  0.2779548773829816   F   F   F
  0.7499999997239044  0.5001643475558382  0.2779548773829816   F   F   F
  0.7499999997239044  0.6249264342623420  0.2780286426703711   F   F   F
  0.7499999997239044  0.7501643477699247  0.2779548773829816   F   F   F
  0.7499999997239044  0.8749264344764285  0.2780286426703711   F   F   F
  0.7499999997239044  0.1249264342623420  0.2780286426703711   F   F   F
  0.7499999997239044  0.2501643477699247  0.2779548773829816   F   F   F
  0.7499999997239044  0.3749264344764285  0.2780286426703711   F   F   F
  0.0807529968457344  0.6886469515955744  0.4513473521865252   T   T   T
  0.0829092986275377  0.9380749216918189  0.4539459766688836   T   T   T
  0.0824959423441172  0.4374754614066489  0.2839355729984092   F   F   F
  0.0824959423441172  0.6874754611925624  0.2839355729984092   F   F   F
  0.0824959423441172  0.9374754614066489  0.2839355729984092   F   F   F
  0.0824959423441172  0.1874754611925624  0.2839355729984092   F   F   F
  0.8259288356101617  0.9375895203713670  0.5440165077345310   T   T   T
  0.0827651808530874  0.5624885324787385  0.2838652796168972   F   F   F
  0.0827651808530874  0.0624885324787385  0.2838652796168972   F   F   F
  0.0827651808530874  0.8124885322646520  0.2838652796168972   F   F   F
  0.0827651808530874  0.3124885322646520  0.2838652796168972   F   F   F
  0.8291274606277478  0.1849748151480792  0.5425786427896709   T   T   T
  0.0836197254545538  0.5634082480167457  0.4541199973815974   T   T   T
  0.8315451052591816  0.6874612706543174  0.3682077253151236   T   T   T
  0.8315733448194043  0.4375661100586232  0.3686506814673906   T   T   T
  0.8317839266176649  0.5625702917958801  0.3685345283080436   T   T   T
  0.8321093685310224  0.8127862767445193  0.3679806729930563   T   T   T
  0.8323219203349104  0.3126586410970184  0.3682770094086032   T   T   T
  0.8323386677035504  0.1874278642645970  0.3685094924277052   T   T   T
  0.8326096708182746  0.9376205368988931  0.3684425797737917   T   T   T
  0.8327270848083255  0.0625879328533022  0.3682871330990555   T   T   T
  0.0838496906097105  0.4391392449769934  0.4528649100127810   T   T   T
  0.8336360256088026  0.4351885539415979  0.5432971905195914   T   T   T
  0.8340101684082839  0.4375125970341855  0.2025194438276969   F   F   F
  0.8340101684082839  0.6875125968200990  0.2025194438276969   F   F   F
  0.8340101684082839  0.9375125970341855  0.2025194438276969   F   F   F
  0.8340101684082839  0.1875125968200990  0.2025194438276969   F   F   F
  0.8340836447818845  0.5625456426731574  0.2025671506292426   F   F   F
  0.8340836447818845  0.0625456426731503  0.2025671506292426   F   F   F
  0.8340836447818845  0.8125456424590709  0.2025671506292426   F   F   F
  0.8340836447818845  0.3125456424590709  0.2025671506292426   F   F   F
  0.0843005623731951  0.1866776255179242  0.4541120046879871   T   T   T
  0.8408464288521397  0.6883743289068087  0.5437964541155027   T   T   T
  0.0845293321777504  0.3126978937265603  0.4544183747872526   T   T   T
  0.0853806946602790  0.8123381173760373  0.4548433231422677   T   T   T
  0.0863616384633205  0.0620104506888812  0.4564583491230922   T   T   T
  0.9147770382748249  0.8129320159264000  0.4543661420264810   T   T   T
  0.9152236977783248  0.5628636027080894  0.4546365735238811   T   T   T
  0.9153163985058220  0.6888949165890186  0.4527107618122893   T   T   T
  0.9157150971780398  0.0623079645139048  0.4558103799061556   T   T   T
  0.9160674184016384  0.3121766596950215  0.4545232725110415   T   T   T
  0.9169286960993019  0.9381724088681606  0.4546015667478061   T   T   T
  0.9169440271660420  0.1876106899611922  0.4538378999228281   T   T   T
  0.9172348191469126  0.5624885324787385  0.2838652796168972   F   F   F
  0.9172348191469126  0.0624885324787385  0.2838652796168972   F   F   F
  0.9172348191469126  0.8124885322646520  0.2838652796168972   F   F   F
  0.9172348191469126  0.3124885322646520  0.2838652796168972   F   F   F
  0.9177320987728933  0.4374449203304135  0.4525606158583604   T   T   T
  0.9175040576558828  0.4374754614066489  0.2839355729984092   F   F   F
  0.9175040576558828  0.6874754611925624  0.2839355729984092   F   F   F
  0.9175040576558828  0.9374754614066489  0.2839355729984092   F   F   F
  0.9175040576558828  0.1874754611925624  0.2839355729984092   F   F   F
  0.9939770826101245  0.8770649981818862  0.5451949314925008   T   T   T
  0.9986058459129294  0.1371248274122212  0.5450993630032759   T   T   T
  0.9991749150825504  0.7505253183760460  0.3691959779085936   T   T   T
  0.9992622492147930  0.6251166909566145  0.3692988625514670   T   T   T
  0.9997329216236680  0.8753816021599310  0.3695890568303111   T   T   T
  0.9997585330004761  0.0002666086203966  0.3697611836865617   T   T   T
  0.1586132722481824  0.4376693064446586  0.5437019696167522   T   T   T
  0.1581922392482551  0.9230779313157095  0.5438670221229090   T   T   T
  0.1583321019826811  0.1901101726015245  0.5460762691086962   T   T   T
  0.1636857268058533  0.6892268189060226  0.5392711932378607   T   T   T
  0.1659163253997278  0.5625456426731574  0.2025671506292426   F   F   F
  0.1659163253997278  0.0625456426731503  0.2025671506292426   F   F   F
  0.1659163253997278  0.8125456424590709  0.2025671506292426   F   F   F
  0.1659163253997278  0.3125456424590709  0.2025671506292426   F   F   F
  0.1659898017733283  0.4375125970341855  0.2025194438276969   F   F   F
  0.1659898017733283  0.6875125968200990  0.2025194438276969   F   F   F
  0.1659898017733283  0.9375125970341855  0.2025194438276969   F   F   F
  0.1659898017733283  0.1875125968200990  0.2025194438276969   F   F   F
  0.1671092626868628  0.8126640671664870  0.3678040516118549   T   T   T
  0.1673869104895414  0.9375790641063932  0.3684791306307597   T   T   T
  0.1674138720470230  0.0624844359376183  0.3684082387719400   T   T   T