Ta N Cu Ru                              
   1.00000000000000     
    18.1096308199999996    0.0000000000000000    0.0000000000000000
     0.0000000000000000   11.6775998899999998    0.0000000000000000
     0.0000000000000000    0.0000000000000000   23.4818170799999990
   Ta   N    Cu   Ru
   119   120     2     1
Direct
  0.0000697387781970  0.9999187746339165  0.2548561840520893
  0.3333513263589382  0.1250197445025743  0.2638518347817286
  0.1665724874544630  0.1248825168839069  0.2638302367190081
  0.2501415519184076  0.2499686957705972  0.3613501999841435
  0.0825484978701448  0.1249390339838505  0.3684148333916717
  0.4175421350820601  0.1250021614628042  0.3684299984689026
  0.9999752074049122  0.2499859430948240  0.4793240984469451
  0.3320433593060136  0.1249701643348022  0.4780020068373996
  0.1677292242338016  0.1248580813840116  0.4780747806827806
  0.2498558950646048  0.2500532855076923  0.5910835802883407
  0.0836722660013276  0.1255696274357040  0.5888206512927059
  0.4162817428888329  0.1249964526364871  0.5899956116085334
  0.3356330588114972  0.1250923318421560  0.7042182452388311
  0.0000918478873531  0.2499827315109075  0.2547926082660583
  0.3333006962634985  0.3749492201371737  0.2638753352847577
  0.1665967507986544  0.3751274849105932  0.2638474102566714
  0.2500565589999486  0.4999965269528221  0.3614253410557781
  0.0825497740503741  0.3750263301934728  0.3684358662435083
  0.4175211436780528  0.3749806817324453  0.3684389454945061
  0.9999903126196081  0.5001378478277054  0.4797232323901006
  0.3320844896928871  0.3749927627969751  0.4780855168445901
  0.1677411438087541  0.3751290140897663  0.4781342713742877
  0.2494700942251659  0.4997935544509844  0.5912399892787074
  0.0838197598592490  0.3745094807024414  0.5890030793300306
  0.4161567851271809  0.3750718429948441  0.5899296493033717
  0.9998130898772102  0.4910099306768580  0.7032245126918442
  0.3351138271936451  0.3753806548601054  0.7040732020395303
  0.1649269359684236  0.3753286370645622  0.7040240991105918
  0.0000636164594983  0.5000617672033509  0.2548657964976116
  0.3335084539111498  0.6249705687236934  0.2639120679747672
  0.1664000971159417  0.6250169869412751  0.2638755434016233
  0.2499168258225798  0.7499701275701859  0.3615254285113045
  0.0825311019657001  0.6250447624406491  0.3685949802437156
  0.4174260260888227  0.6249946312239686  0.3686086224380857
  0.9999621849125155  0.7499567056431947  0.4800512295497634
  0.3322785805517308  0.6249962187192657  0.4783127590554553
  0.1674810447831948  0.6250652591655959  0.4783923702601218
  0.2493230933770874  0.7500007483645482  0.5913347612828299
  0.0833235453076586  0.6247861916026438  0.5902886743649469
  0.4161021641841678  0.6250153415028837  0.5900893434986755
  0.9998002072422365  0.7503190651372890  0.7028234333524641
  0.3347192789388177  0.6252455833219638  0.7041552313143331
  0.1636584517585492  0.6247891653757570  0.7046610919478234
  0.0000788307542994  0.7499905459489695  0.2549450235015611
  0.3334916840429257  0.8750390857440395  0.2639375013271779
  0.1663706407988486  0.8749425846598048  0.2638514505373105
  0.2500516328699681  0.0000220501456979  0.3614138904419025
  0.0825445869695058  0.8749380225924891  0.3685738763789005
  0.4174239491110701  0.8749960037913810  0.3686114293221951
  0.9999419885875707  0.9997986221596041  0.4796788545261283
  0.3322999243774344  0.8750286801347548  0.4783337214051862
  0.1674981262544029  0.8749595166471649  0.4784143304462656
  0.2494684562204606  0.0006028192857638  0.5912849756112534
  0.0832987567969210  0.8750987270809029  0.5902837813837865
  0.4161169825868016  0.8750501740605592  0.5900595554525603
  0.9989619711757102  0.0067292788471331  0.7023130232386052
  0.3350198135816281  0.8751711098826995  0.7040897670606319
  0.1643344700959015  0.8745072501695798  0.7050522126531512
  0.4998901036502105  0.9999201271189159  0.2549482499579697
  0.8333803294985388  0.1249239638657606  0.2637202731405749
  0.6666090927135733  0.1250997609356125  0.2638625801255902
  0.7497668540448961  0.2499929496829492  0.3611948893591200
  0.5822218236975203  0.1250008571766905  0.3683571287426198
  0.9174388457709326  0.1249451425244272  0.3682730054010430
  0.4999375718003475  0.2499372623878271  0.4800651152594871
  0.8321738837352912  0.1248650066753793  0.4777737007419020
  0.6679254618248264  0.1249734595017682  0.4778204391765701
  0.7498718157197174  0.2500002726222049  0.5907854726167502
  0.5836079427984273  0.1249878101122841  0.5897678389791382
  0.9156498030002850  0.1255159679409878  0.5885184092296397
  0.5001607555837164  0.2501453718978123  0.7023407028967116
  0.8356040229242873  0.1259047526261944  0.7031375228519015
  0.6653991506879110  0.1247243005109367  0.7041326623200065
  0.4998371978111092  0.2499624267627554  0.2548682606613986
  0.8333545385959461  0.3750753169277043  0.2637625673877606
  0.6666127465884999  0.3748269583592100  0.2638584927077394
  0.7498473474208798  0.4999629762369817  0.3613148861785372
  0.5822498288517448  0.3749728198603445  0.3683406150211396
  0.9174462969958963  0.3750247500283532  0.3683117502604691
  0.4999162665704646  0.5000083596257963  0.4799898806904890
  0.8321971030061911  0.3751332104254305  0.4778359985845001
  0.6679068605236691  0.3750139623556140  0.4778471362991405
  0.7502212687899614  0.4995456799397566  0.5910578030132033
  0.5836549301612248  0.3750169338510861  0.5897674212658832
  0.9158311821992081  0.3744495752702754  0.5886815695000576
  0.4998703518081200  0.5003732292277313  0.7023126242630673
  0.8354565004984106  0.3742324298610508  0.7034255972181657
  0.6653301302901664  0.3752649441686364  0.7040639833170703
  0.4998971448247093  0.5001225180689456  0.2549278437143878
  0.8335220084560835  0.6250398202267430  0.2637989540351763
  0.6663815419428895  0.6250100127783020  0.2638722543357003
  0.7499590700851190  0.7499720917915744  0.3613838192888421
  0.5823936466935373  0.6249919302421210  0.3685277404745433
  0.9174955510676926  0.6250283096176980  0.3684604057339730
  0.4998871217487509  0.7499913561493619  0.4800150988616462
  0.8323925584782689  0.6250297270125760  0.4781302410936514
  0.6676056642659314  0.6249837618021530  0.4781492499377842
  0.7502123126434778  0.7499341011301001  0.5910942291396956
  0.5837375591693802  0.6249411711103302  0.5898943412772807
  0.9164104024099091  0.6247703234881058  0.5901073325574362
  0.4998275053729544  0.7499470158996240  0.7022901044799601
  0.8356596078199962  0.6246839347678035  0.7045004682493770
  0.6649754395776497  0.6249923134735331  0.7041342448772904
  0.4998662249484362  0.7499684583004889  0.2549768807274851
  0.8335235093271948  0.8748898802179887  0.2637912026638565
  0.6663916734548345  0.8749902802632721  0.2638830590165119
  0.7498462717857058 -0.0000064932777962  0.3612839040437646
  0.5823984970876553  0.8749821843667064  0.3685200951165005
  0.9174796481197725  0.8749155683689231  0.3684537947588390
  0.4999208484499953  0.0000315940711985  0.4800112440711169
  0.8323629557600131  0.8748847799819071  0.4780908202935351
  0.6676165639338481  0.8749832126199537  0.4781478659100923
  0.7501322514579065  0.0004030698036031  0.5910254467613238
  0.5837189598834025  0.8749592380805642  0.5898920263983697
  0.9163269876545572  0.8750451216992589  0.5900299743812073
  0.5000135695479574  0.9997143476180979  0.7023227062234155
  0.8354593859256906  0.8751776228476689  0.7043068775587261
  0.6650404778537509  0.8748156512046332  0.7041067321689154
  0.1671323578582970  0.1257486414197029  0.7017972989807721
  0.4067743062509677  0.0000115514123694  0.3013464099179248
  0.2499442356953476  0.9998542317971665  0.2577760910869520
  0.0932048791472120  0.9998620006460807  0.3013059134633426
  0.1544697985590498  0.2499711669004648  0.4098917149594523
  0.9999794112222055  0.2499708961547427  0.3928342284034620
  0.3455793800950840  0.2499668267474893  0.4100333978448633
  0.4009683932864254  0.2498981168872175  0.5220998052240062
  0.2500571421878538  0.2499129437630106  0.5028287437493224
  0.0991210985580248  0.2499909808505216  0.5215662748625451
  0.1514027452351545  0.2505111304140485  0.6332861000495712
  0.9998254146082445  0.2499206143282995  0.6117745445934244
  0.3481176794634447  0.2501305067859926  0.6332913040302576
  0.4031980282443204  0.2503094446278379  0.7403519894804086
  0.2493160350629954  0.2500098292004477  0.7243716985572084
  0.0936655074448391  0.2508301927806368  0.7401642825144121
  0.4068009747412757  0.2499840858459361  0.3012942759375085
  0.2498650612718499  0.2499742213592212  0.2576269896480570
  0.0932629343078783  0.2499873621721104  0.3011998981020096
  0.1544516823639007  0.5000494117593922  0.4100839786077731
  0.9999778154224198  0.5000508716889087  0.3931044043157835
  0.3455151318840217  0.4999833072379860  0.4101118018469089
  0.4009746845835960  0.4998460565598501  0.5221781634767199
  0.2499739658282410  0.5002375410311941  0.5031106422752644
  0.0988648961235368  0.5001234344748432  0.5222622287031381
  0.1509011272655001  0.4995545229367728  0.6336643035713300
  0.9998094204534163  0.4977853645156164  0.6145182824987419
  0.3478541348578605  0.5001722290439659  0.6332580858697632
  0.4027124706926828  0.4999871499453390  0.7402795799544434
  0.2492140225553367  0.4993143418409615  0.7239799156074941
  0.0963964294546733  0.4976703757965442  0.7410831729386538
  0.4067762769101575  0.4999867581310030  0.3013408217417010
  0.2499723835832236  0.5001411809804345  0.2577035712279679
  0.0931964653877033  0.5001272101546395  0.3013275839640491
  0.1544234770760863  0.7500000265988279  0.4102147230044015
  0.9999825108216485  0.7499925730800941  0.3933006138083812
  0.3453938992179994  0.7499793956715637  0.4101364327161621
  0.4008709066996534  0.7499994558891243  0.5222700105781565
  0.2498329660808073  0.7499886599252414  0.5031623416664570
  0.0988227222243335  0.7499978424618311  0.5224161412537395
  0.1511868498826819  0.7503320766092214  0.6338305548980533
  0.9997883960343130  0.7498307886544087  0.6140448790285888
  0.3476967702250595  0.7500533365299688  0.6333131120552831
  0.4027102932831406  0.7499681017516142  0.7403342086571799
  0.2489643415207808  0.7509520769680593  0.7241603044973661
  0.0965754188965528  0.7503508794600126  0.7412464566452737
  0.4067338902508869  0.7499979872703763  0.3014087796543596
  0.2499970514080971  0.7500037739739727  0.2581321907840063
  0.0931953588065020  0.7499820674202314  0.3014430742911651
  0.1544502799756763  0.9999475768634705  0.4100667298483416
  0.9999722438940867  0.9999033624151338  0.3930764941343120
  0.3454882548799509  0.0000425783909122  0.4101096618549919
  0.4009541071089570  0.0002693628107597  0.5221641680735368
  0.2499474189533390  0.9998874111023959  0.5031319882704348
  0.0988251623334254  0.9998306144761846  0.5221615962891840
  0.1506361658108981  0.0001150977236448  0.6338166703699590
  0.9996453084385425  0.0020845937790139  0.6139494201910289
  0.3479978904633016  0.0000010103077932  0.6331956538415858
  0.4029781124140905  0.0001513153137760  0.7403846110177315
  0.2496639280272741  0.0006994001964028  0.7239197052272811
  0.0958757623795781  0.0049192118139553  0.7425713538217734
  0.9068118368368876  0.9998347366183058  0.3011434551548250
  0.7499816398056829  0.9998477308657169  0.2576689015730018
  0.5930823184651070  0.0000145641243055  0.3012523999851021
  0.6542312752945245  0.2499968330288637  0.4098784709324717
  0.4999023515074990  0.2500033614078627  0.3932912713797262
  0.8454946318617018  0.2499827789968205  0.4096431823907736
  0.9006706161808680  0.2500584627691195  0.5212734989566108
  0.7498228904679672  0.2499909853645026  0.5025344549824801
  0.5989672685178190  0.2499372800866723  0.5219988775378450
  0.6519164591061499  0.2499391810723041  0.6332308841343116
  0.5000447439968917  0.2500776502625226  0.6137362350429074
  0.8482755374001021  0.2500804760418441  0.6326978635724347
  0.9056757018473072  0.2503359738973563  0.7378161993473272
  0.7511030313627194  0.2499023941047389  0.7242884591143089
  0.5970108008128643  0.2498557209939281  0.7401557261050400
  0.9067932600413322  0.2499951966078976  0.3010256407498878
  0.7501055398737585  0.2499820378999534  0.2572996828768013
  0.5929884519933070  0.2499732113486598  0.3011961780812136
  0.6543156076788491  0.4999687851489675  0.4099601799197264
  0.4999201929048052  0.5000004546392477  0.3932764628599735
  0.8454987631807678  0.5000889094223079  0.4098548901553679
  0.9010116051634068  0.5002094878353119  0.5220077633680178
  0.7499318832259162  0.5001939953964560  0.5028881770347168
  0.5989223083486620  0.4997658480353369  0.5220459321914626
  0.6519258858345971  0.4999762807897654  0.6331378927147898
  0.4999645482979146  0.4999425380480965  0.6137166149911979
  0.8487817616886586  0.4995813268514580  0.6333274546078745
  0.9034366403824446  0.4977138302686988  0.7408138670440807
  0.7502712669783843  0.4996898154631073  0.7239184828377853
  0.5968733695265169  0.4993677717776875  0.7401285362632238
  0.9068252194091295  0.5001146139551228  0.3011735810020250
  0.7499389484923641  0.5001266895751384  0.2576942272066517
  0.5930759942364771  0.4999732047515806  0.3012466721998934
  0.6544330747347679  0.7499964298038385  0.4099965020551726
  0.4999123146067502  0.7500047980363715  0.3933284822864039
  0.8455066742666486  0.7499653404287421  0.4099855533028076
  0.9010167994470251  0.7499227745196222  0.5221893631824114
  0.7500551068563808  0.7499657680300361  0.5029162031143088
  0.5989809170125631  0.7499732695934194  0.5221357138455778
  0.6519747205578064  0.7499037404714288  0.6331914143233704
  0.4999141599208546  0.7499616065639290  0.6135844842248579
  0.8483473676978215  0.7499464582916712  0.6334640266932352
  0.9031542188596007  0.7499620731039710  0.7407965288745270
  0.7504748712553582  0.7499519683001320  0.7239666642414176
  0.5968718447863587  0.7499445956496198  0.7402795024020415
  0.9068404189447393  0.7499771913566123  0.3012815732416142
  0.7499041296795361  0.7499777932193732  0.2578877358470955
  0.5930591888340645  0.7499870940522009  0.3013075572138598
  0.6543236507884886 -0.0000118222561403  0.4099553982160056
  0.4999153368732712  0.9999553041282444  0.3932957039118508
  0.8454905452359858  0.9998759674958286  0.4098199623125897
  0.9009404339718597  0.9996368573064001  0.5218684688618337
  0.7499226202059123  0.9997726303684513  0.5028537970433655
  0.5989510899552013  0.0002562768338722  0.5220589127679741
  0.6519068523973824  0.9999823049455432  0.6331444566391365
  0.5000053102656253  0.0000251800853633  0.6137028174945086
  0.8487159312924232  0.0003361902852419  0.6332064676731428
  0.9034860228127348  0.0022782097545779  0.7405710468361065
  0.7503475793511621  0.0001447855886472  0.7238754016829210
  0.5969588252845193  0.0005069451467831  0.7401410356418294
  0.0768203956811555  0.1347419438895894  0.7977999632101098
  0.0573811195362937  0.1343004924824897  0.8939639829373255
  0.9992659616803813  0.2501620945016618  0.6975151957853875
 
  0.00000000E+00  0.00000000E+00  0.00000000E+00
  0.00000000E+00  0.00000000E+00  0.00000000E+00
  0.00000000E+00  0.00000000E+00  0.00000000E+00
  0.00000000E+00  0.00000000E+00  0.00000000E+00
  0.00000000E+00  0.00000000E+00  0.00000000E+00
  0.00000000E+00  0.00000000E+00  0.00000000E+00
  0.00000000E+00  0.00000000E+00  0.00000000E+00
  0.00000000E+00  0.00000000E+00  0.00000000E+00
  0.00000000E+00  0.00000000E+00  0.00000000E+00
  0.00000000E+00  0.00000000E+00  0.00000000E+00
  0.00000000E+00  0.00000000E+00  0.00000000E+00
  0.00000000E+00  0.00000000E+00  0.00000000E+00
  0.00000000E+00  0.00000000E+00  0.00000000E+00
  0.00000000E+00  0.00000000E+00  0.00000000E+00
  0.00000000E+00  0.00000000E+00  0.00000000E+00
  0.00000000E+00  0.00000000E+00  0.00000000E+00
  0.00000000E+00  0.00000000E+00  0.00000000E+00
  0.00000000E+00  0.00000000E+00  0.00000000E+00
  0.00000000E+00  0.00000000E+00  0.00000000E+00
  0.00000000E+00  0.00000000E+00  0.00000000E+00
  0.00000000E+00  0.00000000E+00  0.00000000E+00
  0.00000000E+00  0.00000000E+00  0.00000000E+00
  0.00000000E+00  0.00000000E+00  0.00000000E+00
  0.00000000E+00  0.00000000E+00  0.00000000E+00
  0.00000000E+00  0.00000000E+00  0.00000000E+00
  0.00000000E+00  0.00000000E+00  0.00000000E+00
  0.00000000E+00  0.00000000E+00  0.00000000E+00
  0.00000000E+00  0.00000000E+00  0.00000000E+00
  0.00000000E+00  0.00000000E+00  0.00000000E+00
  0.00000000E+00  0.00000000E+00  0.00000000E+00
  0.00000000E+00  0.00000000E+00  0.00000000E+00
  0.00000000E+00  0.00000000E+00  0.00000000E+00
  0.00000000E+00  0.00000000E+00  0.00000000E+00
  0.00000000E+00  0.00000000E+00  0.00000000E+00
  0.00000000E+00  0.00000000E+00  0.00000000E+00
  0.00000000E+00  0.00000000E+00  0.00000000E+00
  0.00000000E+00  0.00000000E+00  0.00000000E+00
  0.00000000E+00  0.00000000E+00  0.00000000E+00
  0.00000000E+00  0.00000000E+00  0.00000000E+00
  0.00000000E+00  0.00000000E+00  0.00000000E+00
  0.00000000E+00  0.00000000E+00  0.00000000E+00
  0.00000000E+00  0.00000000E+00  0.00000000E+00
  0.00000000E+00  0.00000000E+00  0.00000000E+00
  0.00000000E+00  0.00000000E+00  0.00000000E+00
  0.00000000E+00  0.00000000E+00  0.00000000E+00
  0.00000000E+00  0.00000000E+00  0.00000000E+00
  0.00000000E+00  0.00000000E+00  0.00000000E+00
  0.00000000E+00  0.00000000E+00  0.00000000E+00
  0.00000000E+00  0.00000000E+00  0.00000000E+00
  0.00000000E+00  0.00000000E+00  0.00000000E+00
  0.00000000E+00  0.00000000E+00  0.00000000E+00
  0.00000000E+00  0.00000000E+00  0.00000000E+00
  0.00000000E+00  0.00000000E+00  0.00000000E+00
  0.00000000E+00  0.00000000E+00  0.00000000E+00
  0.00000000E+00  0.00000000E+00  0.00000000E+00
  0.00000000E+00  0.00000000E+00  0.00000000E+00
  0.00000000E+00  0.00000000E+00  0.00000000E+00
  0.00000000E+00  0.00000000E+00  0.00000000E+00
  0.00000000E+00  0.00000000E+00  0.00000000E+00
  0.00000000E+00  0.00000000E+00  0.00000000E+00
  0.00000000E+00  0.00000000E+00  0.00000000E+00
  0.00000000E+00  0.00000000E+00  0.00000000E+00
  0.00000000E+00  0.00000000E+00  0.00000000E+00
  0.00000000E+00  0.00000000E+00  0.00000000E+00
  0.00000000E+00  0.00000000E+00  0.00000000E+00
  0.00000000E+00  0.00000000E+00  0.00000000E+00
  0.00000000E+00  0.00000000E+00  0.00000000E+00
  0.00000000E+00  0.00000000E+00  0.00000000E+00
  0.00000000E+00  0.00000000E+00  0.00000000E+00
  0.00000000E+00  0.00000000E+00  0.00000000E+00
  0.00000000E+00  0.00000000E+00  0.00000000E+00
  0.00000000E+00  0.00000000E+00  0.00000000E+00
  0.00000000E+00  0.00000000E+00  0.00000000E+00
  0.00000000E+00  0.00000000E+00  0.00000000E+00
  0.00000000E+00  0.00000000E+00  0.00000000E+00
  0.00000000E+00  0.00000000E+00  0.00000000E+00
  0.00000000E+00  0.00000000E+00  0.00000000E+00
  0.00000000E+00  0.00000000E+00  0.00000000E+00
  0.00000000E+00  0.00000000E+00  0.00000000E+00
  0.00000000E+00  0.00000000E+00  0.00000000E+00
  0.00000000E+00  0.00000000E+00  0.00000000E+00
  0.00000000E+00  0.00000000E+00  0.00000000E+00
  0.00000000E+00  0.00000000E+00  0.00000000E+00
  0.00000000E+00  0.00000000E+00  0.00000000E+00
  0.00000000E+00  0.00000000E+00  0.00000000E+00
  0.00000000E+00  0.00000000E+00  0.00000000E+00
  0.00000000E+00  0.00000000E+00  0.00000000E+00
  0.00000000E+00  0.00000000E+00  0.00000000E+00
  0.00000000E+00  0.00000000E+00  0.00000000E+00
  0.00000000E+00  0.00000000E+00  0.00000000E+00
  0.00000000E+00  0.00000000E+00  0.00000000E+00
  0.00000000E+00  0.00000000E+00  0.00000000E+00
  0.00000000E+00  0.00000000E+00  0.00000000E+00
  0.00000000E+00  0.00000000E+00  0.00000000E+00
  0.00000000E+00  0.00000000E+00  0.00000000E+00
  0.00000000E+00  0.00000000E+00  0.00000000E+00
  0.00000000E+00  0.00000000E+00  0.00000000E+00
  0.00000000E+00  0.00000000E+00  0.00000000E+00
  0.00000000E+00  0.00000000E+00  0.00000000E+00
  0.00000000E+00  0.00000000E+00  0.00000000E+00
  0.00000000E+00  0.00000000E+00  0.00000000E+00
  0.00000000E+00  0.00000000E+00  0.00000000E+00
  0.00000000E+00  0.00000000E+00  0.00000000E+00
  0.00000000E+00  0.00000000E+00  0.00000000E+00
  0.00000000E+00  0.00000000E+00  0.00000000E+00
  0.00000000E+00  0.00000000E+00  0.00000000E+00
  0.00000000E+00  0.00000000E+00  0.00000000E+00
  0.00000000E+00  0.00000000E+00  0.00000000E+00
  0.00000000E+00  0.00000000E+00  0.00000000E+00
  0.00000000E+00  0.00000000E+00  0.00000000E+00
  0.00000000E+00  0.00000000E+00  0.00000000E+00
  0.00000000E+00  0.00000000E+00  0.00000000E+00
  0.00000000E+00  0.00000000E+00  0.00000000E+00
  0.00000000E+00  0.00000000E+00  0.00000000E+00
  0.00000000E+00  0.00000000E+00  0.00000000E+00
  0.00000000E+00  0.00000000E+00  0.00000000E+00
  0.00000000E+00  0.00000000E+00  0.00000000E+00
  0.00000000E+00  0.00000000E+00  0.00000000E+00
  0.00000000E+00  0.00000000E+00  0.00000000E+00
  0.00000000E+00  0.00000000E+00  0.00000000E+00
  0.00000000E+00  0.00000000E+00  0.00000000E+00
  0.00000000E+00  0.00000000E+00  0.00000000E+00
  0.00000000E+00  0.00000000E+00  0.00000000E+00
  0.00000000E+00  0.00000000E+00  0.00000000E+00
  0.00000000E+00  0.00000000E+00  0.00000000E+00
  0.00000000E+00  0.00000000E+00  0.00000000E+00
  0.00000000E+00  0.00000000E+00  0.00000000E+00
  0.00000000E+00  0.00000000E+00  0.00000000E+00
  0.00000000E+00  0.00000000E+00  0.00000000E+00
  0.00000000E+00  0.00000000E+00  0.00000000E+00
  0.00000000E+00  0.00000000E+00  0.00000000E+00
  0.00000000E+00  0.00000000E+00  0.00000000E+00
  0.00000000E+00  0.00000000E+00  0.00000000E+00
  0.00000000E+00  0.00000000E+00  0.00000000E+00
  0.00000000E+00  0.00000000E+00  0.00000000E+00
  0.00000000E+00  0.00000000E+00  0.00000000E+00
  0.00000000E+00  0.00000000E+00  0.00000000E+00
  0.00000000E+00  0.00000000E+00  0.00000000E+00
  0.00000000E+00  0.00000000E+00  0.00000000E+00
  0.00000000E+00  0.00000000E+00  0.00000000E+00
  0.00000000E+00  0.00000000E+00  0.00000000E+00
  0.00000000E+00  0.00000000E+00  0.00000000E+00
  0.00000000E+00  0.00000000E+00  0.00000000E+00
  0.00000000E+00  0.00000000E+00  0.00000000E+00
  0.00000000E+00  0.00000000E+00  0.00000000E+00
  0.00000000E+00  0.00000000E+00  0.00000000E+00
  0.00000000E+00  0.00000000E+00  0.00000000E+00
  0.00000000E+00  0.00000000E+00  0.00000000E+00
  0.00000000E+00  0.00000000E+00  0.00000000E+00
  0.00000000E+00  0.00000000E+00  0.00000000E+00
  0.00000000E+00  0.00000000E+00  0.00000000E+00
  0.00000000E+00  0.00000000E+00  0.00000000E+00
  0.00000000E+00  0.00000000E+00  0.00000000E+00
  0.00000000E+00  0.00000000E+00  0.00000000E+00
  0.00000000E+00  0.00000000E+00  0.00000000E+00
  0.00000000E+00  0.00000000E+00  0.00000000E+00
  0.00000000E+00  0.00000000E+00  0.00000000E+00
  0.00000000E+00  0.00000000E+00  0.00000000E+00
  0.00000000E+00  0.00000000E+00  0.00000000E+00
  0.00000000E+00  0.00000000E+00  0.00000000E+00
  0.00000000E+00  0.00000000E+00  0.00000000E+00
  0.00000000E+00  0.00000000E+00  0.00000000E+00
  0.00000000E+00  0.00000000E+00  0.00000000E+00
  0.00000000E+00  0.00000000E+00  0.00000000E+00
  0.00000000E+00  0.00000000E+00  0.00000000E+00
  0.00000000E+00  0.00000000E+00  0.00000000E+00
  0.00000000E+00  0.00000000E+00  0.00000000E+00
  0.00000000E+00  0.00000000E+00  0.00000000E+00
  0.00000000E+00  0.00000000E+00  0.00000000E+00
  0.00000000E+00  0.00000000E+00  0.00000000E+00
  0.00000000E+00  0.00000000E+00  0.00000000E+00
  0.00000000E+00  0.00000000E+00  0.00000000E+00
  0.00000000E+00  0.00000000E+00  0.00000000E+00
  0.00000000E+00  0.00000000E+00  0.00000000E+00
  0.00000000E+00  0.00000000E+00  0.00000000E+00
  0.00000000E+00  0.00000000E+00  0.00000000E+00
  0.00000000E+00  0.00000000E+00  0.00000000E+00
  0.00000000E+00  0.00000000E+00  0.00000000E+00
  0.00000000E+00  0.00000000E+00  0.00000000E+00
  0.00000000E+00  0.00000000E+00  0.00000000E+00
  0.00000000E+00  0.00000000E+00  0.00000000E+00
  0.00000000E+00  0.00000000E+00  0.00000000E+00
  0.00000000E+00  0.00000000E+00  0.00000000E+00
  0.00000000E+00  0.00000000E+00  0.00000000E+00
  0.00000000E+00  0.00000000E+00  0.00000000E+00
  0.00000000E+00  0.00000000E+00  0.00000000E+00
  0.00000000E+00  0.00000000E+00  0.00000000E+00
  0.00000000E+00  0.00000000E+00  0.00000000E+00
  0.00000000E+00  0.00000000E+00  0.00000000E+00
  0.00000000E+00  0.00000000E+00  0.00000000E+00
  0.00000000E+00  0.00000000E+00  0.00000000E+00
  0.00000000E+00  0.00000000E+00  0.00000000E+00
  0.00000000E+00  0.00000000E+00  0.00000000E+00
  0.00000000E+00  0.00000000E+00  0.00000000E+00
  0.00000000E+00  0.00000000E+00  0.00000000E+00
  0.00000000E+00  0.00000000E+00  0.00000000E+00
  0.00000000E+00  0.00000000E+00  0.00000000E+00
  0.00000000E+00  0.00000000E+00  0.00000000E+00
  0.00000000E+00  0.00000000E+00  0.00000000E+00
  0.00000000E+00  0.00000000E+00  0.00000000E+00
  0.00000000E+00  0.00000000E+00  0.00000000E+00
  0.00000000E+00  0.00000000E+00  0.00000000E+00
  0.00000000E+00  0.00000000E+00  0.00000000E+00
  0.00000000E+00  0.00000000E+00  0.00000000E+00
  0.00000000E+00  0.00000000E+00  0.00000000E+00
  0.00000000E+00  0.00000000E+00  0.00000000E+00
  0.00000000E+00  0.00000000E+00  0.00000000E+00
  0.00000000E+00  0.00000000E+00  0.00000000E+00
  0.00000000E+00  0.00000000E+00  0.00000000E+00
  0.00000000E+00  0.00000000E+00  0.00000000E+00
  0.00000000E+00  0.00000000E+00  0.00000000E+00
  0.00000000E+00  0.00000000E+00  0.00000000E+00
  0.00000000E+00  0.00000000E+00  0.00000000E+00
  0.00000000E+00  0.00000000E+00  0.00000000E+00
  0.00000000E+00  0.00000000E+00  0.00000000E+00
  0.00000000E+00  0.00000000E+00  0.00000000E+00
  0.00000000E+00  0.00000000E+00  0.00000000E+00
  0.00000000E+00  0.00000000E+00  0.00000000E+00
  0.00000000E+00  0.00000000E+00  0.00000000E+00
  0.00000000E+00  0.00000000E+00  0.00000000E+00
  0.00000000E+00  0.00000000E+00  0.00000000E+00
  0.00000000E+00  0.00000000E+00  0.00000000E+00
  0.00000000E+00  0.00000000E+00  0.00000000E+00
  0.00000000E+00  0.00000000E+00  0.00000000E+00
  0.00000000E+00  0.00000000E+00  0.00000000E+00
  0.00000000E+00  0.00000000E+00  0.00000000E+00
  0.00000000E+00  0.00000000E+00  0.00000000E+00
  0.00000000E+00  0.00000000E+00  0.00000000E+00
  0.00000000E+00  0.00000000E+00  0.00000000E+00
  0.00000000E+00  0.00000000E+00  0.00000000E+00
  0.00000000E+00  0.00000000E+00  0.00000000E+00
  0.00000000E+00  0.00000000E+00  0.00000000E+00
  0.00000000E+00  0.00000000E+00  0.00000000E+00
  0.00000000E+00  0.00000000E+00  0.00000000E+00
  0.00000000E+00  0.00000000E+00  0.00000000E+00
  0.00000000E+00  0.00000000E+00  0.00000000E+00
  0.00000000E+00  0.00000000E+00  0.00000000E+00
  0.00000000E+00  0.00000000E+00  0.00000000E+00
  0.00000000E+00  0.00000000E+00  0.00000000E+00
  0.00000000E+00  0.00000000E+00  0.00000000E+00
  0.00000000E+00  0.00000000E+00  0.00000000E+00
  0.00000000E+00  0.00000000E+00  0.00000000E+00
