Ta  N Co Cu                             
   1.00000000000000     
    18.1096308199999996    0.0000000000000000    0.0000000000000000
     0.0000000000000000   23.3551997799999995    0.0000000000000000
     0.0000000000000000    0.0000000000000000   30.4818171199999988
   Ta   N    Co   Cu
   228   240    12    29
Direct
  0.0000000000000000  0.0001266121817309  0.1978131938407444
  0.3338836012547333  0.0625143518549436  0.2026811345077277
  0.1657694091773649  0.0624973365797885  0.2030934099706627
  0.2498311651180174  0.1251088478845261  0.2784677446268304
  0.0825824044977921  0.0625935085484599  0.2845125690311221
  0.4169451141912006  0.0625692115016818  0.2840939734216761
  0.0000000000000000  0.1250779404580840  0.3701899278272762
  0.3315950775168588  0.0625826749867215  0.3687691224809271
  0.1678824632787723  0.0626237889291801  0.3688179646900593
  0.2507604274045434  0.1272017731607775  0.4579098732802080
  0.0849071922309790  0.0627603736985236  0.4552550090469580
  0.4170544537716552  0.0620852594431156  0.4533773713672673
  0.0000000000000000  0.1253343015998851  0.5414887709103908
  0.3332140738222833  0.0606791188058935  0.5428142083638079
  0.0000000000000000  0.1250203099965930  0.1978587515844694
  0.3337951769163752  0.1877243445970294  0.2026943604944265
  0.1659159045668872  0.1876986851955280  0.2031558825749258
  0.2498823670495582  0.2500422990328488  0.2783858715163348
  0.0825080819603201  0.1875843219732971  0.2845895758319585
  0.4170494694160354  0.1875465198217441  0.2841163325934843
  0.0000000000000000  0.2502332124858313  0.3701978086022137
  0.3315433998155299  0.1874198974075156  0.3687295440505096
  0.1679868118300831  0.1876440906810259  0.3686340272989455
  0.2502638753894146  0.2483916551701100  0.4574241435751176
  0.0834781747103506  0.1879484202111783  0.4538938751563606
  0.4178381338361703  0.1877513890013986  0.4528453453116867
  0.0000000000000000  0.2491832857486926  0.5419117140677159
  0.3434399442050520  0.1872371086915194  0.5411349052155572
  0.1721342355510842  0.1868862570203760  0.5430518598184761
  0.0000000000000000  0.2501266123958175  0.1978131938407444
  0.3338836012547333  0.3125143516408642  0.2026811345077277
  0.1657694091773649  0.3124973363657091  0.2030934099706627
  0.2498311651180174  0.3751088480986127  0.2784677446268304
  0.0825824044977921  0.3125935083343805  0.2845125690311221
  0.4169451141912006  0.3125692112876024  0.2840939734216761
  0.0000000000000000  0.3750779406721705  0.3701899278272762
  0.3315950775168588  0.3125826747726421  0.3687691224809271
  0.1678824632787723  0.3126237887151007  0.3688179646900593
  0.2507604274045434  0.3772017733748640  0.4579098732802080
  0.0849071922309790  0.3127603734844442  0.4552550090469580
  0.4170544537716552  0.3120852592290433  0.4533773713672673
  0.0000000000000000  0.3753343018139716  0.5414887709103908
  0.3332140738222833  0.3106791185918141  0.5428142083638079
  0.0000000000000000  0.3750203102106795  0.1978587515844694
  0.3337951769163752  0.4377243448111159  0.2026943604944265
  0.1659159045668872  0.4376986854096145  0.2031558825749258
  0.2498823670495582  0.0000422988187623  0.2783858715163348
  0.0825080819603201  0.4375843221873836  0.2845895758319585
  0.4170494694160354  0.4375465200358306  0.2841163325934843
  0.0000000000000000  0.0002332122717448  0.3701978086022137
  0.3315433998155299  0.4374198976216022  0.3687295440505096
  0.1679868118300831  0.4376440908951125  0.3686340272989455
  0.2502638753894146  0.9983916549560305  0.4574241435751176
  0.0834781747103506  0.4379484204252648  0.4538938751563606
  0.4178381338361703  0.4377513892154852  0.4528453453116867
  0.0000000000000000  0.9991832855346061  0.5419117140677159
  0.3434399442050520  0.4372371089056060  0.5411349052155572
  0.1721342355510842  0.4368862572344625  0.5430518598184761
  0.0000000000000000  0.5001266121817309  0.1978131938407444
  0.3338836012547333  0.5625143518549436  0.2026811345077277
  0.1657694091773649  0.5624973365797885  0.2030934099706627
  0.2498311651180174  0.6251088478845261  0.2784677446268304
  0.0825824044977921  0.5625935085484599  0.2845125690311221
  0.4169451141912006  0.5625692115016818  0.2840939734216761
  0.0000000000000000  0.6250779404580840  0.3701899278272762
  0.3315950775168588  0.5625826749867215  0.3687691224809271
  0.1678824632787723  0.5626237889291801  0.3688179646900593
  0.2507604274045434  0.6272017731607775  0.4579098732802080
  0.0849071922309790  0.5627603736985236  0.4552550090469580
  0.4170544537716552  0.5620852594431156  0.4533773713672673
  0.0000000000000000  0.6253343015998851  0.5414887709103908
  0.3332140738222833  0.5606791188058864  0.5428142083638079
  0.0000000000000000  0.6250203099965930  0.1978587515844694
  0.3337951769163752  0.6877243445970294  0.2026943604944265
  0.1659159045668872  0.6876986851955280  0.2031558825749258
  0.2498823670495582  0.7500422990328488  0.2783858715163348
  0.0825080819603201  0.6875843219732971  0.2845895758319585
  0.4170494694160354  0.6875465198217441  0.2841163325934843
  0.0000000000000000  0.7502332124858313  0.3701978086022137
  0.3315433998155299  0.6874198974075156  0.3687295440505096
  0.1679868118300831  0.6876440906810259  0.3686340272989455
  0.2502638753894146  0.7483916551701171  0.4574241435751176
  0.0834781747103506  0.6879484202111783  0.4538938751563606
  0.4178381338361703  0.6877513890013986  0.4528453453116867
  0.0000000000000000  0.7491832857486926  0.5419117140677159
  0.3434399442050520  0.6872371086915194  0.5411349052155572
  0.1721342355510842  0.6868862570203760  0.5430518598184761
  0.0000000000000000  0.7501266123958175  0.1978131938407444
  0.3338836012547333  0.8125143516408642  0.2026811345077277
  0.1657694091773649  0.8124973363657091  0.2030934099706627
  0.2498311651180174  0.8751088480986127  0.2784677446268304
  0.0825824044977921  0.8125935083343805  0.2845125690311221
  0.4169451141912006  0.8125692112876024  0.2840939734216761
  0.0000000000000000  0.8750779406721705  0.3701899278272762
  0.3315950775168588  0.8125826747726421  0.3687691224809271
  0.1678824632787723  0.8126237887151007  0.3688179646900593
  0.2507604274045434  0.8772017733748712  0.4579098732802080
  0.0849071922309790  0.8127603734844442  0.4552550090469580
  0.4170544537716552  0.8120852592290362  0.4533773713672673
  0.0000000000000000  0.8753343018139716  0.5414887709103908
  0.3332140738222833  0.8106791185918141  0.5428142083638079
  0.0000000000000000  0.8750203102106795  0.1978587515844694
  0.3337951769163752  0.9377243448111159  0.2026943604944265
  0.1659159045668872  0.9376986854096145  0.2031558825749258
  0.2498823670495582  0.5000422988187623  0.2783858715163348
  0.0825080819603201  0.9375843221873836  0.2845895758319585
  0.4170494694160354  0.9375465200358306  0.2841163325934843
  0.0000000000000000  0.5002332122717448  0.3701978086022137
  0.3315433998155299  0.9374198976216022  0.3687295440505096
  0.1679868118300831  0.9376440908951125  0.3686340272989455
  0.2502638753894146  0.4983916549560234  0.4574241435751176
  0.0834781747103506  0.9379484204252648  0.4538938751563606
  0.4178381338361703  0.9377513892154852  0.4528453453116867
  0.0000000000000000  0.4991832855346061  0.5419117140677159
  0.3434399442050520  0.9372371089056060  0.5411349052155572
  0.1721342355510842  0.9368862572344625  0.5430518598184761
  0.5000000000000000  0.0001231387479308  0.1974247311412256
  0.8342305610042473  0.0624973365797885  0.2030934099706627
  0.6661163694790702  0.0625143518549436  0.2026811345077277
  0.7501688343297914  0.1251088478845261  0.2784677446268304
  0.5830548858087994  0.0625692115016818  0.2840939734216761
  0.9174175955022079  0.0625935085484599  0.2845125690311221
  0.5000000000000000  0.1250410371737800  0.3690866537258870
  0.8321175069028399  0.0626237889291801  0.3688179646900593
  0.6684048932169517  0.0625826749867215  0.3687691224809271
  0.7492395720432654  0.1272017731607775  0.4579098732802080
  0.5829455462283519  0.0620852594431156  0.4533773713672673
  0.9150928077690210  0.0627603736985236  0.4552550090469580
  0.5000000000000000  0.1122200192556164  0.5434295796348820
  0.6667858969115201  0.0606791188058935  0.5428142083638079
  0.5000000000000000  0.1250403089680958  0.1974613645660668
  0.8340840656147250  0.1876986851955280  0.2031558825749258
  0.6662047938174283  0.1877243445970294  0.2026943604944265
  0.7501176323982506  0.2500422990328488  0.2783858715163348
  0.5829505305839646  0.1875465198217441  0.2841163325934843
  0.9174919180396799  0.1875843219732971  0.2845895758319585
  0.5000000000000000  0.2498322854799326  0.3690307508570925
  0.8320131583515291  0.1876440906810259  0.3686340272989455
  0.6684565709182735  0.1874198974075156  0.3687295440505096
  0.7497361240583942  0.2483916551701100  0.4574241435751176
  0.5821618661638297  0.1877513890013986  0.4528453453116867
  0.9165218252896494  0.1879484202111783  0.4538938751563606
  0.8278657351827192  0.1868862570203760  0.5430518598184761
  0.6565600265287515  0.1872371086915194  0.5411349052155572
  0.5000000000000000  0.2501231389620173  0.1974247311412256
  0.8342305610042473  0.3124973363657091  0.2030934099706627
  0.6661163694790702  0.3125143516408642  0.2026811345077277
  0.7501688343297914  0.3751088480986127  0.2784677446268304
  0.5830548858087994  0.3125692112876024  0.2840939734216761
  0.9174175955022079  0.3125935083343805  0.2845125690311221
  0.5000000000000000  0.3750410373878665  0.3690866537258870
  0.8321175069028399  0.3126237887151007  0.3688179646900593
  0.6684048932169517  0.3125826747726421  0.3687691224809271
  0.7492395720432654  0.3772017733748640  0.4579098732802080
  0.5829455462283519  0.3120852592290433  0.4533773713672673
  0.9150928077690210  0.3127603734844442  0.4552550090469580
  0.5000000000000000  0.3622200194696958  0.5434295796348820
  0.6667858969115201  0.3106791185918141  0.5428142083638079
  0.5000000000000000  0.3750403091821823  0.1974613645660668
  0.8340840656147250  0.4376986854096145  0.2031558825749258
  0.6662047938174283  0.4377243448111159  0.2026943604944265
  0.7501176323982506  0.0000422988187623  0.2783858715163348
  0.5829505305839646  0.4375465200358306  0.2841163325934843
  0.9174919180396799  0.4375843221873836  0.2845895758319585
  0.5000000000000000  0.9998322852658461  0.3690307508570925
  0.8320131583515291  0.4376440908951125  0.3686340272989455
  0.6684565709182735  0.4374198976216022  0.3687295440505096
  0.7497361240583942  0.9983916549560305  0.4574241435751176
  0.5821618661638297  0.4377513892154852  0.4528453453116867
  0.9165218252896494  0.4379484204252648  0.4538938751563606
  0.8278657351827192  0.4368862572344625  0.5430518598184761
  0.6565600265287515  0.4372371089056060  0.5411349052155572
  0.5000000000000000  0.5001231387479308  0.1974247311412256
  0.8342305610042473  0.5624973365797885  0.2030934099706627
  0.6661163694790702  0.5625143518549436  0.2026811345077277
  0.7501688343297914  0.6251088478845261  0.2784677446268304
  0.5830548858087994  0.5625692115016818  0.2840939734216761
  0.9174175955022079  0.5625935085484599  0.2845125690311221
  0.5000000000000000  0.6250410371737800  0.3690866537258870
  0.8321175069028399  0.5626237889291801  0.3688179646900593
  0.6684048932169517  0.5625826749867215  0.3687691224809271
  0.7492395720432654  0.6272017731607775  0.4579098732802080
  0.5829455462283519  0.5620852594431156  0.4533773713672673
  0.9150928077690210  0.5627603736985236  0.4552550090469580
  0.5000000000000000  0.6122200192556093  0.5434295796348820
  0.6667858969115201  0.5606791188058864  0.5428142083638079
  0.5000000000000000  0.6250403089680958  0.1974613645660668
  0.8340840656147250  0.6876986851955280  0.2031558825749258
  0.6662047938174283  0.6877243445970294  0.2026943604944265
  0.7501176323982506  0.7500422990328488  0.2783858715163348
  0.5829505305839646  0.6875465198217441  0.2841163325934843
  0.9174919180396799  0.6875843219732971  0.2845895758319585
  0.5000000000000000  0.7498322854799326  0.3690307508570925
  0.8320131583515291  0.6876440906810259  0.3686340272989455
  0.6684565709182735  0.6874198974075156  0.3687295440505096
  0.7497361240583942  0.7483916551701171  0.4574241435751176
  0.5821618661638297  0.6877513890013986  0.4528453453116867
  0.9165218252896494  0.6879484202111783  0.4538938751563606
  0.8278657351827192  0.6868862570203760  0.5430518598184761
  0.6565600265287515  0.6872371086915194  0.5411349052155572
  0.5000000000000000  0.7501231389620173  0.1974247311412256
  0.8342305610042473  0.8124973363657091  0.2030934099706627
  0.6661163694790702  0.8125143516408642  0.2026811345077277
  0.7501688343297914  0.8751088480986127  0.2784677446268304
  0.5830548858087994  0.8125692112876024  0.2840939734216761
  0.9174175955022079  0.8125935083343805  0.2845125690311221
  0.5000000000000000  0.8750410373878665  0.3690866537258870
  0.8321175069028399  0.8126237887151007  0.3688179646900593
  0.6684048932169517  0.8125826747726421  0.3687691224809271
  0.7492395720432654  0.8772017733748712  0.4579098732802080
  0.5829455462283519  0.8120852592290362  0.4533773713672673
  0.9150928077690210  0.8127603734844442  0.4552550090469580
  0.5000000000000000  0.8622200194696958  0.5434295796348820
  0.6667858969115201  0.8106791185918141  0.5428142083638079
  0.5000000000000000  0.8750403091821823  0.1974613645660668
  0.8340840656147250  0.9376986854096145  0.2031558825749258
  0.6662047938174283  0.9377243448111159  0.2026943604944265
  0.7501176323982506  0.5000422988187623  0.2783858715163348
  0.5829505305839646  0.9375465200358306  0.2841163325934843
  0.9174919180396799  0.9375843221873836  0.2845895758319585
  0.5000000000000000  0.4998322852658461  0.3690307508570925
  0.8320131583515291  0.9376440908951125  0.3686340272989455
  0.6684565709182735  0.9374198976216022  0.3687295440505096
  0.7497361240583942  0.4983916549560234  0.4574241435751176
  0.5821618661638297  0.9377513892154852  0.4528453453116867
  0.9165218252896494  0.9379484204252648  0.4538938751563606
  0.8278657351827192  0.9368862572344625  0.5430518598184761
  0.6565600265287515  0.9372371089056060  0.5411349052155572
  0.4055272517877739  0.0000347048553309  0.2322823480827623
  0.2498342583733901  0.0001193351245874  0.1993514056560599
  0.0942106421069226  0.0000473761373598  0.2327881740790971
  0.1549948107942569  0.1250837368339504  0.3161937205393457
  0.0000000000000000  0.1250528421369523  0.3035666479602384
  0.3449356380614219  0.1250597361091508  0.3161016934510172
  0.4010630369581136  0.1247760923939225  0.4017486041597778
  0.2496967708453184  0.1249622850752630  0.3891662841551309
  0.0994217302630531  0.1251373028696747  0.4022690590104929
  0.1501777447893389  0.1269349312061507  0.4873901782794405
  0.0000000000000000  0.1251391579592180  0.4731845546818718
  0.3524329903635390  0.1249473159710917  0.4874242839580347
  0.4061103277156306  0.1257667301251573  0.5713639072324099
  0.2566966232779109  0.1294563959755166  0.5541821761318317
  0.0977204584916862  0.1274292301390005  0.5694338851608052
  0.4054135644853716  0.1251173979912679  0.2323201602414571
  0.2498288143634895  0.1250793631851366  0.1996962559184183
  0.0942939880732183  0.1251303563974915  0.2328399487594695
  0.1549501064413263  0.2501136892041842  0.3161510679302637
  0.0000000000000000  0.2501237681274517  0.3035583201343144
  0.3449555968459777  0.2500164247258709  0.3160385760099231
  0.4010010835087812  0.2500427402633321  0.4015050309799264
  0.2496654263017533  0.2501754930795812  0.3888774071548369
  0.0994530939756544  0.2503148310292858  0.4023451508473599
  0.1503991897870307  0.2490135451898965  0.4880650550173300
  0.0000000000000000  0.2504193382558100  0.4734206607069922
  0.3510635828916833  0.2503368227079577  0.4868852401616977
  0.4111168266345473  0.2540483069463022  0.5648153820952473
  0.2587501580114164  0.2470407785355491  0.5553260992393021
  0.0976547340291916  0.2477742001985845  0.5698175859848718
  0.4055272517877739  0.2500347050694174  0.2322823480827623
  0.2498342583733901  0.2501193353386739  0.1993514056560599
  0.0942106421069226  0.2500473763514464  0.2327881740790971
  0.1549948107942569  0.3750837370480369  0.3161937205393457
  0.0000000000000000  0.3750528423510389  0.3035666479602384
  0.3449356380614219  0.3750597363232302  0.3161016934510172
  0.4010630369581136  0.3747760926080090  0.4017486041597778
  0.2496967708453184  0.3749622852893495  0.3891662841551309
  0.0994217302630531  0.3751373030837613  0.4022690590104929
  0.1501777447893389  0.3769349314202373  0.4873901782794405
  0.0000000000000000  0.3751391581733046  0.4731845546818718
  0.3524329903635390  0.3749473161851782  0.4874242839580347
  0.4061103277156306  0.3757667303392438  0.5713639072324099
  0.2566966232779109  0.3794563961896031  0.5541821761318317
  0.0977204584916862  0.3774292303530871  0.5694338851608052
  0.4054135644853716  0.3751173982053544  0.2323201602414571
  0.2498288143634895  0.3750793633992231  0.1996962559184183
  0.0942939880732183  0.3751303566115780  0.2328399487594695
  0.1549501064413263  0.0001136889900977  0.3161510679302637
  0.0000000000000000  0.0001237679133652  0.3035583201343144
  0.3449555968459777  0.0000164245117844  0.3160385760099231
  0.4010010835087812  0.0000427400492455  0.4015050309799264
  0.2496654263017533  0.0001754928654947  0.3888774071548369
  0.0994530939756544  0.0003148308151992  0.4023451508473599
  0.1503991897870307  0.9990135449758100  0.4880650550173300
  0.0000000000000000  0.0004193380417234  0.4734206607069922
  0.3510635828916833  0.0003368224938711  0.4868852401616977
  0.4111168266345473  0.0040483067322157  0.5648153820952473
  0.2587501580114164  0.9970407783214625  0.5553260992393021
  0.0976547340291916  0.9977741999844980  0.5698175859848718
  0.4055272517877739  0.5000347048553309  0.2322823480827623
  0.2498342583733901  0.5001193351245874  0.1993514056560599
  0.0942106421069226  0.5000473761373598  0.2327881740790971
  0.1549948107942569  0.6250837368339504  0.3161937205393457
  0.0000000000000000  0.6250528421369523  0.3035666479602384
  0.3449356380614219  0.6250597361091508  0.3161016934510172
  0.4010630369581136  0.6247760923939225  0.4017486041597778
  0.2496967708453184  0.6249622850752630  0.3891662841551309
  0.0994217302630531  0.6251373028696747  0.4022690590104929
  0.1501777447893389  0.6269349312061507  0.4873901782794405
  0.0000000000000000  0.6251391579592180  0.4731845546818718
  0.3524329903635390  0.6249473159710988  0.4874242839580347
  0.4061103277156306  0.6257667301251644  0.5713639072324099
  0.2566966232779109  0.6294563959755166  0.5541821761318317
  0.0977204584916862  0.6274292301390005  0.5694338851608052
  0.4054135644853716  0.6251173979912679  0.2323201602414571
  0.2498288143634895  0.6250793631851366  0.1996962559184183
  0.0942939880732183  0.6251303563974915  0.2328399487594695
  0.1549501064413263  0.7501136892041842  0.3161510679302637
  0.0000000000000000  0.7501237681274517  0.3035583201343144
  0.3449555968459777  0.7500164247258709  0.3160385760099231
  0.4010010835087812  0.7500427402633321  0.4015050309799264
  0.2496654263017533  0.7501754930795812  0.3888774071548369
  0.0994530939756544  0.7503148310292858  0.4023451508473599
  0.1503991897870307  0.7490135451898965  0.4880650550173300
  0.0000000000000000  0.7504193382558100  0.4734206607069922
  0.3510635828916833  0.7503368227079577  0.4868852401616977
  0.4111168266345473  0.7540483069463022  0.5648153820952473
  0.2587501580114164  0.7470407785355491  0.5553260992393021
  0.0976547340291916  0.7477742001985916  0.5698175859848718
  0.4055272517877739  0.7500347050694174  0.2322823480827623
  0.2498342583733901  0.7501193353386739  0.1993514056560599
  0.0942106421069226  0.7500473763514464  0.2327881740790971
  0.1549948107942569  0.8750837370480369  0.3161937205393457
  0.0000000000000000  0.8750528423510389  0.3035666479602384
  0.3449356380614219  0.8750597363232373  0.3161016934510172
  0.4010630369581136  0.8747760926080090  0.4017486041597778
  0.2496967708453184  0.8749622852893495  0.3891662841551309
  0.0994217302630531  0.8751373030837613  0.4022690590104929
  0.1501777447893389  0.8769349314202373  0.4873901782794405
  0.0000000000000000  0.8751391581733046  0.4731845546818718
  0.3524329903635390  0.8749473161851853  0.4874242839580347
  0.4061103277156306  0.8757667303392509  0.5713639072324099
  0.2566966232779109  0.8794563961896031  0.5541821761318317
  0.0977204584916862  0.8774292303530871  0.5694338851608052
  0.4054135644853716  0.8751173982053544  0.2323201602414571
  0.2498288143634895  0.8750793633992231  0.1996962559184183
  0.0942939880732183  0.8751303566115780  0.2328399487594695
  0.1549501064413263  0.5001136889900977  0.3161510679302637
  0.0000000000000000  0.5001237679133652  0.3035583201343144
  0.3449555968459777  0.5000164245117844  0.3160385760099231
  0.4010010835087812  0.5000427400492455  0.4015050309799264
  0.2496654263017533  0.5001754928654947  0.3888774071548369
  0.0994530939756544  0.5003148308151992  0.4023451508473599
  0.1503991897870307  0.4990135449758100  0.4880650550173300
  0.0000000000000000  0.5004193380417234  0.4734206607069922
  0.3510635828916833  0.5003368224938711  0.4868852401616977
  0.4111168266345473  0.5040483067322157  0.5648153820952473
  0.2587501580114164  0.4970407783214625  0.5553260992393021
  0.0976547340291916  0.4977741999844980  0.5698175859848718
  0.9057893578930774  0.0000473761373598  0.2327881740790971
  0.7501657410744187  0.0001193351245874  0.1993514056560599
  0.5944727482122261  0.0000347048553309  0.2322823480827623
  0.6550643619385781  0.1250597361091508  0.3161016934510172
  0.5000000000000000  0.1250622609684910  0.3026387879782675
  0.8450051892057431  0.1250837368339504  0.3161937205393457
  0.9005782691847557  0.1251373028696747  0.4022690590104929
  0.7503032286024833  0.1249622850752630  0.3891662841551309
  0.5989369624896952  0.1247760923939225  0.4017486041597778
  0.6475670090842698  0.1249473159710917  0.4874242839580347
  0.5000000000000000  0.1243978942627564  0.4744490667478303
  0.8498222546584699  0.1269349312061507  0.4873901782794405
  0.9022795415083138  0.1274292301390005  0.5694338851608052
  0.7433033761698979  0.1294563959755166  0.5541821761318317
  0.5938896722843694  0.1257667301251573  0.5713639072324099
  0.9057060119267817  0.1251303563974915  0.2328399487594695
  0.7501711850843193  0.1250793631851366  0.1996962559184183
  0.5945864355146284  0.1251173979912679  0.2323201602414571
  0.6550444031540223  0.2500164247258709  0.3160385760099231
  0.5000000000000000  0.2500347525153614  0.3025924115657475
  0.8450498935586737  0.2501136892041842  0.3161510679302637
  0.9005469054721544  0.2503148310292858  0.4023451508473599
  0.7503345731460556  0.2501754930795812  0.3888774071548369
  0.5989989159390277  0.2500427402633321  0.4015050309799264
  0.6489364165561256  0.2503368227079577  0.4868852401616977
  0.5000000000000000  0.2500805489029503  0.4733779912589853
  0.8496008096607781  0.2490135451898965  0.4880650550173300
  0.9023452659708084  0.2477742001985845  0.5698175859848718
  0.7412498414363924  0.2470407785355491  0.5553260992393021
  0.5888831733654527  0.2540483069463022  0.5648153820952473
  0.9057893578930774  0.2500473763514464  0.2327881740790971
  0.7501657410744187  0.2501193353386739  0.1993514056560599
  0.5944727482122261  0.2500347050694174  0.2322823480827623
  0.6550643619385781  0.3750597363232302  0.3161016934510172
  0.5000000000000000  0.3750622611825776  0.3026387879782675
  0.8450051892057431  0.3750837370480369  0.3161937205393457
  0.9005782691847557  0.3751373030837613  0.4022690590104929
  0.7503032286024833  0.3749622852893495  0.3891662841551309
  0.5989369624896952  0.3747760926080090  0.4017486041597778
  0.6475670090842698  0.3749473161851782  0.4874242839580347
  0.5000000000000000  0.3743978944768429  0.4744490667478303
  0.8498222546584699  0.3769349314202373  0.4873901782794405
  0.9022795415083138  0.3774292303530871  0.5694338851608052
  0.7433033761698979  0.3794563961896031  0.5541821761318317
  0.5938896722843694  0.3757667303392438  0.5713639072324099
  0.9057060119267817  0.3751303566115780  0.2328399487594695
  0.7501711850843193  0.3750793633992231  0.1996962559184183
  0.5945864355146284  0.3751173982053544  0.2323201602414571
  0.6550444031540223  0.0000164245117844  0.3160385760099231
  0.5000000000000000  0.0000347523012749  0.3025924115657475
  0.8450498935586737  0.0001136889900977  0.3161510679302637
  0.9005469054721544  0.0003148308151992  0.4023451508473599
  0.7503345731460556  0.0001754928654947  0.3888774071548369
  0.5989989159390277  0.0000427400492455  0.4015050309799264
  0.6489364165561256  0.0003368224938711  0.4868852401616977
  0.5000000000000000  0.0000805486888638  0.4733779912589853
  0.8496008096607781  0.9990135449758100  0.4880650550173300
  0.9023452659708084  0.9977741999844980  0.5698175859848718
  0.7412498414363924  0.9970407783214625  0.5553260992393021
  0.5888831733654527  0.0040483067322157  0.5648153820952473
  0.9057893578930774  0.5000473761373598  0.2327881740790971
  0.7501657410744187  0.5001193351245874  0.1993514056560599
  0.5944727482122261  0.5000347048553309  0.2322823480827623
  0.6550643619385781  0.6250597361091508  0.3161016934510172
  0.5000000000000000  0.6250622609684910  0.3026387879782675
  0.8450051892057431  0.6250837368339504  0.3161937205393457
  0.9005782691847557  0.6251373028696747  0.4022690590104929
  0.7503032286024833  0.6249622850752630  0.3891662841551309
  0.5989369624896952  0.6247760923939225  0.4017486041597778
  0.6475670090842698  0.6249473159710988  0.4874242839580347
  0.5000000000000000  0.6243978942627564  0.4744490667478303
  0.8498222546584699  0.6269349312061507  0.4873901782794405
  0.9022795415083138  0.6274292301390005  0.5694338851608052
  0.7433033761698979  0.6294563959755166  0.5541821761318317
  0.5938896722843694  0.6257667301251644  0.5713639072324099
  0.9057060119267817  0.6251303563974915  0.2328399487594695
  0.7501711850843193  0.6250793631851366  0.1996962559184183
  0.5945864355146284  0.6251173979912679  0.2323201602414571
  0.6550444031540223  0.7500164247258709  0.3160385760099231
  0.5000000000000000  0.7500347525153614  0.3025924115657475
  0.8450498935586737  0.7501136892041842  0.3161510679302637
  0.9005469054721544  0.7503148310292858  0.4023451508473599
  0.7503345731460556  0.7501754930795812  0.3888774071548369
  0.5989989159390277  0.7500427402633321  0.4015050309799264
  0.6489364165561256  0.7503368227079577  0.4868852401616977
  0.5000000000000000  0.7500805489029503  0.4733779912589853
  0.8496008096607781  0.7490135451898965  0.4880650550173300
  0.9023452659708084  0.7477742001985916  0.5698175859848718
  0.7412498414363924  0.7470407785355491  0.5553260992393021
  0.5888831733654527  0.7540483069463022  0.5648153820952473
  0.9057893578930774  0.7500473763514464  0.2327881740790971
  0.7501657410744187  0.7501193353386739  0.1993514056560599
  0.5944727482122261  0.7500347050694174  0.2322823480827623
  0.6550643619385781  0.8750597363232373  0.3161016934510172
  0.5000000000000000  0.8750622611825776  0.3026387879782675
  0.8450051892057431  0.8750837370480369  0.3161937205393457
  0.9005782691847557  0.8751373030837613  0.4022690590104929
  0.7503032286024833  0.8749622852893495  0.3891662841551309
  0.5989369624896952  0.8747760926080090  0.4017486041597778
  0.6475670090842698  0.8749473161851853  0.4874242839580347
  0.5000000000000000  0.8743978944768429  0.4744490667478303
  0.8498222546584699  0.8769349314202373  0.4873901782794405
  0.9022795415083138  0.8774292303530871  0.5694338851608052
  0.7433033761698979  0.8794563961896031  0.5541821761318317
  0.5938896722843694  0.8757667303392509  0.5713639072324099
  0.9057060119267817  0.8751303566115780  0.2328399487594695
  0.7501711850843193  0.8750793633992231  0.1996962559184183
  0.5945864355146284  0.8751173982053544  0.2323201602414571
  0.6550444031540223  0.5000164245117844  0.3160385760099231
  0.5000000000000000  0.5000347523012749  0.3025924115657475
  0.8450498935586737  0.5001136889900977  0.3161510679302637
  0.9005469054721544  0.5003148308151992  0.4023451508473599
  0.7503345731460556  0.5001754928654947  0.3888774071548369
  0.5989989159390277  0.5000427400492455  0.4015050309799264
  0.6489364165561256  0.5003368224938711  0.4868852401616977
  0.5000000000000000  0.5000805486888638  0.4733779912589853
  0.8496008096607781  0.4990135449758100  0.4880650550173300
  0.9023452659708084  0.4977741999844980  0.5698175859848718
  0.7412498414363924  0.4970407783214625  0.5553260992393021
  0.5888831733654527  0.5040483067322157  0.5648153820952473
  0.1271024051583964  0.0621029292533137  0.5365935117335425
  0.1271024051583964  0.3121029290392343  0.5365935117335425
  0.1271024051583964  0.5621029292533137  0.5365935117335425
  0.1271024051583964  0.8121029290392343  0.5365935117335425
  0.8728975655754070  0.0621029292533137  0.5365935117335425
  0.5000000000000000  0.2607784272622951  0.5362688181248316
  0.8728975655754070  0.3121029290392343  0.5365935117335425
  0.5000000000000000  0.0107784270482085  0.5362688181248316
  0.8728975655754070  0.5621029292533137  0.5365935117335425
  0.5000000000000000  0.7607784272622951  0.5362688181248316
  0.8728975655754070  0.8121029290392343  0.5365935117335425
  0.5000000000000000  0.5107784270482085  0.5362688181248316
  0.4396300808487936  0.4284995376602296  0.6298837081927857
  0.5776781738689465  0.4284995376602296  0.6298837081927857
  0.5058931654984704  0.5098518710976450  0.6298837081927857
  0.6328974110770105  0.5141335728575100  0.6298837081927857
  0.6328974110770105  0.3385838007030912  0.6298837081927857
  0.3181477589910600  0.4327812394200947  0.6298837081927857