Mo  S Cu                                
   1.00000000000000     
    15.9215000000000000    0.0000000000000000    0.0000000000000000
    -7.9622500000000000   13.7910219999999999    0.0000000000000000
     0.0000000000000000    0.0000000000000000   13.5822000000000003
    25    50     3
Direct
  0.1326520805574565  0.0660206718744902  0.6770362686106900
  0.1315744897484648  0.2654257751005352  0.6774388506118832
  0.1325409709110178  0.4656066447432579  0.6792275147060503
  0.1324747193176682  0.6657567907368702  0.6792874731835230
  0.1327174346999146  0.8660346767679279  0.6777553989514320
  0.3327740998446358  0.0658968933968560  0.6779417369736531
  0.3318408093630914  0.2656148373730038  0.6778826389168816
  0.3323774231093296  0.4649445953947759  0.6806741324759856
  0.3328967476441563  0.6659586170055379  0.6790833834542175
  0.3326850245266329  0.8657927554738212  0.6781324729190341
  0.5329750241197790  0.0658954237006990  0.6780156103609873
  0.5325956182178331  0.2651486480651166  0.6804531046861955
  0.5334775223965137  0.4659113509799281  0.6813362246397756
  0.5335683024659199  0.6665070874134841  0.6787138066620995
  0.5328571696664929  0.8660912737156973  0.6775769175495754
  0.7326740505591048  0.0659398480792841  0.6771260320683357
  0.7334566857549331  0.2655837081807683  0.6779416535917095
  0.7311906955461110  0.4663061290753149  0.6816999562794127
  0.7338696932111753  0.6688102817449247  0.6736715241190723
  0.7329780819378130  0.8670765240731056  0.6759901049308904
  0.9325277215619555  0.0659854501667621  0.6765501123825060
  0.9326220498959630  0.2657953852039499  0.6780890387160829
  0.9319228679529861  0.4649208435820494  0.6808664427592732
  0.9320224799944499  0.6662425397336110  0.6797860052189120
  0.9334716127102511  0.8670045774536472  0.6762084666221022
  0.0661221733083086  0.1329358819464901  0.5616231513159897
  0.0649785642315044  0.1315960777517575  0.7924183071212570
  0.0658968958050478  0.3330472972136837  0.5627890451225550
  0.0652908363674258  0.3318241197299393  0.7938529330910480
  0.0649429799568400  0.5319625352247414  0.5647412147039323
  0.0663641153412965  0.5325765745631650  0.7947783715392760
  0.0651261446221088  0.7315618413372589  0.5638878420057061
  0.0662580863928630  0.7334188573165312  0.7938602268456020
  0.0669758718449432  0.9330008254297781  0.5615467360295181
  0.0659525560479611  0.9329920418543475  0.7924022229884828
  0.2665720747761881  0.1331488827002323  0.5622777593513838
  0.2651380327387589  0.1316275184025821  0.7931882516868531
  0.2660624929290427  0.3331464490270233  0.5633782207271699
  0.2639751198072246  0.3307101089378113  0.7940908037564667
  0.2665172754910732  0.5320221855196364  0.5645454086356501
  0.2657794150419215  0.5328426129831380  0.7948666541279772
  0.2656190635023303  0.7318727674910125  0.5636185044019819
  0.2662903877305565  0.7329790200796942  0.7940601973314976
  0.2662375229971468  0.9325237397071854  0.5626464226079507
  0.2659458579926184  0.9325633705357240  0.7930164779794406
  0.4666519351485034  0.1333608888131109  0.5633045272766096
  0.4650414189227279  0.1302486385487382  0.7942976466903908
  0.4669041247639267  0.3331941548003939  0.5649728628561023
  0.4640608155439965  0.3286473969196494  0.7978955986213826
  0.4660197963389896  0.5313825217348502  0.5659281464261129
  0.4663683030799641  0.5337685174395776  0.7991750259106617
  0.4658111532406196  0.7318794200530792  0.5633222267539649
  0.4668236497271123  0.7334674067743466  0.7935296559550338
  0.4658755033807656  0.9325974839693729  0.5625912076077744
  0.4663021993021489  0.9325401543632665  0.7930413247817719
  0.6662522038043868  0.1331744348289647  0.5622980379121529
  0.6663027090391425  0.1318225201453962  0.7932405749291079
  0.6663158190124677  0.3338720404619613  0.5653475901938823
  0.6644924767961045  0.3284574190005610  0.7980409784945636
  0.6651562695912648  0.5314025526455599  0.5636381813725205
  0.6682051428060340  0.5401402226784726  0.7957254662904530
  0.6650914414415333  0.7335007287364341  0.5607294222542206
  0.6679497115281222  0.7351592150228202  0.7921138484219031
  0.6655688859638461  0.9331208263036230  0.5613753482873058
  0.6664710034077461  0.9328775088235245  0.7923523017748357
  0.8660600530716592  0.1332163291774136  0.5618954070759997
  0.8658362789680094  0.1319038636303038  0.7924663964199818
  0.8664967413333869  0.3334233504483673  0.5636156917451353
  0.8658902676419334  0.3309156645690807  0.7947907686030615
  0.8643760157102712  0.5314888976020796  0.5667707712637818
  0.8661711907193487  0.5332805977490751  0.7993432916695556
  0.8678392542922128  0.7332714046120246  0.5612035757581263
  0.8660735937302704  0.7349713879892955  0.7924174876989246
  0.8663561524590159  0.9331747887921488  0.5608409709224332
  0.8661117267681662  0.9329760193617832  0.7914884607061925
  0.2886427888316610  0.3440867110057504  0.9519849138044683
  0.5392408825720841  0.4559727741630847  0.9046987626513834
  0.7099495077390374  0.4576547392499488  0.9001290712532199
 
  0.00000000E+00  0.00000000E+00  0.00000000E+00
  0.00000000E+00  0.00000000E+00  0.00000000E+00
  0.00000000E+00  0.00000000E+00  0.00000000E+00
  0.00000000E+00  0.00000000E+00  0.00000000E+00
  0.00000000E+00  0.00000000E+00  0.00000000E+00
  0.00000000E+00  0.00000000E+00  0.00000000E+00
  0.00000000E+00  0.00000000E+00  0.00000000E+00
  0.00000000E+00  0.00000000E+00  0.00000000E+00
  0.00000000E+00  0.00000000E+00  0.00000000E+00
  0.00000000E+00  0.00000000E+00  0.00000000E+00
  0.00000000E+00  0.00000000E+00  0.00000000E+00
  0.00000000E+00  0.00000000E+00  0.00000000E+00
  0.00000000E+00  0.00000000E+00  0.00000000E+00
  0.00000000E+00  0.00000000E+00  0.00000000E+00
  0.00000000E+00  0.00000000E+00  0.00000000E+00
  0.00000000E+00  0.00000000E+00  0.00000000E+00
  0.00000000E+00  0.00000000E+00  0.00000000E+00
  0.00000000E+00  0.00000000E+00  0.00000000E+00
  0.00000000E+00  0.00000000E+00  0.00000000E+00
  0.00000000E+00  0.00000000E+00  0.00000000E+00
  0.00000000E+00  0.00000000E+00  0.00000000E+00
  0.00000000E+00  0.00000000E+00  0.00000000E+00
  0.00000000E+00  0.00000000E+00  0.00000000E+00
  0.00000000E+00  0.00000000E+00  0.00000000E+00
  0.00000000E+00  0.00000000E+00  0.00000000E+00
  0.00000000E+00  0.00000000E+00  0.00000000E+00
  0.00000000E+00  0.00000000E+00  0.00000000E+00
  0.00000000E+00  0.00000000E+00  0.00000000E+00
  0.00000000E+00  0.00000000E+00  0.00000000E+00
  0.00000000E+00  0.00000000E+00  0.00000000E+00
  0.00000000E+00  0.00000000E+00  0.00000000E+00
  0.00000000E+00  0.00000000E+00  0.00000000E+00
  0.00000000E+00  0.00000000E+00  0.00000000E+00
  0.00000000E+00  0.00000000E+00  0.00000000E+00
  0.00000000E+00  0.00000000E+00  0.00000000E+00
  0.00000000E+00  0.00000000E+00  0.00000000E+00
  0.00000000E+00  0.00000000E+00  0.00000000E+00
  0.00000000E+00  0.00000000E+00  0.00000000E+00
  0.00000000E+00  0.00000000E+00  0.00000000E+00
  0.00000000E+00  0.00000000E+00  0.00000000E+00
  0.00000000E+00  0.00000000E+00  0.00000000E+00
  0.00000000E+00  0.00000000E+00  0.00000000E+00
  0.00000000E+00  0.00000000E+00  0.00000000E+00
  0.00000000E+00  0.00000000E+00  0.00000000E+00
  0.00000000E+00  0.00000000E+00  0.00000000E+00
  0.00000000E+00  0.00000000E+00  0.00000000E+00
  0.00000000E+00  0.00000000E+00  0.00000000E+00
  0.00000000E+00  0.00000000E+00  0.00000000E+00
  0.00000000E+00  0.00000000E+00  0.00000000E+00
  0.00000000E+00  0.00000000E+00  0.00000000E+00
  0.00000000E+00  0.00000000E+00  0.00000000E+00
  0.00000000E+00  0.00000000E+00  0.00000000E+00
  0.00000000E+00  0.00000000E+00  0.00000000E+00
  0.00000000E+00  0.00000000E+00  0.00000000E+00
  0.00000000E+00  0.00000000E+00  0.00000000E+00
  0.00000000E+00  0.00000000E+00  0.00000000E+00
  0.00000000E+00  0.00000000E+00  0.00000000E+00
  0.00000000E+00  0.00000000E+00  0.00000000E+00
  0.00000000E+00  0.00000000E+00  0.00000000E+00
  0.00000000E+00  0.00000000E+00  0.00000000E+00
  0.00000000E+00  0.00000000E+00  0.00000000E+00
  0.00000000E+00  0.00000000E+00  0.00000000E+00
  0.00000000E+00  0.00000000E+00  0.00000000E+00
  0.00000000E+00  0.00000000E+00  0.00000000E+00
  0.00000000E+00  0.00000000E+00  0.00000000E+00
  0.00000000E+00  0.00000000E+00  0.00000000E+00
  0.00000000E+00  0.00000000E+00  0.00000000E+00
  0.00000000E+00  0.00000000E+00  0.00000000E+00
  0.00000000E+00  0.00000000E+00  0.00000000E+00
  0.00000000E+00  0.00000000E+00  0.00000000E+00
  0.00000000E+00  0.00000000E+00  0.00000000E+00
  0.00000000E+00  0.00000000E+00  0.00000000E+00
  0.00000000E+00  0.00000000E+00  0.00000000E+00
  0.00000000E+00  0.00000000E+00  0.00000000E+00
  0.00000000E+00  0.00000000E+00  0.00000000E+00
  0.00000000E+00  0.00000000E+00  0.00000000E+00
  0.00000000E+00  0.00000000E+00  0.00000000E+00
  0.00000000E+00  0.00000000E+00  0.00000000E+00
