Ta  N  W Cu                             
   1.00000000000000     
    18.1096308199999996    0.0000000000000000    0.0000000000000000
     0.0000000000000000   23.3551997799999995    0.0000000000000000
     0.0000000000000000    0.0000000000000000   30.4818171199999988
   Ta   N    W    Cu
   216   240    24     1
Direct
  0.0000299816308740  0.9999980052245547  0.1975519149034994
  0.3341989378959482  0.0623816864977300  0.2030273014489978
  0.1657908415870608  0.0623855626491547  0.2030045037625143
  0.2499242459808997  0.1250163023506445  0.2782513121717258
  0.0827322714327323  0.0624780390960140  0.2843017148582447
  0.4172866585383659  0.0624710560565802  0.2842845244322447
  0.9999414647935581  0.1249743926954352  0.3700174736124211
  0.3324127905987808  0.0624585238901005  0.3687537172897137
  0.1673695127759629  0.0624618328836632  0.3688411000031664
  0.2497574146567842  0.1251529547025285  0.4554783517170478
  0.0836981668640746  0.0624734165753509  0.4547948750261668
  0.4163806825222167  0.0625027604508688  0.4546853307044216
  0.3348847641450448  0.0621840190125980  0.5417269347383851
  0.1646821950420971  0.0624452201677386  0.5418775330375567
  0.0000227371130777  0.1249870821202563  0.1976177328012199
  0.3343117006571816  0.1874192114526139  0.2028862340583899
  0.1656872883908491  0.1874226643348820  0.2028885946544747
  0.2500101573256899  0.2499247214605376  0.2780548460964667
  0.0827772496264032  0.1874384326397234  0.2841929665312435
  0.4172709993351518  0.1874136723492654  0.2841459605243202
  0.9999481383974071  0.2501504373900829  0.3697999838925980
  0.3324941266477879  0.1873941081995767  0.3685373058423167
  0.1672758463583222  0.1874606283389681  0.3686697968144941
  0.2501131017477931  0.2503532054771114  0.4550238215429232
  0.0836945007379413  0.1877059849446994  0.4546720095323806
  0.4161598878610491  0.1875637048602243  0.4545835329054597
  0.3357663659656467  0.1869887025306483  0.5414723330573565
  0.1643582394304701  0.1882414561383925  0.5418273413350434
  0.0000029453958632  0.2498787080633704  0.1974888769643854
  0.3340576383818998  0.3124353674068061  0.2027845386279807
  0.1659631550584137  0.3124252426887608  0.2028127272570970
  0.2501201075065609  0.3751175858633431  0.2778376267676066
  0.0826302124124325  0.3124574750136659  0.2839993424184541
  0.4174223932817824  0.3124335099204032  0.2839175377705345
  0.0000460656401273  0.3750575904969935  0.3695449493163565
  0.3325631714160977  0.3123822296412158  0.3683184920255513
  0.1675853608773465  0.3124425110832618  0.3683103271069257
  0.2504219225376687  0.3752366979858834  0.4542607830797323
  0.0839544522346998  0.3125341164843931  0.4542567283455554
  0.4160906210778492  0.3125489215999409  0.4544650275471085
  0.3348055493579878  0.3118599238549180  0.5416424616890225
  0.9999796798698384  0.3750305301130439  0.1973014787284626
  0.3342817213805063  0.4374500729703428  0.2024757909657424
  0.1657850261614868  0.4374414025315332  0.2025352319796099
  0.2499486444513082  0.9999917377156251  0.2782484738417494
  0.0826525974833174  0.4374943530793516  0.2838250310030404
  0.4173953758183373  0.4374825414183121  0.2837155310747335
  0.9999520056038094  0.9999889894766625  0.3700211813982008
  0.3328250144807328  0.4374956684496567  0.3680428199496006
  0.1675886645940352  0.4375076366525121  0.3680851288743483
  0.2498013446811171  0.9999783002970233  0.4555495681810413
  0.0839507634287813  0.4376365512371052  0.4538265838978788
  0.4159325713791517  0.4376555970392886  0.4541677445845380
  0.3382078825741672  0.4375473254456210  0.5398891608390670
  0.9999730875033706  0.5000014518441489  0.1972692957329443
  0.3342883035877335  0.5625534139986499  0.2024810440534495
  0.1657849122409516  0.5625646595982161  0.2025493322118024
  0.2501118442881349  0.6248661541080764  0.2778611270142193
  0.0826578061929482  0.5625116422301630  0.2838116652156373
  0.4174076305642700  0.5625319507776396  0.2837074199133696
  0.9999894004740923  0.6249523378849275  0.3695271072179551
  0.3327494749684092  0.5625564754618679  0.3680411200877316
  0.1675729010311855  0.5625422494181649  0.3680692942559176
  0.2503913060939027  0.6248200824516204  0.4543668264414080
  0.0838578302229323  0.5625051649646835  0.4539028117388568
  0.4159045665050058  0.5624813038709533  0.4542934986658835
  0.3355750764846235  0.5634498868464775  0.5411598572339713
  0.9999882990981845  0.6249550733975084  0.1972987090034053
  0.3340505909569842  0.6875764768088999  0.2028026724460688
  0.1659538758862595  0.6875833078400007  0.2028189866986239
  0.2500139719099579  0.7500850528168144  0.2780605389057200
  0.0826583570060464  0.6875484264185800  0.2840065407795791
  0.4173782927766183  0.6875678694884400  0.2839386898915137
  0.9999185022127435  0.7498709957075604  0.3697966528568060
  0.3325880923414601  0.6876198892246279  0.3683955864757777
  0.1675590504846483  0.6875608839347791  0.3683497000332991
  0.2501520510209900  0.7496825718106521  0.4550071584023598
  0.0837317430192641  0.6874361181035553  0.4542201232784322
  0.4162002371329905  0.6873984634027224  0.4544950960733445
  0.3338496605987515  0.6876971807424752  0.5412540794560741
  0.0000127510996393  0.7501163638023698  0.1974883558635767
  0.3343034286186608  0.8125770122411993  0.2028955800964454
  0.1656684248502103  0.8125641581721155  0.2028847811037195
  0.2499291795040506  0.8749881528394070  0.2782607154504007
  0.0828021651356323  0.8125505841562273  0.2841920614687226
  0.4172564970450736  0.8125752677196303  0.2841632055443313
  0.9999367069595593  0.8750089346996788  0.3700150180242971
  0.3325146837742494  0.8125864432712220  0.3685595177785359
  0.1672747196454836  0.8125257688579381  0.3686771859384095
  0.2497580989734161  0.8747892947901548  0.4554852596212058
  0.0836708494596010  0.8122656512273778  0.4546697218052245
  0.4162433735736997  0.8124005251600295  0.4546128029817567
  0.3358109498064152  0.8127792950198867  0.5414146562754851
  0.1641096291773749  0.8114586949267348  0.5417746446137812
  0.0000386296136341  0.8750175102588855  0.1976157289426723
  0.3341955603893609  0.9376132132478574  0.2030290290409482
  0.1657994105505409  0.9376012111305130  0.2030044768599026
  0.2501129706320526  0.5000123566501244  0.2777872509175410
  0.0827378020494578  0.9375107244469234  0.2842966156625479
  0.4172775052818025  0.9375170486145663  0.2842836011019187
  0.0000714199811469  0.4999992043056309  0.3694716920418557
  0.3324141214066358  0.9375118102287487  0.3687505867948317
  0.1673810299291745  0.9375127077833909  0.3688348095352652
  0.2504231245795836  0.5000585850218187  0.4540767200392679
  0.0837026444604092  0.9374748618374724  0.4547976927460269
  0.4163691131438227  0.9374583400525935  0.4546786337245194
  0.3348559211361675  0.9376129591219922  0.5417184279128406
  0.1647500988009369  0.9373323232004012  0.5419135637421277
  0.5000014986679417  0.9999990349093650  0.1975532906581066
  0.8342093016130363  0.0623773019576248  0.2030300138989958
  0.6657988914283877  0.0623808660052276  0.2030079326500243
  0.7499376295382092  0.1250203089562092  0.2782591401014614
  0.5827544277310466  0.0624782626949028  0.2842985541686502
  0.9172590000461156  0.0624738727762164  0.2842830015278608
  0.4999552863838161  0.1249715742521573  0.3700139768640582
  0.8324196057631141  0.0624738444069664  0.3687652516819711
  0.6673742508552607  0.0624757179764472  0.3688529037483974
  0.7497536735447312  0.1252116910049281  0.4554906483814420
  0.5837275837257891  0.0625152082084739  0.4548134626942613
  0.9163513801800676  0.0625372797316430  0.4546851872080993
  0.8348417195011351  0.0623612489585383  0.5417105869293266
  0.6647755465776797  0.0626523211948609  0.5419077611077086
  0.5000275874073736  0.1249812315541519  0.1976142550430993
  0.8343142271814088  0.1874349869484035  0.2028931803789860
  0.6656875706426248  0.1874361031751732  0.2028822014147877
  0.7500286786674337  0.2499001330768849  0.2780590271354839
  0.5828488549748840  0.1874435557107361  0.2841836688871311
  0.9172126067740294  0.1874276315004408  0.2841595403791715
  0.4999512507099766  0.2501291257738032  0.3697816148006225
  0.8324982141630315  0.1874283703208022  0.3685718323602956
  0.6672752319334805  0.1874800218394341  0.3686751769773835
  0.7501704518590060  0.2503860745750899  0.4550125671595850
  0.5837226996916343  0.1877709662773555  0.4546657064023307
  0.9161985845508980  0.1876039421339755  0.4546048706809387
  0.8357394583714850  0.1873633968570942  0.5413828026448329
  0.6642081772635251  0.1887385955940317  0.5417473364957388
  0.5000132322854114  0.2498607924081497  0.1974818695038465
  0.8340432358433532  0.3124198510279754  0.2027987784398562
  0.6659730879771217  0.3124103956081186  0.2028146825906134
  0.7501252799155296  0.3751242233026204  0.2778532065863288
  0.5827385018549549  0.3124513308630981  0.2840096333809043
  0.9173124921947178  0.3124399535998563  0.2839572130091881
  0.4999525648424168  0.3750163948511016  0.3695097837534504
  0.8326199168108701  0.3124182586857103  0.3684446664146819
  0.6675428273853612  0.3124765992706173  0.3683860474654708
  0.7504712212325302  0.3752680947090781  0.4543528916898509
  0.5837924010579982  0.3126688899361909  0.4541936204704200
  0.9162960004588285  0.3126782574062332  0.4544956324005014
  0.8339092579063845  0.3127313858271279  0.5412045515721502
  0.5000153466655846  0.3750202857423659  0.1972954518445036
  0.8342777186804469  0.4374501331373608  0.2024938451683482
  0.6657988358310902  0.4374457917159162  0.2025559800001631
  0.7499461931809890  0.9999928928426343  0.2782340051039114
  0.5827878452566466  0.4374931149462924  0.2838130927958176
  0.9172697272948156  0.4374820884016160  0.2837289533756007
  0.4999723971412777  0.9999950480382793  0.3700240044642058
  0.8327751260159175  0.4374913711877682  0.3681177625391143
  0.6675274160708966  0.4375028600594035  0.3680927786663233
  0.7497905828817437  0.9999895174812750  0.4555735261714986
  0.5837377470985032  0.4376436948012525  0.4539131371683993
  0.9161564727779989  0.4376622145067586  0.4543422148951564
  0.8347017925425391  0.4375207965328656  0.5407284405772543
  0.5000065943249439  0.5000043953857514  0.1972655784637141
  0.8342618372783193  0.5625578053707869  0.2024985448179280
  0.6658033498982334  0.5625672161685316  0.2025519474458619
  0.7501241218206545  0.6249031464492418  0.2778336090345306
  0.5827697708006099  0.5625207755112456  0.2838137852285030
  0.9172968708311586  0.5625224846664452  0.2837371366362547
  0.4999855219476288  0.6249693611898692  0.3695186049423000
  0.8328035433667722  0.5625052085054065  0.3681608705142949
  0.6675100541635146  0.5625066184317760  0.3681301189787121
  0.7504866639766661  0.6247446700854340  0.4543664962953002
  0.5837638938877632  0.5623690886621233  0.4538716020266023
  0.9160529824926513  0.5623456024276194  0.4543208295115662
  0.8346226436496593  0.5625161527174711  0.5406977428284279
  0.5000060682564111  0.6249769587489666  0.1972962246086425
  0.8340460245190116  0.6875725885488606  0.2028025250579475
  0.6659664112780064  0.6875760865155343  0.2028151598034640
  0.7500231405421829  0.7500923926529808  0.2780621471772733
  0.5827261012787588  0.6875470776246857  0.2839980918433866
  0.9173167570381580  0.6875587818286775  0.2839460849235280
  0.4999320201186279  0.7498730332188259  0.3697917346689223
  0.8325720815845017  0.6875837115012473  0.3684198011010267
  0.6675472198719490  0.6875346938808491  0.3683532690174260
  0.7501696973871290  0.7496075966408640  0.4550134019083316
  0.5838445672634265  0.6873439350295953  0.4542201736068989
  0.9162376905393614  0.6873519829911672  0.4544844678306177
  0.8338571738357743  0.6873145374246121  0.5411957305451693
  0.5000020342483467  0.7501343170176611  0.1974825310760053
  0.8343108422383665  0.8125728846500948  0.2028939900290752
  0.6656730927109678  0.8125699318624271  0.2028797351494873
  0.7499257376233928  0.8749781009481410  0.2782563585869084
  0.5828286718833979  0.8125494896400909  0.2841810222224126
  0.9172222959887293  0.8125694070536227  0.2841596608251180
  0.4999581470348033  0.8750071774621020  0.3700147406368757
  0.8324991337798906  0.8125719626327381  0.3685674481720369
  0.6672678425484193  0.8125113250646905  0.3686794035742622
  0.7497555345724010  0.8747728241150909  0.4555030693270012
  0.5837215037566139  0.8122164018765758  0.4546858866610464
  0.9161974837743472  0.8123800036300892  0.4545961899815012
  0.8357674513488007  0.8125997915433913  0.5414133105979815
  0.6641772757660007  0.8112290368262762  0.5417745321977705
  0.5000132749694686  0.8750105439993234  0.1976151238430290
  0.8342000705612236  0.9376195693272678  0.2030400104815513
  0.6657945031637453  0.9376103703763619  0.2030153866320035
  0.7501291122500717  0.4999825461587051  0.2777777344351762
  0.5827588786133902  0.9375114958658415  0.2843036074461338
  0.9172626419407308  0.9375157170676118  0.2842870681846748
  0.4999789901604714  0.5000267027768217  0.3694497684763434
  0.8324030212870568  0.9375158464448177  0.3687667647736248
  0.6673821889286842  0.9375089792188831  0.3688503668728487
  0.7504748930410798  0.5000092304440642  0.4541719518823939
  0.5837275330982763  0.9374736819355860  0.4548071672792702
  0.9163518946645155  0.9374589388926324  0.4546915502106401
  0.8347743862898938  0.9376005037733677  0.5417220534696057
  0.6647636778241619  0.9373225741645754  0.5419055445635834
  0.4058126453391111  0.9999984256025911  0.2325812595258867
  0.2499884796687510  0.0000018872991561  0.1994799831934060
  0.0942376783303160  0.9999986321479710  0.2325818297300017
  0.1548830274803592  0.1249657561569677  0.3161309595019546
  0.9999866831612110  0.1249901456327223  0.3033562402224561
  0.3450695737288498  0.1249561584955003  0.3160860134955428
  0.4010261017473624  0.1250879018617894  0.4025196637500770
  0.2499138978420277  0.1250396612768654  0.3876641146832256
  0.0988448868401690  0.1250869991189418  0.4026062596612263
  0.1515531421171943  0.1254856406310054  0.4881552585921014
  0.9999245051897176  0.1251835051641237  0.4736206438434607
  0.3480239073890345  0.1250133266148481  0.4879663414664392
  0.4066206038932521  0.1252932013566124  0.5692400270644526
  0.2497837486199970  0.1262981087333230  0.5580225938823844
  0.0936607015067281  0.1259760896045634  0.5696646276394546
  0.4057229740205202  0.1249402142118328  0.2325688910276469
  0.2499946420341956  0.1249650578260315  0.2001445654579257
  0.0942606676502180  0.1249382951299225  0.2325888036945329
  0.1548461471028233  0.2499959712226811  0.3159232817593605
  0.9999568568012549  0.2499570205302248  0.3031506716308741
  0.3451729870272260  0.2499534850997804  0.3159161235761232
  0.4011315578518477  0.2500149894156465  0.4025072832071785
  0.2500126459715162  0.2499054654178252  0.3873669139605056
  0.0988756641310289  0.2501638745888712  0.4025108445880932
  0.1521885981032227  0.2507584840864965  0.4879231824343080
  0.0000759459058131  0.2505353752602417  0.4741336201672439
  0.3478517163220189  0.2501836666396997  0.4879604672849709
  0.4058062784083631  0.2509073515453721  0.5691081947088250
  0.2483273066824410  0.2528957533035339  0.5583872926231876
  0.0964926451548394  0.2543277560631552  0.5694488290741688
  0.4057111145184678  0.2498924534002498  0.2323664139051402
  0.2500014048097015  0.2498287414152287  0.1996101267176300
  0.0942588369164170  0.2499029879564389  0.2323926756174757
  0.1548428939761521  0.3749229984601214  0.3156320891264599
  0.9999529573748305  0.3750232604376222  0.3029447425098653
  0.3453221454446265  0.3748789609225582  0.3156310888976250
  0.4010310986678149  0.3749737397040391  0.4022002379688558
  0.2501348094244094  0.3750042560053615  0.3868452736781194
  0.0991001738541186  0.3750258341721562  0.4021410872054290
  0.1531000127426481  0.3750043486877388  0.4873193310603270
  0.0003636467101984  0.3753855468710015  0.4731728455737141
  0.3476997235746566  0.3746648534709749  0.4877401847536760
  0.4057549816317803  0.3752659423544529  0.5689163564306696
  0.2475509368895032  0.3769102707240037  0.5604279082347006
  0.0980720629159038  0.3755598483591029  0.5682916503165529
  0.4057407880900428  0.3749567135012057  0.2321479855769297
  0.2500114936707476  0.3750125177130386  0.1993565509091155
  0.0942746285743468  0.3749650989017326  0.2321875919812015
  0.1548971744660719  0.9999961808457059  0.3161998570561408
  0.9999885088001577  0.9999960804615000  0.3033512826388147
  0.3450782478326815  0.9999968567834898  0.3161528721124256
  0.4009928015717676  0.9999874182507895  0.4026394592936171
  0.2499153769168814  0.9999864155941083  0.3878114546366049
  0.0988934026972785  0.9999853183886245  0.4027270976449486
  0.1516173768641380  0.9999522539874164  0.4883860036200005
  0.9999592588084383  0.0000030908350865  0.4736670955464390
  0.3482046817002953  0.9999692393784372  0.4881829252456100
  0.4053388502598949  0.9999491915286924  0.5699509573138926
  0.2498618239225223  0.9999705269747352  0.5582313621374624
  0.0945528032092753  0.9999287587249484  0.5701092589865269
  0.4056878616872339  0.5000026742675061  0.2321118165949230
  0.2500210895087349  0.4999985316366562  0.1998019301222627
  0.0943395541775089  0.4999932722039375  0.2321471308422502
  0.1548343812870030  0.6250939798311990  0.3156479747978267
  0.9999635260909159  0.6249868094752742  0.3029285069767127
  0.3453250381542077  0.6251378318018226  0.3156668817094683
  0.4010946147018473  0.6249933642673753  0.4022475244103489
  0.2501020578311923  0.6250288146333745  0.3869291358595888
  0.0989906742929207  0.6249741878412038  0.4021240877689394
  0.1527953484525071  0.6247264967545760  0.4871250600501327
  0.0001802582620698  0.6246088658284918  0.4731789501798360
  0.3477359593785891  0.6249741698297484  0.4876784541471935
  0.4048892242613320  0.6245831617917545  0.5688707344885202
  0.2471767901770150  0.6238019642923760  0.5578586938537526
  0.0985767499435823  0.6242724674564499  0.5683756915399840
  0.4057274856139017  0.6250503238260592  0.2321549481018792
  0.2500132107929431  0.6249860542983470  0.1994089169807438
  0.0942822521417028  0.6250436482653328  0.2321891455231579
  0.1548755730679048  0.7499979424237821  0.3159329064149645
  0.9999708609227866  0.7500408841428765  0.3031485995425527
  0.3451509901185048  0.7500301271225709  0.3159448113019039
  0.4011698279487916  0.7499659543962949  0.4025297584385825
  0.2500131366824476  0.7500904592194289  0.3873529305565171
  0.0988282077011959  0.7498457185979674  0.4024989688500398
  0.1521172122770196  0.7490589850466094  0.4878219272194784
  0.0000136496394063  0.7494660718032264  0.4742375514354933
  0.3479372118611721  0.7498038006813204  0.4879181332288809
  0.4057428167049011  0.7490448574418167  0.5691298547182271
  0.2482248028170488  0.7470770306069738  0.5579905336623696
  0.0965964993463402  0.7454641682804848  0.5693590833284503
  0.4057050034551040  0.7501049286231378  0.2323864826237383
  0.2499952479661474  0.7501721325614312  0.1995790408212343
  0.0942561488072258  0.7500906530634524  0.2324049352170405
  0.1548863700989287  0.8750184645046133  0.3161311138065912
  0.9999936421971967  0.8750005325506507  0.3033511327837317
  0.3450670701156753  0.8750221863216723  0.3160915029354783
  0.4010424924499389  0.8748893873069221  0.4025266089807431
  0.2499130290256986  0.8749354442587531  0.3876656402058742
  0.0988407604000585  0.8748945648396358  0.4026060059480940
  0.1515467454641666  0.8744548124495779  0.4881555867328657
  0.9999117329547857  0.8747885095707488  0.4736363075999179
  0.3480393691016772  0.8749356308268332  0.4879444409690947
  0.4066150365562393  0.8746360499734820  0.5692091427830661
  0.2497801764557508  0.8735801384096078  0.5580197003889467
  0.0936367096619222  0.8739357846857558  0.5696428570159000
  0.4057192395131324  0.8750480306937334  0.2325762638566928
  0.2499894752789231  0.8750337497280825  0.2001417398884513
  0.0942711774617422  0.8750498776599329  0.2325889332491968
  0.1548027697060590  0.5000071035844655  0.3155315957888831
  0.9999490968393019  0.4999950764468224  0.3028993122797985
  0.3453449567207940  0.5000221841968298  0.3155202935948154
  0.4010555646641762  0.5000832943116649  0.4020507261500654
  0.2501714649784859  0.5000245261329539  0.3867077116465509
  0.0990426886321742  0.5000451157121688  0.4020242820507534
  0.1530601492576906  0.5006409025438998  0.4872321897610306
  0.0003133667328541  0.5000414541108640  0.4734972218079463
  0.3476252472751256  0.5005146153431141  0.4876531976215333
  0.4072590569899077  0.5003842773684610  0.5689164528866755
  0.2474412314358077  0.4993030772515610  0.5603515201577380
  0.0968859463479390  0.5006882078661974  0.5682316225926911
  0.9058326938142471  0.9999988574545213  0.2325709980806536
  0.7499929894689288  0.0000031709178216  0.1994416166331305
  0.5942235622533261  0.9999979691911633  0.2325752769528222
  0.6549075053994429  0.1249715851220543  0.3161363070957464
  0.5000256112932320  0.1249894800247873  0.3033514410180231
  0.8450492671856651  0.1249698499809924  0.3161046369643756
  0.9010217997320353  0.1251052427226398  0.4025298351743274
  0.7499127761863846  0.1250631822360546  0.3876719581032759
  0.5988544078027616  0.1251028696505969  0.4026085041859915
  0.6515552770024797  0.1255714805910770  0.4881695256593162
  0.4999216172168133  0.1251961747138495  0.4736175870521748
  0.8480181704735159  0.1250749019031403  0.4879595164257466
  0.9066396444736071  0.1253773471706126  0.5692029221089854
  0.7497640496721942  0.1264636950509583  0.5580279867169438
  0.5936006882481522  0.1261471884955583  0.5696097149138097
  0.9057228727153017  0.1249458255987435  0.2325737157433920
  0.7499990743963494  0.1249651670536451  0.2001719416313890
  0.5942763259147910  0.1249354010008545  0.2325810354964872
  0.6549232714162017  0.2500185838849447  0.3159413835614586
  0.5000283791428188  0.2499452034808840  0.3031338199949758
  0.8451201633300016  0.2499893061799270  0.3159609591688408
  0.9011816529169323  0.2500402249039340  0.4025315517230439
  0.7500120778946524  0.2499369399573581  0.3873590538479306
  0.5988293662421071  0.2501657589560509  0.4025028686724355
  0.6521433138774810  0.2510738052339150  0.4877944973012376
  0.5000046515858614  0.2505250168653177  0.4741328969186540
  0.8479700159907395  0.2503041669409356  0.4878903524684688
  0.9055741269705564  0.2509191689832946  0.5690826864436289
  0.7482649101171788  0.2531263535717798  0.5579628687945046
  0.5968201086466394  0.2546905856205512  0.5693036728659706
  0.9056990015601301  0.2499047072383078  0.2323866515799793
  0.7499946209658859  0.2498168911761525  0.1995207326541291
  0.5942795460351746  0.2499032476689749  0.2323961639703356
  0.6549099479859279  0.3749138344201697  0.3156611098962685
  0.5000480162884244  0.3750224865086409  0.3029201339130125
  0.8452580756394141  0.3748843271868338  0.3157029504311026
  0.9011826699479144  0.3750802654813512  0.4022634642919058
  0.7501114791742722  0.3750111252718469  0.3869378704111028
  0.5989423964125820  0.3750888483801447  0.4021092263716568
  0.6527916623901930  0.3756168660652648  0.4870394787644443
  0.5001065059902601  0.3753904611746748  0.4730863052178123
  0.8479089332973473  0.3751812209116707  0.4875874034629391
  0.9046768789480950  0.3756082964155070  0.5688375251528655
  0.7471814171531719  0.3763279753696978  0.5574668196998189
  0.5990417135653701  0.3761532453589922  0.5682614053058472
  0.9057062490829821  0.3749519066499687  0.2321702999785984
  0.7500079052229083  0.3750056432980955  0.1993757211565779
  0.5943054509318060  0.3749480278091184  0.2321929935973301
  0.6549161763165472  0.9999957443007190  0.3162081219322772
  0.5000124813120479  0.9999930533458254  0.3033528661544409
  0.8450572744847307  0.9999962979492025  0.3161566125600146
  0.9009847797035349  0.9999972836129629  0.4026441082435781
  0.7499186637860618  0.9999977852671620  0.3878288481883487
  0.5989045888899014  0.9999911782013484  0.4027403643999250
  0.6516230878942508  0.9999945008976781  0.4884182444894023
  0.4999916767209172  0.9999948180857032  0.4736703855326354
  0.8481859679072059  0.9999908340582735  0.4881947083365645
  0.9053043754907009  0.9999819368444705  0.5699146156566286
  0.7498487831202993  0.0000023070995923  0.5582415667974203
  0.5945849402959098  0.0000055363689313  0.5701135056701716
  0.9056600278904270  0.5000013496519884  0.2321283042655082
  0.7500174663091030  0.4999934862006370  0.1997123093276372
  0.5943653236491642  0.5000071264196109  0.2321440359336506
  0.6549158111484985  0.6250700676128034  0.3156605107405710
  0.5000391824796964  0.6249920119190477  0.3029145824065083
  0.8452547271443223  0.6250966881511459  0.3157041691760369
  0.9011619815174114  0.6249586507660894  0.4022659014138128
  0.7501070481914880  0.6249897428102287  0.3869322412429952
  0.5989372887658675  0.6249596863455977  0.4021099342858534
  0.6527942595931364  0.6243691194221270  0.4870467132654070
  0.5001502877812953  0.6245933453112400  0.4731359124568257
  0.8478721193333669  0.6248445963716378  0.4876118912084237
  0.9048187553873106  0.6244506504008314  0.5687906357022499
  0.7471255829769348  0.6235660784567401  0.5575015987724115
  0.5987553068041365  0.6238754318269955  0.5681705073658279
  0.9057146415959920  0.6250461096131588  0.2321703621342053
  0.7500110629720922  0.6249947738548016  0.1993311122890802
  0.5942984839653533  0.6250481157899372  0.2321892556554914
  0.6549009880674532  0.7499865316428114  0.3159340167101590
  0.5000146356151447  0.7500427205016535  0.3031441104165893
  0.8451277517034796  0.7500106221951413  0.3159560742573220
  0.9011473805435912  0.7499624064658903  0.4025203997023183
  0.7500054519054586  0.7500683952561431  0.3873595979975093
  0.5988292051485971  0.7498224618605533  0.4024962800652716
  0.6521392618436295  0.7489723885188369  0.4878189002752293
  0.5000318180218528  0.7494296083531538  0.4742540320457493
  0.8479568520805003  0.7497229220515180  0.4879055839477857
  0.9057432610133773  0.7489817278790767  0.5690600293432411
  0.7482485660851736  0.7468629562397382  0.5579809724824258
  0.5965941333501945  0.7452140643942471  0.5693122086779354
  0.9057101981717040  0.7500981118386818  0.2323837709669405
  0.7499922493593587  0.7501803666810645  0.1995650869382146
  0.5942609675674717  0.7500942623655718  0.2323914851505364
  0.6549024621448751  0.8750197920953795  0.3161364634280233
  0.5000212136289477  0.8750007705121661  0.3033498780066424
  0.8450518653237182  0.8750263438838815  0.3160985429332399
  0.9010222645617176  0.8748904373994506  0.4025317089972944
  0.7499087077601700  0.8749239066280765  0.3876800115683494
  0.5988459228521137  0.8748851502071133  0.4026116700777749
  0.6515625885054348  0.8744138895645506  0.4881676192653188
  0.4999507008117590  0.8747956399135219  0.4736129320410285
  0.8480298608157781  0.8749071911017268  0.4879622114953506
  0.9065663922810003  0.8746010935365476  0.5692007190914410
  0.7497540348152114  0.8735288391656510  0.5580221819474431
  0.5936298132683007  0.8738318897484589  0.5696058888067412
  0.9057318962275858  0.8750475542293117  0.2325677207665464
  0.7499892821689187  0.8750332581084805  0.2001300332643652
  0.5942593926123507  0.8750549544928248  0.2325786346834562
  0.6548904434281226  0.5000188664929084  0.3155498822633334
  0.5000528956528143  0.5000033379109396  0.3028861707260262
  0.8452670320176949  0.5000163300684477  0.3155866296370817
  0.9011875200976860  0.4999682042996270  0.4020877748103828
  0.7501390318261230  0.5000071553453651  0.3868064618159437
  0.5989063939333406  0.4999800685738833  0.4019804287729229
  0.6527788419937437  0.5000007234442378  0.4870077589891864
  0.5001060537202662  0.5000542416880549  0.4734270195125134
  0.8477775811228980  0.4999886822082331  0.4875275690433298
  0.9060988390916407  0.5000409174121501  0.5688519339787064
  0.7469801893849564  0.5000354084081380  0.5574344475500439
  0.5978127400548203  0.5000702052736372  0.5682697832436290
  0.0001939731845155  0.1219421880766873  0.5404564378676753
  0.9999737425540971  0.2576517686070261  0.5408928265798281
  0.9994290495498390  0.3724329676837996  0.5398964777442714
  0.1639126562657367  0.3124638948403557  0.5400747916021587
  0.0000024739249369  0.9997417600740093  0.5407924710323755
  0.1613219868714566  0.4379855585695651  0.5383822956351381
  0.9994879079122612  0.6271423117934631  0.5398806900680739
  0.1631604155938646  0.5633005981532833  0.5395538168934024
  0.0003079409802851  0.7422247793908028  0.5410319585248331
  0.1647506512974246  0.6868467430160905  0.5397344249267704
  0.0001677820500205  0.8783927876857405  0.5404769455737650
  0.9993374183031207  0.5003821286411991  0.5400572291090384
  0.5002059913573760  0.1216584722426433  0.5404670119159718
  0.5006940810003897  0.2580546953216825  0.5408824982670524
  0.5006151948776463  0.3721583589994637  0.5398013888928190
  0.6647903357465310  0.3136270552875331  0.5396634675636349
  0.4999755228160865  0.0000000447034481  0.5408035841673993
  0.6642286759342966  0.4379722791083935  0.5392130114411202
  0.5001891067070687  0.6269135781724984  0.5398062897578413
  0.6642827557133231  0.5620308141162553  0.5392082885227651
  0.5002603183446155  0.7422020419922859  0.5410419797130643
  0.6645429239201803  0.6863987242361063  0.5396373688547271
  0.5001670312394921  0.8781935747147855  0.5404528513755409
  0.5006723224901819  0.5007156198899025  0.5399728533672388
  0.2448354405257192  0.4382087465014095  0.6082487204983806
 
  0.00000000E+00  0.00000000E+00  0.00000000E+00
  0.00000000E+00  0.00000000E+00  0.00000000E+00
  0.00000000E+00  0.00000000E+00  0.00000000E+00
  0.00000000E+00  0.00000000E+00  0.00000000E+00
  0.00000000E+00  0.00000000E+00  0.00000000E+00
  0.00000000E+00  0.00000000E+00  0.00000000E+00