Mo  S Cu                                
   1.00000000000000     
    15.9214998300000001    0.0000000000000000    0.0000000000000000
    -7.9622501300000001   13.7910221699999997    0.0000000000000000
     0.0000000000000000    0.0000000000000000   13.5821998300000004
    25    50     3
Direct
  0.1317178455038941  0.0655546500239344  0.6763818663375915
  0.1329189967426310  0.2651113614206592  0.6796220821131749
  0.1326312338113613  0.4653509397485032  0.6792922068390471
  0.1324291663623538  0.6658038218606253  0.6779867842500691
  0.1328299495444887  0.8661684544491555  0.6767730556933826
  0.3321756587779232  0.0650720738616576  0.6793034897724107
  0.3338322059640167  0.2664455516054019  0.6790360497650108
  0.3336580549656433  0.4662719259509988  0.6783128208351188
  0.3328922369626763  0.6660257703222076  0.6772303912183064
  0.3328247518214283  0.8658846007755240  0.6771534320455110
  0.5333086341051080  0.0657618695855050  0.6776136000039513
  0.5308970577972163  0.2660105555959153  0.6785308718348061
  0.5346259247288018  0.4692210082213085  0.6719954257894326
  0.5330457956949501  0.6673377710768041  0.6753290525254996
  0.5327026247887615  0.8659933404794973  0.6767147197703123
  0.7332925622763080  0.0662091288474998  0.6784571428315600
  0.7322184317505781  0.2654321625553971  0.6836929966488851
  0.7323812156660917  0.4661041312737542  0.6820661098844629
  0.7341093721609766  0.6674364567183023  0.6757891041606272
  0.7330209756663936  0.8664819968278272  0.6758909043086305
  0.9325881538458144  0.0657727077106264  0.6773486451429465
  0.9332656792897964  0.2652308720269235  0.6788829013478820
  0.9324882791968994  0.4656665343411348  0.6817278535241301
  0.9333581511816507  0.6671774361643543  0.6767554808786910
  0.9329083687215156  0.8663987476626754  0.6760059734132319
  0.0661824745944754  0.1334431408801509  0.5624756464271192
  0.0649348901646493  0.1308909709111740  0.7934644834945005
  0.0663241649532573  0.3318751678335337  0.5641840528815478
  0.0666159620442661  0.3321086727067333  0.7946722369243761
  0.0645293281576630  0.5310599697287053  0.5645357518793106
  0.0675049462962165  0.5335330669114370  0.7949231673903310
  0.0661982276468597  0.7324214377448091  0.5618221280065979
  0.0664676497423014  0.7336030475538808  0.7925565424038926
  0.0664087150282607  0.9330230071355923  0.5609583267717684
  0.0653794895361345  0.9322173720594668  0.7918583852839922
  0.2669231901165768  0.1332080235532742  0.5635216874443478
  0.2637076752211589  0.1292436640611813  0.7953749206181148
  0.2662075512320871  0.3319632906966696  0.5645520495880385
  0.2669193995897963  0.3332027066316041  0.7972075544468535
  0.2653868968646129  0.5316180708042930  0.5632942790137760
  0.2670485815560242  0.5332301673876794  0.7931898130888887
  0.2654676725350388  0.7320996158959225  0.5622333817116653
  0.2663289145077732  0.7326970313402883  0.7924618466744068
  0.2665354478458828  0.9331494580304273  0.5621249420676913
  0.2649558157932375  0.9304553421972248  0.7932473166261986
  0.4659070033975364  0.1329718844055811  0.5637736299514652
  0.4642765800942622  0.1294446053379045  0.7957674251186232
  0.4656998467676454  0.3320072657172546  0.5611390149327473
  0.4698619493461796  0.3402324053090581  0.7916945695075320
  0.4651763804891058  0.5340241751418162  0.5597204825366889
  0.4684473504162342  0.5349967847160650  0.7907800373365517
  0.4654992606787546  0.7333092158974828  0.5608931365583009
  0.4665347546829209  0.7329116684388507  0.7920798475814739
  0.4665210651723419  0.9333678878431357  0.5618533165236297
  0.4659810181405843  0.9317987971844465  0.7925855644601930
  0.6673231371602167  0.1347071388883584  0.5648303108129971
  0.6651179929717833  0.1297306656411238  0.7957321847696402
  0.6661644326914140  0.3321692373827886  0.5678889734200002
  0.6664050071363126  0.3334541459801538  0.8056645103556042
  0.6694862634367144  0.5333392940693183  0.5612472168452536
  0.6656536526976684  0.5358699464588955  0.7924867258708058
  0.6666749749047030  0.7334049825214233  0.5603563958114920
  0.6664095911095024  0.7334243578317118  0.7906798451109367
  0.6663656328152676  0.9339661501478089  0.5617316370925929
  0.6660334185644476  0.9318424729071745  0.7921047713595788
  0.8663510484401168  0.1333189195624995  0.5627880485932121
  0.8662766742931619  0.1314472831328845  0.7939017145300357
  0.8646640114587382  0.3321625523920327  0.5667795535571171
  0.8667358642214803  0.3322141597159852  0.7991288670842166
  0.8650473481255840  0.5308808762941883  0.5655746222720625
  0.8667082511112599  0.5343707421321947  0.7977021020464984
  0.8673236182364178  0.7332862075604993  0.5606458402763427
  0.8665101425510646  0.7340542479844747  0.7918685484728993
  0.8664897025833901  0.9334883232217045  0.5609037558397408
  0.8656616072816509  0.9320721039674658  0.7917063828622125
  0.3488697536263080  0.2542718520191377  0.9031062022669681
  0.5029149107492729  0.2527355604609132  0.9048042849838799
  0.8040192628542142  0.4022735687342864  0.9024422743446447
 
  0.00000000E+00  0.00000000E+00  0.00000000E+00
  0.00000000E+00  0.00000000E+00  0.00000000E+00
  0.00000000E+00  0.00000000E+00  0.00000000E+00
  0.00000000E+00  0.00000000E+00  0.00000000E+00
  0.00000000E+00  0.00000000E+00  0.00000000E+00
  0.00000000E+00  0.00000000E+00  0.00000000E+00
  0.00000000E+00  0.00000000E+00  0.00000000E+00
  0.00000000E+00  0.00000000E+00  0.00000000E+00
  0.00000000E+00  0.00000000E+00  0.00000000E+00
  0.00000000E+00  0.00000000E+00  0.00000000E+00
  0.00000000E+00  0.00000000E+00  0.00000000E+00
  0.00000000E+00  0.00000000E+00  0.00000000E+00
  0.00000000E+00  0.00000000E+00  0.00000000E+00
  0.00000000E+00  0.00000000E+00  0.00000000E+00
  0.00000000E+00  0.00000000E+00  0.00000000E+00
  0.00000000E+00  0.00000000E+00  0.00000000E+00
  0.00000000E+00  0.00000000E+00  0.00000000E+00
  0.00000000E+00  0.00000000E+00  0.00000000E+00
  0.00000000E+00  0.00000000E+00  0.00000000E+00
  0.00000000E+00  0.00000000E+00  0.00000000E+00
  0.00000000E+00  0.00000000E+00  0.00000000E+00
  0.00000000E+00  0.00000000E+00  0.00000000E+00
  0.00000000E+00  0.00000000E+00  0.00000000E+00
  0.00000000E+00  0.00000000E+00  0.00000000E+00
  0.00000000E+00  0.00000000E+00  0.00000000E+00
  0.00000000E+00  0.00000000E+00  0.00000000E+00
  0.00000000E+00  0.00000000E+00  0.00000000E+00
  0.00000000E+00  0.00000000E+00  0.00000000E+00
  0.00000000E+00  0.00000000E+00  0.00000000E+00
  0.00000000E+00  0.00000000E+00  0.00000000E+00
  0.00000000E+00  0.00000000E+00  0.00000000E+00
  0.00000000E+00  0.00000000E+00  0.00000000E+00
  0.00000000E+00  0.00000000E+00  0.00000000E+00
  0.00000000E+00  0.00000000E+00  0.00000000E+00
  0.00000000E+00  0.00000000E+00  0.00000000E+00
  0.00000000E+00  0.00000000E+00  0.00000000E+00
  0.00000000E+00  0.00000000E+00  0.00000000E+00
  0.00000000E+00  0.00000000E+00  0.00000000E+00
  0.00000000E+00  0.00000000E+00  0.00000000E+00
  0.00000000E+00  0.00000000E+00  0.00000000E+00
  0.00000000E+00  0.00000000E+00  0.00000000E+00
  0.00000000E+00  0.00000000E+00  0.00000000E+00
  0.00000000E+00  0.00000000E+00  0.00000000E+00
  0.00000000E+00  0.00000000E+00  0.00000000E+00
  0.00000000E+00  0.00000000E+00  0.00000000E+00
  0.00000000E+00  0.00000000E+00  0.00000000E+00
  0.00000000E+00  0.00000000E+00  0.00000000E+00
  0.00000000E+00  0.00000000E+00  0.00000000E+00
  0.00000000E+00  0.00000000E+00  0.00000000E+00
  0.00000000E+00  0.00000000E+00  0.00000000E+00
  0.00000000E+00  0.00000000E+00  0.00000000E+00
  0.00000000E+00  0.00000000E+00  0.00000000E+00
  0.00000000E+00  0.00000000E+00  0.00000000E+00
  0.00000000E+00  0.00000000E+00  0.00000000E+00
  0.00000000E+00  0.00000000E+00  0.00000000E+00
  0.00000000E+00  0.00000000E+00  0.00000000E+00
  0.00000000E+00  0.00000000E+00  0.00000000E+00
  0.00000000E+00  0.00000000E+00  0.00000000E+00
  0.00000000E+00  0.00000000E+00  0.00000000E+00
  0.00000000E+00  0.00000000E+00  0.00000000E+00
  0.00000000E+00  0.00000000E+00  0.00000000E+00
  0.00000000E+00  0.00000000E+00  0.00000000E+00
  0.00000000E+00  0.00000000E+00  0.00000000E+00
  0.00000000E+00  0.00000000E+00  0.00000000E+00
  0.00000000E+00  0.00000000E+00  0.00000000E+00
  0.00000000E+00  0.00000000E+00  0.00000000E+00
  0.00000000E+00  0.00000000E+00  0.00000000E+00
  0.00000000E+00  0.00000000E+00  0.00000000E+00
  0.00000000E+00  0.00000000E+00  0.00000000E+00
  0.00000000E+00  0.00000000E+00  0.00000000E+00
  0.00000000E+00  0.00000000E+00  0.00000000E+00
  0.00000000E+00  0.00000000E+00  0.00000000E+00
  0.00000000E+00  0.00000000E+00  0.00000000E+00
  0.00000000E+00  0.00000000E+00  0.00000000E+00
  0.00000000E+00  0.00000000E+00  0.00000000E+00
  0.00000000E+00  0.00000000E+00  0.00000000E+00
  0.00000000E+00  0.00000000E+00  0.00000000E+00
  0.00000000E+00  0.00000000E+00  0.00000000E+00
