Ta  N Co Cu                             
   1.00000000000000     
    18.1096308199999996    0.0000000000000000    0.0000000000000000
     0.0000000000000000   23.3551997799999995    0.0000000000000000
     0.0000000000000000    0.0000000000000000   30.4818171199999988
   Ta   N    Co   Cu
   216   240    24     1
Direct
  0.0012969817758801  0.9999995065307203  0.1972548241301908
  0.3353529859199682  0.0626689145310451  0.2025784092622089
  0.1671394367927164  0.0626856313024362  0.2024913963768142
  0.2515447391452881  0.1249398110563789  0.2780004515385244
  0.0843833179529199  0.0625011391444517  0.2837883782885555
  0.4188279004750228  0.0624917037886874  0.2838489646822637
  0.0022491099968960  0.1248066719606342  0.3692669964052158
  0.3344667605107219  0.0623555914458507  0.3684194383638513
  0.1698120282973505  0.0623600843944843  0.3682466374177125
  0.2537546036974447  0.1242380933216793  0.4559777462710386
  0.0859015287869056  0.0620756002741203  0.4539055553230682
  0.4209955527881277  0.0622136038561649  0.4534305774356682
  0.3409482094697580  0.0624112724159289  0.5414754588181125
  0.1671297798803053  0.0646544839113545  0.5421124283291832
  0.0011825527882579  0.1251896797914824  0.1974296430693627
  0.3347779979764738  0.1878051417966304  0.2030445964342817
  0.1673807581696778  0.1878232741323487  0.2029847733857011
  0.2509063275897816  0.2502628443174686  0.2785901359992664
  0.0840357049131910  0.1876269508036827  0.2841973021874296
  0.4184596504926930  0.1876258797826438  0.2842993791375505
  0.0015577851596831  0.2499656388406493  0.3700934863920224
  0.3340019104486629  0.1872492170211757  0.3688477594675206
  0.1692762750147594  0.1872724204580152  0.3686207869728406
  0.2528832352057009  0.2465202389511987  0.4555855607393653
  0.0852877683813986  0.1859137020933304  0.4537744186492603
  0.4202953960893723  0.1865098448179552  0.4537219291446064
  0.3459752538448910  0.1859542150448164  0.5425931758304330
  0.1732394809692153  0.1939893643078747  0.5417423749702053
  0.0007611766483393  0.2508208730519925  0.1980522817614485
  0.3352513608985035  0.3129025594227173  0.2033729178124446
  0.1661261919478250  0.3128802253701224  0.2033682518326216
  0.2501228941032849  0.3751401232493805  0.2795995694866775
  0.0835105631850297  0.3126289658770318  0.2849697830665860
  0.4177832069707677  0.3126485092226403  0.2851316244513953
  0.0004006747147471  0.3745707170169368  0.3707378684951337
  0.3324990569982944  0.3125871099596012  0.3694380111115407
  0.1681827540797514  0.3125753595779557  0.3696149144177454
  0.2461960733850077  0.3744642194426220  0.4631135570279170
  0.0844212132733375  0.3112786579301172  0.4569448383955503
  0.4179496363404311  0.3118126629624314  0.4544914358012733
  0.3389018666583894  0.3095280222866563  0.5434838779112852
  0.0005035071062878  0.3752702390373983  0.1986594634136907
  0.3345258444788612  0.4376479476540069  0.2039193764089831
  0.1663022268959153  0.4377214893107535  0.2039518600615935
  0.2517752048919988  0.9999692472123769  0.2780883223310440
  0.0831707213488144  0.4375159304722587  0.2854563379168198
  0.4169738240630849  0.4375251129162550  0.2856861574152632
  0.0025947384602105  0.9999873178250667  0.3691592596936104
  0.3304852920538579  0.4373001472916869  0.3705094932075852
  0.1679324541862428  0.4372833272513219  0.3706012205427669
  0.2533523676037319  0.0000360028021476  0.4558708962725007
  0.0800871921712485  0.4373742525157596  0.4547309714472050
  0.4167197819692845  0.4367959680848656  0.4540433424501771
  0.3326656579952996  0.4372052910473911  0.5399886188834913
  0.0003063184067926  0.4999565598672078  0.1988755534282660
  0.3344521335948301  0.5623513798030544  0.2039729557831791
  0.1663812850899546  0.5622503125387297  0.2039708932178144
  0.2501119113341872  0.6247941486752495  0.2795715871599143
  0.0831842858389180  0.5624123977600348  0.2854060941833723
  0.4168989980343554  0.5624221381168724  0.2857539888866967
  0.0002022188015403  0.6253918830393417  0.3706321495336624
  0.3303841731648731  0.5625300721684354  0.3705942922488958
  0.1678286207066080  0.5625301643262688  0.3705465485526318
  0.2456708477451599  0.6251350072797663  0.4626141518877631
  0.0798899101020183  0.5623972669420709  0.4546051389228225
  0.4162618478357274  0.5629114859104547  0.4542104491476948
  0.3330773028592802  0.5606643482124127  0.5411151031192531
  0.0004638369441352  0.6247476767922251  0.1986482956347757
  0.3352710718356420  0.6870683107462341  0.2034503165204171
  0.1661861353750567  0.6871298664804897  0.2033606405725124
  0.2509207823977420  0.7496995241851891  0.2786350422492205
  0.0834474264756224  0.6873481351189241  0.2849184285739383
  0.4175901563382425  0.6873040400408570  0.2853021872788588
  0.0014048569250775  0.7500269336292504  0.3700324302107987
  0.3323960335736160  0.6873383354951201  0.3697205545592510
  0.1679358786800265  0.6873689190624148  0.3695507948834873
  0.2523707140619891  0.7535677873554008  0.4554636555629017
  0.0839335267454686  0.6886565896494332  0.4565821242683370
  0.4174782946074842  0.6878437669742326  0.4550733563410105
  0.3296396685461005  0.6909709060774247  0.5421915235379444
  0.0007394506131959  0.7492062778326414  0.1980475744405723
  0.3348755873770912  0.8121135386270595  0.2031212784698866
  0.1673335890806769  0.8121501042406649  0.2029879019461163
  0.2515396169993451  0.8749999620585101  0.2780301712100908
  0.0839839282117794  0.8123471484496321  0.2841829940977689
  0.4183777220999403  0.8123043479939511  0.2844595509884797
  0.0021892965132082  0.8751732941387189  0.3692835998125901
  0.3339533088198650  0.8126748600863110  0.3690794748053676
  0.1691665216603297  0.8126995201512344  0.3686176150643519
  0.2537023676319521  0.8755249615331167  0.4560301380347553
  0.0852562507098966  0.8140085228737064  0.4538366338188808
  0.4199405185688363  0.8132652523728652  0.4542315190016666
  0.3459146552004029  0.8153189917558947  0.5434428329357388
  0.1729359723248081  0.8067754816689074  0.5418755880628652
  0.0011627384391844  0.8747574549912613  0.1974235159839353
  0.3353379632272819  0.9372314171517218  0.2026279240920346
  0.1671654545019763  0.9372645651544147  0.2025155623498733
  0.2498854554387506  0.4999466744276049  0.2797674095002378
  0.0843604532728932  0.9374786658661876  0.2837880786267135
  0.4187927202419388  0.9374352237755872  0.2839121553541943
  0.9993570052135041  0.4999402346657291  0.3705167852511551
  0.3344157098922480  0.9375462218932284  0.3684944813009281
  0.1698049841986062  0.9375842992976331  0.3682466496908745
  0.2439874969964535  0.4999652823112228  0.4631559199478659
  0.0858778615136728  0.9378553826315184  0.4539199127107949
  0.4209633709299467  0.9377771458499780  0.4535559558574249
  0.3411445631740904  0.9384608916662955  0.5413920194066151
  0.1672392038467265  0.9357498141256428  0.5420695506779012
  0.5012823894169429  0.9999829008099184  0.1973162354598443
  0.8352521919860010  0.0627033053460906  0.2025375494244912
  0.6670600582846120  0.0627012133358917  0.2024964377654399
  0.7515472987766856  0.1249606892644692  0.2779828540011451
  0.5843824220244187  0.0624844850972792  0.2838295692013446
  0.9188246824027999  0.0625211377816157  0.2837778869336205
  0.5022232448774631  0.1248000378826291  0.3692956520548449
  0.8344984644055344  0.0623841245234829  0.3683780752810648
  0.6698204225965370  0.0623678358745252  0.3682502165596873
  0.7537683897067495  0.1242716702304349  0.4559771419050946
  0.5858400884931143  0.0620680678808228  0.4538854519301267
  0.9210803322010293  0.0622215510021888  0.4534166045623920
  0.8410521776028048  0.0621332888590729  0.5413999958052642
  0.6671603675762157  0.0645708468835196  0.5420792973644950
  0.5011681097657359  0.1251894330690959  0.1974518941627323
  0.8347184795187275  0.1878290827955666  0.2030219603137482
  0.6673162072049479  0.1878166673795576  0.2029802432624166
  0.7509229639805497  0.2502624656928063  0.2785784223650225
  0.5840440693425322  0.1876274113458223  0.2842315450702202
  0.9184544138774342  0.1876382889157284  0.2842678149491888
  0.5015908552503632  0.2499285699160581  0.3700872725369635
  0.8340477172339078  0.1872727453466680  0.3688429500307606
  0.6692991675170603  0.1872636995611643  0.3686378366636234
  0.7528728273484191  0.2465343841031284  0.4555541808914398
  0.5853547146538247  0.1858997510980274  0.4537914469542059
  0.9202827824994415  0.1865564174126533  0.4537326677805424
  0.8461010979127650  0.1858636291857181  0.5426754668465961
  0.6734828210685535  0.1938663918057273  0.5417414040069772
  0.5007652003054730  0.2508270884401398  0.1980685164049021
  0.8352006448103850  0.3128971460170149  0.2033531191115827
  0.6661241675807545  0.3128455329698880  0.2033705433666881
  0.7501268756129562  0.3751511343020866  0.2795602093240319
  0.5835206745930250  0.3126270947294998  0.2849769132308779
  0.9177832546849487  0.3126628502065216  0.2850948851003494
  0.5003660271131807  0.3745694596169287  0.3707457038144852
  0.8325244426685003  0.3126020298984784  0.3694154448909401
  0.6682192058449274  0.3125907977326818  0.3696154342667057
  0.7461724448730251  0.3743019871762598  0.4630721976711740
  0.5844149694431451  0.3112556257407633  0.4568455644131717
  0.9178714534797194  0.3119152566305914  0.4545579091432828
  0.8388726799743225  0.3094759635241502  0.5436512880424829
  0.5005010086328952  0.3752954613487915  0.1987089041210837
  0.8344475041034016  0.4376123650784649  0.2038572270485304
  0.6662357926031035  0.4377530560213359  0.2039766596201460
  0.7517298383183331  0.9999977054404354  0.2780501774203401
  0.5831813626191362  0.4375384341567283  0.2855105439486252
  0.9170016448196208  0.4375333599588842  0.2855851157862617
  0.5025155235096861  0.9999620401079312  0.3692400546247256
  0.8305021002320814  0.4373335259252471  0.3704343159814911
  0.6680011800976970  0.4373123381472723  0.3705825634782869
  0.7533279065073089  0.0000362429451926  0.4558898852003637
  0.5799560181875165  0.4373983608398717  0.4546004385955627
  0.9166034557785352  0.4368974041742675  0.4539932241403051
  0.8323924920786254  0.4381595890444814  0.5399707705072387
  0.5003125428090556  0.4999680030907925  0.1990008350896986
  0.8343407005222971  0.5623468731108190  0.2038646536809239
  0.6662550232174596  0.5623075473913701  0.2040197201898550
  0.7500135052785097  0.6248650782110090  0.2795570256217417
  0.5831076476378243  0.5624490931626269  0.2855259105403647
  0.9169718817364512  0.5624448063255230  0.2855593440259767
  0.5000739295336913  0.6253195816529313  0.3709170934071153
  0.8304206902713887  0.5625946719542227  0.3704024698909478
  0.6679242323878043  0.5625960710980920  0.3705970317201377
  0.7463257087585262  0.6255430136193141  0.4627047354204024
  0.5800685682523508  0.5624606707902444  0.4546777457504660
  0.9164891065286440  0.5630397329528734  0.4538742116926073
  0.8317662454039478  0.5622146101448493  0.5398590726527956
  0.5004059344922496  0.6247213698651990  0.1988007090432689
  0.8351210570889620  0.6871102864837866  0.2033302311421821
  0.6660229391845078  0.6871610740764069  0.2034534597063171
  0.7507576364126223  0.7497282750555669  0.2786337086574235
  0.5832966265126913  0.6873430536200047  0.2850700769506247
  0.9177470583553458  0.6873313971183066  0.2850449037651757
  0.5011395735338695  0.7499903926130500  0.3703708944027326
  0.8323823662914265  0.6874028957727418  0.3693348403064007
  0.6680635166066367  0.6873986525127549  0.3695628994952997
  0.7528586691779893  0.7535485844370697  0.4554733440650622
  0.5842313066196354  0.6887480326958553  0.4567504487211309
  0.9176645213443706  0.6880785593302434  0.4544167977649778
  0.8383706688643144  0.6906207279621270  0.5434758671870270
  0.5006560780003255  0.7491706277963175  0.1981724579048745
  0.8347048457581039  0.8121964831633832  0.2030022771384665
  0.6671145433010253  0.8121291595546367  0.2030358948021629
  0.7514389123981644  0.8749916102980535  0.2780159550292609
  0.5839027148286959  0.8123240516824524  0.2843080074012221
  0.9183776400611521  0.8123480198637054  0.2842651573860522
  0.5020809266016855  0.8750996414117367  0.3694375008747244
  0.8339451001611522  0.8127403594919187  0.3687949371042123
  0.6692275308110140  0.8127336998856194  0.3686174152864581
  0.7537275663865017  0.8757811106193927  0.4559977203767218
  0.5851707853825303  0.8140350870636652  0.4538092329769654
  0.9201703407467363  0.8134370970299187  0.4536812819816163
  0.8461440986442881  0.8142750183255103  0.5425828541202335
  0.6733815187259040  0.8062115781002319  0.5416268060416627
  0.5011238933868398  0.8747530565801398  0.1975191101568328
  0.8352042828524446  0.9372908857765054  0.2025534765330619
  0.6670226279368663  0.9372449696444320  0.2025462504683020
  0.7498625382555488  0.5000137485616492  0.2797315164688996
  0.5843302025717136  0.9374516596096356  0.2838748074858870
  0.9187992956460107  0.9374766648739907  0.2837743416486944
  0.4993345232564153  0.4999578156056472  0.3706299783882372
  0.8344477165360260  0.9376193454986250  0.3683844867039383
  0.6697893144962848  0.9376154329846429  0.3683029091006063
  0.7438296284733283  0.5000259737005592  0.4630885608438859
  0.5857901820100437  0.9379155433529149  0.4539258352002307
  0.9211032589834502  0.9378065478069786  0.4534083961240967
  0.8410806225468050  0.9379785615158056  0.5414102184090694
  0.6672074690849570  0.9354435748712930  0.5420147250954983
  0.4068975459330417  0.9999579335536382  0.2321435953125928
  0.2512521669105396  0.9999683785143958  0.1999691609974903
  0.0958413205130739  0.9999792956767521  0.2320648368660230
  0.1565140570039460  0.1249826425687388  0.3157359059519038
  0.0015169793975787  0.1250415032150798  0.3026617818331374
  0.3466398967640174  0.1249548936445777  0.3158276178039472
  0.4035875329548091  0.1246514190795267  0.4019040490218870
  0.2520127352898740  0.1245312889437074  0.3878717833891159
  0.1008928619480898  0.1244475915283516  0.4019556452315456
  0.1538939926731757  0.1248445048135238  0.4867471995220853
  0.0032154404427658  0.1241433348876129  0.4750640454511910
  0.3544548313391331  0.1236549238235156  0.4872007181866849
  0.4132153303114379  0.1218343267202471  0.5660691881855371
  0.2554410638967610  0.1221313098904062  0.5560624967543006
  0.1025901054083818  0.1302370335577194  0.5654217615020372
  0.4068021529678205  0.1252535127978760  0.2322900825134937
  0.2511421603410540  0.1251525989489579  0.1988261477505304
  0.0956339436343612  0.1252297161496401  0.2322197269820379
  0.1560596424828944  0.2501520060445017  0.3164305229622002
  0.0010069232030148  0.2500615169272322  0.3034460297269206
  0.3458196851114437  0.2500201347434725  0.3164396585362468
  0.4023813559792231  0.2498380449417965  0.4023268175261876
  0.2511189937042175  0.2499802681292920  0.3882993766445182
  0.1003804880513997  0.2497325662354442  0.4025504452324427
  0.1545389469319645  0.2448894735019564  0.4851667739709882
  0.0020124893030200  0.2484153028942657  0.4748004842260443
  0.3524096912759020  0.2483187772790814  0.4876675544960847
  0.4148960392810395  0.2473215016237305  0.5656488095977252
  0.2623965335000804  0.2403512325743336  0.5610446947177508
  0.0968040494572833  0.2602545010822226  0.5612347545675860
  0.4064207130797897  0.2504576558623910  0.2329863812169535
  0.2508973916716357  0.2506940543951046  0.2000131412109880
  0.0952797407473440  0.2503824546835247  0.2328591762736067
  0.1552663524471782  0.3751412753443759  0.3173645234003217
  0.0004045776980419  0.3750592352236453  0.3040971428262864
  0.3450074316619123  0.3751492634657083  0.3172363240513931
  0.4007507649229680  0.3743832997164063  0.4026000023013196
  0.2495181455595485  0.3746737948086576  0.3913282528250335
  0.0991727608624586  0.3736665510233266  0.4034481908327692
  0.1425183082517947  0.3764593569872048  0.4885078515081460
  0.9978933980498326  0.3739937621058900  0.4748221731192714
  0.3515857949775523  0.3744433637796831  0.4873474715599428
  0.3921597897133466  0.3741871317456145  0.5710891444915589
  0.2445044384937489  0.3588688407509935  0.5369289711936176
  0.0684470392055516  0.3794236985883046  0.5638581463162993
  0.4059715577792247  0.3752532738431071  0.2336433120748325
  0.2505421744599232  0.3751581018032155  0.2014669351584004
  0.0949658015165440  0.3751900494873865  0.2335571658035605
  0.1566458590693429  0.9999773388748068  0.3156446824764032
  0.0017009269946371  0.9999963414049517  0.3025168057603267
  0.3468853956454225  0.9999500289752419  0.3157584954498702
  0.4039071074435299  0.9999471315073052  0.4018149271518183
  0.2522034879655237  0.9999545720857270  0.3878123257507511
  0.1012582716084580  0.9999632085701435  0.4019664302606714
  0.1537384776139916  0.9999706889445577  0.4872280306834185
  0.0035254477255222  0.9999410717972310  0.4751403094462958
  0.3538451973930350  0.0001458267991765  0.4868851940019141
  0.4126001826703387  0.0003664512221206  0.5646345857048516
  0.2545515904909053  0.9999517697332578  0.5564700449073499
  0.0990581538657196  0.9999873257584326  0.5652438128076511
  0.4056737807798712  0.4999955867342152  0.2338539432740419
  0.2505010807668313  0.4999649687554708  0.2001879670025133
  0.0947924617618554  0.4999625774297840  0.2337199545269115
  0.1552774862717143  0.6247829407604542  0.3173086295390064
  0.0003792612947890  0.6249017741406604  0.3040057757960142
  0.3448277851318977  0.6247902149348761  0.3173941414297943
  0.4004338799478830  0.6254738073381674  0.4028644842911362
  0.2492942463487111  0.6251673913547648  0.3913145701253740
  0.0989624041295301  0.6261563712038907  0.4032022790054555
  0.1416805105903904  0.6235575349235631  0.4879363877483627
  0.9975443508509017  0.6258712241514175  0.4745769420449690
  0.3505801508850794  0.6246884262820700  0.4880541299723191
  0.3882850492063739  0.6274556259776602  0.5734436455268650
  0.2396815440758999  0.6438546658288615  0.5361309854403942
  0.0675159539334445  0.6196338066728089  0.5639268466220528
  0.4059142332860475  0.6247358534077705  0.2337665140391181
  0.2505237925685577  0.6248418478690283  0.2012428356944724
  0.0949458309240470  0.6247825077072164  0.2334938813758569
  0.1560171006793567  0.7498211042614358  0.3164065138281842
  0.0009597493619253  0.7499276016575891  0.3034037675496322
  0.3457303323175509  0.7498983861322301  0.3166785268725221
  0.4019627623435014  0.7500157660773752  0.4028576872380825
  0.2509296317790302  0.7499908348393092  0.3883136105411964
  0.1002207046786197  0.7503174747954091  0.4024785216208215
  0.1544377759626627  0.7548895015995214  0.4853534302191420
  0.0017897376535814  0.7515323997578847  0.4747313887330549
  0.3516489402351510  0.7513199655088627  0.4890352395606783
  0.4192392062035850  0.7579193056228064  0.5692617237253188
  0.2623186019935986  0.7601317692799441  0.5627294033233596
  0.0958222184385349  0.7402082626926685  0.5613961819205500
  0.4063499684862251  0.7494994228848952  0.2331665060271320
  0.2508995388319946  0.7493053126216935  0.2001533943740270
  0.0952604678938940  0.7496089481044024  0.2328443321488507
  0.1564846456058433  0.8749669712198767  0.3157333185104818
  0.0014834420308389  0.8749387626687692  0.3026518257991739
  0.3465931797101192  0.8749443485106312  0.3159632670153769
  0.4034838606296418  0.8751690889133457  0.4021462303825416
  0.2519521435511365  0.8754230524348756  0.3879323895685332
  0.1008307680257303  0.8754881995708672  0.4019546123840740
  0.1539410192124890  0.8750479848886457  0.4868567132576871
  0.0031923023390448  0.8757933035898233  0.4750081087881526
  0.3543367840166027  0.8762380293156937  0.4874769399653118
  0.4131815468552205  0.8792802929057899  0.5664942358323515
  0.2559392430002703  0.8774735388846935  0.5559478367994117
  0.1029094946800981  0.8699179836100512  0.5655664325939824
  0.4067836858599136  0.8746590533928327  0.2324083086983606
  0.2511657509245282  0.8747597011242334  0.1988937110907827
  0.0956051582194135  0.8747317081580164  0.2322171430780244
  0.1551073891302792  0.4999549667224130  0.3176177650642060
  0.0000379996598951  0.4999818167729444  0.3040267434462933
  0.3443948254588136  0.4999596375693827  0.3175966697740549
  0.3996807343733764  0.4999307045308825  0.4024185577182493
  0.2487904723112635  0.4998374747948446  0.3918349315750049
  0.0985438585477851  0.4998906832494470  0.4028244603411864
  0.1405949009141096  0.4999817683229466  0.4894160136416943
  0.9962772980371426  0.4999259700413461  0.4732795465374338
  0.3508039586029241  0.4996909647461152  0.4861043805992011
  0.3953784169524823  0.5000325756760517  0.5685027686941453
  0.2526918237544251  0.5008896592241712  0.5434349749492995
  0.0644853441711177  0.4993695587242044  0.5661893304264822
  0.9068657655411627  0.9999936759246140  0.2320397493785791
  0.7511067928729531  0.9999757979710324  0.1999610864113777
  0.5958030663154119  0.9999713907581125  0.2321281540938642
  0.6565464753140162  0.1249792612061924  0.3157491578466036
  0.5015220909379181  0.1250273135841411  0.3027008379593852
  0.8466620790437389  0.1249812323910078  0.3158037270120033
  0.9036150319977168  0.1246740032005107  0.4018892751032865
  0.7520499210031488  0.1245175928534934  0.3878739362055157
  0.6008991954765577  0.1244474547404550  0.4019581778890711
  0.6538874776564114  0.1248102890862626  0.4867272123488746
  0.5032118318715533  0.1241588916997500  0.4750650927174433
  0.8545002019752843  0.1236280589513328  0.4871814621564710
  0.9130536033923917  0.1216743487607701  0.5661447711123486
  0.7553707343725478  0.1219601458204593  0.5558977572449209
  0.6025681348014018  0.1302548859796318  0.5653971220941898
  0.9067731960555108  0.1252716290613165  0.2322331952327232
  0.7510772783463437  0.1251723498212485  0.1987868556902157
  0.5956025033948507  0.1252368614181805  0.2322551210550898
  0.6560828221911024  0.2501477250885245  0.3164353138509526
  0.5010179948660181  0.2500570882429685  0.3034561785676928
  0.8458298039633476  0.2500328295739962  0.3164225626428205
  0.9023885366949287  0.2499030001027691  0.4023369005229611
  0.7511604282332982  0.2499691595443494  0.3882709953685151
  0.6003977480997449  0.2496934893739891  0.4025414368240092
  0.6545954437530312  0.2449252165140834  0.4852297858868511
  0.5020380631192154  0.2483711972855076  0.4748001161446993
  0.8523302697112598  0.2483327925473375  0.4876801783845295
  0.9150637532435439  0.2472351599291329  0.5656351572732632
  0.7625617309418118  0.2398654269037692  0.5614362882522244
  0.5966349732247735  0.2603305588338216  0.5611040582425417
  0.9063933835903057  0.2504592055161510  0.2329547165330155
  0.7508416381537231  0.2506842221989132  0.2000233404293255
  0.5952719877603556  0.2503855760225662  0.2328827279663130
  0.6552925776313003  0.3751616749321016  0.3173570697143617
  0.5004183154363702  0.3750578786066541  0.3041215668567432
  0.8450114714057904  0.3751706372510597  0.3171828882201311
  0.9007753285164100  0.3744201283386346  0.4025848157295684
  0.7495786183215998  0.3746886641852498  0.3912567859672649
  0.5991804925783839  0.3737043595215752  0.4033762612339871
  0.6423836923068365  0.3766291501480978  0.4883082178508005
  0.4979815367387133  0.3738875274782529  0.4747576862690082
  0.8514394674945933  0.3745964787726024  0.4873655021309489
  0.8913590168873924  0.3742390314087203  0.5712468522425667
  0.7433718731147252  0.3567450877233824  0.5361110461881182
  0.5690084637379584  0.3795081652595940  0.5637655545260074
  0.9059805223205402  0.3752414305206457  0.2335842381328703
  0.7504684724680217  0.3751726664984716  0.2014041896407477
  0.5949660306264519  0.3752123413064297  0.2335828809682639
  0.6566440206804316  0.9999775828176851  0.3156733679607981
  0.5016914545808433  0.9999682577140945  0.3026026886645781
  0.8468841798218989  0.9999999353125091  0.3156763428349620
  0.9039864816130603  0.0000021792557447  0.4017226541887311
  0.7522399523391599  0.0000044348880124  0.3878119860317142
  0.6012350617649460  0.9999864943834211  0.4019787933049841
  0.6536382064562360  0.0000404738204836  0.4871922724541449
  0.5034362188228414  0.9999219657972063  0.4751782705621110
  0.8539129089376516  0.0000258707256506  0.4868167468541245
  0.9127799026627628  0.0000570715662889  0.5645018012898007
  0.7546675051656706  0.0000238785767053  0.5562717279519518
  0.5989978703184775  0.0000012088742594  0.5652875355393476
  0.9056689874544475  0.4999906261504563  0.2337170921483178
  0.7504192507511576  0.4999901906059634  0.2001694744146789
  0.5947812429275459  0.5000110324392821  0.2338318989147083
  0.6552210190734868  0.6248170788442877  0.3173617079094626
  0.5002719217988556  0.6249015679148400  0.3042792548187734
  0.8449386173195137  0.6248115020021103  0.3171369669818702
  0.9005900021841384  0.6255421787584012  0.4024852959034320
  0.7494732629660277  0.6253161393006437  0.3911601442228587
  0.5990334531085537  0.6262216559960763  0.4033556703548982
  0.6426624602608015  0.6236490806628581  0.4880667035052042
  0.4977479436407108  0.6259953899087378  0.4744063598720700
  0.8513018712678289  0.6253963675415548  0.4872484996995539
  0.8912006546828692  0.6258891413170247  0.5711101609259543
  0.7436518660137068  0.6419224383960866  0.5365771766741361
  0.5690397374632781  0.6202450769135623  0.5635487959493517
  0.9059070212183755  0.6247515630541258  0.2335400791381801
  0.7504365673250035  0.6248718947569856  0.2012770628200045
  0.5948491135898450  0.6248060662390102  0.2336582621117032
  0.6559056785432418  0.7498172330621671  0.3164657887563536
  0.5008515769885733  0.7498851719479873  0.3036998057975850
  0.8457827313512709  0.7499519724627888  0.3163775148362262
  0.9021951230730281  0.7501247461387663  0.4022705677808673
  0.7510197101582037  0.7500481111208686  0.3882185493110768
  0.6001630955814221  0.7503018952274587  0.4025342352422996
  0.6545766018606329  0.7550430276223423  0.4850236825978769
  0.5018436061067675  0.7515314294793143  0.4751090189482099
  0.8522480399966952  0.7517141177862854  0.4876405090217162
  0.9147601125636058  0.7526686279007393  0.5656667484989057
  0.7625125052087327  0.7600514623835934  0.5611518891800031
  0.5991913736232632  0.7388877165132399  0.5615453911443140
  0.9063196081270064  0.7495567557085110  0.2329196267780134
  0.7507718878643388  0.7493423123645968  0.2002208093770577
  0.5951116921033872  0.7495823453101096  0.2330041633698343
  0.6564309879464503  0.8749888418387144  0.3157918444450161
  0.5014592303538663  0.8749083233535941  0.3028329184310508
  0.8466106801860462  0.8750397836484822  0.3157888010235652
  0.9035414771145582  0.8753337378579644  0.4018696404249411
  0.7519827715810194  0.8754669996834821  0.3878783796376126
  0.6008163006766409  0.8755072785590130  0.4019932125086783
  0.6538280757478461  0.8751381401463405  0.4867128307969892
  0.5030163320430248  0.8758286111240636  0.4750825181211624
  0.8544779877226532  0.8764343520275233  0.4871632205392871
  0.9129769339928941  0.8783917131231931  0.5662412224864184
  0.7555016413077098  0.8780069695008663  0.5558339037148841
  0.6026620368683666  0.8698926638687468  0.5655067286320303
  0.9067377975370121  0.8747218216215344  0.2322230189530075
  0.7509852841614801  0.8747653175658243  0.1988878723436756
  0.5955233421211403  0.8747000614001124  0.2323353765485834
  0.6551412026470018  0.4999889151583545  0.3176438183309216
  0.5000206636061009  0.4999851089169169  0.3041547909466402
  0.8444419874347702  0.4999730735425629  0.3174640011097836
  0.8997388506955275  0.4999535656021266  0.4022368428754461
  0.7488883679021683  0.4999509625935517  0.3917347495223780
  0.5985489523301837  0.4999870020703767  0.4028211362089209
  0.6404719871625986  0.5000052594128093  0.4892381451670005
  0.4963974287585984  0.4999983771692271  0.4732054117279532
  0.8506627723017388  0.5000384182207540  0.4859041674131035
  0.8945493937409310  0.5001669332638343  0.5683102397964959
  0.7514034658472397  0.4997736534573320  0.5427471288616204
  0.5642266707487167  0.4993890781618546  0.5654788141683369
  0.0066859886120483  0.1278544498973417  0.5428992125545662
  0.0065841512927847  0.2471119738934888  0.5400530573601401
  0.9809936300234199  0.3810898962976168  0.5396438530224046
  0.1320692473508913  0.3292331683947083  0.5427879959754591
  0.0051732302879799  0.9994371546331564  0.5419348821342780
  0.1049174081283653  0.4414128985064352  0.5383969804750066
  0.9802999890433952  0.6189364168077915  0.5394596299056644
  0.1043696089625925  0.5577826065156302  0.5384319149353161
  0.0057962586658391  0.7525033686535281  0.5398836694687503
  0.1288414904719275  0.6711879012003976  0.5422092695947569
  0.0066430135470696  0.8727315996222202  0.5428773699159279
  0.9803356649008421  0.4998645148393379  0.5373995067145927
  0.5066851443756875  0.1283273614027678  0.5428799743818757
  0.5065268499305233  0.2470046329804916  0.5400429803253530
  0.4816394504627937  0.3810205675000873  0.5395720619908886
  0.6320369874304319  0.3289229140871512  0.5423534141176489
  0.5051358476119248  0.9986431024888631  0.5421441507299818
  0.6058570440626880  0.4413574285112247  0.5381953091465590
  0.4818600648980649  0.6213382039057649  0.5382428237451649
  0.6053483427103146  0.5578005352406947  0.5387139086618902
  0.5091869837743204  0.7531553521953995  0.5399042841505306
  0.6330526670925209  0.6699747773357529  0.5420828163391320
  0.5068029430964387  0.8740097417382771  0.5426624016901442
  0.4807366505002690  0.4995481958522774  0.5368252414194075
  0.4398455115443412  0.6901102381072235  0.5994634571496107
 
  0.00000000E+00  0.00000000E+00  0.00000000E+00
  0.00000000E+00  0.00000000E+00  0.00000000E+00
  0.00000000E+00  0.00000000E+00  0.00000000E+00
  0.00000000E+00  0.00000000E+00  0.00000000E+00
  0.00000000E+00  0.00000000E+00  0.00000000E+00
  0.00000000E+00  0.00000000E+00  0.00000000E+00