Cu	N	Ru	Ta                              
   1.00000000000000     
    18.1096308199999996    0.0000000000000000    0.0000000000000000
     0.0000000000000000   23.3551997799999995    0.0000000000000000
     0.0000000000000000    0.0000000000000000   30.4818171199999988
   Cu   N    Ru   Ta
     3   240    12   228
Selective dynamics
Direct
  0.5615022749993240  0.4371416996438392  0.6105543102282953   T   T   T
  0.4460348665574483  0.3908748533901388  0.6271559560414558   T   T   T
  0.4538641396720272  0.4919784135821077  0.6229868324050870   T   T   T
  0.0000000000000000  0.0002658024790421  0.3027806050297599   F   F   F
  0.0000000000000000  0.5002658024790421  0.3027806050297599   F   F   F
  0.0000000000000000  0.6252068313499990  0.3027729437410898   F   F   F
  0.0000000000000000  0.7502658026931286  0.3027806050297599   F   F   F
  0.0000000000000000  0.8752068315640855  0.3027729437410898   F   F   F
  0.0000000000000000  0.1252068313499990  0.3027729437410898   F   F   F
  0.0000000000000000  0.2502658026931286  0.3027806050297599   F   F   F
  0.0000000000000000  0.3752068315640855  0.3027729437410898   F   F   F
  0.9999521353779403  0.7524247258862921  0.4735734801653348   T   T   T
  0.9999523154617515  0.0024129508843908  0.4736345200415286   T   T   T
 -0.0000184755098804  0.8754723876595566  0.4737173588967378   T   T   T
  0.5931973875025460  0.2504956607397101  0.5683223439798829   T   T   T
  0.5928162863890093  0.7499083929979646  0.5686221695721176   T   T   T
  0.5928010019161760  0.9998469672203384  0.5685162931721156   T   T   T
  0.5940493004484111  0.9998103570065027  0.2323399901691943   F   F   F
  0.5940493004484111  0.4998103570065027  0.2323399901691943   F   F   F
  0.5940493004484111  0.7498103572205892  0.2323399901691943   F   F   F
  0.5940493004484111  0.2498103572205892  0.2323399901691943   F   F   F
  0.5941034351798038  0.6248444726427422  0.2323487498175751   F   F   F
  0.5941034351798038  0.8748444728568288  0.2323487498175751   F   F   F
  0.5941034351798038  0.1248444726427422  0.2323487498175751   F   F   F
  0.5941034351798038  0.3748444728568288  0.2323487498175751   F   F   F
  0.5975274666173466  0.4991616189717855  0.5703765836660424   T   T   T
  0.5980225980346423  0.1215530590522302  0.5715439192969858   T   T   T
  0.5980726442703893  0.8714411511634530  0.5715672927447616   T   T   T
  0.5984686745486041  0.6212258404567971  0.5717082680908733   T   T   T
  0.5987382668067051  0.3743397580484573  0.4025331936137109   T   T   T
  0.5988062953492596  0.1243143716432474  0.4025468528339413   T   T   T
  0.5987745389416276  0.6241611109204143  0.4026098198634580   T   T   T
  0.5988436685592445  0.8742653607665327  0.4025146876776869   T   T   T
  0.5990813581448493  0.2491808583032894  0.4023848285263776   T   T   T
  0.5991161544149907  0.4992107394701360  0.4023645493791886   T   T   T
  0.5991646333768139  0.7491566338464056  0.4023091797314953   T   T   T
  0.5991787545361251  0.9991601755246340  0.4023068453869504   T   T   T
  0.6004606757732076  0.3720663893726036  0.5718019204951785   T   T   T
  0.6508821864259796  0.6231962187041129  0.4882930879234892   T   T   T
  0.6510368755748771  0.1230832210297109  0.4882190516297997   T   T   T
  0.6513742738759718  0.3727543212777403  0.4879511892440391   T   T   T
  0.6509996221628411  0.8731394485024587  0.4882034186152842   T   T   T
  0.6517608122652945  0.2491964390679115  0.4883419120155329   T   T   T
  0.6519074902568153  0.4993386434223017  0.4884426364162464   T   T   T
  0.6516290846785013  0.7492801180605109  0.4883762318088686   T   T   T
  0.6516502494613595  0.9991748793298674  0.4883519487536160   T   T   T
  0.6547396409045092  0.9997083480310920  0.3159103144045119   F   F   F
  0.6547396409045092  0.4997083480310920  0.3159103144045119   F   F   F
  0.6547396409045092  0.7497083482451785  0.3159103144045119   F   F   F
  0.6547396409045092  0.2497083482451785  0.3159103144045119   F   F   F
  0.6547625022209047  0.6246790182669955  0.3159667218028375   F   F   F
  0.6547625022209047  0.8746790184810820  0.3159667218028375   F   F   F
  0.6547625022209047  0.1246790182669955  0.3159667218028375   F   F   F
  0.6547625022209047  0.3746790184810820  0.3159667218028375   F   F   F
  0.7409758574307957  0.2421147031154196  0.5621356735366335   T   T   T
  0.7408052095395183  0.7419166574660935  0.5623551467188415   T   T   T
  0.7408546356677560  0.9919678780100124  0.5622969139405519   T   T   T
  0.7438961572579865  0.4927112285371725  0.5616927710071395   T   T   T
  0.7497181855858486  0.0000100119032282  0.1992701427899632   F   F   F
  0.7497181855858486  0.5000100119032282  0.1992701427899632   F   F   F
  0.7497181855858486  0.7500100121173077  0.1992701427899632   F   F   F
  0.7497181855858486  0.2500100121173077  0.1992701427899632   F   F   F
  0.7497340914871273  0.6250292589019324  0.1993221157413743   F   F   F
  0.7497340914871273  0.8750292591160189  0.1993221157413743   F   F   F
  0.7497340914871273  0.1250292589019324  0.1993221157413743   F   F   F
  0.7497340914871273  0.3750292591160189  0.1993221157413743   F   F   F
  0.7501490684402232  0.2499010259128248  0.3872437484129922   T   T   T
  0.7501941591948812  0.3749448925772494  0.3877692480147811   T   T   T
  0.7501705668429771  0.4999437018128371  0.3872466897990512   T   T   T
  0.7501397219616595  0.6249878801337800  0.3878816512626988   T   T   T
  0.7501660642717328  0.1249578351123452  0.3878277296366048   T   T   T
  0.7501552199674063  0.7499342632087033  0.3872507279592358   T   T   T
  0.7501689119922877  0.9999458986215406  0.3872426425337385   T   T   T
  0.7501931685985775  0.8749498406242245  0.3878476725809644   T   T   T
  0.7523208739483388  0.1224675921773468  0.5562732627064566   T   T   T
  0.7524262260116872  0.6223164112634993  0.5562473942317495   T   T   T
  0.7525689785886001  0.8722783843972571  0.5562381398856752   T   T   T
  0.7537592850018879  0.3724008625176332  0.5559392399338720   T   T   T
  0.8451499272473839  0.6251896283286698  0.3155471503596488   F   F   F
  0.8451499272473839  0.8751896285427563  0.3155471503596488   F   F   F
  0.8451499272473839  0.1251896283286698  0.3155471503596488   F   F   F
  0.8451499272473839  0.3751896285427563  0.3155471503596488   F   F   F
  0.8451807898312538  0.0001939208417241  0.3155011134060643   F   F   F
  0.8451807898312538  0.5001939208417241  0.3155011134060643   F   F   F
  0.8451807898312538  0.7501939210558106  0.3155011134060643   F   F   F
  0.8451807898312538  0.2501939210558106  0.3155011134060643   F   F   F
  0.8468088366516177  0.2487397028271421  0.4860235782968374   T   T   T
  0.8466718644250242  0.7487160851958603  0.4860102944778277   T   T   T
  0.8466528308535312  0.9986903800557511  0.4860159789487757   T   T   T
  0.8472829486973815  0.4988633763098101  0.4856827951514721   T   T   T
  0.8489447177317130  0.6292428788845803  0.4861994576323611   T   T   T
  0.8489182147182696  0.1293270631020015  0.4862206373510066   T   T   T
  0.8489977426882821  0.8793657971697803  0.4862325695892951   T   T   T
  0.8494475514964284  0.3792198195292394  0.4860829263473320   T   T   T
  0.9010416603322744  0.2586790153300694  0.5678621382761041   T   T   T
  0.9009804489165074  0.5009447602735356  0.4016359940429345   T   T   T
  0.9009660775802925  0.2508520521961835  0.4017811293896877   T   T   T
  0.9009101350981528  0.7590727574552802  0.5677680785742790   T   T   T
  0.9009756203541671  0.7509218350803408  0.4018287564004357   T   T   T
  0.9011458583260636  0.3757356838758133  0.4017234396817436   T   T   T
  0.9010584147435369  0.6258929143052828  0.4017848678352620   T   T   T
  0.9014984494868399  0.5089002111716479  0.5678837396923797   T   T   T
  0.9009952569654177  0.0008842431334138  0.4018410822864716   T   T   T
  0.9008990522016749  0.0090245862385407  0.5677678489178044   T   T   T
  0.9011133470012567  0.1257864983462217  0.4018561561028944   T   T   T
  0.9011478123046271  0.8758207175643277  0.4018785268960530   T   T   T
  0.9022202253647930  0.6348866189150328  0.5710276159242562   T   T   T
  0.9024982170070426  0.1348466195395001  0.5711427039717348   T   T   T
  0.9031993182399963  0.3843460555170105  0.5714267585976641   T   T   T
  0.9026329092706570  0.8850736185795678  0.5711218282570563   T   T   T
  0.9057164253114252  0.6251516265128672  0.2320045249323357   F   F   F
  0.9057164253114252  0.8751516267269537  0.2320045249323357   F   F   F
  0.9057164253114252  0.1251516265128672  0.2320045249323357   F   F   F
  0.9057164253114252  0.3751516267269537  0.2320045249323357   F   F   F
  0.9057548087553968  0.0001403618907503  0.2320193078436787   F   F   F
  0.9057548087553968  0.5001403618907503  0.2320193078436787   F   F   F
  0.9057548087553968  0.7501403621048368  0.2320193078436787   F   F   F
  0.9057548087553968  0.2501403621048368  0.2320193078436787   F   F   F
  0.0942451912446032  0.0001403618907503  0.2320193078436787   F   F   F
  0.0942451912446032  0.5001403618907503  0.2320193078436787   F   F   F
  0.0942451912446032  0.7501403621048368  0.2320193078436787   F   F   F
  0.0942451912446032  0.2501403621048368  0.2320193078436787   F   F   F
  0.0942835746885748  0.6251516265128672  0.2320045249323357   F   F   F
  0.0942835746885748  0.8751516267269537  0.2320045249323357   F   F   F
  0.0942835746885748  0.1251516265128672  0.2320045249323357   F   F   F
  0.0942835746885748  0.3751516267269537  0.2320045249323357   F   F   F
  0.0967239731746149  0.3846551234007080  0.5713691002503118   T   T   T
  0.0970612047234145  0.6351390256414057  0.5710143728953134   T   T   T
  0.0972595415726332  0.1348147795765074  0.5711667610435825   T   T   T
  0.0975183692717446  0.8850139156007538  0.5711402283855516   T   T   T
  0.0983467993895455  0.5091659523297385  0.5677369145046562   T   T   T
  0.0987461362691611  0.2588177028779213  0.5678559319500184   T   T   T
  0.0989302384617210  0.3757069622508976  0.4017339786647754   T   T   T
  0.0988405024633967  0.1257702728466740  0.4018506261990234   T   T   T
  0.0989645291943382  0.6258839675474175  0.4017930262117564   T   T   T
  0.0991007016463787  0.5009463796545114  0.4016412451948835   T   T   T
  0.0988439713840375  0.8758284303850937  0.4018766181266263   T   T   T
  0.0990593038462605  0.2508659692930562  0.4017846850862324   T   T   T
  0.0989863619888701  0.7591904757186804  0.5678203690599352   T   T   T
  0.0989870064897462  0.7509323464585332  0.4018172994903466   T   T   T
  0.0989852088450247  0.0008784715811126  0.4018392000888681   T   T   T
  0.0990271929277759  0.0090148266957457  0.5677958526563112   T   T   T
  0.0000588979278915  0.3754600854489821  0.4733680856336303   T   T   T
  0.9999785950694819  0.2523004192687832  0.4735040018021106   T   T   T
  0.0000358688174045  0.5025760621652583  0.4730993743259278   T   T   T
  0.9999428683806166  0.6255320430020982  0.4735881668652092   T   T   T
  0.9999310143337684  0.1254508371815665  0.4736497433325392   T   T   T
  0.1507961342526103  0.3792573405903043  0.4860529945134076   T   T   T
  0.1508696027217412  0.6293070180259970  0.4862235518921815   T   T   T
  0.1509369227098414  0.1292815283364349  0.4862020364790246   T   T   T
  0.1509820988043162  0.8793436567009062  0.4862278542274068   T   T   T
  0.1528842870854463  0.4988578777993666  0.4856645937261570   T   T   T
  0.1531127736019450  0.2487232438819530  0.4860285643674404   T   T   T
  0.1531777429961709  0.7487859280147894  0.4860038251896551   T   T   T
  0.1532565906145534  0.9987310151566534  0.4860279121566796   T   T   T
  0.1548192101687462  0.0001939208417241  0.3155011134060643   F   F   F
  0.1548192101687462  0.5001939208417241  0.3155011134060643   F   F   F
  0.1548192101687462  0.7501939210558106  0.3155011134060643   F   F   F
  0.1548192101687462  0.2501939210558106  0.3155011134060643   F   F   F
  0.1548500727526161  0.6251896283286698  0.3155471503596488   F   F   F
  0.1548500727526161  0.8751896285427563  0.3155471503596488   F   F   F
  0.1548500727526161  0.1251896283286698  0.3155471503596488   F   F   F
  0.1548500727526161  0.3751896285427563  0.3155471503596488   F   F   F
  0.2462829059812693  0.3723796681590900  0.5560800300848852   T   T   T
  0.2468284933110681  0.6228968936452364  0.5564958849361802   T   T   T
  0.2473713222131913  0.1222312397731629  0.5562451592760475   T   T   T
  0.2474053139071869  0.8723357795538055  0.5562472728664241   T   T   T
  0.2498750449814001  0.4999227282778222  0.3873162679901123   T   T   T
  0.2498515843381997  0.6249817471295211  0.3878038009950372   T   T   T
  0.2498866411764003  0.3749395820601545  0.3879411420890086   T   T   T
  0.2498701516102317  0.2499031634032764  0.3872305525604611   T   T   T
  0.2498333366656938  0.7499469965141455  0.3872238568027550   T   T   T
  0.2498135420792425  0.1249435076605601  0.3878164080899034   T   T   T
  0.2498087613458976  0.8749513497325171  0.3878322488261113   T   T   T
  0.2498301525281417  0.9999337625171518  0.3872343663052436   T   T   T
  0.2502659079606815  0.6250292589019324  0.1993221157413743   F   F   F
  0.2502659079606815  0.8750292591160189  0.1993221157413743   F   F   F
  0.2502659079606815  0.1250292589019324  0.1993221157413743   F   F   F
  0.2502659079606815  0.3750292591160189  0.1993221157413743   F   F   F
  0.2502818138619602  0.0000100119032282  0.1992701427899632   F   F   F
  0.2502818138619602  0.5000100119032282  0.1992701427899632   F   F   F
  0.2502818138619602  0.7500100121173077  0.1992701427899632   F   F   F
  0.2502818138619602  0.2500100121173077  0.1992701427899632   F   F   F
  0.2564918982725576  0.4924994595853355  0.5618335694120342   T   T   T
  0.2586063962274880  0.2416871704810850  0.5623705266276210   T   T   T
  0.2589343853324976  0.7422905096646861  0.5622910431361814   T   T   T
  0.2591177336628715  0.9918978919668646  0.5623344220937866   T   T   T
  0.3452374977790953  0.6246790182669955  0.3159667218028375   F   F   F
  0.3452374977790953  0.8746790184810820  0.3159667218028375   F   F   F
  0.3452374977790953  0.1246790182669955  0.3159667218028375   F   F   F
  0.3452374977790953  0.3746790184810820  0.3159667218028375   F   F   F
  0.3452603590954908  0.9997083480310920  0.3159103144045119   F   F   F
  0.3452603590954908  0.4997083480310920  0.3159103144045119   F   F   F
  0.3452603590954908  0.7497083482451785  0.3159103144045119   F   F   F
  0.3452603590954908  0.2497083482451785  0.3159103144045119   F   F   F
  0.3480238951813060  0.2489739067326720  0.4883515245501765   T   T   T
  0.3482628561824429  0.7494116066735202  0.4882851988601675   T   T   T
  0.3483357628703096  0.4991337788765748  0.4887198722618610   T   T   T
  0.3482896746940895  0.9991485687470578  0.4883186780343937   T   T   T
  0.3486844977024954  0.6234209596127847  0.4882048118933116   T   T   T
  0.3488045017444474  0.1229475043118875  0.4881787954727545   T   T   T
  0.3489579213602938  0.8731550192695556  0.4881876166945409   T   T   T
  0.3492171961250051  0.3729520305350268  0.4885784269945898   T   T   T
  0.3978528730740252  0.3704184411542999  0.5729678594884581   T   T   T
  0.4008731994644391  0.4991578079559706  0.4024603059528241   T   T   T
  0.4008660020716193  0.2492011579897929  0.4024142101462176   T   T   T
  0.4008669818031317  0.7491739812882370  0.4022752315175315   T   T   T
  0.4008409124610503  0.9991589736279283  0.4022910978577690   T   T   T
  0.4011855324033777  0.6241681500289645  0.4025869798612474   T   T   T
  0.4012186459278852  0.3743931655291477  0.4026931235390771   T   T   T
  0.4011695381687823  0.1242795887768789  0.4025423211134267   T   T   T
  0.4011710089996443  0.8742646022119128  0.4024954695306661   T   T   T
  0.4013096409663536  0.6214425082495693  0.5714144256804994   T   T   T
  0.4017481098340249  0.1212952945071577  0.5715609645546503   T   T   T
  0.4016355621404025  0.5011706412279204  0.5699799024293165   T   T   T
  0.4020081047518631  0.8714733889597426  0.5715434906205202   T   T   T
  0.4058965648201962  0.6248444726427422  0.2323487498175751   F   F   F
  0.4058965648201962  0.8748444728568288  0.2323487498175751   F   F   F
  0.4058965648201962  0.1248444726427422  0.2323487498175751   F   F   F
  0.4058965648201962  0.3748444728568288  0.2323487498175751   F   F   F
  0.4059506995515889  0.9998103570065027  0.2323399901691943   F   F   F
  0.4059506995515889  0.4998103570065027  0.2323399901691943   F   F   F
  0.4059506995515889  0.7498103572205892  0.2323399901691943   F   F   F
  0.4059506995515889  0.2498103572205892  0.2323399901691943   F   F   F
  0.4064384801757224  0.2499170157558203  0.5683360479962589   T   T   T
  0.4071492164724518  0.7499964058469396  0.5685671055096008   T   T   T
  0.4071905811625598  0.9997877056611607  0.5684993949521522   T   T   T
  0.4999311338755006  0.2494713492775880  0.4734235585223082   T   T   T
  0.4999807378484041  0.3733965244042788  0.4754995617510092   T   T   T
  0.4999158860837830  0.6232819956406144  0.4756941235171435   T   T   T
  0.4999451486263353  0.1232381367695814  0.4756320796752302   T   T   T
  0.5000554593776068  0.4993053153991185  0.4733496025952971   T   T   T
  0.5000000000000000  0.9996370422826644  0.3031199056678844   F   F   F
  0.5000000000000000  0.4996370422826644  0.3031199056678844   F   F   F
  0.5000000000000000  0.6247350156471256  0.3031143997625279   F   F   F
  0.5000000000000000  0.7496370424967509  0.3031199056678844   F   F   F
  0.5000000000000000  0.8747350158612122  0.3031143997625279   F   F   F
  0.5000000000000000  0.1247350156471256  0.3031143997625279   F   F   F
  0.5000000000000000  0.2496370424967509  0.3031199056678844   F   F   F
  0.5000000000000000  0.3747350158612122  0.3031143997625279   F   F   F
  0.4999483009306915  0.7492127638502152  0.4727183639300647   T   T   T
  0.4999845270194924  0.9992665167352156  0.4727561802510345   T   T   T
  0.5000116881707755  0.8731742943317707  0.4755347772380314   T   T   T
  0.8467601698037079  0.5695420863278354  0.5366362965806954   T   T   T
  0.8469812441426244  0.0697439895937772  0.5367038277445023   T   T   T
  0.8470925949637098  0.8198824110271917  0.5367512027405175   T   T   T
  0.8478961580468383  0.3195931749506086  0.5366850839526047   T   T   T
  0.1519613738071538  0.3197398409878786  0.5367873297541630   T   T   T
  0.1527450957110570  0.5698147640231483  0.5367792572469567   T   T   T
  0.1528842714706129  0.0697139441102558  0.5366919948174173   T   T   T
  0.1531725807555456  0.8198877878848790  0.5367292486171178   T   T   T
  0.4996692057545388  0.2591128981215059  0.5397648617500348   T   T   T
  0.5000250627972773  0.7564192258404415  0.5389820429714164   T   T   T
  0.4999916305034244  0.0066524161461753  0.5390152756724583   T   T   T
  0.5010097562060014  0.5071926456325107  0.5398869866308974   T   T   T
  0.0000000000000000  0.0000718854908470  0.1971343718238288   F   F   F
  0.0000000000000000  0.5000718854908470  0.1971343718238288   F   F   F
  0.0000000000000000  0.6251997477026094  0.1971274191543344   F   F   F
  0.0000000000000000  0.7500718857049335  0.1971343718238288   F   F   F
  0.0000000000000000  0.8751997479166960  0.1971274191543344   F   F   F
  0.0000000000000000  0.1251997477026094  0.1971274191543344   F   F   F
  0.0000000000000000  0.2500718857049335  0.1971343718238288   F   F   F
  0.0000000000000000  0.3751997479166960  0.1971274191543344   F   F   F
  0.0000134445974733  0.2506661127163045  0.3693616259175192   T   T   T
  0.0000103432062116  0.6256875213748994  0.3693289222948062   T   T   T
  0.9999647605164782  0.7511440899945618  0.5414950993536335   T   T   T
  0.9999834344451364  0.1256149205017338  0.3693451712065042   T   T   T
  0.9999869231098126  0.7507190188225720  0.3693828198481093   T   T   T
  0.9999948177266229  0.8756633000552571  0.3693441006844143   T   T   T
  0.9999955340336989  0.0006882400992057  0.3693792672710252   T   T   T
 -0.0000183092268747  0.0011024180153708  0.5415415211476919   T   T   T
  0.0000839482881045  0.8785516100297386  0.5421914074628721   T   T   T
  0.5826617485954912  0.5622475047824267  0.2840383746124928   F   F   F
  0.5826617485954912  0.0622475047824267  0.2840383746124928   F   F   F
  0.5826617485954912  0.8122475045683402  0.2840383746124928   F   F   F
  0.5826617485954912  0.3122475045683402  0.2840383746124928   F   F   F
  0.5827027102256537  0.4372504995116770  0.2840867749422387   F   F   F
  0.5827027102256537  0.6872504992975905  0.2840867749422387   F   F   F
  0.5827027102256537  0.9372504995116770  0.2840867749422387   F   F   F
  0.5827027102256537  0.1872504992975905  0.2840867749422387   F   F   F
  0.5837548758935620  0.4363286544567019  0.4542927101638434   T   T   T
  0.5839963405899662  0.3113247955866812  0.4544540352284588   T   T   T
  0.5838506680191438  0.1862401823124106  0.4542427204807578   T   T   T
  0.5839656475564448  0.5612642303030281  0.4545813755471324   T   T   T
  0.5838446280451338  0.6863010856462967  0.4541548822109422   T   T   T
  0.5838956408584783  0.9362644587122128  0.4541458884115326   T   T   T
  0.5840523303970767  0.0613126484273870  0.4543471817365970   T   T   T
  0.5840787626894436  0.8113005894158174  0.4543550055727712   T   T   T
  0.6601169608836203  0.6858029963414872  0.5424078375653147   T   T   T
  0.6602812159474667  0.1848686647281785  0.5422704414698001   T   T   T
  0.6602640791846875  0.9353525996546361  0.5422999582049222   T   T   T
  0.6649413384493272  0.4354353175096420  0.5406635350124692   T   T   T
  0.6656630292367254  0.4374555758991647  0.2027209846340057   F   F   F
  0.6656630292367254  0.6874555756850853  0.2027209846340057   F   F   F
  0.6656630292367254  0.9374555758991647  0.2027209846340057   F   F   F
  0.6656630292367254  0.1874555756850853  0.2027209846340057   F   F   F
  0.6657072857987743  0.5624132520265661  0.2026937805471647   F   F   F
  0.6657072857987743  0.0624132520265661  0.2026937805471647   F   F   F
  0.6657072857987743  0.8124132518124867  0.2026937805471647   F   F   F
  0.6657072857987743  0.3124132518124867  0.2026937805471647   F   F   F
  0.6676675566957786  0.4370495577665974  0.3685238984186769   T   T   T
  0.6676548851046503  0.3121841916726023  0.3685768317159819   T   T   T
  0.6676738165552422  0.1870338623357665  0.3684748842858707   T   T   T
  0.6676724793447512  0.6870197371959808  0.3684871649222932   T   T   T
  0.6676690160566029  0.0621884124082946  0.3685492907217005   T   T   T
  0.6677186313245154  0.5621842417937953  0.3685338070960981   T   T   T
  0.6676968092729996  0.9370223774042146  0.3684770284876152   T   T   T
  0.6676804258526701  0.8121733501815139  0.3685442224689857   T   T   T
  0.6687920811547288  0.0593579142116306  0.5437591725554315   T   T   T
  0.6688178018753027  0.8097199704170898  0.5437511889743396   T   T   T
  0.6699539252699664  0.5603411848999758  0.5440192421514508   T   T   T
  0.6704213447298686  0.3088159799125720  0.5436907730648894   T   T   T
  0.7494315413794084  0.2483367927706439  0.4550050617979401   T   T   T
  0.7495731352090583  0.4983597650705025  0.4550038124686362   T   T   T
  0.7493758665635599  0.6265167702503022  0.4559400717116512   T   T   T
  0.7493013229464375  0.7483652424372804  0.4550351275028428   T   T   T
  0.7497941162706997  0.3763527358071017  0.4557525096031707   T   T   T
  0.7493122008298259  0.9983262082532230  0.4550111268252661   T   T   T
  0.7494500089386603  0.1264001259668028  0.4558690648683619   T   T   T
  0.7495075435793963  0.8764364760789660  0.4559047178457393   T   T   T
  0.7497932119634427  0.6250918038603928  0.2779408447549940   F   F   F
  0.7497932119634427  0.8750918040744793  0.2779408447549940   F   F   F
  0.7497932119634427  0.1250918038603928  0.2779408447549940   F   F   F
  0.7497932119634427  0.3750918040744793  0.2779408447549940   F   F   F
  0.7498000177344295  0.9998887643854673  0.2779024730268418   F   F   F
  0.7498000177344295  0.4998887643854673  0.2779024730268418   F   F   F
  0.7498000177344295  0.7498887645995538  0.2779024730268418   F   F   F
  0.7498000177344295  0.2498887645995538  0.2779024730268418   F   F   F
  0.0822887463667884  0.4388515038838262  0.4533373292037819   T   T   T
  0.0822322928353924  0.6888839745951123  0.4535454381137937   T   T   T
  0.0822482772595816  0.1888316148386127  0.4535470818264373   T   T   T
  0.0822613334540988  0.9388598310304620  0.4536099863442429   T   T   T
  0.0825727650034978  0.4376830284600572  0.2837096284632494   F   F   F
  0.0825727650034978  0.6876830282459707  0.2837096284632494   F   F   F
  0.0825727650034978  0.9376830284600572  0.2837096284632494   F   F   F
  0.0825727650034978  0.1876830282459707  0.2837096284632494   F   F   F
  0.0826029583302130  0.5626929404925889  0.2836274496354534   F   F   F
  0.0826029583302130  0.0626929404925889  0.2836274496354534   F   F   F
  0.0826029583302130  0.8126929402785024  0.2836274496354534   F   F   F
  0.0826029583302130  0.3126929402785024  0.2836274496354534   F   F   F
  0.8294804949014009  0.6918849046164472  0.5428579511095258   T   T   T
  0.8298005764016390  0.1915836792888551  0.5428487827200246   T   T   T
  0.8294388434670211  0.9417632936258375  0.5429366702952479   T   T   T
  0.8319283468833605  0.4417668207132819  0.5427145216940457   T   T   T
  0.8321191298927564  0.4377992414936632  0.3676963490298016   T   T   T
  0.8320993780841590  0.1877724597976764  0.3677434728501850   T   T   T
  0.8320817464804218  0.6878197468536413  0.3677636593579938   T   T   T
  0.8321186586657612  0.9377939026014447  0.3677720519854176   T   T   T
  0.8322667450488982  0.5628816669612581  0.3679352983654682   T   T   T
  0.8323393962849265  0.3128043987341961  0.3679653155491107   T   T   T
  0.8323834451678194  0.0628277781961472  0.3680270590514452   T   T   T
  0.8323834133582805  0.8128526815641641  0.3680343146645598   T   T   T
  0.8336793151700448  0.5625684457322180  0.2026879705260853   F   F   F
  0.8336793151700448  0.0625684457322180  0.2026879705260853   F   F   F
  0.8336793151700448  0.8125684455181315  0.2026879705260853   F   F   F
  0.8336793151700448  0.3125684455181315  0.2026879705260853   F   F   F
  0.8337395527315365  0.4376312579759087  0.2027221981443361   F   F   F
  0.8337395527315365  0.6876312577618222  0.2027221981443361   F   F   F
  0.8337395527315365  0.9376312579759087  0.2027221981443361   F   F   F
  0.8337395527315365  0.1876312577618222  0.2027221981443361   F   F   F
  0.0851338014656948  0.3136982633258747  0.4541897914694294   T   T   T
  0.0851645338290273  0.5638148993335039  0.4540676043736926   T   T   T
  0.0851315300707621  0.0637165596106904  0.4542922213627790   T   T   T
  0.0851363540943482  0.8137665499711886  0.4542981254063509   T   T   T
  0.9149249064164291  0.3136982270122500  0.4541653078661108   T   T   T
  0.9148582071195613  0.5638138707015876  0.4540441819986053   T   T   T
  0.9147391394359781  0.0637291279189691  0.4542993099878768   T   T   T
  0.9147717477688778  0.8137490042008901  0.4543169850626225   T   T   T
  0.9173970416697870  0.5626929404925889  0.2836274496354534   F   F   F
  0.9173970416697870  0.0626929404925889  0.2836274496354534   F   F   F
  0.9173970416697870  0.8126929402785024  0.2836274496354534   F   F   F
  0.9173970416697870  0.3126929402785024  0.2836274496354534   F   F   F
  0.9174272349965022  0.4376830284600572  0.2837096284632494   F   F   F
  0.9174272349965022  0.6876830282459707  0.2837096284632494   F   F   F
  0.9174272349965022  0.9376830284600572  0.2837096284632494   F   F   F
  0.9174272349965022  0.1876830282459707  0.2837096284632494   F   F   F
  0.9176567143073440  0.1888512070803836  0.4535558108594265   T   T   T
  0.9176362659975354  0.6888570336256652  0.4535590444257241   T   T   T
  0.9178803297425144  0.4388636389850089  0.4533844654691109   T   T   T
  0.9176897677916680  0.9388521687896709  0.4535899080892227   T   T   T
  0.9998819658932074  0.2509124654134326  0.5414375599676192   T   T   T
  0.9998342568745850  0.5014218346564423  0.5409191723244535   T   T   T
  0.9999185374057539  0.3788400103601139  0.5417985433806549   T   T   T
  0.9996548580954527  0.6287410495726123  0.5420578232381689   T   T   T
  0.9998913920196704  0.1285547647566452  0.5421088708406291   T   T   T
  0.0000438023889411  0.3756359739815605  0.3693024580308807   T   T   T
  0.0000421866503059  0.5007585535555242  0.3693253860496582   T   T   T
  0.1662604174500757  0.4376312579759087  0.2027221981443361   F   F   F
  0.1662604174500757  0.6876312577618222  0.2027221981443361   F   F   F
  0.1662604174500757  0.9376312579759087  0.2027221981443361   F   F   F
  0.1662604174500757  0.1876312577618222  0.2027221981443361   F   F   F
  0.1663206550115603  0.5625684457322180  0.2026879705260853   F   F   F
  0.1663206550115603  0.0625684457322180  0.2026879705260853   F   F   F
  0.1663206550115603  0.8125684455181315  0.2026879705260853   F   F   F
  0.1663206550115603  0.3125684455181315  0.2026879705260853   F   F   F
  0.1676005181129886  0.8128514537935725  0.3680240405061539   T   T   T
  0.1676044405009463  0.0628231115986939  0.3680194345941686   T   T   T
  0.1677473670758999  0.3128185714185994  0.3679753211234781   T   T   T
  0.1677828342815234  0.5628583266917375  0.3679276899937945   T   T   T
  0.1678850678933264  0.6878210743205334  0.3677471799912305   T   T   T
  0.1679635712019776  0.4377755495157505  0.3677109974107092   T   T   T
  0.1678740902093762  0.1877736331402103  0.3677498318326776   T   T   T
  0.1678669148393139  0.9377958546244549  0.3677742639431347   T   T   T
  0.1682040895961505  0.4417870046026500  0.5425619823990661   T   T   T
  0.1698888858521093  0.1915530713980778  0.5428512620641525   T   T   T
  0.1701947523047305  0.6920411532953922  0.5429054853595017   T   T   T