Ta N Cu Ru                              
   1.00000000000000     
    18.1096308199999996    0.0000000000000000    0.0000000000000000
     0.0000000000000000   11.6775998899999998    0.0000000000000000
     0.0000000000000000    0.0000000000000000   23.4818170799999990
   Ta   N    Cu   Ru
   119   120     1     1
Direct
  0.0001059490886176  0.9997795715017256  0.2548339276228858
  0.3334312995425848  0.1249924044634366  0.2636602255747668
  0.1663194612955964  0.1250087658128744  0.2635652608206775
  0.2498365438243651  0.2499868003720156  0.3612130192208645
  0.0824000283043496  0.1250117253315832  0.3683494036167471
  0.4176366910810023  0.1249949167517456  0.3683130360185181
  0.0002377459240721  0.2500464115260584  0.4799728831430072
  0.3324977139385993  0.1250367891926510  0.4776566128442601
  0.1677167229932027  0.1250727603732636  0.4779190305388333
  0.2505606886487873  0.2527791481656769  0.5910202924377895
  0.0844060989158997  0.1249505976178794  0.5901903769274088
  0.4145851034784876  0.1248805893624531  0.5892777516190799
  0.0006851822034381  0.2496874018128794  0.7023514681338076
  0.1670127630592643  0.1243287079186223  0.7058772697555415
  0.0001081911374609  0.2502093953811454  0.2548457299994122
  0.3334469002309999  0.3749868168798848  0.2636820638694480
  0.1664400645459216  0.3750102041505466  0.2637278712444210
  0.2498950339350904  0.4999139907366253  0.3612398461721414
  0.0824535189119875  0.3749542928557928  0.3684937340892858
  0.4175535153577012  0.3750030609048426  0.3682745504742968
  0.0000331934962119  0.4999325173099106  0.4798280697917110
  0.3322564947239398  0.3750444561306753  0.4779003227014051
  0.1677570231664524  0.3751179547856878  0.4782421847897856
  0.2502301393994405  0.4995613897935754  0.5909335826970069
  0.0839378874166091  0.3748903020342284  0.5899960342798014
  0.4172260580856546  0.3762979400595269  0.5892257790836524
  0.9997448682490460  0.4998146598981776  0.7021722587119864
  0.3318360631585078  0.3765513057971488  0.7040696777745572
  0.1632336099689439  0.3758579500241824  0.7035967770500888
  0.0001139612076093  0.4999939326403278  0.2547725020977661
  0.3336201097188489  0.6249791230567987  0.2636200757625958
  0.1663640188237211  0.6250187649250954  0.2636910718045850
  0.2498540182244006  0.7500784680573530  0.3612074198908916
  0.0826004630452940  0.6250186442822958  0.3684859279436457
  0.4174477561173131  0.6249706319209124  0.3682378212972723
  0.9999963522460168  0.7500582898864578  0.4798206048014573
  0.3323874392886691  0.6249595220253729  0.4778832778147021
  0.1674424974217673  0.6249985408795354  0.4781744204080892
  0.2501816539117142  0.7504169806501146  0.5909990435848717
  0.0836982384570338  0.6249876484802723  0.5899956886702048
  0.4166318939139617  0.6251526705307962  0.5898811584648846
  0.9998339342950759  0.7499519746841145  0.7021730314068572
  0.3355123835793359  0.6269275019159468  0.7044496806103273
  0.1644895635298665  0.6249000681452614  0.7040425296733187
  0.0001056920623848  0.7500032222259361  0.2547679581566195
  0.3334603064434071  0.8750196932937354  0.2636631483135019
  0.1664472856105515  0.8749684532731018  0.2637232622355781
  0.2497995034331262  0.0000306264388525  0.3611887857275697
  0.0824042647248122  0.8750679049392988  0.3684828620075140
  0.4176012719503709  0.8749756488460162  0.3682067833869651
  0.0002606779718896  0.9999479460648310  0.4799934057122376
  0.3321653903970275  0.8749608347330582  0.4776581569039501
  0.1677887841318651  0.8748276888972494  0.4781704948523978
  0.2498209937924372  0.9973607716298343  0.5905880078418301
  0.0838914874990790  0.8749636015651937  0.5899525065096782
  0.4168502957276519  0.8737608482878091  0.5887935144242503
  0.0004159812024572  0.0000445362961231  0.7022997478207302
  0.3336395367426997  0.8788011833462157  0.7048648322295643
  0.1639940588714007  0.8737042197928057  0.7041690519814425
  0.5000638014369845  0.0000544999229421  0.2548068678665045
  0.8335171282656649  0.1249884894711921  0.2638039754336761
  0.6664726615428804  0.1250277841369112  0.2637254973830033
  0.7499897717335813  0.2500378043064242  0.3613010986563554
  0.5826609232464270  0.1250003180932464  0.3684355402486512
  0.9173202877159246  0.1249982070082670  0.3683590446824806
  0.5001179979794732  0.2500744616328610  0.4797006486093605
  0.8323171785329085  0.1250010184940597  0.4781403578821824
  0.6673135977714884  0.1249584698477485  0.4782405166168185
  0.7500669218987775  0.2500029161554544  0.5908927041321453
  0.5833238653217584  0.1249238701667297  0.5904668645240742
  0.9163262750289183  0.1250050349367787  0.5899054653166953
  0.5005821793562759  0.2493425725333185  0.7023052217190892
  0.8357081110745880  0.1248893562577778  0.7040787820675819
  0.6652216072481285  0.1244366149057594  0.7038524068196581
  0.5000533906631138  0.2499683107110248  0.2548429741036432
  0.8335207204692502  0.3749454578932229  0.2637800703833286
  0.6665202486302712  0.3750732827961369  0.2637113303945600
  0.7499654137634320  0.4998809417176360  0.3612976048788258
  0.5825840304428865  0.3750455066546542  0.3683914436924562
  0.9174718475521739  0.3749741392534132  0.3684005812949627
  0.5000880466090254  0.4999890986805905  0.4797190314035394
  0.8323857767080147  0.3749383294221083  0.4780854738726592
  0.6674461169555329  0.3749221158452521  0.4781686942862601
  0.7501656374591129  0.4998889443395613  0.5907276136981875
  0.5839591008501339  0.3749612334419805  0.5899249772875925
  0.9164307857192618  0.3748940497810893  0.5898220803911804
  0.4998942914494428  0.4987748650099265  0.7025497225062836
  0.8353735428602659  0.3747513769067951  0.7042808258146420
  0.6651559197725999  0.3746245785642264  0.7037443247381365
  0.5000112926299678  0.4998815529973929  0.2547772163929479
  0.8335796126890518  0.6249944733456035  0.2637759119598051
  0.6664390318322858  0.6249788634218330  0.2637067358414859
  0.7499659754375078  0.7501027091982544  0.3612937714414993
  0.5826014402951719  0.6249839331344285  0.3683430511609098
  0.9174163714669267  0.6249944340796166  0.3683617017439643
  0.5001073228502129  0.7499947370066532  0.4796732933052840
  0.8323961080677397  0.6249810401873389  0.4780773507000015
  0.6675855004070792  0.6249563334812535  0.4780741922139003
  0.7500662910659575  0.7500279104788088  0.5907619812195243
  0.5837780446883937  0.6249707656527093  0.5899013103307041
  0.9164822395410951  0.6249753989909764  0.5898479041827492
  0.5000439468342002  0.7510896721161320  0.7024574926225911
  0.8350631082739612  0.6251413929679428  0.7041205733701685
  0.6651446042360356  0.6248728746909009  0.7043248656985902
  0.5000256007035478  0.7501021688235285  0.2547510604643331
  0.8334997991906371  0.8750738746177992  0.2637888960352309
  0.6665300673276516  0.8749369584197965  0.2637151129649040
  0.7499944818308574  0.9999694174078054  0.3612968317435048
  0.5826027342058221  0.8749431033469233  0.3683817925076674
  0.9174511499479097  0.8750356799057789  0.3684256721105864
  0.5001485435268395  0.9999467032606439  0.4796351061398875
  0.8323669778497682  0.8750424723174749  0.4781019260007522
  0.6674209369923368  0.8750235042086689  0.4781742689019025
  0.7499777588680867  0.9999168972117601  0.5909563466313928
  0.5839503143721383  0.8749245696710017  0.5899131822681128
  0.9163683426912000  0.8751199116535676  0.5898414163386270
  0.4998264763844880  0.0012481158186426  0.7019350776874960
  0.8352907565444242  0.8752443114462952  0.7042200873850155
  0.6645723691884010  0.8755035155473946  0.7041018962690173
  0.4068283179199045  0.0000857841291661  0.3010502535988357
  0.2499295481480157  0.0000634390106994  0.2578745292063407
  0.0931994681390121  0.0000182202222333  0.3012169730079405
  0.1544635740557380  0.2500597938476818  0.4100049788651591
  0.9999798317355402  0.2499691671026832  0.3932471567991490
  0.3454465599619463  0.2501536349376765  0.4097228034751468
  0.4011030404116749  0.2499441342090634  0.5218415885740887
  0.2501815533153205  0.2500055058036881  0.5030255867575052
  0.0992168905616963  0.2500527635228725  0.5221421476965469
  0.1525887578940029  0.2495634603326896  0.6335633070820494
  0.0003806863355957  0.2496166296416677  0.6137351314561342
  0.3489536643649671  0.2536931926741248  0.6324578263939256
  0.4007421724158934  0.2472674790181543  0.7421442521729953
  0.2514821258607488  0.2479919963443520  0.7252977919316393
  0.0980773288408669  0.2493648382167662  0.7407930227050858
  0.4068014734561111  0.2499333429802374  0.3010733368334353
  0.2499260583827140  0.2499400558870112  0.2578596860951633
  0.0932118585988292  0.2499863655637741  0.3012262291596222
  0.1545124450397406  0.4998820719073235  0.4100065365289348
  0.0000202786685215  0.5000091000461505  0.3931335698429729
  0.3455103586707088  0.4998817060847189  0.4097880748378540
  0.4009815656150152  0.5002656804637508  0.5218032586865646
  0.2501236234243130  0.5002607536380845  0.5028128304933632
  0.0990583964117437  0.4996910913381839  0.5220550776665813
  0.1517249486661391  0.5002900992296407  0.6331748333361035
  0.0000063671171900  0.4996122138584346  0.6133249826041399
  0.3486884922395742  0.5002146955122586  0.6332281801465270
  0.4019819111256086  0.4982707593709061  0.7409450956408254
  0.2499123030064149  0.4985259193980144  0.7236665790213506
  0.0967191192544985  0.5000792242694316  0.7404999814741446
  0.4067945109299491  0.4999371667610927  0.3010815235185572
  0.2499670321862918  0.5000692297533170  0.2578757141204733
  0.0932275957980475  0.4999461701066351  0.3011995691403740
  0.1544779414355444  0.7501021022904679  0.4099926452678353
  0.0000041586163475  0.7499866447449027  0.3931311767112222
  0.3455144658208772  0.7500442199075565  0.4097155997876659
  0.4009538804357790  0.7496961002320416  0.5216681356717289
  0.2501307470813205  0.7496845598177142  0.5028314820435951
  0.0990475323299545  0.7502709022046021  0.5220681463680636
  0.1517160782873799  0.7497711508148170  0.6332102219561724
  0.0000093383599137  0.7503298287757186  0.6133396189886627
  0.3487245865095597  0.7507494870247295  0.6330479393300112
  0.4023346027609444  0.7526980374379523  0.7405045007974755
  0.2501273303946383  0.7503484300536987  0.7237608034269754
  0.0967768441147097  0.7496194476781446  0.7405882065985523
  0.4068037752317604  0.7500036753867526  0.3010530381618316
  0.2499931276894770  0.7499240747168726  0.2578602371206951
  0.0932020941828829  0.7500701282261404  0.3012112766121061
  0.1544006838553756  0.9999851085973448  0.4099525508252588
  0.9999693920238015  0.0000557989171690  0.3932544419363478
  0.3454697427466005  0.9998953792018207  0.4096354467481017
  0.4010651887052498  0.0001617886525011  0.5216395054279088
  0.2500855603121976  0.0001070973220971  0.5026592307212310
  0.0992710397262990  0.9999342729542774  0.5221535841004022
  0.1523327494179697  0.9999613023416369  0.6337362585874937
  0.0003678685651730  0.0002965374397770  0.6136595246769588
  0.3476652037210426  0.9954482582519407  0.6312107916690702
  0.4010258039720740  0.0036533433457933  0.7391528726271800
  0.2495817378049517  0.9990860022723906  0.7268091241894716
  0.0973963957348918  0.0004403831008795  0.7407183786414181
  0.9069262966551254  0.0000016037883798  0.3011794500688291
  0.7499666833660723  0.0000361616138684  0.2576665378127689
  0.5932938160324007  0.9999584879893000  0.3011540152777607
  0.6544420581971387  0.2499736481534826  0.4099447679496465
  0.5000352402316005  0.2500989644112159  0.3930831709378882
  0.8455015132107128  0.2499776101057263  0.4099390634017543
  0.9010561605230157  0.2499758909961294  0.5220017208291450
  0.7498737961741652  0.2499909914118118  0.5028185990711065
  0.5988671570384446  0.2498714237544989  0.5222694197622355
  0.6518091042035873  0.2501702597353903  0.6334239001592762
  0.4992055533646820  0.2498974145192976  0.6139001492978683
  0.8482469749768599  0.2502856755918790  0.6332670790746393
  0.9037440522054668  0.2500585943044931  0.7402742819049054
  0.7500430938389058  0.2499207283787485  0.7242616234688571
  0.5956885778577328  0.2497796781437456  0.7401319302866743
  0.9069109300186395  0.2499920301076353  0.3011692706293684
  0.7499872803990523  0.2499851280843697  0.2576776319490855
  0.5932924875793817  0.2500572600408122  0.3011646470500008
  0.6544562505438523  0.4999013395991927  0.4099065438294056
  0.5000050124268637  0.5000398613705941  0.3930259637816332
  0.8455390516534893  0.4999548021865079  0.4098469884673390
  0.9009569269251066  0.4998284865803415  0.5220108878839447
  0.7499912411203716  0.4999311732860117  0.5026743817889958
  0.5989971675159111  0.4999614343672315  0.5220843649607051
  0.6519790098987243  0.5002026805504426  0.6330651994389133
  0.5001546173810906  0.5001915959334322  0.6137349692499925
  0.8483818854444286  0.4999268293981801  0.6332079338844615
  0.9030767221188634  0.5002831006925650  0.7404273936832291
  0.7498129320049173  0.4998551225023505  0.7236992734360617
  0.5966192310708646  0.4996081726818175  0.7402073477197686
  0.9069036141640355  0.4999148859598102  0.3011355557297119
  0.7500574263816049  0.5000361428896121  0.2577704800530883
  0.5931869484203337  0.5000024545959653  0.3011468071392688
  0.6544613361557983  0.7500670318662312  0.4099071106227435
  0.5000179828849107  0.7499216327955449  0.3929918252926435
  0.8455255204210174  0.7500452403558028  0.4098486508350394
  0.9009364110741992  0.7501758521633994  0.5220153653178836
  0.7499771763339707  0.7500112161729882  0.5026950975297872
  0.5990194716137206  0.7499096952326975  0.5220715938693089
  0.6518993620742858  0.7496506213845424  0.6331157649542504
  0.5001004044529928  0.7498846090433161  0.6136471252982124
  0.8483067733861986  0.7500156808787248  0.6332026346944839
  0.9031563939400249  0.7497755997887304  0.7403917936600982
  0.7497996790282867  0.7500099666792370  0.7238161772675870
  0.5966282298241100  0.7497744817593366  0.7403358347236906
  0.9068949757038716  0.7500967786763539  0.3011389122909770
  0.7500494437428040  0.7499539143445084  0.2577698120059536
  0.5931899110328760  0.7499777255873333  0.3011330277650961
  0.6544437655113730  0.9999894529036294  0.4099461254320362
  0.5000589803171859  0.9999152248237790  0.3930370401433397
  0.8454877791459333  0.0000147999621856  0.4099426896334386
  0.9010574653587732  0.0000314948018832  0.5220007151906489
  0.7498624777589932  0.9999813675030006  0.5028489466144811
  0.5988774314272557  0.0000875876072644  0.5222611702113870
  0.6516594736401570  0.9996550764082743  0.6334717530463491
  0.4989054397965813  0.0000539324869839  0.6136514384839452
  0.8482072001910402  0.9997952965253397  0.6332296122772931
  0.9034660615328428  0.0000469812655695  0.7403132152139698
  0.7500840077972584  0.0001886549057899  0.7240691872738967
  0.5961215671285042  0.0005075022809234  0.7405520463932915
  0.3949847563358086  0.2695146181428268  0.8180642455572852
  0.3370393052321256  0.1247999075731759  0.6962568559545160
 
  0.00000000E+00  0.00000000E+00  0.00000000E+00
  0.00000000E+00  0.00000000E+00  0.00000000E+00
  0.00000000E+00  0.00000000E+00  0.00000000E+00
  0.00000000E+00  0.00000000E+00  0.00000000E+00
  0.00000000E+00  0.00000000E+00  0.00000000E+00
  0.00000000E+00  0.00000000E+00  0.00000000E+00
  0.00000000E+00  0.00000000E+00  0.00000000E+00
  0.00000000E+00  0.00000000E+00  0.00000000E+00
  0.00000000E+00  0.00000000E+00  0.00000000E+00
  0.00000000E+00  0.00000000E+00  0.00000000E+00
  0.00000000E+00  0.00000000E+00  0.00000000E+00
  0.00000000E+00  0.00000000E+00  0.00000000E+00
  0.00000000E+00  0.00000000E+00  0.00000000E+00
  0.00000000E+00  0.00000000E+00  0.00000000E+00
  0.00000000E+00  0.00000000E+00  0.00000000E+00
  0.00000000E+00  0.00000000E+00  0.00000000E+00
  0.00000000E+00  0.00000000E+00  0.00000000E+00
  0.00000000E+00  0.00000000E+00  0.00000000E+00
  0.00000000E+00  0.00000000E+00  0.00000000E+00
  0.00000000E+00  0.00000000E+00  0.00000000E+00
  0.00000000E+00  0.00000000E+00  0.00000000E+00
  0.00000000E+00  0.00000000E+00  0.00000000E+00
  0.00000000E+00  0.00000000E+00  0.00000000E+00
  0.00000000E+00  0.00000000E+00  0.00000000E+00
  0.00000000E+00  0.00000000E+00  0.00000000E+00
  0.00000000E+00  0.00000000E+00  0.00000000E+00
  0.00000000E+00  0.00000000E+00  0.00000000E+00
  0.00000000E+00  0.00000000E+00  0.00000000E+00
  0.00000000E+00  0.00000000E+00  0.00000000E+00
  0.00000000E+00  0.00000000E+00  0.00000000E+00
  0.00000000E+00  0.00000000E+00  0.00000000E+00
  0.00000000E+00  0.00000000E+00  0.00000000E+00
  0.00000000E+00  0.00000000E+00  0.00000000E+00
  0.00000000E+00  0.00000000E+00  0.00000000E+00
  0.00000000E+00  0.00000000E+00  0.00000000E+00
  0.00000000E+00  0.00000000E+00  0.00000000E+00
  0.00000000E+00  0.00000000E+00  0.00000000E+00
  0.00000000E+00  0.00000000E+00  0.00000000E+00
  0.00000000E+00  0.00000000E+00  0.00000000E+00
  0.00000000E+00  0.00000000E+00  0.00000000E+00
  0.00000000E+00  0.00000000E+00  0.00000000E+00
  0.00000000E+00  0.00000000E+00  0.00000000E+00
  0.00000000E+00  0.00000000E+00  0.00000000E+00
  0.00000000E+00  0.00000000E+00  0.00000000E+00
  0.00000000E+00  0.00000000E+00  0.00000000E+00
  0.00000000E+00  0.00000000E+00  0.00000000E+00
  0.00000000E+00  0.00000000E+00  0.00000000E+00
  0.00000000E+00  0.00000000E+00  0.00000000E+00
  0.00000000E+00  0.00000000E+00  0.00000000E+00
  0.00000000E+00  0.00000000E+00  0.00000000E+00
  0.00000000E+00  0.00000000E+00  0.00000000E+00
  0.00000000E+00  0.00000000E+00  0.00000000E+00
  0.00000000E+00  0.00000000E+00  0.00000000E+00
  0.00000000E+00  0.00000000E+00  0.00000000E+00
  0.00000000E+00  0.00000000E+00  0.00000000E+00
  0.00000000E+00  0.00000000E+00  0.00000000E+00
  0.00000000E+00  0.00000000E+00  0.00000000E+00
  0.00000000E+00  0.00000000E+00  0.00000000E+00
  0.00000000E+00  0.00000000E+00  0.00000000E+00
  0.00000000E+00  0.00000000E+00  0.00000000E+00
  0.00000000E+00  0.00000000E+00  0.00000000E+00
  0.00000000E+00  0.00000000E+00  0.00000000E+00
  0.00000000E+00  0.00000000E+00  0.00000000E+00
  0.00000000E+00  0.00000000E+00  0.00000000E+00
  0.00000000E+00  0.00000000E+00  0.00000000E+00
  0.00000000E+00  0.00000000E+00  0.00000000E+00
  0.00000000E+00  0.00000000E+00  0.00000000E+00
  0.00000000E+00  0.00000000E+00  0.00000000E+00
  0.00000000E+00  0.00000000E+00  0.00000000E+00
  0.00000000E+00  0.00000000E+00  0.00000000E+00
  0.00000000E+00  0.00000000E+00  0.00000000E+00
  0.00000000E+00  0.00000000E+00  0.00000000E+00
  0.00000000E+00  0.00000000E+00  0.00000000E+00
  0.00000000E+00  0.00000000E+00  0.00000000E+00
  0.00000000E+00  0.00000000E+00  0.00000000E+00
  0.00000000E+00  0.00000000E+00  0.00000000E+00
  0.00000000E+00  0.00000000E+00  0.00000000E+00
  0.00000000E+00  0.00000000E+00  0.00000000E+00
  0.00000000E+00  0.00000000E+00  0.00000000E+00
  0.00000000E+00  0.00000000E+00  0.00000000E+00
  0.00000000E+00  0.00000000E+00  0.00000000E+00
  0.00000000E+00  0.00000000E+00  0.00000000E+00
  0.00000000E+00  0.00000000E+00  0.00000000E+00
  0.00000000E+00  0.00000000E+00  0.00000000E+00
  0.00000000E+00  0.00000000E+00  0.00000000E+00
  0.00000000E+00  0.00000000E+00  0.00000000E+00
  0.00000000E+00  0.00000000E+00  0.00000000E+00
  0.00000000E+00  0.00000000E+00  0.00000000E+00
  0.00000000E+00  0.00000000E+00  0.00000000E+00
  0.00000000E+00  0.00000000E+00  0.00000000E+00
  0.00000000E+00  0.00000000E+00  0.00000000E+00
  0.00000000E+00  0.00000000E+00  0.00000000E+00
  0.00000000E+00  0.00000000E+00  0.00000000E+00
  0.00000000E+00  0.00000000E+00  0.00000000E+00
  0.00000000E+00  0.00000000E+00  0.00000000E+00
  0.00000000E+00  0.00000000E+00  0.00000000E+00
  0.00000000E+00  0.00000000E+00  0.00000000E+00
  0.00000000E+00  0.00000000E+00  0.00000000E+00
  0.00000000E+00  0.00000000E+00  0.00000000E+00
  0.00000000E+00  0.00000000E+00  0.00000000E+00
  0.00000000E+00  0.00000000E+00  0.00000000E+00
  0.00000000E+00  0.00000000E+00  0.00000000E+00
  0.00000000E+00  0.00000000E+00  0.00000000E+00
  0.00000000E+00  0.00000000E+00  0.00000000E+00
  0.00000000E+00  0.00000000E+00  0.00000000E+00
  0.00000000E+00  0.00000000E+00  0.00000000E+00
  0.00000000E+00  0.00000000E+00  0.00000000E+00
  0.00000000E+00  0.00000000E+00  0.00000000E+00
  0.00000000E+00  0.00000000E+00  0.00000000E+00
  0.00000000E+00  0.00000000E+00  0.00000000E+00
  0.00000000E+00  0.00000000E+00  0.00000000E+00
  0.00000000E+00  0.00000000E+00  0.00000000E+00
  0.00000000E+00  0.00000000E+00  0.00000000E+00
  0.00000000E+00  0.00000000E+00  0.00000000E+00
  0.00000000E+00  0.00000000E+00  0.00000000E+00
  0.00000000E+00  0.00000000E+00  0.00000000E+00
  0.00000000E+00  0.00000000E+00  0.00000000E+00
  0.00000000E+00  0.00000000E+00  0.00000000E+00
  0.00000000E+00  0.00000000E+00  0.00000000E+00
  0.00000000E+00  0.00000000E+00  0.00000000E+00
  0.00000000E+00  0.00000000E+00  0.00000000E+00
  0.00000000E+00  0.00000000E+00  0.00000000E+00
  0.00000000E+00  0.00000000E+00  0.00000000E+00
  0.00000000E+00  0.00000000E+00  0.00000000E+00
  0.00000000E+00  0.00000000E+00  0.00000000E+00
  0.00000000E+00  0.00000000E+00  0.00000000E+00
  0.00000000E+00  0.00000000E+00  0.00000000E+00
  0.00000000E+00  0.00000000E+00  0.00000000E+00
  0.00000000E+00  0.00000000E+00  0.00000000E+00
  0.00000000E+00  0.00000000E+00  0.00000000E+00
  0.00000000E+00  0.00000000E+00  0.00000000E+00
  0.00000000E+00  0.00000000E+00  0.00000000E+00
  0.00000000E+00  0.00000000E+00  0.00000000E+00
  0.00000000E+00  0.00000000E+00  0.00000000E+00
  0.00000000E+00  0.00000000E+00  0.00000000E+00
  0.00000000E+00  0.00000000E+00  0.00000000E+00
  0.00000000E+00  0.00000000E+00  0.00000000E+00
  0.00000000E+00  0.00000000E+00  0.00000000E+00
  0.00000000E+00  0.00000000E+00  0.00000000E+00
  0.00000000E+00  0.00000000E+00  0.00000000E+00
  0.00000000E+00  0.00000000E+00  0.00000000E+00
  0.00000000E+00  0.00000000E+00  0.00000000E+00
  0.00000000E+00  0.00000000E+00  0.00000000E+00
  0.00000000E+00  0.00000000E+00  0.00000000E+00
  0.00000000E+00  0.00000000E+00  0.00000000E+00
  0.00000000E+00  0.00000000E+00  0.00000000E+00
  0.00000000E+00  0.00000000E+00  0.00000000E+00
  0.00000000E+00  0.00000000E+00  0.00000000E+00
  0.00000000E+00  0.00000000E+00  0.00000000E+00
  0.00000000E+00  0.00000000E+00  0.00000000E+00
  0.00000000E+00  0.00000000E+00  0.00000000E+00
  0.00000000E+00  0.00000000E+00  0.00000000E+00
  0.00000000E+00  0.00000000E+00  0.00000000E+00
  0.00000000E+00  0.00000000E+00  0.00000000E+00
  0.00000000E+00  0.00000000E+00  0.00000000E+00
  0.00000000E+00  0.00000000E+00  0.00000000E+00
  0.00000000E+00  0.00000000E+00  0.00000000E+00
  0.00000000E+00  0.00000000E+00  0.00000000E+00
  0.00000000E+00  0.00000000E+00  0.00000000E+00
  0.00000000E+00  0.00000000E+00  0.00000000E+00
  0.00000000E+00  0.00000000E+00  0.00000000E+00
  0.00000000E+00  0.00000000E+00  0.00000000E+00
  0.00000000E+00  0.00000000E+00  0.00000000E+00
  0.00000000E+00  0.00000000E+00  0.00000000E+00
  0.00000000E+00  0.00000000E+00  0.00000000E+00
  0.00000000E+00  0.00000000E+00  0.00000000E+00
  0.00000000E+00  0.00000000E+00  0.00000000E+00
  0.00000000E+00  0.00000000E+00  0.00000000E+00
  0.00000000E+00  0.00000000E+00  0.00000000E+00
  0.00000000E+00  0.00000000E+00  0.00000000E+00
  0.00000000E+00  0.00000000E+00  0.00000000E+00
  0.00000000E+00  0.00000000E+00  0.00000000E+00
  0.00000000E+00  0.00000000E+00  0.00000000E+00
  0.00000000E+00  0.00000000E+00  0.00000000E+00
  0.00000000E+00  0.00000000E+00  0.00000000E+00
  0.00000000E+00  0.00000000E+00  0.00000000E+00
  0.00000000E+00  0.00000000E+00  0.00000000E+00
  0.00000000E+00  0.00000000E+00  0.00000000E+00
  0.00000000E+00  0.00000000E+00  0.00000000E+00
  0.00000000E+00  0.00000000E+00  0.00000000E+00
  0.00000000E+00  0.00000000E+00  0.00000000E+00
  0.00000000E+00  0.00000000E+00  0.00000000E+00
  0.00000000E+00  0.00000000E+00  0.00000000E+00
  0.00000000E+00  0.00000000E+00  0.00000000E+00
  0.00000000E+00  0.00000000E+00  0.00000000E+00
  0.00000000E+00  0.00000000E+00  0.00000000E+00
  0.00000000E+00  0.00000000E+00  0.00000000E+00
  0.00000000E+00  0.00000000E+00  0.00000000E+00
  0.00000000E+00  0.00000000E+00  0.00000000E+00
  0.00000000E+00  0.00000000E+00  0.00000000E+00
  0.00000000E+00  0.00000000E+00  0.00000000E+00
  0.00000000E+00  0.00000000E+00  0.00000000E+00
  0.00000000E+00  0.00000000E+00  0.00000000E+00
  0.00000000E+00  0.00000000E+00  0.00000000E+00
  0.00000000E+00  0.00000000E+00  0.00000000E+00
  0.00000000E+00  0.00000000E+00  0.00000000E+00
  0.00000000E+00  0.00000000E+00  0.00000000E+00
  0.00000000E+00  0.00000000E+00  0.00000000E+00
  0.00000000E+00  0.00000000E+00  0.00000000E+00
  0.00000000E+00  0.00000000E+00  0.00000000E+00
  0.00000000E+00  0.00000000E+00  0.00000000E+00
  0.00000000E+00  0.00000000E+00  0.00000000E+00
  0.00000000E+00  0.00000000E+00  0.00000000E+00
  0.00000000E+00  0.00000000E+00  0.00000000E+00
  0.00000000E+00  0.00000000E+00  0.00000000E+00
  0.00000000E+00  0.00000000E+00  0.00000000E+00
  0.00000000E+00  0.00000000E+00  0.00000000E+00
  0.00000000E+00  0.00000000E+00  0.00000000E+00
  0.00000000E+00  0.00000000E+00  0.00000000E+00
  0.00000000E+00  0.00000000E+00  0.00000000E+00
  0.00000000E+00  0.00000000E+00  0.00000000E+00
  0.00000000E+00  0.00000000E+00  0.00000000E+00
  0.00000000E+00  0.00000000E+00  0.00000000E+00
  0.00000000E+00  0.00000000E+00  0.00000000E+00
  0.00000000E+00  0.00000000E+00  0.00000000E+00
  0.00000000E+00  0.00000000E+00  0.00000000E+00
  0.00000000E+00  0.00000000E+00  0.00000000E+00
  0.00000000E+00  0.00000000E+00  0.00000000E+00
  0.00000000E+00  0.00000000E+00  0.00000000E+00
  0.00000000E+00  0.00000000E+00  0.00000000E+00
  0.00000000E+00  0.00000000E+00  0.00000000E+00
  0.00000000E+00  0.00000000E+00  0.00000000E+00
  0.00000000E+00  0.00000000E+00  0.00000000E+00
  0.00000000E+00  0.00000000E+00  0.00000000E+00
  0.00000000E+00  0.00000000E+00  0.00000000E+00
  0.00000000E+00  0.00000000E+00  0.00000000E+00
  0.00000000E+00  0.00000000E+00  0.00000000E+00
  0.00000000E+00  0.00000000E+00  0.00000000E+00
  0.00000000E+00  0.00000000E+00  0.00000000E+00
  0.00000000E+00  0.00000000E+00  0.00000000E+00
  0.00000000E+00  0.00000000E+00  0.00000000E+00
  0.00000000E+00  0.00000000E+00  0.00000000E+00
  0.00000000E+00  0.00000000E+00  0.00000000E+00
  0.00000000E+00  0.00000000E+00  0.00000000E+00
  0.00000000E+00  0.00000000E+00  0.00000000E+00
  0.00000000E+00  0.00000000E+00  0.00000000E+00
  0.00000000E+00  0.00000000E+00  0.00000000E+00
  0.00000000E+00  0.00000000E+00  0.00000000E+00
  0.00000000E+00  0.00000000E+00  0.00000000E+00
  0.00000000E+00  0.00000000E+00  0.00000000E+00
  0.00000000E+00  0.00000000E+00  0.00000000E+00
