POSCAR                                  
   1.00000000000000     
     6.3100583718652139    0.0000000000000000    0.0000000000000000
    -3.1550291859326069    5.5120437906683453    0.0031714110051273
     0.0000000000000000    0.0058046133677807    9.9250406100949906
   Al   N    Li   V 
    12    16     2     2
Direct
  0.1614391304039627  0.3354117099570164  0.9941194797403023
  0.6739725795530461  0.3354117099570164  0.9941194797403023
  0.1624375439588895  0.8248750879177860  0.9958715573463905
  0.6680865882234515  0.8361731764469101  0.9992552515873737
  0.1598307587465741  0.8196615174931552  0.4885126858499068
  0.6708041787092195  0.8416083574184463  0.4947258706423611
  0.8300930028455299  0.1601860056910524  0.7373142012002697
  0.3418172478403116  0.6703079307306844  0.7451176780681421
  0.8284906828903802  0.6703079307306844  0.7451176780681421
  0.8320085740252282  0.1640171480504493  0.2679577914979033
  0.3398209484576825  0.6676612088222358  0.2577725685688255
  0.8278402603645598  0.6676612088222358  0.2577725685688255
  0.1659986105265834  0.3354705094858438  0.1879698754633118
  0.6694718989592533  0.3354705094858438  0.1879698754633118
  0.1648382738851711  0.8296765477703492  0.1870881003798368
  0.6677572220312227  0.8355144440624525  0.1892537737202648
  0.1767976992847608  0.3305886993702562  0.7080703559567217
  0.6537910000854883  0.3305886993702562  0.7080703559567217
  0.1691135231644837  0.8382270463289744  0.6911194520088831
  0.6662362623422705  0.8324725246845480  0.6921463125172506
  0.3315438613240657  0.1630877226481245  0.9401530735990689
  0.8326268430315149  0.1652536860630224  0.9355867458188577
  0.3333297113121256  0.6669133304813969  0.9383796073954868
  0.8335836191692784  0.6669133304813969  0.9383796073954868
  0.3222041307612541  0.1444082615225008  0.4129550460205320
  0.8297879098728977  0.1595758197457887  0.4494686069517846
  0.3428254387993956  0.6812493272162429  0.4424128130491751
  0.8384238884168542  0.6812493272162429  0.4424128130491751
  0.1670073129574578  0.3394670759910636  0.4901088037013570
  0.6724597630335986  0.3394670759910636  0.4901088037013570
  0.3339552862563976  0.1679105725127882  0.7462744637610660
  0.3316062487670899  0.1632124975341726  0.2444147032116204
 
  0.00000000E+00  0.00000000E+00  0.00000000E+00
  0.00000000E+00  0.00000000E+00  0.00000000E+00
  0.00000000E+00  0.00000000E+00  0.00000000E+00
  0.00000000E+00  0.00000000E+00  0.00000000E+00
  0.00000000E+00  0.00000000E+00  0.00000000E+00
  0.00000000E+00  0.00000000E+00  0.00000000E+00
  0.00000000E+00  0.00000000E+00  0.00000000E+00
  0.00000000E+00  0.00000000E+00  0.00000000E+00
  0.00000000E+00  0.00000000E+00  0.00000000E+00
  0.00000000E+00  0.00000000E+00  0.00000000E+00
  0.00000000E+00  0.00000000E+00  0.00000000E+00
  0.00000000E+00  0.00000000E+00  0.00000000E+00
  0.00000000E+00  0.00000000E+00  0.00000000E+00
  0.00000000E+00  0.00000000E+00  0.00000000E+00
  0.00000000E+00  0.00000000E+00  0.00000000E+00
  0.00000000E+00  0.00000000E+00  0.00000000E+00
  0.00000000E+00  0.00000000E+00  0.00000000E+00
  0.00000000E+00  0.00000000E+00  0.00000000E+00
  0.00000000E+00  0.00000000E+00  0.00000000E+00
  0.00000000E+00  0.00000000E+00  0.00000000E+00
  0.00000000E+00  0.00000000E+00  0.00000000E+00
  0.00000000E+00  0.00000000E+00  0.00000000E+00
  0.00000000E+00  0.00000000E+00  0.00000000E+00
  0.00000000E+00  0.00000000E+00  0.00000000E+00
  0.00000000E+00  0.00000000E+00  0.00000000E+00
  0.00000000E+00  0.00000000E+00  0.00000000E+00
  0.00000000E+00  0.00000000E+00  0.00000000E+00
  0.00000000E+00  0.00000000E+00  0.00000000E+00
  0.00000000E+00  0.00000000E+00  0.00000000E+00
  0.00000000E+00  0.00000000E+00  0.00000000E+00
  0.00000000E+00  0.00000000E+00  0.00000000E+00
  0.00000000E+00  0.00000000E+00  0.00000000E+00
