Ta  N Cu                                
   1.00000000000000     
    18.1096308199999996    0.0000000000000000    0.0000000000000000
     0.0000000000000000   23.3551997799999995    0.0000000000000000
     0.0000000000000000    0.0000000000000000   30.4818170799999990
   Ta   N    Cu
   240   240     4
Selective dynamics
Direct
  0.0000000000000000  0.0000000000000000  0.1962037549895328   F   F   F
  0.3335422814544131  0.0625000001605613  0.2032829710819826   F   F   F
  0.1664576892793903  0.0625000001605613  0.2032829710819826   F   F   F
  0.2499999997239044  0.1249999998929567  0.2787808134173062   F   F   F
  0.0825353920715628  0.0625000001605613  0.2838315333135668   F   F   F
  0.4174646079284372  0.0625000001605613  0.2838315333135668   F   F   F
  0.0014839878115312  0.1277816294812348  0.3692807799072497   T   T   T
  0.3301015079635036  0.0635617048828669  0.3682969127602205   T   T   T
  0.1675240310074293  0.0638365735820885  0.3672700359619078   T   T   T
  0.2522509186570193  0.1250946043146665  0.4551496620533860   T   T   T
  0.0846986087291433  0.0633720054193029  0.4555229129429429   T   T   T
  0.4129414549374186  0.0643295875222990  0.4513634606626939   T   T   T
  0.0061717951541548  0.1297403736082932  0.5400485259517105   T   T   T
  0.3347344732707002  0.0622488694179909  0.5428490719947210   T   T   T
  0.1636825058393079  0.0651520160868601  0.5414304484040813   T   T   T
  0.0000000000000000  0.1249999998929567  0.1962037549895328   F   F   F
  0.3335422814544131  0.1875000000535181  0.2032829710819826   F   F   F
  0.1664576892793903  0.1875000000535181  0.2032829710819826   F   F   F
  0.2499999997239044  0.2500000002140865  0.2787808134173062   F   F   F
  0.0825353920715628  0.1875000000535181  0.2838315333135668   F   F   F
  0.4174646079284372  0.1875000000535181  0.2838315333135668   F   F   F
  0.0009832145575500  0.2483152587264933  0.3686833233327977   T   T   T
  0.3294773412032507  0.1882385374211060  0.3676285721835212   T   T   T
  0.1673583390739808  0.1911029399202699  0.3679918478226566   T   T   T
  0.2525988137752086  0.2483943461725382  0.4564727095472799   T   T   T
  0.0836817386136458  0.1878655960688562  0.4527069515600699   T   T   T
  0.4161069077309122  0.1897603782189390  0.4547654016380090   T   T   T
  0.9995152202969145  0.2521740125491893  0.5397580704250785   T   T   T
  0.3369497956405110  0.1861061930970221  0.5460013039385796   T   T   T
  0.1672283370957397  0.1896453046714444  0.5429459493434069   T   T   T
  0.0000000000000000  0.2500000002140865  0.1962037549895328   F   F   F
  0.3335422814544131  0.3124999999464819  0.2032829710819826   F   F   F
  0.1664576892793903  0.3124999999464819  0.2032829710819826   F   F   F
  0.2499999997239044  0.3750000001070433  0.2787808134173062   F   F   F
  0.0825353920715628  0.3124999999464819  0.2838315333135668   F   F   F
  0.4174646079284372  0.3124999999464819  0.2838315333135668   F   F   F
  0.0043688212879983  0.3769886084022671  0.3715512470462997   T   T   T
  0.3364252898265597  0.3148236107597079  0.3696307034952617   T   T   T
  0.1701861068346116  0.3128264957880024  0.3675182228314152   T   T   T
  0.2521513097223715  0.3769138924017045  0.4552560483774197   T   T   T
  0.0851494153584110  0.3141756041723004  0.4515436448198622   T   T   T
  0.4105086560994603  0.3125096173036320  0.4565193932965087   T   T   T
  0.9985160722651786  0.3799300643379963  0.5404712597961859   T   T   T
  0.3305703283735051  0.3124065254100293  0.5457274089012040   T   T   T
  0.1693633102959337  0.3160593713507931  0.5421008705889622   T   T   T
  0.0000000000000000  0.3750000001070433  0.1962037549895328   F   F   F
  0.3335422814544131  0.4375000002676046  0.2032829710819826   F   F   F
  0.1664576892793903  0.4375000002676046  0.2032829710819826   F   F   F
  0.2499999997239044  0.0000000000000000  0.2787808134173062   F   F   F
  0.0825353920715628  0.4375000002676046  0.2838315333135668   F   F   F
  0.4174646079284372  0.4375000002676046  0.2838315333135668   F   F   F
  0.0034475071078070  0.0009975259426765  0.3697136342066217   T   T   T
  0.3338891821799416  0.4384946539771001  0.3688365325748223   T   T   T
  0.1691909527481281  0.4382305915077961  0.3689603057046354   T   T   T
  0.2493313091292938  0.0022174202169767  0.4555652794575490   T   T   T
  0.0842389556442429  0.4391728472300016  0.4555157530004155   T   T   T
  0.4120612233883256  0.4387838386410127  0.4537201100705371   T   T   T
  0.9995007437598229  0.0047611025639429  0.5430908595675651   T   T   T
  0.3321394461622448  0.4387958550141975  0.5444249395435757   T   T   T
  0.1629178354568547  0.4435411239774468  0.5389097762501984   T   T   T
  0.0000000000000000  0.5000000000000000  0.1962037549895328   F   F   F
  0.3335422814544131  0.5625000001605613  0.2032829710819826   F   F   F
  0.1664576892793903  0.5625000001605613  0.2032829710819826   F   F   F
  0.2499999997239044  0.6249999998929567  0.2787808134173062   F   F   F
  0.0825353920715628  0.5625000001605613  0.2838315333135668   F   F   F
  0.4174646079284372  0.5625000001605613  0.2838315333135668   F   F   F
  0.9994175947994821  0.6273692411793989  0.3689555136470443   T   T   T
  0.3339103356087844  0.5623975556403784  0.3693230875710773   T   T   T
  0.1663995089741997  0.5627255647958245  0.3687219481027518   T   T   T
  0.2473729367144540  0.6254173817660365  0.4557636457943698   T   T   T
  0.0860634971749582  0.5648192077311422  0.4528695987414275   T   T   T
  0.4205927525180235  0.5638743567109233  0.4533426139411174   T   T   T
  0.9994146075804827  0.6236700563714273  0.5360890329431444   T   T   T
  0.3338669073108190  0.5688148970855622  0.5409663142805121   T   T   T
  0.1670349208371814  0.5658930874461062  0.5411715491947732   T   T   T
  0.0000000000000000  0.6249999998929567  0.1962037549895328   F   F   F
  0.3335422814544131  0.6875000000535181  0.2032829710819826   F   F   F
  0.1664576892793903  0.6875000000535181  0.2032829710819826   F   F   F
  0.2499999997239044  0.7500000002140865  0.2787808134173062   F   F   F
  0.0825353920715628  0.6875000000535181  0.2838315333135668   F   F   F
  0.4174646079284372  0.6875000000535181  0.2838315333135668   F   F   F
  0.9992877000847359  0.7544622684060684  0.3683864711797982   T   T   T
  0.3310034622878615  0.6847918252895179  0.3672094750552602   T   T   T
  0.1690085595635559  0.6901825653893809  0.3678416601491519   T   T   T
  0.2508303847638556  0.7534058660388290  0.4553440311807296   T   T   T
  0.0845564004746902  0.6901198985383195  0.4532441423004515   T   T   T
  0.4169292093542980  0.6911674392623310  0.4517508387373588   T   T   T
  0.9973067172256802  0.7514100010296526  0.5421678247217514   T   T   T
  0.3336335002365722  0.6886558529733882  0.5393651079491903   T   T   T
  0.1590527861001719  0.6876616382039734  0.5403654506564100   T   T   T
  0.0000000000000000  0.7500000002140865  0.1962037549895328   F   F   F
  0.3335422814544131  0.8124999999464819  0.2032829710819826   F   F   F
  0.1664576892793903  0.8124999999464819  0.2032829710819826   F   F   F
  0.2499999997239044  0.8750000001070433  0.2787808134173062   F   F   F
  0.0825353920715628  0.8124999999464819  0.2838315333135668   F   F   F
  0.4174646079284372  0.8124999999464819  0.2838315333135668   F   F   F
  0.0054996411881702  0.8798522727852380  0.3688803723696640   T   T   T
  0.3311166474364489  0.8129945224346924  0.3682349723726108   T   T   T
  0.1675189972208154  0.8160598782711002  0.3680226330317235   T   T   T
  0.2519739656652563  0.8767953771212956  0.4516339708704974   T   T   T
  0.0842907462904378  0.8155822217197192  0.4539745429426583   T   T   T
  0.4161744626145036  0.8169523722973737  0.4517321756634304   T   T   T
  0.0044600744599649  0.8764088268464690  0.5423275651545335   T   T   T
  0.3362629535615891  0.8147658676756657  0.5434745765660534   T   T   T
  0.1656223717268581  0.8147662038070322  0.5415804519084247   T   T   T
  0.0000000000000000  0.8750000001070433  0.1962037549895328   F   F   F
  0.3335422814544131  0.9375000002676046  0.2032829710819826   F   F   F
  0.1664576892793903  0.9375000002676046  0.2032829710819826   F   F   F
  0.2499999997239044  0.5000000000000000  0.2787808134173062   F   F   F
  0.0825353920715628  0.9375000002676046  0.2838315333135668   F   F   F
  0.4174646079284372  0.9375000002676046  0.2838315333135668   F   F   F
  0.0057227549310282  0.5013976926870559  0.3708272017360782   T   T   T
  0.3332398379758690  0.9376730694624958  0.3680173374501050   T   T   T
  0.1661894522393705  0.9385948265696450  0.3685264398829824   T   T   T
  0.2516948334569252  0.5062054852479763  0.4549012478951829   T   T   T
  0.0862775540605936  0.9397411702024434  0.4539198554374442   T   T   T
  0.4175209520928675  0.9433057766990797  0.4546678430718019   T   T   T
  0.0030661759281910  0.4999507834077582  0.5401914462143858   T   T   T
  0.3316856786156814  0.9370618625130344  0.5429300883224629   T   T   T
  0.1672374999180691  0.9377275232914434  0.5428820616318971   T   T   T
  0.5000000000000000  0.0000000000000000  0.1962037549895328   F   F   F
  0.8335422809022219  0.0625000001605613  0.2032829710819826   F   F   F
  0.6664576892793903  0.0625000001605613  0.2032829710819826   F   F   F
  0.7499999997239044  0.1249999998929567  0.2787808134173062   F   F   F
  0.5825353920715628  0.0625000001605613  0.2838315333135668   F   F   F
  0.9174646079284372  0.0625000001605613  0.2838315333135668   F   F   F
  0.5028805582421713  0.1273142713915273  0.3715112358716612   T   T   T
  0.8333758573994057  0.0605009338752856  0.3692628772673517   T   T   T
  0.6682451803762082  0.0639172789652285  0.3686513461234509   T   T   T
  0.7460232191629668  0.1301318776027836  0.4543385568068469   T   T   T
  0.5823629114764598  0.0638711766230177  0.4566989528076130   T   T   T
  0.9183209244998605  0.0620229992238386  0.4526004087658755   T   T   T
  0.4990688392277548  0.1284877724802848  0.5395889743271993   T   T   T
  0.8386467389099476  0.0634434026934660  0.5423517256353325   T   T   T
  0.6670793293319953  0.0638866591760076  0.5434349406245151   T   T   T
  0.5000000000000000  0.1249999998929567  0.1962037549895328   F   F   F
  0.8335422809022219  0.1875000000535181  0.2032829710819826   F   F   F
  0.6664576892793903  0.1875000000535181  0.2032829710819826   F   F   F
  0.7499999997239044  0.2500000002140865  0.2787808134173062   F   F   F
  0.5825353920715628  0.1875000000535181  0.2838315333135668   F   F   F
  0.9174646079284372  0.1875000000535181  0.2838315333135668   F   F   F
  0.5011043988600207  0.2496682167993429  0.3706739763874378   T   T   T
  0.8330462936767006  0.1868092793768009  0.3692354960673045   T   T   T
  0.6706610319318329  0.1898219025366533  0.3695099955884210   T   T   T
  0.7539260645652341  0.2520686921998355  0.4556003018574256   T   T   T
  0.5819552906446968  0.1905354260649599  0.4565989421884027   T   T   T
  0.9174719482872276  0.1855103472455232  0.4538328396476136   T   T   T
  0.5007982706640283  0.2547013519396661  0.5440791102778371   T   T   T
  0.8389720808413169  0.1887480196422667  0.5424645974712834   T   T   T
  0.6625786005033519  0.1893078291734385  0.5450285165454806   T   T   T
  0.5000000000000000  0.2500000002140865  0.1962037549895328   F   F   F
  0.8335422809022219  0.3124999999464819  0.2032829710819826   F   F   F
  0.6664576892793903  0.3124999999464819  0.2032829710819826   F   F   F
  0.7499999997239044  0.3750000001070433  0.2787808134173062   F   F   F
  0.5825353920715628  0.3124999999464819  0.2838315333135668   F   F   F
  0.9174646079284372  0.3124999999464819  0.2838315333135668   F   F   F
  0.5020703360905271  0.3753090750441719  0.3701509784836348   T   T   T
  0.8365944261594219  0.3151410810349761  0.3689337922404304   T   T   T
  0.6695111042070260  0.3130422961957171  0.3677751412098775   T   T   T
  0.7503816142176253  0.3753666124794376  0.4537966931879492   T   T   T
  0.5791630353436885  0.3146011429519269  0.4547243613770482   T   T   T
  0.9206769208920995  0.3122837507924529  0.4541933585075630   T   T   T
  0.5017687199486912  0.3705173258453996  0.5444996749374921   T   T   T
  0.8348608784494633  0.3156984354804298  0.5424571638170840   T   T   T
  0.6664088666047336  0.3126325025981348  0.5409737515908603   T   T   T
  0.5000000000000000  0.3750000001070433  0.1962037549895328   F   F   F
  0.8335422809022219  0.4375000002676046  0.2032829710819826   F   F   F
  0.6664576892793903  0.4375000002676046  0.2032829710819826   F   F   F
  0.7499999997239044  0.0000000000000000  0.2787808134173062   F   F   F
  0.5825353920715628  0.4375000002676046  0.2838315333135668   F   F   F
  0.9174646079284372  0.4375000002676046  0.2838315333135668   F   F   F
  0.5009368648038358  0.0006132939250372  0.3703009330822775   T   T   T
  0.8342340451866810  0.4395961618106112  0.3693906701990584   T   T   T
  0.6692813491967932  0.4372354118967505  0.3678285790753225   T   T   T
  0.7528580618540762  0.9985373486469002  0.4563480489871977   T   T   T
  0.5829283264797408  0.4353560781641273  0.4533512009327079   T   T   T
  0.9176981467413072  0.4356865548359761  0.4568262002165552   T   T   T
  0.5038855256414773  0.0015821555247916  0.5401716135592277   T   T   T
  0.8326458860071586  0.4374000850121508  0.5427838766450527   T   T   T
  0.6645883990804173  0.4363739398170650  0.5389757460218149   T   T   T
  0.5000000000000000  0.5000000000000000  0.1962037549895328   F   F   F
  0.8335422809022219  0.5625000001605613  0.2032829710819826   F   F   F
  0.6664576892793903  0.5625000001605613  0.2032829710819826   F   F   F
  0.7499999997239044  0.6249999998929567  0.2787808134173062   F   F   F
  0.5825353920715628  0.5625000001605613  0.2838315333135668   F   F   F
  0.9174646079284372  0.5625000001605613  0.2838315333135668   F   F   F
  0.5026521281390871  0.6263089725954468  0.3679539347204249   T   T   T
  0.8344953067266651  0.5626264505211305  0.3700816344651890   T   T   T
  0.6670509307371157  0.5639865299999571  0.3683411701308104   T   T   T
  0.7479112353062870  0.6233778711273973  0.4550364902457228   T   T   T
  0.5822574221057114  0.5596689152994158  0.4534794648291317   T   T   T
  0.9205293367897261  0.5632330104761101  0.4540988984277701   T   T   T
  0.4985152591812848  0.6247138633932262  0.5405431381969736   T   T   T
  0.8384636067170056  0.5618316421412199  0.5399839194925555   T   T   T
  0.6717143359912132  0.5640745190296305  0.5405248912831602   T   T   T
  0.5000000000000000  0.6249999998929567  0.1962037549895328   F   F   F
  0.8335422809022219  0.6875000000535181  0.2032829710819826   F   F   F
  0.6664576892793903  0.6875000000535181  0.2032829710819826   F   F   F
  0.7499999997239044  0.7500000002140865  0.2787808134173062   F   F   F
  0.5825353920715628  0.6875000000535181  0.2838315333135668   F   F   F
  0.9174646079284372  0.6875000000535181  0.2838315333135668   F   F   F
  0.5016421829352310  0.7501123160310968  0.3696461201866987   T   T   T
  0.8342210663049612  0.6851094039117473  0.3682093764045189   T   T   T
  0.6702996047032037  0.6903264262385900  0.3660102175498452   T   T   T
  0.7503511391180483  0.7490484703127128  0.4547255391762553   T   T   T
  0.5859618552704421  0.6876128275905462  0.4526440851886774   T   T   T
  0.9140257148711546  0.6892087854190111  0.4532089106658966   T   T   T
  0.5023143911892264  0.7510425588019064  0.5415439854386174   T   T   T
  0.8339745710243992  0.6868627624113137  0.5425983341629368   T   T   T
  0.6628350113212290  0.6860045666113385  0.5417356411705975   T   T   T
  0.5000000000000000  0.7500000002140865  0.1962037549895328   F   F   F
  0.8335422809022219  0.8124999999464819  0.2032829710819826   F   F   F
  0.6664576892793903  0.8124999999464819  0.2032829710819826   F   F   F
  0.7499999997239044  0.8750000001070433  0.2787808134173062   F   F   F
  0.5825353920715628  0.8124999999464819  0.2838315333135668   F   F   F
  0.9174646079284372  0.8124999999464819  0.2838315333135668   F   F   F
  0.5036948397011579  0.8771994627836252  0.3693057874247645   T   T   T
  0.8321147083010805  0.8141772852094319  0.3693916225241376   T   T   T
  0.6717098293019667  0.8139188026052608  0.3702963856801810   T   T   T
  0.7532414240101909  0.8748060586055908  0.4544076154007763   T   T   T
  0.5835030437819122  0.8150120407717123  0.4540539841572236   T   T   T
  0.9187796836423943  0.8147841531004431  0.4562956348443062   T   T   T
  0.5029279263499141  0.8764936392054798  0.5346839370257567   T   T   T
  0.8307552957804388  0.8108205496775366  0.5418679188399004   T   T   T
  0.6632051782248856  0.8123351910846411  0.5394224460592797   T   T   T
  0.5000000000000000  0.8750000001070433  0.1962037549895328   F   F   F
  0.8335422809022219  0.9375000002676046  0.2032829710819826   F   F   F
  0.6664576892793903  0.9375000002676046  0.2032829710819826   F   F   F
  0.7499999997239044  0.5000000000000000  0.2787808134173062   F   F   F
  0.5825353920715628  0.9375000002676046  0.2838315333135668   F   F   F
  0.9174646079284372  0.9375000002676046  0.2838315333135668   F   F   F
  0.5023309580952946  0.5016178087884948  0.3688938410733724   T   T   T
  0.8296350506102717  0.9385393742628700  0.3690758026912817   T   T   T
  0.6640963019655308  0.9394796222477598  0.3676897178488078   T   T   T
  0.7503554757281937  0.4993267571342881  0.4575301115889487   T   T   T
  0.5868301972154080  0.9359113088031489  0.4558916654839067   T   T   T
  0.9177253410446462  0.9383578178541689  0.4534493971338379   T   T   T
  0.5003032526978864  0.4982777214442370  0.5386587313887266   T   T   T
  0.8397941411559422  0.9365056362773789  0.5437045168420453   T   T   T
  0.6651320258418698  0.9412377201968215  0.5437373066344040   T   T   T
  0.4070505905542277  0.0000000000000000  0.2321160648471405   F   F   F
  0.2499999997239044  0.0000000000000000  0.1975324349659786   F   F   F
  0.0929494094457723  0.0000000000000000  0.2321160648471405   F   F   F
  0.1544227962345630  0.1249999998929567  0.3158353176496362   F   F   F
  0.0000000000000000  0.1249999998929567  0.3028242704748862   F   F   F
  0.3455772037654370  0.1249999998929567  0.3158353176496362   F   F   F
  0.4019044142427046  0.1280169479779971  0.4010643478529428   T   T   T
  0.2480522514839819  0.1279156840728734  0.3896950186808700   T   T   T
  0.1017900654485982  0.1275056189334945  0.4004185570046037   T   T   T
  0.1545101720211204  0.1254814994816870  0.4834403095002643   T   T   T
  0.0037759941764936  0.1229736799391226  0.4712769546069612   T   T   T
  0.3454500423429717  0.1235346942882656  0.4861464796535151   T   T   T
  0.4080676757438433  0.1310262249083848  0.5737928720186681   T   T   T
  0.2555460010646593  0.1238381147422322  0.5589563293711531   T   T   T
  0.1029811898927007  0.1249855378188836  0.5687293049276183   T   T   T
  0.4070505905542277  0.1249999998929567  0.2321160648471405   F   F   F
  0.2499999997239044  0.1249999998929567  0.1975324349659786   F   F   F
  0.0929494094457723  0.1249999998929567  0.2321160648471405   F   F   F
  0.1544227962345630  0.2500000002140865  0.3158353176496362   F   F   F
  0.0000000000000000  0.2500000002140865  0.3028242704748862   F   F   F
  0.3455772037654370  0.2500000002140865  0.3158353176496362   F   F   F
  0.4032155100367101  0.2536366142924943  0.4044525645377252   T   T   T
  0.2478510003229522  0.2502074872640642  0.3895085822184783   T   T   T
  0.0995267256819151  0.2494822044884398  0.3997404724306141   T   T   T
  0.1508929078691388  0.2507574799258893  0.4848089160689784   T   T   T
  0.0028554166404995  0.2516817217577438  0.4722180299411345   T   T   T
  0.3483121794809311  0.2430999248874552  0.4892621438369753   T   T   T
  0.4029185633522885  0.2452966794269813  0.5782306042777041   T   T   T
  0.2484290053235910  0.2496609370990955  0.5558295234471810   T   T   T
  0.0975572627864215  0.2544659017497526  0.5678922157030072   T   T   T
  0.4070505905542277  0.2500000002140865  0.2321160648471405   F   F   F
  0.2499999997239044  0.2500000002140865  0.1975324349659786   F   F   F
  0.0929494094457723  0.2500000002140865  0.2321160648471405   F   F   F
  0.1544227962345630  0.3750000001070433  0.3158353176496362   F   F   F
  0.0000000000000000  0.3750000001070433  0.3028242704748862   F   F   F
  0.3455772037654370  0.3750000001070433  0.3158353176496362   F   F   F
  0.3999470419518055  0.3756278191087219  0.4012621416441590   T   T   T
  0.2531681874398120  0.3760789909017713  0.3866759185469772   T   T   T
  0.1037245041234522  0.3787406233532263  0.4025622393019189   T   T   T
  0.1492181429822605  0.3730831153117095  0.4874038736471566   T   T   T
  0.0034200431955878  0.3716040397773996  0.4694897474968405   T   T   T
  0.3490887538645437  0.3784372168897260  0.4942505038571267   T   T   T
  0.3973187583570323  0.3673166440365425  0.5804845586123747   T   T   T
  0.2482679375776066  0.3798421375414700  0.5573549057585696   T   T   T
  0.0960284397710363  0.3736298227892065  0.5718916895917898   T   T   T
  0.4070505905542277  0.3750000001070433  0.2321160648471405   F   F   F
  0.2499999997239044  0.3750000001070433  0.1975324349659786   F   F   F
  0.0929494094457723  0.3750000001070433  0.2321160648471405   F   F   F
  0.1544227962345630  0.0000000000000000  0.3158353176496362   F   F   F
  0.0000000000000000  0.0000000000000000  0.3028242704748862   F   F   F
  0.3455772037654370  0.0000000000000000  0.3158353176496362   F   F   F
  0.4004105490425996  0.0031376495001153  0.3993775748415523   T   T   T
  0.2466250638114920  0.0034233357916079  0.3857880789257201   T   T   T
  0.1017763561899930  0.0079588719437813  0.4023918774977159   T   T   T
  0.1479383999484899  0.9985635053225367  0.4880182814634718   T   T   T
  0.0003523513369473  0.0034505618966995  0.4734343950342174   T   T   T
  0.3463754534557591  0.9998471590202208  0.4880321196375282   T   T   T
  0.4024229306671245  0.9958982792676468  0.5677017751099595   T   T   T
  0.2480714003742131  0.0033408893503078  0.5569192007795574   T   T   T
  0.1017377894952514  0.0000215863239517  0.5722639719888939   T   T   T
  0.4070505905542277  0.5000000000000000  0.2321160648471405   F   F   F
  0.2499999997239044  0.5000000000000000  0.1975324349659786   F   F   F
  0.0929494094457723  0.5000000000000000  0.2321160648471405   F   F   F
  0.1544227962345630  0.6249999998929567  0.3158353176496362   F   F   F
  0.0000000000000000  0.6249999998929567  0.3028242704748862   F   F   F
  0.3455772037654370  0.6249999998929567  0.3158353176496362   F   F   F
  0.4021922682616794  0.6274418661052759  0.4004945890327377   T   T   T
  0.2488585862527980  0.6266679575507917  0.3880242901232984   T   T   T
  0.0964835576148121  0.6263763968085622  0.4032964510943542   T   T   T
  0.1462063591076643  0.6311327853183329  0.4893159836115042   T   T   T
  0.9994545846562090  0.6307378969647880  0.4691906893445638   T   T   T
  0.3550223684636991  0.6253881844926138  0.4846205941347702   T   T   T
  0.4020430338696153  0.6320670038749051  0.5714872370313551   T   T   T
  0.2528609265285001  0.6285807337282840  0.5553820010908139   T   T   T
  0.0949455516587238  0.6216810220295892  0.5700152404577009   T   T   T
  0.4070505905542277  0.6249999998929567  0.2321160648471405   F   F   F
  0.2499999997239044  0.6249999998929567  0.1975324349659786   F   F   F
  0.0929494094457723  0.6249999998929567  0.2321160648471405   F   F   F
  0.1544227962345630  0.7500000002140865  0.3158353176496362   F   F   F
  0.0000000000000000  0.7500000002140865  0.3028242704748862   F   F   F
  0.3455772037654370  0.7500000002140865  0.3158353176496362   F   F   F
  0.3991045730740992  0.7499943850549673  0.3997886316572076   T   T   T
  0.2422625791752358  0.7527282591194164  0.3863462715361402   T   T   T
  0.0991933177833227  0.7543523687071321  0.3999751842070997   T   T   T
  0.1506825458551158  0.7527578588315975  0.4913514932903859   T   T   T
  0.0053197387598420  0.7527049643964362  0.4783211318233416   T   T   T
  0.3446417134724007  0.7572584475493914  0.4840405663125874   T   T   T
  0.3988541520687135  0.7468203923868862  0.5657684048977225   T   T   T
  0.2463333965046289  0.7580723829943943  0.5648609937234641   T   T   T
  0.0946022928284242  0.7395420979066377  0.5749922845909515   T   T   T
  0.4070505905542277  0.7500000002140865  0.2321160648471405   F   F   F
  0.2499999997239044  0.7500000002140865  0.1975324349659786   F   F   F
  0.0929494094457723  0.7500000002140865  0.2321160648471405   F   F   F
  0.1544227962345630  0.8750000001070433  0.3158353176496362   F   F   F
  0.0000000000000000  0.8750000001070433  0.3028242704748862   F   F   F
  0.3455772037654370  0.8750000001070433  0.3158353176496362   F   F   F
  0.4036440830946262  0.8787991146361356  0.4032294858458140   T   T   T
  0.2483257231341235  0.8768615788949702  0.3855989841223704   T   T   T
  0.0971108208465380  0.8770746832078701  0.4015816927893857   T   T   T
  0.1530900476595333  0.8798678279295069  0.4855433460424244   T   T   T
  0.9998047105792273  0.8785854033252336  0.4743735047870146   T   T   T
  0.3484556396918899  0.8770982843543274  0.4866537920548438   T   T   T
  0.4054120611087320  0.8727901807272541  0.5672828192440040   T   T   T
  0.2536325899386348  0.8755202863245374  0.5565372158739278   T   T   T
  0.1049232921215502  0.8791384573759180  0.5704373730386351   T   T   T
  0.4070505905542277  0.8750000001070433  0.2321160648471405   F   F   F
  0.2499999997239044  0.8750000001070433  0.1975324349659786   F   F   F
  0.0929494094457723  0.8750000001070433  0.2321160648471405   F   F   F
  0.1544227962345630  0.5000000000000000  0.3158353176496362   F   F   F
  0.0000000000000000  0.5000000000000000  0.3028242704748862   F   F   F
  0.3455772037654370  0.5000000000000000  0.3158353176496362   F   F   F
  0.4029594813437983  0.4988055559260977  0.4032685436281879   T   T   T
  0.2480094103082502  0.5031281679249607  0.3847461047798831   T   T   T
  0.1015961109413135  0.5015653458917214  0.4035855982057691   T   T   T
  0.1470241994621841  0.5058676312458948  0.4863639794944892   T   T   T
  0.0025075606676121  0.4969813280782204  0.4709561365476798   T   T   T
  0.3512993288863715  0.4997844645940029  0.4938436923760290   T   T   T
  0.4021084386328352  0.5008899200945777  0.5762606677455496   T   T   T
  0.2526359249068931  0.5008999193062145  0.5600677727733455   T   T   T
  0.0964010021083402  0.5033255517728888  0.5709960745526478   T   T   T
  0.9070505905542277  0.0000000000000000  0.2321160648471405   F   F   F
  0.7499999997239044  0.0000000000000000  0.1975324349659786   F   F   F
  0.5929494094457723  0.0000000000000000  0.2321160648471405   F   F   F
  0.6544227962345630  0.1249999998929567  0.3158353176496362   F   F   F
  0.5000000000000000  0.1249999998929567  0.3028242704748862   F   F   F
  0.8455772037654370  0.1249999998929567  0.3158353176496362   F   F   F
  0.9065907350699661  0.1238320183971368  0.4028136892439831   T   T   T
  0.7564346658372336  0.1231300831860247  0.3874235695193236   T   T   T
  0.6008392876821613  0.1295757911790835  0.4032994789488059   T   T   T
  0.6507262825319526  0.1268654118471040  0.4876997011743346   T   T   T
  0.4993251677901052  0.1270763634372462  0.4693296148964668   T   T   T
  0.8470040684311442  0.1246065926220104  0.4870121487138839   T   T   T
  0.9088794978502598  0.1254984335936267  0.5662397234524498   T   T   T
  0.7579910825355454  0.1304652711203104  0.5581734553405243   T   T   T
  0.5983319398234467  0.1259510966000156  0.5696851532707609   T   T   T
  0.9070505905542277  0.1249999998929567  0.2321160648471405   F   F   F
  0.7499999997239044  0.1249999998929567  0.1975324349659786   F   F   F
  0.5929494094457723  0.1249999998929567  0.2321160648471405   F   F   F
  0.6544227962345630  0.2500000002140865  0.3158353176496362   F   F   F
  0.5000000000000000  0.2500000002140865  0.3028242704748862   F   F   F
  0.8455772037654370  0.2500000002140865  0.3158353176496362   F   F   F
  0.8942077240418014  0.2461130623738580  0.4025414242525098   T   T   T
  0.7572309211179185  0.2502588428240099  0.3847748698359020   T   T   T
  0.6002242689872491  0.2515936898970932  0.4007155911413048   T   T   T
  0.6516609076455239  0.2525483231772898  0.4882271403835539   T   T   T
  0.4963789976669777  0.2513495325212191  0.4763012663388902   T   T   T
  0.8554913186559132  0.2517870834997983  0.4888925400382164   T   T   T
  0.9116602012243062  0.2521951658788698  0.5707292718106565   T   T   T
  0.7533545022118135  0.2520445898795036  0.5596590478895128   T   T   T
  0.5978263221757991  0.2532003284923603  0.5752112569772454   T   T   T
  0.9070505905542277  0.2500000002140865  0.2321160648471405   F   F   F
  0.7499999997239044  0.2500000002140865  0.1975324349659786   F   F   F
  0.5929494094457723  0.2500000002140865  0.2321160648471405   F   F   F
  0.6544227962345630  0.3750000001070433  0.3158353176496362   F   F   F
  0.5000000000000000  0.3750000001070433  0.3028242704748862   F   F   F
  0.8455772037654370  0.3750000001070433  0.3158353176496362   F   F   F
  0.9040661975768663  0.3740073551051068  0.4032665151138060   T   T   T
  0.7524923405025082  0.3741305017446775  0.3884161896688439   T   T   T
  0.6018022638789347  0.3764421590103072  0.4009383981696999   T   T   T
  0.6485350266300982  0.3742743451782561  0.4847986220057072   T   T   T
  0.4922147347451197  0.3725371329860045  0.4751628810683843   T   T   T
  0.8492693013717134  0.3753262501003368  0.4886697890052126   T   T   T
  0.9032931212206867  0.3770232572718966  0.5772962828216320   T   T   T
  0.7478169832900092  0.3745032983510129  0.5607893795346492   T   T   T
  0.5996735415671040  0.3746534645620345  0.5692725094922805   T   T   T
  0.9070505905542277  0.3750000001070433  0.2321160648471405   F   F   F