Ta N Cu Ru                              
   1.00000000000000     
    18.1096308199999996    0.0000000000000000    0.0000000000000000
     0.0000000000000000   11.6775998899999998    0.0000000000000000
     0.0000000000000000    0.0000000000000000   23.4818170799999990
   Ta   N    Cu   Ru
   119   120     2     1
Direct
  0.0005069789385250  0.0000102340021023  0.2554617318070884
  0.3338490220134591  0.1248379714603426  0.2641642337568292
  0.1669117334814287  0.1247873485021695  0.2642541583785580
  0.2505648729268267  0.2500443253352003  0.3618103479864481
  0.0830795856895935  0.1250353671184639  0.3690100922500918
  0.4181774903178692  0.1250808568028550  0.3686974667940217
  0.0004998894298959  0.2500764129843505  0.4802973445222932
  0.3324339610670464  0.1250878059523094  0.4781747416251420
  0.1680013015905108  0.1249491277983107  0.4787462153766442
  0.2504523857312279  0.2502037063627124  0.5912969491933228
  0.0842029784327744  0.1257249561343745  0.5900042063644318
  0.4167369719576725  0.1251538912089288  0.5899702631263064
  0.3368020656903385  0.1252053159456754  0.7042996658002643
  0.1689434576490132  0.1259728334192019  0.7022363796922926
  0.0008298394847341  0.2500521566960546  0.2554404450891306
  0.3338067368185664  0.3753170368709280  0.2641671804967382
  0.1669418132202810  0.3753838557045229  0.2642834094324097
  0.2504621004110941  0.5000794658500605  0.3617086850233172
  0.0830714448807398  0.3751109985172411  0.3690471628344966
  0.4181634401157407  0.3750534488804593  0.3687083729444412
  0.0005051749972225  0.5000803570009527  0.4805214663121191
  0.3324659561752810  0.3751875177470261  0.4782462229106004
  0.1680746498712782  0.3751958388708884  0.4787789297709156
  0.2500686650084579  0.4997968615834403  0.5914640361477222
  0.0841040775613439  0.3743346013904559  0.5901402539309311
  0.4166927878551953  0.3753148210746167  0.5899683999919744
  0.0003477683261068  0.4881514023496563  0.7047254618505361
  0.3364265495588853  0.3751098206653491  0.7042001293278023
  0.1670665236650622  0.3765996199245418  0.7044531743965905
  0.0005125473290767  0.5001353075588276  0.2554709363139393
  0.3340136594092754  0.6247995180588793  0.2641940873241709
  0.1668320559259570  0.6248570454802556  0.2642722884881856
  0.2503592238064279  0.7500881513985288  0.3618567356494475
  0.0830992327159109  0.6251180373118548  0.3690740535974467
  0.4180957581442167  0.6250662049794939  0.3687822975779064
  0.0004990435542962  0.7500427956350630  0.4807155728069235
  0.3326806872118213  0.6251835902443236  0.4784103373590807
  0.1678510416712743  0.6251214649547645  0.4788947928894726
  0.2500835236789494  0.7500528321657078  0.5915598112040480
  0.0838342284605734  0.6248350522184678  0.5908943681496378
  0.4166095851184388  0.6252342741986912  0.5900960146719539
  0.0003826080241145  0.7503113155951501  0.7033628722643260
  0.3357650507917010  0.6251506049444897  0.7044130152532856
  0.1645790872410478  0.6251527980829410  0.7049014259244657
  0.0008347835058035  0.7500730247654398  0.2554656291699661
  0.3340106541953674  0.8753388680836712  0.2642205312877186
  0.1668162149279229  0.8752409292972338  0.2642494644784862
  0.2504687090841953  0.0001789908949508  0.3617168190644561
  0.0830980646974280  0.8750499187857936  0.3690572997212051
  0.4180821249765367  0.8750594354401836  0.3687744877170865
  0.0005048260248021  0.9998742697184623  0.4805065537549510
  0.3326986996079062  0.8751042382605666  0.4784635463994337
  0.1679261292949951  0.8750449377924148  0.4788936961645557
  0.2499826399703569  0.0007142136354429  0.5915919672233863
  0.0836887786143580  0.8748889480085649  0.5909570085229537
  0.4165550399115437  0.8751268739135243  0.5900437002551581
  0.0003685988993291  0.0008193783731224  0.7034759859897654
  0.3360306812431495  0.8754423566073078  0.7043015267042378
  0.1659535914309231  0.8732784616609678  0.7050474622610422
  0.5008425520210731  0.0001175776381869  0.2554722231058515
  0.8343327814256196  0.1252654614444944  0.2642699580009373
  0.6674189665136534  0.1254093247216427  0.2641569460895026
  0.7505788508467247  0.2500182659077718  0.3616722695765897
  0.5830531677231987  0.1250724575064899  0.3686870361445347
  0.9180999850482758  0.1250231480694452  0.3690345289517801
  0.5005078902198747  0.2500834439029054  0.4803615112416009
  0.8329194592259713  0.1249240261864626  0.4787603820117964
  0.6685044207703171  0.1250558546472918  0.4782198465246782
  0.7502045657077557  0.2501585906902319  0.5913332019023191
  0.5839963934299960  0.1251030957700578  0.5899709233495193
  0.9165789112617329  0.1256674822388106  0.5899847192905547
  0.5002662725117544  0.2502827759868423  0.7020641874197133
  0.8317452051757144  0.1258880247256384  0.7022220677274273
  0.6638417779551641  0.1252005623715748  0.7043262472003674
  0.5005149921864374  0.2500273991122193  0.2554769386551500
  0.8342927330173008  0.3748825632376884  0.2643017381497905
  0.6674698589301680  0.3746924189967928  0.2641618188850158
  0.7507048457452627  0.5000390023969239  0.3618306865743074
  0.5830951894485517  0.3750189491467810  0.3686955792693994
  0.9181134321879511  0.3750877768516831  0.3690647989466303
  0.5005070950937899  0.5002262317545169  0.4802231639878281
  0.8328514840059592  0.3751419671946421  0.4787911790886856
  0.6685088122997239  0.3751334707889862  0.4782767501826271
  0.7505983010142470  0.4997700160195992  0.5914426412903215
  0.5840757315992163  0.3752802949334116  0.5899661638548463
  0.9166809628886283  0.3743513767907742  0.5901209730025833
  0.5002856607722167  0.5002588590637885  0.7022333389264753
  0.8335350383950826  0.3765408352055462  0.7044096354072424
  0.6642059208231392  0.3750749691147575  0.7042073706377348
  0.5008639269482462  0.5001484839980073  0.2554287281088743
  0.8343608983538833  0.6253227115503335  0.2642971342745680
  0.6672265854823510  0.6253635657661801  0.2641576107518234
  0.7508038024123806  0.7500572816300088  0.3617141225206025
  0.5831774957395568  0.6250943406771522  0.3687584007660912
  0.9180933588838501  0.6251181357713270  0.3690840187967602
  0.5005063658061190  0.7501097113097420  0.4801796464806511
  0.8330383654170136  0.6251289583130585  0.4788770318465437
  0.6682827435015761  0.6251730534235027  0.4784138856585157
  0.7506082114721514  0.7500226070922538  0.5915724197909283
  0.5841855953840722  0.6252243759624104  0.5900880540766302
  0.9169457856380171  0.6248153363004477  0.5908906998041201
  0.5003061449725211  0.7503119477367800  0.7022836927885330
  0.8361700593477310  0.6251168398379306  0.7048626518030106
  0.6649596672802570  0.6251011396371533  0.7044152288490159
  0.5005246928191969  0.7499827644858273  0.2553805296403370
  0.8344124222478511  0.8747262997527218  0.2642738283593886
  0.6671962634559240  0.8748027152688194  0.2641680039185048
  0.7506864329977422  0.0001420432844344  0.3618488688349136
  0.5831785065021831  0.8750626795067087  0.3687475043870525
  0.9180994430894954  0.8750219157077633  0.3690684600759746
  0.5005026814996600  0.0000960996310113  0.4802666542778571
  0.8329606743407983  0.8750049145711538  0.4788933900607045
  0.6682681824333879  0.8750688807953040  0.4784657825522838
  0.7507259847160734  0.0007166933902344  0.5916219642678159
  0.5842455878515611  0.8751194325709644  0.5900322059643190
  0.9170778211086386  0.8748688672873280  0.5909475213602821
  0.5002632461203226  0.0000754970871016  0.7021513308622754
  0.8347733053722047  0.8732074437075668  0.7050238670400497
  0.6646464775123736  0.8753851814117830  0.7043310171383222
  0.4074155279237324  0.0001621286256773  0.3015139978488934
  0.2503971317449921  0.9999896874552399  0.2576838069642057
  0.0936648564463667  0.0000108475142228  0.3018528251999920
  0.1549504062399171  0.2500729737807219  0.4105163277901841
  0.0006191239322329  0.2500394874955986  0.3936712338734439
  0.3460795149724999  0.2500922040040292  0.4102546949148061
  0.4013793950877063  0.2501458688547255  0.5221254302819014
  0.2504471115411339  0.2500511885626005  0.5032009250161142
  0.0995128081687465  0.2501074530646102  0.5225675860825725
  0.1520947089245327  0.2508102165133470  0.6337717515157553
  0.0003938782108560  0.2498640219798840  0.6143745281325883
  0.3488752951934527  0.2503301720378965  0.6334527967069632
  0.4041276884293231  0.2503456832019226  0.7408134132431811
  0.2515571067938491  0.2499197726685535  0.7247320345617451
  0.1007010937023652  0.2547364900450853  0.7413718840340975
  0.4072133731472481  0.2500803225101292  0.3015605593275608
  0.2503444311756288  0.2500572735700934  0.2588342648397574
  0.0939157815826638  0.2500824124578705  0.3018612432516249
  0.1549635838311317  0.5001241320361199  0.4106232622699992
  0.0005761072535572  0.5001543968565483  0.3938254889418180
  0.3460397746740786  0.5001649835818274  0.4102623383932959
  0.4014083695998542  0.5001892433586440  0.5221976866343662
  0.2503833057905461  0.5003965286309081  0.5033808406718722
  0.0993057080732524  0.4999040318367817  0.5230148777725099
  0.1516227540982809  0.4995333045651843  0.6340653618948083
  0.0003860821399641  0.4980528329372438  0.6156563350428240
  0.3485435159780110  0.5004190814661965  0.6334003796213927
  0.4036680069645030  0.5002991606136075  0.7406076071087587
  0.2505753845520132  0.4997750484156833  0.7244826429094727
  0.0975667823625355  0.4985087374788298  0.7415046817240277
  0.4074479621259659  0.4999843970626722  0.3014925868925823
  0.2504108602412636  0.5001614350501472  0.2575741453307026
  0.0936564144927329  0.5001350867445459  0.3018804304438905
  0.1549415779959869  0.7501098671717994  0.4106853298604237
  0.0006199750312759  0.7500952301541892  0.3939220905654917
  0.3459693202112796  0.7501083085300405  0.4103099572978040
  0.4014033011517949  0.7501018835375606  0.5222831240441698
  0.2503319136158095  0.7501041621635496  0.5034317578694858
  0.0993380393488285  0.7500495563876632  0.5229743533823018
  0.1519806397474794  0.7502599883058659  0.6341623538080936
  0.0003973979226884  0.7493170925937785  0.6146753127544234
  0.3484056603020751  0.7500930127575620  0.6334183265524433
  0.4035095100315347  0.7499965678608604  0.7405795432312727
  0.2500117532957581  0.7509050991887796  0.7243187805706598
  0.0974386316587386  0.7499283067545136  0.7415340501147988
  0.4071974308729294  0.7500493662586172  0.3015850977422561
  0.2504770861438324  0.7500865707731843  0.2589382471958953
  0.0938692742018693  0.7500740832303621  0.3019686150480934
  0.1549702865501773  0.0000596301898433  0.4106023937680062
  0.0005750562502742  0.0000009460080430  0.3938202994448958
  0.3460325861366929  0.0000747459655702  0.4102851106438332
  0.4013763975127401  0.0002601494487563  0.5221752800110973
  0.2503228062517412  0.9999705316295007  0.5034870774642144
  0.0992871358100039  0.9999517974095965  0.5229009409265932
  0.1513015847634923  0.0001551941534864  0.6343142287104787
  0.0003888961935652  0.0012706118994489  0.6151381795381363
  0.3486120313672354  0.9999922215427732  0.6333674346135668
  0.4038910588343513  0.0000825911704142  0.7407346300975425
  0.2511194975813191  0.0007209510681578  0.7244650836323391
  0.0984969204918830  0.0012222185857136  0.7430086476205207
  0.9073709811458539  0.9999885229923506  0.3018876431279595
  0.7508229992697603  0.9999625194470937  0.2589292474268034
  0.5941286986708518  0.0001633582275538  0.3015738846547403
  0.6550966680543896  0.2500554689186529  0.4102596291678142
  0.5005981553521632  0.2500986945946871  0.3935721963287671
  0.8461741173368535  0.2500447948782305  0.4105121997694883
  0.9014433385681789  0.2500887309458640  0.5225509891785596
  0.7504805600112748  0.2500044650993974  0.5032272813744664
  0.5995631034966034  0.2501018674640539  0.5221590333009130
  0.6517883198788873  0.2502758277554746  0.6334802339705173
  0.5003696165540390  0.2502360351389122  0.6133979818089401
  0.8486252334134138  0.2507741394395612  0.6337335583883821
  0.9000485145575877  0.2547317195065764  0.7412795844317015
  0.7491079634101585  0.2498611507970160  0.7247143375554065
  0.5964496849804677  0.2503135055331043  0.7407753179651616
  0.9075931390704502  0.2500672957903117  0.3017957118308167
  0.7509465385608373  0.2500251277502955  0.2574270731288449
  0.5938325104873403  0.2500545033922720  0.3015273654746233
  0.6551372917731659  0.5001349550899333  0.4102887023082324
  0.5006563534332547  0.5001035841218082  0.3935028871035808
  0.8461796964403306  0.5000983476032391  0.4106368793784183
  0.9016329379946482  0.4999002755431662  0.5229858229321872
  0.7505484798131656  0.5003609774969217  0.5033827032431606
  0.5995555996305293  0.5001653496785278  0.5222153631309547
  0.6521682847484302  0.5004010078699321  0.6334212496735696
  0.5003874928975068  0.5003204514777584  0.6135789938087484
  0.8490728981711217  0.4994963448414471  0.6340267532392525
  0.9031056858690560  0.4984120427822357  0.7414615593042720
  0.7500937528558137  0.4997197565274427  0.7244856421969963
  0.5969568632304922  0.5002583119304101  0.7405709417732357
  0.9073904959302734  0.5001309958336333  0.3019101027793371
  0.7507935753489802  0.5001408074917548  0.2587470236587267
  0.5941280020343140  0.4999735823616763  0.3015620359511058
  0.6552113698704275  0.7501033640852379  0.4102929411983624
  0.5006042033937350  0.7500901702786963  0.3934876640045545
  0.8461879684288680  0.7500955892252970  0.4106639108841363
  0.9015964751655736  0.7500301472268469  0.5229466022291492
  0.7505923074528229  0.7500796706578539  0.5034315966844194
  0.5995512792160850  0.7500864261294410  0.5222917995967247
  0.6523134328131583  0.7500746960769601  0.6334434642231556
  0.5003952197800563  0.7502539045096053  0.6136165527467489
  0.8487566520175877  0.7502275203506056  0.6341266009351544
  0.9032887013836099  0.7498526218894097  0.7414970325395643
  0.7506950014781686  0.7508493148196514  0.7243045115163379
  0.5971456707318541  0.7499369618884546  0.7405440030047488
  0.9076413341708701  0.7500627761074660  0.3018824191079253
  0.7507616494509127  0.7500890449849552  0.2576560271738751
  0.5938665853171358  0.7500608280870693  0.3015344603816733
  0.6551256429881493  0.0000672192813942  0.4103161105886307
  0.5006435442983940  0.0000026515319035  0.3935350902363359
  0.8461676756536696  0.0000317292126269  0.4106212638928613
  0.9016518648608253  0.9999150138399995  0.5228785192368498
  0.7506024641949389  0.9999483888611547  0.5035242362652215
  0.5995709760686837  0.0002351773633914  0.5221935930448268
  0.6520920852647183  0.9999694947349147  0.6334002643724728
  0.5003742780290974  0.9999879929920158  0.6135129687364325
  0.8494349555431056  0.0001230122947826  0.6343050831790070
  0.9022112139341865  0.0011585147282051  0.7429996392205199
  0.7495539527734353  0.0006732537076415  0.7244764486046081
  0.5966937507282547  0.0000551173623007  0.7406979781731157
  0.0674335956744261  0.1334700745650133  0.7886057272189855
  0.9330660578731487  0.1334796867176175  0.7886007411942410
  0.0004542147186083  0.2540052832849489  0.7001957774302344
 
  0.00000000E+00  0.00000000E+00  0.00000000E+00
  0.00000000E+00  0.00000000E+00  0.00000000E+00
  0.00000000E+00  0.00000000E+00  0.00000000E+00
  0.00000000E+00  0.00000000E+00  0.00000000E+00
  0.00000000E+00  0.00000000E+00  0.00000000E+00
  0.00000000E+00  0.00000000E+00  0.00000000E+00
  0.00000000E+00  0.00000000E+00  0.00000000E+00
  0.00000000E+00  0.00000000E+00  0.00000000E+00
  0.00000000E+00  0.00000000E+00  0.00000000E+00
  0.00000000E+00  0.00000000E+00  0.00000000E+00
  0.00000000E+00  0.00000000E+00  0.00000000E+00
  0.00000000E+00  0.00000000E+00  0.00000000E+00
  0.00000000E+00  0.00000000E+00  0.00000000E+00
  0.00000000E+00  0.00000000E+00  0.00000000E+00
  0.00000000E+00  0.00000000E+00  0.00000000E+00
  0.00000000E+00  0.00000000E+00  0.00000000E+00
  0.00000000E+00  0.00000000E+00  0.00000000E+00
  0.00000000E+00  0.00000000E+00  0.00000000E+00
  0.00000000E+00  0.00000000E+00  0.00000000E+00
  0.00000000E+00  0.00000000E+00  0.00000000E+00
  0.00000000E+00  0.00000000E+00  0.00000000E+00
  0.00000000E+00  0.00000000E+00  0.00000000E+00
  0.00000000E+00  0.00000000E+00  0.00000000E+00
  0.00000000E+00  0.00000000E+00  0.00000000E+00
  0.00000000E+00  0.00000000E+00  0.00000000E+00
  0.00000000E+00  0.00000000E+00  0.00000000E+00
  0.00000000E+00  0.00000000E+00  0.00000000E+00
  0.00000000E+00  0.00000000E+00  0.00000000E+00
  0.00000000E+00  0.00000000E+00  0.00000000E+00
  0.00000000E+00  0.00000000E+00  0.00000000E+00
  0.00000000E+00  0.00000000E+00  0.00000000E+00
  0.00000000E+00  0.00000000E+00  0.00000000E+00
  0.00000000E+00  0.00000000E+00  0.00000000E+00
  0.00000000E+00  0.00000000E+00  0.00000000E+00
  0.00000000E+00  0.00000000E+00  0.00000000E+00
  0.00000000E+00  0.00000000E+00  0.00000000E+00
  0.00000000E+00  0.00000000E+00  0.00000000E+00
  0.00000000E+00  0.00000000E+00  0.00000000E+00
  0.00000000E+00  0.00000000E+00  0.00000000E+00
  0.00000000E+00  0.00000000E+00  0.00000000E+00
  0.00000000E+00  0.00000000E+00  0.00000000E+00
  0.00000000E+00  0.00000000E+00  0.00000000E+00
  0.00000000E+00  0.00000000E+00  0.00000000E+00
  0.00000000E+00  0.00000000E+00  0.00000000E+00
  0.00000000E+00  0.00000000E+00  0.00000000E+00
  0.00000000E+00  0.00000000E+00  0.00000000E+00
  0.00000000E+00  0.00000000E+00  0.00000000E+00
  0.00000000E+00  0.00000000E+00  0.00000000E+00
  0.00000000E+00  0.00000000E+00  0.00000000E+00
  0.00000000E+00  0.00000000E+00  0.00000000E+00
  0.00000000E+00  0.00000000E+00  0.00000000E+00
  0.00000000E+00  0.00000000E+00  0.00000000E+00
  0.00000000E+00  0.00000000E+00  0.00000000E+00
  0.00000000E+00  0.00000000E+00  0.00000000E+00
  0.00000000E+00  0.00000000E+00  0.00000000E+00
  0.00000000E+00  0.00000000E+00  0.00000000E+00
  0.00000000E+00  0.00000000E+00  0.00000000E+00
  0.00000000E+00  0.00000000E+00  0.00000000E+00
  0.00000000E+00  0.00000000E+00  0.00000000E+00
  0.00000000E+00  0.00000000E+00  0.00000000E+00
  0.00000000E+00  0.00000000E+00  0.00000000E+00
  0.00000000E+00  0.00000000E+00  0.00000000E+00
  0.00000000E+00  0.00000000E+00  0.00000000E+00
  0.00000000E+00  0.00000000E+00  0.00000000E+00
  0.00000000E+00  0.00000000E+00  0.00000000E+00
  0.00000000E+00  0.00000000E+00  0.00000000E+00
  0.00000000E+00  0.00000000E+00  0.00000000E+00
  0.00000000E+00  0.00000000E+00  0.00000000E+00
  0.00000000E+00  0.00000000E+00  0.00000000E+00
  0.00000000E+00  0.00000000E+00  0.00000000E+00
  0.00000000E+00  0.00000000E+00  0.00000000E+00
  0.00000000E+00  0.00000000E+00  0.00000000E+00
  0.00000000E+00  0.00000000E+00  0.00000000E+00
  0.00000000E+00  0.00000000E+00  0.00000000E+00
  0.00000000E+00  0.00000000E+00  0.00000000E+00
  0.00000000E+00  0.00000000E+00  0.00000000E+00
  0.00000000E+00  0.00000000E+00  0.00000000E+00
  0.00000000E+00  0.00000000E+00  0.00000000E+00
  0.00000000E+00  0.00000000E+00  0.00000000E+00
  0.00000000E+00  0.00000000E+00  0.00000000E+00
  0.00000000E+00  0.00000000E+00  0.00000000E+00
  0.00000000E+00  0.00000000E+00  0.00000000E+00
  0.00000000E+00  0.00000000E+00  0.00000000E+00
  0.00000000E+00  0.00000000E+00  0.00000000E+00
  0.00000000E+00  0.00000000E+00  0.00000000E+00
  0.00000000E+00  0.00000000E+00  0.00000000E+00
  0.00000000E+00  0.00000000E+00  0.00000000E+00
  0.00000000E+00  0.00000000E+00  0.00000000E+00
  0.00000000E+00  0.00000000E+00  0.00000000E+00
  0.00000000E+00  0.00000000E+00  0.00000000E+00
  0.00000000E+00  0.00000000E+00  0.00000000E+00
  0.00000000E+00  0.00000000E+00  0.00000000E+00
  0.00000000E+00  0.00000000E+00  0.00000000E+00
  0.00000000E+00  0.00000000E+00  0.00000000E+00
  0.00000000E+00  0.00000000E+00  0.00000000E+00
  0.00000000E+00  0.00000000E+00  0.00000000E+00
  0.00000000E+00  0.00000000E+00  0.00000000E+00
  0.00000000E+00  0.00000000E+00  0.00000000E+00
  0.00000000E+00  0.00000000E+00  0.00000000E+00
  0.00000000E+00  0.00000000E+00  0.00000000E+00
  0.00000000E+00  0.00000000E+00  0.00000000E+00
  0.00000000E+00  0.00000000E+00  0.00000000E+00
  0.00000000E+00  0.00000000E+00  0.00000000E+00
  0.00000000E+00  0.00000000E+00  0.00000000E+00
  0.00000000E+00  0.00000000E+00  0.00000000E+00
  0.00000000E+00  0.00000000E+00  0.00000000E+00
  0.00000000E+00  0.00000000E+00  0.00000000E+00
  0.00000000E+00  0.00000000E+00  0.00000000E+00
  0.00000000E+00  0.00000000E+00  0.00000000E+00
  0.00000000E+00  0.00000000E+00  0.00000000E+00
  0.00000000E+00  0.00000000E+00  0.00000000E+00
  0.00000000E+00  0.00000000E+00  0.00000000E+00
  0.00000000E+00  0.00000000E+00  0.00000000E+00
  0.00000000E+00  0.00000000E+00  0.00000000E+00
  0.00000000E+00  0.00000000E+00  0.00000000E+00
  0.00000000E+00  0.00000000E+00  0.00000000E+00
  0.00000000E+00  0.00000000E+00  0.00000000E+00
  0.00000000E+00  0.00000000E+00  0.00000000E+00
  0.00000000E+00  0.00000000E+00  0.00000000E+00
  0.00000000E+00  0.00000000E+00  0.00000000E+00
  0.00000000E+00  0.00000000E+00  0.00000000E+00
  0.00000000E+00  0.00000000E+00  0.00000000E+00
  0.00000000E+00  0.00000000E+00  0.00000000E+00
  0.00000000E+00  0.00000000E+00  0.00000000E+00
  0.00000000E+00  0.00000000E+00  0.00000000E+00
  0.00000000E+00  0.00000000E+00  0.00000000E+00
  0.00000000E+00  0.00000000E+00  0.00000000E+00
  0.00000000E+00  0.00000000E+00  0.00000000E+00
  0.00000000E+00  0.00000000E+00  0.00000000E+00
  0.00000000E+00  0.00000000E+00  0.00000000E+00
  0.00000000E+00  0.00000000E+00  0.00000000E+00
  0.00000000E+00  0.00000000E+00  0.00000000E+00
  0.00000000E+00  0.00000000E+00  0.00000000E+00
  0.00000000E+00  0.00000000E+00  0.00000000E+00
  0.00000000E+00  0.00000000E+00  0.00000000E+00
  0.00000000E+00  0.00000000E+00  0.00000000E+00
  0.00000000E+00  0.00000000E+00  0.00000000E+00
  0.00000000E+00  0.00000000E+00  0.00000000E+00
  0.00000000E+00  0.00000000E+00  0.00000000E+00
  0.00000000E+00  0.00000000E+00  0.00000000E+00
  0.00000000E+00  0.00000000E+00  0.00000000E+00
  0.00000000E+00  0.00000000E+00  0.00000000E+00
  0.00000000E+00  0.00000000E+00  0.00000000E+00
  0.00000000E+00  0.00000000E+00  0.00000000E+00
  0.00000000E+00  0.00000000E+00  0.00000000E+00
  0.00000000E+00  0.00000000E+00  0.00000000E+00
  0.00000000E+00  0.00000000E+00  0.00000000E+00
  0.00000000E+00  0.00000000E+00  0.00000000E+00
  0.00000000E+00  0.00000000E+00  0.00000000E+00
  0.00000000E+00  0.00000000E+00  0.00000000E+00
  0.00000000E+00  0.00000000E+00  0.00000000E+00
  0.00000000E+00  0.00000000E+00  0.00000000E+00
  0.00000000E+00  0.00000000E+00  0.00000000E+00
  0.00000000E+00  0.00000000E+00  0.00000000E+00
  0.00000000E+00  0.00000000E+00  0.00000000E+00
  0.00000000E+00  0.00000000E+00  0.00000000E+00
  0.00000000E+00  0.00000000E+00  0.00000000E+00
  0.00000000E+00  0.00000000E+00  0.00000000E+00
  0.00000000E+00  0.00000000E+00  0.00000000E+00
  0.00000000E+00  0.00000000E+00  0.00000000E+00
  0.00000000E+00  0.00000000E+00  0.00000000E+00
  0.00000000E+00  0.00000000E+00  0.00000000E+00
  0.00000000E+00  0.00000000E+00  0.00000000E+00
  0.00000000E+00  0.00000000E+00  0.00000000E+00
  0.00000000E+00  0.00000000E+00  0.00000000E+00
  0.00000000E+00  0.00000000E+00  0.00000000E+00
  0.00000000E+00  0.00000000E+00  0.00000000E+00
  0.00000000E+00  0.00000000E+00  0.00000000E+00
  0.00000000E+00  0.00000000E+00  0.00000000E+00
  0.00000000E+00  0.00000000E+00  0.00000000E+00
  0.00000000E+00  0.00000000E+00  0.00000000E+00
  0.00000000E+00  0.00000000E+00  0.00000000E+00
  0.00000000E+00  0.00000000E+00  0.00000000E+00
  0.00000000E+00  0.00000000E+00  0.00000000E+00
  0.00000000E+00  0.00000000E+00  0.00000000E+00
  0.00000000E+00  0.00000000E+00  0.00000000E+00
  0.00000000E+00  0.00000000E+00  0.00000000E+00
  0.00000000E+00  0.00000000E+00  0.00000000E+00
  0.00000000E+00  0.00000000E+00  0.00000000E+00
  0.00000000E+00  0.00000000E+00  0.00000000E+00
  0.00000000E+00  0.00000000E+00  0.00000000E+00
  0.00000000E+00  0.00000000E+00  0.00000000E+00
  0.00000000E+00  0.00000000E+00  0.00000000E+00
  0.00000000E+00  0.00000000E+00  0.00000000E+00
  0.00000000E+00  0.00000000E+00  0.00000000E+00
  0.00000000E+00  0.00000000E+00  0.00000000E+00
  0.00000000E+00  0.00000000E+00  0.00000000E+00
  0.00000000E+00  0.00000000E+00  0.00000000E+00
  0.00000000E+00  0.00000000E+00  0.00000000E+00
  0.00000000E+00  0.00000000E+00  0.00000000E+00
  0.00000000E+00  0.00000000E+00  0.00000000E+00
  0.00000000E+00  0.00000000E+00  0.00000000E+00
  0.00000000E+00  0.00000000E+00  0.00000000E+00
  0.00000000E+00  0.00000000E+00  0.00000000E+00
  0.00000000E+00  0.00000000E+00  0.00000000E+00
  0.00000000E+00  0.00000000E+00  0.00000000E+00
  0.00000000E+00  0.00000000E+00  0.00000000E+00
  0.00000000E+00  0.00000000E+00  0.00000000E+00
  0.00000000E+00  0.00000000E+00  0.00000000E+00
  0.00000000E+00  0.00000000E+00  0.00000000E+00
  0.00000000E+00  0.00000000E+00  0.00000000E+00
  0.00000000E+00  0.00000000E+00  0.00000000E+00
  0.00000000E+00  0.00000000E+00  0.00000000E+00
  0.00000000E+00  0.00000000E+00  0.00000000E+00
  0.00000000E+00  0.00000000E+00  0.00000000E+00
  0.00000000E+00  0.00000000E+00  0.00000000E+00
  0.00000000E+00  0.00000000E+00  0.00000000E+00
  0.00000000E+00  0.00000000E+00  0.00000000E+00
  0.00000000E+00  0.00000000E+00  0.00000000E+00
  0.00000000E+00  0.00000000E+00  0.00000000E+00
  0.00000000E+00  0.00000000E+00  0.00000000E+00
  0.00000000E+00  0.00000000E+00  0.00000000E+00
  0.00000000E+00  0.00000000E+00  0.00000000E+00
  0.00000000E+00  0.00000000E+00  0.00000000E+00
  0.00000000E+00  0.00000000E+00  0.00000000E+00
  0.00000000E+00  0.00000000E+00  0.00000000E+00
  0.00000000E+00  0.00000000E+00  0.00000000E+00
  0.00000000E+00  0.00000000E+00  0.00000000E+00
  0.00000000E+00  0.00000000E+00  0.00000000E+00
  0.00000000E+00  0.00000000E+00  0.00000000E+00
  0.00000000E+00  0.00000000E+00  0.00000000E+00
  0.00000000E+00  0.00000000E+00  0.00000000E+00
  0.00000000E+00  0.00000000E+00  0.00000000E+00
  0.00000000E+00  0.00000000E+00  0.00000000E+00
  0.00000000E+00  0.00000000E+00  0.00000000E+00
  0.00000000E+00  0.00000000E+00  0.00000000E+00
  0.00000000E+00  0.00000000E+00  0.00000000E+00
  0.00000000E+00  0.00000000E+00  0.00000000E+00
  0.00000000E+00  0.00000000E+00  0.00000000E+00
  0.00000000E+00  0.00000000E+00  0.00000000E+00
  0.00000000E+00  0.00000000E+00  0.00000000E+00
  0.00000000E+00  0.00000000E+00  0.00000000E+00
  0.00000000E+00  0.00000000E+00  0.00000000E+00
  0.00000000E+00  0.00000000E+00  0.00000000E+00
  0.00000000E+00  0.00000000E+00  0.00000000E+00
  0.00000000E+00  0.00000000E+00  0.00000000E+00
  0.00000000E+00  0.00000000E+00  0.00000000E+00
  0.00000000E+00  0.00000000E+00  0.00000000E+00
  0.00000000E+00  0.00000000E+00  0.00000000E+00
  0.00000000E+00  0.00000000E+00  0.00000000E+00
  0.00000000E+00  0.00000000E+00  0.00000000E+00
  0.00000000E+00  0.00000000E+00  0.00000000E+00
