Mo  S Co                                
   1.00000000000000     
    15.9215000000000000    0.0000000000000000    0.0000000000000000
    -7.9622500000000000   13.7910219999999999    0.0000000000000000
     0.0000000000000000    0.0000000000000000   13.5822000000000003
   Mo   S    Ru
    25    49     1
Direct
  0.1326084069883038  0.0655250108582024  0.6776113520749476
  0.1348509949481738  0.2664511870587063  0.6736966309866617
  0.1329955328958121  0.4653370200824298  0.6780065238405442
  0.1327383399153135  0.6654958904430686  0.6802854068160329
  0.1326547145291954  0.8656226904175384  0.6801299540321466
  0.3323868374040799  0.0664595346269792  0.6802545271608267
  0.3315242508604186  0.2663151647339390  0.6733441802043245
  0.3320446683306457  0.4642986255074248  0.6736708442533583
  0.3324819168801199  0.6645753399135614  0.6801229818814605
  0.3326106959992927  0.8655709486126781  0.6812493977460363
  0.5325142918745556  0.0656696932971030  0.6815408527972835
  0.5320705062060895  0.2657430124210407  0.6801621814664074
  0.5319286162534951  0.4652780861763546  0.6778897949770766
  0.5319376144825014  0.6647181210909068  0.6800915010982962
  0.5325673096124461  0.8654215158135372  0.6814371637841958
  0.7329178434896733  0.0656988927702784  0.6817323284240757
  0.7326763383409656  0.2655922158155732  0.6816295014171914
  0.7324188500394868  0.4653801190274791  0.6805003637065070
  0.7324339904060437  0.6655182571727565  0.6803915859460758
  0.7326978097712100  0.8655988548477254  0.6814772882361169
  0.9337140954760059  0.0663917703898846  0.6805266995478547
  0.9334712229450517  0.2657646757347010  0.6804693758562905
  0.9326744839875403  0.4654127447657572  0.6805463796062980
  0.9325547429104617  0.6654671691705474  0.6803435807176328
  0.9326647554335139  0.8656320988019317  0.6802821014954432
  0.0647277249925651  0.1309642782263722  0.5620368257631299
  0.0723858004844260  0.1372277599049454  0.7928863422840209
  0.0647168324031568  0.3323987820269991  0.5623343031533494
  0.0716437368904081  0.3329881191734927  0.7927409013100757
  0.0654581764346318  0.5326365696645681  0.5646695976955840
  0.0666880418731779  0.5317292956474660  0.7945217490125103
  0.0659850027639095  0.7321183859368077  0.5652074644029312
  0.0660213868396653  0.7322409577376021  0.7952510677381923
  0.0652080598816980  0.9308089976938874  0.5640766962161905
  0.0664805719546564  0.9331391261416613  0.7943478766281586
  0.2658305350237669  0.1309529939585872  0.5616857824435826
  0.2646881187276264  0.1373920284875751  0.7928284436259645
  0.2659317389127622  0.3322219561934432  0.5582823503909253
  0.2658381711786575  0.5332157255098622  0.5617473323958393
  0.2655665562056129  0.5266962701151456  0.7931093689762179
  0.2664463806845987  0.7325149862641425  0.5657359501804464
  0.2658799375155851  0.7312367849574883  0.7955725275294512
  0.2665425469047022  0.9325641307261847  0.5657983886906450
  0.2657417072572343  0.9331050241173031  0.7955628979750600
  0.4660114796979329  0.1321660714591388  0.5658998157383195
  0.4652913625871946  0.1328104366728695  0.7958235739924504
  0.4675576039513913  0.3324925599683723  0.5619699227630619
  0.4610922629392746  0.3327681746411812  0.7925393000463430
  0.4672427395526668  0.5333801926106432  0.5617309510590971
  0.4610231626638992  0.5269402767512403  0.7929784190785369
  0.4660787720888138  0.7324485883558580  0.5658002815617351
  0.4654082078241117  0.7311316418641880  0.7956576081372049
  0.4661284288549652  0.9323764181081984  0.5664021671676664
  0.4657207165026591  0.9321028816397998  0.7964619550677128
  0.6660465200614425  0.1321796541302547  0.5666872635906088
  0.6659823886501712  0.1323371115804264  0.7967133768408488
  0.6660108114713523  0.3317388632283453  0.5659370459089743
  0.6650488691392127  0.3323343807417203  0.7959297605979287
  0.6668753849117479  0.5326852217009304  0.5647376858820579
  0.6645875884587724  0.5315949477502713  0.7944656569863682
  0.6659542631974062  0.7326973113835038  0.5658169361902452
  0.6650431661043470  0.7312291184446096  0.7957408709568625
  0.6661002028277423  0.9324469598824052  0.5665756380984917
  0.6660164125050656  0.9321050466770799  0.7966260803545140
  0.8659710269714580  0.1322277576142810  0.5661741287282780
  0.8672616932909207  0.1328449329364005  0.7961579604950586
  0.8655983998350578  0.3317026389150683  0.5660940649943811
  0.8669959760680968  0.3324181834392732  0.7960585030732972
  0.8657901020161276  0.5319025356342379  0.5654444737519810
  0.8658927740059852  0.5321709501094674  0.7955051303956324
  0.8657608117578306  0.7321759826859235  0.5653065225511469
  0.8658857683966517  0.7321972112199333  0.7953666778460047
  0.8657146302777150  0.9325887379259541  0.5660339903753169
  0.8670852631577404  0.9330506233089721  0.7958610184599237
  0.2650878594205892  0.3301275921358595  0.8138494041657012
 
  0.00000000E+00  0.00000000E+00  0.00000000E+00
  0.00000000E+00  0.00000000E+00  0.00000000E+00
  0.00000000E+00  0.00000000E+00  0.00000000E+00
  0.00000000E+00  0.00000000E+00  0.00000000E+00
  0.00000000E+00  0.00000000E+00  0.00000000E+00
  0.00000000E+00  0.00000000E+00  0.00000000E+00
  0.00000000E+00  0.00000000E+00  0.00000000E+00
  0.00000000E+00  0.00000000E+00  0.00000000E+00
  0.00000000E+00  0.00000000E+00  0.00000000E+00
  0.00000000E+00  0.00000000E+00  0.00000000E+00
  0.00000000E+00  0.00000000E+00  0.00000000E+00
  0.00000000E+00  0.00000000E+00  0.00000000E+00
  0.00000000E+00  0.00000000E+00  0.00000000E+00
  0.00000000E+00  0.00000000E+00  0.00000000E+00
  0.00000000E+00  0.00000000E+00  0.00000000E+00
  0.00000000E+00  0.00000000E+00  0.00000000E+00
  0.00000000E+00  0.00000000E+00  0.00000000E+00
  0.00000000E+00  0.00000000E+00  0.00000000E+00
  0.00000000E+00  0.00000000E+00  0.00000000E+00
  0.00000000E+00  0.00000000E+00  0.00000000E+00
  0.00000000E+00  0.00000000E+00  0.00000000E+00
  0.00000000E+00  0.00000000E+00  0.00000000E+00
  0.00000000E+00  0.00000000E+00  0.00000000E+00
  0.00000000E+00  0.00000000E+00  0.00000000E+00
  0.00000000E+00  0.00000000E+00  0.00000000E+00
  0.00000000E+00  0.00000000E+00  0.00000000E+00
  0.00000000E+00  0.00000000E+00  0.00000000E+00
  0.00000000E+00  0.00000000E+00  0.00000000E+00
  0.00000000E+00  0.00000000E+00  0.00000000E+00
  0.00000000E+00  0.00000000E+00  0.00000000E+00
  0.00000000E+00  0.00000000E+00  0.00000000E+00
  0.00000000E+00  0.00000000E+00  0.00000000E+00
  0.00000000E+00  0.00000000E+00  0.00000000E+00
  0.00000000E+00  0.00000000E+00  0.00000000E+00
  0.00000000E+00  0.00000000E+00  0.00000000E+00
  0.00000000E+00  0.00000000E+00  0.00000000E+00
  0.00000000E+00  0.00000000E+00  0.00000000E+00
  0.00000000E+00  0.00000000E+00  0.00000000E+00
  0.00000000E+00  0.00000000E+00  0.00000000E+00
  0.00000000E+00  0.00000000E+00  0.00000000E+00
  0.00000000E+00  0.00000000E+00  0.00000000E+00
  0.00000000E+00  0.00000000E+00  0.00000000E+00
  0.00000000E+00  0.00000000E+00  0.00000000E+00
  0.00000000E+00  0.00000000E+00  0.00000000E+00
  0.00000000E+00  0.00000000E+00  0.00000000E+00
  0.00000000E+00  0.00000000E+00  0.00000000E+00
  0.00000000E+00  0.00000000E+00  0.00000000E+00
  0.00000000E+00  0.00000000E+00  0.00000000E+00
  0.00000000E+00  0.00000000E+00  0.00000000E+00
  0.00000000E+00  0.00000000E+00  0.00000000E+00
  0.00000000E+00  0.00000000E+00  0.00000000E+00
  0.00000000E+00  0.00000000E+00  0.00000000E+00
  0.00000000E+00  0.00000000E+00  0.00000000E+00
  0.00000000E+00  0.00000000E+00  0.00000000E+00
  0.00000000E+00  0.00000000E+00  0.00000000E+00
  0.00000000E+00  0.00000000E+00  0.00000000E+00
  0.00000000E+00  0.00000000E+00  0.00000000E+00
  0.00000000E+00  0.00000000E+00  0.00000000E+00
  0.00000000E+00  0.00000000E+00  0.00000000E+00
  0.00000000E+00  0.00000000E+00  0.00000000E+00
  0.00000000E+00  0.00000000E+00  0.00000000E+00
  0.00000000E+00  0.00000000E+00  0.00000000E+00
  0.00000000E+00  0.00000000E+00  0.00000000E+00
  0.00000000E+00  0.00000000E+00  0.00000000E+00
  0.00000000E+00  0.00000000E+00  0.00000000E+00
  0.00000000E+00  0.00000000E+00  0.00000000E+00
  0.00000000E+00  0.00000000E+00  0.00000000E+00
  0.00000000E+00  0.00000000E+00  0.00000000E+00
  0.00000000E+00  0.00000000E+00  0.00000000E+00
  0.00000000E+00  0.00000000E+00  0.00000000E+00
  0.00000000E+00  0.00000000E+00  0.00000000E+00
  0.00000000E+00  0.00000000E+00  0.00000000E+00
  0.00000000E+00  0.00000000E+00  0.00000000E+00
  0.00000000E+00  0.00000000E+00  0.00000000E+00
  0.00000000E+00  0.00000000E+00  0.00000000E+00
