POSCAR                                  
   1.00000000000000     
     9.7133658411088177    0.0170736725633602   -0.0070530935611132
    -4.8418168573396416    8.3407348850863023   -0.0062020441711837
    -0.0110262130032556   -0.0188923286877015   14.9528193645609040
   Al   N    Li   Nb
    40    54     7     7
Direct
  0.1028670185090293  0.2146031472106701 -0.0039725461359182
  0.4346569003898688  0.2139676521716656 -0.0041825541336930
  0.7837977928509966  0.2213551481287643 -0.0051046197025891
  0.1109958331156054  0.5618597468589611  0.0031336597655150
  0.7883936102937784  0.5623411089844440  0.0045482831193424
  0.1088950052795702  0.8830919335027407  0.0028817500374017
  0.4354378840924206  0.8750177038254630 -0.0046686814419343
  0.1120740360499116  0.2223054748380359  0.3356381382508079
  0.4331176332093286  0.2224323663408926  0.3347810786038094
  0.7858969594357408  0.2223078621274720  0.3308763115236130
  0.1113507758491327  0.5487593150237081  0.3252483953270067
  0.4385728604038275  0.5512810457934577  0.3253374449634329
  0.7675174471006737  0.5394503129637743  0.3271694667589520
  0.4457202595947679  0.8842980696070111  0.3259901344105171
  0.7733711514283722  0.8929106996199828  0.3061384718238029
  0.4363143636718776  0.2182472383152245  0.6606828479640926
  0.7857763276830001  0.2202571615779828  0.6696534677814121
  0.1119269425333677  0.5487346806747216  0.6626835338201831
  0.4392804525544350  0.5583070484013071  0.6580422927652420
  0.1138225177372508  0.9034144618298938  0.6675951696734210
  0.2111580055231540  0.0977776732061822  0.8282978561496843
  0.5615684764293184  0.1098639701777783  0.8389571128701161
  0.8828526373060105  0.1009629315728555  0.8365906028576395
  0.8910828695971563  0.4401498673103157  0.8388856733488307
  0.5737493214025978  0.7914241328773618  0.8446419824495716
  0.8994625728059720  0.7963998249791642  0.8422894636326897
  0.2127515336394792  0.1109401110302327  0.1696550052892914
  0.8969255293733733  0.1090381785826191  0.1629983082038986
  0.2225084937614653  0.4396327900722061  0.1656881884002989
  0.5521779442753862  0.4486866209174831  0.1669570350350243
  0.8927952348588700  0.4474029097874057  0.1663420777881104
  0.2142576515167518  0.7712447334249414  0.1702636970663491
  0.5543445865439184  0.7655161042158810  0.1625881287197246
  0.8896627616769288  0.7751269198116797  0.1726260139526255
  0.5663321691317142  0.1275003788059746  0.4941963181794411
  0.8942582024120552  0.1230009211914643  0.5042669679717330
  0.2205784984195161  0.4341195786916886  0.5006906943533947
  0.5425684939668899  0.4359719896928930  0.4910769305247306
  0.8857956980268651  0.4329943343821941  0.4924250333673933
  0.5584612927501627  0.7770734418454528  0.4905472210281078
  0.1106602255749648  0.2207296508414366  0.1241888355774020
  0.4375558536082972  0.2243487211336835  0.1249260144062294
  0.7861612370409644  0.2251355025799898  0.1266967363339381
  0.1083662322043660  0.5510967114879064  0.1322712384088627
  0.4394842905270079  0.5486828027715357  0.1381630044188529
  0.7759221016152862  0.5518078264514400  0.1334419687955225
  0.1086286281943376  0.8873179992494360  0.1362226992130023
  0.4392472775808501  0.8797211209535938  0.1320435796515458
  0.7780876658039223  0.8843572806699068  0.1561417207100127
  0.0999541279217311  0.2294525779914563  0.4590511001533490
  0.4594548789077407  0.2280924714733494  0.4574219089086587
  0.7769674188334209  0.2220341341548823  0.4557440183586927
  0.1029804394933404  0.5463878246983810  0.4569848019473788
  0.4431131479690439  0.5552670748566499  0.4568323865227572
  0.7689109401305803  0.5405251289368623  0.4621087484661802
  0.1198005159872829  0.8967132815637930  0.4570144650733238
  0.4604080676915862  0.9023264118579015  0.4583210472601674
  0.7729124761726182  0.9029728938725942  0.4528048972751283
  0.1079510330983442  0.2180380079699891  0.8050709081012134
  0.4464101525748025  0.2167808699328235  0.7954826787455018
  0.7751126700472626  0.2243818245968604  0.7983496885392487
  0.0927524622342547  0.5401467834655364  0.7882369641573501
  0.4558410473082570  0.5673806991581035  0.7882865610930279
  0.7904031160061421  0.5601013625430099  0.7903848198831636
  0.0982004017949791  0.8879593839981733  0.7907494577319452
  0.4676720745829837  0.8999685540716394  0.7900211074815804
  0.7793930138401822  0.8848346571287332  0.8028119630805337
  0.2203913555858097  0.1074759522708605  0.9597624600600995
  0.5530553882531178  0.1093126295459294  0.9681163021850810
  0.8925108412388464  0.1217952700065496  0.9616912659396990
  0.2019032624758672  0.4373878957273615  0.9606014161571712
  0.5681766112383999  0.4340059985195711  0.9598337380869787
  0.8880826200816641  0.4447989682158643  0.9650910243836541
  0.2199258079322824  0.7779709824448716  0.9748986197200046
  0.5450965958944400  0.7800899675277793  0.9634723584846229
  0.8983506122720908  0.7681987169677634  0.9648881058459245
  0.2297572215917771  0.1315341705023392  0.2914301002463097
  0.5570627148088563  0.1110815756682225  0.2912021800285681
  0.8936458111742289  0.1191475249857585  0.2907162671227884
  0.2183694929114804  0.4405749576239023  0.2937166005069352
  0.5535165900629966  0.4398943231880262  0.2944535079031848
  0.8875587299691813  0.4413685301375454  0.2940622045320960
  0.2306738739228238  0.7678573883624545  0.2994543657812920
  0.5497752949134879  0.7743668824635694  0.2949780086558174
  0.8725476197110950  0.7631645332295479  0.3109413808184983
  0.2327589480563347  0.1071971527425644  0.6352643455524533
  0.5676967959205405  0.1307358937898793  0.6246540897882055
  0.8779363041337829  0.1179109254719962  0.6247690421154097
  0.2313949471226930  0.4624565558551968  0.6252069964137220
  0.5488269471215440  0.4451176896572983  0.6244695072633950
  0.8935763738556044  0.4441049105539712  0.6217222307853623
  0.2134300348331601  0.7726826009471267  0.6226575918402388
  0.5454825086840810  0.7709708477976661  0.6175937339575623
  0.9048392386607172  0.7789293915098685  0.6080293927127937
  0.4429357363871049  0.5637101315829632  0.0043064963143561
  0.7734246872413670  0.8839708118857282 -0.0012316315441771
  0.1237484025022618  0.9006797197379018  0.3188653817588270
  0.1053309788051988  0.2137501123393881  0.6583118946673298
  0.7887474168544287  0.9050127306562992  0.6686446662897815
  0.2094179241850199  0.7777463084265377  0.8385658719857260
  0.2277799943171227  0.1281719412285955  0.5035349841984862
  0.7853019785914979  0.5664593113800318  0.6530210798522645
  0.4542647558003466  0.8967193585687425  0.6619103934659039
  0.2173939050561512  0.4436722447871065  0.8313948792394744
  0.5616226992834237  0.4458974813788873  0.8328382446571466
  0.5551762345338965  0.1104329000524746  0.1577558892173253
  0.2237298311432619  0.7805964996571892  0.4842226627203935
  0.8893536709269261  0.7867170638230545  0.4619526736316516
 
  0.00000000E+00  0.00000000E+00  0.00000000E+00
  0.00000000E+00  0.00000000E+00  0.00000000E+00
  0.00000000E+00  0.00000000E+00  0.00000000E+00
  0.00000000E+00  0.00000000E+00  0.00000000E+00
  0.00000000E+00  0.00000000E+00  0.00000000E+00
  0.00000000E+00  0.00000000E+00  0.00000000E+00
  0.00000000E+00  0.00000000E+00  0.00000000E+00
  0.00000000E+00  0.00000000E+00  0.00000000E+00
  0.00000000E+00  0.00000000E+00  0.00000000E+00
  0.00000000E+00  0.00000000E+00  0.00000000E+00
  0.00000000E+00  0.00000000E+00  0.00000000E+00
  0.00000000E+00  0.00000000E+00  0.00000000E+00
  0.00000000E+00  0.00000000E+00  0.00000000E+00
  0.00000000E+00  0.00000000E+00  0.00000000E+00
  0.00000000E+00  0.00000000E+00  0.00000000E+00
  0.00000000E+00  0.00000000E+00  0.00000000E+00
  0.00000000E+00  0.00000000E+00  0.00000000E+00
  0.00000000E+00  0.00000000E+00  0.00000000E+00
  0.00000000E+00  0.00000000E+00  0.00000000E+00
  0.00000000E+00  0.00000000E+00  0.00000000E+00
  0.00000000E+00  0.00000000E+00  0.00000000E+00
  0.00000000E+00  0.00000000E+00  0.00000000E+00
  0.00000000E+00  0.00000000E+00  0.00000000E+00
  0.00000000E+00  0.00000000E+00  0.00000000E+00
  0.00000000E+00  0.00000000E+00  0.00000000E+00
  0.00000000E+00  0.00000000E+00  0.00000000E+00
  0.00000000E+00  0.00000000E+00  0.00000000E+00
  0.00000000E+00  0.00000000E+00  0.00000000E+00
  0.00000000E+00  0.00000000E+00  0.00000000E+00
  0.00000000E+00  0.00000000E+00  0.00000000E+00
  0.00000000E+00  0.00000000E+00  0.00000000E+00
  0.00000000E+00  0.00000000E+00  0.00000000E+00
  0.00000000E+00  0.00000000E+00  0.00000000E+00
  0.00000000E+00  0.00000000E+00  0.00000000E+00
  0.00000000E+00  0.00000000E+00  0.00000000E+00
  0.00000000E+00  0.00000000E+00  0.00000000E+00
  0.00000000E+00  0.00000000E+00  0.00000000E+00
  0.00000000E+00  0.00000000E+00  0.00000000E+00
  0.00000000E+00  0.00000000E+00  0.00000000E+00
  0.00000000E+00  0.00000000E+00  0.00000000E+00
  0.00000000E+00  0.00000000E+00  0.00000000E+00
  0.00000000E+00  0.00000000E+00  0.00000000E+00
  0.00000000E+00  0.00000000E+00  0.00000000E+00
  0.00000000E+00  0.00000000E+00  0.00000000E+00
  0.00000000E+00  0.00000000E+00  0.00000000E+00
  0.00000000E+00  0.00000000E+00  0.00000000E+00
  0.00000000E+00  0.00000000E+00  0.00000000E+00
  0.00000000E+00  0.00000000E+00  0.00000000E+00
  0.00000000E+00  0.00000000E+00  0.00000000E+00
  0.00000000E+00  0.00000000E+00  0.00000000E+00
  0.00000000E+00  0.00000000E+00  0.00000000E+00
  0.00000000E+00  0.00000000E+00  0.00000000E+00
  0.00000000E+00  0.00000000E+00  0.00000000E+00
  0.00000000E+00  0.00000000E+00  0.00000000E+00
  0.00000000E+00  0.00000000E+00  0.00000000E+00
  0.00000000E+00  0.00000000E+00  0.00000000E+00
  0.00000000E+00  0.00000000E+00  0.00000000E+00
  0.00000000E+00  0.00000000E+00  0.00000000E+00
  0.00000000E+00  0.00000000E+00  0.00000000E+00
  0.00000000E+00  0.00000000E+00  0.00000000E+00
  0.00000000E+00  0.00000000E+00  0.00000000E+00
  0.00000000E+00  0.00000000E+00  0.00000000E+00
  0.00000000E+00  0.00000000E+00  0.00000000E+00
  0.00000000E+00  0.00000000E+00  0.00000000E+00
  0.00000000E+00  0.00000000E+00  0.00000000E+00
  0.00000000E+00  0.00000000E+00  0.00000000E+00
  0.00000000E+00  0.00000000E+00  0.00000000E+00
  0.00000000E+00  0.00000000E+00  0.00000000E+00
  0.00000000E+00  0.00000000E+00  0.00000000E+00
  0.00000000E+00  0.00000000E+00  0.00000000E+00
  0.00000000E+00  0.00000000E+00  0.00000000E+00
  0.00000000E+00  0.00000000E+00  0.00000000E+00
  0.00000000E+00  0.00000000E+00  0.00000000E+00
  0.00000000E+00  0.00000000E+00  0.00000000E+00
  0.00000000E+00  0.00000000E+00  0.00000000E+00
  0.00000000E+00  0.00000000E+00  0.00000000E+00
  0.00000000E+00  0.00000000E+00  0.00000000E+00
  0.00000000E+00  0.00000000E+00  0.00000000E+00
  0.00000000E+00  0.00000000E+00  0.00000000E+00
  0.00000000E+00  0.00000000E+00  0.00000000E+00
  0.00000000E+00  0.00000000E+00  0.00000000E+00
  0.00000000E+00  0.00000000E+00  0.00000000E+00
  0.00000000E+00  0.00000000E+00  0.00000000E+00
  0.00000000E+00  0.00000000E+00  0.00000000E+00
  0.00000000E+00  0.00000000E+00  0.00000000E+00
  0.00000000E+00  0.00000000E+00  0.00000000E+00
  0.00000000E+00  0.00000000E+00  0.00000000E+00
  0.00000000E+00  0.00000000E+00  0.00000000E+00
  0.00000000E+00  0.00000000E+00  0.00000000E+00
  0.00000000E+00  0.00000000E+00  0.00000000E+00
  0.00000000E+00  0.00000000E+00  0.00000000E+00
  0.00000000E+00  0.00000000E+00  0.00000000E+00
  0.00000000E+00  0.00000000E+00  0.00000000E+00
  0.00000000E+00  0.00000000E+00  0.00000000E+00
  0.00000000E+00  0.00000000E+00  0.00000000E+00
  0.00000000E+00  0.00000000E+00  0.00000000E+00
  0.00000000E+00  0.00000000E+00  0.00000000E+00
  0.00000000E+00  0.00000000E+00  0.00000000E+00
  0.00000000E+00  0.00000000E+00  0.00000000E+00
  0.00000000E+00  0.00000000E+00  0.00000000E+00
  0.00000000E+00  0.00000000E+00  0.00000000E+00
  0.00000000E+00  0.00000000E+00  0.00000000E+00
  0.00000000E+00  0.00000000E+00  0.00000000E+00
  0.00000000E+00  0.00000000E+00  0.00000000E+00
  0.00000000E+00  0.00000000E+00  0.00000000E+00
  0.00000000E+00  0.00000000E+00  0.00000000E+00
  0.00000000E+00  0.00000000E+00  0.00000000E+00
  0.00000000E+00  0.00000000E+00  0.00000000E+00
