Mo  S Cu                                
   1.00000000000000     
    15.9214998300000001    0.0000000000000000    0.0000000000000000
    -7.9622501300000001   13.7910221699999997    0.0000000000000000
     0.0000000000000000    0.0000000000000000   13.5821998300000004
   Mo   S    Cu
    25    50     3
Direct
  0.1317605709614114  0.0655227542373709  0.6790627620592034
  0.1329374073357670  0.2654601179150760  0.6805506369449290
  0.1327669888657397  0.4657304443944597  0.6794443084727817
  0.1326330489155865  0.6656895754770318  0.6786239615022964
  0.1323772199914899  0.8656256637874336  0.6783456340725351
  0.3330739349627336  0.0666274158082274  0.6787471231969349
  0.3315628242947852  0.2647733181886096  0.6794234826510532
  0.3332505303497229  0.4660739187994452  0.6793447432899598
  0.3327307759627161  0.6659485971766799  0.6785100646053550
  0.3328298471299860  0.8656350223379192  0.6783508981282083
  0.5333696406738540  0.0654906162869509  0.6789669032729932
  0.5328689898844203  0.2648430812214571  0.6796867626575889
  0.5346338020006840  0.4697528115236977  0.6749780576201658
  0.5328896438543325  0.6667906690593668  0.6772614241817294
  0.5328256801609399  0.8659854310922341  0.6781476139231160
  0.7327946450885676  0.0658312325729042  0.6787819469907390
  0.7322433212529518  0.2654632170083104  0.6804339691490142
  0.7325521587220081  0.4662792768887059  0.6792437677821965
  0.7334645671410343  0.6668212374070563  0.6772401251771356
  0.7329000508671513  0.8662548830726209  0.6778696697042577
  0.9326132748968448  0.0658196993731934  0.6788170379617569
  0.9326209099257881  0.2655596072101218  0.6794132115058531
  0.9325883691849555  0.4657776082634584  0.6793663883731043
  0.9328653066024870  0.6660345564005254  0.6784290904922869
  0.9327221888303256  0.8659986762557068  0.6781648763031285
  0.0662918497288345  0.1332275242923870  0.5641882445400199
  0.0650755684370878  0.1316090734561044  0.7948566235595464
  0.0663554307851939  0.3320508534291093  0.5648090167081605
  0.0658444988047648  0.3325584615647017  0.7947424154617693
  0.0658091993986574  0.5319539835797471  0.5640375867581326
  0.0661270587843319  0.5326926645295202  0.7941780131344913
  0.0660760405837735  0.7323210811336907  0.5632691846481706
  0.0660329281727101  0.7325160200729712  0.7936410124634961
  0.0661238409809144  0.9328291089231087  0.5632801584797917
  0.0653384393677214  0.9317117217248665  0.7936991307058534
  0.2656569486052760  0.1323987451942656  0.5641818328602568
  0.2636531186588087  0.1295605442775312  0.7969017642915972
  0.2660150870883840  0.3319882185687035  0.5649994784547658
  0.2664086944518402  0.3325960780586996  0.7986765463054155
  0.2659269945170806  0.5320460583209226  0.5641397171009501
  0.2663318282575631  0.5329710494606843  0.7942301621452685
  0.2658498608258952  0.7322745696110360  0.5633240022564721
  0.2660549054926022  0.7325058077330482  0.7936564353434932
  0.2663473193742831  0.9331120699479030  0.5636490759676676
  0.2657607941542395  0.9319789931760170  0.7930499392104977
  0.4663749950548350  0.1325623212147278  0.5643325406225728
  0.4653721911524684  0.1291415905750597  0.7968389337254322
  0.4659364709940021  0.3320735423784527  0.5639294034320272
  0.4696589820770072  0.3401731429262966  0.7916208541082881
  0.4649513178155473  0.5335964687655164  0.5617314022333701
  0.4675750612862402  0.5345809527206455  0.7926287826317804
  0.4656880159476202  0.7330423148225194  0.5627391843277039
  0.4663911281134290  0.7328254200684228  0.7932069163406297
  0.4662461373819085  0.9327852765213009  0.5632286937340751
  0.4659830412971999  0.9317270167075904  0.7936730733390434
  0.6665577012002757  0.1332343585867406  0.5640778723672355
  0.6661478570045887  0.1316478415049147  0.7947643771548130
  0.6655605568889982  0.3320450834493585  0.5651142036141792
  0.6665925779399302  0.3330603732832316  0.7986290002311449
  0.6681560293360960  0.5336349104707452  0.5616827629330388
  0.6665812963357354  0.5345948840868076  0.7925610482637993
  0.6664369890304869  0.7333547915663132  0.5622958885903557
  0.6662872624390488  0.7330187843332752  0.7925815645713286
  0.6662289110943860  0.9330554961235009  0.5630503051707691
  0.6660402294131629  0.9322445388152403  0.7934824971884709
  0.8661768738871558  0.1327218557605292  0.5637853663467993
  0.8658276860690108  0.1320784811604057  0.7941505653592955
  0.8654262738878558  0.3320746698688879  0.5647282829413882
  0.8664244383175941  0.3325876597824191  0.7946609100071882
  0.8658098674266341  0.5321631233706015  0.5640090262318793
  0.8663657127967213  0.5331301266389659  0.7941545795689677
  0.8669163765770733  0.7330980565889149  0.5627042376438425
  0.8660059739807338  0.7328242776737852  0.7931727070661836
  0.8663985537326582  0.9330676255586496  0.5630678027680815
  0.8657518715230381  0.9322296731412862  0.7935011544653250
  0.3417513732601947  0.2606798283194109  0.9019408823303081
  0.5223869997467432  0.2623558016426912  0.8993592462276396
  0.4330598465386828  0.2600730123985855  0.0384032059550137
 
  0.00000000E+00  0.00000000E+00  0.00000000E+00
  0.00000000E+00  0.00000000E+00  0.00000000E+00
  0.00000000E+00  0.00000000E+00  0.00000000E+00
  0.00000000E+00  0.00000000E+00  0.00000000E+00
  0.00000000E+00  0.00000000E+00  0.00000000E+00
  0.00000000E+00  0.00000000E+00  0.00000000E+00
  0.00000000E+00  0.00000000E+00  0.00000000E+00
  0.00000000E+00  0.00000000E+00  0.00000000E+00
  0.00000000E+00  0.00000000E+00  0.00000000E+00
  0.00000000E+00  0.00000000E+00  0.00000000E+00
  0.00000000E+00  0.00000000E+00  0.00000000E+00
  0.00000000E+00  0.00000000E+00  0.00000000E+00
  0.00000000E+00  0.00000000E+00  0.00000000E+00
  0.00000000E+00  0.00000000E+00  0.00000000E+00
  0.00000000E+00  0.00000000E+00  0.00000000E+00
  0.00000000E+00  0.00000000E+00  0.00000000E+00
  0.00000000E+00  0.00000000E+00  0.00000000E+00
  0.00000000E+00  0.00000000E+00  0.00000000E+00
  0.00000000E+00  0.00000000E+00  0.00000000E+00
  0.00000000E+00  0.00000000E+00  0.00000000E+00
  0.00000000E+00  0.00000000E+00  0.00000000E+00
  0.00000000E+00  0.00000000E+00  0.00000000E+00
  0.00000000E+00  0.00000000E+00  0.00000000E+00
  0.00000000E+00  0.00000000E+00  0.00000000E+00
  0.00000000E+00  0.00000000E+00  0.00000000E+00
  0.00000000E+00  0.00000000E+00  0.00000000E+00
  0.00000000E+00  0.00000000E+00  0.00000000E+00
  0.00000000E+00  0.00000000E+00  0.00000000E+00
  0.00000000E+00  0.00000000E+00  0.00000000E+00
  0.00000000E+00  0.00000000E+00  0.00000000E+00
  0.00000000E+00  0.00000000E+00  0.00000000E+00
  0.00000000E+00  0.00000000E+00  0.00000000E+00
  0.00000000E+00  0.00000000E+00  0.00000000E+00
  0.00000000E+00  0.00000000E+00  0.00000000E+00
  0.00000000E+00  0.00000000E+00  0.00000000E+00
  0.00000000E+00  0.00000000E+00  0.00000000E+00
  0.00000000E+00  0.00000000E+00  0.00000000E+00
  0.00000000E+00  0.00000000E+00  0.00000000E+00
  0.00000000E+00  0.00000000E+00  0.00000000E+00
  0.00000000E+00  0.00000000E+00  0.00000000E+00
  0.00000000E+00  0.00000000E+00  0.00000000E+00
  0.00000000E+00  0.00000000E+00  0.00000000E+00
  0.00000000E+00  0.00000000E+00  0.00000000E+00
  0.00000000E+00  0.00000000E+00  0.00000000E+00
  0.00000000E+00  0.00000000E+00  0.00000000E+00
  0.00000000E+00  0.00000000E+00  0.00000000E+00
  0.00000000E+00  0.00000000E+00  0.00000000E+00
  0.00000000E+00  0.00000000E+00  0.00000000E+00
  0.00000000E+00  0.00000000E+00  0.00000000E+00
  0.00000000E+00  0.00000000E+00  0.00000000E+00
  0.00000000E+00  0.00000000E+00  0.00000000E+00
  0.00000000E+00  0.00000000E+00  0.00000000E+00
  0.00000000E+00  0.00000000E+00  0.00000000E+00
  0.00000000E+00  0.00000000E+00  0.00000000E+00
  0.00000000E+00  0.00000000E+00  0.00000000E+00
  0.00000000E+00  0.00000000E+00  0.00000000E+00
  0.00000000E+00  0.00000000E+00  0.00000000E+00
  0.00000000E+00  0.00000000E+00  0.00000000E+00
  0.00000000E+00  0.00000000E+00  0.00000000E+00
  0.00000000E+00  0.00000000E+00  0.00000000E+00
  0.00000000E+00  0.00000000E+00  0.00000000E+00
  0.00000000E+00  0.00000000E+00  0.00000000E+00
  0.00000000E+00  0.00000000E+00  0.00000000E+00
  0.00000000E+00  0.00000000E+00  0.00000000E+00
  0.00000000E+00  0.00000000E+00  0.00000000E+00
  0.00000000E+00  0.00000000E+00  0.00000000E+00
  0.00000000E+00  0.00000000E+00  0.00000000E+00
  0.00000000E+00  0.00000000E+00  0.00000000E+00
  0.00000000E+00  0.00000000E+00  0.00000000E+00
  0.00000000E+00  0.00000000E+00  0.00000000E+00
  0.00000000E+00  0.00000000E+00  0.00000000E+00
  0.00000000E+00  0.00000000E+00  0.00000000E+00
  0.00000000E+00  0.00000000E+00  0.00000000E+00
  0.00000000E+00  0.00000000E+00  0.00000000E+00
  0.00000000E+00  0.00000000E+00  0.00000000E+00
  0.00000000E+00  0.00000000E+00  0.00000000E+00
  0.00000000E+00  0.00000000E+00  0.00000000E+00
  0.00000000E+00  0.00000000E+00  0.00000000E+00
