Ta  N Ru Cu                             
   1.00000000000000     
     9.0548154099999998    0.0000000000000000    0.0000000000000000
     0.0000000000000000   11.6775998899999998    0.0000000000000000
     0.0000000000000000    0.0000000000000000   23.4818170799999990
   Ta   N    Ru   Cu
    60    60    16     1
Selective dynamics
Direct
  0.0000000000000000  0.0000000000000000  0.2546926809530987   F   F   F
  0.6670845899906297  0.1250000003211298  0.2638822399803757   F   F   F
  0.3329153514769843  0.1250000003211298  0.2638822399803757   F   F   F
  0.4999999994478088  0.2499999997859135  0.3618861993156202   F   F   F
  0.1650707596845180  0.1250000003211298  0.3684425577811794   F   F   F
  0.8349292403154820  0.1250000003211298  0.3684425577811794   F   F   F
  0.0011313595843851  0.2501167826466282  0.4798236585192117   T   T   T
  0.6646505255502128  0.1249646250286336  0.4778543182475877   T   T   T
  0.3353916929844140  0.1249588398193013  0.4779418175346655   T   T   T
  0.4978899102200683  0.2500574262816327  0.5898180964132440   T   T   T
  0.1685077102649262  0.1248920350526285  0.5902252205909274   T   T   T
  0.8334393108084072  0.1249100953054581  0.5886429702457799   T   T   T
  0.9898218329316989  0.2488112741503168  0.7002802226553489   T   T   T
  0.6617431015810158  0.1248569614274429  0.6973793015434102   T   T   T
  0.3278956217089428  0.1248311777207536  0.7049288560905926   T   T   T
  0.0000000000000000  0.2499999997859135  0.2546926809530987   F   F   F
  0.6670845899906297  0.3750000001070433  0.2638822399803757   F   F   F
  0.3329153514769843  0.3750000001070433  0.2638822399803757   F   F   F
  0.4999999994478088  0.5000000004281731  0.3618861993156202   F   F   F
  0.1650707596845180  0.3750000001070433  0.3684425577811794   F   F   F
  0.8349292403154820  0.3750000001070433  0.3684425577811794   F   F   F
  0.0010456454079350  0.5000748057451330  0.4799340723766807   T   T   T
  0.6646996362845476  0.3751197364057769  0.4780124026674202   T   T   T
  0.3350205630379563  0.3751539737045263  0.4781570644449696   T   T   T
  0.4988822965007382  0.5000434135853588  0.5904138811296813   T   T   T
  0.1682318178627173  0.3751963361982861  0.5906957446025326   T   T   T
  0.8335034879282315  0.3752720535558214  0.5893613223276957   T   T   T
  0.9870360932269604  0.4989096123559079  0.7036733766705535   T   T   T
  0.6645102523541576  0.3744186598987563  0.6994212694603178   T   T   T
  0.3311142956244317  0.3746332500510857  0.7047679296007938   T   T   T
  0.0000000000000000  0.5000000004281731  0.2546926809530987   F   F   F
  0.6670845899906297  0.6249999998929567  0.2638822399803757   F   F   F
  0.3329153514769843  0.6249999998929567  0.2638822399803757   F   F   F
  0.4999999994478088  0.7500000002140865  0.3618861993156202   F   F   F
  0.1650707596845180  0.6249999998929567  0.3684425577811794   F   F   F
  0.8349292403154820  0.6249999998929567  0.3684425577811794   F   F   F
  0.0010469282481035  0.7498167960234207  0.4799305978634278   T   T   T
  0.6648353709290908  0.6249522774734544  0.4781670685315256   T   T   T
  0.3351326319216000  0.6249544150455676  0.4782790781220527   T   T   T
  0.4988916862793956  0.7497714700198002  0.5904072886185644   T   T   T
  0.1679047046728654  0.6248776059760579  0.5912082302844454   T   T   T
  0.8341261877649462  0.6249024769800945  0.5899398605388806   T   T   T
  0.9870286711201068  0.7507610440449951  0.7036208319435771   T   T   T
  0.6671851391432302  0.6248382643800894  0.7009158846595794   T   T   T
  0.3286160097680289  0.6248365864530235  0.7053399412347706   T   T   T
  0.0000000000000000  0.7500000002140865  0.2546926809530987   F   F   F
  0.6670845899906297  0.8750000005352163  0.2638822399803757   F   F   F
  0.3329153514769843  0.8750000005352163  0.2638822399803757   F   F   F
  0.4999999994478088  0.0000000000000000  0.3618861993156202   F   F   F
  0.1650707596845180  0.8750000005352163  0.3684425577811794   F   F   F
  0.8349292403154820  0.8750000005352163  0.3684425577811794   F   F   F
  0.0011046413291065  0.9997887210786213  0.4798225186950898   T   T   T
  0.6646837800874968  0.8747872156824475  0.4780137687697542   T   T   T
  0.3350118341002839  0.8747566868798695  0.4781564868889609   T   T   T
  0.4978884772760539  0.9997476544576633  0.5898208188897948   T   T   T
  0.1682243046637321  0.8745901260197042  0.5906864026169752   T   T   T
  0.8334875022758697  0.8745358757799145  0.5893594680482115   T   T   T
  0.9898120895738439  0.0008658866509580  0.7002849064468666   T   T   T
  0.6645226183111029  0.8752878970826896  0.6994200724794138   T   T   T
  0.3311211847758218  0.8750582515287979  0.7047469472892799   T   T   T
  0.8141011533980276  0.0000000000000000  0.3013105672926031   F   F   F
  0.4999999994478088  0.0000000000000000  0.2564174481620327   F   F   F
  0.1858988466019724  0.0000000000000000  0.3013105672926031   F   F   F
  0.3088456122590841  0.2499999997859135  0.4099867722441957   F   F   F
  0.0000000000000000  0.2499999997859135  0.3930971035158137   F   F   F
  0.6911543877409159  0.2499999997859135  0.4099867722441957   F   F   F
  0.8024147010441641  0.2502240382225728  0.5212745486439146   T   T   T
  0.4997171413952493  0.2501570733503914  0.5023682077872655   T   T   T
  0.1990525679640023  0.2500361082024101  0.5224858602142191   T   T   T
  0.3033200922943051  0.2501165786593077  0.6348831416126152   T   T   T
  0.0001321391924082  0.2501623400286247  0.6122979060106041   T   T   T
  0.6962436700017860  0.2502605607426980  0.6310915011623363   T   T   T
  0.7929802234269282  0.2458312696640047  0.7450684643300867   T   T   T
  0.5010090941842623  0.2493879982296144  0.7234757945662622   T   T   T
  0.1890624432880656  0.2506901864443748  0.7378511495247464   T   T   T
  0.8141011533980276  0.2499999997859135  0.3013105672926031   F   F   F
  0.4999999994478088  0.2499999997859135  0.2564174481620327   F   F   F
  0.1858988466019724  0.2499999997859135  0.3013105672926031   F   F   F
  0.3088456122590841  0.5000000004281731  0.4099867722441957   F   F   F
  0.0000000000000000  0.5000000004281731  0.3930971035158137   F   F   F
  0.6911543877409159  0.5000000004281731  0.4099867722441957   F   F   F
  0.8027107587043413  0.5002425839998776  0.5218123870952460   T   T   T
  0.4998610882626238  0.5000142773846766  0.5027697929999508   T   T   T
  0.1984782217748977  0.5003710543731094  0.5228696496560046   T   T   T
  0.3041195044361117  0.5000019677857460  0.6353017358927100   T   T   T
  0.0000937956999254  0.5000609229338059  0.6147539954521960   T   T   T
  0.6968514895376452  0.5001328108535154  0.6324062238785019   T   T   T
  0.7895796126345173  0.4965661513874154  0.7482731314061315   T   T   T
  0.5027548615103783  0.5005285366395321  0.7242393479196485   T   T   T
  0.1899520275449519  0.4986307346670129  0.7391970290366232   T   T   T
  0.8141011533980276  0.5000000004281731  0.3013105672926031   F   F   F
  0.4999999994478088  0.5000000004281731  0.2564174481620327   F   F   F
  0.1858988466019724  0.5000000004281731  0.3013105672926031   F   F   F
  0.3088456122590841  0.7500000002140865  0.4099867722441957   F   F   F
  0.0000000000000000  0.7500000002140865  0.3930971035158137   F   F   F
  0.6911543877409159  0.7500000002140865  0.4099867722441957   F   F   F
  0.8027059603560416  0.7496142514045119  0.5218023999495552   T   T   T
  0.4998602137517932  0.7498800735122508  0.5027685594064263   T   T   T
  0.1984802843616373  0.7494647322345502  0.5228625487237765   T   T   T
  0.3041115020564367  0.7497526183076303  0.6352851537698387   T   T   T
  0.0000762512640825  0.7497093288091303  0.6147206181432642   T   T   T
  0.6968535171871891  0.7496294286446213  0.6324039276555525   T   T   T
  0.7896183449316698  0.7530766294922862  0.7482279044799898   T   T   T
  0.5027709686034133  0.7491855216129960  0.7242213259537100   T   T   T
  0.1899643425528867  0.7510383932690282  0.7391293590628764   T   T   T
  0.8141011533980276  0.7500000002140865  0.3013105672926031   F   F   F
  0.4999999994478088  0.7500000002140865  0.2564174481620327   F   F   F
  0.1858988466019724  0.7500000002140865  0.3013105672926031   F   F   F
  0.3088456122590841  0.0000000000000000  0.4099867722441957   F   F   F
  0.0000000000000000  0.0000000000000000  0.3930971035158137   F   F   F
  0.6911543877409159  0.0000000000000000  0.4099867722441957   F   F   F
  0.8023968874052237  0.9996516993457517  0.5212747634204937   T   T   T
  0.4997029478914726  0.9997433069775878  0.5023674551483049   T   T   T
  0.1990372250880090  0.9998287397759227  0.5224773508470961   T   T   T
  0.3032965919182145  0.9996465966564334  0.6348730470906543   T   T   T
  0.0001273588442633  0.9996284747412366  0.6122973080021136   T   T   T
  0.6962459805814165  0.9995184432080109  0.6310920850671837   T   T   T
  0.7929680056804700  0.0038237539739391  0.7450798930658057   T   T   T
  0.5010255444765938  0.0002967348012698  0.7234810516691471   T   T   T
  0.1890667877559509  0.9989603594306420  0.7378538084650480   T   T   T
  0.1428625718950080  0.9948610567352806  0.8174384801161936   T   T   T
  0.5843078877605985  0.0058674752946029  0.8021052524374442   T   T   T
  0.8887039081560840  0.1248670561274133  0.7995018665546118   T   T   T
  0.1337891371669457  0.4736979690209716  0.8175701407827974   T   T   T
  0.5890188525526967  0.5006906624903816  0.8028124568182745   T   T   T
  0.1740935074715835  0.6249156781421892  0.8857910086162593   T   T   T
  0.1429012451073165  0.2548775170838776  0.8174333276972866   T   T   T
  0.5843327387158416  0.2437524569879397  0.8020719865976885   T   T   T
  0.8941581696536839  0.3625238608249732  0.7996879949781259   T   T   T
  0.1337091339352356  0.7760221423076858  0.8174748529025017   T   T   T
  0.5891719829744250  0.7490124839644211  0.8027712248094834   T   T   T
  0.8943523411078714  0.8870086964442262  0.7996494569694460   T   T   T
  0.3772918100787274  0.8888623907591655  0.8375541216460721   T   T   T
  0.3858917701485714  0.6248644314763826  0.8314181254189777   T   T   T
  0.3771742916328180  0.3605421758754354  0.8375206878382343   T   T   T
  0.3664003671083303  0.1247332302043447  0.8353239523462443   T   T   T
  0.9121784251480223  0.6247317251805077  0.8111240159725056   T   T   T
 
  0.00000000E+00  0.00000000E+00  0.00000000E+00
  0.00000000E+00  0.00000000E+00  0.00000000E+00
  0.00000000E+00  0.00000000E+00  0.00000000E+00
  0.00000000E+00  0.00000000E+00  0.00000000E+00
  0.00000000E+00  0.00000000E+00  0.00000000E+00
  0.00000000E+00  0.00000000E+00  0.00000000E+00
  0.00000000E+00  0.00000000E+00  0.00000000E+00
  0.00000000E+00  0.00000000E+00  0.00000000E+00
  0.00000000E+00  0.00000000E+00  0.00000000E+00
  0.00000000E+00  0.00000000E+00  0.00000000E+00
  0.00000000E+00  0.00000000E+00  0.00000000E+00
  0.00000000E+00  0.00000000E+00  0.00000000E+00
  0.00000000E+00  0.00000000E+00  0.00000000E+00
  0.00000000E+00  0.00000000E+00  0.00000000E+00
  0.00000000E+00  0.00000000E+00  0.00000000E+00
  0.00000000E+00  0.00000000E+00  0.00000000E+00
  0.00000000E+00  0.00000000E+00  0.00000000E+00
  0.00000000E+00  0.00000000E+00  0.00000000E+00
  0.00000000E+00  0.00000000E+00  0.00000000E+00
  0.00000000E+00  0.00000000E+00  0.00000000E+00
  0.00000000E+00  0.00000000E+00  0.00000000E+00
  0.00000000E+00  0.00000000E+00  0.00000000E+00
  0.00000000E+00  0.00000000E+00  0.00000000E+00
  0.00000000E+00  0.00000000E+00  0.00000000E+00
  0.00000000E+00  0.00000000E+00  0.00000000E+00
  0.00000000E+00  0.00000000E+00  0.00000000E+00
  0.00000000E+00  0.00000000E+00  0.00000000E+00
  0.00000000E+00  0.00000000E+00  0.00000000E+00
  0.00000000E+00  0.00000000E+00  0.00000000E+00
  0.00000000E+00  0.00000000E+00  0.00000000E+00
  0.00000000E+00  0.00000000E+00  0.00000000E+00
  0.00000000E+00  0.00000000E+00  0.00000000E+00
  0.00000000E+00  0.00000000E+00  0.00000000E+00
  0.00000000E+00  0.00000000E+00  0.00000000E+00
  0.00000000E+00  0.00000000E+00  0.00000000E+00
  0.00000000E+00  0.00000000E+00  0.00000000E+00
  0.00000000E+00  0.00000000E+00  0.00000000E+00
  0.00000000E+00  0.00000000E+00  0.00000000E+00
  0.00000000E+00  0.00000000E+00  0.00000000E+00
  0.00000000E+00  0.00000000E+00  0.00000000E+00
  0.00000000E+00  0.00000000E+00  0.00000000E+00
  0.00000000E+00  0.00000000E+00  0.00000000E+00
  0.00000000E+00  0.00000000E+00  0.00000000E+00
  0.00000000E+00  0.00000000E+00  0.00000000E+00
  0.00000000E+00  0.00000000E+00  0.00000000E+00
  0.00000000E+00  0.00000000E+00  0.00000000E+00
  0.00000000E+00  0.00000000E+00  0.00000000E+00
  0.00000000E+00  0.00000000E+00  0.00000000E+00
  0.00000000E+00  0.00000000E+00  0.00000000E+00
  0.00000000E+00  0.00000000E+00  0.00000000E+00
  0.00000000E+00  0.00000000E+00  0.00000000E+00
  0.00000000E+00  0.00000000E+00  0.00000000E+00
  0.00000000E+00  0.00000000E+00  0.00000000E+00
  0.00000000E+00  0.00000000E+00  0.00000000E+00
  0.00000000E+00  0.00000000E+00  0.00000000E+00
  0.00000000E+00  0.00000000E+00  0.00000000E+00
  0.00000000E+00  0.00000000E+00  0.00000000E+00
  0.00000000E+00  0.00000000E+00  0.00000000E+00
  0.00000000E+00  0.00000000E+00  0.00000000E+00
  0.00000000E+00  0.00000000E+00  0.00000000E+00
  0.00000000E+00  0.00000000E+00  0.00000000E+00
  0.00000000E+00  0.00000000E+00  0.00000000E+00
  0.00000000E+00  0.00000000E+00  0.00000000E+00
  0.00000000E+00  0.00000000E+00  0.00000000E+00
  0.00000000E+00  0.00000000E+00  0.00000000E+00
  0.00000000E+00  0.00000000E+00  0.00000000E+00
  0.00000000E+00  0.00000000E+00  0.00000000E+00
  0.00000000E+00  0.00000000E+00  0.00000000E+00
  0.00000000E+00  0.00000000E+00  0.00000000E+00
  0.00000000E+00  0.00000000E+00  0.00000000E+00
  0.00000000E+00  0.00000000E+00  0.00000000E+00
  0.00000000E+00  0.00000000E+00  0.00000000E+00
  0.00000000E+00  0.00000000E+00  0.00000000E+00
  0.00000000E+00  0.00000000E+00  0.00000000E+00
  0.00000000E+00  0.00000000E+00  0.00000000E+00
  0.00000000E+00  0.00000000E+00  0.00000000E+00
  0.00000000E+00  0.00000000E+00  0.00000000E+00
  0.00000000E+00  0.00000000E+00  0.00000000E+00
  0.00000000E+00  0.00000000E+00  0.00000000E+00
  0.00000000E+00  0.00000000E+00  0.00000000E+00
  0.00000000E+00  0.00000000E+00  0.00000000E+00
  0.00000000E+00  0.00000000E+00  0.00000000E+00
  0.00000000E+00  0.00000000E+00  0.00000000E+00
  0.00000000E+00  0.00000000E+00  0.00000000E+00
  0.00000000E+00  0.00000000E+00  0.00000000E+00
  0.00000000E+00  0.00000000E+00  0.00000000E+00
  0.00000000E+00  0.00000000E+00  0.00000000E+00
  0.00000000E+00  0.00000000E+00  0.00000000E+00
  0.00000000E+00  0.00000000E+00  0.00000000E+00
  0.00000000E+00  0.00000000E+00  0.00000000E+00
  0.00000000E+00  0.00000000E+00  0.00000000E+00
  0.00000000E+00  0.00000000E+00  0.00000000E+00
  0.00000000E+00  0.00000000E+00  0.00000000E+00
  0.00000000E+00  0.00000000E+00  0.00000000E+00
  0.00000000E+00  0.00000000E+00  0.00000000E+00
  0.00000000E+00  0.00000000E+00  0.00000000E+00
  0.00000000E+00  0.00000000E+00  0.00000000E+00
  0.00000000E+00  0.00000000E+00  0.00000000E+00
  0.00000000E+00  0.00000000E+00  0.00000000E+00
  0.00000000E+00  0.00000000E+00  0.00000000E+00
  0.00000000E+00  0.00000000E+00  0.00000000E+00
  0.00000000E+00  0.00000000E+00  0.00000000E+00
  0.00000000E+00  0.00000000E+00  0.00000000E+00
  0.00000000E+00  0.00000000E+00  0.00000000E+00
  0.00000000E+00  0.00000000E+00  0.00000000E+00
  0.00000000E+00  0.00000000E+00  0.00000000E+00
  0.00000000E+00  0.00000000E+00  0.00000000E+00
  0.00000000E+00  0.00000000E+00  0.00000000E+00
  0.00000000E+00  0.00000000E+00  0.00000000E+00
  0.00000000E+00  0.00000000E+00  0.00000000E+00
  0.00000000E+00  0.00000000E+00  0.00000000E+00
  0.00000000E+00  0.00000000E+00  0.00000000E+00
  0.00000000E+00  0.00000000E+00  0.00000000E+00
  0.00000000E+00  0.00000000E+00  0.00000000E+00
  0.00000000E+00  0.00000000E+00  0.00000000E+00
  0.00000000E+00  0.00000000E+00  0.00000000E+00
  0.00000000E+00  0.00000000E+00  0.00000000E+00
  0.00000000E+00  0.00000000E+00  0.00000000E+00
  0.00000000E+00  0.00000000E+00  0.00000000E+00
  0.00000000E+00  0.00000000E+00  0.00000000E+00
  0.00000000E+00  0.00000000E+00  0.00000000E+00
  0.00000000E+00  0.00000000E+00  0.00000000E+00
  0.00000000E+00  0.00000000E+00  0.00000000E+00
  0.00000000E+00  0.00000000E+00  0.00000000E+00
  0.00000000E+00  0.00000000E+00  0.00000000E+00
  0.00000000E+00  0.00000000E+00  0.00000000E+00
  0.00000000E+00  0.00000000E+00  0.00000000E+00
  0.00000000E+00  0.00000000E+00  0.00000000E+00
  0.00000000E+00  0.00000000E+00  0.00000000E+00
  0.00000000E+00  0.00000000E+00  0.00000000E+00
  0.00000000E+00  0.00000000E+00  0.00000000E+00
  0.00000000E+00  0.00000000E+00  0.00000000E+00
  0.00000000E+00  0.00000000E+00  0.00000000E+00
  0.00000000E+00  0.00000000E+00  0.00000000E+00
  0.00000000E+00  0.00000000E+00  0.00000000E+00
  0.00000000E+00  0.00000000E+00  0.00000000E+00
  0.00000000E+00  0.00000000E+00  0.00000000E+00
