Mo  S Cu                                
   1.00000000000000     
    15.9214998300000001    0.0000000000000000    0.0000000000000000
    -7.9622501300000001   13.7910221699999997    0.0000000000000000
     0.0000000000000000    0.0000000000000000   13.5821998300000004
   Mo   S    Cu
    25    50     4
Direct
  0.1323570815161901  0.0655420341699511  0.6781378204935677
  0.1321032722119426  0.2654402729729810  0.6790145123099123
  0.1325055937105333  0.4655145718223537  0.6792341129518888
  0.1326620270484042  0.6659663555411797  0.6785603914481513
  0.1326607473427117  0.8657943846555369  0.6779046679055085
  0.3325034565714660  0.0656484148201599  0.6782631721152939
  0.3323069630914901  0.2651366494675145  0.6786381839941953
  0.3328599848595388  0.4660925342062825  0.6792490179883330
  0.3327329140611681  0.6660628866721794  0.6786768891275869
  0.3326871915275902  0.8659093627181065  0.6781731662659141
  0.5328667128001214  0.0661964960280628  0.6784098485319277
  0.5331978529969845  0.2658640691101795  0.6785062623409601
  0.5326780127033288  0.4657491323032019  0.6798829161983448
  0.5327523680208017  0.6661441093390579  0.6787097695830440
  0.5326612832935780  0.8659782411100565  0.6781906936896362
  0.7327736480925608  0.0657784873942902  0.6782044830126068
  0.7328570785764441  0.2660671398937779  0.6787449929142966
  0.7322658395178863  0.4650378225789495  0.6796049504200283
  0.7327926601308263  0.6661210763826375  0.6780298223728707
  0.7324783041973859  0.8658125248376720  0.6778612250606528
  0.9323714773269955  0.0654331356266411  0.6780441336783412
  0.9327251912333523  0.2654872237895347  0.6784831671071103
  0.9325119231905319  0.4657242968943578  0.6795750700062158
  0.9327205196238708  0.6661444971116595  0.6779248127518898
  0.9325239516118558  0.8657633289860982  0.6776672357713736
  0.0659343467102573  0.1326316346746168  0.5633018674757722
  0.0651316047610351  0.1313326446902039  0.7935646536567376
  0.0658666344909591  0.3321272048549773  0.5638196698701350
  0.0657182673843195  0.3322362672787023  0.7945769209303393
  0.0656507732335356  0.5320976306498579  0.5641154719846710
  0.0664181362869911  0.5330382400736013  0.7942550042314807
  0.0659955978843243  0.7323025427777239  0.5629483548561396
  0.0658781696664761  0.7327880004251313  0.7932839642426970
  0.0660256403901371  0.9325265638583033  0.5627318679271838
  0.0656480445977579  0.9321067039874507  0.7929644464878152
  0.2660306726508708  0.1325731107485666  0.5632557604703550
  0.2652410248893418  0.1312719111426333  0.7936358136164401
  0.2658751856759167  0.3323484353823360  0.5641429121439572
  0.2657462828456261  0.3322426215261345  0.7932389577638475
  0.2659557375274630  0.5323446553695135  0.5640409424234534
  0.2660204224220877  0.5329009396217259  0.7942302321350212
  0.2659380864266012  0.7323689171298255  0.5633601542704625
  0.2660633036883837  0.7329049350393291  0.7935407749247858
  0.2661588952044625  0.9326005754956697  0.5629241015925004
  0.2658252757385853  0.9323049740230545  0.7932321583776414
  0.4661205328896614  0.1327468926391475  0.5633484391497419
  0.4657275597962709  0.1320531278749399  0.7941188855352976
  0.4660480872066515  0.3323891638802365  0.5643195983481846
  0.4672236689025695  0.3326373731838927  0.7962040609361836
  0.4660736618580685  0.5322970026155360  0.5642195591663537
  0.4663083958422050  0.5333660469575250  0.7946488521931840
  0.4658587557842466  0.7324241009605572  0.5634044594769918
  0.4661745484902298  0.7330703618752707  0.7936349819318806
  0.4661731558383408  0.9329218118999805  0.5631848580996319
  0.4660540580297337  0.9326787407208030  0.7931957513344159
  0.6663078639035831  0.1330083727811200  0.5634332350999642
  0.6659997550177224  0.1320664868314836  0.7941247544656278
  0.6661915471432707  0.3323547827799302  0.5631690284893054
  0.6661275287891613  0.3326544472591024  0.7954320285824181
  0.6656164670872826  0.5317478968709040  0.5641618270074247
  0.6663836069056757  0.5332123050551800  0.7946671369849483
  0.6656385923004606  0.7322549815575314  0.5630414158504848
  0.6664097221324923  0.7329467555891469  0.7933456583193177
  0.6658389256177841  0.9326635546419269  0.5628721958947196
  0.6659941430739806  0.9324941807075149  0.7932011573311186
  0.8660032408082898  0.1326297640057348  0.5631651623285521
  0.8657540135978437  0.1316741168426532  0.7934962894593198
  0.8660666168515476  0.3326148501812582  0.5639523065412533
  0.8659835377362057  0.3327439199854680  0.7956836052029601
  0.8654864346276554  0.5317868770957830  0.5640164412266273
  0.8664120444733783  0.5332938804230523  0.7945614555323104
  0.8657770874092350  0.7322850858426193  0.5626909823010138
  0.8661516972000527  0.7328659527542882  0.7930581099554246
  0.8657684597265316  0.9324486671752226  0.5626359773128442
  0.8657054330603060  0.9320767845316169  0.7929124632992881
  0.2711752696444663  0.3453753253243974  0.9515333057033502
  0.5301103471000914  0.3404022362259482  0.9443611070445712
  0.6793795744806630  0.3454264581802136  0.9684577522756896
  0.8253137578891341  0.3446447026606236  0.9492634467675742
 
  0.00000000E+00  0.00000000E+00  0.00000000E+00
  0.00000000E+00  0.00000000E+00  0.00000000E+00
  0.00000000E+00  0.00000000E+00  0.00000000E+00
  0.00000000E+00  0.00000000E+00  0.00000000E+00
  0.00000000E+00  0.00000000E+00  0.00000000E+00
  0.00000000E+00  0.00000000E+00  0.00000000E+00
  0.00000000E+00  0.00000000E+00  0.00000000E+00
  0.00000000E+00  0.00000000E+00  0.00000000E+00
  0.00000000E+00  0.00000000E+00  0.00000000E+00
  0.00000000E+00  0.00000000E+00  0.00000000E+00
  0.00000000E+00  0.00000000E+00  0.00000000E+00
  0.00000000E+00  0.00000000E+00  0.00000000E+00
  0.00000000E+00  0.00000000E+00  0.00000000E+00
  0.00000000E+00  0.00000000E+00  0.00000000E+00
  0.00000000E+00  0.00000000E+00  0.00000000E+00
  0.00000000E+00  0.00000000E+00  0.00000000E+00
  0.00000000E+00  0.00000000E+00  0.00000000E+00
  0.00000000E+00  0.00000000E+00  0.00000000E+00
  0.00000000E+00  0.00000000E+00  0.00000000E+00
  0.00000000E+00  0.00000000E+00  0.00000000E+00
  0.00000000E+00  0.00000000E+00  0.00000000E+00
  0.00000000E+00  0.00000000E+00  0.00000000E+00
  0.00000000E+00  0.00000000E+00  0.00000000E+00
  0.00000000E+00  0.00000000E+00  0.00000000E+00
  0.00000000E+00  0.00000000E+00  0.00000000E+00
  0.00000000E+00  0.00000000E+00  0.00000000E+00
  0.00000000E+00  0.00000000E+00  0.00000000E+00
  0.00000000E+00  0.00000000E+00  0.00000000E+00
  0.00000000E+00  0.00000000E+00  0.00000000E+00
  0.00000000E+00  0.00000000E+00  0.00000000E+00
  0.00000000E+00  0.00000000E+00  0.00000000E+00
  0.00000000E+00  0.00000000E+00  0.00000000E+00
  0.00000000E+00  0.00000000E+00  0.00000000E+00
  0.00000000E+00  0.00000000E+00  0.00000000E+00
  0.00000000E+00  0.00000000E+00  0.00000000E+00
  0.00000000E+00  0.00000000E+00  0.00000000E+00
  0.00000000E+00  0.00000000E+00  0.00000000E+00
  0.00000000E+00  0.00000000E+00  0.00000000E+00
  0.00000000E+00  0.00000000E+00  0.00000000E+00
  0.00000000E+00  0.00000000E+00  0.00000000E+00
  0.00000000E+00  0.00000000E+00  0.00000000E+00
  0.00000000E+00  0.00000000E+00  0.00000000E+00
  0.00000000E+00  0.00000000E+00  0.00000000E+00
  0.00000000E+00  0.00000000E+00  0.00000000E+00
  0.00000000E+00  0.00000000E+00  0.00000000E+00
  0.00000000E+00  0.00000000E+00  0.00000000E+00
  0.00000000E+00  0.00000000E+00  0.00000000E+00
  0.00000000E+00  0.00000000E+00  0.00000000E+00
  0.00000000E+00  0.00000000E+00  0.00000000E+00
  0.00000000E+00  0.00000000E+00  0.00000000E+00
  0.00000000E+00  0.00000000E+00  0.00000000E+00
  0.00000000E+00  0.00000000E+00  0.00000000E+00
  0.00000000E+00  0.00000000E+00  0.00000000E+00
  0.00000000E+00  0.00000000E+00  0.00000000E+00
  0.00000000E+00  0.00000000E+00  0.00000000E+00
  0.00000000E+00  0.00000000E+00  0.00000000E+00
  0.00000000E+00  0.00000000E+00  0.00000000E+00
  0.00000000E+00  0.00000000E+00  0.00000000E+00
  0.00000000E+00  0.00000000E+00  0.00000000E+00
  0.00000000E+00  0.00000000E+00  0.00000000E+00
  0.00000000E+00  0.00000000E+00  0.00000000E+00
  0.00000000E+00  0.00000000E+00  0.00000000E+00
  0.00000000E+00  0.00000000E+00  0.00000000E+00
  0.00000000E+00  0.00000000E+00  0.00000000E+00
  0.00000000E+00  0.00000000E+00  0.00000000E+00
  0.00000000E+00  0.00000000E+00  0.00000000E+00
  0.00000000E+00  0.00000000E+00  0.00000000E+00
  0.00000000E+00  0.00000000E+00  0.00000000E+00
  0.00000000E+00  0.00000000E+00  0.00000000E+00
  0.00000000E+00  0.00000000E+00  0.00000000E+00
  0.00000000E+00  0.00000000E+00  0.00000000E+00
  0.00000000E+00  0.00000000E+00  0.00000000E+00
  0.00000000E+00  0.00000000E+00  0.00000000E+00
  0.00000000E+00  0.00000000E+00  0.00000000E+00
  0.00000000E+00  0.00000000E+00  0.00000000E+00
  0.00000000E+00  0.00000000E+00  0.00000000E+00
  0.00000000E+00  0.00000000E+00  0.00000000E+00
  0.00000000E+00  0.00000000E+00  0.00000000E+00
  0.00000000E+00  0.00000000E+00  0.00000000E+00
