Cu	N	Ru	Ta                              
   1.00000000000000     
    18.1096308199999996    0.0000000000000000    0.0000000000000000
     0.0000000000000000   23.3551997799999995    0.0000000000000000
     0.0000000000000000    0.0000000000000000   30.4818171199999988
   Cu   N    Ru   Ta
     4   240    48   192
Selective dynamics
Direct
  0.5947128419177458  0.4304610894855647  0.5856769757476376   T   T   T
  0.4052490949769640  0.4200964214905224  0.5729807881336705   T   T   T
  0.4855954561839640  0.4728920397480838  0.6305709336223217   T   T   T
  0.5326676513333779  0.3834551230085203  0.6500127806363103   T   T   T
  0.0000000000000000  0.0000000000000000  0.3032267788896164   F   F   F
  0.0000000000000000  0.5000000000000000  0.3032267788896164   F   F   F
  0.0000000000000000  0.6249999998929567  0.3032267788896164   F   F   F
  0.0000000000000000  0.7500000002140865  0.3032267788896164   F   F   F
  0.0000000000000000  0.8750000001070433  0.3032267788896164   F   F   F
  0.0000000000000000  0.1249999998929567  0.3032267788896164   F   F   F
  0.0000000000000000  0.2500000002140865  0.3032267788896164   F   F   F
  0.0000000000000000  0.3750000001070433  0.3032267788896164   F   F   F
  0.0008269740101148  0.9991468906295580  0.4721721989553538   T   T   T
  0.0005470435863758  0.6260954003005719  0.4734080721185880   T   T   T
  0.0011702234585224  0.2489555924632785  0.4736042612018919   T   T   T
  0.0012614005042258  0.7498457525339677  0.4724850562613452   T   T   T
  0.0028676181058603  0.8761151004952403  0.4724286804904607   T   T   T
  0.5574900834391590  0.3546682955103020  0.5954880270953616   T   T   T
  0.5574215583323709  0.1189979448353060  0.5866503537404195   T   T   T
  0.5686249242880272  0.7401059271902559  0.5743629363006307   T   T   T
  0.5813799481477639  0.6330677249007445  0.5722710271026650   T   T   T
  0.5941133989389655  0.0000000000000000  0.2322132027803434   F   F   F
  0.5941133989389655  0.5000000000000000  0.2322132027803434   F   F   F
  0.5941133989389655  0.6249999998929567  0.2322132027803434   F   F   F
  0.5941133989389655  0.7500000002140865  0.2322132027803434   F   F   F
  0.5941133989389655  0.8750000001070433  0.2322132027803434   F   F   F
  0.5941133989389655  0.1249999998929567  0.2322132027803434   F   F   F
  0.5941133989389655  0.2500000002140865  0.2322132027803434   F   F   F
  0.5941133989389655  0.3750000001070433  0.2322132027803434   F   F   F
  0.5981592209592458  0.5003433292990556  0.4023755114628322   T   T   T
  0.5982914696728262  0.3757031945414246  0.4020450419915773   T   T   T
  0.5978120656763837  0.9989148504939498  0.5683027868695805   T   T   T
  0.5988701552642900  0.6246488885424244  0.4023318245356929   T   T   T
  0.5994109433593996  0.2500775061995392  0.4021926183385079   T   T   T
  0.5994385258972796  0.7498943878524562  0.4019986908181460   T   T   T
  0.5993959788758091  0.1243977759971937  0.4029563830408710   T   T   T
  0.5994752148365684  0.0004331777882569  0.4021465592450764   T   T   T
  0.5998235588502837  0.8586159880405353  0.5661102070781550   T   T   T
  0.6002686343270988  0.8745377402522970  0.4016997080180919   T   T   T
  0.6049060194520610  0.5064455855734579  0.5661618593323087   T   T   T
  0.6248517569172507  0.2277518108384309  0.5736586570033110   T   T   T
  0.6483633278840157  0.2532213181985256  0.4871374494673994   T   T   T
  0.6485058478909630  0.1248896895676129  0.4889613524447620   T   T   T
  0.6493303359322137  0.3763898758482003  0.4845297388505945   T   T   T
  0.6500569561436924  0.6239809936259088  0.4880646195069398   T   T   T
  0.6504056361677348  0.7512761502928770  0.4866283762853827   T   T   T
  0.6517458816604198  0.4987931580574138  0.4846226883131564   T   T   T
  0.6519605794958059  0.9980552679863124  0.4848848056163774   T   T   T
  0.6549583129536350  0.8739159112051695  0.4860647175677361   T   T   T
  0.6545990963497701  0.0000000000000000  0.3156671842141137   F   F   F
  0.6545990963497701  0.5000000000000000  0.3156671842141137   F   F   F
  0.6545990963497701  0.6249999998929567  0.3156671842141137   F   F   F
  0.6545990963497701  0.7500000002140865  0.3156671842141137   F   F   F
  0.6545990963497701  0.8750000001070433  0.3156671842141137   F   F   F
  0.6545990963497701  0.1249999998929567  0.3156671842141137   F   F   F
  0.6545990963497701  0.2500000002140865  0.3156671842141137   F   F   F
  0.6545990963497701  0.3750000001070433  0.3156671842141137   F   F   F
  0.7186776843683403  0.3407642181210607  0.5574212934119707   T   T   T
  0.7229792009440182  0.7348388778116496  0.5584161811174266   T   T   T
  0.7265776631290083  0.1106861413278833  0.5659531397101546   T   T   T
  0.7496292733307387  0.3749704496562153  0.3860552064294994   T   T   T
  0.7496650643733997  0.2498300348944028  0.3885918183418218   T   T   T
  0.7496899365902269  0.6250058871738218  0.3886242581726128   T   T   T
  0.7495915059480954  0.1252676563224673  0.3883038881255839   T   T   T
  0.7497762848788140  0.5000699437904528  0.3865150380786526   T   T   T
  0.7504279906153514  0.7497503367424579  0.3883535998311169   T   T   T
  0.7503491464211911  0.0001092955827854  0.3875504826314248   T   T   T
  0.7506005900995008  0.8748470562771162  0.3874923279380552   T   T   T
  0.7499999997239044  0.0000000000000000  0.1996562654398630   F   F   F
  0.7499999997239044  0.5000000000000000  0.1996562654398630   F   F   F
  0.7499999997239044  0.6249999998929567  0.1996562654398630   F   F   F
  0.7499999997239044  0.7500000002140865  0.1996562654398630   F   F   F
  0.7499999997239044  0.8750000001070433  0.1996562654398630   F   F   F
  0.7499999997239044  0.1249999998929567  0.1996562654398630   F   F   F
  0.7499999997239044  0.2500000002140865  0.1996562654398630   F   F   F
  0.7499999997239044  0.3750000001070433  0.1996562654398630   F   F   F
  0.7525235932200949  0.9845730203573310  0.5563955562985580   T   T   T
  0.7596961425730495  0.4756282370655443  0.5574641297370025   T   T   T
  0.7696994969798583  0.5970432104552951  0.5552246100635460   T   T   T
  0.0781190524113121  0.1133858706090616  0.5729182435330566   T   T   T
  0.7771960065201752  0.8602864529663765  0.5562338218449390   T   T   T
  0.7992695004749066  0.2303858720817117  0.5709764973771214   T   T   T
  0.0813620251261921  0.3636935742772089  0.5700975104129594   T   T   T
  0.8454009036502299  0.0000000000000000  0.3156671842141137   F   F   F
  0.8454009036502299  0.5000000000000000  0.3156671842141137   F   F   F
  0.8454009036502299  0.6249999998929567  0.3156671842141137   F   F   F
  0.8454009036502299  0.7500000002140865  0.3156671842141137   F   F   F
  0.8454009036502299  0.8750000001070433  0.3156671842141137   F   F   F
  0.8454009036502299  0.1249999998929567  0.3156671842141137   F   F   F
  0.8454009036502299  0.2500000002140865  0.3156671842141137   F   F   F
  0.8454009036502299  0.3750000001070433  0.3156671842141137   F   F   F
  0.8470264003233064  0.3778748322650177  0.4838502765549770   T   T   T
  0.8468669595924464  0.1240763373972685  0.4863314719227171   T   T   T
  0.8483619234209707  0.4981482001492187  0.4848576546547295   T   T   T
  0.8500204842757376  0.6277874160706538  0.4895882744428623   T   T   T
  0.8504999027063515  0.2525813118071524  0.4880334808384879   T   T   T
  0.8506174707191464  0.7503342255601353  0.4874148818554865   T   T   T
  0.8508287338968937  0.9993020708772633  0.4868929106252652   T   T   T
  0.8533764400442581  0.8760030269481912  0.4855371377203426   T   T   T
  0.0877846874780915  0.4970580553573559  0.5693573576173740   T   T   T
  0.0865634479494243  0.0044765725866639  0.5719837318717769   T   T   T
  0.8983868606399467  0.3660049450680361  0.5648807711433355   T   T   T
  0.9000196961658720  0.3746186711429026  0.4010911246629083   T   T   T
  0.8999525224216464  0.5011306824511851  0.4015899540387082   T   T   T
  0.9002681594374286  0.6252192421491641  0.4033560706464205   T   T   T
  0.9003067513549688  0.1261273527289732  0.4025397685854922   T   T   T
  0.9005091903033029  0.2501281313066891  0.4028989819199641   T   T   T
  0.9008560774103477  0.9999135224969466  0.4017658404082434   T   T   T
  0.9011867977349108  0.7496968997686716  0.4021294314032735   T   T   T
  0.9018425129755679  0.8752276323916827  0.4015097196357699   T   T   T
  0.9035698925224421  0.1242622002800123  0.5675071882524855   T   T   T
  0.9058866010610345  0.0000000000000000  0.2322132027803434   F   F   F
  0.9058866010610345  0.5000000000000000  0.2322132027803434   F   F   F
  0.9058866010610345  0.6249999998929567  0.2322132027803434   F   F   F
  0.9058866010610345  0.7500000002140865  0.2322132027803434   F   F   F
  0.9058866010610345  0.8750000001070433  0.2322132027803434   F   F   F
  0.9058866010610345  0.1249999998929567  0.2322132027803434   F   F   F
  0.9058866010610345  0.2500000002140865  0.2322132027803434   F   F   F
  0.9058866010610345  0.3750000001070433  0.2322132027803434   F   F   F
  0.9076542680298066  0.5027086474425647  0.5684028402646987   T   T   T
  0.0913213762032006  0.7416114636674235  0.5717874555180606   T   T   T
  0.9164418377514879  0.9870017496356882  0.5693804647926800   T   T   T
  0.9174333356494491  0.7531804834327197  0.5699130256449197   T   T   T
  0.9340037952418678  0.8636438882104934  0.5728817077347218   T   T   T
  0.9353433224147629  0.6290912054726107  0.5784465018678369   T   T   T
  0.0941133989389655  0.0000000000000000  0.2322132027803434   F   F   F
  0.0941133989389655  0.5000000000000000  0.2322132027803434   F   F   F
  0.0941133989389655  0.6249999998929567  0.2322132027803434   F   F   F
  0.0941133989389655  0.7500000002140865  0.2322132027803434   F   F   F
  0.0941133989389655  0.8750000001070433  0.2322132027803434   F   F   F
  0.0941133989389655  0.1249999998929567  0.2322132027803434   F   F   F
  0.0941133989389655  0.2500000002140865  0.2322132027803434   F   F   F
  0.0941133989389655  0.3750000001070433  0.2322132027803434   F   F   F
  0.9566628418222934  0.2545276234774677  0.5845543111928602   T   T   T
  0.0986017991558249  0.5005033820110035  0.4007145229966599   T   T   T
  0.0987846605542596  0.3749406133789405  0.4006484509972223   T   T   T
  0.0987583914826971  0.1255939572345791  0.4017172203197725   T   T   T
  0.0989537803305506  0.2495339160213966  0.4014877590962622   T   T   T
  0.0989121364332007  0.6253329757484312  0.4014644352384859   T   T   T
  0.0996519557354364  0.9998896009698217  0.4014617506821314   T   T   T
  0.0996625429290589  0.7500204322916262  0.4019536653680829   T   T   T
  0.1006516379529315  0.8755012698978885  0.4019252975375868   T   T   T
  0.9987035959337240  0.3750167147838541  0.4709811314685058   T   T   T
  0.9986545988023170  0.1259946722867392  0.4731853958204946   T   T   T
  0.9990891566526465  0.5004348039915688  0.4712765996502394   T   T   T
  0.1026764875055585  0.6149148689853153  0.5707939465797857   T   T   T
  0.1091767592328128  0.8788449877766673  0.5666285642576009   T   T   T
  0.1213118317700456  0.2422942228826444  0.5669808825999257   T   T   T
  0.1479056083037203  0.1235249321328202  0.4856931514309478   T   T   T
  0.1487379937145495  0.3765580594907301  0.4839244605429728   T   T   T
  0.1497509822147266  0.4988778525537150  0.4833013714250570   T   T   T
  0.1499987645155161  0.7500479718430452  0.4859139294481480   T   T   T
  0.1506080626884943  0.0012318049649886  0.4857428329426546   T   T   T
  0.1510422016702062  0.6243302425523858  0.4862962879473937   T   T   T
  0.1522444982698203  0.2519864971904585  0.4843982673722215   T   T   T
  0.1552996208919706  0.8768607533866682  0.4855955284718452   T   T   T
  0.1545990963497701  0.0000000000000000  0.3156671842141137   F   F   F
  0.1545990963497701  0.5000000000000000  0.3156671842141137   F   F   F
  0.1545990963497701  0.6249999998929567  0.3156671842141137   F   F   F
  0.1545990963497701  0.7500000002140865  0.3156671842141137   F   F   F
  0.1545990963497701  0.8750000001070433  0.3156671842141137   F   F   F
  0.1545990963497701  0.1249999998929567  0.3156671842141137   F   F   F
  0.1545990963497701  0.2500000002140865  0.3156671842141137   F   F   F
  0.1545990963497701  0.3750000001070433  0.3156671842141137   F   F   F
  0.2251965698976312  0.1220159665344611  0.5577989436143345   T   T   T
  0.2300278032689266  0.7643553415206744  0.5571199872061224   T   T   T
  0.2364658350273919  0.0038466123284720  0.5561138422763596   T   T   T
  0.2419138761304404  0.5101050935166493  0.5541434354306184   T   T   T
  0.2415411395819847  0.3654586796127493  0.5546324797782645   T   T   T
  0.2495667162505258  0.3753485396746604  0.3866855987938929   T   T   T
  0.2498064123354952  0.5001067198212296  0.3873224074175640   T   T   T
  0.2497402451629963  0.6250191668367172  0.3871963832430588   T   T   T
  0.2498029603102156  0.1248584308232301  0.3877416288187818   T   T   T
  0.2500292559449786  0.2499297997745498  0.3871703085473447   T   T   T
  0.2502587777704123  0.7499758546265425  0.3870702333794226   T   T   T
  0.2506008839965325  0.0000954988185514  0.3883843070693080   T   T   T
  0.2508463512594102  0.8753891132934627  0.3871626507826415   T   T   T
  0.2499999997239044  0.0000000000000000  0.1996562654398630   F   F   F
  0.2499999997239044  0.5000000000000000  0.1996562654398630   F   F   F
  0.2499999997239044  0.6249999998929567  0.1996562654398630   F   F   F
  0.2499999997239044  0.7500000002140865  0.1996562654398630   F   F   F
  0.2499999997239044  0.8750000001070433  0.1996562654398630   F   F   F
  0.2499999997239044  0.1249999998929567  0.1996562654398630   F   F   F
  0.2499999997239044  0.2500000002140865  0.1996562654398630   F   F   F
  0.2499999997239044  0.3750000001070433  0.1996562654398630   F   F   F
  0.2691856050249464  0.6476234005040081  0.5538058041861998   T   T   T
  0.2811542896718058  0.8787297439506523  0.5584786681396763   T   T   T
  0.2948958750128725  0.2364718962500397  0.5643358448603933   T   T   T
  0.3444739425479521  0.3768469024877071  0.4861957606407140   T   T   T
  0.3463612548966848  0.1266166141073772  0.4861281691042069   T   T   T
  0.3454009036502299  0.0000000000000000  0.3156671842141137   F   F   F
  0.3454009036502299  0.5000000000000000  0.3156671842141137   F   F   F
  0.3454009036502299  0.6249999998929567  0.3156671842141137   F   F   F
  0.3454009036502299  0.7500000002140865  0.3156671842141137   F   F   F
  0.3454009036502299  0.8750000001070433  0.3156671842141137   F   F   F
  0.3454009036502299  0.1249999998929567  0.3156671842141137   F   F   F
  0.3454009036502299  0.2500000002140865  0.3156671842141137   F   F   F
  0.3454009036502299  0.3750000001070433  0.3156671842141137   F   F   F
  0.3477705955741285  0.4986475562771590  0.4887173353981541   T   T   T
  0.3477495675623000  0.7502401257899938  0.4854539844547948   T   T   T
  0.3486655248486367  0.6245987241207211  0.4848911136952400   T   T   T
  0.3505668171519494  0.9995606017845122  0.4889163494657969   T   T   T
  0.3510752238047148  0.2517965579470474  0.4853046129819023   T   T   T
  0.3527853851126793  0.8738135357239567  0.4857093286836290   T   T   T
  0.3908908325414240  0.1041186628680117  0.5630818551500855   T   T   T
  0.3947503293982370  0.7532053327810879  0.5665403432680992   T   T   T
  0.4005919099691205  0.3756427630330338  0.4026104003446689   T   T   T
  0.4007360376200159  0.4996834583801751  0.4031599611547289   T   T   T
  0.4007151835408739  0.6245863802104137  0.4021656635027809   T   T   T
  0.4009239983855489  0.1247055000566686  0.4025259145117354   T   T   T
  0.4010519895428484  0.2505860024135633  0.4019053897570737   T   T   T
  0.4009185767119970  0.7499909196481741  0.4017515426004994   T   T   T
  0.4011534581017602  0.0005198614773357  0.4026447760103988   T   T   T
  0.4016442288804243  0.8747695815809706  0.4017714650142010   T   T   T
  0.4059701630506842  0.6133048065172771  0.5679031928983673   T   T   T
  0.4058866010610345  0.0000000000000000  0.2322132027803434   F   F   F
  0.4058866010610345  0.5000000000000000  0.2322132027803434   F   F   F
  0.4058866010610345  0.6249999998929567  0.2322132027803434   F   F   F
  0.4058866010610345  0.7500000002140865  0.2322132027803434   F   F   F
  0.4058866010610345  0.8750000001070433  0.2322132027803434   F   F   F
  0.4058866010610345  0.1249999998929567  0.2322132027803434   F   F   F
  0.4058866010610345  0.2500000002140865  0.2322132027803434   F   F   F
  0.4058866010610345  0.3750000001070433  0.2322132027803434   F   F   F
  0.4080473503284320  0.3391034136732854  0.5598313707402859   T   T   T
  0.4223939644723345  0.9855402088012837  0.5723308958554755   T   T   T
  0.4266747665512503  0.8763893496909361  0.5739345077172504   T   T   T
  0.4343963795619265  0.4968085654436175  0.5805615340981556   T   T   T
  0.4571462887990713  0.2169865902941457  0.5605227577771604   T   T   T
  0.4986892859736322  0.3745641632035533  0.4755195693317077   T   T   T
  0.4985848777809439  0.1237427099195374  0.4743004273045716   T   T   T
  0.4991503118056733  0.6244223018018769  0.4728410844382157   T   T   T
  0.4998488948543832  0.5005572662265100  0.4756141919989477   T   T   T
  0.4998990142621684  0.7503771593490672  0.4725257242124626   T   T   T
  0.5007725728477389  0.2504375428215049  0.4717132947589209   T   T   T
  0.5000000000000000  0.0000000000000000  0.3032267788896164   F   F   F
  0.5000000000000000  0.5000000000000000  0.3032267788896164   F   F   F
  0.5000000000000000  0.6249999998929567  0.3032267788896164   F   F   F
  0.5000000000000000  0.7500000002140865  0.3032267788896164   F   F   F
  0.5000000000000000  0.8750000001070433  0.3032267788896164   F   F   F
  0.5000000000000000  0.1249999998929567  0.3032267788896164   F   F   F
  0.5000000000000000  0.2500000002140865  0.3032267788896164   F   F   F
  0.5000000000000000  0.3750000001070433  0.3032267788896164   F   F   F
  0.5010945958889622 -0.0001489256833269  0.4731275530844146   T   T   T
  0.5019699810130229  0.8734406725803046  0.4725034874771041   T   T   T
  0.0015303114536088  0.1260846991712200  0.5411233715691611   T   T   T
  0.9969570553170357  0.5010352918270742  0.5384102041934061   T   T   T
  0.0093214049797298  0.8776916564946375  0.5402080636852747   T   T   T
  0.0099918370209851  0.9909262619199609  0.5399989603357950   T   T   T
  0.9905467101288045  0.3662362116290634  0.5376482055941471   T   T   T
  0.0188861727496678  0.6286188259280716  0.5421810256234872   T   T   T
  0.0239877710487227  0.2446913524717997  0.5423792781666555   T   T   T
  0.6189322328096747  0.9286548489280537  0.5402292543137864   T   T   T
  0.6336832526840441  0.1506924326378907  0.5540238212851765   T   T   T
  0.6351049128867661  0.6870649766664861  0.5396849530828998   T   T   T
  0.6912550880895536  0.0400685028601527  0.5403639364090411   T   T   T
  0.7024977036620480  0.8107778768028396  0.5372720962586446   T   T   T
  0.7033700679079393  0.5408849116407480  0.5380549228215673   T   T   T
  0.7089722008203452  0.4107608627622265  0.5360859829371147   T   T   T
  0.7119769029985444  0.2632691309154215  0.5483494757847223   T   T   T
  0.7853670359650616  0.6768021642304004  0.5372602552710872   T   T   T
  0.8048401163196249  0.1567109845993134  0.5453490006141869   T   T   T
  0.8142193632808005  0.9317429455976783  0.5365040105334498   T   T   T
  0.8556008911587361  0.4380234383027816  0.5366430396896230   T   T   T
  0.8658123856759666  0.8113140098612079  0.5386024688160761   T   T   T
  0.8790516474239958  0.2833348684099820  0.5531010329994958   T   T   T
  0.8818888794409908  0.5795676318842646  0.5477973661511902   T   T   T
  0.8884010735531611  0.0525198939494536  0.5413424996203000   T   T   T
  0.9998352513383481  0.7436190578612658  0.5402905435747525   T   T   T
  0.1143914680121863  0.4292264979623991  0.5408575620785351   T   T   T
  0.1247918857416155  0.8064742514679004  0.5434362364165051   T   T   T
  0.1446395636685680  0.0624280803967063  0.5382835483536721   T   T   T
  0.1480086649829820  0.5566503601146997  0.5370601645241564   T   T   T
  0.1524768780725084  0.3117594554304829  0.5352030973391653   T   T   T
  0.1929157658566548  0.6945664325756676  0.5378940973339805   T   T   T
  0.2077076262031526  0.9296052512131282  0.5381256528049455   T   T   T
  0.2090276289724860  0.1996207002505805  0.5461973631992705   T   T   T
  0.2800487472562422  0.4374800117641116  0.5334369355667803   T   T   T
  0.2943777949400086  0.0670362364917588  0.5372137227720983   T   T   T
  0.2996366458080140  0.5721477064667210  0.5352325133877330   T   T   T
  0.3096243650792613  0.8061260023082341  0.5383874870626779   T   T   T
  0.3139596746954764  0.3095753153481028  0.5364300128027712   T   T   T
  0.3648862559967280  0.9323160829524807  0.5395379223169489   T   T   T
  0.3707776548262675  0.1797208047012500  0.5409186244280771   T   T   T
  0.3759554296676266  0.6817384975402148  0.5418640800738486   T   T   T
  0.4915690194133270  0.1105280690176252  0.5434114818680306   T   T   T
  0.4949083600359534  0.7516244807727578  0.5405225261915666   T   T   T
  0.5008627341513767  0.6199495659895780  0.5406305325982022   T   T   T
  0.5015554983304316  0.8642227673403722  0.5404049013553160   T   T   T
  0.5017599693643351  0.9983704397532713  0.5410784281594637   T   T   T
  0.5048164942675768  0.3511613285273300  0.5453746214402656   T   T   T
  0.5111577522788259  0.5095815190376257  0.5445778006675122   T   T   T
  0.5394066475973333  0.2412124381071694  0.5362802821279334   T   T   T
  0.0000000000000000  0.0000000000000000  0.1972002481458333   F   F   F
  0.0000000000000000  0.5000000000000000  0.1972002481458333   F   F   F
  0.0000000000000000  0.6249999998929567  0.1972002481458333   F   F   F
  0.0000000000000000  0.7500000002140865  0.1972002481458333   F   F   F
  0.0000000000000000  0.8750000001070433  0.1972002481458333   F   F   F
  0.0000000000000000  0.1249999998929567  0.1972002481458333   F   F   F
  0.0000000000000000  0.2500000002140865  0.1972002481458333   F   F   F
  0.0000000000000000  0.3750000001070433  0.1972002481458333   F   F   F
  0.0012469396743928  0.8750275945910150  0.3696984424683257   T   T   T
  0.5830668079044656  0.4376815446605391  0.4551153198930724   T   T   T
  0.5825346300460907  0.4375000002676046  0.2838671249793236   F   F   F
  0.5825346300460907  0.5625000001605613  0.2838671249793236   F   F   F
  0.5825346300460907  0.0625000001605613  0.2838671249793236   F   F   F
  0.5825346300460907  0.6875000000535181  0.2838671249793236   F   F   F
  0.5825346300460907  0.8124999999464819  0.2838671249793236   F   F   F
  0.5825346300460907  0.9375000002676046  0.2838671249793236   F   F   F
  0.5825346300460907  0.1875000000535181  0.2838671249793236   F   F   F
  0.5825346300460907  0.3124999999464819  0.2838671249793236   F   F   F
  0.5837925599890632  0.0623633143892102  0.4556792766051769   T   T   T
  0.5841730783873971  0.5628175027188477  0.4552572446927477   T   T   T
  0.5841965201666001  0.6870962212818544  0.4547804374687788   T   T   T
  0.5842246808069317  0.3137839050904361  0.4549899827117528   T   T   T
  0.5843343765609906  0.1880672485553405  0.4555684316935970   T   T   T
  0.5850054873878490  0.9365792834940517  0.4539014772155743   T   T   T
  0.5858607930437465  0.8120521149573924  0.4539230891972448   T   T   T
  0.6666654480498424  0.4377198505563866  0.3683214687826138   T   T   T
  0.6657105641648826  0.4375000002676046  0.2025710526275901   F   F   F
  0.6657105641648826  0.5625000001605613  0.2025710526275901   F   F   F
  0.6657105641648826  0.0625000001605613  0.2025710526275901   F   F   F
  0.6657105641648826  0.6875000000535181  0.2025710526275901   F   F   F
  0.6657105641648826  0.8124999999464819  0.2025710526275901   F   F   F
  0.6657105641648826  0.9375000002676046  0.2025710526275901   F   F   F
  0.6657105641648826  0.1875000000535181  0.2025710526275901   F   F   F
  0.6657105641648826  0.3124999999464819  0.2025710526275901   F   F   F
  0.6672306043849299  0.3124128608307385  0.3683892841801530   T   T   T
  0.6673733137708413  0.5626558387832361  0.3685301166359533   T   T   T
  0.6673509384831554  0.1875875499474682  0.3688321304948548   T   T   T
  0.6676784805535211  0.6873688266625928  0.3686334223109471   T   T   T
  0.6677741077381601  0.0625905519046340  0.3685894529638563   T   T   T
  0.6681681004852458  0.9376238251409490  0.3681401586975779   T   T   T
  0.6682710357368871  0.8122713149157893  0.3682821949281857   T   T   T
  0.7476392446016789  0.1236823581088110  0.4567852550768714   T   T   T
  0.7492368925250870  0.3741760963436147  0.4533758383726388   T   T   T
  0.7493788649389734  0.6227749110363183  0.4575093051177854   T   T   T
  0.7495275609233372  0.4988532784017551  0.4542475477984192   T   T   T
  0.7501272121240472  0.2491996828145008  0.4578723009988262   T   T   T
  0.7499999997239044  0.0000000000000000  0.2777865629422820   F   F   F
  0.7499999997239044  0.5000000000000000  0.2777865629422820   F   F   F
  0.7499999997239044  0.6249999998929567  0.2777865629422820   F   F   F
  0.7499999997239044  0.7500000002140865  0.2777865629422820   F   F   F
  0.7499999997239044  0.8750000001070433  0.2777865629422820   F   F   F
  0.7499999997239044  0.1249999998929567  0.2777865629422820   F   F   F
  0.7499999997239044  0.2500000002140865  0.2777865629422820   F   F   F
  0.7499999997239044  0.3750000001070433  0.2777865629422820   F   F   F
  0.7514524142761289  0.7488492531540564  0.4568391156629976   T   T   T
  0.7519213954804437  0.9986646321267958  0.4555630583455401   T   T   T
  0.7528370784611810  0.8744801660293146  0.4554556483928516   T   T   T
  0.0822977367042884  0.4378902321723023  0.4527021443320136   T   T   T
  0.0825367380224024  0.3129532598701989  0.4526980726708568   T   T   T
  0.0830495080061448  0.5625925227768500  0.4533550699970321   T   T   T
  0.0832132702869213  0.0625539950566989  0.4532961101743200   T   T   T
  0.0825346300460907  0.4375000002676046  0.2838671249793236   F   F   F
  0.0825346300460907  0.5625000001605613  0.2838671249793236   F   F   F
  0.0825346300460907  0.0625000001605613  0.2838671249793236   F   F   F
  0.0825346300460907  0.6875000000535181  0.2838671249793236   F   F   F
  0.0825346300460907  0.8124999999464819  0.2838671249793236   F   F   F
  0.0825346300460907  0.9375000002676046  0.2838671249793236   F   F   F
  0.0825346300460907  0.1875000000535181  0.2838671249793236   F   F   F
  0.0825346300460907  0.3124999999464819  0.2838671249793236   F   F   F
  0.8320611861684500  0.3123488485799173  0.3683751610064324   T   T   T
  0.8320716311517097  0.5627478347704045  0.3684894383864547   T   T   T
  0.8320809577534890  0.4376195336302708  0.3673647192068746   T   T   T
  0.0839811490462602  0.1875721786605304  0.4554512417243319   T   T   T
  0.8322345092366361  0.1877699671631291  0.3688690680928730   T   T   T
  0.8322838234968465  0.6873670928493605  0.3689651843071146   T   T   T
  0.8321786927527411  0.0628854320274103  0.3685151303329087   T   T   T
  0.8325872918025899  0.9374778296525985  0.3681839542117505   T   T   T
  0.8326617172739560  0.8123596630160635  0.3683364603978602   T   T   T
  0.0842565986736768  0.6871250308808822  0.4542339436949184   T   T   T
  0.8342894060167296  0.4375000002676046  0.2025710526275901   F   F   F
  0.8342894060167296  0.5625000001605613  0.2025710526275901   F   F   F
  0.8342894060167296  0.0625000001605613  0.2025710526275901   F   F   F
  0.8342894060167296  0.6875000000535181  0.2025710526275901   F   F   F
  0.8342894060167296  0.8124999999464819  0.2025710526275901   F   F   F
  0.8342894060167296  0.9375000002676046  0.2025710526275901   F   F   F
  0.8342894060167296  0.1875000000535181  0.2025710526275901   F   F   F
  0.8342894060167296  0.3124999999464819  0.2025710526275901   F   F   F
  0.0857913037847248  0.8130108446548351  0.4546227497498108   T   T   T
  0.0865340728660675  0.9380870755426881  0.4543216840727058   T   T   T
  0.9141100348751064  0.3136304238766860  0.4557894651982010   T   T   T
  0.9140433360685090  0.1884688778869971  0.4561195570776794   T   T   T
  0.9145568218920922  0.5627394180924720  0.4566126899276985   T   T   T
  0.9149374620277848  0.4379555942933632  0.4523362658825887   T   T   T
  0.9158560566932582  0.0626762399592107  0.4542630480888279   T   T   T
  0.9163772845252987  0.6883561654864827  0.4554666353052784   T   T   T
  0.9180164737691430  0.9375971387654739  0.4532686599434479   T   T   T
  0.9174653699539093  0.4375000002676046  0.2838671249793236   F   F   F
  0.9174653699539093  0.5625000001605613  0.2838671249793236   F   F   F
  0.9174653699539093  0.0625000001605613  0.2838671249793236   F   F   F
  0.9174653699539093  0.6875000000535181  0.2838671249793236   F   F   F
  0.9174653699539093  0.8124999999464819  0.2838671249793236   F   F   F
  0.9174653699539093  0.9375000002676046  0.2838671249793236   F   F   F
  0.9174653699539093  0.1875000000535181  0.2838671249793236   F   F   F
  0.9174653699539093  0.3124999999464819  0.2838671249793236   F   F   F
  0.9182487202167897  0.8125103480019026  0.4537553893050070   T   T   T
  0.9991368920733430  0.6250030378475635  0.3700396526865437   T   T   T
  0.9991389768531361  0.5005184059836401  0.3695176220044565   T   T   T
  0.9993505815101981  0.3749923051299333  0.3694609719864000   T   T   T
  0.9993856309828146  0.2498966435833387  0.3699780963192540   T   T   T
  0.9993630892821913  0.1252024783912263  0.3699021769873448   T   T   T
  0.0000936736619345  0.0001281484161400  0.3696076679144141   T   T   T
  0.0003839996855618  0.7500845111217356  0.3698164032585155   T   T   T
  0.1657105641648826  0.4375000002676046  0.2025710526275901   F   F   F
  0.1657105641648826  0.5625000001605613  0.2025710526275901   F   F   F