Ru Ta  N  Cu                            
   1.00000000000000     
    18.1096308199999996    0.0000000000000000    0.0000000000000000
     0.0000000000000000   23.3551997799999995    0.0000000000000000
     0.0000000000000000    0.0000000000000000   32.4818170799999990
   Ru   Ta   N    Cu
   128   240   240     3
Selective dynamics
Direct
  0.0527975518649740  0.0010417954068128  0.4470127870792580   T   T   T
  0.2786075450925225  0.5007754929388215  0.4397896954517539   T   T   T
  0.4070141152530414  0.0651272715837842  0.4355143836662335   T   T   T
  0.0303956036655191  0.2594457432467835  0.4472397238861238   T   T   T
  0.2783036464013504  0.2556156375033332  0.4396285745927992   T   T   T
  0.4294667856164917  0.3110719408766001  0.4328139982179662   T   T   T
  0.0573607076953937  0.1171820096571599  0.4485042401719500   T   T   T
  0.2699261474585937  0.1396892890325350  0.4389518668749206   T   T   T
  0.4136505123854580  0.1855634624825691  0.4342610818797245   T   T   T
  0.0316354179793960  0.3762612170274464  0.4489191340142972   T   T   T
  0.2818689945463886  0.3782571766115101  0.4396094554998061   T   T   T
  0.4365638687725092  0.4389123421907507  0.4398982945690862   T   T   T
  0.1543345075140074  0.4365085820336398  0.4494722866988438   T   T   T
  0.1553077566213416  0.3192816988933087  0.4496022140463343   T   T   T
  0.1514534733045788  0.2040586004253572  0.4468920266575515   T   T   T
  0.1793378184883394  0.0595959304908182  0.4585246773684833   T   T   T
  0.0659222522345053  0.4370932528187519  0.5097529949266117   T   T   T
  0.3310772163492179  0.4382215404713832  0.5007143275169292   T   T   T
  0.4365672181084526  0.0085088387805545  0.5018610030760291   T   T   T
  0.0650059902994276  0.1929265446137463  0.5063740449253931   T   T   T
  0.3236963717187424  0.1909330222398611  0.4997015147780922   T   T   T
  0.4493190779400308  0.2518050775073929  0.5000365525522625   T   T   T
  0.0812126652345289  0.0512334894359687  0.5125077279709941   T   T   T
  0.3094013337344770  0.0669959217675452  0.4948872949313305   T   T   T
  0.4397149467756971  0.1190115871510992  0.5021055329959868   T   T   T
  0.0627916190191025  0.3139249120928773  0.5098233858452782   T   T   T
  0.3285210613414768  0.3178778086655846  0.4988437482481254   T   T   T
  0.4555908053334493  0.3604232110235071  0.5027720689729797   T   T   T
  0.2100819019891353  0.3792674871589446  0.5065234811957328   T   T   T
  0.2050270476846880  0.2587316220609977  0.5066863121627199   T   T   T
  0.1959774824610351  0.1442996806952214  0.5065573895876452   T   T   T
  0.2066658390674303  0.4950551047069120  0.5064439483720444   T   T   T
  0.0301285502790304  0.4939244319815344  0.4483112550676286   T   T   T
  0.2787189829021788  0.9864180573504649  0.4406031251167181   T   T   T
  0.4081813366731578  0.5712490264878436  0.4350039089212945   T   T   T
  0.0437070976793642  0.7458548272016176  0.4488726442202905   T   T   T
  0.2805008015972660  0.7483281190924557  0.4349779335237812   T   T   T
  0.4255196026646451  0.8125685846117522  0.4314803750622521   T   T   T
  0.0479791546256157  0.6312498178190701  0.4483782536168052   T   T   T
  0.2651515083903866  0.6215806251445991  0.4389371775929097   T   T   T
  0.4220315662920205  0.6917388123679223  0.4325062885352556   T   T   T
  0.0400658823551874  0.8720612408299648  0.4496073214831419   T   T   T
  0.2809799103036749  0.8692280716682381  0.4404790049058904   T   T   T
  0.4187690303649416  0.9358691621349052  0.4327431064584174   T   T   T
  0.1598942955107048  0.9272866822411568  0.4507232486167416   T   T   T
  0.1606885192335673  0.8083642114709030  0.4540788997279170   T   T   T
  0.1684292640264308  0.6950967192760750  0.4609788805578331   T   T   T
  0.1511209922655967  0.5520360683849715  0.4483923418527995   T   T   T
  0.0710576330777273  0.9373035132537458  0.5090679217676571   T   T   T
  0.3331826070173239  0.9298922660206814  0.5004303357676465   T   T   T
  0.4449616736724548  0.5219640856242325  0.5033902778899934   T   T   T
  0.0645755478800323  0.6876307678933929  0.5129703001771705   T   T   T
  0.3171081139214538  0.6876634635027468  0.4962544715154093   T   T   T
  0.4456005275238240  0.7530369721233114  0.4996324844896096   T   T   T
  0.0617567016454901  0.5612318567389960  0.5078647078549130   T   T   T
  0.3193950024283252  0.5636413802155048  0.4991629350602748   T   T   T
  0.4410386505258183  0.6326430564704487  0.4995918598186463   T   T   T
  0.0652103012746025  0.8062795980927228  0.5110671244653897   T   T   T
  0.3212740725926452  0.8012826286425460  0.4992972349436673   T   T   T
  0.4465455043203643  0.8663412149828363  0.4994142611548948   T   T   T
  0.2119940900138091  0.8717367480653764  0.5091884557508379   T   T   T
  0.1953268957285803  0.7613452712750818  0.5210912529379391   T   T   T
  0.1931435952852014  0.6122759406861085  0.5092056138773060   T   T   T
  0.2068114370084637  0.9822399508612698  0.5112562266252131   T   T   T
  0.5331164604560588  0.0019997433556569  0.4474221957923564   T   T   T
  0.7773372466453733  0.5050543094555081  0.4403866995106698   T   T   T
  0.9298250474932184  0.0643269620213926  0.4330890249342197   T   T   T
  0.5476765575468854  0.2454143715479311  0.4463453046394452   T   T   T
  0.7850394271930577  0.2336475605187142  0.4399976205840427   T   T   T
  0.9036409875788449  0.3171311320232774  0.4354015003877231   T   T   T
  0.5366059488982974  0.1210346090520205  0.4469655410762033   T   T   T
  0.7823089012141670  0.1195570729367342  0.4398075598594718   T   T   T
  0.9253600883968719  0.1835479003790607  0.4338245608592122   T   T   T
  0.5628531924957895  0.3661850940867873  0.4482399796996331   T   T   T
  0.7609805991677653  0.3885861723426950  0.4376337481966435   T   T   T
  0.9026339030853348  0.4342730134075563  0.4348509722087599   T   T   T
  0.6500443062390511  0.4602053700137086  0.4461564261545384   T   T   T
  0.6759790492019910  0.2986167401859823  0.4543349989471966   T   T   T
  0.6612731085929849  0.1781416720639725  0.4500920758401208   T   T   T
  0.6570879757123418  0.0589227213653147  0.4487413208895514   T   T   T
  0.5489523419354979  0.4476610177749980  0.4983545810745673   T   T   T
  0.8143853106299870  0.4326126253923063  0.5001075128234976   T   T   T
  0.9532147687933886  0.0041528944162296  0.5005732184926085   T   T   T
  0.5724038147382933  0.1836643574748245  0.5083585352783164   T   T   T
  0.8360730712576990  0.1730051347210080  0.5013971869651968   T   T   T
  0.9323063293407403  0.2590216962158826  0.5007456846004895   T   T   T
  0.5672328173296133  0.0599243739808757  0.5088647069664919   T   T   T
  0.8287744663980018  0.0561973772319122  0.4987947765245684   T   T   T
  0.9558308342213516  0.1145835480560245  0.5013318877159757   T   T   T
  0.5826254846269519  0.2940209356066314  0.5120820450099370   T   T   T
  0.8028779919034619  0.3181176681576474  0.4939452853894939   T   T   T
  0.9329856645461303  0.3700766752311023  0.5026605912411707   T   T   T
  0.6773904206295270  0.3859553618117577  0.5013819879770636   T   T   T
  0.7105534968974181  0.2280727305262171  0.5111220311214952   T   T   T
  0.7104223537764287  0.1168273868166297  0.5068970988267995   T   T   T
  0.7013730291028752  0.4993369379600315  0.5130207393247135   T   T   T
  0.5402131793996728  0.5243399201655095  0.4450329818650147   T   T   T
  0.7800068209775773  0.9974633751377905  0.4386797214615589   T   T   T
  0.9238086615614274  0.5656160521399773  0.4300863099885310   T   T   T
  0.5518931781168452  0.7527956910123627  0.4486089586753679   T   T   T
  0.7813225440332651  0.7497615855206416  0.4331927819061774   T   T   T
  0.9213614214067811  0.8109621235653804  0.4320431049292153   T   T   T
  0.5509396412304590  0.6354861393985890  0.4487167195645468   T   T   T
  0.7809493353599140  0.6312010373503496  0.4335393496933514   T   T   T
  0.9227139134795393  0.6861390804454954  0.4314845293043930   T   T   T
  0.5514494682736525  0.8690107411292223  0.4483364834257927   T   T   T
  0.7716646040445428  0.8791966032026012  0.4387851586333726   T   T   T
  0.9186535642919019  0.9344884476579699  0.4331051225835680   T   T   T
  0.6556579116962044  0.9444048811280573  0.4486917809304595   T   T   T
  0.6742325570134076  0.8065337883583570  0.4618758270340706   T   T   T
  0.6761103889236000  0.6915615411753646  0.4639518374508110   T   T   T
  0.6702412743081969  0.5744589526026486  0.4606529441331590   T   T   T
  0.5672307325624127  0.9367681553063947  0.5076931841828026   T   T   T
  0.8294506292066119  0.9377512824966566  0.4989409467555347   T   T   T
  0.9283667968031125  0.5084797881718138  0.4987595767881863   T   T   T
  0.5667195181734584  0.6936439344542130  0.5137146884298518   T   T   T
  0.8131459296902910  0.6904737572521216  0.4978464470637628   T   T   T
  0.9378226331571980  0.7531550212012883  0.4997334981989399   T   T   T
  0.5687832660102564  0.5786305254758664  0.5138193793902927   T   T   T
  0.8085481313220581  0.5769502634334551  0.4980259520072299   T   T   T
  0.9392752911107000  0.6203977682675401  0.4987541287601768   T   T   T
  0.5705358641168709  0.8109041779068541  0.5136389099436157   T   T   T
  0.8110737075577805  0.8085556694163867  0.4965408677638306   T   T   T
  0.9392515395601682  0.8640401728081685  0.5007467033911034   T   T   T
  0.7015286811684973  0.8878972731414627  0.5101302571391276   T   T   T
  0.6970044781973241  0.7493760556799905  0.5280554702367236   T   T   T
  0.6942695548175026  0.6324488244396348  0.5279359463525787   T   T   T
  0.7085747284078294 -0.0000345126146677  0.5065581957385104   T   T   T
  0.0002112439569970  0.0001379294448540  0.0373463921698374   F   F   F
  0.3342257926207992  0.0625994154237475  0.0423987318545187   F   F   F
  0.1660626269271432  0.0626581163633873  0.0424061668450690   F   F   F
  0.2502202084754828  0.1252178855354416  0.1130358333669221   F   F   F
  0.0828588434925734  0.0627073156657261  0.1186643004524512   F   F   F
  0.4176999472490408  0.0627059576615423  0.1186271515872050   F   F   F
  0.0011296565778813  0.1251860703545311  0.1992003851703137   T   T   T
  0.3328386241832468  0.0628219303878934  0.1977466251776388   T   T   T
  0.1682207685266298  0.0627842211516648  0.1977001385373271   T   T   T
  0.2496821885828291  0.1253639933446275  0.2787869599683654   T   T   T
  0.0848636723545588  0.0626883344752303  0.2790182571968466   T   T   T
  0.4172414770971898  0.0628373620456046  0.2782271900172594   T   T   T
  0.0029370029137938  0.1253295757542346  0.3593654924244603   T   T   T
  0.3333062858031177  0.0626512777210527  0.3582970793917940   T   T   T
  0.1664923347188036  0.0625339503003676  0.3621489962469777   T   T   T
  0.0001993579241457  0.1251124241418680  0.0373673238785415   F   F   F
  0.3342248374093941  0.1876083518869578  0.0424180467130881   F   F   F
  0.1660568042752573  0.1876606967942038  0.0424146876443743   F   F   F
  0.2502332970886698  0.2502158349488468  0.1130222857832806   F   F   F
  0.0828712378028129  0.1877169521294775  0.1186661494224168   F   F   F
  0.4176644359050954  0.1877065482458207  0.1186607550294028   F   F   F
  0.0010647938832776  0.2502383459892205  0.1991894615494912   T   T   T
  0.3328710187382102  0.1878561972592635  0.1977408126300604   T   T   T
  0.1682518126672906  0.1878387591672919  0.1977166348222338   T   T   T
  0.2498266490023178  0.2504840476340745  0.2789906968124414   T   T   T
  0.0843940735069144  0.1877266622369746  0.2789498713041488   T   T   T
  0.4173037436337957  0.1878579601720333  0.2782364200854885   T   T   T
  0.0024387033914843  0.2497886163410431  0.3602297155531470   T   T   T
  0.3337991930815993  0.1879971126257693  0.3578921915583575   T   T   T
  0.1667943840205807  0.1876517200239775  0.3603742790763504   T   T   T
  0.0002122078768210  0.2501392066830732  0.0373456541597363   F   F   F
  0.3342232035055162  0.3125992309382539  0.0423967923009556   F   F   F
  0.1660586660861370  0.3126582257413517  0.0424062846115874   F   F   F
  0.2502173161139041  0.3752178897059935  0.1130360339591618   F   F   F
  0.0828568376004242  0.3127060748111887  0.1186645141734175   F   F   F
  0.4176984722473520  0.3127078846600213  0.1186298408889357   F   F   F
  0.0010751714396470  0.3751738865026540  0.1992005790956794   T   T   T
  0.3328524175705140  0.3128146588826374  0.1978428370263057   T   T   T
  0.1681856891432522  0.3127848872577161  0.1978719506158668   T   T   T
  0.2499791837778567  0.3753015962263994  0.2793286796439268   T   T   T
  0.0844003221254384  0.3126871847259925  0.2791483077723124   T   T   T
  0.4171993647885478  0.3129293187639744  0.2788180946765060   T   T   T
  0.0039094450270052  0.3750779434704420  0.3601436292229507   T   T   T
  0.3343831838998029  0.3132397877628199  0.3598633942662661   T   T   T
  0.1665911636608333  0.3128824916822741  0.3611503893662605   T   T   T
  0.0001993469486266  0.3751125453592721  0.0373668329409540   F   F   F
  0.3342265491584655  0.4376091382735581  0.0424193945147948   F   F   F
  0.1660559599480962  0.4376604044393986  0.0424156771225839   F   F   F
  0.2502327017382058  0.0002164962773534  0.1130220722767348   F   F   F
  0.0828707196508915  0.4377156099338606  0.1186668391713255   F   F   F
  0.4176643738564039  0.4377089816271393  0.1186614737223408   F   F   F
  0.0011789860604828  0.0002648417799992  0.1991986911633790   T   T   T
  0.3328638122030937  0.4377207434175036  0.1978768050281404   T   T   T
  0.1681470105635429  0.4377129629286095  0.1978687494735829   T   T   T
  0.2496392582268676  0.0002669635052845  0.2788233635189142   T   T   T
  0.0842216143596004  0.4376969734197684  0.2791218413544848   T   T   T
  0.4169855975106803  0.4378132793356737  0.2789219506999743   T   T   T
  0.0012281232215164  0.9997391096201992  0.3596852602973943   T   T   T
  0.3336249954886069  0.4384341946949445  0.3599360202251320   T   T   T
  0.1661029363103890  0.4380451671938261  0.3609192464726603   T   T   T
  0.0002112439569970  0.5001379294448540  0.0373463921698374   F   F   F
  0.3342257926207992  0.5625994154237475  0.0423987318545187   F   F   F
  0.1660626269271432  0.5626581163633873  0.0424061668450690   F   F   F
  0.2502202084754828  0.6252178855354416  0.1130358333669221   F   F   F
  0.0828588434925734  0.5627073156657261  0.1186643004524512   F   F   F
  0.4176999472490408  0.5627059576615423  0.1186271515872050   F   F   F
  0.0010927581656263  0.6251409856811512  0.1991040741459799   T   T   T
  0.3327713562107396  0.5626589095680755  0.1977540615203365   T   T   T
  0.1680625262629129  0.5626668150867459  0.1977633382181186   T   T   T
  0.2489834719032701  0.6252091573584405  0.2787334173583199   T   T   T
  0.0840692589012967  0.5626793308954273  0.2789390978375019   T   T   T
  0.4169259963338549  0.5626192680866201  0.2785435402658741   T   T   T
  0.0018247959465026  0.6252554086804962  0.3591287938343120   T   T   T
  0.3333098947949267  0.5631531509283202  0.3586070832161110   T   T   T
  0.1655422212147372  0.5631010985696361  0.3606459958297403   T   T   T
  0.0001993579241457  0.6251124241418680  0.0373673238785415   F   F   F
  0.3342248374093941  0.6876083518869507  0.0424180467130881   F   F   F
  0.1660568042752573  0.6876606967941967  0.0424146876443743   F   F   F
  0.2502332970886698  0.7502158349488468  0.1130222857832806   F   F   F
  0.0828712378028129  0.6877169521294704  0.1186661494224168   F   F   F
  0.4176644359050954  0.6877065482458136  0.1186607550294028   F   F   F
  0.0011540048439376  0.7502770035757903  0.1990951291292951   T   T   T
  0.3326913401430208  0.6876925572366753  0.1976756956532810   T   T   T
  0.1680044818074920  0.6877227763542637  0.1977282889036279   T   T   T
  0.2487295345591632  0.7503473906979311  0.2785909138732824   T   T   T
  0.0840339619594709  0.6877990021250582  0.2789934351082160   T   T   T
  0.4170329321604787  0.6876521062660119  0.2780003876187055   T   T   T
  0.0013411116271764  0.7501696782638033  0.3596694364283711   T   T   T
  0.3322094185404439  0.6882729214195812  0.3575101160941173   T   T   T
  0.1643273180066302  0.6877876208864406  0.3619863388242366   T   T   T
  0.0002122078768210  0.7501392066830732  0.0373456541597363   F   F   F
  0.3342232035055162  0.8125992309382539  0.0423967923009556   F   F   F
  0.1660586660861370  0.8126582257413517  0.0424062846115874   F   F   F
  0.2502173161139041  0.8752178897059935  0.1130360339591618   F   F   F
  0.0828568376004242  0.8127060748111887  0.1186645141734175   F   F   F
  0.4176984722473520  0.8127078846600213  0.1186298408889357   F   F   F
  0.0011781055886366  0.8752818195849483  0.1991688591125946   T   T   T
  0.3326142331468606  0.8127798172224378  0.1976229200820208   T   T   T
  0.1680354260386115  0.8127721663177561  0.1976983422436657   T   T   T
  0.2492659331914172  0.8752806792597350  0.2787409264029449   T   T   T
  0.0840796877816343  0.8127904739731643  0.2790582476907153   T   T   T
  0.4171293309871118  0.8128077219544433  0.2778899982059723   T   T   T
  0.0031789016316219  0.8750534208070314  0.3599661792236427   T   T   T
  0.3326527374296833  0.8130861757608859  0.3574552652600900   T   T   T
  0.1651442875717144  0.8128179148964926  0.3611754209473370   T   T   T
  0.0001993469486266  0.8751125453592721  0.0373668329409540   F   F   F
  0.3342265491584655  0.9376091382735510  0.0424193945147948   F   F   F
  0.1660559599480962  0.9376604044393915  0.0424156771225839   F   F   F
  0.2502327017382058  0.5002164962773534  0.1130220722767348   F   F   F
  0.0828707196508915  0.9377156099338535  0.1186668391713255   F   F   F
  0.4176643738564039  0.9377089816271322  0.1186614737223408   F   F   F
  0.0010296861195963  0.5001161106990648  0.1991575872902818   T   T   T
  0.3327139897526049  0.9378127043453471  0.1976792665973592   T   T   T
  0.1680960190800145  0.9377615122303360  0.1977104861086170   T   T   T
  0.2496456129218459  0.5003571494466795  0.2791029225479830   T   T   T
  0.0846134822936831  0.9378177369960046  0.2791038776660195   T   T   T
  0.4172653173770496  0.9379079039907325  0.2781660540442469   T   T   T
  0.0023718964685336  0.5004195128326794  0.3603456686154807   T   T   T
  0.3339110947202899  0.9378414439306333  0.3582877097377077   T   T   T
  0.1666510897861382  0.9376802787442826  0.3608841865493455   T   T   T
  0.5002112439569970  0.0001379294448540  0.0373463921698374   F   F   F
  0.8342257926207992  0.0625994154237475  0.0423987318545187   F   F   F
  0.6660626269271432  0.0626581163633873  0.0424061668450690   F   F   F
  0.7502202084754828  0.1252178855354416  0.1130358333669221   F   F   F
  0.5828588434925734  0.0627073156657261  0.1186643004524512   F   F   F
  0.9176999472490408  0.0627059576615423  0.1186271515872050   F   F   F
  0.5009420255910783  0.1252869407766745  0.1991610430092125   T   T   T
  0.8330455578435307  0.0627706994771546  0.1977506992424690   T   T   T
  0.6682102657743975  0.0627679085013812  0.1977103854707476   T   T   T
  0.7500731441233085  0.1250880416060901  0.2787901738772371   T   T   T
  0.5842532052718846  0.0627147783067553  0.2787871756988330   T   T   T
  0.9176826813170718  0.0626238266916509  0.2784079146651824   T   T   T
  0.5038108364767018  0.1250481962001744  0.3594791995009110   T   T   T
  0.8340064307105800  0.0623476120068313  0.3587436476179764   T   T   T
  0.6668324045514950  0.0623459116695726  0.3604506347466940   T   T   T
  0.5001993579241457  0.1251124241418680  0.0373673238785415   F   F   F
  0.8342248374093941  0.1876083518869578  0.0424180467130881   F   F   F
  0.6660568042752573  0.1876606967942038  0.0424146876443743   F   F   F
  0.7502332970886698  0.2502158349488468  0.1130222857832806   F   F   F
  0.5828712378028129  0.1877169521294775  0.1186661494224168   F   F   F
  0.9176644359050954  0.1877065482458207  0.1186607550294028   F   F   F
  0.5008170481950904  0.2503311163924265  0.1992020771735687   T   T   T
  0.8330298860518596  0.1877153517825026  0.1977826705454705   T   T   T
  0.6682552178451034  0.1877276012598125  0.1976565844166649   T   T   T
  0.7499672072286869  0.2500085804910580  0.2788071679502826   T   T   T
  0.5844387820055251  0.1876876218074813  0.2787746690149274   T   T   T
  0.9175416280722710  0.1876683150834219  0.2784063324040331   T   T   T
  0.5018388387014669  0.2498424642727654  0.3592968236274575   T   T   T
  0.8343070465399595  0.1876436432669326  0.3585176249707027   T   T   T
  0.6670990766102894  0.1872498019173081  0.3604369426430626   T   T   T
  0.5002122078768210  0.2501392066830732  0.0373456541597363   F   F   F
  0.8342232035055162  0.3125992309382539  0.0423967923009556   F   F   F
  0.6660586660861370  0.3126582257413517  0.0424062846115874   F   F   F
  0.7502173161139041  0.3752178897059935  0.1130360339591618   F   F   F
  0.5828568376004242  0.3127060748111887  0.1186645141734175   F   F   F
  0.9176984722473520  0.3127078846600213  0.1186298408889357   F   F   F
  0.5005545042399996  0.3752315159976587  0.1992756328063124   T   T   T
  0.8329145375410986  0.3126970148454943  0.1977886033223163   T   T   T
  0.6681211022124455  0.3127100807041297  0.1976511183150168   T   T   T
  0.7493834198442969  0.3751444023761116  0.2786322559541747   T   T   T
  0.5841286049674318  0.3126683457463797  0.2787864382192001   T   T   T
  0.9173962986596422  0.3126559481804083  0.2783728124566771   T   T   T
  0.4998704879119643  0.3752698408986093  0.3604053691890718   T   T   T
  0.8330072248694563  0.3122502430678154  0.3582745148866383   T   T   T
  0.6660608439180530  0.3119874605646299  0.3610263613494791   T   T   T
  0.5001993469486266  0.3751125453592721  0.0373668329409540   F   F   F
  0.8342265491584655  0.4376091382735581  0.0424193945147948   F   F   F
  0.6660559599480962  0.4376604044393986  0.0424156771225839   F   F   F
  0.7502327017382058  0.0002164962773534  0.1130220722767348   F   F   F
  0.5828707196508915  0.4377156099338606  0.1186668391713255   F   F   F
  0.9176643738564039  0.4377089816271393  0.1186614737223408   F   F   F
  0.5008597762281102  0.0002684120119079  0.1991327768963496   T   T   T
  0.8327372919005034  0.4376867664165991  0.1976948644530738   T   T   T
  0.6678705802725414  0.4377120879324584  0.1977419557879662   T   T   T
  0.7499102961462639  0.0001210315596102  0.2787125359697946   T   T   T
  0.5836579983295382  0.4376694308164778  0.2790762001590866   T   T   T
  0.9175165469090871  0.4375249402616352  0.2781732400836980   T   T   T
  0.5032942965226392  0.0002537488313599  0.3596973256086191   T   T   T
  0.8325536653839956  0.4378532637390729  0.3573866648862851   T   T   T
  0.6653881057038434  0.4371167558074767  0.3601790638250505   T   T   T
  0.5002112439569970  0.5001379294448540  0.0373463921698374   F   F   F
  0.8342257926207992  0.5625994154237475  0.0423987318545187   F   F   F
  0.6660626269271432  0.5626581163633873  0.0424061668450690   F   F   F
  0.7502202084754828  0.6252178855354416  0.1130358333669221   F   F   F
  0.5828588434925734  0.5627073156657261  0.1186643004524512   F   F   F
  0.9176999472490408  0.5627059576615423  0.1186271515872050   F   F   F
  0.5006038960023743  0.6250830186319529  0.1991985521446228   T   T   T
  0.8326588749824761  0.5626639370757761  0.1976305504876877   T   T   T
  0.6676077005211746  0.5626406146668896  0.1977809391513665   T   T   T
  0.7485092954665026  0.6250872036407809  0.2784092728183147   T   T   T
  0.5835086983650942  0.5625414856285290  0.2792126153176455   T   T   T
  0.9175502095328293  0.5624925794967937  0.2780111707121285   T   T   T
  0.5016438816727180  0.6250878598427575  0.3597240041397287   T   T   T
  0.8328306422625718  0.5626066237470136  0.3575647231710622   T   T   T
  0.6654601160418508  0.5629067671728302  0.3614071511922274   T   T   T
  0.5001993579241457  0.6251124241418680  0.0373673238785415   F   F   F
  0.8342248374093941  0.6876083518869507  0.0424180467130881   F   F   F
  0.6660568042752573  0.6876606967941967  0.0424146876443743   F   F   F
  0.7502332970886698  0.7502158349488468  0.1130222857832806   F   F   F
  0.5828712378028129  0.6877169521294704  0.1186661494224168   F   F   F
  0.9176644359050954  0.6877065482458136  0.1186607550294028   F   F   F
  0.5007069167101323  0.7502457270840971  0.1991077207891926   T   T   T
  0.8326933086977226  0.6876970836830645  0.1975632500731521   T   T   T
  0.6677539648481821  0.6876688788663602  0.1976684026025792   T   T   T
  0.7486846079337269  0.7503363969890966  0.2783123838023138   T   T   T
  0.5834742601379332  0.6876747221904054  0.2787665920931272   T   T   T
  0.9175450840467180  0.6877228886893341  0.2776026227159554   T   T   T
  0.5016526364938642  0.7506227799622042  0.3590663103333994   T   T   T
  0.8318617226725803  0.6877657874801945  0.3558458279110598   T   T   T
  0.6642201744301210  0.6881144202876375  0.3607822034596434   T   T   T
  0.5002122078768210  0.7501392066830732  0.0373456541597363   F   F   F
  0.8342232035055162  0.8125992309382539  0.0423967923009556   F   F   F
  0.6660586660861370  0.8126582257413517  0.0424062846115874   F   F   F
  0.7502173161139041  0.8752178897059935  0.1130360339591618   F   F   F
  0.5828568376004242  0.8127060748111887  0.1186645141734175   F   F   F
  0.9176984722473520  0.8127078846600213  0.1186298408889357   F   F   F
  0.5008283800590850  0.8752866610882345  0.1991208832608502   T   T   T
  0.8328241814827808  0.8127976421697329  0.1976000404742219   T   T   T
  0.6679618503080831  0.8127486267960322  0.1976230323024741   T   T   T
  0.7492909333278664  0.8752972121560041  0.2785326850854618   T   T   T
  0.5838197769956683  0.8127349913085351  0.2786277498753619   T   T   T
  0.9177308243483495  0.8128983480608694  0.2779147897555589   T   T   T
  0.5025300846466731  0.8758130518897026  0.3591028802130004   T   T   T
  0.8328690779890442  0.8127131922663092  0.3571602497337670   T   T   T
  0.6649016179283993  0.8130098484917695  0.3612197656430088   T   T   T
  0.5001993469486266  0.8751125453592721  0.0373668329409540   F   F   F
  0.8342265491584655  0.9376091382735510  0.0424193945147948   F   F   F
  0.6660559599480962  0.9376604044393915  0.0424156771225839   F   F   F
  0.7502327017382058  0.5002164962773534  0.1130220722767348   F   F   F
  0.5828707196508915  0.9377156099338535  0.1186668391713255   F   F   F
  0.9176643738564039  0.9377089816271322  0.1186614737223408   F   F   F
  0.5005640903467951  0.5001451769606398  0.1992795292542637   T   T   T
  0.8329962706309827  0.9377782003356340  0.1976835139333917   T   T   T
  0.6681755664778644  0.9377928060839733  0.1976662792631156   T   T   T
  0.7489186012981931  0.5000808773274550  0.2786510388698048   T   T   T
  0.5840198080066592  0.9377832295689371  0.2786683999492530   T   T   T
  0.9177173253420650  0.9377758102107211  0.2782865334734213   T   T   T
  0.5002392999830935  0.4995377662995018  0.3612199066057475   T   T   T
  0.8340599011560885  0.9375432503906663  0.3581335646634916   T   T   T
  0.6665101316957908  0.9375388004403751  0.3601425168750527   T   T   T
  0.4059663601692378  0.0001462046730154  0.0700885167279779   F   F   F
  0.2501335306342440  0.0001313415364734  0.0393543396202674   F   F   F
  0.0944334762619548  0.0001738881651363  0.0701382961740649   F   F   F
  0.1549947328934422  0.1252546000618224  0.1485264565477067   F   F   F
  0.0003044512358912  0.1252329358346600  0.1366467142038701   F   F   F
  0.3454752489896649  0.1252525403775380  0.1484231789215542   F   F   F
  0.4015828816784630  0.1253551512066425  0.2293464506111614   T   T   T
  0.2503964386540413  0.1253516058649352  0.2154214723099505   T   T   T
  0.1001993711686794  0.1252499962092490  0.2298736672433931   T   T   T
  0.1521042643075942  0.1249533867099717  0.3110500091304759   T   T   T
  0.0011775358240554  0.1251087223047178  0.2954117271626897   T   T   T
  0.3484089008366906  0.1252473542118165  0.3090923605222626   T   T   T
  0.4037454104034972  0.1248831932046361  0.3858231141507182   T   T   T
  0.2524182764370246  0.1257858774925640  0.3763929435655470   T   T   T
  0.1000913942236385  0.1254396322757283  0.3896629833792837   T   T   T
  0.4059504510021199  0.1251528418496832  0.0701137697057277   F   F   F
  0.2501484584581348  0.1251294756807368  0.0393952583647277   F   F   F
  0.0944439778587522  0.1251741239827453  0.0701534912843229   F   F   F
  0.1549877250862224  0.2502614546838657  0.1485179043880294   F   F   F
  0.0002974674814880  0.2502100279361912  0.1366324893501272   F   F   F
  0.3454803331882346  0.2503006024972620  0.1484139149937889   F   F   F
  0.4014928855661700  0.2504363791251362  0.2295014752586624   T   T   T
  0.2504483358081806  0.2503625079094761  0.2155563342528126   T   T   T
  0.1001034927251069  0.2503315232368649  0.2299460343359183   T   T   T
  0.1519095602835292  0.2503410101394500  0.3111072573371318   T   T   T
  0.0008985280639634  0.2502866383986107  0.2959249603103862   T   T   T
  0.3486138526649897  0.2508252214567432  0.3094777995972551   T   T   T
  0.4028397244133312  0.2489440366777594  0.3873390279903279   T   T   T
  0.2524758903773270  0.2510984818506831  0.3765016353599267   T   T   T
  0.1013145690938876  0.2493148322721156  0.3920355828227132   T   T   T
  0.4059628358367533  0.2501443164155361  0.0700852243531500   F   F   F
  0.2501309939231433  0.2501318371526651  0.0393519425499136   F   F   F
  0.0944333317481849  0.2501740935465691  0.0701386596889861   F   F   F
  0.1549942609652177  0.3752545226085218  0.1485264414225469   F   F   F
  0.0003019335461047  0.3752315664304433  0.1366474736751755   F   F   F
  0.3454762333887373  0.3752493953370220  0.1484229723695165   F   F   F
  0.4013459505031108  0.3752923564967317  0.2297705152527068   T   T   T
  0.2504579002748973  0.3753027858018222  0.2157595693604341   T   T   T