Ta  N Co                                
   1.00000000000000     
    18.1096308199999996    0.0000000000000000    0.0000000000000000
     0.0000000000000000   23.3551997799999995    0.0000000000000000
     0.0000000000000000    0.0000000000000000   30.4818171199999988
   Ta   N    Co
   192   240    48
Direct
  0.0000000000000000 -0.0000000000000000  0.1977201947221827
  0.3343509456764612  0.0625000001605613  0.2028753449708595
  0.1656490250573422  0.0625000001605613  0.2028753449708595
  0.2499999997239044  0.1249999998929567  0.2784084848717234
  0.0827730517349192  0.0625000001605613  0.2843212676035002
  0.4172269482650808  0.0625000001605613  0.2843212676035002
  0.0000000000000000  0.1249999998929567  0.3700464873652808
  0.3329184505280882  0.0625000001605613  0.3688687056193808
  0.1670815202057224  0.0625000001605613  0.3688687056193808
  0.2499999997239044  0.1249999998929567  0.4557740082021483
  0.0845577503425929  0.0625000001605613  0.4558681339482995
  0.4154422496574071  0.0625000001605613  0.4558681339482995
  0.0000000000000000  0.1249999998929567  0.1977201947221827
  0.3343509456764612  0.1875000000535181  0.2028753449708595
  0.1656490250573422  0.1875000000535181  0.2028753449708595
  0.2499999997239044  0.2500000002140865  0.2784084848717234
  0.0827730517349192  0.1875000000535181  0.2843212676035002
  0.4172269482650808  0.1875000000535181  0.2843212676035002
  0.0000000000000000  0.2500000002140865  0.3700464873652808
  0.3329184505280882  0.1875000000535181  0.3688687056193808
  0.1670815202057224  0.1875000000535181  0.3688687056193808
  0.2499999997239044  0.2500000002140865  0.4557740082021483
  0.0845577503425929  0.1875000000535181  0.4558681339482995
  0.4154422496574071  0.1875000000535181  0.4558681339482995
  0.0000000000000000  0.2500000002140865  0.1977201947221827
  0.3343509456764612  0.3124999999464819  0.2028753449708595
  0.1656490250573422  0.3124999999464819  0.2028753449708595
  0.2499999997239044  0.3750000001070433  0.2784084848717234
  0.0827730517349192  0.3124999999464819  0.2843212676035002
  0.4172269482650808  0.3124999999464819  0.2843212676035002
  0.0000000000000000  0.3750000001070433  0.3700464873652808
  0.3329184505280882  0.3124999999464819  0.3688687056193808
  0.1670815202057224  0.3124999999464819  0.3688687056193808
  0.2499999997239044  0.3750000001070433  0.4557740082021483
  0.0845577503425929  0.3124999999464819  0.4558681339482995
  0.4154422496574071  0.3124999999464819  0.4558681339482995
  0.0000000000000000  0.3750000001070433  0.1977201947221827
  0.3343509456764612  0.4375000002676046  0.2028753449708595
  0.1656490250573422  0.4375000002676046  0.2028753449708595
  0.2499999997239044 -0.0000000000000000  0.2784084848717234
  0.0827730517349192  0.4375000002676046  0.2843212676035002
  0.4172269482650808  0.4375000002676046  0.2843212676035002
  0.0000000000000000 -0.0000000000000000  0.3700464873652808
  0.3329184505280882  0.4375000002676046  0.3688687056193808
  0.1670815202057224  0.4375000002676046  0.3688687056193808
  0.2499999997239044  0.0000000000000000  0.4557740082021483
  0.0845577503425929  0.4375000002676046  0.4558681339482995
  0.4154422496574071  0.4375000002676046  0.4558681339482995
  0.0000000000000000  0.5000000000000000  0.1977201947221827
  0.3343509456764612  0.5625000001605613  0.2028753449708595
  0.1656490250573422  0.5625000001605613  0.2028753449708595
  0.2499999997239044  0.6249999998929567  0.2784084848717234
  0.0827730517349192  0.5625000001605613  0.2843212676035002
  0.4172269482650808  0.5625000001605613  0.2843212676035002
  0.0000000000000000  0.6249999998929567  0.3700464873652808
  0.3329184505280882  0.5625000001605613  0.3688687056193808
  0.1670815202057224  0.5625000001605613  0.3688687056193808
  0.2499999997239044  0.6249999998929567  0.4557740082021483
  0.0845577503425929  0.5625000001605613  0.4558681339482995
  0.4154422496574071  0.5625000001605613  0.4558681339482995
  0.0000000000000000  0.6249999998929567  0.1977201947221827
  0.3343509456764612  0.6875000000535181  0.2028753449708595
  0.1656490250573422  0.6875000000535181  0.2028753449708595
  0.2499999997239044  0.7500000002140865  0.2784084848717234
  0.0827730517349192  0.6875000000535181  0.2843212676035002
  0.4172269482650808  0.6875000000535181  0.2843212676035002
  0.0000000000000000  0.7500000002140865  0.3700464873652808
  0.3329184505280882  0.6875000000535181  0.3688687056193808
  0.1670815202057224  0.6875000000535181  0.3688687056193808
  0.2499999997239044  0.7500000002140865  0.4557740082021483
  0.0845577503425929  0.6875000000535181  0.4558681339482995
  0.4154422496574071  0.6875000000535181  0.4558681339482995
  0.0000000000000000  0.7500000002140865  0.1977201947221827
  0.3343509456764612  0.8124999999464819  0.2028753449708595
  0.1656490250573422  0.8124999999464819  0.2028753449708595
  0.2499999997239044  0.8750000001070433  0.2784084848717234
  0.0827730517349192  0.8124999999464819  0.2843212676035002
  0.4172269482650808  0.8124999999464819  0.2843212676035002
  0.0000000000000000  0.8750000001070433  0.3700464873652808
  0.3329184505280882  0.8124999999464819  0.3688687056193808
  0.1670815202057224  0.8124999999464819  0.3688687056193808
  0.2499999997239044  0.8750000001070433  0.4557740082021483
  0.0845577503425929  0.8124999999464819  0.4558681339482995
  0.4154422496574071  0.8124999999464819  0.4558681339482995
  0.0000000000000000  0.8750000001070433  0.1977201947221827
  0.3343509456764612  0.9375000002676046  0.2028753449708595
  0.1656490250573422  0.9375000002676046  0.2028753449708595
  0.2499999997239044  0.5000000000000000  0.2784084848717234
  0.0827730517349192  0.9375000002676046  0.2843212676035002
  0.4172269482650808  0.9375000002676046  0.2843212676035002
  0.0000000000000000  0.5000000000000000  0.3700464873652808
  0.3329184505280882  0.9375000002676046  0.3688687056193808
  0.1670815202057224  0.9375000002676046  0.3688687056193808
  0.2499999997239044  0.5000000000000000  0.4557740082021483
  0.0845577503425929  0.9375000002676046  0.4558681339482995
  0.4154422496574071  0.9375000002676046  0.4558681339482995
  0.5000000000000000 -0.0000000000000000  0.1977201947221827
  0.8343509451242700  0.0625000001605613  0.2028753449708595
  0.6656490250573422  0.0625000001605613  0.2028753449708595
  0.7499999997239044  0.1249999998929567  0.2784084848717234
  0.5827730517349192  0.0625000001605613  0.2843212676035002
  0.9172269482650808  0.0625000001605613  0.2843212676035002
  0.5000000000000000  0.1249999998929567  0.3700464873652808
  0.8329184499758969  0.0625000001605613  0.3688687056193808
  0.6670815202057224  0.0625000001605613  0.3688687056193808
  0.7499999997239044  0.1249999998929567  0.4557740082021483
  0.5845577503425929  0.0625000001605613  0.4558681339482995
  0.9154422496574071  0.0625000001605613  0.4558681339482995
  0.5000000000000000  0.1249999998929567  0.1977201947221827
  0.8343509451242700  0.1875000000535181  0.2028753449708595
  0.6656490250573422  0.1875000000535181  0.2028753449708595
  0.7499999997239044  0.2500000002140865  0.2784084848717234
  0.5827730517349192  0.1875000000535181  0.2843212676035002
  0.9172269482650808  0.1875000000535181  0.2843212676035002
  0.5000000000000000  0.2500000002140865  0.3700464873652808
  0.8329184499758969  0.1875000000535181  0.3688687056193808
  0.6670815202057224  0.1875000000535181  0.3688687056193808
  0.7499999997239044  0.2500000002140865  0.4557740082021483
  0.5845577503425929  0.1875000000535181  0.4558681339482995
  0.9154422496574071  0.1875000000535181  0.4558681339482995
  0.5000000000000000  0.2500000002140865  0.1977201947221827
  0.8343509451242700  0.3124999999464819  0.2028753449708595
  0.6656490250573422  0.3124999999464819  0.2028753449708595
  0.7499999997239044  0.3750000001070433  0.2784084848717234
  0.5827730517349192  0.3124999999464819  0.2843212676035002
  0.9172269482650808  0.3124999999464819  0.2843212676035002
  0.5000000000000000  0.3750000001070433  0.3700464873652808
  0.8329184499758969  0.3124999999464819  0.3688687056193808
  0.6670815202057224  0.3124999999464819  0.3688687056193808
  0.7499999997239044  0.3750000001070433  0.4557740082021483
  0.5845577503425929  0.3124999999464819  0.4558681339482995
  0.9154422496574071  0.3124999999464819  0.4558681339482995
  0.5000000000000000  0.3750000001070433  0.1977201947221827
  0.8343509451242700  0.4375000002676046  0.2028753449708595
  0.6656490250573422  0.4375000002676046  0.2028753449708595
  0.7499999997239044 -0.0000000000000000  0.2784084848717234
  0.5827730517349192  0.4375000002676046  0.2843212676035002
  0.9172269482650808  0.4375000002676046  0.2843212676035002
  0.5000000000000000  0.0000000000000000  0.3700464873652808
  0.8329184499758969  0.4375000002676046  0.3688687056193808
  0.6670815202057224  0.4375000002676046  0.3688687056193808
  0.7499999997239044 -0.0000000000000000  0.4557740082021483
  0.5845577503425929  0.4375000002676046  0.4558681339482995
  0.9154422496574071  0.4375000002676046  0.4558681339482995
  0.5000000000000000  0.5000000000000000  0.1977201947221827
  0.8343509451242700  0.5625000001605613  0.2028753449708595
  0.6656490250573422  0.5625000001605613  0.2028753449708595
  0.7499999997239044  0.6249999998929567  0.2784084848717234
  0.5827730517349192  0.5625000001605613  0.2843212676035002
  0.9172269482650808  0.5625000001605613  0.2843212676035002
  0.5000000000000000  0.6249999998929567  0.3700464873652808
  0.8329184499758969  0.5625000001605613  0.3688687056193808
  0.6670815202057224  0.5625000001605613  0.3688687056193808
  0.7499999997239044  0.6249999998929567  0.4557740082021483
  0.5845577503425929  0.5625000001605613  0.4558681339482995
  0.9154422496574071  0.5625000001605613  0.4558681339482995
  0.5000000000000000  0.6249999998929567  0.1977201947221827
  0.8343509451242700  0.6875000000535181  0.2028753449708595
  0.6656490250573422  0.6875000000535181  0.2028753449708595
  0.7499999997239044  0.7500000002140865  0.2784084848717234
  0.5827730517349192  0.6875000000535181  0.2843212676035002
  0.9172269482650808  0.6875000000535181  0.2843212676035002
  0.5000000000000000  0.7500000002140865  0.3700464873652808
  0.8329184499758969  0.6875000000535181  0.3688687056193808
  0.6670815202057224  0.6875000000535181  0.3688687056193808
  0.7499999997239044  0.7500000002140865  0.4557740082021483
  0.5845577503425929  0.6875000000535181  0.4558681339482995
  0.9154422496574071  0.6875000000535181  0.4558681339482995
  0.5000000000000000  0.7500000002140865  0.1977201947221827
  0.8343509451242700  0.8124999999464819  0.2028753449708595
  0.6656490250573422  0.8124999999464819  0.2028753449708595
  0.7499999997239044  0.8750000001070433  0.2784084848717234
  0.5827730517349192  0.8124999999464819  0.2843212676035002
  0.9172269482650808  0.8124999999464819  0.2843212676035002
  0.5000000000000000  0.8750000001070433  0.3700464873652808
  0.8329184499758969  0.8124999999464819  0.3688687056193808
  0.6670815202057224  0.8124999999464819  0.3688687056193808
  0.7499999997239044  0.8750000001070433  0.4557740082021483
  0.5845577503425929  0.8124999999464819  0.4558681339482995
  0.9154422496574071  0.8124999999464819  0.4558681339482995
  0.5000000000000000  0.8750000001070433  0.1977201947221827
  0.8343509451242700  0.9375000002676046  0.2028753449708595
  0.6656490250573422  0.9375000002676046  0.2028753449708595
  0.7499999997239044  0.5000000000000000  0.2784084848717234
  0.5827730517349192  0.9375000002676046  0.2843212676035002
  0.9172269482650808  0.9375000002676046  0.2843212676035002
  0.5000000000000000  0.5000000000000000  0.3700464873652808
  0.8329184499758969  0.9375000002676046  0.3688687056193808
  0.6670815202057224  0.9375000002676046  0.3688687056193808
  0.7499999997239044  0.5000000000000000  0.4557740082021483
  0.5845577503425929  0.9375000002676046  0.4558681339482995
  0.9154422496574071  0.9375000002676046  0.4558681339482995
  0.4056192842067496 -0.0000000000000000  0.2326132107562652
  0.2499999997239044 -0.0000000000000000  0.2000063367057601
  0.0943807157932504  0.0000000000000000  0.2326132107562652
  0.1547882172046088  0.1249999998929567  0.3161916901343815
  0.0000000000000000  0.1249999998929567  0.3033297092420130
  0.3452117827953912  0.1249999998929567  0.3161916901343815
  0.4016942123129935  0.1249999998929567  0.4026498148669416
  0.2499999997239044  0.1249999998929567  0.3878929072562327
  0.0983057871348154  0.1249999998929567  0.4026498148669416
  0.1517413485467204  0.1249999998929567  0.4839704864326833
  0.0000000000000000  0.1249999998929567  0.4766151429539392
  0.3482586509010884  0.1249999998929567  0.4839704864326833
  0.4054822500288406  0.1249999998929567  0.5555503844302144
  0.2499999997239044  0.1249999998929567  0.5559001820666337
  0.0945177499711593  0.1249999998929567  0.5555503844302144
  0.4056192842067496  0.1249999998929567  0.2326132107562652
  0.2499999997239044  0.1249999998929567  0.2000063367057601
  0.0943807157932504  0.1249999998929567  0.2326132107562652
  0.1547882172046088  0.2500000002140865  0.3161916901343815
  0.0000000000000000  0.2500000002140865  0.3033297092420130
  0.3452117827953912  0.2500000002140865  0.3161916901343815
  0.4016942123129935  0.2500000002140865  0.4026498148669416
  0.2499999997239044  0.2500000002140865  0.3878929072562327
  0.0983057871348154  0.2500000002140865  0.4026498148669416
  0.1517413485467204  0.2500000002140865  0.4839704864326833
  0.0000000000000000  0.2500000002140865  0.4766151429539392
  0.3482586509010884  0.2500000002140865  0.4839704864326833
  0.4054822500288406  0.2500000002140865  0.5555503844302144
  0.2499999997239044  0.2500000002140865  0.5559001820666337
  0.0945177499711593  0.2500000002140865  0.5555503844302144
  0.4056192842067496  0.2500000002140865  0.2326132107562652
  0.2499999997239044  0.2500000002140865  0.2000063367057601
  0.0943807157932504  0.2500000002140865  0.2326132107562652
  0.1547882172046088  0.3750000001070433  0.3161916901343815
  0.0000000000000000  0.3750000001070433  0.3033297092420130
  0.3452117827953912  0.3750000001070433  0.3161916901343815
  0.4016942123129935  0.3750000001070433  0.4026498148669416
  0.2499999997239044  0.3750000001070433  0.3878929072562327
  0.0983057871348154  0.3750000001070433  0.4026498148669416
  0.1517413485467204  0.3750000001070433  0.4839704864326833
  0.0000000000000000  0.3750000001070433  0.4766151429539392
  0.3482586509010884  0.3750000001070433  0.4839704864326833
  0.4054822500288406  0.3750000001070433  0.5555503844302144
  0.2499999997239044  0.3750000001070433  0.5559001820666337
  0.0945177499711593  0.3750000001070433  0.5555503844302144
  0.4056192842067496  0.3750000001070433  0.2326132107562652
  0.2499999997239044  0.3750000001070433  0.2000063367057601
  0.0943807157932504  0.3750000001070433  0.2326132107562652
  0.1547882172046088 -0.0000000000000000  0.3161916901343815
  0.0000000000000000  0.0000000000000000  0.3033297092420130
  0.3452117827953912 -0.0000000000000000  0.3161916901343815
  0.4016942123129935 -0.0000000000000000  0.4026498148669416
  0.2499999997239044  0.0000000000000000  0.3878929072562327
  0.0983057871348154  0.0000000000000000  0.4026498148669416
  0.1517413485467204  0.0000000000000000  0.4839704864326833
  0.0000000000000000  0.0000000000000000  0.4766151429539392
  0.3482586509010884 -0.0000000000000000  0.4839704864326833
  0.4054822500288406  0.0000000000000000  0.5555503844302144
  0.2499999997239044 -0.0000000000000000  0.5559001820666337
  0.0945177499711593 -0.0000000000000000  0.5555503844302144
  0.4056192842067496  0.5000000000000000  0.2326132107562652
  0.2499999997239044  0.5000000000000000  0.2000063367057601
  0.0943807157932504  0.5000000000000000  0.2326132107562652
  0.1547882172046088  0.6249999998929567  0.3161916901343815
  0.0000000000000000  0.6249999998929567  0.3033297092420130
  0.3452117827953912  0.6249999998929567  0.3161916901343815
  0.4016942123129935  0.6249999998929567  0.4026498148669416
  0.2499999997239044  0.6249999998929567  0.3878929072562327
  0.0983057871348154  0.6249999998929567  0.4026498148669416
  0.1517413485467204  0.6249999998929567  0.4839704864326833
  0.0000000000000000  0.6249999998929567  0.4766151429539392
  0.3482586509010884  0.6249999998929567  0.4839704864326833
  0.4054822500288406  0.6249999998929567  0.5555503844302144
  0.2499999997239044  0.6249999998929567  0.5559001820666337
  0.0945177499711593  0.6249999998929567  0.5555503844302144
  0.4056192842067496  0.6249999998929567  0.2326132107562652
  0.2499999997239044  0.6249999998929567  0.2000063367057601
  0.0943807157932504  0.6249999998929567  0.2326132107562652
  0.1547882172046088  0.7500000002140865  0.3161916901343815
  0.0000000000000000  0.7500000002140865  0.3033297092420130
  0.3452117827953912  0.7500000002140865  0.3161916901343815
  0.4016942123129935  0.7500000002140865  0.4026498148669416
  0.2499999997239044  0.7500000002140865  0.3878929072562327
  0.0983057871348154  0.7500000002140865  0.4026498148669416
  0.1517413485467204  0.7500000002140865  0.4839704864326833
  0.0000000000000000  0.7500000002140865  0.4766151429539392
  0.3482586509010884  0.7500000002140865  0.4839704864326833
  0.4054822500288406  0.7500000002140865  0.5555503844302144
  0.2499999997239044  0.7500000002140865  0.5559001820666337
  0.0945177499711593  0.7500000002140865  0.5555503844302144
  0.4056192842067496  0.7500000002140865  0.2326132107562652
  0.2499999997239044  0.7500000002140865  0.2000063367057601
  0.0943807157932504  0.7500000002140865  0.2326132107562652
  0.1547882172046088  0.8750000001070433  0.3161916901343815
  0.0000000000000000  0.8750000001070433  0.3033297092420130
  0.3452117827953912  0.8750000001070433  0.3161916901343815
  0.4016942123129935  0.8750000001070433  0.4026498148669416
  0.2499999997239044  0.8750000001070433  0.3878929072562327
  0.0983057871348154  0.8750000001070433  0.4026498148669416
  0.1517413485467204  0.8750000001070433  0.4839704864326833
  0.0000000000000000  0.8750000001070433  0.4766151429539392
  0.3482586509010884  0.8750000001070433  0.4839704864326833
  0.4054822500288406  0.8750000001070433  0.5555503844302144
  0.2499999997239044  0.8750000001070433  0.5559001820666337
  0.0945177499711593  0.8750000001070433  0.5555503844302144
  0.4056192842067496  0.8750000001070433  0.2326132107562652
  0.2499999997239044  0.8750000001070433  0.2000063367057601
  0.0943807157932504  0.8750000001070433  0.2326132107562652
  0.1547882172046088  0.5000000000000000  0.3161916901343815
  0.0000000000000000  0.5000000000000000  0.3033297092420130
  0.3452117827953912  0.5000000000000000  0.3161916901343815
  0.4016942123129935  0.5000000000000000  0.4026498148669416
  0.2499999997239044  0.5000000000000000  0.3878929072562327
  0.0983057871348154  0.5000000000000000  0.4026498148669416
  0.1517413485467204  0.5000000000000000  0.4839704864326833
  0.0000000000000000  0.5000000000000000  0.4766151429539392
  0.3482586509010884  0.5000000000000000  0.4839704864326833
  0.4054822500288406  0.5000000000000000  0.5555503844302144
  0.2499999997239044  0.5000000000000000  0.5559001820666337
  0.0945177499711593  0.5000000000000000  0.5555503844302144
  0.9056192842067496 -0.0000000000000000  0.2326132107562652
  0.7499999997239044 -0.0000000000000000  0.2000063367057601
  0.5943807157932504 -0.0000000000000000  0.2326132107562652
  0.6547882172046088  0.1249999998929567  0.3161916901343815
  0.5000000000000000  0.1249999998929567  0.3033297092420130
  0.8452117827953912  0.1249999998929567  0.3161916901343815
  0.9016942123129934  0.1249999998929567  0.4026498148669416
  0.7499999997239044  0.1249999998929567  0.3878929072562327
  0.5983057871348154  0.1249999998929567  0.4026498148669416
  0.6517413485467204  0.1249999998929567  0.4839704864326833
  0.5000000000000000  0.1249999998929567  0.4766151429539392
  0.8482586509010884  0.1249999998929567  0.4839704864326833
  0.9054822500288406  0.1249999998929567  0.5555503844302144
  0.7499999997239044  0.1249999998929567  0.5559001820666337
  0.5945177499711594  0.1249999998929567  0.5555503844302144
  0.9056192842067496  0.1249999998929567  0.2326132107562652
  0.7499999997239044  0.1249999998929567  0.2000063367057601
  0.5943807157932504  0.1249999998929567  0.2326132107562652
  0.6547882172046088  0.2500000002140865  0.3161916901343815
  0.5000000000000000  0.2500000002140865  0.3033297092420130
  0.8452117827953912  0.2500000002140865  0.3161916901343815
  0.9016942123129934  0.2500000002140865  0.4026498148669416
  0.7499999997239044  0.2500000002140865  0.3878929072562327
  0.5983057871348154  0.2500000002140865  0.4026498148669416
  0.6517413485467204  0.2500000002140865  0.4839704864326833
  0.5000000000000000  0.2500000002140865  0.4766151429539392
  0.8482586509010884  0.2500000002140865  0.4839704864326833
  0.9054822500288406  0.2500000002140865  0.5555503844302144
  0.7499999997239044  0.2500000002140865  0.5559001820666337
  0.5945177499711594  0.2500000002140865  0.5555503844302144
  0.9056192842067496  0.2500000002140865  0.2326132107562652
  0.7499999997239044  0.2500000002140865  0.2000063367057601
  0.5943807157932504  0.2500000002140865  0.2326132107562652
  0.6547882172046088  0.3750000001070433  0.3161916901343815
  0.5000000000000000  0.3750000001070433  0.3033297092420130
  0.8452117827953912  0.3750000001070433  0.3161916901343815
  0.9016942123129934  0.3750000001070433  0.4026498148669416
  0.7499999997239044  0.3750000001070433  0.3878929072562327
  0.5983057871348154  0.3750000001070433  0.4026498148669416
  0.6517413485467204  0.3750000001070433  0.4839704864326833
  0.5000000000000000  0.3750000001070433  0.4766151429539392
  0.8482586509010884  0.3750000001070433  0.4839704864326833
  0.9054822500288406  0.3750000001070433  0.5555503844302144
  0.7499999997239044  0.3750000001070433  0.5559001820666337
  0.5945177499711594  0.3750000001070433  0.5555503844302144
  0.9056192842067496  0.3750000001070433  0.2326132107562652
  0.7499999997239044  0.3750000001070433  0.2000063367057601
  0.5943807157932504  0.3750000001070433  0.2326132107562652
  0.6547882172046088 -0.0000000000000000  0.3161916901343815
  0.5000000000000000  0.0000000000000000  0.3033297092420130
  0.8452117827953912  0.0000000000000000  0.3161916901343815
  0.9016942123129934 -0.0000000000000000  0.4026498148669416
  0.7499999997239044  0.0000000000000000  0.3878929072562327
  0.5983057871348154 -0.0000000000000000  0.4026498148669416
  0.6517413485467204 -0.0000000000000000  0.4839704864326833
  0.5000000000000000  0.0000000000000000  0.4766151429539392
  0.8482586509010884  0.0000000000000000  0.4839704864326833
  0.9054822500288406 -0.0000000000000000  0.5555503844302144
  0.7499999997239044  0.0000000000000000  0.5559001820666337
  0.5945177499711594 -0.0000000000000000  0.5555503844302144
  0.9056192842067496  0.5000000000000000  0.2326132107562652
  0.7499999997239044  0.5000000000000000  0.2000063367057601
  0.5943807157932504  0.5000000000000000  0.2326132107562652
  0.6547882172046088  0.6249999998929567  0.3161916901343815
  0.5000000000000000  0.6249999998929567  0.3033297092420130
  0.8452117827953912  0.6249999998929567  0.3161916901343815
  0.9016942123129934  0.6249999998929567  0.4026498148669416
  0.7499999997239044  0.6249999998929567  0.3878929072562327
  0.5983057871348154  0.6249999998929567  0.4026498148669416
  0.6517413485467204  0.6249999998929567  0.4839704864326833
  0.5000000000000000  0.6249999998929567  0.4766151429539392
  0.8482586509010884  0.6249999998929567  0.4839704864326833
  0.9054822500288406  0.6249999998929567  0.5555503844302144
  0.7499999997239044  0.6249999998929567  0.5559001820666337
  0.5945177499711594  0.6249999998929567  0.5555503844302144
  0.9056192842067496  0.6249999998929567  0.2326132107562652
  0.7499999997239044  0.6249999998929567  0.2000063367057601
  0.5943807157932504  0.6249999998929567  0.2326132107562652
  0.6547882172046088  0.7500000002140865  0.3161916901343815
  0.5000000000000000  0.7500000002140865  0.3033297092420130
  0.8452117827953912  0.7500000002140865  0.3161916901343815
  0.9016942123129934  0.7500000002140865  0.4026498148669416
  0.7499999997239044  0.7500000002140865  0.3878929072562327
  0.5983057871348154  0.7500000002140865  0.4026498148669416
  0.6517413485467204  0.7500000002140865  0.4839704864326833
  0.5000000000000000  0.7500000002140865  0.4766151429539392
  0.8482586509010884  0.7500000002140865  0.4839704864326833
  0.9054822500288406  0.7500000002140865  0.5555503844302144
  0.7499999997239044  0.7500000002140865  0.5559001820666337
  0.5945177499711594  0.7500000002140865  0.5555503844302144
  0.9056192842067496  0.7500000002140865  0.2326132107562652
  0.7499999997239044  0.7500000002140865  0.2000063367057601
  0.5943807157932504  0.7500000002140865  0.2326132107562652
  0.6547882172046088  0.8750000001070433  0.3161916901343815
  0.5000000000000000  0.8750000001070433  0.3033297092420130
  0.8452117827953912  0.8750000001070433  0.3161916901343815
  0.9016942123129934  0.8750000001070433  0.4026498148669416
  0.7499999997239044  0.8750000001070433  0.3878929072562327
  0.5983057871348154  0.8750000001070433  0.4026498148669416
  0.6517413485467204  0.8750000001070433  0.4839704864326833
  0.5000000000000000  0.8750000001070433  0.4766151429539392
  0.8482586509010884  0.8750000001070433  0.4839704864326833
  0.9054822500288406  0.8750000001070433  0.5555503844302144
  0.7499999997239044  0.8750000001070433  0.5559001820666337
  0.5945177499711594  0.8750000001070433  0.5555503844302144
  0.9056192842067496  0.8750000001070433  0.2326132107562652
  0.7499999997239044  0.8750000001070433  0.2000063367057601
  0.5943807157932504  0.8750000001070433  0.2326132107562652
  0.6547882172046088  0.5000000000000000  0.3161916901343815
  0.5000000000000000  0.5000000000000000  0.3033297092420130
  0.8452117827953912  0.5000000000000000  0.3161916901343815
  0.9016942123129934  0.5000000000000000  0.4026498148669416
  0.7499999997239044  0.5000000000000000  0.3878929072562327
  0.5983057871348154  0.5000000000000000  0.4026498148669416
  0.6517413485467204  0.5000000000000000  0.4839704864326833
  0.5000000000000000  0.5000000000000000  0.4766151429539392
  0.8482586509010884  0.5000000000000000  0.4839704864326833
  0.9054822500288406  0.5000000000000000  0.5555503844302144
  0.7499999997239044  0.5000000000000000  0.5559001820666337
  0.5945177499711594  0.5000000000000000  0.5555503844302144
  0.0000000000000000  0.1249999998929567  0.5413750747407621
  0.3278230458522929  0.0625000001605613  0.5454681014496859
  0.1721769248815105  0.0625000001605613  0.5454681014496859
  0.0000000000000000  0.2500000002140865  0.5413750747407621
  0.3278230458522929  0.1875000000535181  0.5454681014496859
  0.1721769248815105  0.1875000000535181  0.5454681014496859
  0.0000000000000000  0.3750000001070433  0.5413750747407621
  0.3278230458522929  0.3124999999464819  0.5454681014496859
  0.1721769248815105  0.3124999999464819  0.5454681014496859
  0.0000000000000000  0.0000000000000000  0.5413750747407621
  0.3278230458522929  0.4375000002676046  0.5454681014496859
  0.1721769248815105  0.4375000002676046  0.5454681014496859
  0.0000000000000000  0.6249999998929567  0.5413750747407621
  0.3278230458522929  0.5625000001605613  0.5454681014496859
  0.1721769248815105  0.5625000001605613  0.5454681014496859
  0.0000000000000000  0.7500000002140865  0.5413750747407621
  0.3278230458522929  0.6875000000535181  0.5454681014496859
  0.1721769248815105  0.6875000000535181  0.5454681014496859
  0.0000000000000000  0.8750000001070433  0.5413750747407621
  0.3278230458522929  0.8124999999464819  0.5454681014496859
  0.1721769248815105  0.8124999999464819  0.5454681014496859
  0.0000000000000000  0.5000000000000000  0.5413750747407621
  0.3278230458522929  0.9375000002676046  0.5454681014496859
  0.1721769248815105  0.9375000002676046  0.5454681014496859
  0.5000000000000000  0.1249999998929567  0.5413750747407621
  0.8278230458522929  0.0625000001605613  0.5454681014496859
  0.6721769248815105  0.0625000001605613  0.5454681014496859
  0.5000000000000000  0.2500000002140865  0.5413750747407621
  0.8278230458522929  0.1875000000535181  0.5454681014496859
  0.6721769248815105  0.1875000000535181  0.5454681014496859
  0.5000000000000000  0.3750000001070433  0.5413750747407621
  0.8278230458522929  0.3124999999464819  0.5454681014496859
  0.6721769248815105  0.3124999999464819  0.5454681014496859
  0.5000000000000000  0.0000000000000000  0.5413750747407621
  0.8278230458522929  0.4375000002676046  0.5454681014496859
  0.6721769248815105  0.4375000002676046  0.5454681014496859
  0.5000000000000000  0.6249999998929567  0.5413750747407621
  0.8278230458522929  0.5625000001605613  0.5454681014496859
  0.6721769248815105  0.5625000001605613  0.5454681014496859
  0.5000000000000000  0.7500000002140865  0.5413750747407621
  0.8278230458522929  0.6875000000535181  0.5454681014496859
  0.6721769248815105  0.6875000000535181  0.5454681014496859
  0.5000000000000000  0.8750000001070433  0.5413750747407621
  0.8278230458522929  0.8124999999464819  0.5454681014496859
  0.6721769248815105  0.8124999999464819  0.5454681014496859
  0.5000000000000000  0.5000000000000000  0.5413750747407621
  0.8278230458522929  0.9375000002676046  0.5454681014496859
  0.6721769248815105  0.9375000002676046  0.5454681014496859
 
  0.00000000E+00  0.00000000E+00  0.00000000E+00
  0.00000000E+00  0.00000000E+00  0.00000000E+00
  0.00000000E+00  0.00000000E+00  0.00000000E+00
  0.00000000E+00  0.00000000E+00  0.00000000E+00
  0.00000000E+00  0.00000000E+00  0.00000000E+00
  0.00000000E+00  0.00000000E+00  0.00000000E+00
  0.00000000E+00  0.00000000E+00  0.00000000E+00
  0.00000000E+00  0.00000000E+00  0.00000000E+00