Ta  N W                                 
   1.00000000000000     
    18.1096308199999996    0.0000000000000000    0.0000000000000000
     0.0000000000000000   23.3551997799999995    0.0000000000000000
     0.0000000000000000    0.0000000000000000   30.4818171199999988
   Ta   N    W 
   228   240    12
Direct
  0.0000000000000000  0.0001390252325137  0.1975199438067534
  0.3342412838736450  0.0625524882606214  0.2026450207669512
  0.1657755719445788  0.0626168899759634  0.2027497173308248
  0.2499165818584288  0.1251061201090806  0.2779072422399906
  0.0827778928833993  0.0626426568524678  0.2840939572964913
  0.4170590403062633  0.0625437578226453  0.2839983621417943
  0.0000000000000000  0.1251531597250448  0.3698603178051982
  0.3324227871004339  0.0626225745440294  0.3684423271443080
  0.1673362048102405  0.0626605363321033  0.3683935540036529
  0.2503047718942142  0.1254639084643543  0.4550798453882052
  0.0840263115553341  0.0626484866351049  0.4546526761611318
  0.4160776400074795  0.0626784353001355  0.4543137849974812
  0.0000000000000000  0.1252839934157777  0.5410101986688289
  0.3352639067184953  0.0630501734184463  0.5418844112269241
  0.0000000000000000  0.1251616767818149  0.1975133183198139
  0.3342042940452501  0.1875506058985437  0.2026586193513822
  0.1657719127534278  0.1875901411506646  0.2027378157854329
  0.2499857255904558  0.2501082502878589  0.2779215705672229
  0.0827393898285891  0.1876578347282205  0.2840736935104928
  0.4171118422193203  0.1875393312970601  0.2840150000381243
  0.0000000000000000  0.2501799942727985  0.3698353484452852
  0.3324137659775488  0.1876116822620091  0.3684699454196689
  0.1673652860949204  0.1876563828089459  0.3684791233583553
  0.2505281055621396  0.2497904214812081  0.4550890561924348
  0.0836708182783141  0.1876791311833372  0.4546814896011995
  0.4162357848944680  0.1876100329535575  0.4543284130924903
  0.0000000000000000  0.2501051104848671  0.5410546249215571
  0.3356630526715279  0.1873667212682193  0.5416575945786732
  0.1656893575807601  0.1877211394659710  0.5419173208287305
  0.0000000000000000  0.2501390254466003  0.1975199438067534
  0.3342412838736450  0.3125524880465420  0.2026450207669512
  0.1657755719445788  0.3126168897618840  0.2027497173308248
  0.2499165818584288  0.3751061203231671  0.2779072422399906
  0.0827778928833993  0.3126426566383884  0.2840939572964913
  0.4170590403062633  0.3125437576085659  0.2839983621417943
  0.0000000000000000  0.3751531599391313  0.3698603178051982
  0.3324227871004339  0.3126225743299571  0.3684423271443080
  0.1673362048102405  0.3126605361180239  0.3683935540036529
  0.2503047718942142  0.3754639086784408  0.4550798453882052
  0.0840263115553341  0.3126484864210255  0.4546526761611318
  0.4160776400074795  0.3126784350860632  0.4543137849974812
  0.0000000000000000  0.3752839936298642  0.5410101986688289
  0.3352639067184953  0.3130501732043669  0.5418844112269241
  0.0000000000000000  0.3751616769959014  0.1975133183198139
  0.3342042940452501  0.4375506061126302  0.2026586193513822
  0.1657719127534278  0.4375901413647512  0.2027378157854329
  0.2499857255904558  0.0001082500737724  0.2779215705672229
  0.0827393898285891  0.4376578349423070  0.2840736935104928
  0.4171118422193203  0.4375393315111467  0.2840150000381243
  0.0000000000000000  0.0001799940587119  0.3698353484452852
  0.3324137659775488  0.4376116824760956  0.3684699454196689
  0.1673652860949204  0.4376563830230324  0.3684791233583553
  0.2505281055621396  0.9997904212671287  0.4550890561924348
  0.0836708182783141  0.4376791313974238  0.4546814896011995
  0.4162357848944680  0.4376100331676440  0.4543284130924903
  0.0000000000000000  0.0001051102707805  0.5410546249215571
  0.3356630526715279  0.4373667214823058  0.5416575945786732
  0.1656893575807601  0.4377211396800575  0.5419173208287305
  0.0000000000000000  0.5001390252325137  0.1975199438067534
  0.3342412838736450  0.5625524882606214  0.2026450207669512
  0.1657755719445788  0.5626168899759634  0.2027497173308248
  0.2499165818584288  0.6251061201090806  0.2779072422399906
  0.0827778928833993  0.5626426568524678  0.2840939572964913
  0.4170590403062633  0.5625437578226453  0.2839983621417943
  0.0000000000000000  0.6251531597250448  0.3698603178051982
  0.3324227871004339  0.5626225745440294  0.3684423271443080
  0.1673362048102405  0.5626605363321033  0.3683935540036529
  0.2503047718942142  0.6254639084643543  0.4550798453882052
  0.0840263115553341  0.5626484866351049  0.4546526761611318
  0.4160776400074795  0.5626784353001355  0.4543137849974812
  0.0000000000000000  0.6252839934157777  0.5410101986688289
  0.3352639067184953  0.5630501734184392  0.5418844112269241
  0.0000000000000000  0.6251616767818149  0.1975133183198139
  0.3342042940452501  0.6875506058985437  0.2026586193513822
  0.1657719127534278  0.6875901411506646  0.2027378157854329
  0.2499857255904558  0.7501082502878589  0.2779215705672229
  0.0827393898285891  0.6876578347282205  0.2840736935104928
  0.4171118422193203  0.6875393312970601  0.2840150000381243
  0.0000000000000000  0.7501799942727985  0.3698353484452852
  0.3324137659775488  0.6876116822620091  0.3684699454196689
  0.1673652860949204  0.6876563828089459  0.3684791233583553
  0.2505281055621396  0.7497904214812152  0.4550890561924348
  0.0836708182783141  0.6876791311833372  0.4546814896011995
  0.4162357848944680  0.6876100329535575  0.4543284130924903
  0.0000000000000000  0.7501051104848671  0.5410546249215571
  0.3356630526715279  0.6873667212682193  0.5416575945786732
  0.1656893575807601  0.6877211394659710  0.5419173208287305
  0.0000000000000000  0.7501390254466003  0.1975199438067534
  0.3342412838736450  0.8125524880465420  0.2026450207669512
  0.1657755719445788  0.8126168897618840  0.2027497173308248
  0.2499165818584288  0.8751061203231671  0.2779072422399906
  0.0827778928833993  0.8126426566383884  0.2840939572964913
  0.4170590403062633  0.8125437576085659  0.2839983621417943
  0.0000000000000000  0.8751531599391313  0.3698603178051982
  0.3324227871004339  0.8126225743299500  0.3684423271443080
  0.1673362048102405  0.8126605361180239  0.3683935540036529
  0.2503047718942142  0.8754639086784408  0.4550798453882052
  0.0840263115553341  0.8126484864210255  0.4546526761611318
  0.4160776400074795  0.8126784350860561  0.4543137849974812
  0.0000000000000000  0.8752839936298642  0.5410101986688289
  0.3352639067184953  0.8130501732043669  0.5418844112269241
  0.0000000000000000  0.8751616769959014  0.1975133183198139
  0.3342042940452501  0.9375506061126302  0.2026586193513822
  0.1657719127534278  0.9375901413647512  0.2027378157854329
  0.2499857255904558  0.5001082500737724  0.2779215705672229
  0.0827393898285891  0.9376578349423070  0.2840736935104928
  0.4171118422193203  0.9375393315111467  0.2840150000381243
  0.0000000000000000  0.5001799940587119  0.3698353484452852
  0.3324137659775488  0.9376116824760956  0.3684699454196689
  0.1673652860949204  0.9376563830230324  0.3684791233583553
  0.2505281055621396  0.4997904212671216  0.4550890561924348
  0.0836708182783141  0.9376791313974238  0.4546814896011995
  0.4162357848944680  0.9376100331676440  0.4543284130924903
  0.0000000000000000  0.5001051102707805  0.5410546249215571
  0.3356630526715279  0.9373667214823058  0.5416575945786732
  0.1656893575807601  0.9377211396800575  0.5419173208287305
  0.5000000000000000  0.0000124504501144  0.1975155099604819
  0.8342243982370334  0.0626168899759634  0.2027497173308248
  0.6657586868601584  0.0625524882606214  0.2026450207669512
  0.7500834175893800  0.1251061201090806  0.2779072422399906
  0.5829409596937367  0.0625437578226453  0.2839983621417943
  0.9172221071166007  0.0626426568524678  0.2840939572964913
  0.5000000000000000  0.1251109158454327  0.3696528665142367
  0.8326637653713718  0.0626605363321033  0.3683935540036529
  0.6675771836333766  0.0626225745440294  0.3684423271443080
  0.7496952275535946  0.1254639084643543  0.4550798453882052
  0.5839223599925276  0.0626784353001355  0.4543137849974812
  0.9159736884446659  0.0626484866351049  0.4546526761611318
  0.5000000000000000  0.1251895719563407  0.5410187539071387
  0.6647360640153082  0.0630501734184463  0.5418844112269241
  0.5000000000000000  0.1250361037535583  0.1975007818881664
  0.8342280574281844  0.1875901411506646  0.2027378157854329
  0.6657956766885533  0.1875506058985437  0.2026586193513822
  0.7500142738573530  0.2501082502878589  0.2779215705672229
  0.5828881577806797  0.1875393312970601  0.2840150000381243
  0.9172606101714109  0.1876578347282205  0.2840736935104928
  0.5000000000000000  0.2500984421114794  0.3696253054793672
  0.8326346840866918  0.1876563828089459  0.3684791233583553
  0.6675862047562546  0.1876116822620091  0.3684699454196689
  0.7494718938856693  0.2497904214812081  0.4550890561924348
  0.5837642151055320  0.1876100329535575  0.4543284130924903
  0.9163291817216859  0.1876791311833372  0.4546814896011995
  0.8343106131530433  0.1877211394659710  0.5419173208287305
  0.6643369180622756  0.1873667212682193  0.5416575945786732
  0.5000000000000000  0.2500124506642010  0.1975155099604819
  0.8342243982370334  0.3126168897618840  0.2027497173308248
  0.6657586868601584  0.3125524880465420  0.2026450207669512
  0.7500834175893800  0.3751061203231671  0.2779072422399906
  0.5829409596937367  0.3125437576085659  0.2839983621417943
  0.9172221071166007  0.3126426566383884  0.2840939572964913
  0.5000000000000000  0.3751109160595192  0.3696528665142367
  0.8326637653713718  0.3126605361180239  0.3683935540036529
  0.6675771836333766  0.3126225743299571  0.3684423271443080
  0.7496952275535946  0.3754639086784408  0.4550798453882052
  0.5839223599925276  0.3126784350860632  0.4543137849974812
  0.9159736884446659  0.3126484864210255  0.4546526761611318
  0.5000000000000000  0.3751895721704201  0.5410187539071387
  0.6647360640153082  0.3130501732043669  0.5418844112269241
  0.5000000000000000  0.3750361039676449  0.1975007818881664
  0.8342280574281844  0.4375901413647512  0.2027378157854329
  0.6657956766885533  0.4375506061126302  0.2026586193513822
  0.7500142738573530  0.0001082500737724  0.2779215705672229
  0.5828881577806797  0.4375393315111467  0.2840150000381243
  0.9172606101714109  0.4376578349423070  0.2840736935104928
  0.5000000000000000  0.0000984418973928  0.3696253054793672
  0.8326346840866918  0.4376563830230324  0.3684791233583553
  0.6675862047562546  0.4376116824760956  0.3684699454196689
  0.7494718938856693  0.9997904212671287  0.4550890561924348
  0.5837642151055320  0.4376100331676440  0.4543284130924903
  0.9163291817216859  0.4376791313974238  0.4546814896011995
  0.8343106131530433  0.4377211396800575  0.5419173208287305
  0.6643369180622756  0.4373667214823058  0.5416575945786732
  0.5000000000000000  0.5000124504501144  0.1975155099604819
  0.8342243982370334  0.5626168899759634  0.2027497173308248
  0.6657586868601584  0.5625524882606214  0.2026450207669512
  0.7500834175893800  0.6251061201090806  0.2779072422399906
  0.5829409596937367  0.5625437578226453  0.2839983621417943
  0.9172221071166007  0.5626426568524678  0.2840939572964913
  0.5000000000000000  0.6251109158454327  0.3696528665142367
  0.8326637653713718  0.5626605363321033  0.3683935540036529
  0.6675771836333766  0.5626225745440294  0.3684423271443080
  0.7496952275535946  0.6254639084643543  0.4550798453882052
  0.5839223599925276  0.5626784353001355  0.4543137849974812
  0.9159736884446659  0.5626484866351049  0.4546526761611318
  0.5000000000000000  0.6251895719563336  0.5410187539071387
  0.6647360640153082  0.5630501734184392  0.5418844112269241
  0.5000000000000000  0.6250361037535583  0.1975007818881664
  0.8342280574281844  0.6875901411506646  0.2027378157854329
  0.6657956766885533  0.6875506058985437  0.2026586193513822
  0.7500142738573530  0.7501082502878589  0.2779215705672229
  0.5828881577806797  0.6875393312970601  0.2840150000381243
  0.9172606101714109  0.6876578347282205  0.2840736935104928
  0.5000000000000000  0.7500984421114794  0.3696253054793672
  0.8326346840866918  0.6876563828089459  0.3684791233583553
  0.6675862047562546  0.6876116822620091  0.3684699454196689
  0.7494718938856693  0.7497904214812152  0.4550890561924348
  0.5837642151055320  0.6876100329535575  0.4543284130924903
  0.9163291817216859  0.6876791311833372  0.4546814896011995
  0.8343106131530433  0.6877211394659710  0.5419173208287305
  0.6643369180622756  0.6873667212682193  0.5416575945786732
  0.5000000000000000  0.7500124506642010  0.1975155099604819
  0.8342243982370334  0.8126168897618840  0.2027497173308248
  0.6657586868601584  0.8125524880465420  0.2026450207669512
  0.7500834175893800  0.8751061203231671  0.2779072422399906
  0.5829409596937367  0.8125437576085659  0.2839983621417943
  0.9172221071166007  0.8126426566383884  0.2840939572964913
  0.5000000000000000  0.8751109160595192  0.3696528665142367
  0.8326637653713718  0.8126605361180239  0.3683935540036529
  0.6675771836333766  0.8126225743299500  0.3684423271443080
  0.7496952275535946  0.8754639086784408  0.4550798453882052
  0.5839223599925276  0.8126784350860561  0.4543137849974812
  0.9159736884446659  0.8126484864210255  0.4546526761611318
  0.5000000000000000  0.8751895721704201  0.5410187539071387
  0.6647360640153082  0.8130501732043669  0.5418844112269241
  0.5000000000000000  0.8750361039676449  0.1975007818881664
  0.8342280574281844  0.9375901413647512  0.2027378157854329
  0.6657956766885533  0.9375506061126302  0.2026586193513822
  0.7500142738573530  0.5001082500737724  0.2779215705672229
  0.5828881577806797  0.9375393315111467  0.2840150000381243
  0.9172606101714109  0.9376578349423070  0.2840736935104928
  0.5000000000000000  0.5000984418973928  0.3696253054793672
  0.8326346840866918  0.9376563830230324  0.3684791233583553
  0.6675862047562546  0.9376116824760956  0.3684699454196689
  0.7494718938856693  0.4997904212671216  0.4550890561924348
  0.5837642151055320  0.9376100331676440  0.4543284130924903
  0.9163291817216859  0.9376791313974238  0.4546814896011995
  0.8343106131530433  0.9377211396800575  0.5419173208287305
  0.6643369180622756  0.9373667214823058  0.5416575945786732
  0.4055527152454417  0.0000176674112637  0.2322994819279884
  0.2499760956490888  0.0000817538887148  0.1993901219557443
  0.0943479461553451  0.0001388777208149  0.2323544094806351
  0.1550166267014248  0.1251879667799756  0.3158142618956461
  0.0000000000000000  0.1251347497416049  0.3031759986669655
  0.3449847924735749  0.1250905587319195  0.3157902015480474
  0.4009012495553748  0.1251773079664460  0.4022066587372137
  0.2497727972116266  0.1251147066698266  0.3872568209772709
  0.0989908457850319  0.1251522109936403  0.4024188478574544
  0.1523931207460905  0.1250843036072169  0.4876517044024595
  0.0000000000000000  0.1249880149826339  0.4731128142960159
  0.3484094478578470  0.1252029871502387  0.4878565729842350
  0.4025799566009880  0.1252851633034808  0.5702522354261319
  0.2492722280477082  0.1238973187572725  0.5575577898888611
  0.0987837181589342  0.1230879614932263  0.5694815424383535
  0.4055647762755896  0.1250478559876669  0.2322778593924184
  0.2499963880817617  0.1250700397237736  0.1993201636444866
  0.0943339326816997  0.1251306899681524  0.2323645273634227
  0.1549875417840596  0.2501089897489877  0.3157839739822066
  0.0000000000000000  0.2501634985380079  0.3031695767220768
  0.3449474258956187  0.2500679480230517  0.3158140033420480
  0.4009150189741320  0.2500836380252665  0.4021135064211236
  0.2499126963777059  0.2501450987510339  0.3872270236871174
  0.0990380144988450  0.2501748789311051  0.4024131089167398
  0.1526442613922470  0.2502263046519175  0.4876892128836943
  0.0000000000000000  0.2503463824175185  0.4732060064902086
  0.3484647630236850  0.2501532131173008  0.4878472568121026
  0.4074003119005383  0.2498801061621592  0.5695284002810865
  0.2499036675909068  0.2512559517929418  0.5580644837313287
  0.0988025650568076  0.2521975327704595  0.5695749842603917
  0.4055527152454417  0.2500176676253503  0.2322994819279884
  0.2499760956490888  0.2500817541028013  0.1993901219557443
  0.0943479461553451  0.2501388779349014  0.2323544094806351
  0.1550166267014248  0.3751879669940621  0.3158142618956461
  0.0000000000000000  0.3751347499556914  0.3031759986669655
  0.3449847924735749  0.3750905589460061  0.3157902015480474
  0.4009012495553748  0.3751773081805325  0.4022066587372137
  0.2497727972116266  0.3751147068839131  0.3872568209772709
  0.0989908457850319  0.3751522112077268  0.4024188478574544
  0.1523931207460905  0.3750843038213034  0.4876517044024595
  0.0000000000000000  0.3749880151967204  0.4731128142960159
  0.3484094478578470  0.3752029873643252  0.4878565729842350
  0.4025799566009880  0.3752851635175674  0.5702522354261319
  0.2492722280477082  0.3738973189713590  0.5575577898888611
  0.0987837181589342  0.3730879617073128  0.5694815424383535
  0.4055647762755896  0.3750478562017534  0.2322778593924184
  0.2499963880817617  0.3750700399378601  0.1993201636444866
  0.0943339326816997  0.3751306901822389  0.2323645273634227
  0.1549875417840596  0.0001089895349011  0.3157839739822066
  0.0000000000000000  0.0001634983239214  0.3031695767220768
  0.3449474258956187  0.0000679478089651  0.3158140033420480
  0.4009150189741320  0.0000836378111799  0.4021135064211236
  0.2499126963777059  0.0001450985369473  0.3872270236871174
  0.0990380144988450  0.0001748787170186  0.4024131089167398
  0.1526442613922470  0.0002263044378310  0.4876892128836943
  0.0000000000000000  0.0003463822034320  0.4732060064902086
  0.3484647630236850  0.0001532129032142  0.4878472568121026
  0.4074003119005383  0.9998801059480726  0.5695284002810865
  0.2499036675909068  0.0012559515788553  0.5580644837313287
  0.0988025650568076  0.0021975325563730  0.5695749842603917
  0.4055527152454417  0.5000176674112637  0.2322994819279884
  0.2499760956490888  0.5000817538887148  0.1993901219557443
  0.0943479461553451  0.5001388777208149  0.2323544094806351
  0.1550166267014248  0.6251879667799756  0.3158142618956461
  0.0000000000000000  0.6251347497416049  0.3031759986669655
  0.3449847924735749  0.6250905587319195  0.3157902015480474
  0.4009012495553748  0.6251773079664460  0.4022066587372137
  0.2497727972116266  0.6251147066698266  0.3872568209772709
  0.0989908457850319  0.6251522109936403  0.4024188478574544
  0.1523931207460905  0.6250843036072169  0.4876517044024595
  0.0000000000000000  0.6249880149826339  0.4731128142960159
  0.3484094478578470  0.6252029871502458  0.4878565729842350
  0.4025799566009880  0.6252851633034879  0.5702522354261319
  0.2492722280477082  0.6238973187572725  0.5575577898888611
  0.0987837181589342  0.6230879614932263  0.5694815424383535
  0.4055647762755896  0.6250478559876669  0.2322778593924184
  0.2499963880817617  0.6250700397237736  0.1993201636444866
  0.0943339326816997  0.6251306899681524  0.2323645273634227
  0.1549875417840596  0.7501089897489877  0.3157839739822066
  0.0000000000000000  0.7501634985380079  0.3031695767220768
  0.3449474258956187  0.7500679480230517  0.3158140033420480
  0.4009150189741320  0.7500836380252665  0.4021135064211236
  0.2499126963777059  0.7501450987510339  0.3872270236871174
  0.0990380144988450  0.7501748789311051  0.4024131089167398
  0.1526442613922470  0.7502263046519175  0.4876892128836943
  0.0000000000000000  0.7503463824175114  0.4732060064902086
  0.3484647630236850  0.7501532131173008  0.4878472568121026
  0.4074003119005383  0.7498801061621592  0.5695284002810865
  0.2499036675909068  0.7512559517929418  0.5580644837313287
  0.0988025650568076  0.7521975327704595  0.5695749842603917
  0.4055527152454417  0.7500176676253503  0.2322994819279884
  0.2499760956490888  0.7500817541028013  0.1993901219557443
  0.0943479461553451  0.7501388779349014  0.2323544094806351
  0.1550166267014248  0.8751879669940621  0.3158142618956461
  0.0000000000000000  0.8751347499556914  0.3031759986669655
  0.3449847924735749  0.8750905589460061  0.3157902015480474
  0.4009012495553748  0.8751773081805325  0.4022066587372137
  0.2497727972116266  0.8751147068839131  0.3872568209772709
  0.0989908457850319  0.8751522112077268  0.4024188478574544
  0.1523931207460905  0.8750843038213034  0.4876517044024595
  0.0000000000000000  0.8749880151967204  0.4731128142960159
  0.3484094478578470  0.8752029873643323  0.4878565729842350
  0.4025799566009880  0.8752851635175745  0.5702522354261319
  0.2492722280477082  0.8738973189713590  0.5575577898888611
  0.0987837181589342  0.8730879617073128  0.5694815424383535
  0.4055647762755896  0.8750478562017534  0.2322778593924184
  0.2499963880817617  0.8750700399378601  0.1993201636444866
  0.0943339326816997  0.8751306901822389  0.2323645273634227
  0.1549875417840596  0.5001089895349011  0.3157839739822066
  0.0000000000000000  0.5001634983239214  0.3031695767220768
  0.3449474258956187  0.5000679478089651  0.3158140033420480
  0.4009150189741320  0.5000836378111799  0.4021135064211236
  0.2499126963777059  0.5001450985369473  0.3872270236871174
  0.0990380144988450  0.5001748787170186  0.4024131089167398
  0.1526442613922470  0.5002263044378310  0.4876892128836943
  0.0000000000000000  0.5003463822034249  0.4732060064902086
  0.3484647630236850  0.5001532129032142  0.4878472568121026
  0.4074003119005383  0.4998801059480726  0.5695284002810865
  0.2499036675909068  0.5012559515788553  0.5580644837313287
  0.0988025650568076  0.5021975325563730  0.5695749842603917
  0.9056520538446549  0.0001388777208149  0.2323544094806351
  0.7500239037987200  0.0000817538887148  0.1993901219557443
  0.5944472847545583  0.0000176674112637  0.2322994819279884
  0.6550152075264251  0.1250905587319195  0.3157902015480474
  0.5000000000000000  0.1250205524399277  0.3029941087348220
  0.8449833732985752  0.1251879667799756  0.3158142618956461
  0.9010091536627769  0.1251522109936403  0.4024188478574544
  0.7502272022361751  0.1251147066698266  0.3872568209772709
  0.5990987498924341  0.1251773079664460  0.4022066587372137
  0.6515905515899618  0.1252029871502387  0.4878565729842350
  0.5000000000000000  0.1250423249057135  0.4730064542334418
  0.8476068787017184  0.1250843036072169  0.4876517044024595
  0.9012162818410658  0.1230879614932263  0.5694815424383535
  0.7507277714001006  0.1238973187572725  0.5575577898888611
  0.5974200433990120  0.1252851633034808  0.5702522354261319
  0.9056660673183003  0.1251306899681524  0.2323645273634227
  0.7500036113660471  0.1250700397237736  0.1993201636444866
  0.5944352237244104  0.1250478559876669  0.2322778593924184
  0.6550525741043813  0.2500679480230517  0.3158140033420480
  0.5000000000000000  0.2500500500412031  0.3029755829171918
  0.8450124582159404  0.2501089897489877  0.3157839739822066
  0.9009619849489638  0.2501748789311051  0.4024131089167398
  0.7500873030701030  0.2501450987510339  0.3872270236871174
  0.5990849804736769  0.2500836380252665  0.4021135064211236
  0.6515352364241238  0.2501532131173008  0.4878472568121026
  0.5000000000000000  0.2502268928503781  0.4724860360764893
  0.8473557380555619  0.2502263046519175  0.4876892128836943
  0.9011974349431924  0.2521975327704595  0.5695749842603917
  0.7500963318569021  0.2512559517929418  0.5580644837313287
  0.5925996880994617  0.2498801061621592  0.5695284002810865
  0.9056520538446549  0.2501388779349014  0.2323544094806351
  0.7500239037987200  0.2500817541028013  0.1993901219557443
  0.5944472847545583  0.2500176676253503  0.2322994819279884
  0.6550152075264251  0.3750905589460061  0.3157902015480474
  0.5000000000000000  0.3750205526540142  0.3029941087348220
  0.8449833732985752  0.3751879669940621  0.3158142618956461
  0.9010091536627769  0.3751522112077268  0.4024188478574544
  0.7502272022361751  0.3751147068839131  0.3872568209772709
  0.5990987498924341  0.3751773081805325  0.4022066587372137
  0.6515905515899618  0.3752029873643252  0.4878565729842350
  0.5000000000000000  0.3750423251198001  0.4730064542334418
  0.8476068787017184  0.3750843038213034  0.4876517044024595
  0.9012162818410658  0.3730879617073128  0.5694815424383535
  0.7507277714001006  0.3738973189713590  0.5575577898888611
  0.5974200433990120  0.3752851635175674  0.5702522354261319
  0.9056660673183003  0.3751306901822389  0.2323645273634227
  0.7500036113660471  0.3750700399378601  0.1993201636444866
  0.5944352237244104  0.3750478562017534  0.2322778593924184
  0.6550525741043813  0.0000679478089651  0.3158140033420480
  0.5000000000000000  0.0000500498271165  0.3029755829171918
  0.8450124582159404  0.0001089895349011  0.3157839739822066
  0.9009619849489638  0.0001748787170186  0.4024131089167398
  0.7500873030701030  0.0001450985369473  0.3872270236871174
  0.5990849804736769  0.0000836378111799  0.4021135064211236
  0.6515352364241238  0.0001532129032142  0.4878472568121026
  0.5000000000000000  0.0002268926362916  0.4724860360764893
  0.8473557380555619  0.0002263044378310  0.4876892128836943
  0.9011974349431924  0.0021975325563730  0.5695749842603917
  0.7500963318569021  0.0012559515788553  0.5580644837313287
  0.5925996880994617  0.9998801059480726  0.5695284002810865
  0.9056520538446549  0.5001388777208149  0.2323544094806351
  0.7500239037987200  0.5000817538887148  0.1993901219557443
  0.5944472847545583  0.5000176674112637  0.2322994819279884
  0.6550152075264251  0.6250905587319195  0.3157902015480474
  0.5000000000000000  0.6250205524399277  0.3029941087348220
  0.8449833732985752  0.6251879667799756  0.3158142618956461
  0.9010091536627769  0.6251522109936403  0.4024188478574544
  0.7502272022361751  0.6251147066698266  0.3872568209772709
  0.5990987498924341  0.6251773079664460  0.4022066587372137
  0.6515905515899618  0.6252029871502458  0.4878565729842350
  0.5000000000000000  0.6250423249057135  0.4730064542334418
  0.8476068787017184  0.6250843036072169  0.4876517044024595
  0.9012162818410658  0.6230879614932263  0.5694815424383535
  0.7507277714001006  0.6238973187572725  0.5575577898888611
  0.5974200433990120  0.6252851633034879  0.5702522354261319
  0.9056660673183003  0.6251306899681524  0.2323645273634227
  0.7500036113660471  0.6250700397237736  0.1993201636444866
  0.5944352237244104  0.6250478559876669  0.2322778593924184
  0.6550525741043813  0.7500679480230517  0.3158140033420480
  0.5000000000000000  0.7500500500412031  0.3029755829171918
  0.8450124582159404  0.7501089897489877  0.3157839739822066
  0.9009619849489638  0.7501748789311051  0.4024131089167398
  0.7500873030701030  0.7501450987510339  0.3872270236871174
  0.5990849804736769  0.7500836380252665  0.4021135064211236
  0.6515352364241238  0.7501532131173008  0.4878472568121026
  0.5000000000000000  0.7502268928503781  0.4724860360764893
  0.8473557380555619  0.7502263046519175  0.4876892128836943
  0.9011974349431924  0.7521975327704595  0.5695749842603917
  0.7500963318569021  0.7512559517929418  0.5580644837313287
  0.5925996880994617  0.7498801061621592  0.5695284002810865
  0.9056520538446549  0.7501388779349014  0.2323544094806351
  0.7500239037987200  0.7500817541028013  0.1993901219557443
  0.5944472847545583  0.7500176676253503  0.2322994819279884
  0.6550152075264251  0.8750905589460061  0.3157902015480474
  0.5000000000000000  0.8750205526540142  0.3029941087348220
  0.8449833732985752  0.8751879669940621  0.3158142618956461
  0.9010091536627769  0.8751522112077268  0.4024188478574544
  0.7502272022361751  0.8751147068839131  0.3872568209772709
  0.5990987498924341  0.8751773081805325  0.4022066587372137
  0.6515905515899618  0.8752029873643323  0.4878565729842350
  0.5000000000000000  0.8750423251198001  0.4730064542334418
  0.8476068787017184  0.8750843038213034  0.4876517044024595
  0.9012162818410658  0.8730879617073128  0.5694815424383535
  0.7507277714001006  0.8738973189713590  0.5575577898888611
  0.5974200433990120  0.8752851635175745  0.5702522354261319
  0.9056660673183003  0.8751306901822389  0.2323645273634227
  0.7500036113660471  0.8750700399378601  0.1993201636444866
  0.5944352237244104  0.8750478562017534  0.2322778593924184
  0.6550525741043813  0.5000679478089651  0.3158140033420480
  0.5000000000000000  0.5000500498271165  0.3029755829171918
  0.8450124582159404  0.5001089895349011  0.3157839739822066
  0.9009619849489638  0.5001748787170186  0.4024131089167398
  0.7500873030701030  0.5001450985369473  0.3872270236871174
  0.5990849804736769  0.5000836378111799  0.4021135064211236
  0.6515352364241238  0.5001532129032142  0.4878472568121026
  0.5000000000000000  0.5002268926362916  0.4724860360764893
  0.8473557380555619  0.5002263044378310  0.4876892128836943
  0.9011974349431924  0.5021975325563730  0.5695749842603917
  0.7500963318569021  0.5012559515788553  0.5580644837313287
  0.5925996880994617  0.4998801059480726  0.5695284002810865
  0.1645911984944490  0.0626316546996719  0.5403549652353803
  0.1645911984944490  0.3126316544855925  0.5403549652353803
  0.1645911984944490  0.5626316546996719  0.5403549652353803
  0.1645911984944490  0.8126316544855925  0.5403549652353803
  0.8354087722393544  0.0626316546996719  0.5403549652353803
  0.5000000000000000  0.2498643253267474  0.5397682294616999
  0.8354087722393544  0.3126316544855925  0.5403549652353803
  0.5000000000000000  0.9998643251126609  0.5397682294616999
  0.8354087722393544  0.5626316546996719  0.5403549652353803
  0.5000000000000000  0.7498643253267474  0.5397682294616999
  0.8354087722393544  0.8126316544855925  0.5403549652353803
  0.5000000000000000  0.4998643251126609  0.5397682294616999
 
  0.00000000E+00  0.00000000E+00  0.00000000E+00
  0.00000000E+00  0.00000000E+00  0.00000000E+00
  0.00000000E+00  0.00000000E+00  0.00000000E+00
  0.00000000E+00  0.00000000E+00  0.00000000E+00
  0.00000000E+00  0.00000000E+00  0.00000000E+00
  0.00000000E+00  0.00000000E+00  0.00000000E+00
  0.00000000E+00  0.00000000E+00  0.00000000E+00
  0.00000000E+00  0.00000000E+00  0.00000000E+00