Ta  N Ru Cu 
 1.0000000000000000
    18.1096308199999996    0.0000000000000000    0.0000000000000000
     0.0000000000000000   23.3551997799999995    0.0000000000000000
     0.0000000000000000    0.0000000000000000   30.4818171199999988
 216 240  24  29
Selective dynamics
Cartesian
 18.0915029999999994  0.0195100000000000  5.9325700000000001   F   F   F
  5.9367219999999996  1.4135430000000000  6.1293020000000000   F   F   F
  3.0652680000000001  1.4155070000000001  6.1308119999999997   F   F   F
  4.5013740000000002  2.9205960000000002  8.5180249999999997   F   F   F
  1.4765630000000001  1.4795140000000000  8.6226430000000001   F   F   F
  7.5263099999999996  1.4767129999999999  8.6175680000000003   F   F   F
 18.0828589999999991  2.9318599999999999 11.2426480000000009   F   F   F
  5.9989499999999998  1.4709559999999999 11.2115209999999994   F   F   F
  3.0012490000000001  1.4718640000000001 11.2142619999999997   F   F   F
  4.5080229999999997  2.9127980000000000 13.8511819999999997   F   F   F
  1.4783269999999999  1.4608779999999999 13.8258489999999998   F   F   F
  7.5164099999999996  1.4640000000000000 13.8194839999999992   F   F   F
 18.0727450000000012  2.9457870000000002  5.9786180000000000   F   F   F
  6.0742159999999998  4.4001440000000001  6.1668139999999996   F   F   F
  2.9328059999999998  4.4031900000000004  6.1698019999999998   F   F   F
  4.5019609999999997  5.8668790000000000  8.5145710000000001   F   F   F
  1.4714039999999999  4.3933260000000001  8.6501219999999996   F   F   F
  7.5399669999999999  4.3898700000000002  8.6416579999999996   F   F   F
 18.0794539999999984  5.8529450000000001 11.2668300000000006   F   F   F
  5.9986920000000001  4.3902609999999997 11.2232839999999996   F   F   F
  3.0071500000000002  4.3925590000000003 11.2328170000000007   F   F   F
  4.5119749999999996  5.7847920000000004 13.8624690000000008   F   F   F
  1.4733190000000000  4.3702860000000001 13.8357200000000002   F   F   F
  7.5224690000000001  4.3731489999999997 13.8366500000000006   F   F   F
  6.0523350000000002  4.3049850000000003 16.5017050000000012   F   F   F
  0.0015790000000000  5.8373830000000000  5.9743230000000001   F   F   F
  5.9351599999999998  7.3866370000000003  6.1450300000000002   F   F   F
  3.0713729999999999  7.3884770000000000  6.1518420000000003   F   F   F
  4.5003190000000002  8.7657900000000009  8.5839009999999991   F   F   F
  1.4795180000000001  7.3109529999999996  8.6566130000000001   F   F   F
  7.5332650000000001  7.3077969999999999  8.6410119999999999   F   F   F
 18.0816139999999983  8.7717270000000003 11.2818690000000004   F   F   F
  6.0105589999999998  7.3101390000000004 11.2329500000000007   F   F   F
  2.9935920000000000  7.3106010000000001 11.2597640000000006   F   F   F
  4.5055909999999999  8.7467120000000005 13.8548060000000000   F   F   F
  1.4980070000000001  7.3011330000000001 13.9061100000000000   F   F   F
  7.5351660000000003  7.2981720000000001 13.8795409999999997   F   F   F
 18.0780940000000001  8.7805359999999997  5.9836619999999998   F   F   F
  5.9426230000000002 10.1595350000000000  6.1551390000000001   F   F   F
  3.0574110000000001 10.1593900000000001  6.1620590000000002   F   F   F
  4.5010009999999996  0.0221640000000000  8.5391809999999992   F   F   F
  1.4739240000000000 10.2350230000000000  8.6570090000000004   F   F   F
  7.5374730000000003 10.2340890000000009  8.6344069999999995   F   F   F
 18.0814549999999983  0.0131290000000000 11.2233429999999998   F   F   F
  6.0069540000000003 10.2297980000000006 11.2313250000000000   F   F   F
  2.9973040000000002 10.2276910000000001 11.2573010000000000   F   F   F
  4.4989290000000004  0.0034430000000000 13.8440919999999998   F   F   F
  1.5129330000000001 10.2363879999999998 13.9108769999999993   F   F   F
  7.5315469999999998 10.2252569999999992 13.8623870000000000   F   F   F
  6.1713810000000002 10.2367419999999996 16.5059210000000007   F   F   F
  0.0238010000000000 11.6830359999999995  5.9914519999999998   F   F   F
  5.9429829999999999 13.2125000000000004  6.1495740000000003   F   F   F
  3.0594500000000000 13.2134560000000008  6.1541969999999999   F   F   F
  4.5028230000000002 14.6112870000000008  8.5628449999999994   F   F   F
  1.4747530000000000 13.1434460000000009  8.6469410000000000   F   F   F
  7.5342169999999999 13.1439599999999999  8.6332310000000003   F   F   F
 18.0775660000000009 14.6214250000000003 11.2576000000000001   F   F   F
  6.0033919999999998 13.1522799999999993 11.2314790000000002   F   F   F
  3.0034060000000000 13.1524149999999995 11.2453699999999994   F   F   F
  4.5090519999999996 14.6137730000000001 13.8528230000000008   F   F   F
  1.4889580000000000 13.1533660000000001 13.8600569999999994   F   F   F
  7.5365200000000003 13.1545690000000004 13.8390229999999992   F   F   F
 18.0749080000000006 14.5932639999999996  5.9695109999999998   F   F   F
  5.9314559999999998 15.9873840000000005  6.1300990000000004   F   F   F
  3.0665700000000000 15.9864709999999999  6.1357229999999996   F   F   F
  4.5011310000000000 17.5144139999999986  8.4894440000000007   F   F   F
  1.4772770000000000 16.0709149999999994  8.6363869999999991   F   F   F
  7.5264069999999998 16.0707290000000000  8.6280260000000002   F   F   F
 18.0724260000000001 17.5294810000000005 11.2392420000000008   F   F   F
  6.0063230000000001 16.0754100000000015 11.2207519999999992   F   F   F
  2.9984500000000001 16.0751010000000001 11.2227219999999992   F   F   F
  4.4854050000000001 17.5808000000000000 13.8617450000000009   F   F   F
  1.5057280000000000 16.0861680000000007 13.8547019999999996   F   F   F
  7.5287050000000004 16.0897639999999988 13.8488910000000001   F   F   F
  6.0499010000000002 16.1411410000000011 16.5065430000000006   F   F   F
 18.1067490000000006 17.5463510000000014  5.9540829999999998   F   F   F
  6.0669639999999996 18.9818999999999996  6.1528039999999997   F   F   F
  2.9290620000000001 18.9822880000000005  6.1554890000000002   F   F   F
  4.4998540000000000 20.4658459999999991  8.4977219999999996   F   F   F
  1.4702189999999999 18.9920949999999991  8.6304949999999998   F   F   F
  7.5300539999999998 18.9908660000000005  8.6276740000000007   F   F   F
 18.0770739999999996 20.4551710000000000 11.2241540000000004   F   F   F
  5.9934300000000000 18.9924530000000011 11.2122729999999997   F   F   F
  3.0042469999999999 18.9913750000000014 11.2117450000000005   F   F   F
  4.4959270000000000 20.4553109999999982 13.8394230000000000   F   F   F
  1.4591050000000001 19.0087900000000012 13.8084399999999992   F   F   F
  7.5095689999999999 19.0045019999999987 13.8354280000000003   F   F   F
 18.0708100000000016 20.4402790000000003  5.9662119999999996   F   F   F
  5.9387410000000003 21.9737210000000012  6.1171610000000003   F   F   F
  3.0593560000000002 21.9749219999999994  6.1192799999999998   F   F   F
  4.5019520000000002 11.6844500000000000  8.5716009999999994   F   F   F
  1.4743809999999999 21.9071859999999994  8.6147760000000009   F   F   F
  7.5248949999999999 21.9057640000000013  8.6121289999999995   F   F   F
 18.0858099999999986 11.6918199999999999 11.2761659999999999   F   F   F
  5.9971680000000003 21.9103209999999997 11.2049520000000005   F   F   F
  3.0009100000000002 21.9112909999999985 11.2045130000000004   F   F   F
  4.4910889999999997 11.7366340000000005 13.8659809999999997   F   F   F
  1.4799670000000000 21.9111040000000017 13.8044200000000004   F   F   F
  7.5078820000000004 21.9136270000000017 13.8087920000000004   F   F   F
  6.0167099999999998 21.9156160000000000 16.4492450000000012   F   F   F
  2.9342540000000001 21.8856740000000016 16.4448879999999988   F   F   F
  9.0224869999999999  0.0166630000000000  5.9301659999999998   F   F   F
 14.9953579999999995  1.3990060000000000  6.1408170000000002   F   F   F
 12.1184010000000004  1.4006230000000000  6.1371050000000000   F   F   F
 13.5617459999999994  2.9342750000000000  8.5436809999999994   F   F   F
 10.5271960000000000  1.4783130000000000  8.6124609999999997   F   F   F
 16.5878189999999996  1.4795650000000000  8.6149989999999992   F   F   F
  9.0294150000000002  2.9308130000000001 11.2350379999999994   F   F   F
 15.0582220000000007  1.4743590000000000 11.2079660000000008   F   F   F
 12.0543359999999993  1.4743329999999999 11.2038919999999997   F   F   F
 13.5603160000000003  2.9195920000000002 13.8418369999999999   F   F   F
 10.5311780000000006  1.4670780000000001 13.8188910000000007   F   F   F
 16.5703859999999992  1.4647399999999999 13.8265130000000003   F   F   F
  9.0462880000000006  2.9425870000000001  5.9728089999999998   F   F   F
 15.0076850000000004  4.4680220000000004  6.1534540000000000   F   F   F
 12.1070890000000002  4.4633810000000000  6.1410380000000000   F   F   F
 13.5688300000000002  5.8596310000000003  8.5713150000000002   F   F   F
 10.5275189999999998  4.3883710000000002  8.6284630000000000   F   F   F
 16.5959189999999985  4.3892290000000003  8.6351820000000004   F   F   F
  9.0294430000000006  5.8526879999999997 11.2540370000000003   F   F   F
 15.0629880000000007  4.3910150000000003 11.2303040000000003   F   F   F
 12.0641119999999997  4.3899319999999999 11.2236589999999996   F   F   F
 13.5684939999999994  5.7974050000000004 13.8693950000000008   F   F   F
 10.5312900000000003  4.3712989999999996 13.8215629999999994   F   F   F
 16.5702190000000016  4.3858940000000004 13.8481339999999999   F   F   F
 15.1065330000000007  4.3035410000000001 16.5023899999999983   F   F   F
  9.0121110000000009  5.8339889999999999  5.9670569999999996   F   F   F
 14.9954090000000004  7.2283429999999997  6.1454800000000001   F   F   F
 12.1285089999999993  7.2305849999999996  6.1400720000000000   F   F   F
 13.5705989999999996  8.7473410000000005  8.5210310000000007   F   F   F
 10.5359400000000001  7.3100059999999996  8.6387789999999995   F   F   F
 16.5925109999999982  7.3126139999999999  8.6451740000000008   F   F   F
  9.0301089999999995  8.7631150000000009 11.2580069999999992   F   F   F
 15.0700409999999998  7.3093870000000001 11.2366790000000005   F   F   F
 12.0710879999999996  7.3044520000000004 11.2269410000000001   F   F   F
 13.5726399999999998  8.7901419999999995 13.8696809999999999   F   F   F
 10.5990839999999995  7.3027959999999998 13.8770640000000007   F   F   F
 16.5958100000000002  7.3068450000000000 13.9006640000000008   F   F   F
  9.0457879999999999  8.7791960000000007  5.9744020000000004   F   F   F
 15.1065260000000006 10.2530140000000003  6.1790419999999999   F   F   F
 12.0214540000000003 10.2481159999999996  6.1727509999999999   F   F   F
 13.5582700000000003  0.0194060000000000  8.5389300000000006   F   F   F
 10.5287260000000007 10.2266759999999994  8.6452000000000009   F   F   F
 16.6001680000000000 10.2285160000000008  8.6573309999999992   F   F   F
  9.0260879999999997  0.0119480000000000 11.2201160000000009   F   F   F
 15.0687569999999997 10.2304860000000009 11.2384229999999992   F   F   F
 12.0846409999999995 10.2291880000000006 11.2119649999999993   F   F   F
 13.5465529999999994  0.0088800000000000 13.8372089999999996   F   F   F
 10.5602970000000003 10.2310440000000007 13.7834520000000005   F   F   F
 16.5930290000000014 10.2260559999999998 13.8847380000000005   F   F   F
 15.0508100000000002 10.2632989999999999 16.5390779999999999   F   F   F
  8.9889050000000008 11.6843199999999996  5.9817150000000003   F   F   F
 15.0996319999999997 13.1220719999999993  6.1768630000000000   F   F   F
 12.0217630000000000 13.1259540000000001  6.1693559999999996   F   F   F
 13.5646719999999998 14.6311859999999996  8.5030059999999992   F   F   F
 10.5269860000000008 13.1527119999999993  8.6354330000000008   F   F   F
 16.5974290000000018 13.1511779999999998  8.6443379999999994   F   F   F
  9.0223669999999991 14.6192110000000000 11.2371429999999997   F   F   F
 15.0670750000000009 13.1567170000000004 11.2173250000000007   F   F   F
 12.0719820000000002 13.1592450000000003 11.1957310000000003   F   F   F
 13.5526319999999991 14.6171600000000002 13.8349370000000000   F   F   F
 10.5616179999999993 13.1521299999999997 13.8088960000000007   F   F   F
 16.5698960000000000 13.1586079999999992 13.8760499999999993   F   F   F
  9.0401539999999994 14.5935530000000000  5.9623119999999998   F   F   F
 14.9924180000000007 16.1540050000000015  6.1278990000000002   F   F   F
 12.1221399999999999 16.1506720000000001  6.1266299999999996   F   F   F
 13.5594049999999999 17.5336239999999997  8.5524400000000007   F   F   F
 10.5296900000000004 16.0712989999999998  8.6220490000000005   F   F   F
 16.5866919999999993 16.0700849999999988  8.6253890000000002   F   F   F
  9.0235810000000001 17.5306369999999987 11.2353570000000005   F   F   F
 15.0614830000000008 16.0792959999999994 11.2143210000000000   F   F   F
 12.0561500000000006 16.0804690000000008 11.2144169999999992   F   F   F
 13.5384639999999994 17.5829670000000000 13.8480129999999999   F   F   F
 10.5642949999999995 16.0898579999999995 13.8466100000000001   F   F   F
 16.5608460000000015 16.0854070000000000 13.8668940000000003   F   F   F
 15.1319660000000002 16.1517839999999993 16.5592059999999996   F   F   F
  9.0040910000000007 17.5460780000000014  5.9529459999999998   F   F   F
 15.0018999999999991 18.9149579999999986  6.1398739999999998   F   F   F
 12.1048919999999995 18.9197449999999989  6.1332009999999997   F   F   F
 13.5556029999999996 20.4516220000000004  8.5320199999999993   F   F   F
 10.5211970000000008 18.9958169999999988  8.6148769999999999   F   F   F
 16.5896070000000009 18.9963310000000014  8.6157590000000006   F   F   F
  9.0238390000000006 20.4542779999999986 11.2249379999999999   F   F   F
 15.0514089999999996 18.9963070000000016 11.2095050000000001   F   F   F
 12.0525889999999993 18.9965200000000003 11.2111239999999999   F   F   F
 13.5430799999999998 20.4690520000000014 13.8328260000000007   F   F   F
 10.5148139999999994 19.0132200000000005 13.8136729999999996   F   F   F
 16.5589599999999990 19.0060770000000012 13.8271870000000003   F   F   F
  9.0395780000000006 20.4384610000000002  5.9622050000000000   F   F   F
 14.9935759999999991 21.9887249999999987  6.1357720000000002   F   F   F
 12.1127649999999996 21.9856270000000009  6.1295609999999998   F   F   F
 13.5717449999999999 11.6916030000000006  8.4799729999999993   F   F   F
 10.5229029999999995 21.9059269999999984  8.6078460000000003   F   F   F
 16.5875480000000017 21.9065639999999995  8.6091130000000007   F   F   F
  9.0288550000000001 11.6940240000000006 11.2481639999999992   F   F   F
 15.0536670000000008 21.9135199999999983 11.2009830000000008   F   F   F
 12.0516950000000005 21.9132409999999993 11.1992270000000005   F   F   F
 13.5850270000000002 11.6830440000000007 13.8357039999999998   F   F   F
 10.5332609999999995 21.9169589999999985 13.8082989999999999   F   F   F
 16.5608350000000009 21.9153020000000005 13.8077579999999998   F   F   F
 15.0748960000000007 21.9207239999999999 16.4526350000000008   F   F   F
 12.0041279999999997 21.9065410000000007 16.4484059999999985   F   F   F
  6.0542470000000002  1.4304990000000000 16.4881489999999999   F   F   F
  2.9368930000000000  1.4177610000000000 16.4725849999999987   F   F   F
  6.0956279999999996  7.2256640000000001 16.5619380000000014   F   F   F
  5.9723819999999996 13.2378900000000002 16.5023020000000002   F   F   F
  6.0417690000000004 19.0325980000000001 16.5206529999999994   F   F   F
 15.1048080000000002  1.4318200000000001 16.4855899999999984   F   F   F
 11.9962649999999993  1.4517359999999999 16.4729220000000005   F   F   F
 15.2235589999999998  7.2813350000000003 16.5601680000000009   F   F   F
 15.2144309999999994 13.2060049999999993 16.5765710000000013   F   F   F
 15.0876129999999993 19.0504649999999991 16.4973430000000008   F   F   F
  3.0024489999999999  4.3492829999999998 16.4819609999999983   F   F   F
 12.0343029999999995  4.3561329999999998 16.4611850000000004   F   F   F
  2.9679190000000002 18.9533489999999993 16.4752709999999993   F   F   F
 11.9796519999999997 18.9772779999999983 16.5052079999999997   F   F   F
  7.3163049999999998  0.0139950000000000  7.0410649999999997   F   F   F
  4.4994519999999998  0.0162400000000000  5.3667829999999999   F   F   F
  1.6859120000000001  0.0177390000000000  7.0449650000000004   F   F   F
  2.7564980000000001  2.9336159999999998  9.6252980000000008   F   F   F
 18.0869409999999995  2.9324509999999999  9.2061480000000007   F   F   F
  6.2490680000000003  2.9309530000000001  9.6196780000000004   F   F   F
  7.2455239999999996  2.9295230000000001 12.2469710000000003   F   F   F
  4.5017389999999997  2.9262039999999998 11.7862899999999993   F   F   F
  1.7555030000000000  2.9283839999999999 12.2522470000000006   F   F   F
  2.7180650000000002  2.9133360000000001 14.8497819999999994   F   F   F
 18.0789660000000012  2.9210490000000000 14.4315400000000000   F   F   F
  6.2913230000000002  2.8984549999999998 14.8477449999999997   F   F   F
  7.3095840000000001  2.8665870000000000 17.3159320000000001   F   F   F
  4.5011200000000002  2.8868990000000001 16.9841179999999987   F   F   F
  1.6359699999999999  2.8500939999999999 17.2833660000000009   F   F   F
  7.3275280000000000  2.9228420000000002  7.0483070000000003   F   F   F
  4.5024519999999999  2.9574980000000002  6.3237680000000003   F   F   F
  1.6801090000000001  2.9267669999999999  7.0550389999999998   F   F   F
  2.7634690000000002  5.8564749999999997  9.6425599999999996   F   F   F
 18.0872059999999983  5.8547969999999996  9.2238000000000007   F   F   F
  6.2470970000000001  5.8523509999999996  9.6288020000000003   F   F   F
  7.2477179999999999  5.8481410000000000 12.2703760000000006   F   F   F
  4.5078389999999997  5.8489829999999996 11.8006349999999998   F   F   F
  1.7460130000000000  5.8558339999999998 12.2805020000000003   F   F   F
  2.7287439999999998  5.7643680000000002 14.8312399999999993   F   F   F
 18.0872390000000003  5.8200570000000003 14.4969409999999996   F   F   F
  6.3136960000000002  5.8064679999999997 14.8983609999999995   F   F   F
  7.2559449999999996  5.7374820000000000 17.4770560000000010   F   F   F
  4.5368290000000000  5.7503950000000001 17.0317760000000007   F   F   F
  1.5327340000000000  5.3866899999999998 17.4679269999999995   F   F   F
  7.3294879999999996  5.8617179999999998  7.0683660000000001   F   F   F
  4.5038309999999999  5.8390240000000002  6.2775869999999996   F   F   F
  1.6823269999999999  5.8660670000000001  7.0798870000000003   F   F   F
  2.7385449999999998  8.7693340000000006  9.6633700000000005   F   F   F
 18.0883980000000015  8.7691459999999992  9.2333610000000004   F   F   F
  6.2696410000000000  8.7699219999999993  9.6445159999999994   F   F   F
  7.2454840000000003  8.7609809999999992 12.2732639999999993   F   F   F
  4.5098960000000003  8.7663740000000008 11.7994140000000005   F   F   F
  1.7411660000000000  8.7648620000000008 12.2986609999999992   F   F   F
  2.7352479999999999  8.7466670000000004 14.7875789999999991   F   F   F
  0.0014980000000000  8.7890080000000008 14.5648649999999993   F   F   F
  6.2999980000000004  8.7361380000000004 14.8888549999999995   F   F   F
  7.2543519999999999  8.7263850000000005 17.4219480000000004   F   F   F
  4.6070840000000004  8.7153139999999993 17.1889220000000016   F   F   F
  1.0695460000000001  8.8160959999999999 18.2874119999999998   F   F   F
  7.3271870000000003  8.7682900000000004  7.0670190000000002   F   F   F
  4.5017350000000000  8.7792960000000004  5.3820220000000001   F   F   F
  1.6837089999999999  8.7699459999999991  7.0834849999999996   F   F   F
  2.7394520000000000  0.0154220000000000  9.6182750000000006   F   F   F
 18.0856929999999991  0.0156920000000000  9.1815189999999998   F   F   F
  6.2623300000000004  0.0140560000000000  9.6159960000000009   F   F   F
  7.2446580000000003  0.0137420000000000 12.2361020000000007   F   F   F
  4.5003219999999997  0.0126180000000000 11.7788950000000003   F   F   F
  1.7532710000000000  0.0144040000000000 12.2347619999999999   F   F   F
  2.7100339999999998 -0.0002730000000000 14.8337570000000003   F   F   F
 18.0792299999999990 23.3523090000000018 14.4113620000000004   F   F   F
  6.2840230000000004  0.0087440000000000 14.8390690000000003   F   F   F
  7.3245189999999996 23.3127910000000007 17.2970550000000003   F   F   F
  4.4810980000000002 23.3522239999999996 16.9798420000000014   F   F   F
  1.6483270000000001 23.3263190000000016 17.2869409999999988   F   F   F
  7.2964779999999996 11.6867940000000008  7.0507900000000001   F   F   F
  4.5013410000000000 11.6845169999999996  6.4564919999999999   F   F   F
  1.7134760000000000 11.6860510000000009  7.0680529999999999   F   F   F
  2.7431049999999999 14.6091680000000004  9.6418040000000005   F   F   F
 18.0865679999999998 14.6121390000000009  9.2131249999999998   F   F   F
  6.2647459999999997 14.6109860000000005  9.6340350000000008   F   F   F
  7.2454099999999997 14.6213920000000002 12.2556329999999996   F   F   F
  4.5065020000000002 14.6247579999999999 11.7939600000000002   F   F   F
  1.7495840000000000 14.6327900000000000 12.2556539999999998   F   F   F
  2.7240470000000001 14.5828699999999998 14.7800110000000000   F   F   F
 18.0821709999999989 14.6499159999999993 14.3917490000000008   F   F   F
  6.3185019999999996 14.6337150000000005 14.8593010000000003   F   F   F
  7.2242949999999997 14.6854870000000002 17.4327910000000017   F   F   F
  4.6081390000000004 14.6903220000000001 16.9580620000000017   F   F   F
  1.5166800000000000 15.1852280000000004 17.0631510000000013   F   F   F
  7.3217499999999998 14.6068130000000007  7.0568650000000002   F   F   F
  4.4992369999999999 14.5893300000000004  5.3696099999999998   F   F   F
  1.6821520000000001 14.6058610000000009  7.0676880000000004   F   F   F
  2.7630110000000001 17.5281790000000015  9.6161069999999995   F   F   F
 18.0824849999999984 17.5305870000000006  9.1990079999999992   F   F   F
  6.2401119999999999 17.5283429999999996  9.6141810000000003   F   F   F
  7.2424470000000003 17.5420279999999984 12.2546330000000001   F   F   F
  4.5021339999999999 17.5318390000000015 11.7929960000000005   F   F   F
  1.7463550000000001 17.5296610000000008 12.2459439999999997   F   F   F
  2.6945489999999999 17.6081059999999994 14.8250089999999997   F   F   F
 18.0705239999999989 17.5679130000000008 14.4362530000000007   F   F   F
  6.2859109999999996 17.5762180000000008 14.8692709999999995   F   F   F
  7.2254529999999999 17.6149659999999990 17.4732999999999983   F   F   F
  4.4898530000000001 17.6153520000000015 17.0203109999999995   F   F   F
  1.3239799999999999 17.9121680000000012 17.3532629999999983   F   F   F
  7.3207969999999998 17.5168590000000002  7.0536099999999999   F   F   F
  4.4989070000000000 17.5389090000000003  6.2458470000000004   F   F   F
  1.6783520000000001 17.5154260000000015  7.0587530000000003   F   F   F
  2.7573770000000000 20.4539480000000005  9.6083459999999992   F   F   F
 18.0838870000000007 20.4511380000000003  9.1892080000000007   F   F   F
  6.2417059999999998 20.4534640000000003  9.6079030000000003   F   F   F
  7.2405520000000001 20.4484490000000001 12.2370629999999991   F   F   F
  4.4991919999999999 20.4535249999999991 11.7739499999999992   F   F   F
  1.7525450000000000 20.4512220000000013 12.2289499999999993   F   F   F
  2.7056529999999999 20.4354949999999995 14.8306550000000001   F   F   F
 18.0725450000000016 20.4817870000000006 14.3990670000000005   F   F   F
  6.2830120000000003 20.4588700000000010 14.8423390000000008   F   F   F
  7.3119800000000001 20.5150320000000015 17.3232609999999987   F   F   F
  4.4700569999999997 20.4395580000000017 16.9668269999999985   F   F   F
  1.6126180000000001 20.4735699999999987 17.2568379999999983   F   F   F
  7.3219430000000001 20.4610570000000003  7.0383940000000003   F   F   F
  4.4984200000000003 20.4315290000000012  6.2959849999999999   F   F   F
  1.6785030000000001 20.4633460000000014  7.0423700000000000   F   F   F
  2.7404839999999999 11.6883909999999993  9.6519440000000003   F   F   F
 18.0855500000000013 11.6917690000000007  9.2348710000000001   F   F   F
  6.2674260000000004 11.6885429999999992  9.6363280000000007   F   F   F
  7.2421420000000003 11.6893779999999996 12.2609820000000003   F   F   F
  4.5065689999999998 11.6882280000000005 11.8000869999999995   F   F   F
  1.7572570000000001 11.6796959999999999 12.2857900000000004   F   F   F
  2.7319330000000002 11.7421140000000008 14.8612669999999998   F   F   F
 18.0933509999999984 11.6978609999999996 14.4872300000000003   F   F   F
  6.3011840000000001 11.7277909999999999 14.8798759999999994   F   F   F
  7.2741379999999998 11.7659590000000005 17.4763219999999997   F   F   F
  4.6745510000000001 11.6196110000000008 17.0564329999999984   F   F   F
  1.2974380000000001 12.2433029999999992 17.8091359999999987   F   F   F
 16.3838149999999985  0.0166920000000000  7.0382759999999998   F   F   F
 13.5547389999999996  0.0154980000000000  5.3712150000000003   F   F   F
 10.7301900000000003  0.0151520000000000  7.0361880000000001   F   F   F
 11.7991879999999991  2.9365230000000002  9.6172719999999998   F   F   F
  9.0294139999999992  2.9310220000000000  9.1985349999999997   F   F   F
 15.3208760000000002  2.9378649999999999  9.6224819999999998   F   F   F
 16.3002910000000014  2.9297460000000002 12.2544620000000002   F   F   F
 13.5600520000000007  2.9274890000000000 11.7801829999999992   F   F   F
 10.8111639999999998  2.9259840000000001 12.2405089999999994   F   F   F
 11.7740240000000007  2.9155639999999998 14.8339110000000005   F   F   F
  9.0256559999999997  2.9227710000000000 14.4160380000000004   F   F   F
 15.3422739999999997  2.9029840000000000 14.8475479999999997   F   F   F
 16.3477040000000002  2.8574769999999998 17.3323229999999988   F   F   F
 13.5400690000000008  2.9005459999999998 16.9826970000000017   F   F   F
 10.6991779999999999  2.9469919999999998 17.2581479999999985   F   F   F
 16.3633920000000010  2.9406260000000000  7.0402019999999998   F   F   F
 13.5583419999999997  2.9390480000000001  6.4127020000000003   F   F   F
 10.7546099999999996  2.9377059999999999  7.0367550000000003   F   F   F
 11.7990220000000008  5.8458930000000002  9.6333520000000004   F   F   F
  9.0340849999999993  5.8527899999999997  9.2120700000000006   F   F   F
 15.3320059999999998  5.8505680000000000  9.6448280000000004   F   F   F
 16.3030790000000003  5.8574719999999996 12.2876239999999992   F   F   F
 13.5699590000000008  5.8512719999999998 11.8014150000000004   F   F   F
 10.8143670000000007  5.8567970000000003 12.2573209999999992   F   F   F
 11.7808729999999997  5.7524519999999999 14.8246559999999992   F   F   F
  9.0466010000000008  5.8314110000000001 14.4512850000000004   F   F   F
 15.3564200000000000  5.8196740000000000 14.9127050000000008   F   F   F
 16.3454489999999986  5.7113149999999999 17.4741970000000002   F   F   F
 13.5922900000000002  5.7478069999999999 17.1024799999999999   F   F   F
 10.5731160000000006  5.6023090000000000 17.3817379999999986   F   F   F
 16.3880470000000003  5.8583489999999996  7.0608129999999996   F   F   F
 13.5592950000000005  5.8426330000000002  5.3773190000000000   F   F   F
 10.7375620000000005  5.8559809999999999  7.0530840000000001   F   F   F
 11.8218189999999996  8.7664080000000002  9.6218029999999999   F   F   F
  9.0329339999999991  8.7682179999999992  9.2159399999999998   F   F   F
 15.3151759999999992  8.7676210000000001  9.6387409999999996   F   F   F
 16.3067570000000011  8.7710369999999998 12.3000939999999996   F   F   F
 13.5745290000000001  8.7617709999999995 11.8002590000000005   F   F   F
 10.8256859999999993  8.7463160000000002 12.2409940000000006   F   F   F
 11.7966730000000002  8.8227709999999995 14.8209630000000008   F   F   F
  9.0555740000000000  8.7529869999999992 14.3897010000000005   F   F   F
 15.3722460000000005  8.7851520000000001 14.9111089999999997   F   F   F
 16.3714939999999984  8.8785200000000000 17.3801220000000001   F   F   F
 13.7185410000000001  8.6847759999999994 17.0345990000000000   F   F   F
 10.5604209999999998  8.7976960000000002 17.3862029999999983   F   F   F
 16.3876980000000003  8.7621579999999994  7.0730839999999997   F   F   F
 13.5636200000000002  8.7625899999999994  6.3252930000000003   F   F   F
 10.7365720000000007  8.7602960000000003  7.0633879999999998   F   F   F
 11.7899860000000007  0.0150350000000000  9.6111400000000007   F   F   F
  9.0251549999999998  0.0142730000000000  9.1778209999999998   F   F   F
 15.3227349999999998  0.0161180000000000  9.6139519999999994   F   F   F
 16.2987840000000013  0.0174420000000000 12.2368839999999999   F   F   F
 13.5535239999999995  0.0149380000000000 11.7725510000000000   F   F   F
 10.8066460000000006  0.0165690000000000 12.2332850000000004   F   F   F
 11.7613299999999992  0.0158710000000000 14.8374009999999998   F   F   F
  9.0236169999999998 23.3485410000000009 14.4245429999999999   F   F   F
 15.3325309999999995  0.0138550000000000 14.8325139999999998   F   F   F
 16.3826010000000011 23.3397940000000013 17.2976069999999993   F   F   F
 13.5347930000000005  0.0155890000000000 16.9809429999999999   F   F   F
 10.7051110000000005 23.3472879999999989 17.2885460000000002   F   F   F
 16.4180230000000016 11.6863080000000004  7.0668839999999999   F   F   F
 13.5589750000000002 11.6854910000000007  6.0307420000000000   F   F   F
 10.7101559999999996 11.6858299999999993  7.0547899999999997   F   F   F
 11.8171640000000000 14.6196830000000002  9.6075510000000008   F   F   F
  9.0280600000000000 14.6125150000000001  9.1985890000000001   F   F   F
 15.3077140000000007 14.6162460000000003  9.6182839999999992   F   F   F
 16.2903239999999983 14.6192869999999999 12.2649319999999999   F   F   F
 13.5662330000000004 14.6189769999999992 11.7741849999999992   F   F   F
 10.8129679999999997 14.6205169999999995 12.2258589999999998   F   F   F
 11.7722270000000009 14.5967430000000000 14.7290310000000009   F   F   F
  9.0520300000000002 14.6304599999999994 14.3678399999999993   F   F   F