Ta N Cu Ru                              
   1.00000000000000     
    18.1096308199999996    0.0000000000000000    0.0000000000000000
     0.0000000000000000   11.6775998899999998    0.0000000000000000
     0.0000000000000000    0.0000000000000000   23.4818170799999990
   Ta   N    Cu   Ru
   119   120     2     1
Direct
  0.9997682889512524  0.0004087312779747  0.2549392053725597
  0.3336901197903061  0.1247190417185944  0.2636386232431142
  0.1663058484117835  0.1247659742027054  0.2638197969222627
  0.2499617706608204  0.2500824324665269  0.3616297540339676
  0.0824338039191735  0.1251560152726174  0.3686921358211878
  0.4177416464430624  0.1252276668056430  0.3682663875618575
  0.0000987058861626  0.2500558152389157  0.4802592836550890
  0.3327339406176045  0.1252430399680989  0.4779150119519391
  0.1680163934810006  0.1252245900354891  0.4784480660500031
  0.2495882734985917  0.2533644998377168  0.5908353538531619
  0.0863661332154036  0.1253622109994750  0.5916310721439803
  0.4149400396405891  0.1250266477719610  0.5909435872396396
  0.9983116582824534  0.2526722080267538  0.7062925687741763
  0.3408338118250223  0.1232286932819746  0.7079403293609908
  0.0002243675422507  0.2500441523085815  0.2549450666685211
  0.3334684133522178  0.3755217678856603  0.2636505238407169
  0.1665155396412376  0.3756062973775607  0.2638703025036488
  0.2500847781253628  0.5002924256908952  0.3613426925739285
  0.0824547253486353  0.3750618675579585  0.3685337509547331
  0.4177178872173177  0.3751630171693139  0.3682123603472378
  0.9998582261590864  0.5000912283351477  0.4799096360914721
  0.3325928632088151  0.3752163512602309  0.4779981384994980
  0.1680188605979123  0.3750074512032288  0.4781884582387301
  0.2506335363381773  0.5006221735045203  0.5904578524706513
  0.0827644691009371  0.3762414395210188  0.5896077629665291
  0.4159017574625060  0.3751234183215337  0.5899111701142901
  0.9993795603332609  0.4994416494751226  0.7027843766717460
  0.3381627411243219  0.3766797939538814  0.7045106756161024
  0.1656706722170490  0.3780361266178252  0.7035134185751456
  0.9996898417957297  0.4998871797980303  0.2548090952598002
  0.3332102241067540  0.6247492467371762  0.2636156563688201
  0.1668068799253923  0.6246937499484929  0.2639450688999284
  0.2501093441971757  0.7501695152410333  0.3615011014878868
  0.0824181883481058  0.6251458888167517  0.3683334625472957
  0.4176199527105588  0.6251959303675804  0.3680236563727190
  0.9998511610575258  0.7503668342065486  0.4798818908379172
  0.3326355814017766  0.6251564272391645  0.4776545405927586
  0.1679054353680852  0.6251898482317904  0.4776532151920044
  0.2504312908313759  0.7495523912969498  0.5905227812445389
  0.0835015250107067  0.6254965850890385  0.5890983349142865
  0.4167684247181376  0.6250485984834011  0.5895882664492410
  0.9996172008840442  0.7505119984730696  0.7032222148607162
  0.3362165313570472  0.6250274890378227  0.7037127880649537
  0.1661581067396297  0.6259713620349334  0.7022308357636081
  0.0001246688720300  0.7503720535795825  0.2548176479250608
  0.3332871563975423  0.8756895486337540  0.2636797643500856
  0.1666986977707505  0.8755892633520571  0.2639038371366367
  0.2499887722611219  0.0002608544599699  0.3614232837154018
  0.0824753807676874  0.8752511913303551  0.3684751755630338
  0.4176960954083895  0.8752680438866848  0.3681748132793982
  0.0001227451402288  0.0004247249584652  0.4802538580358939
  0.3324955253022881  0.8751062237636218  0.4779862811236150
  0.1681381623201754  0.8754105901862418  0.4780839782416538
  0.2497856625887345  0.9967207812810720  0.5909452635447406
  0.0828984929117351  0.8741961767061848  0.5893916692533259
  0.4162984339438986  0.8748272436790890  0.5894493171977754
  0.3363504266550885  0.8731631807708876  0.7038846247077927
  0.1648996061883027  0.8774733746992684  0.7063409317622580
  0.5003550511978825  0.0002130676772218  0.2547096789564700
  0.8338246419066238  0.1255291354694728  0.2639786685214479
  0.6667298841228513  0.1255203259577429  0.2638919591385944
  0.7503797112835777  0.2502332706289804  0.3616805397519833
  0.5826971204316956  0.1252071209004525  0.3684425183530060
  0.9175538780909426  0.1251963497761905  0.3688370687577223
  0.4998118447433680  0.2500515230345459  0.4799001042449372
  0.8328415205209894  0.1252381775841065  0.4787456352373750
  0.6679715714062511  0.1252206957784605  0.4781032062898522
  0.7499727613678039  0.2504093557850069  0.5912087929671337
  0.5837360200882445  0.1252134373326253  0.5896582605901892
  0.9169695367829268  0.1254276906327619  0.5908859138801579
  0.5014250708605216  0.2501121360312797  0.7016590820844155
  0.8330998933794802  0.1252025869526986  0.7039121909896053
  0.6638441736684900  0.1252602289178009  0.7042141279551752
  0.4998893260036796  0.2502465238107351  0.2547253384082425
  0.8337425987341686  0.3747962606414457  0.2639915838128460
  0.6668902507242801  0.3747137382834753  0.2639004146000870
  0.7503717916550814  0.5000444592881392  0.3617787091738423
  0.5826668878120266  0.3751069458275936  0.3683781445971052
  0.9175890361436353  0.3751021218509178  0.3687761655123492
  0.5001406062515991  0.5000711922810585  0.4795760187745662
  0.8327718429362265  0.3751478822993491  0.4786626175496539
  0.6679654861674419  0.3751844817886918  0.4780250396659985
  0.7499105888020166  0.5001507654036580  0.5909910677028317
  0.5836700953600257  0.3751565764354446  0.5895574547387469
  0.9164726852402421  0.3749031562358827  0.5907606560159763
  0.5007793464691986  0.5001599563147826  0.7017319925134542
  0.8342368767525971  0.3752527426882444  0.7043161563074755
  0.6646189079873142  0.3754621140714204  0.7041478460636326
  0.5004659306381946  0.5000575456283619  0.2546084069328104
  0.8336161255057017  0.6254832850963130  0.2639989465041629
  0.6670836067798868  0.6254996422971001  0.2638919995464840
  0.7503616852854555  0.7503156153897566  0.3616632637547950
  0.5826887617005999  0.6251911491820270  0.3682852012121651
  0.9176106375922972  0.6251664388929520  0.3686263763852778
  0.5001922820338576  0.7501489307686537  0.4795047179033207
  0.8327220729186645  0.6251865601544856  0.4784751959629618
  0.6679590091997240  0.6251980280314323  0.4779785695196205
  0.7498651179306891  0.7502485761845470  0.5910139353789317
  0.5838825241032207  0.6251494652827320  0.5894732215808428
  0.9162355346345330  0.6252521376467323  0.5904054977729593
  0.5001959108362299  0.7497599368770096  0.7017786606488462
  0.8349074931248183  0.6251477572490365  0.7045610501533133
  0.6644946230932188  0.6254971368461625  0.7043251835824273
  0.5000358155308289  0.7502521669573575  0.2546055365110342
  0.8336642274338198  0.8748793331110762  0.2640245103497119
  0.6669972383296301  0.8749638640155516  0.2638951308722322
  0.7503553797506376  0.0001574559965618  0.3617836391218055
  0.5826757210385090  0.8752298221180390  0.3683536574097756
  0.9176024419869615  0.8752200830658431  0.3687804582065640
  0.4998876777433051  0.0003712921671463  0.4798078477678620
  0.8327358331239237  0.8752756510638264  0.4786154425780919
  0.6679936676899422  0.8751695270412196  0.4780032242947018
  0.7499436116363160  0.0001113190284232  0.5911994937441256
  0.5837591899512570  0.8751696217047265  0.5894683433207253
  0.9161581406122818  0.8753915726697441  0.5905638268820078
  0.5011043705884620  0.9997479622840170  0.7014574428369703
  0.8336025438655734  0.8749291924042888  0.7044747045004027
  0.6639728736294692  0.8752224273886436  0.7040620088654280
  0.9940024587157670  0.9954820919776627  0.7037606795401753
  0.4070889236078594  0.0002982868413577  0.3009886641479413
  0.2499361402674036  0.0004492951695431  0.2569908308275113
  0.0928961001221337  0.0004447607245153  0.3013329750882699
  0.1544497135795228  0.2500519535528038  0.4101286304684649
  0.0001317969776435  0.2502175641764019  0.3935161145720112
  0.3457327348788922  0.2501756810458196  0.4098343786017170
  0.4007004403016179  0.2498863744543132  0.5222042046779810
  0.2502428839478159  0.2500426926078106  0.5027109237813926
  0.0988293255062086  0.2490642255960115  0.5225427863118023
  0.1515881612494172  0.2586968179469386  0.6329889933657425
  0.0013448026422466  0.2499776467947017  0.6161523132129958
  0.3477904817120278  0.2512379782784751  0.6344668526384191
  0.4057601924154084  0.2512344467205357  0.7417162314056880
  0.2536421107318907  0.2516245169076898  0.7302738667406801
  0.0870851138984491  0.2765499780252962  0.7562988913542376
  0.4067343393818664  0.2501449071366897  0.3010781240011295
  0.2499565061841256  0.2500202499563833  0.2592342670039246
  0.0932272480976030  0.2499575863566603  0.3014261801241070
  0.1544214109705695  0.5000519090014118  0.4098331188802939
  0.0000574382519570  0.5001234769791016  0.3932323969708692
  0.3458796701725824  0.5001869904543778  0.4096318456987653
  0.4011780219983359  0.4999790941657606  0.5217130896051200
  0.2502134983192264  0.5005861644012947  0.5023961451132821
  0.0989413627062751  0.5002826896030836  0.5216851816054139
  0.1521412105689494  0.5012011351383404  0.6318107874461776
  0.0000487984932422  0.5005562909418139  0.6142612249034838
  0.3489700501901222  0.5004953117220221  0.6331175733093354
  0.4039537354399217  0.5010562795347406  0.7406039800370381
  0.2506224236011644  0.4982618680844754  0.7225151388610875
  0.0984966278000806  0.5028391931071657  0.7379302915673641
  0.4071148501345296  0.5000480042636161  0.3007832238246456
  0.2500263935158258  0.4999352116699474  0.2563227334621343
  0.0928843846689816  0.4999578234760499  0.3011650326422384
  0.1544184178846238  0.7502836867529924  0.4098256653240306
  0.0001293882079542  0.7501994013164092  0.3932061811497897
  0.3458914072753058  0.7501828886217293  0.4096386617407540
  0.4011878343523519  0.7500692417667751  0.5216114393509104
  0.2501876167154589  0.7496791891183934  0.5024477601347771
  0.0990443577409096  0.7502532627605361  0.5217215301953013
  0.1520814765006725  0.7508209421906499  0.6323330168817021
  0.0001104386090132  0.7497856911230082  0.6144219967748785
  0.3489465501833218  0.7496985991006583  0.6329807190861569
  0.4038364572307037  0.7489401653557706  0.7406804860548410
  0.2504645789049046  0.7519815385723171  0.7228069637163071
  0.0985905946312190  0.7447432102872525  0.7385399117765229
  0.4067804476339057  0.7502832448776282  0.3008439538403300
  0.2499949248957003  0.7502546224017910  0.2578243462159687
  0.0932540940315652  0.7502910971771352  0.3011891051154352
  0.1544993353979126  0.0003360329509554  0.4100944467318381
  0.0000912929247558  0.0001430408311486  0.3935289742351484
  0.3457233399218284  0.0002537760680196  0.4097865259009665
  0.4008775394868203  0.0004366645490764  0.5220563434208290
  0.2502802391339180  0.0004359164095236  0.5027817919227979
  0.0989422242294062  0.0014451809801661  0.5224441652882699
  0.1517386437575851  0.9912013070890233  0.6329666070892170
  0.0010198366961303  0.0002553138663597  0.6145981970295470
  0.3484052472339543  0.9980379476838803  0.6338207327530783
  0.4053266686593089  0.9973878105792976  0.7414932838799371
  0.2522435189609065  0.9970993147343225  0.7259648139190850
  0.0812673593603506  0.9625928692787553  0.7502547799430686
  0.9068329718744393  0.0002546421668364  0.3015879792862464
  0.7503303582554061  0.0003238373353896  0.2585044862436478
  0.5934165711587381  0.0002645119752951  0.3011554550104895
  0.6546060390148972  0.2502031361861234  0.4099149960887267
  0.5000736478439025  0.2502093705428571  0.3931408560205819
  0.8458759284662319  0.2501440793413266  0.4104064012322017
  0.9014643114630841  0.2500717561782582  0.5228663093313044
  0.7502693951434003  0.2502694884869144  0.5030328029183202
  0.5990646547159081  0.2502293952843468  0.5217597628522419
  0.6514937530775582  0.2504678439423864  0.6331357840923612
  0.4997462147702006  0.2498258455242598  0.6130691968541209
  0.8480469077289676  0.2504911347532520  0.6337489902624902
  0.9014254980912283  0.2507995790720148  0.7412382305804335
  0.7490342092562444  0.2502272000495887  0.7240007555021308
  0.5970165936075921  0.2506857190205066  0.7408588070595226
  0.9071412847957543  0.2501397088450833  0.3015414314337426
  0.7503187211070227  0.2500713888996535  0.2572053445330464
  0.5931021879064419  0.2500992737794289  0.3011205620518364
  0.6545751512877138  0.5001433175923763  0.4098140521404635
  0.5001376317495285  0.5001730795882300  0.3928618524598799
  0.8458767917209401  0.5001224634319965  0.4102867014731516
  0.9011808483603432  0.4999953748973684  0.5226316165933660
  0.7502398218247722  0.5001762439132196  0.5028855338274153
  0.5992142290925657  0.5001129430658253  0.5217176088758683
  0.6516126526925204  0.5002767272237092  0.6331071878008706
  0.5002750414013513  0.4999509428331916  0.6129928499519320
  0.8480310433564731  0.5003191704460573  0.6333962330815444
  0.9023863302288572  0.5002281508595403  0.7407865374130626
  0.7494654998331074  0.5002805509028077  0.7239330577883886
  0.5966993418682787  0.5004264064651712  0.7405739448707189
  0.9068400209532472  0.5000345756271555  0.3015113600610962
  0.7502908602694223  0.5000525885654759  0.2582683893212799
  0.5935188313477259  0.5001139701914761  0.3010985741643272
  0.6545683552059867  0.7502582401998726  0.4098080876790547
  0.5000862364705746  0.7502075141565490  0.3928096559786582
  0.8458627443569553  0.7502599275516794  0.4102580248327869
  0.9011570675233502  0.7502584601744864  0.5225616957061828
  0.7502537379308469  0.7501848219412911  0.5028765688122829
  0.5992255686067942  0.7501948154537335  0.5216872665654929
  0.6515200851268598  0.7500836279117806  0.6330982083539820
  0.5002357296968807  0.7501549199421557  0.6129654740963643
  0.8479383835314057  0.7499774222716403  0.6334028394537760
  0.9021274456037375  0.7496582308251926  0.7408565124338022
  0.7491860315926824  0.7500864011792253  0.7239884913538238
  0.5964329289883269  0.7499903324796088  0.7405783330072215
  0.9071543847042531  0.7502778700013081  0.3014411503441402
  0.7503044572787874  0.7502403824391854  0.2567362987772283
  0.5932027519235545  0.7502582429142995  0.3010238120965977
  0.6545932673427647  0.0001750232100052  0.4099102051390406
  0.5001459764216613  0.0001861473380481  0.3930715558569260
  0.8458451980140951  0.0002751500051941  0.4103705211854821
  0.9013492098295598  0.0005440465665519  0.5227119876802980
  0.7502631117372672  0.0002060575440096  0.5030553658651488
  0.5990996954027938  0.0002184690811992  0.5217168506676659
  0.6514361667228076  0.0001546331136011  0.6330354588083797
  0.4998024741140691  0.0003745873295915  0.6129532562601155
  0.8480557042465638  0.0001664373254001  0.6337334986617609
  0.8986517690346122  0.9997842698062878  0.7421769161818778
  0.7483484678488522  0.0004212841552603  0.7237163815899403
  0.5965992242623982  0.0001436935696798  0.7406781961998886
  0.0901134743181729  0.1159253891479164  0.7644231463804426
  0.1853028676155583  0.2502909792524408  0.7934688532456323
  0.1932673019369652  0.1241326148180628  0.6844807778112715
 
  0.00000000E+00  0.00000000E+00  0.00000000E+00
  0.00000000E+00  0.00000000E+00  0.00000000E+00
  0.00000000E+00  0.00000000E+00  0.00000000E+00
  0.00000000E+00  0.00000000E+00  0.00000000E+00
  0.00000000E+00  0.00000000E+00  0.00000000E+00
  0.00000000E+00  0.00000000E+00  0.00000000E+00
  0.00000000E+00  0.00000000E+00  0.00000000E+00
  0.00000000E+00  0.00000000E+00  0.00000000E+00
  0.00000000E+00  0.00000000E+00  0.00000000E+00
  0.00000000E+00  0.00000000E+00  0.00000000E+00
  0.00000000E+00  0.00000000E+00  0.00000000E+00
  0.00000000E+00  0.00000000E+00  0.00000000E+00
  0.00000000E+00  0.00000000E+00  0.00000000E+00
  0.00000000E+00  0.00000000E+00  0.00000000E+00
  0.00000000E+00  0.00000000E+00  0.00000000E+00
  0.00000000E+00  0.00000000E+00  0.00000000E+00
  0.00000000E+00  0.00000000E+00  0.00000000E+00
  0.00000000E+00  0.00000000E+00  0.00000000E+00
  0.00000000E+00  0.00000000E+00  0.00000000E+00
  0.00000000E+00  0.00000000E+00  0.00000000E+00
  0.00000000E+00  0.00000000E+00  0.00000000E+00
  0.00000000E+00  0.00000000E+00  0.00000000E+00
  0.00000000E+00  0.00000000E+00  0.00000000E+00
  0.00000000E+00  0.00000000E+00  0.00000000E+00
  0.00000000E+00  0.00000000E+00  0.00000000E+00
  0.00000000E+00  0.00000000E+00  0.00000000E+00
  0.00000000E+00  0.00000000E+00  0.00000000E+00
  0.00000000E+00  0.00000000E+00  0.00000000E+00
  0.00000000E+00  0.00000000E+00  0.00000000E+00
  0.00000000E+00  0.00000000E+00  0.00000000E+00
  0.00000000E+00  0.00000000E+00  0.00000000E+00
  0.00000000E+00  0.00000000E+00  0.00000000E+00
  0.00000000E+00  0.00000000E+00  0.00000000E+00
  0.00000000E+00  0.00000000E+00  0.00000000E+00
  0.00000000E+00  0.00000000E+00  0.00000000E+00
  0.00000000E+00  0.00000000E+00  0.00000000E+00
  0.00000000E+00  0.00000000E+00  0.00000000E+00
  0.00000000E+00  0.00000000E+00  0.00000000E+00
  0.00000000E+00  0.00000000E+00  0.00000000E+00
  0.00000000E+00  0.00000000E+00  0.00000000E+00
  0.00000000E+00  0.00000000E+00  0.00000000E+00
  0.00000000E+00  0.00000000E+00  0.00000000E+00
  0.00000000E+00  0.00000000E+00  0.00000000E+00
  0.00000000E+00  0.00000000E+00  0.00000000E+00
  0.00000000E+00  0.00000000E+00  0.00000000E+00
  0.00000000E+00  0.00000000E+00  0.00000000E+00
  0.00000000E+00  0.00000000E+00  0.00000000E+00
  0.00000000E+00  0.00000000E+00  0.00000000E+00
  0.00000000E+00  0.00000000E+00  0.00000000E+00
  0.00000000E+00  0.00000000E+00  0.00000000E+00
  0.00000000E+00  0.00000000E+00  0.00000000E+00
  0.00000000E+00  0.00000000E+00  0.00000000E+00
  0.00000000E+00  0.00000000E+00  0.00000000E+00
  0.00000000E+00  0.00000000E+00  0.00000000E+00
  0.00000000E+00  0.00000000E+00  0.00000000E+00
  0.00000000E+00  0.00000000E+00  0.00000000E+00
  0.00000000E+00  0.00000000E+00  0.00000000E+00
  0.00000000E+00  0.00000000E+00  0.00000000E+00
  0.00000000E+00  0.00000000E+00  0.00000000E+00
  0.00000000E+00  0.00000000E+00  0.00000000E+00
  0.00000000E+00  0.00000000E+00  0.00000000E+00
  0.00000000E+00  0.00000000E+00  0.00000000E+00
  0.00000000E+00  0.00000000E+00  0.00000000E+00
  0.00000000E+00  0.00000000E+00  0.00000000E+00
  0.00000000E+00  0.00000000E+00  0.00000000E+00
  0.00000000E+00  0.00000000E+00  0.00000000E+00
  0.00000000E+00  0.00000000E+00  0.00000000E+00
  0.00000000E+00  0.00000000E+00  0.00000000E+00
  0.00000000E+00  0.00000000E+00  0.00000000E+00
  0.00000000E+00  0.00000000E+00  0.00000000E+00
  0.00000000E+00  0.00000000E+00  0.00000000E+00
  0.00000000E+00  0.00000000E+00  0.00000000E+00
  0.00000000E+00  0.00000000E+00  0.00000000E+00
  0.00000000E+00  0.00000000E+00  0.00000000E+00
  0.00000000E+00  0.00000000E+00  0.00000000E+00
  0.00000000E+00  0.00000000E+00  0.00000000E+00
  0.00000000E+00  0.00000000E+00  0.00000000E+00
  0.00000000E+00  0.00000000E+00  0.00000000E+00
  0.00000000E+00  0.00000000E+00  0.00000000E+00
  0.00000000E+00  0.00000000E+00  0.00000000E+00
  0.00000000E+00  0.00000000E+00  0.00000000E+00
  0.00000000E+00  0.00000000E+00  0.00000000E+00
  0.00000000E+00  0.00000000E+00  0.00000000E+00
  0.00000000E+00  0.00000000E+00  0.00000000E+00
  0.00000000E+00  0.00000000E+00  0.00000000E+00
  0.00000000E+00  0.00000000E+00  0.00000000E+00
  0.00000000E+00  0.00000000E+00  0.00000000E+00
  0.00000000E+00  0.00000000E+00  0.00000000E+00
  0.00000000E+00  0.00000000E+00  0.00000000E+00
  0.00000000E+00  0.00000000E+00  0.00000000E+00
  0.00000000E+00  0.00000000E+00  0.00000000E+00
  0.00000000E+00  0.00000000E+00  0.00000000E+00
  0.00000000E+00  0.00000000E+00  0.00000000E+00
  0.00000000E+00  0.00000000E+00  0.00000000E+00
  0.00000000E+00  0.00000000E+00  0.00000000E+00
  0.00000000E+00  0.00000000E+00  0.00000000E+00
  0.00000000E+00  0.00000000E+00  0.00000000E+00
  0.00000000E+00  0.00000000E+00  0.00000000E+00
  0.00000000E+00  0.00000000E+00  0.00000000E+00
  0.00000000E+00  0.00000000E+00  0.00000000E+00
  0.00000000E+00  0.00000000E+00  0.00000000E+00
  0.00000000E+00  0.00000000E+00  0.00000000E+00
  0.00000000E+00  0.00000000E+00  0.00000000E+00
  0.00000000E+00  0.00000000E+00  0.00000000E+00
  0.00000000E+00  0.00000000E+00  0.00000000E+00
  0.00000000E+00  0.00000000E+00  0.00000000E+00
  0.00000000E+00  0.00000000E+00  0.00000000E+00
  0.00000000E+00  0.00000000E+00  0.00000000E+00
  0.00000000E+00  0.00000000E+00  0.00000000E+00
  0.00000000E+00  0.00000000E+00  0.00000000E+00
  0.00000000E+00  0.00000000E+00  0.00000000E+00
  0.00000000E+00  0.00000000E+00  0.00000000E+00
  0.00000000E+00  0.00000000E+00  0.00000000E+00
  0.00000000E+00  0.00000000E+00  0.00000000E+00
  0.00000000E+00  0.00000000E+00  0.00000000E+00
  0.00000000E+00  0.00000000E+00  0.00000000E+00
  0.00000000E+00  0.00000000E+00  0.00000000E+00
  0.00000000E+00  0.00000000E+00  0.00000000E+00
  0.00000000E+00  0.00000000E+00  0.00000000E+00
  0.00000000E+00  0.00000000E+00  0.00000000E+00
  0.00000000E+00  0.00000000E+00  0.00000000E+00
  0.00000000E+00  0.00000000E+00  0.00000000E+00
  0.00000000E+00  0.00000000E+00  0.00000000E+00
  0.00000000E+00  0.00000000E+00  0.00000000E+00
  0.00000000E+00  0.00000000E+00  0.00000000E+00
  0.00000000E+00  0.00000000E+00  0.00000000E+00
  0.00000000E+00  0.00000000E+00  0.00000000E+00
  0.00000000E+00  0.00000000E+00  0.00000000E+00
  0.00000000E+00  0.00000000E+00  0.00000000E+00
  0.00000000E+00  0.00000000E+00  0.00000000E+00
  0.00000000E+00  0.00000000E+00  0.00000000E+00
  0.00000000E+00  0.00000000E+00  0.00000000E+00
  0.00000000E+00  0.00000000E+00  0.00000000E+00
  0.00000000E+00  0.00000000E+00  0.00000000E+00
  0.00000000E+00  0.00000000E+00  0.00000000E+00
  0.00000000E+00  0.00000000E+00  0.00000000E+00
  0.00000000E+00  0.00000000E+00  0.00000000E+00
  0.00000000E+00  0.00000000E+00  0.00000000E+00
  0.00000000E+00  0.00000000E+00  0.00000000E+00
  0.00000000E+00  0.00000000E+00  0.00000000E+00
  0.00000000E+00  0.00000000E+00  0.00000000E+00
  0.00000000E+00  0.00000000E+00  0.00000000E+00
  0.00000000E+00  0.00000000E+00  0.00000000E+00
  0.00000000E+00  0.00000000E+00  0.00000000E+00
  0.00000000E+00  0.00000000E+00  0.00000000E+00
  0.00000000E+00  0.00000000E+00  0.00000000E+00
  0.00000000E+00  0.00000000E+00  0.00000000E+00
  0.00000000E+00  0.00000000E+00  0.00000000E+00
  0.00000000E+00  0.00000000E+00  0.00000000E+00
  0.00000000E+00  0.00000000E+00  0.00000000E+00
  0.00000000E+00  0.00000000E+00  0.00000000E+00
  0.00000000E+00  0.00000000E+00  0.00000000E+00
  0.00000000E+00  0.00000000E+00  0.00000000E+00
  0.00000000E+00  0.00000000E+00  0.00000000E+00
  0.00000000E+00  0.00000000E+00  0.00000000E+00
  0.00000000E+00  0.00000000E+00  0.00000000E+00
  0.00000000E+00  0.00000000E+00  0.00000000E+00
  0.00000000E+00  0.00000000E+00  0.00000000E+00
  0.00000000E+00  0.00000000E+00  0.00000000E+00
  0.00000000E+00  0.00000000E+00  0.00000000E+00
  0.00000000E+00  0.00000000E+00  0.00000000E+00
  0.00000000E+00  0.00000000E+00  0.00000000E+00
  0.00000000E+00  0.00000000E+00  0.00000000E+00
  0.00000000E+00  0.00000000E+00  0.00000000E+00
  0.00000000E+00  0.00000000E+00  0.00000000E+00
  0.00000000E+00  0.00000000E+00  0.00000000E+00
  0.00000000E+00  0.00000000E+00  0.00000000E+00
  0.00000000E+00  0.00000000E+00  0.00000000E+00
  0.00000000E+00  0.00000000E+00  0.00000000E+00
  0.00000000E+00  0.00000000E+00  0.00000000E+00
  0.00000000E+00  0.00000000E+00  0.00000000E+00
  0.00000000E+00  0.00000000E+00  0.00000000E+00
  0.00000000E+00  0.00000000E+00  0.00000000E+00
  0.00000000E+00  0.00000000E+00  0.00000000E+00
  0.00000000E+00  0.00000000E+00  0.00000000E+00
  0.00000000E+00  0.00000000E+00  0.00000000E+00
  0.00000000E+00  0.00000000E+00  0.00000000E+00
  0.00000000E+00  0.00000000E+00  0.00000000E+00
  0.00000000E+00  0.00000000E+00  0.00000000E+00
  0.00000000E+00  0.00000000E+00  0.00000000E+00
  0.00000000E+00  0.00000000E+00  0.00000000E+00
  0.00000000E+00  0.00000000E+00  0.00000000E+00
  0.00000000E+00  0.00000000E+00  0.00000000E+00
  0.00000000E+00  0.00000000E+00  0.00000000E+00
  0.00000000E+00  0.00000000E+00  0.00000000E+00
  0.00000000E+00  0.00000000E+00  0.00000000E+00
  0.00000000E+00  0.00000000E+00  0.00000000E+00
  0.00000000E+00  0.00000000E+00  0.00000000E+00
  0.00000000E+00  0.00000000E+00  0.00000000E+00
  0.00000000E+00  0.00000000E+00  0.00000000E+00
  0.00000000E+00  0.00000000E+00  0.00000000E+00
  0.00000000E+00  0.00000000E+00  0.00000000E+00
  0.00000000E+00  0.00000000E+00  0.00000000E+00
  0.00000000E+00  0.00000000E+00  0.00000000E+00
  0.00000000E+00  0.00000000E+00  0.00000000E+00
  0.00000000E+00  0.00000000E+00  0.00000000E+00
  0.00000000E+00  0.00000000E+00  0.00000000E+00
  0.00000000E+00  0.00000000E+00  0.00000000E+00
  0.00000000E+00  0.00000000E+00  0.00000000E+00
  0.00000000E+00  0.00000000E+00  0.00000000E+00
  0.00000000E+00  0.00000000E+00  0.00000000E+00
  0.00000000E+00  0.00000000E+00  0.00000000E+00
  0.00000000E+00  0.00000000E+00  0.00000000E+00
  0.00000000E+00  0.00000000E+00  0.00000000E+00
  0.00000000E+00  0.00000000E+00  0.00000000E+00
  0.00000000E+00  0.00000000E+00  0.00000000E+00
  0.00000000E+00  0.00000000E+00  0.00000000E+00
  0.00000000E+00  0.00000000E+00  0.00000000E+00
  0.00000000E+00  0.00000000E+00  0.00000000E+00
  0.00000000E+00  0.00000000E+00  0.00000000E+00
  0.00000000E+00  0.00000000E+00  0.00000000E+00
  0.00000000E+00  0.00000000E+00  0.00000000E+00
  0.00000000E+00  0.00000000E+00  0.00000000E+00
  0.00000000E+00  0.00000000E+00  0.00000000E+00
  0.00000000E+00  0.00000000E+00  0.00000000E+00
  0.00000000E+00  0.00000000E+00  0.00000000E+00
  0.00000000E+00  0.00000000E+00  0.00000000E+00
  0.00000000E+00  0.00000000E+00  0.00000000E+00
  0.00000000E+00  0.00000000E+00  0.00000000E+00
  0.00000000E+00  0.00000000E+00  0.00000000E+00
  0.00000000E+00  0.00000000E+00  0.00000000E+00
  0.00000000E+00  0.00000000E+00  0.00000000E+00
  0.00000000E+00  0.00000000E+00  0.00000000E+00
  0.00000000E+00  0.00000000E+00  0.00000000E+00
  0.00000000E+00  0.00000000E+00  0.00000000E+00
  0.00000000E+00  0.00000000E+00  0.00000000E+00
  0.00000000E+00  0.00000000E+00  0.00000000E+00
  0.00000000E+00  0.00000000E+00  0.00000000E+00
  0.00000000E+00  0.00000000E+00  0.00000000E+00
  0.00000000E+00  0.00000000E+00  0.00000000E+00
  0.00000000E+00  0.00000000E+00  0.00000000E+00
  0.00000000E+00  0.00000000E+00  0.00000000E+00
  0.00000000E+00  0.00000000E+00  0.00000000E+00
  0.00000000E+00  0.00000000E+00  0.00000000E+00
  0.00000000E+00  0.00000000E+00  0.00000000E+00
  0.00000000E+00  0.00000000E+00  0.00000000E+00
  0.00000000E+00  0.00000000E+00  0.00000000E+00
  0.00000000E+00  0.00000000E+00  0.00000000E+00
  0.00000000E+00  0.00000000E+00  0.00000000E+00
  0.00000000E+00  0.00000000E+00  0.00000000E+00
  0.00000000E+00  0.00000000E+00  0.00000000E+00
  0.00000000E+00  0.00000000E+00  0.00000000E+00
