Ta  N Ru                                
   1.00000000000000     
     9.0548154099999998    0.0000000000000000    0.0000000000000000
     0.0000000000000000   11.6775998899999998    0.0000000000000000
     0.0000000000000000    0.0000000000000000   23.4818170799999990
   Ta   N    Ru
    60    60     2
Selective dynamics
Direct
  0.0000000000000000  0.0000000000000000  0.2546926809530987   F   F   F
  0.6670845899906297  0.1250000003211298  0.2638822399803757   F   F   F
  0.3329153514769843  0.1250000003211298  0.2638822399803757   F   F   F
  0.4999999994478088  0.2499999997859135  0.3618861993156202   F   F   F
  0.1650707596845180  0.1250000003211298  0.3684425577811794   F   F   F
  0.8349292403154820  0.1250000003211298  0.3684425577811794   F   F   F
  0.0001517264916277  0.2502037470988052  0.4798229568703936   T   T   T
  0.6656138289802406  0.1249826064265220  0.4781950340163750   T   T   T
  0.3353307366029367  0.1249954203058538  0.4780320796408322   T   T   T
  0.5009865896771259  0.2498273070425508  0.5902210157806046   T   T   T
  0.1665656000134289  0.1249720676058712  0.5894583200725239   T   T   T
  0.8324307460173780  0.1249663588801003  0.5901177127422150   T   T   T
  0.9970327570230449  0.2468943569304032  0.7021032807066593   T   T   T
  0.6759492886000874  0.1249248791066874  0.7031551305287217   T   T   T
  0.3310277410402908  0.1248859322770892  0.6977712135590812   T   T   T
  0.0000000000000000  0.2499999997859135  0.2546926809530987   F   F   F
  0.6670845899906297  0.3750000001070433  0.2638822399803757   F   F   F
  0.3329153514769843  0.3750000001070433  0.2638822399803757   F   F   F
  0.4999999994478088  0.5000000004281731  0.3618861993156202   F   F   F
  0.1650707596845180  0.3750000001070433  0.3684425577811794   F   F   F
  0.8349292403154820  0.3750000001070433  0.3684425577811794   F   F   F
  0.0006667317357201  0.4998976767589370  0.4798770951384611   T   T   T
  0.6657411286082279  0.3750788301174691  0.4781677283451084   T   T   T
  0.3354789518863371  0.3750623012469244  0.4781489854480399   T   T   T
  0.5008911905588872  0.5002805563070969  0.5909280299110140   T   T   T
  0.1686853694068954  0.3752622185756554  0.5902459840082733   T   T   T
  0.8324196437908123  0.3752995817194689  0.5903130140215143   T   T   T
  0.0022999794892673  0.4998024547418716  0.7022783411836342   T   T   T
  0.6751235898666822  0.3767468476865253  0.7046161429490770   T   T   T
  0.3304761543200236  0.3781972560302836  0.7054594288874174   T   T   T
  0.0000000000000000  0.5000000004281731  0.2546926809530987   F   F   F
  0.6670845899906297  0.6249999998929567  0.2638822399803757   F   F   F
  0.3329153514769843  0.6249999998929567  0.2638822399803757   F   F   F
  0.4999999994478088  0.7500000002140865  0.3618861993156202   F   F   F
  0.1650707596845180  0.6249999998929567  0.3684425577811794   F   F   F
  0.8349292403154820  0.6249999998929567  0.3684425577811794   F   F   F
  0.0005804934370387  0.7500145479690397  0.4798716210495830   T   T   T
  0.6654580239845168  0.6249813386181473  0.4782429806651432   T   T   T
  0.3353555519963137  0.6249614454377425  0.4781838239195625   T   T   T
  0.5008802786185430  0.7496278521906619  0.5908814410786881   T   T   T
  0.1687483327246892  0.6249522235638724  0.5904541957256880   T   T   T
  0.8334002085233275  0.6249464923581806  0.5902313642989134   T   T   T
  0.0022112953485298  0.7500165720433399  0.7022591556255261   T   T   T
  0.6710368629480759  0.6249268453154403  0.7039703073940191   T   T   T
  0.3302311673027182  0.6249038691308396  0.7041858988896019   T   T   T
  0.0000000000000000  0.7500000002140865  0.2546926809530987   F   F   F
  0.6670845899906297  0.8750000005352163  0.2638822399803757   F   F   F
  0.3329153514769843  0.8750000005352163  0.2638822399803757   F   F   F
  0.4999999994478088  0.0000000000000000  0.3618861993156202   F   F   F
  0.1650707596845180  0.8750000005352163  0.3684425577811794   F   F   F
  0.8349292403154820  0.8750000005352163  0.3684425577811794   F   F   F
  0.0000682967789748 -0.0002401177590328  0.4798184558942694   T   T   T
  0.6656521099310282  0.8748831121302000  0.4781481430264550   T   T   T
  0.3354265979952433  0.8748960284064209  0.4781401485453529   T   T   T
  0.5010080958559442  0.0001357338451289  0.5901628853586807   T   T   T
  0.1686432744947846  0.8746816882824781  0.5901698774620256   T   T   T
  0.8323398080940788  0.8746210900864502  0.5902993174628650   T   T   T
  0.9970830176786249  0.0029493212094796  0.7020347181055305   T   T   T
  0.6751353783179713  0.8730911035134968  0.7045783658077740   T   T   T
  0.3305604289738459  0.8715542537099467  0.7052889945098713   T   T   T
  0.8141011533980276  0.0000000000000000  0.3013105672926031   F   F   F
  0.4999999994478088  0.0000000000000000  0.2564174481620327   F   F   F
  0.1858988466019724  0.0000000000000000  0.3013105672926031   F   F   F
  0.3088456122590841  0.2499999997859135  0.4099867722441957   F   F   F
  0.0000000000000000  0.2499999997859135  0.3930971035158137   F   F   F
  0.6911543877409159  0.2499999997859135  0.4099867722441957   F   F   F
  0.8025071389614170  0.2501264457179473  0.5222723501017440   T   T   T
  0.5004800480835072  0.2500660593208225  0.5025118834133696   T   T   T
  0.1982067559075310  0.2503836169403317  0.5220213267991178   T   T   T
  0.3049550542902587  0.2522463944345474  0.6332436912008818   T   T   T
  0.0000350495281167  0.2505206546472482  0.6136680733405637   T   T   T
  0.6957159674093716  0.2510750127702392  0.6338765640936751   T   T   T
  0.8064536810711584  0.2501682426906989  0.7418040512950793   T   T   T
  0.4996817940889014  0.2457296061004111  0.7288555077693930   T   T   T
  0.1925572984567717  0.2528357168197081  0.7440230269420957   T   T   T
  0.8141011533980276  0.2499999997859135  0.3013105672926031   F   F   F
  0.4999999994478088  0.2499999997859135  0.2564174481620327   F   F   F
  0.1858988466019724  0.2499999997859135  0.3013105672926031   F   F   F
  0.3088456122590841  0.5000000004281731  0.4099867722441957   F   F   F
  0.0000000000000000  0.5000000004281731  0.3930971035158137   F   F   F
  0.6911543877409159  0.5000000004281731  0.4099867722441957   F   F   F
  0.8030121337631737  0.5000275395410083  0.5222466256621027   T   T   T
  0.5006199116550049  0.5000964008076088  0.5029449794977807   T   T   T
  0.1985279131111587  0.4998892468752174  0.5223262179714615   T   T   T
  0.3050372597274306  0.4995844193657857  0.6337557742462361   T   T   T
  0.0009394680889708  0.4999217591525619  0.6138987740001133   T   T   T
  0.6966684997022852  0.5003893864079342  0.6335031663497745   T   T   T
  0.8079450549314355  0.5004216778346954  0.7406442810126491   T   T   T
  0.5009464142158438  0.4986460305504109  0.7247555917303669   T   T   T
  0.1963665068809289  0.5002950443731810  0.7416312553678535   T   T   T
  0.8141011533980276  0.5000000004281731  0.3013105672926031   F   F   F
  0.4999999994478088  0.5000000004281731  0.2564174481620327   F   F   F
  0.1858988466019724  0.5000000004281731  0.3013105672926031   F   F   F
  0.3088456122590841  0.7500000002140865  0.4099867722441957   F   F   F
  0.0000000000000000  0.7500000002140865  0.3930971035158137   F   F   F
  0.6911543877409159  0.7500000002140865  0.4099867722441957   F   F   F
  0.8029254525148953  0.7499027274120512  0.5222419362129929   T   T   T
  0.5005606568503527  0.7498195735022648  0.5029079858896387   T   T   T
  0.1984746221173966  0.7500107008303151  0.5222927244870110   T   T   T
  0.3050145181085538  0.7502937816802360  0.6336833297867093   T   T   T
  0.0009118540057109  0.7499847712997244  0.6138794931162765   T   T   T
  0.6966326452834548  0.7495491323562448  0.6334768191905766   T   T   T
  0.8078600454216175  0.7494539924957534  0.7406491254885847   T   T   T
  0.5009420970401808  0.7510789307748099  0.7247113620105353   T   T   T
  0.1963281939324040  0.7495733076434764  0.7415486351347067   T   T   T
  0.8141011533980276  0.7500000002140865  0.3013105672926031   F   F   F
  0.4999999994478088  0.7500000002140865  0.2564174481620327   F   F   F
  0.1858988466019724  0.7500000002140865  0.3013105672926031   F   F   F
  0.3088456122590841  0.0000000000000000  0.4099867722441957   F   F   F
  0.0000000000000000  0.0000000000000000  0.3930971035158137   F   F   F
  0.6911543877409159  0.0000000000000000  0.4099867722441957   F   F   F
  0.8024390435390255 -0.0002084894407378  0.5222680539771161   T   T   T
  0.5004292844267807 -0.0000820198591600  0.5024723480798375   T   T   T
  0.1981436045376584 -0.0004299321201175  0.5219907395970912   T   T   T
  0.3050002676350535  0.9976748506985823  0.6331486278242374   T   T   T
  0.0000396796617796 -0.0006142002833541  0.6136105724708582   T   T   T
  0.6957330825367809  0.9988562971523087  0.6338239742044438   T   T   T
  0.8065305734834257 -0.0003341232654015  0.7417660095071669   T   T   T
  0.4998019813069827  0.0038682236099263  0.7287454775879306   T   T   T
  0.1927619800079780 -0.0030342555591150  0.7438645914547621   T   T   T
  0.2106818075481000  0.1246806428193176  0.7983049777883671   T   T   T
  0.4783339716825988  0.1245803779237690  0.7946764283758744   T   T   T
 
  0.00000000E+00  0.00000000E+00  0.00000000E+00
  0.00000000E+00  0.00000000E+00  0.00000000E+00
  0.00000000E+00  0.00000000E+00  0.00000000E+00
  0.00000000E+00  0.00000000E+00  0.00000000E+00
  0.00000000E+00  0.00000000E+00  0.00000000E+00
  0.00000000E+00  0.00000000E+00  0.00000000E+00
  0.00000000E+00  0.00000000E+00  0.00000000E+00
  0.00000000E+00  0.00000000E+00  0.00000000E+00
  0.00000000E+00  0.00000000E+00  0.00000000E+00
  0.00000000E+00  0.00000000E+00  0.00000000E+00
  0.00000000E+00  0.00000000E+00  0.00000000E+00
  0.00000000E+00  0.00000000E+00  0.00000000E+00
  0.00000000E+00  0.00000000E+00  0.00000000E+00
  0.00000000E+00  0.00000000E+00  0.00000000E+00
  0.00000000E+00  0.00000000E+00  0.00000000E+00
  0.00000000E+00  0.00000000E+00  0.00000000E+00
  0.00000000E+00  0.00000000E+00  0.00000000E+00
  0.00000000E+00  0.00000000E+00  0.00000000E+00
  0.00000000E+00  0.00000000E+00  0.00000000E+00
  0.00000000E+00  0.00000000E+00  0.00000000E+00
  0.00000000E+00  0.00000000E+00  0.00000000E+00
  0.00000000E+00  0.00000000E+00  0.00000000E+00
  0.00000000E+00  0.00000000E+00  0.00000000E+00
  0.00000000E+00  0.00000000E+00  0.00000000E+00
  0.00000000E+00  0.00000000E+00  0.00000000E+00
  0.00000000E+00  0.00000000E+00  0.00000000E+00
  0.00000000E+00  0.00000000E+00  0.00000000E+00
  0.00000000E+00  0.00000000E+00  0.00000000E+00
  0.00000000E+00  0.00000000E+00  0.00000000E+00
  0.00000000E+00  0.00000000E+00  0.00000000E+00
  0.00000000E+00  0.00000000E+00  0.00000000E+00
  0.00000000E+00  0.00000000E+00  0.00000000E+00
  0.00000000E+00  0.00000000E+00  0.00000000E+00
  0.00000000E+00  0.00000000E+00  0.00000000E+00
  0.00000000E+00  0.00000000E+00  0.00000000E+00
  0.00000000E+00  0.00000000E+00  0.00000000E+00
  0.00000000E+00  0.00000000E+00  0.00000000E+00
  0.00000000E+00  0.00000000E+00  0.00000000E+00
  0.00000000E+00  0.00000000E+00  0.00000000E+00
  0.00000000E+00  0.00000000E+00  0.00000000E+00
  0.00000000E+00  0.00000000E+00  0.00000000E+00
  0.00000000E+00  0.00000000E+00  0.00000000E+00
  0.00000000E+00  0.00000000E+00  0.00000000E+00
  0.00000000E+00  0.00000000E+00  0.00000000E+00
  0.00000000E+00  0.00000000E+00  0.00000000E+00
  0.00000000E+00  0.00000000E+00  0.00000000E+00
  0.00000000E+00  0.00000000E+00  0.00000000E+00
  0.00000000E+00  0.00000000E+00  0.00000000E+00
  0.00000000E+00  0.00000000E+00  0.00000000E+00
  0.00000000E+00  0.00000000E+00  0.00000000E+00
  0.00000000E+00  0.00000000E+00  0.00000000E+00
  0.00000000E+00  0.00000000E+00  0.00000000E+00
  0.00000000E+00  0.00000000E+00  0.00000000E+00
  0.00000000E+00  0.00000000E+00  0.00000000E+00
  0.00000000E+00  0.00000000E+00  0.00000000E+00
  0.00000000E+00  0.00000000E+00  0.00000000E+00
  0.00000000E+00  0.00000000E+00  0.00000000E+00
  0.00000000E+00  0.00000000E+00  0.00000000E+00
  0.00000000E+00  0.00000000E+00  0.00000000E+00
  0.00000000E+00  0.00000000E+00  0.00000000E+00
  0.00000000E+00  0.00000000E+00  0.00000000E+00
  0.00000000E+00  0.00000000E+00  0.00000000E+00
  0.00000000E+00  0.00000000E+00  0.00000000E+00
  0.00000000E+00  0.00000000E+00  0.00000000E+00
  0.00000000E+00  0.00000000E+00  0.00000000E+00
  0.00000000E+00  0.00000000E+00  0.00000000E+00
  0.00000000E+00  0.00000000E+00  0.00000000E+00
  0.00000000E+00  0.00000000E+00  0.00000000E+00
  0.00000000E+00  0.00000000E+00  0.00000000E+00
  0.00000000E+00  0.00000000E+00  0.00000000E+00
  0.00000000E+00  0.00000000E+00  0.00000000E+00
  0.00000000E+00  0.00000000E+00  0.00000000E+00
  0.00000000E+00  0.00000000E+00  0.00000000E+00
  0.00000000E+00  0.00000000E+00  0.00000000E+00
  0.00000000E+00  0.00000000E+00  0.00000000E+00
  0.00000000E+00  0.00000000E+00  0.00000000E+00
  0.00000000E+00  0.00000000E+00  0.00000000E+00
  0.00000000E+00  0.00000000E+00  0.00000000E+00
  0.00000000E+00  0.00000000E+00  0.00000000E+00
  0.00000000E+00  0.00000000E+00  0.00000000E+00
  0.00000000E+00  0.00000000E+00  0.00000000E+00
  0.00000000E+00  0.00000000E+00  0.00000000E+00
  0.00000000E+00  0.00000000E+00  0.00000000E+00
  0.00000000E+00  0.00000000E+00  0.00000000E+00
  0.00000000E+00  0.00000000E+00  0.00000000E+00
  0.00000000E+00  0.00000000E+00  0.00000000E+00
  0.00000000E+00  0.00000000E+00  0.00000000E+00
  0.00000000E+00  0.00000000E+00  0.00000000E+00
  0.00000000E+00  0.00000000E+00  0.00000000E+00
  0.00000000E+00  0.00000000E+00  0.00000000E+00
  0.00000000E+00  0.00000000E+00  0.00000000E+00
  0.00000000E+00  0.00000000E+00  0.00000000E+00
  0.00000000E+00  0.00000000E+00  0.00000000E+00
  0.00000000E+00  0.00000000E+00  0.00000000E+00
  0.00000000E+00  0.00000000E+00  0.00000000E+00
  0.00000000E+00  0.00000000E+00  0.00000000E+00
  0.00000000E+00  0.00000000E+00  0.00000000E+00
  0.00000000E+00  0.00000000E+00  0.00000000E+00
  0.00000000E+00  0.00000000E+00  0.00000000E+00
  0.00000000E+00  0.00000000E+00  0.00000000E+00
  0.00000000E+00  0.00000000E+00  0.00000000E+00
  0.00000000E+00  0.00000000E+00  0.00000000E+00
  0.00000000E+00  0.00000000E+00  0.00000000E+00
  0.00000000E+00  0.00000000E+00  0.00000000E+00
  0.00000000E+00  0.00000000E+00  0.00000000E+00
  0.00000000E+00  0.00000000E+00  0.00000000E+00
  0.00000000E+00  0.00000000E+00  0.00000000E+00
  0.00000000E+00  0.00000000E+00  0.00000000E+00
  0.00000000E+00  0.00000000E+00  0.00000000E+00
  0.00000000E+00  0.00000000E+00  0.00000000E+00
  0.00000000E+00  0.00000000E+00  0.00000000E+00
  0.00000000E+00  0.00000000E+00  0.00000000E+00
  0.00000000E+00  0.00000000E+00  0.00000000E+00
  0.00000000E+00  0.00000000E+00  0.00000000E+00
  0.00000000E+00  0.00000000E+00  0.00000000E+00
  0.00000000E+00  0.00000000E+00  0.00000000E+00
  0.00000000E+00  0.00000000E+00  0.00000000E+00
  0.00000000E+00  0.00000000E+00  0.00000000E+00
  0.00000000E+00  0.00000000E+00  0.00000000E+00
  0.00000000E+00  0.00000000E+00  0.00000000E+00
  0.00000000E+00  0.00000000E+00  0.00000000E+00
  0.00000000E+00  0.00000000E+00  0.00000000E+00
