Ta  N Cu                                
   1.00000000000000     
     9.0548154099999998    0.0000000000000000    0.0000000000000000
     0.0000000000000000   11.6775998899999998    0.0000000000000000
     0.0000000000000000    0.0000000000000000   23.4818170799999990
   Ta   N    Cu
    60    60     2
Selective dynamics
Direct
  0.0000000000000000  0.0000000000000000  0.2546926809530987   F   F   F
  0.6670845899906297  0.1250000003211298  0.2638822399803757   F   F   F
  0.3329153514769843  0.1250000003211298  0.2638822399803757   F   F   F
  0.4999999994478088  0.2499999997859135  0.3618861993156202   F   F   F
  0.1650707596845180  0.1250000003211298  0.3684425577811794   F   F   F
  0.8349292403154820  0.1250000003211298  0.3684425577811794   F   F   F
  0.0000820245326824  0.2498744497025202  0.4797769098237590   T   T   T
  0.6649367757393616  0.1248964565453348  0.4780878842260876   T   T   T
  0.3346863808289109  0.1249026110912351  0.4782046627030706   T   T   T
  0.4995996998318867  0.2501335953985217  0.5912601505951322   T   T   T
  0.1678730783600786  0.1248166726021532  0.5904207062537699   T   T   T
  0.8317961291385697  0.1248242337795193  0.5900442713634196   T   T   T
  0.9995270921193186  0.2503405362322620  0.7013033127587404   T   T   T
  0.6728319756308648  0.1247304132035679  0.7036979754646437   T   T   T
  0.3365079366495426  0.1247545138743807  0.7022849459699908   T   T   T
  0.0000000000000000  0.2499999997859135  0.2546926809530987   F   F   F
  0.6670845899906297  0.3750000001070433  0.2638822399803757   F   F   F
  0.3329153514769843  0.3750000001070433  0.2638822399803757   F   F   F
  0.4999999994478088  0.5000000004281731  0.3618861993156202   F   F   F
  0.1650707596845180  0.3750000001070433  0.3684425577811794   F   F   F
  0.8349292403154820  0.3750000001070433  0.3684425577811794   F   F   F
  0.0000703700282102  0.4999406280722690  0.4797958972191996   T   T   T
  0.6645250154864004  0.3748998244316099  0.4780368842729599   T   T   T
  0.3353560893843530  0.3748673433956050  0.4781144495273751   T   T   T
  0.4999155448138526  0.4999743030616088  0.5917821395681322   T   T   T
  0.1690345429002044  0.3746308972160377  0.5898037864736453   T   T   T
  0.8307739957743036  0.3746132174674260  0.5894589451203924   T   T   T
  0.0010621875034372  0.4994689295977445  0.6957102978766705   T   T   T
  0.6724883065940894  0.3738315377074564  0.7044792386076728   T   T   T
  0.3301534802204504  0.3757752776778485  0.7054058932497014   T   T   T
  0.0000000000000000  0.5000000004281731  0.2546926809530987   F   F   F
  0.6670845899906297  0.6249999998929567  0.2638822399803757   F   F   F
  0.3329153514769843  0.6249999998929567  0.2638822399803757   F   F   F
  0.4999999994478088  0.7500000002140865  0.3618861993156202   F   F   F
  0.1650707596845180  0.6249999998929567  0.3684425577811794   F   F   F
  0.8349292403154820  0.6249999998929567  0.3684425577811794   F   F   F
  1.0000416581461935  0.7501036608576025  0.4797527218157237   T   T   T
  0.6644026000890149  0.6250124841810897  0.4780012411163232   T   T   T
  0.3353563968127020  0.6250105102562081  0.4780410263468647   T   T   T
  0.4998561898101594  0.7497684891258299  0.5911155254392122   T   T   T
  0.1689914636764171  0.6252109704724109  0.5896216362834523   T   T   T
  0.8309814968470737  0.6252127816516958  0.5895286181580459   T   T   T
  0.0007317920866302  0.7483205335453346  0.7015688024025589   T   T   T
  0.6715498307539773  0.6259873883390585  0.7045872433892661   T   T   T
  0.3284103371083485  0.6257262185369868  0.7047315142406062   T   T   T
  0.0000000000000000  0.7500000002140865  0.2546926809530987   F   F   F
  0.6670845899906297  0.8750000005352163  0.2638822399803757   F   F   F
  0.3329153514769843  0.8750000005352163  0.2638822399803757   F   F   F
  0.4999999994478088  0.0000000000000000  0.3618861993156202   F   F   F
  0.1650707596845180  0.8750000005352163  0.3684425577811794   F   F   F
  0.8349292403154820  0.8750000005352163  0.3684425577811794   F   F   F
  0.0000806021643559  0.9998572667577406  0.4798266142229817   T   T   T
  0.6649509192392938  0.8750281843203233  0.4781460544867233   T   T   T
  0.3348656745679021  0.8750524896091396  0.4782384318448290   T   T   T
  0.4995781782660191  0.9996845179960203  0.5911437966552618   T   T   T
  0.1679846505182878  0.8747800604101654  0.5903432135510027   T   T   T
  0.8316646316246152  0.8748556150862081  0.5899751600764371   T   T   T
  0.9994082649385013  0.0003413216105339  0.7017436923941013   T   T   T
  0.6728281533470366  0.8749099857871430  0.7040209333604391   T   T   T
  0.3300830199257069  0.8730604389174931  0.7048554448961923   T   T   T
  0.8141011533980276  0.0000000000000000  0.3013105672926031   F   F   F
  0.4999999994478088  0.0000000000000000  0.2564174481620327   F   F   F
  0.1858988466019724  0.0000000000000000  0.3013105672926031   F   F   F
  0.3088456122590841  0.2499999997859135  0.4099867722441957   F   F   F
  0.0000000000000000  0.2499999997859135  0.3930971035158137   F   F   F
  0.6911543877409159  0.2499999997859135  0.4099867722441957   F   F   F
  0.8020133634225102  0.2496914684104964  0.5219501814794861   T   T   T
  0.4998343557032690  0.2497027777314867  0.5030984180647552   T   T   T
  0.1979360100346646  0.2497013552609244  0.5221978726738513   T   T   T
  0.3032705798836399  0.2508078686879638  0.6343498414672584   T   T   T
  0.9996981563802291  0.2497054180704490  0.6130641817549483   T   T   T
  0.6960431796243168  0.2503252554085439  0.6334492674433769   T   T   T
  0.8072685519884786  0.2500234971645846  0.7408642783028087   T   T   T
  0.5016333625282764  0.2508499263929612  0.7239756894153027   T   T   T
  0.1956889115004754  0.2524377621371664  0.7439738023746812   T   T   T
  0.8141011533980276  0.2499999997859135  0.3013105672926031   F   F   F
  0.4999999994478088  0.2499999997859135  0.2564174481620327   F   F   F
  0.1858988466019724  0.2499999997859135  0.3013105672926031   F   F   F
  0.3088456122590841  0.5000000004281731  0.4099867722441957   F   F   F
  0.0000000000000000  0.5000000004281731  0.3930971035158137   F   F   F
  0.6911543877409159  0.5000000004281731  0.4099867722441957   F   F   F
  0.8012083919498729  0.4999311402530821  0.5216377722812910   T   T   T
  0.4999455874598019  0.4999814700780367  0.5033692558774630   T   T   T
  0.1988103815276865  0.4997838862785358  0.5217732724688181   T   T   T
  0.3025269501151624  0.4998116434083081  0.6346647653594145   T   T   T
  0.9999437444564917  0.4999464530887434  0.6087347833474809   T   T   T
  0.6973236661281375  0.4999295844421920  0.6345118845161276   T   T   T
  0.8147353045874831  0.4999982170854640  0.7433950870311627   T   T   T
  0.4998002596417605  0.4989832972878606  0.7256434214155013   T   T   T
  0.1860901414745885  0.5002094783322611  0.7437897745219755   T   T   T
  0.8141011533980276  0.5000000004281731  0.3013105672926031   F   F   F
  0.4999999994478088  0.5000000004281731  0.2564174481620327   F   F   F
  0.1858988466019724  0.5000000004281731  0.3013105672926031   F   F   F
  0.3088456122590841  0.7500000002140865  0.4099867722441957   F   F   F
  0.0000000000000000  0.7500000002140865  0.3930971035158137   F   F   F
  0.6911543877409159  0.7500000002140865  0.4099867722441957   F   F   F
  0.8019965073936900  0.7501842478882612  0.5220003534212064   T   T   T
  0.4999098211236968  0.7500400625808650  0.5029584230071837   T   T   T
  0.1979484915689426  0.7503252860117290  0.5221481881597997   T   T   T
  0.3040316715661885  0.7497467053912427  0.6337843647886211   T   T   T
  0.9998925838885097  0.7500400737429967  0.6131599071977359   T   T   T
  0.6957532820050967  0.7496996791402885  0.6335774899225722   T   T   T
  0.8070652088143717  0.7490808381823527  0.7409180306127796   T   T   T
  0.5000488706072928  0.7492359148226770  0.7238498036032877   T   T   T
  0.1941907766520398  0.7491471195127265  0.7414176815964859   T   T   T
  0.8141011533980276  0.7500000002140865  0.3013105672926031   F   F   F
  0.4999999994478088  0.7500000002140865  0.2564174481620327   F   F   F
  0.1858988466019724  0.7500000002140865  0.3013105672926031   F   F   F
  0.3088456122590841  0.0000000000000000  0.4099867722441957   F   F   F
  0.0000000000000000  0.0000000000000000  0.3930971035158137   F   F   F
  0.6911543877409159  0.0000000000000000  0.4099867722441957   F   F   F
  0.8022192021047571  0.9998865762255702  0.5221005126937551   T   T   T
  0.4998068454857869  0.0000898665740120  0.5030469669857996   T   T   T
  0.1977025151785399  0.9998545708167726  0.5223710008545643   T   T   T
  0.3033639573558796  0.9990443977031607  0.6342312597741884   T   T   T
  0.9996602972571674  0.9997016836448551  0.6135101901693849   T   T   T
  0.6959162050061485  0.9995332250957871  0.6333015250421838   T   T   T
  0.8072889759299806  0.0000850268843601  0.7406413006850254   T   T   T
  0.5016087922665269  0.0002129213859147  0.7243213002143130   T   T   T
  0.1953774336411404  0.9974871088999538  0.7436199409775393   T   T   T
  0.1420792312262057  0.1248132422452419  0.7910722704512412   T   T   T
  0.9952372404581027  0.5029699302970236  0.7986672864624264   T   T   T
 
  0.00000000E+00  0.00000000E+00  0.00000000E+00
  0.00000000E+00  0.00000000E+00  0.00000000E+00
  0.00000000E+00  0.00000000E+00  0.00000000E+00
  0.00000000E+00  0.00000000E+00  0.00000000E+00
  0.00000000E+00  0.00000000E+00  0.00000000E+00
  0.00000000E+00  0.00000000E+00  0.00000000E+00
  0.00000000E+00  0.00000000E+00  0.00000000E+00
  0.00000000E+00  0.00000000E+00  0.00000000E+00
  0.00000000E+00  0.00000000E+00  0.00000000E+00
  0.00000000E+00  0.00000000E+00  0.00000000E+00
  0.00000000E+00  0.00000000E+00  0.00000000E+00
  0.00000000E+00  0.00000000E+00  0.00000000E+00
  0.00000000E+00  0.00000000E+00  0.00000000E+00
  0.00000000E+00  0.00000000E+00  0.00000000E+00
  0.00000000E+00  0.00000000E+00  0.00000000E+00
  0.00000000E+00  0.00000000E+00  0.00000000E+00
  0.00000000E+00  0.00000000E+00  0.00000000E+00
  0.00000000E+00  0.00000000E+00  0.00000000E+00
  0.00000000E+00  0.00000000E+00  0.00000000E+00
  0.00000000E+00  0.00000000E+00  0.00000000E+00
  0.00000000E+00  0.00000000E+00  0.00000000E+00
  0.00000000E+00  0.00000000E+00  0.00000000E+00
  0.00000000E+00  0.00000000E+00  0.00000000E+00
  0.00000000E+00  0.00000000E+00  0.00000000E+00
  0.00000000E+00  0.00000000E+00  0.00000000E+00
  0.00000000E+00  0.00000000E+00  0.00000000E+00
  0.00000000E+00  0.00000000E+00  0.00000000E+00
  0.00000000E+00  0.00000000E+00  0.00000000E+00
  0.00000000E+00  0.00000000E+00  0.00000000E+00
  0.00000000E+00  0.00000000E+00  0.00000000E+00
  0.00000000E+00  0.00000000E+00  0.00000000E+00
  0.00000000E+00  0.00000000E+00  0.00000000E+00
  0.00000000E+00  0.00000000E+00  0.00000000E+00
  0.00000000E+00  0.00000000E+00  0.00000000E+00
  0.00000000E+00  0.00000000E+00  0.00000000E+00
  0.00000000E+00  0.00000000E+00  0.00000000E+00
  0.00000000E+00  0.00000000E+00  0.00000000E+00
  0.00000000E+00  0.00000000E+00  0.00000000E+00
  0.00000000E+00  0.00000000E+00  0.00000000E+00
  0.00000000E+00  0.00000000E+00  0.00000000E+00
  0.00000000E+00  0.00000000E+00  0.00000000E+00
  0.00000000E+00  0.00000000E+00  0.00000000E+00
  0.00000000E+00  0.00000000E+00  0.00000000E+00
  0.00000000E+00  0.00000000E+00  0.00000000E+00
  0.00000000E+00  0.00000000E+00  0.00000000E+00
  0.00000000E+00  0.00000000E+00  0.00000000E+00
  0.00000000E+00  0.00000000E+00  0.00000000E+00
  0.00000000E+00  0.00000000E+00  0.00000000E+00
  0.00000000E+00  0.00000000E+00  0.00000000E+00
  0.00000000E+00  0.00000000E+00  0.00000000E+00
  0.00000000E+00  0.00000000E+00  0.00000000E+00
  0.00000000E+00  0.00000000E+00  0.00000000E+00
  0.00000000E+00  0.00000000E+00  0.00000000E+00
  0.00000000E+00  0.00000000E+00  0.00000000E+00
  0.00000000E+00  0.00000000E+00  0.00000000E+00
  0.00000000E+00  0.00000000E+00  0.00000000E+00
  0.00000000E+00  0.00000000E+00  0.00000000E+00
  0.00000000E+00  0.00000000E+00  0.00000000E+00
  0.00000000E+00  0.00000000E+00  0.00000000E+00
  0.00000000E+00  0.00000000E+00  0.00000000E+00
  0.00000000E+00  0.00000000E+00  0.00000000E+00
  0.00000000E+00  0.00000000E+00  0.00000000E+00
  0.00000000E+00  0.00000000E+00  0.00000000E+00
  0.00000000E+00  0.00000000E+00  0.00000000E+00
  0.00000000E+00  0.00000000E+00  0.00000000E+00
  0.00000000E+00  0.00000000E+00  0.00000000E+00
  0.00000000E+00  0.00000000E+00  0.00000000E+00
  0.00000000E+00  0.00000000E+00  0.00000000E+00
  0.00000000E+00  0.00000000E+00  0.00000000E+00
  0.00000000E+00  0.00000000E+00  0.00000000E+00
  0.00000000E+00  0.00000000E+00  0.00000000E+00
  0.00000000E+00  0.00000000E+00  0.00000000E+00
  0.00000000E+00  0.00000000E+00  0.00000000E+00
  0.00000000E+00  0.00000000E+00  0.00000000E+00
  0.00000000E+00  0.00000000E+00  0.00000000E+00
  0.00000000E+00  0.00000000E+00  0.00000000E+00
  0.00000000E+00  0.00000000E+00  0.00000000E+00
  0.00000000E+00  0.00000000E+00  0.00000000E+00
  0.00000000E+00  0.00000000E+00  0.00000000E+00
  0.00000000E+00  0.00000000E+00  0.00000000E+00
  0.00000000E+00  0.00000000E+00  0.00000000E+00
  0.00000000E+00  0.00000000E+00  0.00000000E+00
  0.00000000E+00  0.00000000E+00  0.00000000E+00
  0.00000000E+00  0.00000000E+00  0.00000000E+00
  0.00000000E+00  0.00000000E+00  0.00000000E+00
  0.00000000E+00  0.00000000E+00  0.00000000E+00
  0.00000000E+00  0.00000000E+00  0.00000000E+00
  0.00000000E+00  0.00000000E+00  0.00000000E+00
  0.00000000E+00  0.00000000E+00  0.00000000E+00
  0.00000000E+00  0.00000000E+00  0.00000000E+00
  0.00000000E+00  0.00000000E+00  0.00000000E+00
  0.00000000E+00  0.00000000E+00  0.00000000E+00
  0.00000000E+00  0.00000000E+00  0.00000000E+00
  0.00000000E+00  0.00000000E+00  0.00000000E+00
  0.00000000E+00  0.00000000E+00  0.00000000E+00
  0.00000000E+00  0.00000000E+00  0.00000000E+00
  0.00000000E+00  0.00000000E+00  0.00000000E+00
  0.00000000E+00  0.00000000E+00  0.00000000E+00
  0.00000000E+00  0.00000000E+00  0.00000000E+00
  0.00000000E+00  0.00000000E+00  0.00000000E+00
  0.00000000E+00  0.00000000E+00  0.00000000E+00
  0.00000000E+00  0.00000000E+00  0.00000000E+00
  0.00000000E+00  0.00000000E+00  0.00000000E+00
  0.00000000E+00  0.00000000E+00  0.00000000E+00
  0.00000000E+00  0.00000000E+00  0.00000000E+00
  0.00000000E+00  0.00000000E+00  0.00000000E+00
  0.00000000E+00  0.00000000E+00  0.00000000E+00
  0.00000000E+00  0.00000000E+00  0.00000000E+00
  0.00000000E+00  0.00000000E+00  0.00000000E+00
  0.00000000E+00  0.00000000E+00  0.00000000E+00
  0.00000000E+00  0.00000000E+00  0.00000000E+00
  0.00000000E+00  0.00000000E+00  0.00000000E+00
  0.00000000E+00  0.00000000E+00  0.00000000E+00
  0.00000000E+00  0.00000000E+00  0.00000000E+00
  0.00000000E+00  0.00000000E+00  0.00000000E+00
  0.00000000E+00  0.00000000E+00  0.00000000E+00
  0.00000000E+00  0.00000000E+00  0.00000000E+00
  0.00000000E+00  0.00000000E+00  0.00000000E+00
  0.00000000E+00  0.00000000E+00  0.00000000E+00
  0.00000000E+00  0.00000000E+00  0.00000000E+00
  0.00000000E+00  0.00000000E+00  0.00000000E+00
  0.00000000E+00  0.00000000E+00  0.00000000E+00
