generated by phonopy                    
   1.00000000000000     
     7.6685261579320612    0.0006164545663950    0.0303490588408039
    -3.8332205537405657    6.6257585202384162    0.1569428441891937
     0.0532844085342311    0.3337823976925879   13.4904689081816436
   B    N    Ga
    32    36     4
Direct
  0.1178339357882231  0.2514874375522107 -0.0106315324951891
  0.4603736646542123  0.2514322745422086 -0.0102920381560470
  0.7862108334000608  0.2461894433974758  0.0004538521626733
  0.1210553313763869  0.5756125688243263  0.0032680034870105
  0.4526684602592883  0.5786236078853264 -0.0110071413002401
  0.7804358134435306  0.5751392026783373  0.0047960398706306
  0.4563229409825591  0.9080444729506935 -0.0003706213281067
  0.7781993389242033  0.9076320012012153  0.0006557444170852
  0.1134055156206111  0.2178264094101261  0.5009336392303911
  0.4513614274226084  0.2182304796002466  0.5007204545226988
  0.7922003229688449  0.2248658119014597  0.4837931833592156
  0.1134623913862811  0.5506388647398722  0.5012599839307194
  0.7876785157116015  0.5499458686699741  0.5030254761613514
  0.1167249893100393  0.8859034891198386  0.5025757227886271
  0.4516513017995383  0.8883992937351437  0.5014449709662115
  0.7876504057533890  0.8927448130683788  0.5034955731421048
  0.2234646615494531  0.1340629777418054  0.2416582120937465
  0.5533297955700337  0.4614967032803401  0.2463311243339570
  0.8953705615153008  0.1274008802480989  0.2430314713662549
  0.2248071248668053  0.4597171289424448  0.2301089475591274
  0.8954419877793999  0.4599636038508441  0.2444240943378025
  0.2236229895658776  0.7820295660600103  0.2427433405933562
  0.5531361330575804  0.7838475937281161  0.2466759277408241
  0.8838175892986530  0.7881253545852147  0.2431408302515386
  0.2030054547727055  0.7394003673735983  0.7576053863771328
  0.5464895264320621  0.0822078732679252  0.7538877992133958
  0.8711261590722023  0.0822013232398832  0.7531734033862888
  0.1984709181500702  0.4125641483839704  0.7484305432922204
  0.5496788943723404  0.4125439383600777  0.7491949845192434
  0.8745926536476635  0.4133388935661684  0.7382936392312455
  0.5437907574837542  0.7521491718095799  0.7515367823995531
  0.8716375613833903  0.7393909907794657  0.7577545386425003
  0.2390298295974872  0.1510925836418019 -0.0202677711780774
  0.5639443014605976  0.1338750682427792 -0.0010540276832062
  0.8963678136667714  0.1337439319676205 -0.0012823293604830
  0.2302343299711782  0.4677023552558689 -0.0114845772996137
  0.5639060404208526  0.4674290960030440 -0.0101677806795272
  0.8968181266895842  0.4674259402233893  0.0044310948499336
  0.2453523711599842  0.7859176162327134  0.0169889954760862
  0.5634684216208825  0.7996436170874547 -0.0125207398856679
  0.8656325574518979  0.7849373159550176  0.0199963623675759
  0.2287228848138672  0.1080942036124714  0.5030807420375705
  0.5633847320053852  0.1111859289413411  0.4720945558430983
  0.8974772509330528  0.1107912756567604  0.4860311935515971
  0.2010936505722750  0.4269939543365356  0.5156856042875652
  0.5759555116045572  0.4220974333562214  0.5218540473957913
  0.8976030768695761  0.4441091642705092  0.4862109650153016
  0.2288523912687874  0.7756049003966508  0.5036059461782523
  0.5764149802798640  0.8068199209428248  0.5238169638204616
  0.8943526902523087  0.7746581945186980  0.5040130570931656
  0.1132551012089652  0.2380970242855250  0.2273065794939066
  0.4289371522517169  0.2485670523367064  0.2617007808883616
  0.8065363310247408  0.2479298922263284  0.2578235334292165
  0.1129838215816092  0.5690819409218917  0.2310314902339482
  0.4460510240958182  0.5701095351580509  0.2306863756183191
  0.7784318673328469  0.5684686511420551  0.2483971524732461
  0.1144241435680668  0.9047593634886837  0.2287938278024866
  0.4290620268735646  0.8699763389753878  0.2626216166117779
  0.7784598428225685  0.9014129943249898  0.2478175587068350
  0.0820989064601514  0.2023037521374472  0.7665903270488491
  0.4554206148110191  0.2023965483545208  0.7677250315870486
  0.7634992996322626  0.1914191482072092  0.7377033740051259
  0.0959570035404090  0.5256794673859656  0.7377498407360074
  0.4304797550741273  0.5249876003329835  0.7371750502413790
  0.7654855089944663  0.5255228274746868  0.7384030346168684
  0.0777604803445774  0.8209347679307231  0.7809194213229281
  0.4290063500681506  0.8565854985519061  0.7569304820923377
  0.7628217368269860  0.8565821334286374  0.7568357600439426
  0.1204313416711398  0.9146032317806658  0.0701132809992161
  0.5536099806003238  0.1179167449942911  0.3186675593647020
  0.4447129666256465  0.5439022883027582  0.5785521281036459
  0.2029458266332614  0.0734841431225048  0.8333111566526877
 
  0.00000000E+00  0.00000000E+00  0.00000000E+00
  0.00000000E+00  0.00000000E+00  0.00000000E+00
  0.00000000E+00  0.00000000E+00  0.00000000E+00
  0.00000000E+00  0.00000000E+00  0.00000000E+00
  0.00000000E+00  0.00000000E+00  0.00000000E+00
  0.00000000E+00  0.00000000E+00  0.00000000E+00
  0.00000000E+00  0.00000000E+00  0.00000000E+00
  0.00000000E+00  0.00000000E+00  0.00000000E+00
  0.00000000E+00  0.00000000E+00  0.00000000E+00
  0.00000000E+00  0.00000000E+00  0.00000000E+00
  0.00000000E+00  0.00000000E+00  0.00000000E+00
  0.00000000E+00  0.00000000E+00  0.00000000E+00
  0.00000000E+00  0.00000000E+00  0.00000000E+00
  0.00000000E+00  0.00000000E+00  0.00000000E+00
  0.00000000E+00  0.00000000E+00  0.00000000E+00
  0.00000000E+00  0.00000000E+00  0.00000000E+00
  0.00000000E+00  0.00000000E+00  0.00000000E+00
  0.00000000E+00  0.00000000E+00  0.00000000E+00
  0.00000000E+00  0.00000000E+00  0.00000000E+00
  0.00000000E+00  0.00000000E+00  0.00000000E+00
  0.00000000E+00  0.00000000E+00  0.00000000E+00
  0.00000000E+00  0.00000000E+00  0.00000000E+00
  0.00000000E+00  0.00000000E+00  0.00000000E+00
  0.00000000E+00  0.00000000E+00  0.00000000E+00
  0.00000000E+00  0.00000000E+00  0.00000000E+00
  0.00000000E+00  0.00000000E+00  0.00000000E+00
  0.00000000E+00  0.00000000E+00  0.00000000E+00
  0.00000000E+00  0.00000000E+00  0.00000000E+00
  0.00000000E+00  0.00000000E+00  0.00000000E+00
  0.00000000E+00  0.00000000E+00  0.00000000E+00
  0.00000000E+00  0.00000000E+00  0.00000000E+00
  0.00000000E+00  0.00000000E+00  0.00000000E+00
  0.00000000E+00  0.00000000E+00  0.00000000E+00
  0.00000000E+00  0.00000000E+00  0.00000000E+00
  0.00000000E+00  0.00000000E+00  0.00000000E+00
  0.00000000E+00  0.00000000E+00  0.00000000E+00
  0.00000000E+00  0.00000000E+00  0.00000000E+00
  0.00000000E+00  0.00000000E+00  0.00000000E+00
  0.00000000E+00  0.00000000E+00  0.00000000E+00
  0.00000000E+00  0.00000000E+00  0.00000000E+00
  0.00000000E+00  0.00000000E+00  0.00000000E+00
  0.00000000E+00  0.00000000E+00  0.00000000E+00
  0.00000000E+00  0.00000000E+00  0.00000000E+00
  0.00000000E+00  0.00000000E+00  0.00000000E+00
  0.00000000E+00  0.00000000E+00  0.00000000E+00
  0.00000000E+00  0.00000000E+00  0.00000000E+00
  0.00000000E+00  0.00000000E+00  0.00000000E+00
  0.00000000E+00  0.00000000E+00  0.00000000E+00
  0.00000000E+00  0.00000000E+00  0.00000000E+00
  0.00000000E+00  0.00000000E+00  0.00000000E+00
  0.00000000E+00  0.00000000E+00  0.00000000E+00
  0.00000000E+00  0.00000000E+00  0.00000000E+00
  0.00000000E+00  0.00000000E+00  0.00000000E+00
  0.00000000E+00  0.00000000E+00  0.00000000E+00
  0.00000000E+00  0.00000000E+00  0.00000000E+00
  0.00000000E+00  0.00000000E+00  0.00000000E+00
  0.00000000E+00  0.00000000E+00  0.00000000E+00
  0.00000000E+00  0.00000000E+00  0.00000000E+00
  0.00000000E+00  0.00000000E+00  0.00000000E+00
  0.00000000E+00  0.00000000E+00  0.00000000E+00
  0.00000000E+00  0.00000000E+00  0.00000000E+00
  0.00000000E+00  0.00000000E+00  0.00000000E+00
  0.00000000E+00  0.00000000E+00  0.00000000E+00
  0.00000000E+00  0.00000000E+00  0.00000000E+00
  0.00000000E+00  0.00000000E+00  0.00000000E+00
  0.00000000E+00  0.00000000E+00  0.00000000E+00
  0.00000000E+00  0.00000000E+00  0.00000000E+00
  0.00000000E+00  0.00000000E+00  0.00000000E+00
  0.00000000E+00  0.00000000E+00  0.00000000E+00
  0.00000000E+00  0.00000000E+00  0.00000000E+00
  0.00000000E+00  0.00000000E+00  0.00000000E+00
  0.00000000E+00  0.00000000E+00  0.00000000E+00
