generated by phonopy
   1.0000000
     7.6276245351184766    0.0000000000000000    0.0000000000000000
    -3.8138122675592383    6.6057166179420698    0.0000000000000000
     0.0000000000000000    0.0000000000000000   13.0801072832835583
B    N       Ga
 32   36     4
Direct
  0.1111111111111119  0.2222222222222214  0.0000000000000000
  0.4444444444444452  0.2222222222222214  0.0000000000000000
  0.7777777777777786  0.2222222222222214  0.0000000000000000
  0.1111111111111119  0.5555555555555547  0.0000000000000000
  0.4444444444444452  0.5555555555555547  0.0000000000000000
  0.7777777777777786  0.5555555555555547  0.0000000000000000
  0.4444444444444452  0.8888888888888881  0.0000000000000000
  0.7777777777777786  0.8888888888888881  0.0000000000000000
  0.1111111111111119  0.2222222222222214  0.5000000000000000
  0.4444444444444452  0.2222222222222214  0.5000000000000000
  0.7777777777777786  0.2222222222222214  0.5000000000000000
  0.1111111111111119  0.5555555555555547  0.5000000000000000
  0.7777777777777786  0.5555555555555547  0.5000000000000000
  0.1111111111111119  0.8888888888888881  0.5000000000000000
  0.4444444444444452  0.8888888888888881  0.5000000000000000
  0.7777777777777786  0.8888888888888881  0.5000000000000000
  0.2222222222222214  0.1111111111111119  0.2500000000000000
  0.5555555555555547  0.4444444444444452  0.2500000000000000
  0.8888888888888881  0.1111111111111119  0.2500000000000000
  0.2222222222222214  0.4444444444444452  0.2500000000000000
  0.8888888888888881  0.4444444444444452  0.2500000000000000
  0.2222222222222214  0.7777777777777786  0.2500000000000000
  0.5555555555555547  0.7777777777777786  0.2500000000000000
  0.8888888888888881  0.7777777777777786  0.2500000000000000
  0.2222222222222214  0.7777777777777786  0.7500000000000000
  0.5555555555555547  0.1111111111111119  0.7500000000000000
  0.8888888888888881  0.1111111111111119  0.7500000000000000
  0.2222222222222214  0.4444444444444452  0.7500000000000000
  0.5555555555555547  0.4444444444444452  0.7500000000000000
  0.8888888888888881  0.4444444444444452  0.7500000000000000
  0.5555555555555547  0.7777777777777786  0.7500000000000000
  0.8888888888888881  0.7777777777777786  0.7500000000000000
  0.2222222222222214  0.1111111111111119  0.0000000000000000
  0.5555555555555547  0.1111111111111119  0.0000000000000000
  0.8888888888888881  0.1111111111111119  0.0000000000000000
  0.2222222222222214  0.4444444444444452  0.0000000000000000
  0.5555555555555547  0.4444444444444452  0.0000000000000000
  0.8888888888888881  0.4444444444444452  0.0000000000000000
  0.2222222222222214  0.7777777777777786  0.0000000000000000
  0.5555555555555547  0.7777777777777786  0.0000000000000000
  0.8888888888888881  0.7777777777777786  0.0000000000000000
  0.2222222222222214  0.1111111111111119  0.5000000000000000
  0.5555555555555547  0.1111111111111119  0.5000000000000000
  0.8888888888888881  0.1111111111111119  0.5000000000000000
  0.2222222222222214  0.4444444444444452  0.5000000000000000
  0.5555555555555547  0.4444444444444452  0.5000000000000000
  0.8888888888888881  0.4444444444444452  0.5000000000000000
  0.2222222222222214  0.7777777777777786  0.5000000000000000
  0.5555555555555547  0.7777777777777786  0.5000000000000000
  0.8888888888888881  0.7777777777777786  0.5000000000000000
  0.1111111111111119  0.2222222222222214  0.2500000000000000
  0.4444444444444452  0.2222222222222214  0.2500000000000000
  0.7777777777777786  0.2222222222222214  0.2500000000000000
  0.1111111111111119  0.5555555555555547  0.2500000000000000
  0.4444444444444452  0.5555555555555547  0.2500000000000000
  0.7777777777777786  0.5555555555555547  0.2500000000000000
  0.1111111111111119  0.8888888888888881  0.2500000000000000
  0.4444444444444452  0.8888888888888881  0.2500000000000000
  0.7777777777777786  0.8888888888888881  0.2500000000000000
  0.1111111111111119  0.2222222222222214  0.7500000000000000
  0.4444444444444452  0.2222222222222214  0.7500000000000000
  0.7777777777777786  0.2222222222222214  0.7500000000000000
  0.1111111111111119  0.5555555555555547  0.7500000000000000
  0.4444444444444452  0.5555555555555547  0.7500000000000000
  0.7777777777777786  0.5555555555555547  0.7500000000000000
  0.1111111111111119  0.8888888888888881  0.7500000000000000
  0.4444444444444452  0.8888888888888881  0.7500000000000000
  0.7777777777777786  0.8888888888888881  0.7500000000000000
  0.1111111111111119  0.8888888888888881  0.0500000000000000
  0.5555555555555547  0.1111111111111119  0.3000000000000000
  0.4444444444444452  0.5555555555555547  0.5500000000000000
  0.2222222222222214  0.1111111111111119  0.8000000000000000
