Cu	N	Ru	Ta                              
   1.00000000000000     
    18.1096308199999996    0.0000000000000000    0.0000000000000000
     0.0000000000000000   23.3551997799999995    0.0000000000000000
     0.0000000000000000    0.0000000000000000   30.4818171199999988
   Cu   N    Ru   Ta
     4   240    24   216
Selective dynamics
Direct
  0.4126615347198763  0.5622182177537163  0.6035030607236719   T   T   T
  0.4296641584987153  0.4489883095948281  0.6140754502460251   T   T   T
  0.5348531792422427  0.5100305560202776  0.6227470190166745   T   T   T
  0.5494436917163585  0.4065214767862137  0.6269585650226086   T   T   T
  0.0000000000000000  0.0000770226766207  0.3028264943543491   F   F   F
  0.0000000000000000  0.5000770226766207  0.3028264943543491   F   F   F
  0.0000000000000000  0.6248851796377153  0.3029475127301708   F   F   F
  0.0000000000000000  0.7500770228907001  0.3028264943543491   F   F   F
  0.0000000000000000  0.8748851798518018  0.3029475127301708   F   F   F
  0.0000000000000000  0.1248851796377153  0.3029475127301708   F   F   F
  0.0000000000000000  0.2500770228907001  0.3028264943543491   F   F   F
  0.0000000000000000  0.3748851798518018  0.3029475127301708   F   F   F
  0.9998575009154231  0.4998424172689167  0.4726162546222192   T   T   T
  0.9999225518997119  0.3753501389081228  0.4735192075247582   T   T   T
 -0.0000000238294704  0.6255560404327003  0.4736582752502527   T   T   T
  0.0003314662303338 -0.0002248550090101  0.4726677714659522   T   T   T
  0.0006494617536561  0.1255901018535690  0.4739803675024494   T   T   T
  0.0006032888709042  0.8750844618539725  0.4738405252155685   T   T   T
  0.0007192492365436  0.7497230693200270  0.4723501225935717   T   T   T
  0.0011367688338273  0.2500985169748315  0.4724653895558373   T   T   T
  0.5923598301889746  0.2494308433721962  0.5696714573702747   T   T   T
  0.5931934024046182 -0.0001088126043703  0.5696837462904931   T   T   T
  0.5929801974786296  0.7517919548125170  0.5694238665340102   T   T   T
  0.5937123195362393  0.3757006686980811  0.5748597855200880   T   T   T
  0.5943504772119894  0.6250779795299195  0.2321437935324795   F   F   F
  0.5943504772119894  0.8750779797440060  0.2321437935324795   F   F   F
  0.5943504772119894  0.1250779795299195  0.2321437935324795   F   F   F
  0.5943504772119894  0.3750779797440060  0.2321437935324795   F   F   F
  0.5943930523482663  0.9999373617004466  0.2321734905809336   F   F   F
  0.5943930523482663  0.4999373617004466  0.2321734905809336   F   F   F
  0.5943930523482663  0.7499373619145331  0.2321734905809336   F   F   F
  0.5943930523482663  0.2499373619145331  0.2321734905809336   F   F   F
  0.5942607320761478  0.6261283964363348  0.5733990779077600   T   T   T
  0.5955268274844142  0.1240184371827605  0.5725708737962957   T   T   T
  0.5960287235780526  0.5018088647117378  0.5716125616681672   T   T   T
  0.5959435911757847  0.8748720222487321  0.5725006257910139   T   T   T
  0.5982286653607587  0.6246286292373670  0.4015568515581348   T   T   T
  0.5990408398469879  0.3745170010586579  0.4016509403767222   T   T   T
  0.5988615675219087  0.1246042803231669  0.4016352188065538   T   T   T
  0.5989563278843144  0.2504088820061983  0.4015281091309243   T   T   T
  0.5988578234050189  0.5006074595027324  0.4015162310295251   T   T   T
  0.5986330907136496  0.7505851238550800  0.4014385365847851   T   T   T
  0.5989189532008864  0.8745266800226723  0.4015068639621035   T   T   T
  0.5991645732700472  0.0006523228600203  0.4014386457432110   T   T   T
  0.6467095885577743  0.3791099007037841  0.4876186516265015   T   T   T
  0.6470491945224225  0.6300132505974156  0.4865180516030845   T   T   T
  0.6478802429124557  0.1293102178512162  0.4866978315944631   T   T   T
  0.6485063853193589  0.2456228854611855  0.4867519954673190   T   T   T
  0.6485201800483578  0.4953319974913027  0.4870173785224662   T   T   T
  0.6483581090581606  0.8794363386845123  0.4864408359895706   T   T   T
  0.6487582579076911  0.7459876968532771  0.4864701727390656   T   T   T
  0.6491112036057707  0.9958660433553073  0.4865424310874031   T   T   T
  0.6547082680948861  0.6251230654212776  0.3157550047659328   F   F   F
  0.6547082680948861  0.8751230656353641  0.3157550047659328   F   F   F
  0.6547082680948861  0.1251230654212776  0.3157550047659328   F   F   F
  0.6547082680948861  0.3751230656353641  0.3157550047659328   F   F   F
  0.6547523877132235  0.9998547719551993  0.3156484409089586   F   F   F
  0.6547523877132235  0.4998547719551993  0.3156484409089586   F   F   F
  0.6547523877132235  0.7498547721692859  0.3156484409089586   F   F   F
  0.6547523877132235  0.2498547721692859  0.3156484409089586   F   F   F
  0.7493103959479854  0.4370481221812055  0.5744848638711884   T   T   T
  0.7490844843991781  0.6870801716002607  0.5733892411178552   T   T   T
  0.7494853998459819  0.3124283948024189  0.5121379955016451   T   T   T
  0.7493303127741752  0.5628171520792891  0.5114598604985088   T   T   T
  0.7499999997239044  0.0000513585844359  0.1992858820091215   F   F   F
  0.7499999997239044  0.5000513585844431  0.1992858820091215   F   F   F
  0.7499999997239044  0.6250070552811167  0.1993925282102751   F   F   F
  0.7499999997239044  0.7500513587985225  0.1992858820091215   F   F   F
  0.7499999997239044  0.8750070554952032  0.1993925282102751   F   F   F
  0.7499999997239044  0.1250070552811167  0.1993925282102751   F   F   F
  0.7499999997239044  0.2500513587985225  0.1992858820091215   F   F   F
  0.7499999997239044  0.3750070554952032  0.1993925282102751   F   F   F
  0.7497741957741132  0.5003578184200181  0.3886678404070911   T   T   T
  0.7497487118782842  0.6248367399074887  0.3889398368326731   T   T   T
  0.7499211255305511  0.3747327672978505  0.3890658902594143   T   T   T
  0.7500420950518492  0.2503159267124084  0.3888424574572349   T   T   T
  0.7499185907177115  0.7503679675669370  0.3886943119513435   T   T   T
  0.7501201862178065  0.1248800337131821  0.3891046522735829   T   T   T
  0.7502699154772099  0.1872504555094634  0.5742458411669278   T   T   T
  0.7503015552335089  0.0623737753276074  0.5122204081896841   T   T   T
  0.7500952122475615  0.8748281192108959  0.3890384424354720   T   T   T
  0.7501265313372057  0.0004189266797283  0.3887757167925090   T   T   T
  0.7506459309952546  0.9361606346844593  0.5738794671331200   T   T   T
  0.7508940773230326  0.8122267593395275  0.5120461771481128   T   T   T
  0.8452476122867765  0.9998547719551993  0.3156484409089586   F   F   F
  0.8452476122867765  0.4998547719551993  0.3156484409089586   F   F   F
  0.8452476122867765  0.7498547721692859  0.3156484409089586   F   F   F
  0.8452476122867765  0.2498547721692859  0.3156484409089586   F   F   F
  0.8452917319051139  0.6251230654212776  0.3157550047659328   F   F   F
  0.8452917319051139  0.8751230656353641  0.3157550047659328   F   F   F
  0.8452917319051139  0.1251230654212776  0.3157550047659328   F   F   F
  0.8452917319051139  0.3751230656353641  0.3157550047659328   F   F   F
  0.8506589198706834  0.4957028446221021  0.4865374501785472   T   T   T
  0.8515442036945103  0.2457774185880908  0.4864622072442709   T   T   T
  0.8516439881363009  0.9956968752673948  0.4868835624839024   T   T   T
  0.8517038522203931  0.7458577577587117  0.4866638960525988   T   T   T
  0.8518299141929678  0.3792284402897770  0.4867243703648035   T   T   T
  0.8519950145937235  0.6293606207057496  0.4868726750642829   T   T   T
  0.8527240834526387  0.1294927877840614  0.4867552470953475   T   T   T
  0.8530719781071860  0.8789869188892860  0.4867080530731820   T   T   T
  0.9008225828716062  0.5005367685570263  0.4014493753099857   T   T   T
  0.9009689758087340  0.6244409296563875  0.4015646463905658   T   T   T
  0.9010180306373086  0.7505080776543303  0.4013957594235180   T   T   T
  0.9009787162852864  0.3745702362791083  0.4016027541334372   T   T   T
  0.9011084284535841  0.0006473171239744  0.4014933726249924   T   T   T
  0.9012511046164811  0.2506228230078180  0.4014426104428298   T   T   T
  0.9013472007879441  0.8745245751751156  0.4015406518873289   T   T   T
  0.9013859462194060  0.1246693938087043  0.4016477732517592   T   T   T
  0.0905386458187112  0.4937342451563637  0.5693317051066895   T   T   T
  0.9044270826339996  0.3746413413867910  0.5721959128786344   T   T   T
  0.9040869011969972  0.6237035911535360  0.5721480600983023   T   T   T
  0.9049473065011626  0.1249877613657173  0.5726634354230418   T   T   T
  0.9055175563923227  0.5011403135144933  0.5694701778681082   T   T   T
  0.9056069476517337  0.9999373617004466  0.2321734905809336   F   F   F
  0.9056069476517337  0.4999373617004466  0.2321734905809336   F   F   F
  0.9056069476517337  0.7499373619145331  0.2321734905809336   F   F   F
  0.9056069476517337  0.2499373619145331  0.2321734905809336   F   F   F
  0.9056495227880106  0.6250779795299195  0.2321437935324795   F   F   F
  0.9056495227880106  0.8750779797440060  0.2321437935324795   F   F   F
  0.9056495227880106  0.1250779795299195  0.2321437935324795   F   F   F
  0.9056495227880106  0.3750779797440060  0.2321437935324795   F   F   F
  0.9062440738592590  0.8746327848121300  0.5729211281845371   T   T   T
  0.9080463847749866  0.2513995564372774  0.5689522155853576   T   T   T
  0.9078901363322193 -0.0003366371192801  0.5697862252616636   T   T   T
  0.9086569003711448  0.7486583559356108  0.5695249351292373   T   T   T
  0.0926766900571108  0.6307987694695766  0.5749078698786806   T   T   T
  0.0932528171249580  0.9984988681205224  0.5697887084623970   T   T   T
  0.0934497725997024  0.2481636026746943  0.5701096537527766   T   T   T
  0.0943504772119894  0.6250779795299195  0.2321437935324795   F   F   F
  0.0943504772119894  0.8750779797440060  0.2321437935324795   F   F   F
  0.0943504772119894  0.1250779795299195  0.2321437935324795   F   F   F
  0.0943504772119894  0.3750779797440060  0.2321437935324795   F   F   F
  0.0943930523482663  0.9999373617004466  0.2321734905809336   F   F   F
  0.0943930523482663  0.4999373617004466  0.2321734905809336   F   F   F
  0.0943930523482663  0.7499373619145331  0.2321734905809336   F   F   F
  0.0943930523482663  0.2499373619145331  0.2321734905809336   F   F   F
  0.0943469480328510  0.7483352112870456  0.5687694778810309   T   T   T
  0.0948089511184405  0.1249942300094612  0.5732815308483266   T   T   T
  0.0958669265688595  0.8736074243839620  0.5726392377454549   T   T   T
  0.0962624585025953  0.3798084028474712  0.5740190316609515   T   T   T
  0.0989369841164612  0.3750022876330338  0.4013147982664928   T   T   T
  0.0992188379092520  0.1250423482237642  0.4018551538587554   T   T   T
  0.0991971815992616  0.6244027123260426  0.4014795113861541   T   T   T
  0.0992210789682727  0.8743360213637484  0.4016394793517484   T   T   T
  0.0993045464124916  0.0006407661725459  0.4015208576445740   T   T   T
  0.0996382258666240  0.5005702505796181  0.4015546621469341   T   T   T
  0.0994670606094542  0.7503448796687185  0.4015601867396547   T   T   T
  0.0999519548754374  0.2506455477820306  0.4015178220328568   T   T   T
  0.1454685485514224  0.3783396271651175  0.4851786225062575   T   T   T
  0.1479168451414070  0.8791484623675341  0.4867175334113488   T   T   T
  0.1480735492412696  0.1296029686580634  0.4869991473277711   T   T   T
  0.1480867453941589  0.6274616368080463  0.4854649741710501   T   T   T
  0.1488706120986687  0.9958722588716465  0.4869221666910659   T   T   T
  0.1499414911964431  0.4975939970310233  0.4883581064836864   T   T   T
  0.1506146139539109  0.7439577397696868  0.4873429583643596   T   T   T
  0.1532290857168188  0.2482082297608443  0.4879252596315195   T   T   T
  0.1547082680948861  0.6251230654212776  0.3157550047659328   F   F   F
  0.1547082680948861  0.8751230656353641  0.3157550047659328   F   F   F
  0.1547082680948861  0.1251230654212776  0.3157550047659328   F   F   F
  0.1547082680948861  0.3751230656353641  0.3157550047659328   F   F   F
  0.1547523877132235  0.9998547719551993  0.3156484409089586   F   F   F
  0.1547523877132235  0.4998547719551993  0.3156484409089586   F   F   F
  0.1547523877132235  0.7498547721692859  0.3156484409089586   F   F   F
  0.1547523877132235  0.2498547721692859  0.3156484409089586   F   F   F
  0.2272678633004886  0.5969067973566872  0.5469236717460787   T   T   T
  0.2496674739501849  0.3627682245893952  0.5364292213503519   T   T   T
  0.2497457591237088  0.5001033839663073  0.3871752524872111   T   T   T
  0.2499999997239044  0.0000513585844359  0.1992858820091215   F   F   F
  0.2499999997239044  0.5000513585844431  0.1992858820091215   F   F   F
  0.2499999997239044  0.6250070552811167  0.1993925282102751   F   F   F
  0.2499999997239044  0.7500513587985225  0.1992858820091215   F   F   F
  0.2499999997239044  0.8750070554952032  0.1993925282102751   F   F   F
  0.2499999997239044  0.1250070552811167  0.1993925282102751   F   F   F
  0.2499999997239044  0.2500513587985225  0.1992858820091215   F   F   F
  0.2499999997239044  0.3750070554952032  0.1993925282102751   F   F   F
  0.2500297331967408  0.3742780055558753  0.3885073028887324   T   T   T
  0.2500745609473785  0.0630811897376802  0.5120844748154597   T   T   T
  0.2499881687834170  0.8126066601854607  0.5115965045947369   T   T   T
  0.2500637788837669  0.2506625819243311  0.3878838635499261   T   T   T
  0.2500537113042325  0.1247013001310455  0.3886720912000811   T   T   T
  0.2501586679085913  0.6246057470311983  0.3891813828931626   T   T   T
  0.2501352008314150  0.0002769111681346  0.3889323203097826   T   T   T
  0.2501897741997919  0.8748309682966009  0.3889873263477804   T   T   T
  0.2502824807127613  0.1876269367868047  0.5751307154769802   T   T   T
  0.2503069082847008  0.7500478099716946  0.3887908341358844   T   T   T
  0.2504065459463820  0.9370264744431507  0.5744022380964797   T   T   T
  0.2516330223410379  0.4798903917923072  0.5621059821465566   T   T   T
  0.2542348717616000  0.7045487068528926  0.5757411334247519   T   T   T
  0.3452476122867765  0.9998547719551993  0.3156484409089586   F   F   F
  0.3452476122867765  0.4998547719551993  0.3156484409089586   F   F   F
  0.3452476122867765  0.7498547721692859  0.3156484409089586   F   F   F
  0.3452476122867765  0.2498547721692859  0.3156484409089586   F   F   F
  0.3452917319051139  0.6251230654212776  0.3157550047659328   F   F   F
  0.3452917319051139  0.8751230656353641  0.3157550047659328   F   F   F
  0.3452917319051139  0.1251230654212776  0.3157550047659328   F   F   F
  0.3452917319051139  0.3751230656353641  0.3157550047659328   F   F   F
  0.3471338290823641  0.2486515597958169  0.4881325370488053   T   T   T
  0.3484220542395755  0.4952071933207808  0.4849099835597619   T   T   T
  0.3505579354219456  0.6261112681556396  0.4909327672718388   T   T   T
  0.3513373403770326  0.7451532396365628  0.4882076520469769   T   T   T
  0.3515920125573362  0.9960389564788341  0.4866071361103420   T   T   T
  0.3518708919854722  0.1296583357015578  0.4870236175562424   T   T   T
  0.3521704347806265  0.8796222268273437  0.4866401193380151   T   T   T
  0.3543639676370414  0.3767486360853069  0.4842402522045985   T   T   T
  0.3948803477775656  0.5013785167732647  0.5647548326509733   T   T   T
  0.4001876960846525  0.2503459583805326  0.4014640206285152   T   T   T
  0.4005068000284929  0.6237848459371689  0.4028399358720229   T   T   T
  0.4006756893108230  0.5006846834961037  0.4013653134550203   T   T   T
  0.4006967829262663  0.7497926014592101  0.4022239551697190   T   T   T
  0.4009403600440571  0.0006409346929134  0.4014904386285929   T   T   T
  0.4011354834204018  0.8743435111562288  0.4016967770834748   T   T   T
  0.4009689781616112  0.1249657042109631  0.4018639087049585   T   T   T
  0.4011988309998126  0.3746988290556991  0.4010850626636692   T   T   T
  0.4045783532603229  0.3812513106535526  0.5753252432320580   T   T   T
  0.4051504760458002  0.1240823609394644  0.5731956085222589   T   T   T
  0.4050976793674759  0.8754285598273915  0.5724928858295190   T   T   T
  0.4056069476517337  0.9999373617004466  0.2321734905809336   F   F   F
  0.4056069476517337  0.4999373617004466  0.2321734905809336   F   F   F
  0.4056069476517337  0.7499373619145331  0.2321734905809336   F   F   F
  0.4056069476517337  0.2499373619145331  0.2321734905809336   F   F   F
  0.4056495227880106  0.6250779795299195  0.2321437935324795   F   F   F
  0.4056495227880106  0.8750779797440060  0.2321437935324795   F   F   F
  0.4056495227880106  0.1250779795299195  0.2321437935324795   F   F   F
  0.4056495227880106  0.3750779797440060  0.2321437935324795   F   F   F
  0.4071815248601581  0.2476260439395845  0.5705949437672844   T   T   T
  0.4079688812961624 -0.0001073907905883  0.5694568625011909   T   T   T
  0.4103800714506381  0.7548195421410910  0.5700907394086717   T   T   T
  0.4150351103314849  0.6383467179434634  0.5825704946394641   T   T   T
  0.4985757215541234  0.6248986365841898  0.4748855637314531   T   T   T
  0.4992170899748672  0.2497837507256857  0.4727330652747198   T   T   T
  0.4995683231092840  0.5003761425312843  0.4721178251756924   T   T   T
  0.4997099350663462  0.1252831374174975  0.4740754916856735   T   T   T
  0.5000000000000000  0.0000770226766207  0.3028264943543491   F   F   F
  0.5000000000000000  0.5000770226766207  0.3028264943543491   F   F   F
  0.5000000000000000  0.6248851796377153  0.3029475127301708   F   F   F
  0.5000000000000000  0.7500770228907001  0.3028264943543491   F   F   F
  0.5000000000000000  0.8748851798518018  0.3029475127301708   F   F   F
  0.5000000000000000  0.1248851796377153  0.3029475127301708   F   F   F
  0.5000000000000000  0.2500770228907001  0.3028264943543491   F   F   F
  0.5000000000000000  0.3748851798518018  0.3029475127301708   F   F   F
  0.4996581444560645  0.7498324192379310  0.4729238621979441   T   T   T
  0.5002996292588574  0.3754079694968618  0.4733602100879293   T   T   T
  0.5001194014861942  0.8753155312041261  0.4738773232055367   T   T   T
  0.5002437579469386 -0.0001366886025202  0.4726027939184995   T   T   T
  0.9998141939550154  0.2469017583459542  0.5399267907400007   T   T   T
  0.0000546607208903  0.9977748271196089  0.5401498929928332   T   T   T
  0.0022435089609314  0.7477116871500961  0.5397283306201496   T   T   T
  0.6372680461135520  0.3100664186516522  0.5352221856559957   T   T   T
  0.6375893331246364  0.5610441501837211  0.5339690358100443   T   T   T
  0.6397938663563600  0.0606142833075640  0.5353913213673682   T   T   T
  0.6406269437026794  0.8113929090808336  0.5350280339727365   T   T   T
  0.8577496859811902  0.5614728795438698  0.5349236399892345   T   T   T
  0.8596223685603011  0.3113484979020253  0.5349816834276349   T   T   T
  0.8622384256468673  0.0604623693134085  0.5354963892895394   T   T   T
  0.8634399863839693  0.8100064444040390  0.5355749872730027   T   T   T
  0.9958772088055005  0.4926194237644108  0.5399662983565537   T   T   T
  0.1190352270183567  0.5602698794858981  0.5416671893769137   T   T   T
  0.1285658094850218  0.3126185764870652  0.5382425007523929   T   T   T
  0.1368176518192304  0.0600229330621581  0.5355072225717364   T   T   T
  0.1392298385134871  0.8089035281035992  0.5354563504403740   T   T   T
  0.3029067427315446  0.5502976766272659  0.5337003144750079   T   T   T
  0.3599312237543187  0.8121071162653429  0.5353389798729943   T   T   T
  0.3616029469437975  0.0607710562038890  0.5353457284701912   T   T   T
  0.3714242113422067  0.3116802756781135  0.5377577749233018   T   T   T
  0.4962680483152122  0.5024313064547231  0.5389364975516531   T   T   T
  0.5000826960695327  0.2467246138083236  0.5403628861127576   T   T   T
  0.5009318797145000  0.9995149064423663  0.5400130895355232   T   T   T
  0.5010314142191679  0.7550315667451269  0.5400470620571038   T   T   T
  0.0000000000000000  0.9999830748611132  0.1973415402473861   F   F   F
  0.0000000000000000  0.4999830748611132  0.1973415402473861   F   F   F
  0.0000000000000000  0.6250597900044994  0.1972695212469660   F   F   F
  0.0000000000000000  0.7499830750751997  0.1973415402473861   F   F   F
  0.0000000000000000  0.8750597902185859  0.1972695212469660   F   F   F
  0.0000000000000000  0.1250597900044994  0.1972695212469660   F   F   F
  0.0000000000000000  0.2499830750751997  0.1973415402473861   F   F   F
  0.0000000000000000  0.3750597902185859  0.1972695212469660   F   F   F
  0.9998948282672118  0.3749858897912138  0.3693549487327017   T   T   T
  0.0000224665535890  0.5002288358766847  0.3693658878232669   T   T   T
  0.0001278545149004  0.6247160371249637  0.3694023710261501   T   T   T
  0.9993118730776270  0.6313496734398569  0.5428400201516276   T   T   T
  0.0003509368854570  0.2502521804837465  0.3693857679250916   T   T   T
  0.0002979120239347  0.1251095857339842  0.3694779337844652   T   T   T
  0.0002051717188685  0.0001910747896323  0.3693881742668553   T   T   T
  0.0003186670852678  0.1300122693976930  0.5430264087145804   T   T   T
  0.0002094546539466  0.7499939450467522  0.3693457435527955   T   T   T
  0.0003186762388635  0.8748766630089710  0.3694257372298216   T   T   T
  0.0009771047646897  0.3810077353052681  0.5431974035991841   T   T   T
  0.0009814777368529  0.8789818205484322  0.5427719698976701   T   T   T
  0.5819038433831919  0.6877449574385336  0.4524460786473430   T   T   T
  0.5821355699465680  0.1875735442367679  0.4525821816345124   T   T   T
  0.5824959423441172  0.4374754614066489  0.2839355729984092   F   F   F
  0.5824959423441172  0.6874754611925624  0.2839355729984092   F   F   F
  0.5824959423441172  0.9374754614066489  0.2839355729984092   F   F   F
  0.5824959423441172  0.1874754611925624  0.2839355729984092   F   F   F
  0.5825798899124848  0.4375844150481942  0.4524664370036786   T   T   T
  0.5827651808530874  0.5624885324787385  0.2838652796168972   F   F   F
  0.5827651808530874  0.0624885324787385  0.2838652796168972   F   F   F
  0.5827651808530874  0.8124885322646520  0.2838652796168972   F   F   F
  0.5827651808530874  0.3124885322646520  0.2838652796168972   F   F   F
  0.5828856396788007  0.9377151189025886  0.4523095752596030   T   T   T
  0.5837090624599739  0.5626842860991560  0.4546448274002268   T   T   T
  0.5840406460428341  0.3122673001644988  0.4545927401665643   T   T   T
  0.5841496216933710  0.0624780415227588  0.4544914841309198   T   T   T
  0.5840509251766637  0.8124373073817261  0.4544052741145993   T   T   T
  0.6565074521267752  0.6864028411754300  0.5441096901445464   T   T   T
  0.6584391135165549  0.4372469514695194  0.5442720343895892   T   T   T
  0.6583199071494678  0.1859088737039085  0.5439924420857842   T   T   T
  0.6585965543025560  0.9362792101173237  0.5438971418646141   T   T   T
  0.6659163253997278  0.5625456426731574  0.2025671506292426   F   F   F
  0.6659163253997278  0.0625456426731503  0.2025671506292426   F   F   F
  0.6659163253997278  0.8125456424590709  0.2025671506292426   F   F   F
  0.6659163253997278  0.3125456424590709  0.2025671506292426   F   F   F
  0.6659898017733283  0.4375125970341855  0.2025194438276969   F   F   F
  0.6659898017733283  0.6875125968200990  0.2025194438276969   F   F   F
  0.6659898017733283  0.9375125970341855  0.2025194438276969   F   F   F
  0.6659898017733283  0.1875125968200990  0.2025194438276969   F   F   F
  0.6675516449761353  0.5626167076513628  0.3685204873832546   T   T   T
  0.6678839056110963  0.3125493162027291  0.3686040572553821   T   T   T
  0.6679417829300246  0.0626474563622237  0.3684704646374822   T   T   T
  0.6678332901899769  0.8125928394994150  0.3684793545819502   T   T   T
  0.6683192494396769  0.1875495162941699  0.3685044521780238   T   T   T
  0.6683107419725539  0.4375192655035735  0.3685374449936577   T   T   T
  0.6680774088755095  0.6875614106560172  0.3684705408340870   T   T   T
  0.6684541764745812  0.9375840572141326  0.3683906082375299   T   T   T
  0.7491807155763225  0.3746119888048569  0.4584828535965996   T   T   T
  0.7493049518077149  0.5004928392894901  0.4577657638437903   T   T   T
  0.7499999997239044  0.0001643475558382  0.2779548773829816   F   F   F
  0.7499999997239044  0.5001643475558382  0.2779548773829816   F   F   F
  0.7499999997239044  0.6249264342623420  0.2780286426703711   F   F   F
  0.7499999997239044  0.7501643477699247  0.2779548773829816   F   F   F
  0.7499999997239044  0.8749264344764285  0.2780286426703711   F   F   F
  0.7499999997239044  0.1249264342623420  0.2780286426703711   F   F   F
  0.7499999997239044  0.2501643477699247  0.2779548773829816   F   F   F
  0.7499999997239044  0.3749264344764285  0.2780286426703711   F   F   F
  0.7499287306636178  0.2506566239135828  0.4580101671382197   T   T   T
  0.7498169624694768  0.6250978434216522  0.4581296990617225   T   T   T
  0.7503242919934839  0.1248180215239026  0.4583530393057773   T   T   T
  0.7503226415073595  0.7507056794070858  0.4578595834126069   T   T   T
  0.7505033251955869  0.0008369413748134  0.4578930148448070   T   T   T
  0.7506646040920998  0.8747973448530499  0.4582883763972950   T   T   T
  0.0818777485029607  0.4382854743002733  0.4521952509932000   T   T   T
  0.0824959423441172  0.4374754614066489  0.2839355729984092   F   F   F
  0.0824959423441172  0.6874754611925624  0.2839355729984092   F   F   F
  0.0824959423441172  0.9374754614066489  0.2839355729984092   F   F   F
  0.0824959423441172  0.1874754611925624  0.2839355729984092   F   F   F
  0.0827651808530874  0.5624885324787385  0.2838652796168972   F   F   F
  0.0827651808530874  0.0624885324787385  0.2838652796168972   F   F   F
  0.0827651808530874  0.8124885322646520  0.2838652796168972   F   F   F
  0.0827651808530874  0.3124885322646520  0.2838652796168972   F   F   F
  0.8315517750470490  0.6875282433454266  0.3684147493894583   T   T   T
  0.8316602313168980  0.4375190217341409  0.3684611353968924   T   T   T
  0.8319281479185798  0.5625656177891764  0.3684303772363679   T   T   T
  0.8317666626504322  0.9375777346864780  0.3684457876725322   T   T   T
  0.8318733933664506  0.1876032716823037  0.3684693032339733   T   T   T
  0.8320512297918669  0.3125584407748465  0.3685154994740226   T   T   T
  0.8321609429379652  0.8126063461141720  0.3684926197493115   T   T   T
  0.8323023575871924  0.0626553533314717  0.3685525866954482   T   T   T
  0.0830515660121026  0.9376189939801630  0.4524606216538419   T   T   T
  0.8340101684082839  0.4375125970341855  0.2025194438276969   F   F   F
  0.8340101684082839  0.6875125968200990  0.2025194438276969   F   F   F
  0.8340101684082839  0.9375125970341855  0.2025194438276969   F   F   F
  0.8340101684082839  0.1875125968200990  0.2025194438276969   F   F   F
  0.8340836447818845  0.5625456426731574  0.2025671506292426   F   F   F
  0.8340836447818845  0.0625456426731503  0.2025671506292426   F   F   F
  0.8340836447818845  0.8125456424590709  0.2025671506292426   F   F   F
  0.8340836447818845  0.3125456424590709  0.2025671506292426   F   F   F
  0.0832030065521833  0.6870852347389110  0.4522882993464574   T   T   T
  0.8411689453765677  0.4360649358022853  0.5435795602438125   T   T   T
  0.0840768780981253  0.1885053044098690  0.4529483715536479   T   T   T
  0.8414675973288192  0.6865735259318012  0.5438170609719640   T   T   T
  0.8420655796624286  0.1864089299707163  0.5439604743546617   T   T   T
  0.8428805871289038  0.9356275489255907  0.5441713567279917   T   T   T
  0.0842586516288831  0.3126165441615569  0.4541436531528061   T   T   T
  0.0842951940859042  0.5620648906111086  0.4548894348510297   T   T   T
  0.0844216330941944  0.0627126553127153  0.4545244122678387   T   T   T
  0.0848919177838970  0.8119291016948820  0.4545914926567402   T   T   T
  0.9157077006095693  0.5623991517873792  0.4544137883038460   T   T   T
  0.9162746812363578  0.3124605386438402  0.4544252947490579   T   T   T
  0.9163621322776464  0.0625528727131730  0.4545830763522692   T   T   T
  0.9164802771563650  0.8123575833915004  0.4543445552967018   T   T   T
  0.9172348191469126  0.5624885324787385  0.2838652796168972   F   F   F
  0.9172348191469126  0.0624885324787385  0.2838652796168972   F   F   F
  0.9172348191469126  0.8124885322646520  0.2838652796168972   F   F   F
  0.9172348191469126  0.3124885322646520  0.2838652796168972   F   F   F
  0.9175040576558828  0.4374754614066489  0.2839355729984092   F   F   F
  0.9175040576558828  0.6874754611925624  0.2839355729984092   F   F   F
  0.9175040576558828  0.9374754614066489  0.2839355729984092   F   F   F
  0.9175040576558828  0.1874754611925624  0.2839355729984092   F   F   F
  0.9171749536362808  0.4377245657806332  0.4525769187813674   T   T   T
  0.9175567073002078  0.6876726351391003  0.4522495693762767   T   T   T
  0.9177286865950181  0.9376140379027371  0.4523770337409579   T   T   T
  0.9181112202919386  0.1877844296565377  0.4525244101658721   T   T   T
  0.1586006074893031  0.9355410652567139  0.5442696565094114   T   T   T
  0.1589352275025122  0.1849473129809739  0.5446790054467754   T   T   T
  0.1659163253997278  0.5625456426731574  0.2025671506292426   F   F   F
  0.1659163253997278  0.0625456426731503  0.2025671506292426   F   F   F
  0.1659163253997278  0.8125456424590709  0.2025671506292426   F   F   F
  0.1659163253997278  0.3125456424590709  0.2025671506292426   F   F   F
  0.1659898017733283  0.4375125970341855  0.2025194438276969   F   F   F
  0.1659898017733283  0.6875125968200990  0.2025194438276969   F   F   F
  0.1659898017733283  0.9375125970341855  0.2025194438276969   F   F   F
  0.1659898017733283  0.1875125968200990  0.2025194438276969   F   F   F
  0.1664803388083455  0.4335328017369665  0.5405874457273003   T   T   T
  0.1667807485726240  0.6827640995076861  0.5439904265591922   T   T   T
  0.1679617330403412  0.3127636098272188  0.3678888293293847   T   T   T
  0.1679677861023594  0.5625705237383622  0.3679755302293848   T   T   T