Mo  S Cu                                
   1.00000000000000     
    15.9214998300000001    0.0000000000000000    0.0000000000000000
    -7.9622501300000001   13.7910221699999997    0.0000000000000000
     0.0000000000000000    0.0000000000000000   13.5821998300000004
   Mo   S    Cu
    25    50     3
Direct
  0.1323915619531988  0.0658224750348992  0.6781850130113654
  0.1323380174133035  0.2653758916385272  0.6782121615609640
  0.1325173210847694  0.4655019050288374  0.6793260220490538
  0.1326403621879848  0.6657315470288623  0.6795098384290554
  0.1325095876633355  0.8658478725071532  0.6792908858934652
  0.3331056148132561  0.0668126359932444  0.6781140888214878
  0.3304557994793456  0.2646676577914135  0.6696241409656807
  0.3331462470457680  0.4651984594294589  0.6778776470454204
  0.3328630869258689  0.6658456861951194  0.6794055893586446
  0.3328757255544872  0.8658788049081210  0.6794436158154653
  0.5329914777070925  0.0658458869654410  0.6785457075449486
  0.5335318818377104  0.2648263943229452  0.6702939257285152
  0.5336513371088216  0.4678481237787295  0.6698096852754887
  0.5329812019445299  0.6660124319850951  0.6783888607601796
  0.5328009007154648  0.8658294130690152  0.6794524478679875
  0.7327504519739065  0.0655999723153542  0.6790469261028207
  0.7325184617915639  0.2653714311350441  0.6785234265513864
  0.7315414353913070  0.4652381566316137  0.6782490074005523
  0.7325172584411064  0.6659407450258641  0.6783727298519437
  0.7327512828082732  0.8659931802358187  0.6789762551600660
  0.9323462350825054  0.0655924030576926  0.6788674121334708
  0.9325235672896497  0.2655564145898097  0.6793283769577059
  0.9324875740986585  0.4654900646131495  0.6794196958472227
  0.9325080528065399  0.6658467656216800  0.6793534428260983
  0.9325307437585479  0.8658085272559504  0.6792451746567920
  0.0652772305908087  0.1320485817765302  0.5634397780511691
  0.0657271755646534  0.1322690945740490  0.7937859770906144
  0.0654490492441298  0.3323167968459018  0.5639737871057378
  0.0661868586048087  0.3320480872447646  0.7942176859973387
  0.0659248938676100  0.5323856349750216  0.5643823446866918
  0.0659155587213149  0.5322443178621725  0.7945202680468668
  0.0659589409934540  0.7323687357033180  0.5643365937229348
  0.0659046107261929  0.7325061362937504  0.7944768531475930
  0.0654920413005726  0.9320156332172900  0.5639209094710722
  0.0661718943794796  0.9329764960840308  0.7941580093753586
  0.2637544541973753  0.1289981935382585  0.5601122443768389
  0.2679863919053176  0.1358657132301673  0.7938870924851429
  0.2636631719042342  0.3335184511777527  0.5600783602381298
  0.2679112960020760  0.3310361668662551  0.7937200401182807
  0.2657978155793188  0.5326377868266263  0.5641764139454111
  0.2664404108521694  0.5318669475045681  0.7937017463698766
  0.2660274882268823  0.7324512695040397  0.5644235119222216
  0.2661083000773345  0.7324673295310760  0.7945655842927124
  0.2658633827606280  0.9320955310690877  0.5642322222428646
  0.2663309599151873  0.9332933270895936  0.7937891167862432
  0.4649679687455262  0.1292494289033996  0.5605816321027959
  0.4671382467230742  0.1356012140198217  0.7942742695059408
  0.4660341634505016  0.3324081060861701  0.5533959394179746
  0.4655895501440384  0.3326084749986293  0.7759926069877991
  0.4649228613874641  0.5347342404270137  0.5602168804236101
  0.4672481391988157  0.5304215956306138  0.7938318013087624
  0.4660879202793424  0.7329093024361271  0.5641198832322445
  0.4662873998593398  0.7321740624877577  0.7943659554570885
  0.4661231718589320  0.9321327519763472  0.5641854080783375
  0.4662792401197748  0.9329084312394471  0.7944371468547189
  0.6662458624348986  0.1321077541625186  0.5637388462040391
  0.6661245952700980  0.1322613061335431  0.7940941925530183
  0.6691412298270905  0.3334604159569636  0.5606166122106231
  0.6627442516854529  0.3311727643486506  0.7943288703486928
  0.6693396061332351  0.5346036513459893  0.5603097435045399
  0.6624754214937667  0.5303066061874020  0.7941280702132758
  0.6662925385827805  0.7330286234869590  0.5636196745062065
  0.6661040187441003  0.7326523698279175  0.7939683754661004
  0.6658794316123817  0.9323895282442933  0.5639909526465203
  0.6661735757220839  0.9324826888148436  0.7944182087288141
  0.8659076050170995  0.1324434951492819  0.5639033051241711
  0.8659352952690611  0.1322256225977938  0.7943264669986831
  0.8662130180728340  0.3322741588158564  0.5641163125563580
  0.8654974432371318  0.3320771290045244  0.7943723739560724
  0.8662255799032934  0.5325148546169984  0.5642918204271510
  0.8651351548007113  0.5320324780378058  0.7938537013628135
  0.8662565229127708  0.7327945098681212  0.5640159617528582
  0.8654524112585520  0.7322346561253781  0.7942548522029398
  0.8659182439492810  0.9323497148456568  0.5638533755345136
  0.8659219816522139  0.9325104963219246  0.7942612607376418
  0.3627699862365574  0.2794921085833906  0.9174499764341846
  0.5194004805647978  0.2793273277324104  0.9150133506966824
  0.5198012552897140  0.4360699603218308  0.9173688397495212
 
  0.00000000E+00  0.00000000E+00  0.00000000E+00
  0.00000000E+00  0.00000000E+00  0.00000000E+00
  0.00000000E+00  0.00000000E+00  0.00000000E+00
  0.00000000E+00  0.00000000E+00  0.00000000E+00
  0.00000000E+00  0.00000000E+00  0.00000000E+00
  0.00000000E+00  0.00000000E+00  0.00000000E+00
  0.00000000E+00  0.00000000E+00  0.00000000E+00
  0.00000000E+00  0.00000000E+00  0.00000000E+00
  0.00000000E+00  0.00000000E+00  0.00000000E+00
  0.00000000E+00  0.00000000E+00  0.00000000E+00
  0.00000000E+00  0.00000000E+00  0.00000000E+00
  0.00000000E+00  0.00000000E+00  0.00000000E+00
  0.00000000E+00  0.00000000E+00  0.00000000E+00
  0.00000000E+00  0.00000000E+00  0.00000000E+00
  0.00000000E+00  0.00000000E+00  0.00000000E+00
  0.00000000E+00  0.00000000E+00  0.00000000E+00
  0.00000000E+00  0.00000000E+00  0.00000000E+00
  0.00000000E+00  0.00000000E+00  0.00000000E+00
  0.00000000E+00  0.00000000E+00  0.00000000E+00
  0.00000000E+00  0.00000000E+00  0.00000000E+00
  0.00000000E+00  0.00000000E+00  0.00000000E+00
  0.00000000E+00  0.00000000E+00  0.00000000E+00
  0.00000000E+00  0.00000000E+00  0.00000000E+00
  0.00000000E+00  0.00000000E+00  0.00000000E+00
  0.00000000E+00  0.00000000E+00  0.00000000E+00
  0.00000000E+00  0.00000000E+00  0.00000000E+00
  0.00000000E+00  0.00000000E+00  0.00000000E+00
  0.00000000E+00  0.00000000E+00  0.00000000E+00
  0.00000000E+00  0.00000000E+00  0.00000000E+00
  0.00000000E+00  0.00000000E+00  0.00000000E+00
  0.00000000E+00  0.00000000E+00  0.00000000E+00
  0.00000000E+00  0.00000000E+00  0.00000000E+00
  0.00000000E+00  0.00000000E+00  0.00000000E+00
  0.00000000E+00  0.00000000E+00  0.00000000E+00
  0.00000000E+00  0.00000000E+00  0.00000000E+00
  0.00000000E+00  0.00000000E+00  0.00000000E+00
  0.00000000E+00  0.00000000E+00  0.00000000E+00
  0.00000000E+00  0.00000000E+00  0.00000000E+00
  0.00000000E+00  0.00000000E+00  0.00000000E+00
  0.00000000E+00  0.00000000E+00  0.00000000E+00
  0.00000000E+00  0.00000000E+00  0.00000000E+00
  0.00000000E+00  0.00000000E+00  0.00000000E+00
  0.00000000E+00  0.00000000E+00  0.00000000E+00
  0.00000000E+00  0.00000000E+00  0.00000000E+00
  0.00000000E+00  0.00000000E+00  0.00000000E+00
  0.00000000E+00  0.00000000E+00  0.00000000E+00
  0.00000000E+00  0.00000000E+00  0.00000000E+00
  0.00000000E+00  0.00000000E+00  0.00000000E+00
  0.00000000E+00  0.00000000E+00  0.00000000E+00
  0.00000000E+00  0.00000000E+00  0.00000000E+00
  0.00000000E+00  0.00000000E+00  0.00000000E+00
  0.00000000E+00  0.00000000E+00  0.00000000E+00
  0.00000000E+00  0.00000000E+00  0.00000000E+00
  0.00000000E+00  0.00000000E+00  0.00000000E+00
  0.00000000E+00  0.00000000E+00  0.00000000E+00
  0.00000000E+00  0.00000000E+00  0.00000000E+00
  0.00000000E+00  0.00000000E+00  0.00000000E+00
  0.00000000E+00  0.00000000E+00  0.00000000E+00
  0.00000000E+00  0.00000000E+00  0.00000000E+00
  0.00000000E+00  0.00000000E+00  0.00000000E+00
  0.00000000E+00  0.00000000E+00  0.00000000E+00
  0.00000000E+00  0.00000000E+00  0.00000000E+00
  0.00000000E+00  0.00000000E+00  0.00000000E+00
  0.00000000E+00  0.00000000E+00  0.00000000E+00
  0.00000000E+00  0.00000000E+00  0.00000000E+00
  0.00000000E+00  0.00000000E+00  0.00000000E+00
  0.00000000E+00  0.00000000E+00  0.00000000E+00
  0.00000000E+00  0.00000000E+00  0.00000000E+00
  0.00000000E+00  0.00000000E+00  0.00000000E+00
  0.00000000E+00  0.00000000E+00  0.00000000E+00
  0.00000000E+00  0.00000000E+00  0.00000000E+00
  0.00000000E+00  0.00000000E+00  0.00000000E+00
  0.00000000E+00  0.00000000E+00  0.00000000E+00
  0.00000000E+00  0.00000000E+00  0.00000000E+00
  0.00000000E+00  0.00000000E+00  0.00000000E+00
  0.00000000E+00  0.00000000E+00  0.00000000E+00
  0.00000000E+00  0.00000000E+00  0.00000000E+00
  0.00000000E+00  0.00000000E+00  0.00000000E+00
