Ta  N Cu                                
   1.00000000000000     
    10.4555999800000006    0.0000000000000000    0.0000000000000000
     0.0000000000000000   11.6775998899999998    0.0000000000000000
     0.0000000000000000    0.0000000000000000   24.0732377500000005
   Ta   N    Cu
    64    64     1
Selective dynamics
Direct
  0.4991785186325330  0.1250000003211298  0.3753726828051569   F   F   F
  0.2600588226580172  0.1250000003211298  0.3190980514078845   F   F   F
  0.2470962603561304  0.0000000000000000  0.4358978840493251   F   F   F
  0.2484288845835071  0.1249766363819352  0.5615079416732744   T   T   T
  0.9983370026045363  0.1249835022835465  0.5005032618400161   T   T   T
  0.9970432063684719  0.9999902871800701  0.6264632873511030   T   T   T
  0.5106685196775413  0.1260823918559068  0.7425053906161825   T   T   T
  0.2492984841561895  0.1247822014517810  0.6864408430946949   T   T   T
  0.4991785186325330  0.3750000001070433  0.3753726828051569   F   F   F
  0.2600588226580172  0.3750000001070433  0.3190980514078845   F   F   F
  0.2470962603561304  0.2499999997859135  0.4358978840493251   F   F   F
  0.2478532281912532  0.3749722711915612  0.5616776114650938   T   T   T
  0.9982825350632609  0.3749897593203637  0.5004453132224533   T   T   T
  0.9970825681651782  0.2498330309129480  0.6264296412596175   T   T   T
  0.5050207771163998  0.3769233956429930  0.7434126183095859   T   T   T
  0.2507882634721263  0.3741702089820575  0.6867762673473438   T   T   T
  0.4991785186325330  0.6249999998929567  0.3753726828051569   F   F   F
  0.2600588226580172  0.6249999998929567  0.3190980514078845   F   F   F
  0.2470962603561304  0.5000000004281731  0.4358978840493251   F   F   F
  0.2478518970378608  0.6250219353787819  0.5616783694377552   T   T   T
  0.9982787688098645  0.6250078496109568  0.5004459161117653   T   T   T
  0.9968382401897046  0.4999938300159956  0.6267771831534138   T   T   T
  0.5049918295484926  0.6230137922609637  0.7434290325622297   T   T   T
  0.2507684835074404  0.6258121970441968  0.6867705523497338   T   T   T
  0.4991785186325330  0.8750000005352163  0.3753726828051569   F   F   F
  0.2600588226580172  0.8750000005352163  0.3190980514078845   F   F   F
  0.2470962603561304  0.7500000002140865  0.4358978840493251   F   F   F
  0.2484249804541278  0.8750143917997598  0.5615123820788404   T   T   T
  0.9983360883628365  0.8750126288047583  0.5005038244059086   T   T   T
  0.9970729529927249  0.7501500500250394  0.6264340424407500   T   T   T
  0.5106657845475577  0.8738630067079052  0.7425070981042389   T   T   T
  0.2492955963400205  0.8751810140106506  0.6864442389697742   T   T   T
  0.9991784928090510  0.1250000003211298  0.3753726828051569   F   F   F
  0.7600587968345351  0.1250000003211298  0.3190980514078845   F   F   F
  0.7470962345326484  0.0000000000000000  0.4358978840493251   F   F   F
  0.7486267007917609  0.1250639123822179  0.5618329274922040   T   T   T
  0.4987025287557802  0.1249764495941194  0.5004463725815822   T   T   T
  0.4976219046342663  0.9999831718910006  0.6260475012295635   T   T   T
  0.0107035736104498  0.1254576192338192  0.7431213826751172   T   T   T
  0.7494016974020187  0.1253360684086531  0.6870167622018124   T   T   T
  0.9991784928090510  0.3750000001070433  0.3753726828051569   F   F   F
  0.7600587968345351  0.3750000001070433  0.3190980514078845   F   F   F
  0.7470962345326484  0.2499999997859135  0.4358978840493251   F   F   F
  0.7490078116743282  0.3751333199333933  0.5618852681198852   T   T   T
  0.4986574396462876  0.3749344477089805  0.5003169684460802   T   T   T
  0.4980431593193634  0.2492470503800097  0.6253881127278440   T   T   T
  0.0115684273012114  0.3742146622380899  0.7435931803597736   T   T   T
  0.7488812397197883  0.3748899764093694  0.6875970947017848   T   T   T
  0.9991784928090510  0.6249999998929567  0.3753726828051569   F   F   F
  0.7600587968345351  0.6249999998929567  0.3190980514078845   F   F   F
  0.7470962345326484  0.5000000004281731  0.4358978840493251   F   F   F
  0.7490032054980135  0.6248603976347956  0.5618873257499487   T   T   T
  0.4986555394173975  0.6250638218718578  0.5003172844353433   T   T   T
  0.4995581484263929  0.4999933333392632  0.6238557753687678   T   T   T
  0.0115722331524662  0.6257537759673684  0.7435951088435546   T   T   T
  0.7488640713557637  0.6250831721886955  0.6876018307317990   T   T   T
  0.9991784928090439  0.8750000005352163  0.3753726828051569   F   F   F
  0.7600587968345351  0.8750000005352163  0.3190980514078845   F   F   F
  0.7470962345326484  0.7500000002140865  0.4358978840493251   F   F   F
  0.7486231020702483  0.8749258486532603  0.5618333739247519   T   T   T
  0.4987015599797764  0.8750184343621760  0.5004463324234052   T   T   T
  0.4980326420554140  0.7507241242550544  0.6253949452858306   T   T   T
  0.0106961612904087  0.8745197154288266  0.7431232778188437   T   T   T
  0.7493936737896463  0.8746362372355390  0.6870200942560594   T   T   T
  0.1472195596423447  0.0000000000000000  0.3601606351366584   F   F   F
  0.4003222342624682  0.0000000000000000  0.3237632067519129   F   F   F
  0.4439214822817661  0.0000000000000000  0.4377276028165085   F   F   F
  0.4006477068812792  0.9999941352940939  0.5517274790229285   T   T   T
  0.1505008872435251  0.9999968179349381  0.5102214616245504   T   T   T
  0.1939210579198663  0.9999883548682750  0.6242292065468803   T   T   T
  0.1501735696486778  0.9999862906771515  0.7379324686655001   T   T   T
  0.3978254232878600  0.9999819499831230  0.7017849428142913   T   T   T
  0.1472195596423447  0.2499999997859135  0.3601606351366584   F   F   F
  0.4003222342624682  0.2499999997859135  0.3237632067519129   F   F   F
  0.4439214822817661  0.2499999997859135  0.4377276028165085   F   F   F
  0.4003011506270842  0.2499811746691384  0.5514580380589185   T   T   T
  0.1504527109910154  0.2498743075894637  0.5102116733473845   T   T   T
  0.1939322810641945  0.2498126296724898  0.6243937032465852   T   T   T
  0.1515230262405295  0.2493179568637669  0.7383465954486406   T   T   T
  0.3984319857167709  0.2498301179815637  0.7004720610512394   T   T   T
  0.1472195596423447  0.5000000004281731  0.3601606351366584   F   F   F
  0.4003222342624682  0.5000000004281731  0.3237632067519129   F   F   F
  0.4439214822817661  0.5000000004281731  0.4377276028165085   F   F   F
  0.3994291114998657  0.4999971240669965  0.5508574449830386   T   T   T
  0.1503806987708931  0.4999985978290082  0.5101796884431495   T   T   T
  0.1930915553713827  0.4999899428761850  0.6246713746908444   T   T   T
  0.1567280217746982  0.4999793357324754  0.7419946757096121   T   T   T
  0.3999475052463751  0.4999842218757227  0.6956365063653676   T   T   T
  0.1472195596423447  0.7500000002140865  0.3601606351366584   F   F   F
  0.4003222342624682  0.7500000002140865  0.3237632067519129   F   F   F
  0.4439214822817661  0.7500000002140865  0.4377276028165085   F   F   F
  0.4003016576037153  0.7500110781362160  0.5514609959546702   T   T   T
  0.1504503133787446  0.7501211147266419  0.5102119750394858   T   T   T
  0.1939247329699262  0.7501696851290223  0.6243960642045161   T   T   T
  0.1515179126432214  0.7506534857442497  0.7383513881244782   T   T   T
  0.3984185934174488  0.7501173826426234  0.7004848760262024   T   T   T
  0.6472195338188556  0.0000000000000000  0.3601606351366584   F   F   F
  0.9003222591295312  0.0000000000000000  0.3237632067519129   F   F   F
  0.9439215071488221  0.0000000000000000  0.4377276028165085   F   F   F
  0.9007215186930673  0.9999976028294928  0.5519750209247415   T   T   T
  0.6508807425340325  0.9999998235027662  0.5103901756825479   T   T   T
  0.6945215566242253  0.9999892299471778  0.6246308924138620   T   T   T
  0.6502509856854884  0.9999753995042605  0.7385715929600737   T   T   T
  0.8972253268560437  0.9999875028739911  0.7023869602862298   T   T   T
  0.6472195338188556  0.2499999997859135  0.3601606351366584   F   F   F
  0.9003222591295312  0.2499999997859135  0.3237632067519129   F   F   F
  0.9439215071488221  0.2499999997859135  0.4377276028165085   F   F   F
  0.9008664715380440  0.2499799442695067  0.5519259940087173   T   T   T
  0.6508883195435030  0.2500077316077188  0.5103977953857526   T   T   T
  0.6949079795395159  0.2502612507624563  0.6245749284586476   T   T   T
  0.6496875756552490  0.2507856940020812  0.7389629411599022   T   T   T
  0.8974686566914064  0.2504017028575977  0.7021073513458095   T   T   T
  0.6472195338188556  0.5000000004281731  0.3601606351366584   F   F   F
  0.9003222591295312  0.5000000004281731  0.3237632067519129   F   F   F
  0.9439215071488221  0.5000000004281731  0.4377276028165085   F   F   F
  0.9010798667820256  0.4999987281865967  0.5519429293877464   T   T   T
  0.6507889116248663  0.4999992601830796  0.5103689632405649   T   T   T
  0.6962947777601060  0.4999928127679450  0.6247187272528134   T   T   T
  0.6486110534520165  0.4999838178242095  0.7386285295912398   T   T   T
  0.8978469825513418  0.4999920964698310  0.7027159816593939   T   T   T
  0.6472195338188556  0.7500000002140865  0.3601606351366584   F   F   F
  0.9003222591295312  0.7500000002140865  0.3237632067519129   F   F   F
  0.9439215071488221  0.7500000002140865  0.4377276028165085   F   F   F
  0.9008630353422040  0.7500154787456995  0.5519284058542833   T   T   T
  0.6508862433768354  0.7499905301975019  0.5103975475839823   T   T   T
  0.6948971557711784  0.7497221253144624  0.6245775166083519   T   T   T
  0.6496594330162117  0.7491611126021815  0.7389678608698982   T   T   T
  0.8974581915145914  0.7495697502312626  0.7021139961480228   T   T   T
  0.3176342113732389  0.4996891156300496  0.7931272915338002   T   T   T
 
  0.00000000E+00  0.00000000E+00  0.00000000E+00
  0.00000000E+00  0.00000000E+00  0.00000000E+00
  0.00000000E+00  0.00000000E+00  0.00000000E+00
  0.00000000E+00  0.00000000E+00  0.00000000E+00
  0.00000000E+00  0.00000000E+00  0.00000000E+00
  0.00000000E+00  0.00000000E+00  0.00000000E+00
  0.00000000E+00  0.00000000E+00  0.00000000E+00
  0.00000000E+00  0.00000000E+00  0.00000000E+00
  0.00000000E+00  0.00000000E+00  0.00000000E+00
  0.00000000E+00  0.00000000E+00  0.00000000E+00
  0.00000000E+00  0.00000000E+00  0.00000000E+00
  0.00000000E+00  0.00000000E+00  0.00000000E+00
  0.00000000E+00  0.00000000E+00  0.00000000E+00
  0.00000000E+00  0.00000000E+00  0.00000000E+00
  0.00000000E+00  0.00000000E+00  0.00000000E+00
  0.00000000E+00  0.00000000E+00  0.00000000E+00
  0.00000000E+00  0.00000000E+00  0.00000000E+00
  0.00000000E+00  0.00000000E+00  0.00000000E+00
  0.00000000E+00  0.00000000E+00  0.00000000E+00
  0.00000000E+00  0.00000000E+00  0.00000000E+00
  0.00000000E+00  0.00000000E+00  0.00000000E+00
  0.00000000E+00  0.00000000E+00  0.00000000E+00
  0.00000000E+00  0.00000000E+00  0.00000000E+00
  0.00000000E+00  0.00000000E+00  0.00000000E+00
  0.00000000E+00  0.00000000E+00  0.00000000E+00
  0.00000000E+00  0.00000000E+00  0.00000000E+00
  0.00000000E+00  0.00000000E+00  0.00000000E+00
  0.00000000E+00  0.00000000E+00  0.00000000E+00
  0.00000000E+00  0.00000000E+00  0.00000000E+00
  0.00000000E+00  0.00000000E+00  0.00000000E+00
  0.00000000E+00  0.00000000E+00  0.00000000E+00
  0.00000000E+00  0.00000000E+00  0.00000000E+00
  0.00000000E+00  0.00000000E+00  0.00000000E+00
  0.00000000E+00  0.00000000E+00  0.00000000E+00
  0.00000000E+00  0.00000000E+00  0.00000000E+00
  0.00000000E+00  0.00000000E+00  0.00000000E+00
  0.00000000E+00  0.00000000E+00  0.00000000E+00
  0.00000000E+00  0.00000000E+00  0.00000000E+00
  0.00000000E+00  0.00000000E+00  0.00000000E+00
  0.00000000E+00  0.00000000E+00  0.00000000E+00
  0.00000000E+00  0.00000000E+00  0.00000000E+00
  0.00000000E+00  0.00000000E+00  0.00000000E+00
  0.00000000E+00  0.00000000E+00  0.00000000E+00
  0.00000000E+00  0.00000000E+00  0.00000000E+00
  0.00000000E+00  0.00000000E+00  0.00000000E+00
  0.00000000E+00  0.00000000E+00  0.00000000E+00
  0.00000000E+00  0.00000000E+00  0.00000000E+00
  0.00000000E+00  0.00000000E+00  0.00000000E+00
  0.00000000E+00  0.00000000E+00  0.00000000E+00
  0.00000000E+00  0.00000000E+00  0.00000000E+00
  0.00000000E+00  0.00000000E+00  0.00000000E+00
  0.00000000E+00  0.00000000E+00  0.00000000E+00
  0.00000000E+00  0.00000000E+00  0.00000000E+00
  0.00000000E+00  0.00000000E+00  0.00000000E+00
  0.00000000E+00  0.00000000E+00  0.00000000E+00
  0.00000000E+00  0.00000000E+00  0.00000000E+00
  0.00000000E+00  0.00000000E+00  0.00000000E+00
  0.00000000E+00  0.00000000E+00  0.00000000E+00
  0.00000000E+00  0.00000000E+00  0.00000000E+00
  0.00000000E+00  0.00000000E+00  0.00000000E+00
  0.00000000E+00  0.00000000E+00  0.00000000E+00
  0.00000000E+00  0.00000000E+00  0.00000000E+00
  0.00000000E+00  0.00000000E+00  0.00000000E+00
  0.00000000E+00  0.00000000E+00  0.00000000E+00
  0.00000000E+00  0.00000000E+00  0.00000000E+00
  0.00000000E+00  0.00000000E+00  0.00000000E+00
  0.00000000E+00  0.00000000E+00  0.00000000E+00
  0.00000000E+00  0.00000000E+00  0.00000000E+00
  0.00000000E+00  0.00000000E+00  0.00000000E+00
  0.00000000E+00  0.00000000E+00  0.00000000E+00
  0.00000000E+00  0.00000000E+00  0.00000000E+00
  0.00000000E+00  0.00000000E+00  0.00000000E+00
  0.00000000E+00  0.00000000E+00  0.00000000E+00
  0.00000000E+00  0.00000000E+00  0.00000000E+00
  0.00000000E+00  0.00000000E+00  0.00000000E+00
  0.00000000E+00  0.00000000E+00  0.00000000E+00
  0.00000000E+00  0.00000000E+00  0.00000000E+00
  0.00000000E+00  0.00000000E+00  0.00000000E+00
  0.00000000E+00  0.00000000E+00  0.00000000E+00
  0.00000000E+00  0.00000000E+00  0.00000000E+00
  0.00000000E+00  0.00000000E+00  0.00000000E+00
  0.00000000E+00  0.00000000E+00  0.00000000E+00
  0.00000000E+00  0.00000000E+00  0.00000000E+00
  0.00000000E+00  0.00000000E+00  0.00000000E+00
  0.00000000E+00  0.00000000E+00  0.00000000E+00
  0.00000000E+00  0.00000000E+00  0.00000000E+00
  0.00000000E+00  0.00000000E+00  0.00000000E+00
  0.00000000E+00  0.00000000E+00  0.00000000E+00
  0.00000000E+00  0.00000000E+00  0.00000000E+00
  0.00000000E+00  0.00000000E+00  0.00000000E+00
  0.00000000E+00  0.00000000E+00  0.00000000E+00
  0.00000000E+00  0.00000000E+00  0.00000000E+00
  0.00000000E+00  0.00000000E+00  0.00000000E+00
  0.00000000E+00  0.00000000E+00  0.00000000E+00
  0.00000000E+00  0.00000000E+00  0.00000000E+00
  0.00000000E+00  0.00000000E+00  0.00000000E+00
  0.00000000E+00  0.00000000E+00  0.00000000E+00
  0.00000000E+00  0.00000000E+00  0.00000000E+00
  0.00000000E+00  0.00000000E+00  0.00000000E+00
  0.00000000E+00  0.00000000E+00  0.00000000E+00
  0.00000000E+00  0.00000000E+00  0.00000000E+00
  0.00000000E+00  0.00000000E+00  0.00000000E+00
  0.00000000E+00  0.00000000E+00  0.00000000E+00
  0.00000000E+00  0.00000000E+00  0.00000000E+00
  0.00000000E+00  0.00000000E+00  0.00000000E+00
  0.00000000E+00  0.00000000E+00  0.00000000E+00
  0.00000000E+00  0.00000000E+00  0.00000000E+00
  0.00000000E+00  0.00000000E+00  0.00000000E+00
  0.00000000E+00  0.00000000E+00  0.00000000E+00
  0.00000000E+00  0.00000000E+00  0.00000000E+00
  0.00000000E+00  0.00000000E+00  0.00000000E+00
  0.00000000E+00  0.00000000E+00  0.00000000E+00
  0.00000000E+00  0.00000000E+00  0.00000000E+00
  0.00000000E+00  0.00000000E+00  0.00000000E+00
  0.00000000E+00  0.00000000E+00  0.00000000E+00
  0.00000000E+00  0.00000000E+00  0.00000000E+00
  0.00000000E+00  0.00000000E+00  0.00000000E+00
  0.00000000E+00  0.00000000E+00  0.00000000E+00
  0.00000000E+00  0.00000000E+00  0.00000000E+00
  0.00000000E+00  0.00000000E+00  0.00000000E+00
  0.00000000E+00  0.00000000E+00  0.00000000E+00
  0.00000000E+00  0.00000000E+00  0.00000000E+00
  0.00000000E+00  0.00000000E+00  0.00000000E+00
  0.00000000E+00  0.00000000E+00  0.00000000E+00
  0.00000000E+00  0.00000000E+00  0.00000000E+00
  0.00000000E+00  0.00000000E+00  0.00000000E+00
  0.00000000E+00  0.00000000E+00  0.00000000E+00
  0.00000000E+00  0.00000000E+00  0.00000000E+00
  0.00000000E+00  0.00000000E+00  0.00000000E+00
