Mo  S Co                                
   1.00000000000000     
    15.9214998300000001    0.0000000000000000    0.0000000000000000
    -7.9622501300000001   13.7910221699999997    0.0000000000000000
     0.0000000000000000    0.0000000000000000   13.5821998300000004
   Mo   S    Co
    25    49     4
Direct
  0.1336308847164460  0.0665575949242907  0.6780765123309678
  0.1358299247191397  0.2666997116027048  0.6778992696970363
  0.1344317579049630  0.4652729825187478  0.6815931572543192
  0.1339050397044517  0.6660812924605537  0.6821848690988972
  0.1336385663823449  0.8661594475758321  0.6804687907780078
  0.3329550675006061  0.0661004221604387  0.6782112512740213
  0.3324220812219565  0.2658254131565769  0.6705780709401452
  0.3346779232302382  0.4661011122617538  0.6741765845643357
  0.3335854463749968  0.6653561695130534  0.6811182454728311
  0.3334714462723838  0.8658909691215868  0.6814140190658833
  0.5334222879702892  0.0659972307911474  0.6807501163547087
  0.5328261197719257  0.2649704115311948  0.6756641835588511
  0.5339286158059906  0.4675586092067192  0.6748010159314219
  0.5335071271783036  0.6658851575369056  0.6797891666975957
  0.5337334331288304  0.8661445448484812  0.6818800969109162
  0.7340317652186030  0.0665268437099442  0.6831300589170652
  0.7330019752544032  0.2656932975574691  0.6815272182360914
  0.7338853448839799  0.4670386128475812  0.6793140417976744
  0.7341107748239750  0.6668546918779015  0.6796502316352004
  0.7340597950803698  0.8666172433872958  0.6819371591715893
  0.9348061567912325  0.0670144631583867  0.6823900976361088
  0.9350733162530958  0.2662765468543782  0.6846959969122750
  0.9340076395694510  0.4668517385292361  0.6836505259761125
  0.9339410013746345  0.6666309388452945  0.6807778578527888
  0.9338769764750623  0.8665783905426494  0.6808082379059499
  0.0659338950278894  0.1330641711618412  0.5639554935319850
  0.0723731368120824  0.1364925334533851  0.7950919368785065
  0.0659267227314899  0.3322050735395834  0.5663219105290622
  0.0729753574606917  0.3329321503765001  0.7971127152297868
  0.0667246647817379  0.5323172555320426  0.5678927197799055
  0.0684884480225136  0.5329171474876659  0.7974389199908103
  0.0673413404325629  0.7323048263887344  0.5661233113943709
  0.0670760876853791  0.7334322127045425  0.7963586880490681
  0.0662172463347375  0.9318426130696977  0.5647591671680701
  0.0678209512347507  0.9341109934282272  0.7947764164569406
  0.2651236620731794  0.1296766577976598  0.5596142023168014
  0.2670461265505395  0.1373724330346278  0.7909221993600397
  0.2656131526330725  0.3332342360767342  0.5599838172475771
  0.2658565005672600  0.5334243634145324  0.5634211891691621
  0.2685965274209181  0.5285588464303430  0.7943766116678574
  0.2667708148450672  0.7323400808887186  0.5666944988065552
  0.2674913496347102  0.7324247596250402  0.7967703644334634
  0.2666454776668630  0.9315109234562442  0.5651133012200162
  0.2670558344470564  0.9341558371555010  0.7951957092620745
  0.4663612017791152  0.1305365940944725  0.5630590497382997
  0.4658972758108106  0.1335403322312629  0.7936771954887476
  0.4684150435006416  0.3333045605576217  0.5587546361657800
  0.4631281169299442  0.3334004498264633  0.7869272570550763
  0.4678733444682166  0.5353303023481928  0.5601811578567180
  0.4638434192973762  0.5282287748658874  0.7924336532667482
  0.4668861047942841  0.7333359076518349  0.5662097966679767
  0.4669889565128855  0.7318983826262553  0.7960453740295961
  0.4669549353156697  0.9322497139332953  0.5664140684930388
  0.4667339895691356  0.9329602563543631  0.7964467151111805
  0.6676884825998783  0.1325473839540194  0.5668401780617387
  0.6659678675181055  0.1327301164517323  0.7975527191889000
  0.6687765974662483  0.3329582177791650  0.5641730023613007
  0.6636302357058170  0.3328491155265851  0.7931085556999093
  0.6696124578295297  0.5349602881555171  0.5627217034594452
  0.6652102800069315  0.5325906702401113  0.7932177453818596
  0.6676205477687773  0.7343309787872272  0.5655666863855728
  0.6664408907909589  0.7319553621103907  0.7955952359699623
  0.6676209084727773  0.9337680279326577  0.5674338668695853
  0.6668702879593127  0.9324750676369504  0.7974782888276053
  0.8677858013448514  0.1340573807007601  0.5689175695289421
  0.8677182261447385  0.1323295063459895  0.7988189192199897
  0.8683059286691162  0.3328450416219724  0.5697571541358997
  0.8653720550233999  0.3337241875337966  0.8008667744243212
  0.8685080079846230  0.5330087105486214  0.5661599638662977
  0.8660531919494261  0.5337749297793977  0.7966596518906925
  0.8678223571111943  0.7336144715031097  0.5653381620619271
  0.8669059023999921  0.7331899255501071  0.7956326869265240
  0.8672906552823605  0.9340921692957664  0.5668316414844980
  0.8679380467418483  0.9331490110880694  0.7969086453282728
  0.2804782566526569  0.3328694006480433  0.8044328126023004
  0.4538907719037155  0.3394841055848161  0.9346039207122558
  0.6698202505705169  0.3341511900033893  0.9513043935758816
  0.8038842719379957  0.3342534812748568  0.9466123413034850
 
  0.00000000E+00  0.00000000E+00  0.00000000E+00
  0.00000000E+00  0.00000000E+00  0.00000000E+00
  0.00000000E+00  0.00000000E+00  0.00000000E+00
  0.00000000E+00  0.00000000E+00  0.00000000E+00
  0.00000000E+00  0.00000000E+00  0.00000000E+00
  0.00000000E+00  0.00000000E+00  0.00000000E+00
  0.00000000E+00  0.00000000E+00  0.00000000E+00
  0.00000000E+00  0.00000000E+00  0.00000000E+00
  0.00000000E+00  0.00000000E+00  0.00000000E+00
  0.00000000E+00  0.00000000E+00  0.00000000E+00
  0.00000000E+00  0.00000000E+00  0.00000000E+00
  0.00000000E+00  0.00000000E+00  0.00000000E+00
  0.00000000E+00  0.00000000E+00  0.00000000E+00
  0.00000000E+00  0.00000000E+00  0.00000000E+00
  0.00000000E+00  0.00000000E+00  0.00000000E+00
  0.00000000E+00  0.00000000E+00  0.00000000E+00
  0.00000000E+00  0.00000000E+00  0.00000000E+00
  0.00000000E+00  0.00000000E+00  0.00000000E+00
  0.00000000E+00  0.00000000E+00  0.00000000E+00
  0.00000000E+00  0.00000000E+00  0.00000000E+00
  0.00000000E+00  0.00000000E+00  0.00000000E+00
  0.00000000E+00  0.00000000E+00  0.00000000E+00
  0.00000000E+00  0.00000000E+00  0.00000000E+00
  0.00000000E+00  0.00000000E+00  0.00000000E+00
  0.00000000E+00  0.00000000E+00  0.00000000E+00
  0.00000000E+00  0.00000000E+00  0.00000000E+00
  0.00000000E+00  0.00000000E+00  0.00000000E+00
  0.00000000E+00  0.00000000E+00  0.00000000E+00
  0.00000000E+00  0.00000000E+00  0.00000000E+00
  0.00000000E+00  0.00000000E+00  0.00000000E+00
  0.00000000E+00  0.00000000E+00  0.00000000E+00
  0.00000000E+00  0.00000000E+00  0.00000000E+00
  0.00000000E+00  0.00000000E+00  0.00000000E+00
  0.00000000E+00  0.00000000E+00  0.00000000E+00
  0.00000000E+00  0.00000000E+00  0.00000000E+00
  0.00000000E+00  0.00000000E+00  0.00000000E+00
  0.00000000E+00  0.00000000E+00  0.00000000E+00
  0.00000000E+00  0.00000000E+00  0.00000000E+00
  0.00000000E+00  0.00000000E+00  0.00000000E+00
  0.00000000E+00  0.00000000E+00  0.00000000E+00
  0.00000000E+00  0.00000000E+00  0.00000000E+00
  0.00000000E+00  0.00000000E+00  0.00000000E+00
  0.00000000E+00  0.00000000E+00  0.00000000E+00
  0.00000000E+00  0.00000000E+00  0.00000000E+00
  0.00000000E+00  0.00000000E+00  0.00000000E+00
  0.00000000E+00  0.00000000E+00  0.00000000E+00
  0.00000000E+00  0.00000000E+00  0.00000000E+00
  0.00000000E+00  0.00000000E+00  0.00000000E+00
  0.00000000E+00  0.00000000E+00  0.00000000E+00
  0.00000000E+00  0.00000000E+00  0.00000000E+00
  0.00000000E+00  0.00000000E+00  0.00000000E+00
  0.00000000E+00  0.00000000E+00  0.00000000E+00
  0.00000000E+00  0.00000000E+00  0.00000000E+00
  0.00000000E+00  0.00000000E+00  0.00000000E+00
  0.00000000E+00  0.00000000E+00  0.00000000E+00
  0.00000000E+00  0.00000000E+00  0.00000000E+00
  0.00000000E+00  0.00000000E+00  0.00000000E+00
  0.00000000E+00  0.00000000E+00  0.00000000E+00
  0.00000000E+00  0.00000000E+00  0.00000000E+00
  0.00000000E+00  0.00000000E+00  0.00000000E+00
  0.00000000E+00  0.00000000E+00  0.00000000E+00
  0.00000000E+00  0.00000000E+00  0.00000000E+00
  0.00000000E+00  0.00000000E+00  0.00000000E+00
  0.00000000E+00  0.00000000E+00  0.00000000E+00
  0.00000000E+00  0.00000000E+00  0.00000000E+00
  0.00000000E+00  0.00000000E+00  0.00000000E+00
  0.00000000E+00  0.00000000E+00  0.00000000E+00
  0.00000000E+00  0.00000000E+00  0.00000000E+00
  0.00000000E+00  0.00000000E+00  0.00000000E+00
  0.00000000E+00  0.00000000E+00  0.00000000E+00
  0.00000000E+00  0.00000000E+00  0.00000000E+00
  0.00000000E+00  0.00000000E+00  0.00000000E+00
  0.00000000E+00  0.00000000E+00  0.00000000E+00
  0.00000000E+00  0.00000000E+00  0.00000000E+00
  0.00000000E+00  0.00000000E+00  0.00000000E+00
  0.00000000E+00  0.00000000E+00  0.00000000E+00
  0.00000000E+00  0.00000000E+00  0.00000000E+00
  0.00000000E+00  0.00000000E+00  0.00000000E+00
