POSCAR                                  
   1.00000000000000     
     9.4875395787585433   -0.0139060545984789    0.0038741789338058
    -4.7558074295683692    8.2343831235294935   -0.0077686242495442
     0.0062870358330418   -0.0108211141875865   15.0609648143684947
   Al   N    Li   Nb
    48    54     3     3
Direct
  0.1092609976180952  0.2136588310793655 -0.0003557019173896
  0.4389839035598316  0.2125131124068722 -0.0026684872060423
  0.7744740913834203  0.2180599822805007 -0.0066242999907048
  0.7824813772586156  0.5625221831891559 -0.0066263184420208
  0.1152168952780267  0.8901887426579344  0.0011351745055171
  0.4372298918074784  0.8939562967690334  0.0011962700887260
  0.7845314931252163  0.8934898407398550 -0.0013636249194079
  0.1094942167668782  0.2141523414956889  0.3262648610624840
  0.4433618010787275  0.2196281471611241  0.3306509254598203
  0.7750126489267470  0.2177864885891770  0.3320341280374142
  0.1129701668678015  0.5609611535305978  0.3240899630228019
  0.4502728943635986  0.5586696964848002  0.3281220317344666
  0.7771752045760565  0.5579452676834522  0.3324771459788832
  0.1125248737600302  0.8875021340734294  0.3284670790790811
  0.4419801312817399  0.8876964647915283  0.3312197910556205
  0.7774759806850324  0.8874074556642829  0.3318795728715158
  0.1068585408298952  0.2119514611946034  0.6703912749813001
  0.4438333592406247  0.2205068173781264  0.6693556955563748
  0.7772844063410823  0.2222531488308078  0.6695342594467023
  0.1072841965787351  0.5627302007850766  0.6700229825073403
  0.4519411066785622  0.5594751958314254  0.6686098780216182
  0.7791195459175415  0.5573610407954890  0.6689549575180372
  0.1108963759664962  0.8878063479376048  0.6678781229040298
  0.4428404974395931  0.8903332488899963  0.6649353921156879
  0.7796134807692197  0.8893244228800669  0.6662963918569869
  0.5527096129117036  0.1122814302952588  0.8315881081297536
  0.8926744639317418  0.1137586168476848  0.8317291460171549
  0.2158238361307364  0.4401419725040393  0.8285893488151550
  0.5549896715226563  0.4386689869184338  0.8278315164429335
  0.8893996265630174  0.4451241232553911  0.8377403170447608
  0.2209226474664208  0.7833288229684158  0.8352906375187420
  0.5574122149892887  0.7848966469204088  0.8271375144245890
  0.8950039534412967  0.7820131940443681  0.8310742877195834
  0.2214288315733972  0.1045845343442865  0.1590598702503757
  0.5491742822423518  0.1029126590964942  0.1652450586853777
  0.8902353694508384  0.1049048743586938  0.1647255040936617
  0.2204960996043343  0.4366509855588371  0.1701047545436749
  0.5541463210993111  0.4402155090291958  0.1666674371344269
  0.5570845530632903  0.7869085245287377  0.1664812401369249
  0.8928545766792736  0.7865248139251896  0.1650305762199350
  0.2241207181592545  0.1045669184270310  0.5002073638119056
  0.5560177987257651  0.1113127352948364  0.4994855238257837
  0.8807290041658572  0.1052196314033500  0.5000774338922398
  0.5608966782079560  0.4415114911068775  0.5009819427957320
  0.8811178534388161  0.4414347204880192  0.5012785948847703
  0.2242260703331357  0.7853966038179626  0.4946762222956641
  0.5613510725510269  0.7860591896169152  0.5007779683032565
  0.8895827999503538  0.7784189533462215  0.4993704048032547
  0.1111979652913643  0.2225694238709451  0.1300771707986657
  0.4508327447002860  0.2246541069752424  0.1275162207652072
  0.7757299427213499  0.2104322515712351  0.1254582068140462
  0.1151232773666644  0.5454900426685652  0.1373528082800468
  0.4430010136093668  0.5540753738573293  0.1313092516894951
  0.7702592433935469  0.5665698525857865  0.1231618621257960
  0.1015399759653551  0.8902893830786874  0.1268118679768115
  0.4586614539121053  0.8949866905722348  0.1243598459816669
  0.7753488144192496  0.8872698642929551  0.1263398733001530
  0.1053462247102340  0.2108904464529760  0.4572805203284124
  0.4447924977158679  0.2227075475577567  0.4588968077695899
  0.7790169087662187  0.2229947496770840  0.4590135122707030
  0.1036816829527674  0.5552844997532427  0.4578477637523024
  0.4554899973367650  0.5610273597785206  0.4582126291142707
  0.7784138457148314  0.5553464533171403  0.4591025600493052
  0.1084755141358866  0.8898048908837615  0.4583971755245263
  0.4485795972833269  0.8905397403961468  0.4601771307931427
  0.7778996409971205  0.8882429505766347  0.4590192460213622
  0.1034673823511815  0.2295757769789348  0.7900818005801015
  0.4583376320415452  0.2285514363479147  0.7906563661306250
  0.7782664445210297  0.2224617957241903  0.7956492145430396
  0.1114592020199539  0.5571546511041080  0.7947154473819109
  0.4451332909203729  0.5575662047847589  0.7950311371524456
  0.7780668391658091  0.5566144595361603  0.7952211331517851
  0.1035204345312648  0.8733326657604761  0.7884555815580334
  0.4446091377390707  0.8901634036694270  0.7902664881645901
  0.7787578982098571  0.8905113066405650  0.7921024511127076
  0.2219769604248469  0.1113373724093366  0.9724102458628744
  0.5557632818216350  0.1109521240317796  0.9590218589837409
  0.8893059636219871  0.1111026959567294  0.9602573526606863
  0.2213520942767114  0.4325107234337762  0.9564269181960390
  0.5560015839649410  0.4411323516025073  0.9586335757386444
  0.8744468516290756  0.4375489447261212  0.9657412540648519
  0.2293829048262612  0.7923867721244067  0.9580983011094715
  0.5604076668361488  0.7886097094760357  0.9561014364614534
  0.8878714154275926  0.7802290495237912  0.9583595764299468
  0.2238628575897072  0.1104510014660730  0.2913023223625678
  0.5561924467231030  0.1107306915018828  0.2935136347093732
  0.8872371737273378  0.1090405959543210  0.2930028382504506
  0.2236272932257656  0.4419061334145480  0.2997970871100883
  0.5562754625731395  0.4439215828468491  0.2933797958829749
  0.8854390055296998  0.4420791068083525  0.2927553131841772
  0.2232914315913688  0.7783709877887081  0.3049877044691795
  0.5562603706800725  0.7779358018683923  0.2937460703082754
  0.8865142425226213  0.7765362957674286  0.2937032645044288
  0.2225530269382205  0.1112021429448977  0.6249133976649907
  0.5569229967526654  0.1120506717087829  0.6250112990406482
  0.8876610252344711  0.1107800658628221  0.6249332352671074
  0.2233808350187314  0.4463957462414188  0.6255740694885985
  0.5557358732046622  0.4454937455943050  0.6262892529216875
  0.8881793336044704  0.4444166006662721  0.6268772646039703
  0.2222808264766752  0.7770575884885600  0.6216611916936341
  0.5555821444021024  0.7775186549779064  0.6264657126778290
  0.8868288515681787  0.7766946851768227  0.6248747454486425
  0.1130876759168570  0.5659172911590322 -0.0043082204091605
  0.2216713662468517  0.1086779251923633  0.8342885832454443
  0.2272664083902513  0.7861943677778960  0.1647657468696524
  0.4402388945758435  0.5569225542978740 -0.0043371658654015
  0.8925683790469410  0.4470966006325502  0.1535975721822605
  0.2213086188377993  0.4429761289480351  0.4946124546316316
 
  0.00000000E+00  0.00000000E+00  0.00000000E+00
  0.00000000E+00  0.00000000E+00  0.00000000E+00
  0.00000000E+00  0.00000000E+00  0.00000000E+00
  0.00000000E+00  0.00000000E+00  0.00000000E+00
  0.00000000E+00  0.00000000E+00  0.00000000E+00
  0.00000000E+00  0.00000000E+00  0.00000000E+00
  0.00000000E+00  0.00000000E+00  0.00000000E+00
  0.00000000E+00  0.00000000E+00  0.00000000E+00
  0.00000000E+00  0.00000000E+00  0.00000000E+00
  0.00000000E+00  0.00000000E+00  0.00000000E+00
  0.00000000E+00  0.00000000E+00  0.00000000E+00
  0.00000000E+00  0.00000000E+00  0.00000000E+00
  0.00000000E+00  0.00000000E+00  0.00000000E+00
  0.00000000E+00  0.00000000E+00  0.00000000E+00
  0.00000000E+00  0.00000000E+00  0.00000000E+00
  0.00000000E+00  0.00000000E+00  0.00000000E+00
  0.00000000E+00  0.00000000E+00  0.00000000E+00
  0.00000000E+00  0.00000000E+00  0.00000000E+00
  0.00000000E+00  0.00000000E+00  0.00000000E+00
  0.00000000E+00  0.00000000E+00  0.00000000E+00
  0.00000000E+00  0.00000000E+00  0.00000000E+00
  0.00000000E+00  0.00000000E+00  0.00000000E+00
  0.00000000E+00  0.00000000E+00  0.00000000E+00
  0.00000000E+00  0.00000000E+00  0.00000000E+00
  0.00000000E+00  0.00000000E+00  0.00000000E+00
  0.00000000E+00  0.00000000E+00  0.00000000E+00
  0.00000000E+00  0.00000000E+00  0.00000000E+00
  0.00000000E+00  0.00000000E+00  0.00000000E+00
  0.00000000E+00  0.00000000E+00  0.00000000E+00
  0.00000000E+00  0.00000000E+00  0.00000000E+00
  0.00000000E+00  0.00000000E+00  0.00000000E+00
  0.00000000E+00  0.00000000E+00  0.00000000E+00
  0.00000000E+00  0.00000000E+00  0.00000000E+00
  0.00000000E+00  0.00000000E+00  0.00000000E+00
  0.00000000E+00  0.00000000E+00  0.00000000E+00
  0.00000000E+00  0.00000000E+00  0.00000000E+00
  0.00000000E+00  0.00000000E+00  0.00000000E+00
  0.00000000E+00  0.00000000E+00  0.00000000E+00
  0.00000000E+00  0.00000000E+00  0.00000000E+00
  0.00000000E+00  0.00000000E+00  0.00000000E+00
  0.00000000E+00  0.00000000E+00  0.00000000E+00
  0.00000000E+00  0.00000000E+00  0.00000000E+00
  0.00000000E+00  0.00000000E+00  0.00000000E+00
  0.00000000E+00  0.00000000E+00  0.00000000E+00
  0.00000000E+00  0.00000000E+00  0.00000000E+00
  0.00000000E+00  0.00000000E+00  0.00000000E+00
  0.00000000E+00  0.00000000E+00  0.00000000E+00
  0.00000000E+00  0.00000000E+00  0.00000000E+00
  0.00000000E+00  0.00000000E+00  0.00000000E+00
  0.00000000E+00  0.00000000E+00  0.00000000E+00
  0.00000000E+00  0.00000000E+00  0.00000000E+00
  0.00000000E+00  0.00000000E+00  0.00000000E+00
  0.00000000E+00  0.00000000E+00  0.00000000E+00
  0.00000000E+00  0.00000000E+00  0.00000000E+00
  0.00000000E+00  0.00000000E+00  0.00000000E+00
  0.00000000E+00  0.00000000E+00  0.00000000E+00
  0.00000000E+00  0.00000000E+00  0.00000000E+00
  0.00000000E+00  0.00000000E+00  0.00000000E+00
  0.00000000E+00  0.00000000E+00  0.00000000E+00
  0.00000000E+00  0.00000000E+00  0.00000000E+00
  0.00000000E+00  0.00000000E+00  0.00000000E+00
  0.00000000E+00  0.00000000E+00  0.00000000E+00
  0.00000000E+00  0.00000000E+00  0.00000000E+00
  0.00000000E+00  0.00000000E+00  0.00000000E+00
  0.00000000E+00  0.00000000E+00  0.00000000E+00
  0.00000000E+00  0.00000000E+00  0.00000000E+00
  0.00000000E+00  0.00000000E+00  0.00000000E+00
  0.00000000E+00  0.00000000E+00  0.00000000E+00
  0.00000000E+00  0.00000000E+00  0.00000000E+00
  0.00000000E+00  0.00000000E+00  0.00000000E+00
  0.00000000E+00  0.00000000E+00  0.00000000E+00
  0.00000000E+00  0.00000000E+00  0.00000000E+00
  0.00000000E+00  0.00000000E+00  0.00000000E+00
  0.00000000E+00  0.00000000E+00  0.00000000E+00
  0.00000000E+00  0.00000000E+00  0.00000000E+00
  0.00000000E+00  0.00000000E+00  0.00000000E+00
  0.00000000E+00  0.00000000E+00  0.00000000E+00
  0.00000000E+00  0.00000000E+00  0.00000000E+00
  0.00000000E+00  0.00000000E+00  0.00000000E+00
  0.00000000E+00  0.00000000E+00  0.00000000E+00
  0.00000000E+00  0.00000000E+00  0.00000000E+00
  0.00000000E+00  0.00000000E+00  0.00000000E+00
  0.00000000E+00  0.00000000E+00  0.00000000E+00
  0.00000000E+00  0.00000000E+00  0.00000000E+00
  0.00000000E+00  0.00000000E+00  0.00000000E+00
  0.00000000E+00  0.00000000E+00  0.00000000E+00
  0.00000000E+00  0.00000000E+00  0.00000000E+00
  0.00000000E+00  0.00000000E+00  0.00000000E+00
  0.00000000E+00  0.00000000E+00  0.00000000E+00
  0.00000000E+00  0.00000000E+00  0.00000000E+00
  0.00000000E+00  0.00000000E+00  0.00000000E+00
  0.00000000E+00  0.00000000E+00  0.00000000E+00
  0.00000000E+00  0.00000000E+00  0.00000000E+00
  0.00000000E+00  0.00000000E+00  0.00000000E+00
  0.00000000E+00  0.00000000E+00  0.00000000E+00
  0.00000000E+00  0.00000000E+00  0.00000000E+00
  0.00000000E+00  0.00000000E+00  0.00000000E+00
  0.00000000E+00  0.00000000E+00  0.00000000E+00
  0.00000000E+00  0.00000000E+00  0.00000000E+00
  0.00000000E+00  0.00000000E+00  0.00000000E+00
  0.00000000E+00  0.00000000E+00  0.00000000E+00
  0.00000000E+00  0.00000000E+00  0.00000000E+00
  0.00000000E+00  0.00000000E+00  0.00000000E+00
  0.00000000E+00  0.00000000E+00  0.00000000E+00
  0.00000000E+00  0.00000000E+00  0.00000000E+00
  0.00000000E+00  0.00000000E+00  0.00000000E+00
  0.00000000E+00  0.00000000E+00  0.00000000E+00
  0.00000000E+00  0.00000000E+00  0.00000000E+00
