SYSTEM = AlN
Electronic minimisation
PREC = High
IBRION = 2
ISIF = 3
ISYM = 1
NSW = 200
ISPIN = 2
MAGMOM = 48*0.0 54*0.0 3*0.0 3*5.0
EDIFF = 1E-6
EDIFFG = -0.01
#LDIPOL = .TRUE.
#IDIPOL = 3
LCHARG   =  .FALSE.
LWAVE = .FALSE.
DOS related value
ISMEAR = -5

LDAU      = .TRUE.
LDAUTYPE  = 2
LDAUL     = -1 -1 -1 2

LDAUU     = 0.00 0.00 0.00 2.95

LDAUJ     = 0.00 0.00 0.00 0.00

LDAUPRINT = 2
LMAXMIX   = 4

NPAR = 8
