POSCAR
1.000000
  9.4865282153730188  0.00000000000000000000  0.00000000000000000
 -4.7432641076865094  8.21557442823088875731  0.00000000000000000
  0.0000000000000000  0.00000000000000000000  15.0608332529724933
  Al   N   Li  Nb
  48   54   3   3
Direct
  0.11111100  0.22222233  1.00000000
  0.44444433  0.22222233  1.00000000
  0.77777767  0.22222233  1.00000000
  0.77777767  0.55555567  1.00000000
  0.11111100  0.88888900  1.00000000
  0.44444433  0.88888900  1.00000000
  0.77777767  0.88888900  1.00000000
  0.11111100  0.22222233  0.33333333
  0.44444433  0.22222233  0.33333333
  0.77777767  0.22222233  0.33333333
  0.11111100  0.55555567  0.33333333
  0.44444433  0.55555567  0.33333333
  0.77777767  0.55555567  0.33333333
  0.11111100  0.88888900  0.33333333
  0.44444433  0.88888900  0.33333333
  0.77777767  0.88888900  0.33333333
  0.11111100  0.22222233  0.66666667
  0.44444433  0.22222233  0.66666667
  0.77777767  0.22222233  0.66666667
  0.11111100  0.55555567  0.66666667
  0.44444433  0.55555567  0.66666667
  0.77777767  0.55555567  0.66666667
  0.11111100  0.88888900  0.66666667
  0.44444433  0.88888900  0.66666667
  0.77777767  0.88888900  0.66666667
  0.55555567  0.11111100  0.83333333
  0.88888900  0.11111100  0.83333333
  0.22222233  0.44444433  0.83333333
  0.55555567  0.44444433  0.83333333
  0.88888900  0.44444433  0.83333333
  0.22222233  0.77777767  0.83333333
  0.55555567  0.77777767  0.83333333
  0.88888900  0.77777767  0.83333333
  0.22222233  0.11111100  0.16666667
  0.55555567  0.11111100  0.16666667
  0.88888900  0.11111100  0.16666667
  0.22222233  0.44444433  0.16666667
  0.55555567  0.44444433  0.16666667
  0.55555567  0.77777767  0.16666667
  0.88888900  0.77777767  0.16666667
  0.22222233  0.11111100  0.50000000
  0.55555567  0.11111100  0.50000000
  0.88888900  0.11111100  0.50000000
  0.55555567  0.44444433  0.50000000
  0.88888900  0.44444433  0.50000000
  0.22222233  0.77777767  0.50000000
  0.55555567  0.77777767  0.50000000
  0.88888900  0.77777767  0.50000000
  0.11111100  0.22222233  0.12500000
  0.44444433  0.22222233  0.12500000
  0.77777767  0.22222233  0.12500000
  0.11111100  0.55555567  0.12500000
  0.44444433  0.55555567  0.12500000
  0.77777767  0.55555567  0.12500000
  0.11111100  0.88888900  0.12500000
  0.44444433  0.88888900  0.12500000
  0.77777767  0.88888900  0.12500000
  0.11111100  0.22222233  0.45833333
  0.44444433  0.22222233  0.45833333
  0.77777767  0.22222233  0.45833333
  0.11111100  0.55555567  0.45833333
  0.44444433  0.55555567  0.45833333
  0.77777767  0.55555567  0.45833333
  0.11111100  0.88888900  0.45833333
  0.44444433  0.88888900  0.45833333
  0.77777767  0.88888900  0.45833333
  0.11111100  0.22222233  0.79166667
  0.44444433  0.22222233  0.79166667
  0.77777767  0.22222233  0.79166667
  0.11111100  0.55555567  0.79166667
  0.44444433  0.55555567  0.79166667
  0.77777767  0.55555567  0.79166667
  0.11111100  0.88888900  0.79166667
  0.44444433  0.88888900  0.79166667
  0.77777767  0.88888900  0.79166667
  0.22222233  0.11111100  0.95833333
  0.55555567  0.11111100  0.95833333
  0.88888900  0.11111100  0.95833333
  0.22222233  0.44444433  0.95833333
  0.55555567  0.44444433  0.95833333
  0.88888900  0.44444433  0.95833333
  0.22222233  0.77777767  0.95833333
  0.55555567  0.77777767  0.95833333
  0.88888900  0.77777767  0.95833333
  0.22222233  0.11111100  0.29166667
  0.55555567  0.11111100  0.29166667
  0.88888900  0.11111100  0.29166667
  0.22222233  0.44444433  0.29166667
  0.55555567  0.44444433  0.29166667
  0.88888900  0.44444433  0.29166667
  0.22222233  0.77777767  0.29166667
  0.55555567  0.77777767  0.29166667
  0.88888900  0.77777767  0.29166667
  0.22222233  0.11111100  0.62500000
  0.55555567  0.11111100  0.62500000
  0.88888900  0.11111100  0.62500000
  0.22222233  0.44444433  0.62500000
  0.55555567  0.44444433  0.62500000
  0.88888900  0.44444433  0.62500000
  0.22222233  0.77777767  0.62500000
  0.55555567  0.77777767  0.62500000
  0.88888900  0.77777767  0.62500000
  0.11111100  0.55555567  1.00000000
  0.22222233  0.11111100  0.83333333
  0.22222233  0.77777767  0.16666667
  0.44444433  0.55555567  1.00000000
  0.88888900  0.44444433  0.16666667
  0.22222233  0.44444433  0.50000000
