Cu	N	Ru	Ta                              
   1.00000000000000     
    18.1096308199999996    0.0000000000000000    0.0000000000000000
     0.0000000000000000   23.3551997799999995    0.0000000000000000
     0.0000000000000000    0.0000000000000000   30.4818171199999988
   Cu   N    Ru   Ta
     2   240    48   192
Selective dynamics
Direct
  0.5914206696740697  0.4399405283241390  0.5760540835343632   T   T   T
  0.0912079408364117  0.0591880850533960  0.5758489504834995   T   T   T
  0.0000000000000000  0.0000000000000000  0.3032267788896164   F   F   F
  0.0000000000000000  0.5000000000000000  0.3032267788896164   F   F   F
  0.0000000000000000  0.6249999998929567  0.3032267788896164   F   F   F
  0.0000000000000000  0.7500000002140865  0.3032267788896164   F   F   F
  0.0000000000000000  0.8750000001070433  0.3032267788896164   F   F   F
  0.0000000000000000  0.1249999998929567  0.3032267788896164   F   F   F
  0.0000000000000000  0.2500000002140865  0.3032267788896164   F   F   F
  0.0000000000000000  0.3750000001070433  0.3032267788896164   F   F   F
  0.9987907833882993  0.2496300132935028  0.4731460918619452   T   T   T
  0.0006775917687490  0.5029684379517557  0.4753958899847260   T   T   T
  0.0012329345568299 -0.0003320496544054  0.4762600938541787   T   T   T
  0.0021342543076632  0.3739782339707260  0.4761970585094365   T   T   T
  0.0013536020270285  0.1255246060268506  0.4756015440211386   T   T   T
  0.0202170566543183  0.2872033961422716  0.5758923644988403   T   T   T
  0.0270482296625862  0.8511369805095836  0.5935631225026828   T   T   T
  0.0348632774056597  0.6113696837999105  0.5585768714499165   T   T   T
  0.5353938686222307  0.8876164717075978  0.5583834390304765   T   T   T
  0.5941133989389655  0.0000000000000000  0.2322132027803434   F   F   F
  0.5941133989389655  0.5000000000000000  0.2322132027803434   F   F   F
  0.5941133989389655  0.6249999998929567  0.2322132027803434   F   F   F
  0.5941133989389655  0.7500000002140865  0.2322132027803434   F   F   F
  0.5941133989389655  0.8750000001070433  0.2322132027803434   F   F   F
  0.5941133989389655  0.1249999998929567  0.2322132027803434   F   F   F
  0.5941133989389655  0.2500000002140865  0.2322132027803434   F   F   F
  0.5941133989389655  0.3750000001070433  0.2322132027803434   F   F   F
  0.6131689491169953  0.9826495679544566  0.5692749595816384   T   T   T
  0.5896871359367900  0.3603865431370950  0.5718763253836571   T   T   T
  0.5987967046868619  0.7488595752398982  0.4015414401818813   T   T   T
  0.5984958760326951  0.8743673108294636  0.4020780075733684   T   T   T
  0.5990602799398971  0.6243927147362444  0.4021078151256455   T   T   T
  0.5988305365731175  0.2496894583453114  0.4024778733541319   T   T   T
  0.5983952572329008  0.1249209682713600  0.4019842818818642   T   T   T
  0.5980916062486762 -0.0005686220755443  0.4018962260388640   T   T   T
  0.5993989399322120  0.4990408965348608  0.4025237129609276   T   T   T
  0.5996147613980422  0.3750607606838868  0.4028826445548027   T   T   T
  0.5950152420302185  0.7693282336375442  0.5766282636482710   T   T   T
  0.6144334422919593  0.1208236469905017  0.5708874879774017   T   T   T
  0.5956757293453309  0.5201848499628331  0.5717565278400223   T   T   T
  0.6460264876887646  0.8757926200786806  0.4871813396276622   T   T   T
  0.6508512615749303  0.6212874831236516  0.4847945238419108   T   T   T
  0.6504552217372493  0.2485298967044337  0.4865649819501794   T   T   T
  0.6487546874574284  0.7482569340155661  0.4842442852038703   T   T   T
  0.6511986253213392 -0.0013520117847608  0.4849867742562726   T   T   T
  0.6520353965194761  0.1230495957607204  0.4849248247012351   T   T   T
  0.6541497854309374  0.4983853822358047  0.4859953343414178   T   T   T
  0.6545990963497701  0.0000000000000000  0.3156671842141137   F   F   F
  0.6545990963497701  0.5000000000000000  0.3156671842141137   F   F   F
  0.6545990963497701  0.6249999998929567  0.3156671842141137   F   F   F
  0.6545990963497701  0.7500000002140865  0.3156671842141137   F   F   F
  0.6545990963497701  0.8750000001070433  0.3156671842141137   F   F   F
  0.6545990963497701  0.1249999998929567  0.3156671842141137   F   F   F
  0.6545990963497701  0.2500000002140865  0.3156671842141137   F   F   F
  0.6545990963497701  0.3750000001070433  0.3156671842141137   F   F   F
  0.6540017125541286  0.3765534421944158  0.4865673319181734   T   T   T
  0.6818642033418363  0.2463019149702725  0.5667566865351777   T   T   T
  0.6798827175443292  0.6354942268137581  0.5697818561072373   T   T   T
  0.7179445974812551  0.8632600699417516  0.5590261556198908   T   T   T
  0.7492422882998102  0.8749801701303348  0.3876454394240095   T   T   T
  0.7499999997239044  0.0000000000000000  0.1996562654398630   F   F   F
  0.7499999997239044  0.5000000000000000  0.1996562654398630   F   F   F
  0.7499999997239044  0.6249999998929567  0.1996562654398630   F   F   F
  0.7499999997239044  0.7500000002140865  0.1996562654398630   F   F   F
  0.7499999997239044  0.8750000001070433  0.1996562654398630   F   F   F
  0.7499999997239044  0.1249999998929567  0.1996562654398630   F   F   F
  0.7499999997239044  0.2500000002140865  0.1996562654398630   F   F   F
  0.7499999997239044  0.3750000001070433  0.1996562654398630   F   F   F
  0.7495621061926587  0.7502651385440744  0.3883058666036944   T   T   T
  0.7500688475661104  0.6251001592528644  0.3885219247922092   T   T   T
  0.7495197325247477  0.0000035331758716  0.3872837959004230   T   T   T
  0.7496897623316905  0.1247299445304087  0.3868063705972589   T   T   T
  0.7498700627235494  0.2498008292526167  0.3875941439476515   T   T   T
  0.7506581217679483  0.4997954044681737  0.3879019171091633   T   T   T
  0.7506866462529413  0.3750863908530295  0.3880223365177810   T   T   T
  0.7473124783186457  0.3695343817381457  0.5603483690641615   T   T   T
  0.7449736065569080  0.5064104448807361  0.5600062274901737   T   T   T
  0.7721667185542537  0.9905510508656354  0.5578998313627964   T   T   T
  0.7653671187724844  0.1320485246587969  0.5588599599106355   T   T   T
  0.7706674529195987  0.7420576058918655  0.5545009966471232   T   T   T
  0.8454009036502299  0.0000000000000000  0.3156671842141137   F   F   F
  0.8454009036502299  0.5000000000000000  0.3156671842141137   F   F   F
  0.8454009036502299  0.6249999998929567  0.3156671842141137   F   F   F
  0.8454009036502299  0.7500000002140865  0.3156671842141137   F   F   F
  0.8454009036502299  0.8750000001070433  0.3156671842141137   F   F   F
  0.8454009036502299  0.1249999998929567  0.3156671842141137   F   F   F
  0.8454009036502299  0.2500000002140865  0.3156671842141137   F   F   F
  0.8454009036502299  0.3750000001070433  0.3156671842141137   F   F   F
  0.8451486275293493  0.8762034475092503  0.4839539791300185   T   T   T
  0.8523971145443743  0.6304967239421525  0.4857046401762860   T   T   T
  0.8489376461187575  0.2441514914330729  0.4843129319062144   T   T   T
  0.8499062648895980  0.0021621966667796  0.4853196389406743   T   T   T
  0.8515111698178561  0.5019491005018001  0.4886246363219458   T   T   T
  0.8487489158285727  0.1208041045876858  0.4847326505048421   T   T   T
  0.8514269287592624  0.3734120596448944  0.4894137793150551   T   T   T
  0.8501238939340967  0.7547409828115683  0.4842610901696003   T   T   T
  0.8624383982044911  0.2572186880639213  0.5670482768232220   T   T   T
  0.8759238129629531  0.8612262879878489  0.5651177718964711   T   T   T
  0.8519662803782826  0.6161317204027739  0.5731561245099578   T   T   T
  0.8996053036457594  0.6258429155899856  0.4011713364905992   T   T   T
  0.9005779605842864  0.7519987085728577  0.4006555467914634   T   T   T
  0.9009083446637964  0.8756484248022625  0.4014565236886430   T   T   T
  0.9004006412295859  0.3749955566454702  0.4037346149650001   T   T   T
  0.9007369165016658  0.2498649141947669  0.4016526497526258   T   T   T
  0.9004133829899459  0.5002403304917402  0.4030874068885245   T   T   T
  0.9016449557170757  0.0001775324010879  0.4020018564477498   T   T   T
  0.9017474485686089  0.1238320532919402  0.4013849230649875   T   T   T
  0.9058866010610345  0.0000000000000000  0.2322132027803434   F   F   F
  0.9058866010610345  0.5000000000000000  0.2322132027803434   F   F   F
  0.9058866010610345  0.6249999998929567  0.2322132027803434   F   F   F
  0.9058866010610345  0.7500000002140865  0.2322132027803434   F   F   F
  0.9058866010610345  0.8750000001070433  0.2322132027803434   F   F   F
  0.9058866010610345  0.1249999998929567  0.2322132027803434   F   F   F
  0.9058866010610345  0.2500000002140865  0.2322132027803434   F   F   F
  0.9058866010610345  0.3750000001070433  0.2322132027803434   F   F   F
  0.9277931481747722  0.5085254391314089  0.5753318900463760   T   T   T
  0.9233813805935902  0.3757198228268083  0.5767017438884571   T   T   T
  0.9167949030799372  0.1412553314774715  0.5690808515283877   T   T   T
  0.9231915114193057  0.9810807981000104  0.5722562718239400   T   T   T
  0.9355411526669247  0.7117294859796728  0.5677462204731833   T   T   T
  0.0941133989389655  0.0000000000000000  0.2322132027803434   F   F   F
  0.0941133989389655  0.5000000000000000  0.2322132027803434   F   F   F
  0.0941133989389655  0.6249999998929567  0.2322132027803434   F   F   F
  0.0941133989389655  0.7500000002140865  0.2322132027803434   F   F   F
  0.0941133989389655  0.8750000001070433  0.2322132027803434   F   F   F
  0.0941133989389655  0.1249999998929567  0.2322132027803434   F   F   F
  0.0941133989389655  0.2500000002140865  0.2322132027803434   F   F   F
  0.0941133989389655  0.3750000001070433  0.2322132027803434   F   F   F
  0.0955665156294959  0.7295253970958830  0.5761744195012247   T   T   T
  0.0896990180497910  0.1386287459790725  0.5716953706294298   T   T   T
  0.0987202383445364  0.6253155275716967  0.4020388371384937   T   T   T
  0.0988365365012600  0.7509675079560716  0.4015641076789580   T   T   T
  0.0987860104786643  0.2500354467187588  0.4026073162098794   T   T   T
  0.0987775557216043  0.8753790019791018  0.4021229958642042   T   T   T
  0.0985939262324637  0.3746375049184981  0.4020069823613115   T   T   T
  0.9961063006958503  0.6270554112062494  0.4714018467788802   T   T   T
  0.9985761953106858  0.8739221508184283  0.4754451994661148   T   T   T
  0.0985477260102100  0.5002817077682755  0.4018027969460232   T   T   T
  0.0000481131089959  0.7518865511586607  0.4718513782213786   T   T   T
  0.0993872780914397  0.1247897831246952  0.4029010201559439   T   T   T
  0.0990533635942759  0.0008565118784189  0.4024524065900785   T   T   T
  0.1126187210006810  0.5159348919472490  0.5691267501884621   T   T   T
  0.0955227773548454  0.9791268898728676  0.5711970163130711   T   T   T
  0.1149177408829559  0.3778400349336690  0.5710157176340535   T   T   T
  0.1461759657937006  0.6239143699236696  0.4868806426099706   T   T   T
  0.1507845799723348  0.8786010659244349  0.4844944266027401   T   T   T
  0.1505132240232720  0.2508946372712695  0.4867349955312768   T   T   T
  0.1491167345631472  0.7512295624816479  0.4840844354553366   T   T   T
  0.1515604892417755  0.5007081758906009  0.4849816612357968   T   T   T
  0.1537700706852120  0.0015645393712223  0.4857146191496575   T   T   T
  0.1522776888053113  0.3763732878446890  0.4851293384541305   T   T   T
  0.1537290780352552  0.1230314214921887  0.4864900110606294   T   T   T
  0.1545990963497701  0.0000000000000000  0.3156671842141137   F   F   F
  0.1545990963497701  0.5000000000000000  0.3156671842141137   F   F   F
  0.1545990963497701  0.6249999998929567  0.3156671842141137   F   F   F
  0.1545990963497701  0.7500000002140865  0.3156671842141137   F   F   F
  0.1545990963497701  0.8750000001070433  0.3156671842141137   F   F   F
  0.1545990963497701  0.1249999998929567  0.3156671842141137   F   F   F
  0.1545990963497701  0.2500000002140865  0.3156671842141137   F   F   F
  0.1545990963497701  0.3750000001070433  0.3156671842141137   F   F   F
  0.1835704837529316  0.2524531413427641  0.5666739742595509   T   T   T
  0.1811456310967653  0.8640948312778789  0.5686194871223449   T   T   T
  0.2183749930362194  0.6362374803383105  0.5582556253721370   T   T   T
  0.2499999997239044  0.0000000000000000  0.1996562654398630   F   F   F
  0.2499999997239044  0.5000000000000000  0.1996562654398630   F   F   F
  0.2499999997239044  0.6249999998929567  0.1996562654398630   F   F   F
  0.2499999997239044  0.7500000002140865  0.1996562654398630   F   F   F
  0.2499999997239044  0.8750000001070433  0.1996562654398630   F   F   F
  0.2499999997239044  0.1249999998929567  0.1996562654398630   F   F   F
  0.2499999997239044  0.2500000002140865  0.1996562654398630   F   F   F
  0.2499999997239044  0.3750000001070433  0.1996562654398630   F   F   F
  0.2493902903666579  0.6247875099410711  0.3874211435918610   T   T   T
  0.2495512756149844  0.7495035274374299  0.3880503791928498   T   T   T
  0.2498572771773484  0.8747802918766506  0.3882989054994060   T   T   T
  0.2498704345654456  0.4997389961333686  0.3871841524918982   T   T   T
  0.2498644576680320  0.2499390756580814  0.3875952692989940   T   T   T
  0.2498672858858627  0.3750008305369672  0.3867978611502068   T   T   T
  0.2504503115114806  0.0001244716795960  0.3878613338839608   T   T   T
  0.2505939025772903  0.1247376047316906  0.3880520961530183   T   T   T
  0.2471850144431779  0.1292679815178489  0.5607061850862425   T   T   T
  0.2450250903541716  0.9933830149844213  0.5602262974166660   T   T   T
  0.2725069147058697  0.5092250183866126  0.5581857288388589   T   T   T
  0.2654795884981567  0.3675262938166835  0.5589136633224611   T   T   T
  0.2713756839297529  0.7579997375708647  0.5538456716463425   T   T   T
  0.3454009036502299  0.0000000000000000  0.3156671842141137   F   F   F
  0.3454009036502299  0.5000000000000000  0.3156671842141137   F   F   F
  0.3454009036502299  0.6249999998929567  0.3156671842141137   F   F   F
  0.3454009036502299  0.7500000002140865  0.3156671842141137   F   F   F
  0.3454009036502299  0.8750000001070433  0.3156671842141137   F   F   F
  0.3454009036502299  0.1249999998929567  0.3156671842141137   F   F   F
  0.3454009036502299  0.2500000002140865  0.3156671842141137   F   F   F
  0.3454009036502299  0.3750000001070433  0.3156671842141137   F   F   F
  0.3450810639972902  0.6235300611191752  0.4837172680785259   T   T   T
  0.3518468601905280  0.8689607500120521  0.4858860253453350   T   T   T
  0.3490628627609769  0.2554973932854062  0.4842336801621737   T   T   T
  0.3502766072684302  0.4975987607161440  0.4854376735146906   T   T   T
  0.3510577420713550 -0.0024210579904691  0.4889121288962899   T   T   T
  0.3489448899183026  0.3790189057611376  0.4847703009966393   T   T   T
  0.3512212636802926  0.1263235269315379  0.4894633756053214   T   T   T
  0.3502903464906064  0.7448784782679828  0.4840389517697544   T   T   T
  0.3622629209336551  0.2420100655509847  0.5669319163683142   T   T   T
  0.3531729198770742  0.8842167140520578  0.5734603124081099   T   T   T
  0.3760197515287894  0.6390209826177584  0.5645588515099694   T   T   T
  0.3993414760253870  0.8739892172851258  0.4011815372273397   T   T   T
  0.4005323693309108  0.7478512344854866  0.4005259393090951   T   T   T
  0.4002435599946793  0.1246781014825104  0.4037072734836438   T   T   T
  0.4011098889741426  0.6240966810949834  0.4013402278937647   T   T   T
  0.4000429350532427 -0.0005240882238924  0.4032308326526420   T   T   T
  0.4007312222900986  0.2499176390729573  0.4015175972444332   T   T   T
  0.4019663553991463  0.4996374966018692  0.4019864529649358   T   T   T
  0.4019268582403338  0.3759523148362168  0.4013392877472545   T   T   T
  0.4058866010610345  0.0000000000000000  0.2322132027803434   F   F   F
  0.4058866010610345  0.5000000000000000  0.2322132027803434   F   F   F
  0.4058866010610345  0.6249999998929567  0.2322132027803434   F   F   F
  0.4058866010610345  0.7500000002140865  0.2322132027803434   F   F   F
  0.4058866010610345  0.8750000001070433  0.2322132027803434   F   F   F
  0.4058866010610345  0.1249999998929567  0.2322132027803434   F   F   F
  0.4058866010610345  0.2500000002140865  0.2322132027803434   F   F   F
  0.4058866010610345  0.3750000001070433  0.2322132027803434   F   F   F
  0.4287831769735293  0.9911083370254710  0.5759957104816146   T   T   T
  0.4240091635549584  0.1237321808958218  0.5761709553298494   T   T   T
  0.4169359783811049  0.3580335323630872  0.5689250316569469   T   T   T
  0.4236450424833951  0.5189125395603391  0.5723324959628833   T   T   T
  0.4359435066244872  0.7876093209239337  0.5682497928752678   T   T   T
  0.4959324636869227  0.8724825316050029  0.4713064098729883   T   T   T
  0.4988067867985113  0.6258109934495759  0.4754068724749225   T   T   T
  0.5000000000000000  0.0000000000000000  0.3032267788896164   F   F   F
  0.5000000000000000  0.5000000000000000  0.3032267788896164   F   F   F
  0.5000000000000000  0.6249999998929567  0.3032267788896164   F   F   F
  0.5000000000000000  0.7500000002140865  0.3032267788896164   F   F   F
  0.5000000000000000  0.8750000001070433  0.3032267788896164   F   F   F
  0.5000000000000000  0.1249999998929567  0.3032267788896164   F   F   F
  0.5000000000000000  0.2500000002140865  0.3032267788896164   F   F   F
  0.5000000000000000  0.3750000001070433  0.3032267788896164   F   F   F
  0.4986891162629761  0.2498615786532534  0.4729649452263713   T   T   T
  0.4999988382624947  0.7477792967964240  0.4718036088383026   T   T   T
  0.5001969086274258 -0.0034769937957832  0.4755888508271139   T   T   T
  0.5019286669327925  0.1254404236866077  0.4759535301761124   T   T   T
  0.5016596542356504  0.5001979708386115  0.4761469538587257   T   T   T
  0.5015965634570743  0.3741489208740861  0.4754640065032942   T   T   T
  0.5210989194575046  0.2125400548824989  0.5752032477045035   T   T   T
  0.5247705723444084  0.6483492256730173  0.5948942925079059   T   T   T
  0.0157215321603480  0.5293975831460276  0.5433068932127137   T   T   T
  0.0192618015438381  0.3635650683997924  0.5464288762849353   T   T   T
  0.0027131729590133  0.1492324731533745  0.5429606844185466   T   T   T
  0.0072235455434136  0.9723118676892191  0.5439113006914010   T   T   T
  0.6047399475612523  0.6895310086562886  0.5839885278363024   T   T   T
  0.6240659850771796  0.0514420552481426  0.5398444440371999   T   T   T
  0.6161039628459437  0.8390561348762019  0.5484650202877905   T   T   T
  0.6667266730441702  0.3131078572005405  0.5386316262073818   T   T   T
  0.6715592280523368  0.5641515921858736  0.5367100352834050   T   T   T
  0.6799133409608988  0.1768775024571572  0.5393893123578399   T   T   T
  0.7008851773945692  0.9386847590299876  0.5382082225446183   T   T   T
  0.7107552332934539  0.4368679888965148  0.5338644794424153   T   T   T
  0.7727370813533480  0.6637447469692543  0.5505543971487390   T   T   T
  0.7983602048379387  0.0617427730669157  0.5336807561909798   T   T   T
  0.7958012182373545  0.8125741443069122  0.5363471434300541   T   T   T
  0.8364598201637922  0.5426732413514069  0.5503963320887612   T   T   T
  0.8418789546688955  0.1840452595282397  0.5349754854902206   T   T   T
  0.8390440073799332  0.3330032956413669  0.5525449371376983   T   T   T
  0.8560647029710847  0.9365587291574347  0.5373936889534237   T   T   T
  0.9081663603870117  0.4414183723275088  0.5451281382812255   T   T   T
  0.9390427698012089  0.6351967910914755  0.5349822010682465   T   T   T
  0.9724038158137783  0.8596900241662394  0.5433104988198811   T   T   T
  0.9586663246464406  0.2602768790614324  0.5378669266770393   T   T   T
  0.0074440801030742  0.7415653697900488  0.5395623877166656   T   T   T
  0.1069464401447834  0.8095302929399304  0.5831713076107218   T   T   T
  0.1231952546035103  0.4471269345820083  0.5397483892347340   T   T   T
  0.1158145184772432  0.6595358177942956  0.5481815504287126   T   T   T
  0.1675924572165907  0.1857329706030946  0.5385953321825142   T   T   T
  0.1720242054100328  0.9357447921933020  0.5362067172126717   T   T   T
  0.1808243079234274  0.3220041091941249  0.5394462291901428   T   T   T
  0.2009712720668436  0.5604588492086194  0.5380898758950352   T   T   T
  0.2102871749366010  0.0622736848992230  0.5338963261443935   T   T   T
  0.2743757367480461  0.8363349374254039  0.5499737526827350   T   T   T
  0.2984502138249964  0.4380308675575246  0.5339211597830255   T   T   T
  0.2958474535016460  0.6874422230450674  0.5356211064181392   T   T   T
  0.3366919204300632  0.9574538525040398  0.5508157607228907   T   T   T
  0.3420545351989392  0.3155480720800762  0.5349565388205707   T   T   T
  0.3388316260573401  0.1663275187130777  0.5525822176175103   T   T   T
  0.3562824999149040  0.5632541885824485  0.5374614528953695   T   T   T
  0.4084787393141795  0.0575665823857423  0.5451788874933398   T   T   T
  0.4393759210614837  0.8646780735082986  0.5349955826215235   T   T   T
  0.4585149635061100  0.2388968512950154  0.5375425795511298   T   T   T
  0.4726114061725248  0.6398112481325351  0.5436795209809072   T   T   T
  0.5069148138169617  0.7577134354444252  0.5395609998728101   T   T   T
  0.5162836272646144  0.9694903448850704  0.5435232952887407   T   T   T
  0.5192011704779799  0.1356372343627664  0.5461937812800612   T   T   T
  0.5029362048584157  0.3501659401655752  0.5428298094755781   T   T   T
  0.5079182139641287  0.5272152638511339  0.5439882739501756   T   T   T
  0.0000000000000000  0.0000000000000000  0.1972002481458333   F   F   F
  0.0000000000000000  0.5000000000000000  0.1972002481458333   F   F   F
  0.0000000000000000  0.6249999998929567  0.1972002481458333   F   F   F
  0.0000000000000000  0.7500000002140865  0.1972002481458333   F   F   F
  0.0000000000000000  0.8750000001070433  0.1972002481458333   F   F   F
  0.0000000000000000  0.1249999998929567  0.1972002481458333   F   F   F
  0.0000000000000000  0.2500000002140865  0.1972002481458333   F   F   F
  0.0000000000000000  0.3750000001070433  0.1972002481458333   F   F   F
 -0.0006886924964577  0.6255365316718262  0.3699491059905101   T   T   T
  0.9990586415611240  0.3749541194427075  0.3702646522328248   T   T   T
 -0.0000452309857343  0.7506388677230399  0.3695711118949158   T   T   T
 -0.0000631910174360  0.2500706393848321  0.3698860839266894   T   T   T
 -0.0009234565460910  0.5000089513333368  0.3701003473360696   T   T   T
  0.0001358703767536  0.8754055167074823  0.3697939981672481   T   T   T
  0.0005025204666108  0.0001272680438686  0.3698078761566743   T   T   T
  0.0009493162313963  0.1250197836033226  0.3697728213927058   T   T   T
  0.5825346300460907  0.4375000002676046  0.2838671249793236   F   F   F
  0.5825346300460907  0.5625000001605613  0.2838671249793236   F   F   F
  0.5825346300460907  0.0625000001605613  0.2838671249793236   F   F   F
  0.5825346300460907  0.6875000000535181  0.2838671249793236   F   F   F
  0.5825346300460907  0.8124999999464819  0.2838671249793236   F   F   F
  0.5825346300460907  0.9375000002676046  0.2838671249793236   F   F   F
  0.5825346300460907  0.1875000000535181  0.2838671249793236   F   F   F
  0.5825346300460907  0.3124999999464819  0.2838671249793236   F   F   F
  0.5821133839673341  0.9368204555917369  0.4540755667922571   T   T   T
  0.5846006573642143  0.5614204160508124  0.4546224204945204   T   T   T
  0.5845334499361898  0.8105558059046462  0.4550306221034318   T   T   T
  0.5835370954880806  0.1865867226148116  0.4546858029570136   T   T   T
  0.5827432937205388  0.0614523190617937  0.4544909230138220   T   T   T
  0.5847023563786286  0.3123067628082878  0.4553400131460122   T   T   T
  0.5867517029901090  0.6863992828839817  0.4556797030541120   T   T   T
  0.5846679556404768  0.4372993471631474  0.4555839532528262   T   T   T
  0.6657105641648826  0.4375000002676046  0.2025710526275901   F   F   F
  0.6657105641648826  0.5625000001605613  0.2025710526275901   F   F   F
  0.6657105641648826  0.0625000001605613  0.2025710526275901   F   F   F
  0.6657105641648826  0.6875000000535181  0.2025710526275901   F   F   F
  0.6657105641648826  0.8124999999464819  0.2025710526275901   F   F   F
  0.6657105641648826  0.9375000002676046  0.2025710526275901   F   F   F
  0.6657105641648826  0.1875000000535181  0.2025710526275901   F   F   F
  0.6657105641648826  0.3124999999464819  0.2025710526275901   F   F   F
  0.6669880706140476  0.8121147760873696  0.3683770114749015   T   T   T
  0.6674294890468491  0.6872201460484244  0.3685922874819463   T   T   T
  0.6670012753490110  0.9371849293220182  0.3683234118436927   T   T   T
  0.6669896263953843  0.0622999854608430  0.3681411890853193   T   T   T
  0.6680483850805710  0.5623181278994318  0.3687172196876230   T   T   T
  0.6673407369059865  0.1874051806644857  0.3683550282048478   T   T   T
  0.6681276346550862  0.4373725822025348  0.3687808299424282   T   T   T
  0.6678157764680105  0.3124813844215379  0.3688065360079504   T   T   T
  0.7459755024757895  0.8753112553042783  0.4556082677796360   T   T   T
  0.7514675021235532  0.6250031968526286  0.4574807954287856   T   T   T
  0.7499999997239044  0.0000000000000000  0.2777865629422820   F   F   F
  0.7499999997239044  0.5000000000000000  0.2777865629422820   F   F   F
  0.7499999997239044  0.6249999998929567  0.2777865629422820   F   F   F
  0.7499999997239044  0.7500000002140865  0.2777865629422820   F   F   F
  0.7499999997239044  0.8750000001070433  0.2777865629422820   F   F   F
  0.7499999997239044  0.1249999998929567  0.2777865629422820   F   F   F
  0.7499999997239044  0.2500000002140865  0.2777865629422820   F   F   F
  0.7499999997239044  0.3750000001070433  0.2777865629422820   F   F   F
  0.7499068805307119 -0.0001694646607991  0.4551682987988548   T   T   T
  0.7492217517519947  0.2494618719305277  0.4556884833495484   T   T   T
  0.7525577333059427  0.5003099774528534  0.4560916386576364   T   T   T
  0.7489980460184081  0.7501357594000422  0.4566968290497297   T   T   T
  0.7499212441311945  0.1242764261621813  0.4542048623223489   T   T   T
  0.7526961715819023  0.3739314546104940  0.4564123512835543   T   T   T
  0.0825346300460907  0.4375000002676046  0.2838671249793236   F   F   F
  0.0825346300460907  0.5625000001605613  0.2838671249793236   F   F   F
  0.0825346300460907  0.0625000001605613  0.2838671249793236   F   F   F
  0.0825346300460907  0.6875000000535181  0.2838671249793236   F   F   F
  0.0825346300460907  0.8124999999464819  0.2838671249793236   F   F   F
  0.0825346300460907  0.9375000002676046  0.2838671249793236   F   F   F
  0.0825346300460907  0.1875000000535181  0.2838671249793236   F   F   F
  0.0825346300460907  0.3124999999464819  0.2838671249793236   F   F   F
  0.8315305187760165  0.6879819682411022  0.3680104567372951   T   T   T
  0.8315702147528377  0.8129577965585019  0.3679331491479764   T   T   T
  0.8321648304129091  0.5627075066882603  0.3683291198816436   T   T   T
  0.8321091324587920  0.9376350725983243  0.3683670853175072   T   T   T
  0.0825926335647523  0.5626747827625823  0.4540165620155948   T   T   T
  0.8323676839418123  0.0622851265944117  0.3682109988427862   T   T   T
  0.8325874530251094  0.3125025494455181  0.3686231873946555   T   T   T
  0.8328976810481085  0.4375650694577533  0.3686953635216493   T   T   T
  0.8323822800815103  0.1873803662774527  0.3680297080451286   T   T   T
  0.8342894060167296  0.4375000002676046  0.2025710526275901   F   F   F
  0.8342894060167296  0.5625000001605613  0.2025710526275901   F   F   F
  0.8342894060167296  0.0625000001605613  0.2025710526275901   F   F   F
  0.8342894060167296  0.6875000000535181  0.2025710526275901   F   F   F
  0.8342894060167296  0.8124999999464819  0.2025710526275901   F   F   F
  0.8342894060167296  0.9375000002676046  0.2025710526275901   F   F   F
  0.8342894060167296  0.1875000000535181  0.2025710526275901   F   F   F
  0.8342894060167296  0.3124999999464819  0.2025710526275901   F   F   F
  0.0845622813615960  0.6891362246617019  0.4549402421829604   T   T   T
  0.0842325887817627  0.9383660929562190  0.4545190924789711   T   T   T
  0.0837279809862110  0.3129193804784832  0.4548922437874793   T   T   T
  0.0868161467889255  0.8132355375792458  0.4557475238148688   T   T   T
  0.0831250998537655  0.4379423849834536  0.4543844921185657   T   T   T
  0.0845422857358532  0.1873977685369607  0.4554455140524300   T   T   T
  0.0842046166411100  0.0625383621163138  0.4554924933995738   T   T   T
  0.9145515352653023  0.6905412406756108  0.4530847769123179   T   T   T
  0.9167545515369001  0.9380065658210058  0.4544761067629567   T   T   T
  0.9160155207448604  0.8139603812623845  0.4539741108371847   T   T   T
  0.9153457171233786  0.3113310990321444  0.4556814136521019   T   T   T
  0.9155352122403023  0.5643851387799462  0.4546554571134863   T   T   T
  0.9174653699539093  0.4375000002676046  0.2838671249793236   F   F   F
  0.9174653699539093  0.5625000001605613  0.2838671249793236   F   F   F
  0.9174653699539093  0.0625000001605613  0.2838671249793236   F   F   F
  0.9174653699539093  0.6875000000535181  0.2838671249793236   F   F   F
  0.9174653699539093  0.8124999999464819  0.2838671249793236   F   F   F
  0.9174653699539093  0.9375000002676046  0.2838671249793236   F   F   F
  0.9174653699539093  0.1875000000535181  0.2838671249793236   F   F   F
  0.9174653699539093  0.3124999999464819  0.2838671249793236   F   F   F
  0.9163276934536566  0.1857872424400381  0.4529578473271517   T   T   T
  0.9169959368694703  0.4377729364659364  0.4573642693129539   T   T   T
  0.9182795292006541  0.0617284039865017  0.4543349511512286   T   T   T
  0.1657105641648826  0.4375000002676046  0.2025710526275901   F   F   F
  0.1657105641648826  0.5625000001605613  0.2025710526275901   F   F   F
  0.1657105641648826  0.0625000001605613  0.2025710526275901   F   F   F
  0.1657105641648826  0.6875000000535181  0.2025710526275901   F   F   F