Ta  N Cu                                
   1.00000000000000     
    18.1096308199999996    0.0000000000000000    0.0000000000000000
     0.0000000000000000   23.3551997799999995    0.0000000000000000
     0.0000000000000000    0.0000000000000000   30.4818170799999990
   Ta   N    Cu
   240   240     3
Selective dynamics
Direct
  0.0000000000000000  0.0000000000000000  0.1962037549895328   F   F   F
  0.3335422814544131  0.0625000001605613  0.2032829710819826   F   F   F
  0.1664576892793903  0.0625000001605613  0.2032829710819826   F   F   F
  0.2499999997239044  0.1249999998929567  0.2787808134173062   F   F   F
  0.0825353920715628  0.0625000001605613  0.2838315333135668   F   F   F
  0.4174646079284372  0.0625000001605613  0.2838315333135668   F   F   F
  0.9999794998422341  0.1249788452818199  0.3695596574446116   T   T   T
  0.3322533306741624  0.0624937955629675  0.3684161140707049   T   T   T
  0.1677669940535546  0.0624802393951648  0.3684079302005049   T   T   T
  0.2499921259043275  0.1250200937446863  0.4556938337608986   T   T   T
  0.0838564157434888  0.0624622642877167  0.4543098815811202   T   T   T
  0.4161267338974740  0.0624839366777531  0.4543556463704329   T   T   T
 -0.0000192591806222  0.1249767307569444  0.5406528221511475   T   T   T
  0.3351948261298742  0.0624081175816178  0.5426030111636495   T   T   T
  0.1648704771450863  0.0624367590691106  0.5425628992578423   T   T   T
  0.0000000000000000  0.1249999998929567  0.1962037549895328   F   F   F
  0.3335422814544131  0.1875000000535181  0.2032829710819826   F   F   F
  0.1664576892793903  0.1875000000535181  0.2032829710819826   F   F   F
  0.2499999997239044  0.2500000002140865  0.2787808134173062   F   F   F
  0.0825353920715628  0.1875000000535181  0.2838315333135668   F   F   F
  0.4174646079284372  0.1875000000535181  0.2838315333135668   F   F   F
  0.9999618921043374  0.2499636519384904  0.3695642207760436   T   T   T
  0.3322389007815696  0.1874938183595863  0.3684129647011255   T   T   T
  0.1677603935882739  0.1874733630164923  0.3683875984312607   T   T   T
  0.2499365254591934  0.2499945104717011  0.4556589252951693   T   T   T
  0.0837882151235366  0.1874374472347413  0.4543058820210530   T   T   T
  0.4161306200036843  0.1874589266234207  0.4543621784808800   T   T   T
  0.9999674031002272  0.2499028626979142  0.5406350957062614   T   T   T
  0.3352098244081135  0.1872590162079539  0.5425586935027432   T   T   T
  0.1647477877303756  0.1873960551770630  0.5424824362213251   T   T   T
  0.0000000000000000  0.2500000002140865  0.1962037549895328   F   F   F
  0.3335422814544131  0.3124999999464819  0.2032829710819826   F   F   F
  0.1664576892793903  0.3124999999464819  0.2032829710819826   F   F   F
  0.2499999997239044  0.3750000001070433  0.2787808134173062   F   F   F
  0.0825353920715628  0.3124999999464819  0.2838315333135668   F   F   F
  0.4174646079284372  0.3124999999464819  0.2838315333135668   F   F   F
  0.9999503698610792  0.3750150210481898  0.3695641218197781   T   T   T
  0.3322403695246308  0.3124966536296603  0.3684500413466660   T   T   T
  0.1677275078471348  0.3124780932479553  0.3683854045914934   T   T   T
  0.2497862470021718  0.3749810460903026  0.4556199831819482   T   T   T
  0.0837160088862999  0.3124415931841878  0.4542466764678513   T   T   T
  0.4161336642619609  0.3124409533071322  0.4543842891392282   T   T   T
  0.9999245967582987  0.3749402968351498  0.5404807289258134   T   T   T
  0.3340941632883678  0.3118245389363761  0.5425195744383946   T   T   T
  0.1642097205792276  0.3124681869297285  0.5423945014140953   T   T   T
  0.0000000000000000  0.3750000001070433  0.1962037549895328   F   F   F
  0.3335422814544131  0.4375000002676046  0.2032829710819826   F   F   F
  0.1664576892793903  0.4375000002676046  0.2032829710819826   F   F   F
  0.2499999997239044  0.0000000000000000  0.2787808134173062   F   F   F
  0.0825353920715628  0.4375000002676046  0.2838315333135668   F   F   F
  0.4174646079284372  0.4375000002676046  0.2838315333135668   F   F   F
  0.9999889912342396 -0.0000073279767867  0.3695631408547729   T   T   T
  0.3323144310605736  0.4374994534326425  0.3684355428444885   T   T   T
  0.1677132897381768  0.4374991687878638  0.3683338974331781   T   T   T
  0.2500176508863949  0.9999879086222065  0.4557137595588494   T   T   T
  0.0836277130401209  0.4374995347913924  0.4542600371521495   T   T   T
  0.4162117962849305  0.4374910667646645  0.4544008683472899   T   T   T
  0.9999927064094256  0.9999614194864836  0.5406990552858494   T   T   T
  0.3316679113935314  0.4374533826623487  0.5408751351697311   T   T   T
  0.1636510865377833  0.4375001715516047  0.5424449126327812   T   T   T
  0.0000000000000000  0.5000000000000000  0.1962037549895328   F   F   F
  0.3335422814544131  0.5625000001605613  0.2032829710819826   F   F   F
  0.1664576892793903  0.5625000001605613  0.2032829710819826   F   F   F
  0.2499999997239044  0.6249999998929567  0.2787808134173062   F   F   F
  0.0825353920715628  0.5625000001605613  0.2838315333135668   F   F   F
  0.4174646079284372  0.5625000001605613  0.2838315333135668   F   F   F
  0.9999607686629023  0.6250327272713855  0.3695637687256129   T   T   T
  0.3322345003667352  0.5624991631169877  0.3684519147754765   T   T   T
  0.1677270349893777  0.5625189299348373  0.3683879662417159   T   T   T
  0.2499464062698844  0.6249893049829887  0.4556655869070610   T   T   T
  0.0837174150774449  0.5625580780225526  0.4542506747500414   T   T   T
  0.4161266598305979  0.5625463756169108  0.4543858258914421   T   T   T
  0.9999723967824218  0.6250819223725256  0.5406426014215788   T   T   T
  0.3340750202506240  0.5631441113256221  0.5425507404602865   T   T   T
  0.1642106398271715  0.5625283875175522  0.5423999258824697   T   T   T
  0.0000000000000000  0.6249999998929567  0.1962037549895328   F   F   F
  0.3335422814544131  0.6875000000535181  0.2032829710819826   F   F   F
  0.1664576892793903  0.6875000000535181  0.2032829710819826   F   F   F
  0.2499999997239044  0.7500000002140865  0.2787808134173062   F   F   F
  0.0825353920715628  0.6875000000535181  0.2838315333135668   F   F   F
  0.4174646079284372  0.6875000000535181  0.2838315333135668   F   F   F
  0.9999777568541104  0.7500168087764661  0.3695620837277765   T   T   T
  0.3322393171744086  0.6874991298132465  0.3684146162498694   T   T   T
  0.1677598809368915  0.6875220273963117  0.3683887788070175   T   T   T
  0.2499936631183765  0.7499670229242612  0.4556954820026891   T   T   T
  0.0837879727596444  0.6875552599965521  0.4543060234235832   T   T   T
  0.4161274058706627  0.6875205759605476  0.4543680831963537   T   T   T
 -0.0000158652308732  0.7500049544442919  0.5406565997329105   T   T   T
  0.3352304271667659  0.6877050678762126  0.5425667412946584   T   T   T
  0.1647561972085833  0.6875993083119708  0.5424867166863626   T   T   T
  0.0000000000000000  0.7500000002140865  0.1962037549895328   F   F   F
  0.3335422814544131  0.8124999999464819  0.2032829710819826   F   F   F
  0.1664576892793903  0.8124999999464819  0.2032829710819826   F   F   F
  0.2499999997239044  0.8750000001070433  0.2787808134173062   F   F   F
  0.0825353920715628  0.8124999999464819  0.2838315333135668   F   F   F
  0.4174646079284372  0.8124999999464819  0.2838315333135668   F   F   F
  0.9999890255070004  0.8750014534260737  0.3695706620115726   T   T   T
  0.3322544199909293  0.8124980581691660  0.3684170270258596   T   T   T
  0.1677662111149056  0.8125128586151560  0.3684083435144241   T   T   T
  0.2500187513776411  0.8749976674036121  0.4557148940514464   T   T   T
  0.0838587746844060  0.8125304405925392  0.4543143730313035   T   T   T
  0.4161217055648163  0.8124957827506410  0.4543564781848397   T   T   T
  0.9999847902589950  0.8750208792871712  0.5407004290450085   T   T   T
  0.3351949841541962  0.8125644768819836  0.5426101295629792   T   T   T
  0.1648725712382493  0.8125482255429154  0.5425709269296961   T   T   T
  0.0000000000000000  0.8750000001070433  0.1962037549895328   F   F   F
  0.3335422814544131  0.9375000002676046  0.2032829710819826   F   F   F
  0.1664576892793903  0.9375000002676046  0.2032829710819826   F   F   F
  0.2499999997239044  0.5000000000000000  0.2787808134173062   F   F   F
  0.0825353920715628  0.9375000002676046  0.2838315333135668   F   F   F
  0.4174646079284372  0.9375000002676046  0.2838315333135668   F   F   F
  0.9999511843217620  0.4999830313381243  0.3695637545986249   T   T   T
  0.3322374453715871  0.9374948826882590  0.3684025197879424   T   T   T
  0.1677799951063589  0.9374957338779768  0.3684057494923092   T   T   T
  0.2498048634831148  0.5000137089583521  0.4556288427021818   T   T   T
  0.0838450725677600  0.9374965645089526  0.4543400300991752   T   T   T
  0.4161475108898264  0.9374896672456579  0.4543440828476650   T   T   T
  0.9999247403432993  0.5000444195815338  0.5404825418730969   T   T   T
  0.3351614313328912  0.9374874516357861  0.5425898409800052   T   T   T
  0.1648730305441249  0.9374916791292732  0.5425662587329273   T   T   T
  0.5000000000000000  0.0000000000000000  0.1962037549895328   F   F   F
  0.8335422809022219  0.0625000001605613  0.2032829710819826   F   F   F
  0.6664576892793903  0.0625000001605613  0.2032829710819826   F   F   F
  0.7499999997239044  0.1249999998929567  0.2787808134173062   F   F   F
  0.5825353920715628  0.0625000001605613  0.2838315333135668   F   F   F
  0.9174646079284372  0.0625000001605613  0.2838315333135668   F   F   F
  0.4999898778784795  0.1250044517536495  0.3695652750257348   T   T   T
  0.8322116599230626  0.0624807789466360  0.3684055365091105   T   T   T
  0.6677344029696263  0.0624964677018762  0.3684206951561226   T   T   T
  0.7499534005694282  0.1250239181549072  0.4556974625634634   T   T   T
  0.5838455792916876  0.0624877900665155  0.4543573986163385   T   T   T
  0.9160973944574367  0.0624604726000918  0.4543125092670550   T   T   T
  0.4999868537444200  0.1251615318000995  0.5407143361706285   T   T   T
  0.8350939396428744  0.0624366511598003  0.5425688377930208   T   T   T
  0.6647716117831326  0.0624080121057374  0.5426118866949624   T   T   T
  0.5000000000000000  0.1249999998929567  0.1962037549895328   F   F   F
  0.8335422809022219  0.1875000000535181  0.2032829710819826   F   F   F
  0.6664576892793903  0.1875000000535181  0.2032829710819826   F   F   F
  0.7499999997239044  0.2500000002140865  0.2787808134173062   F   F   F
  0.5825353920715628  0.1875000000535181  0.2838315333135668   F   F   F
  0.9174646079284372  0.1875000000535181  0.2838315333135668   F   F   F
  0.4999814456940050  0.2499950599814374  0.3695762702566491   T   T   T
  0.8321941462966335  0.1874738584206274  0.3683871958266587   T   T   T
  0.6677333112990794  0.1874964870428373  0.3684210993843970   T   T   T
  0.7499554845019405  0.2499934556833769  0.4556767317881177   T   T   T
  0.5838090354979576  0.1874643042573606  0.4543702058674943   T   T   T
  0.9161316217229726  0.1874345173482359  0.4543054657426573   T   T   T
  0.4999727105113541  0.2502637470448886  0.5407465656245254   T   T   T
  0.8351818282604436  0.1873898315860693  0.5424978087639459   T   T   T
  0.6647207257364036  0.1872538490551035  0.5425895112280853   T   T   T
  0.5000000000000000  0.2500000002140865  0.1962037549895328   F   F   F
  0.8335422809022219  0.3124999999464819  0.2032829710819826   F   F   F
  0.6664576892793903  0.3124999999464819  0.2032829710819826   F   F   F
  0.7499999997239044  0.3750000001070433  0.2787808134173062   F   F   F
  0.5825353920715628  0.3124999999464819  0.2838315333135668   F   F   F
  0.9174646079284372  0.3124999999464819  0.2838315333135668   F   F   F
  0.4999743781792592  0.3749904846517695  0.3695694121146407   T   T   T
  0.8322108144262398  0.3124802101468431  0.3683871178632017   T   T   T
  0.6677063088883428  0.3125010758243938  0.3684645567165903   T   T   T
  0.7500339758693646  0.3749819849731775  0.4556429132369270   T   T   T
  0.5837654742510897  0.3124429449247618  0.4544025045673536   T   T   T
  0.9161334401729399  0.3124301566361810  0.4542575792795312   T   T   T
  0.4999202678151017  0.3755963306023805  0.5407202376111564   T   T   T
  0.8356519881277978  0.3124525053393868  0.5424127800612137   T   T   T
  0.6657822557057284  0.3118159317950965  0.5425749414572796   T   T   T
  0.5000000000000000  0.3750000001070433  0.1962037549895328   F   F   F
  0.8335422809022219  0.4375000002676046  0.2032829710819826   F   F   F
  0.6664576892793903  0.4375000002676046  0.2032829710819826   F   F   F
  0.7499999997239044  0.0000000000000000  0.2787808134173062   F   F   F
  0.5825353920715628  0.4375000002676046  0.2838315333135668   F   F   F
  0.9174646079284372  0.4375000002676046  0.2838315333135668   F   F   F
  0.4999940624360875  0.0000041714178751  0.3695618877988435   T   T   T
  0.8322104679177014  0.4374991980117956  0.3683301266891760   T   T   T
  0.6676146212961444  0.4374998830972692  0.3684480147945422   T   T   T
  0.7499530301451623  0.9999945780718846  0.4557145291135451   T   T   T
  0.5836433556607530  0.4374937744567860  0.4544301475339864   T   T   T
  0.9161943155326324  0.4374970712058245  0.4542685020551552   T   T   T
  0.4999859273647823  0.0000204906023689  0.5407034393333199   T   T   T
  0.8361785680846479  0.4374990201989520  0.5424615214748927   T   T   T
  0.6681173252278505  0.4374467726179110  0.5409549018044641   T   T   T
  0.5000000000000000  0.5000000000000000  0.1962037549895328   F   F   F
  0.8335422809022219  0.5625000001605613  0.2032829710819826   F   F   F
  0.6664576892793903  0.5625000001605613  0.2032829710819826   F   F   F
  0.7499999997239044  0.6249999998929567  0.2787808134173062   F   F   F
  0.5825353920715628  0.5625000001605613  0.2838315333135668   F   F   F
  0.9174646079284372  0.5625000001605613  0.2838315333135668   F   F   F
  0.4999783861012059  0.6249973689097610  0.3695773810065027   T   T   T
  0.8322082063166083  0.5625179745939688  0.3683887432430383   T   T   T
  0.6677091339015618  0.5624960597299146  0.3684685357423443   T   T   T
  0.7499497738960118  0.6249986018402522  0.4556777794853448   T   T   T
  0.5837692096269743  0.5625502266696289  0.4544035921504322   T   T   T
  0.9161392464562966  0.5625623128583697  0.4542598017046438   T   T   T
  0.4999665951894555  0.6247218339072926  0.5407549841964574   T   T   T
  0.8356497292654669  0.5625332894608265  0.5424140987829530   T   T   T
  0.6657965328817733  0.5631373417284636  0.5426038080208401   T   T   T
  0.5000000000000000  0.6249999998929567  0.1962037549895328   F   F   F
  0.8335422809022219  0.6875000000535181  0.2032829710819826   F   F   F
  0.6664576892793903  0.6875000000535181  0.2032829710819826   F   F   F
  0.7499999997239044  0.7500000002140865  0.2787808134173062   F   F   F
  0.5825353920715628  0.6875000000535181  0.2838315333135668   F   F   F
  0.9174646079284372  0.6875000000535181  0.2838315333135668   F   F   F
  0.4999874551898859  0.7499856432903270  0.3695672155533194   T   T   T
  0.8321929740439222  0.6875195700740935  0.3683894983521799   T   T   T
  0.6677286124597378  0.6874964472439161  0.3684215768816349   T   T   T
  0.7499506212715387  0.7499616026039492  0.4557006535794479   T   T   T
  0.5838055629045543  0.6875184943912507  0.4543678934028746   T   T   T
  0.9161342121137217  0.6875570942378278  0.4543127546080461   T   T   T
  0.4999904445346119  0.7498270168593246  0.5407176490515166   T   T   T
  0.8351764270032526  0.6876070466766190  0.5424964375886580   T   T   T
  0.6647056781686701  0.6877231218812807  0.5425899168451290   T   T   T
  0.5000000000000000  0.7500000002140865  0.1962037549895328   F   F   F
  0.8335422809022219  0.8124999999464819  0.2032829710819826   F   F   F
  0.6664576892793903  0.8124999999464819  0.2032829710819826   F   F   F
  0.7499999997239044  0.8750000001070433  0.2787808134173062   F   F   F
  0.5825353920715628  0.8124999999464819  0.2838315333135668   F   F   F
  0.9174646079284372  0.8124999999464819  0.2838315333135668   F   F   F
  0.4999942860108752  0.8749848854597025  0.3695667574256893   T   T   T
  0.8322121396994051  0.8125112850231604  0.3684068870577932   T   T   T
  0.6677353779692085  0.8124958709760104  0.3684215926825729   T   T   T
  0.7499477146659345  0.8749967125738388  0.4557149392181146   T   T   T
  0.5838426538039793  0.8124956058114141  0.4543559147304024   T   T   T
  0.9160955787719701  0.8125252338441353  0.4543157253788896   T   T   T
  0.4999857960862331  0.8749520936210370  0.5407078581391667   T   T   T
  0.8350935777864387  0.8125505012932364  0.5425698116329848   T   T   T
  0.6647735425166212  0.8125747014222093  0.5426133635016005   T   T   T
  0.5000000000000000  0.8750000001070433  0.1962037549895328   F   F   F
  0.8335422809022219  0.9375000002676046  0.2032829710819826   F   F   F
  0.6664576892793903  0.9375000002676046  0.2032829710819826   F   F   F
  0.7499999997239044  0.5000000000000000  0.2787808134173062   F   F   F
  0.5825353920715628  0.9375000002676046  0.2838315333135668   F   F   F
  0.9174646079284372  0.9375000002676046  0.2838315333135668   F   F   F
  0.4999736392556656  0.4999996333310491  0.3695761022556740   T   T   T
  0.8322047168371699  0.9374952942652997  0.3684047121569357   T   T   T
  0.6677454672575259  0.9374941570130464  0.3684041035442543   T   T   T
  0.7500218730543107  0.5000079150978818  0.4556526953220080   T   T   T
  0.5838314303148688  0.9374867232106818  0.4543456191586666   T   T   T
  0.9161238423078545  0.9374929787808438  0.4543378223656179   T   T   T
  0.4999263467644965  0.4994650026043465  0.5406846003906768   T   T   T
  0.8351073754001896  0.9374917752928903  0.5425614602482997   T   T   T
  0.6648195529157284  0.9374888297549114  0.5425901862306075   T   T   T
  0.4070505905542277  0.0000000000000000  0.2321160648471405   F   F   F
  0.2499999997239044  0.0000000000000000  0.1975324349659786   F   F   F
  0.0929494094457723  0.0000000000000000  0.2321160648471405   F   F   F
  0.1544227962345630  0.1249999998929567  0.3158353176496362   F   F   F
  0.0000000000000000  0.1249999998929567  0.3028242704748862   F   F   F
  0.3455772037654370  0.1249999998929567  0.3158353176496362   F   F   F
  0.4010246836875835  0.1250003555332015  0.4021069271387580   T   T   T
  0.2500062274577688  0.1249926713370517  0.3876100764486852   T   T   T
  0.0989800960117779  0.1249747094352092  0.4020739728972938   T   T   T
  0.1514058562675747  0.1249685188012816  0.4877119669444858   T   T   T
  0.9999720959875760  0.1249291726901173  0.4724710086012193   T   T   T
  0.3485954291121465  0.1249892051763036  0.4877668845026802   T   T   T
  0.4030801318172162  0.1250629875395913  0.5703031884438836   T   T   T
  0.2500196297810839  0.1250978770589795  0.5577128601366372   T   T   T
  0.0969058201901849  0.1249659262213345  0.5701792536217665   T   T   T
  0.4070505905542277  0.1249999998929567  0.2321160648471405   F   F   F
  0.2499999997239044  0.1249999998929567  0.1975324349659786   F   F   F
  0.0929494094457723  0.1249999998929567  0.2321160648471405   F   F   F
  0.1544227962345630  0.2500000002140865  0.3158353176496362   F   F   F
  0.0000000000000000  0.2500000002140865  0.3028242704748862   F   F   F
  0.3455772037654370  0.2500000002140865  0.3158353176496362   F   F   F
  0.4010223265317793  0.2500154213968949  0.4021198117006531   T   T   T
  0.2499845356606184  0.2499792076646567  0.3875887978254218   T   T   T
  0.0989622159237995  0.2499442974364370  0.4020431280917295   T   T   T
  0.1513247436843433  0.2499379931507984  0.4876772050450033   T   T   T
  0.9999412983829967  0.2499241902388144  0.4724280487042219   T   T   T
  0.3485443789761450  0.2500064093149155  0.4877600217866703   T   T   T
  0.4029200365464691  0.2503300351464655  0.5703175882816667   T   T   T
  0.2500257368245585  0.2503469863543652  0.5575853931493249   T   T   T
  0.0968474341589244  0.2498656714750713  0.5702150537879156   T   T   T
  0.4070505905542277  0.2500000002140865  0.2321160648471405   F   F   F
  0.2499999997239044  0.2500000002140865  0.1975324349659786   F   F   F
  0.0929494094457723  0.2500000002140865  0.2321160648471405   F   F   F
  0.1544227962345630  0.3750000001070433  0.3158353176496362   F   F   F
  0.0000000000000000  0.3750000001070433  0.3028242704748862   F   F   F
  0.3455772037654370  0.3750000001070433  0.3158353176496362   F   F   F
  0.4010389838488095  0.3750021224771682  0.4021219323818281   T   T   T
  0.2499870998018285  0.3750318682119663  0.3875884383865821   T   T   T
  0.0989850019783433  0.3749943847648902  0.4020078912024789   T   T   T
  0.1510909401402415  0.3749514794050034  0.4876148373594923   T   T   T
  0.9999133655596425  0.3749380004683895  0.4722873514117911   T   T   T
  0.3485468203148123  0.3747831383111932  0.4878274363947303   T   T   T
  0.4014851412062051  0.3755508838308508  0.5710556581465298   T   T   T
  0.2491146161185423  0.3750077659014358  0.5576740895104850   T   T   T
  0.0964940724575057  0.3748797720546273  0.5702667040549735   T   T   T
  0.4070505905542277  0.3750000001070433  0.2321160648471405   F   F   F
  0.2499999997239044  0.3750000001070433  0.1975324349659786   F   F   F
  0.0929494094457723  0.3750000001070433  0.2321160648471405   F   F   F
  0.1544227962345630  0.0000000000000000  0.3158353176496362   F   F   F
  0.0000000000000000  0.0000000000000000  0.3028242704748862   F   F   F
  0.3455772037654370  0.0000000000000000  0.3158353176496362   F   F   F
  0.4010188456339326  0.9999914644440416  0.4021003814420174   T   T   T
  0.2500111261119940  0.9999892454608776  0.3876212027191420   T   T   T
  0.0989776141207958  0.9999768881409120  0.4020797686432189   T   T   T
  0.1514304873150035  0.9999890668731205  0.4877387754556044   T   T   T
  0.9999843114823415 -0.0000162258265214  0.4725117104818207   T   T   T
  0.3486027546831347  0.9999850901355557  0.4877523368678952   T   T   T
  0.4031054456262673  0.0000029370011555  0.5702745755375738   T   T   T
  0.2500415864674563  0.0000249299752544  0.5577116065892134   T   T   T
  0.0969191311359279  0.0000014605034885  0.5702225850307537   T   T   T
  0.4070505905542277  0.5000000000000000  0.2321160648471405   F   F   F
  0.2499999997239044  0.5000000000000000  0.1975324349659786   F   F   F
  0.0929494094457723  0.5000000000000000  0.2321160648471405   F   F   F
  0.1544227962345630  0.6249999998929567  0.3158353176496362   F   F   F
  0.0000000000000000  0.6249999998929567  0.3028242704748862   F   F   F
  0.3455772037654370  0.6249999998929567  0.3158353176496362   F   F   F
  0.4010153609035482  0.6249787644272639  0.4021251490212951   T   T   T
  0.2499843688786114  0.6250154987163853  0.3875942955148332   T   T   T
  0.0989617108760975  0.6250522955110709  0.4020447184709174   T   T   T
  0.1513287992954849  0.6250529007829658  0.4876823363076859   T   T   T
  0.9999461720756870  0.6250684017705850  0.4724328931550539   T   T   T
  0.3485507094763122  0.6249663660668889  0.4877734901374688   T   T   T
  0.4029086398271695  0.6246390070437765  0.5703417011848493   T   T   T
  0.2500493776592121  0.6246132055909795  0.5575798656499774   T   T   T
  0.0968593585270042  0.6251204853539317  0.5702192998933429   T   T   T
  0.4070505905542277  0.6249999998929567  0.2321160648471405   F   F   F
  0.2499999997239044  0.6249999998929567  0.1975324349659786   F   F   F
  0.0929494094457723  0.6249999998929567  0.2321160648471405   F   F   F
  0.1544227962345630  0.7500000002140865  0.3158353176496362   F   F   F
  0.0000000000000000  0.7500000002140865  0.3028242704748862   F   F   F
  0.3455772037654370  0.7500000002140865  0.3158353176496362   F   F   F
  0.4010212157297038  0.7499867178515857  0.4021094683505100   T   T   T
  0.2500070537210488  0.7500001609811131  0.3876113715462997   T   T   T
  0.0989779031994703  0.7500184771513991  0.4020738920877538   T   T   T
  0.1514089670563973  0.7500187980646170  0.4877157488144742   T   T   T
  0.9999695430636248  0.7500597133307398  0.4724751027673667   T   T   T
  0.3485958267334566  0.7499907749723069  0.4877724542586707   T   T   T
  0.4030871848663725  0.7499168688174436  0.5703103203593076   T   T   T
  0.2500330629058054  0.7498766601812558  0.5577171979110079   T   T   T
  0.0969179443811610  0.7500194884096946  0.5701805009079707   T   T   T
  0.4070505905542277  0.7500000002140865  0.2321160648471405   F   F   F
  0.2499999997239044  0.7500000002140865  0.1975324349659786   F   F   F
  0.0929494094457723  0.7500000002140865  0.2321160648471405   F   F   F
  0.1544227962345630  0.8750000001070433  0.3158353176496362   F   F   F
  0.0000000000000000  0.8750000001070433  0.3028242704748862   F   F   F
  0.3455772037654370  0.8750000001070433  0.3158353176496362   F   F   F
  0.4010261307984027  0.8749928460197713  0.4020957695906627   T   T   T
  0.2500108016671044  0.8750025941343280  0.3876223365411043   T   T   T
  0.0989757723613325  0.8750121115800530  0.4020807256575584   T   T   T
  0.1514323966998046  0.8749993161742140  0.4877384990593499   T   T   T
  0.9999852093811149  0.8750026102556092  0.4725154425608680   T   T   T
  0.3486034860582675  0.8749924327777792  0.4877558072534282   T   T   T
  0.4031042790787870  0.8749721834722156  0.5702790477823124   T   T   T
  0.2500446337491459  0.8749518062368927  0.5577123197037231   T   T   T
  0.0969250341206206  0.8749803649696568  0.5702251679483329   T   T   T
  0.4070505905542277  0.8750000001070433  0.2321160648471405   F   F   F
  0.2499999997239044  0.8750000001070433  0.1975324349659786   F   F   F
  0.0929494094457723  0.8750000001070433  0.2321160648471405   F   F   F
  0.1544227962345630  0.5000000000000000  0.3158353176496362   F   F   F
  0.0000000000000000  0.5000000000000000  0.3028242704748862   F   F   F
  0.3455772037654370  0.5000000000000000  0.3158353176496362   F   F   F
  0.4010347018970923  0.4999931355337018  0.4021205323780992   T   T   T
  0.2499873892581158  0.4999636120327484  0.3875928495710368   T   T   T
  0.0989848922749251  0.5000047593171331  0.4020083545630488   T   T   T
  0.1511057553958246  0.5000458624610890  0.4876192351739848   T   T   T
  0.9999144967159515  0.5000591132432637  0.4722885073716089   T   T   T
  0.3485599441703757  0.5001988094027863  0.4878496147555464   T   T   T
  0.4015852177985926  0.4994159947418456  0.5711187076582330   T   T   T
  0.2491349105209353  0.4999618689207007  0.5576973966205595   T   T   T
  0.0964989997522102  0.5001099072102942  0.5702707772375578   T   T   T
  0.9070505905542277  0.0000000000000000  0.2321160648471405   F   F   F
  0.7499999997239044  0.0000000000000000  0.1975324349659786   F   F   F
  0.5929494094457723  0.0000000000000000  0.2321160648471405   F   F   F
  0.6544227962345630  0.1249999998929567  0.3158353176496362   F   F   F
  0.5000000000000000  0.1249999998929567  0.3028242704748862   F   F   F
  0.8455772037654370  0.1249999998929567  0.3158353176496362   F   F   F
  0.9009787660943764  0.1249742027582460  0.4020736375632271   T   T   T
  0.7499690877230676  0.1249949824355659  0.3876119635685484   T   T   T
  0.5989517235460664  0.1250059550408238  0.4021127136924033   T   T   T
  0.6513550235229263  0.1249961884821709  0.4877827855760970   T   T   T
  0.4999782015697107  0.1250561433973017  0.4725488688739769   T   T   T
  0.8485370819520760  0.1249611435377111  0.4877126734027152   T   T   T
  0.9030490685204936  0.1249736834058568  0.5701752206605932   T   T   T
  0.7499269601157175  0.1250866278973481  0.5577261079201418   T   T   T
  0.5968640772559520  0.1250390264827219  0.5703257071976422   T   T   T
  0.9070505905542277  0.1249999998929567  0.2321160648471405   F   F   F
  0.7499999997239044  0.1249999998929567  0.1975324349659786   F   F   F
  0.5929494094457723  0.1249999998929567  0.2321160648471405   F   F   F
  0.6544227962345630  0.2500000002140865  0.3158353176496362   F   F   F
  0.5000000000000000  0.2500000002140865  0.3028242704748862   F   F   F
  0.8455772037654370  0.2500000002140865  0.3158353176496362   F   F   F
  0.9009581962686570  0.2499440990645551  0.4020491061674244   T   T   T
  0.7499660421337707  0.2499823720714177  0.3875953085200730   T   T   T
  0.5989317983910788  0.2500179463076113  0.4021322138827840   T   T   T
  0.6513607381998346  0.2500092429928191  0.4877936378231631   T   T   T
  0.4999554316959410  0.2500684609414143  0.4725548588410700   T   T   T
  0.8485616374605005  0.2499287208311436  0.4876881795887299   T   T   T
  0.9030666991988445  0.2498723249235335  0.5702097777477266   T   T   T
  0.7498707129148152  0.2503393632865286  0.5576305612542432   T   T   T
  0.5969875306146594  0.2502891562386915  0.5703655762187028   T   T   T
  0.9070505905542277  0.2500000002140865  0.2321160648471405   F   F   F
  0.7499999997239044  0.2500000002140865  0.1975324349659786   F   F   F
  0.5929494094457723  0.2500000002140865  0.2321160648471405   F   F   F
  0.6544227962345630  0.3750000001070433  0.3158353176496362   F   F   F
  0.5000000000000000  0.3750000001070433  0.3028242704748862   F   F   F
  0.8455772037654370  0.3750000001070433  0.3158353176496362   F   F   F
  0.9009082216353574  0.3749915280052095  0.4020113059901465   T   T   T
  0.7499371148476314  0.3750370565587635  0.3876035640724562   T   T   T
  0.5988894741123985  0.3750099608377436  0.4021449826454758   T   T   T
  0.6512898121269928  0.3747814833042568  0.4878864274753375   T   T   T
  0.4999291365303981  0.3749927277058709  0.4727167545185798   T   T   T
  0.8487243805712814  0.3749476276462508  0.4876269516186242   T   T   T
  0.9033472532349071  0.3748857297616281  0.5702745410542410   T   T   T
  0.7507122825284026  0.3750035622424747  0.5577224752426951   T   T   T
  0.5983080842836653  0.3755414641396676  0.5711244140221109   T   T   T
  0.9070505905542277  0.3750000001070433  0.2321160648471405   F   F   F