Ta  N Co Cu                             
   1.00000000000000     
    18.1096308199999996    0.0000000000000000    0.0000000000000000
     0.0000000000000000   23.3551997799999995    0.0000000000000000
     0.0000000000000000    0.0000000000000000   30.4818171199999988
   Ta   N    Co   Cu
   216   240    24    29
Direct
  0.0020832315261987 -0.0004149328204319  0.1978070614035999
  0.3354080436604118  0.0621023873446242  0.2032236311476807
  0.1678019852159729  0.0622441180668979  0.2033215321550630
  0.2520672626839011  0.1246678864012058  0.2789379274652357
  0.0849099655674566  0.0621423369671759  0.2846585160401257
  0.4192848939988412  0.0621853359012968  0.2843735243325394
  0.0027587377530869  0.1244070230053857  0.3701975937718063
  0.3346763766319911  0.0620991199530641  0.3690380762026136
  0.1703360899511180  0.0620801493549263  0.3690946289957334
  0.2538416022547942  0.1243850546856148  0.4567872646945510
  0.0855797888428996  0.0616984720220491  0.4548385146707615
  0.4210819439508168  0.0617992123481776  0.4539599599189989
  0.3421594129083888  0.0613474029894510  0.5422869686584084
  0.1672051965000387  0.0631442999759085  0.5426430988789311
  0.0023895572466186  0.1248816408199690  0.1980002123089001
  0.3356615300047429  0.1873120166089829  0.2032862413533759
  0.1673217361216323  0.1874115355139073  0.2035268592252352
  0.2516493495037881  0.2497715781230654  0.2792159595174726
  0.0847841326489008  0.1871967739913500  0.2851574247669215
  0.4191814109393001  0.1871942073851275  0.2846947423928405
  0.0024398011512472  0.2495657378876055  0.3710384319168347
  0.3345278237685728  0.1870541266433035  0.3694164390021452
  0.1700271499526395  0.1870598838383763  0.3695098244766400
  0.2526014052424390  0.2474399715681961  0.4570383038532479
  0.0855360346955088  0.1858708084486084  0.4546125005321344
  0.4211629957998823  0.1862711035406636  0.4544670100524589
  0.3439483442216584  0.1844675303000937  0.5433102634928141
  0.1702845092448938  0.1907646220485249  0.5426651652153398
  0.0021624411522289  0.2497478971093829  0.1984451156502181
  0.3351917391404141  0.3120959958851952  0.2035978740560478
  0.1671168614617528  0.3121616370542151  0.2039781236729804
  0.2510013939164211  0.3746277092319430  0.2798436370526155
  0.0846474530389506  0.3121613511746461  0.2857614450144797
  0.4185528054142330  0.3121791412461431  0.2849136335855612
  0.0021966051746385  0.3742092487436238  0.3714828515203075
  0.3334242845364321  0.3123300606090913  0.3697798027522138
  0.1697565549812623  0.3123031081168568  0.3705871799567781
  0.2477800777151103  0.3738696046455408  0.4636196858837892
  0.0852056926576848  0.3111353886587593  0.4576615089140164
  0.4215654907930200  0.3111199250516072  0.4534592090565298
  0.3420909542300434  0.3111087120914514  0.5400081732726034
  0.0022222811261352  0.3746110228074369  0.1988344102049760
  0.3349729257145333  0.4371368467330427  0.2036855476714419
  0.1669664382215802  0.4370943708836271  0.2041393155733726
  0.2521886624261665 -0.0002988060358702  0.2787012763916336
  0.0844628452568471  0.4370151251914730  0.2859407967265945
  0.4180948917395540  0.4371510286484503  0.2850529826010889
  0.0028180687961360 -0.0003837352131323  0.3698840259649043
  0.3322934233564264  0.4371752539127164  0.3700437285442447
  0.1695593154296220  0.4371150113765826  0.3710819224317146
  0.2530729646599913  0.9992861448334636  0.4566511333114179
  0.0831985553272186  0.4367514105572167  0.4558924098209558
  0.4222716565289846  0.4370787900691470  0.4521607515953078
  0.3430496674138696  0.4363403820334109  0.5369190546199835
  0.0018708839489953  0.4995029327927870  0.1988278521788789
  0.3352004045562798  0.5619352937718923  0.2035348204126700
  0.1667321113991168  0.5617951338262841  0.2038959976894485
  0.2509025512980522  0.6243026808307222  0.2792644040920296
  0.0842686342557114  0.5619509610415288  0.2856491830998764
  0.4179536763070889  0.5621168119677784  0.2849978804219291
  0.0010986936122445  0.6246550572820203  0.3710389393711030
  0.3323986485649389  0.5620331826722952  0.3697848292667281
  0.1687274647840559  0.5618062370136717  0.3703822437812511
  0.2487091974903128  0.6273035190904638  0.4579236565644528
  0.0837934822860629  0.5626595937876605  0.4559498416344169
  0.4195521726174081  0.5628788146814507  0.4537195589295920
  0.3433055832111804  0.5638657895507959  0.5424900849295416
  0.0019209925496215  0.6242219547441061  0.1985429030632701
  0.3350914218127616  0.6870807471938404  0.2033806871359431
  0.1672018336526085  0.6869540261493697  0.2036018830708667
  0.2514196868487932  0.7496361362585848  0.2785466946224918
  0.0842330420996669  0.6869048608058771  0.2851053083320317
  0.4182264363943574  0.6871027877495677  0.2847661384644505
  0.0013837863828048  0.7494936194617313  0.3703750664010458
  0.3329899410943445  0.6873529704401884  0.3695969831795345
  0.1687476047146987  0.6871302838642341  0.3697186974204110
  0.2515670029399883  0.7505042119259714  0.4563441537505322
  0.0845188894702193  0.6879083118651215  0.4561026388106104
  0.4178569799420355  0.6886322990145066  0.4548142748107625
  0.3285861801328327  0.6904412332535952  0.5453105461238960
  0.0017381127104402  0.7493085722941490  0.1980373418370134
  0.3353712760819810  0.8118729407546094  0.2031506998621947
  0.1674045835358259  0.8117895152029945  0.2032050282293665
  0.2518992821772471  0.8747526047709269  0.2787085664082221
  0.0845321050352574  0.8119878690990318  0.2846212385595441
  0.4187459740989916  0.8121493651693606  0.2844941573338943
  0.0022533678599556  0.8744611616807376  0.3698508963095489
  0.3339923737652725  0.8123949067099263  0.3691284397214720
  0.1695307671122019  0.8122278069798494  0.3688586417932262
  0.2524758460521229  0.8750022476393302  0.4564391684204381
  0.0842278592696925  0.8129961966813578  0.4539591012799173
  0.4199597370707169  0.8131089467140361  0.4543662970098696
  0.3370636860462407  0.8144241614516345  0.5409993281212186
  0.1679888939618508  0.8084737012242821  0.5412865007326698
  0.0021554911873855  0.8744448618933247  0.1978466003526031
  0.3355856303858407  0.9372195673619461  0.2030676776897684
  0.1675849197565334  0.9372417628692158  0.2030890148343011
  0.2507415427290003  0.4994801029252051  0.2797678994650999
  0.0848274615192779  0.9370803814624473  0.2844614129253136
  0.4191940109123680  0.9371584375455989  0.2843486316278642
  0.0013614573218879  0.4995759691468207  0.3711658117841543
  0.3344384332220648  0.9372942693962544  0.3690566192557599
  0.1700951892733802  0.9371699702334818  0.3689220851036615
  0.2476265589488268  0.4996098186704770  0.4639533321525394
  0.0854107577943380  0.9372231161199843  0.4542109669497746
  0.4208142183355678  0.9375620150639997  0.4543956686497525
  0.3403683843921346  0.9380023529530948  0.5428435634324950
  0.1655293854957391  0.9354753107162948  0.5424965901365636
  0.5015852492998962  0.9996063874873707  0.1976461735607987
  0.8360063091648937  0.0621771170923568  0.2029743331310037
  0.6683136033299517  0.0621653934854081  0.2028376413003072
  0.7524738068579375  0.1245010205525082  0.2781146833991028
  0.5848345291857490  0.0620953267487120  0.2839800530497760
  0.9196200743272744  0.0620480861615771  0.2843109223470799
  0.5025782033001960  0.1245275898185835  0.3696365692157225
  0.8348573189501346  0.0619166233542126  0.3686809035705177
  0.6704227990496994  0.0619561826947618  0.3683843145319634
  0.7538572239622201  0.1239514795726953  0.4559554797813724
  0.5858147579841692  0.0620092850977485  0.4539270006189376
  0.9210846665779389  0.0615303614775967  0.4541375304457641
  0.8404640893384306  0.0603897670575431  0.5419368843183674
  0.6664669826067084  0.0646679599152821  0.5422476882785754
  0.5012970657748896  0.1248846895296011  0.1977170722785798
  0.8365161879038885  0.1871653243215891  0.2030291170477168
  0.6679905991512404  0.1870636713716435  0.2027058818131484
  0.7524106376258509  0.2495201835181122  0.2783995430092839
  0.5846968696331334  0.1871085986988890  0.2839654125161372
  0.9195986470770522  0.1871100741534990  0.2846947479526011
  0.5024547964379403  0.2492741910158592  0.3697202018132867
  0.8349831750025434  0.1868045782406906  0.3690942898108456
  0.6701822584835802  0.1868111179850190  0.3682393865657654
  0.7534188307247643  0.2459733159747553  0.4549115093106479
  0.5859840289104584  0.1860321665844883  0.4537754026247393
  0.9198036256507428  0.1860364351593938  0.4546979592099646
  0.8451376978526317  0.1835316852174754  0.5443515679748157
  0.6716887859752485  0.1914474879112072  0.5410913168714757
  0.5012801799002103  0.2496622641145399  0.1979602820008713
  0.8365008279563433  0.3122537143459402  0.2033516954154790
  0.6679792127907518  0.3121781499684518  0.2029198693465080
  0.7520741336449761  0.3744760480577363  0.2785884774812170
  0.5846105579485321  0.3120995896002128  0.2839314284431047
  0.9193184146140989  0.3120814886961001  0.2851017277030198
  0.5025047238847616  0.3745749553444136  0.3695976062947909
  0.8340699405794305  0.3120474644584735  0.3691971102904857
  0.6696004412978352  0.3121094127227841  0.3681268954048037
  0.7521878590453708  0.3740804139217381  0.4599515542949840
  0.5866261135340457  0.3107936968142099  0.4543402585319053
  0.9194358487071580  0.3112864800953133  0.4554123752141566
  0.8386939683802120  0.3069384272750792  0.5446119310771970
  0.5008137914939136  0.3746855589467846  0.1981762232843124
  0.8361542445507769  0.4369382365557089  0.2035773923206278
  0.6678242963907908  0.4370763950216298  0.2030379988461246
  0.7523534479608220 -0.0004557478798925  0.2782750907481179
  0.5842199950195107  0.4371399996648950  0.2841308091193813
  0.9189040848387864  0.4369988365685632  0.2853986229939949
  0.5026793303152214  0.9996642180622102  0.3697274631435867
  0.8331004047945916  0.4367262667711606  0.3697022906764507
  0.6697526814937200  0.4367863603883877  0.3686605341334521
  0.7531472002777719  0.9994283706979257  0.4560483514193340
  0.5859689939216078  0.4378953073703562  0.4547550583806536
  0.9190232310161691  0.4368357720144513  0.4541840677480993
  0.8341309901725908  0.4360460084032085  0.5394773697180076
  0.5007600368502095  0.4996080461044791  0.1982059018930757
  0.8361023757141555  0.5619078730815498  0.2033901473149063
  0.6675433879113618  0.5621888365108632  0.2029665768857350
  0.7517489936090281  0.6245209449126895  0.2783886667696301
  0.5841045223910899  0.5621670461036999  0.2841843870518234
  0.9186955844366856  0.5619188594608742  0.2852800355732350
  0.5006593500804201  0.6251110927976201  0.3698676433235542
  0.8327796953405944  0.5620167635877356  0.3694492129167996
  0.6694941062264694  0.5621047428860175  0.3682562219759462
  0.7490079737735794  0.6247396975112637  0.4564090269059944
  0.5843641499414364  0.5635897750925408  0.4525360539275848
  0.9174117545776612  0.5623035521964650  0.4547901431949556
  0.8383093387353255  0.5632654970738236  0.5444030385698452
  0.5005103054686670  0.6243577297383301  0.1980151308971719
  0.8358914581108755  0.6867307335811260  0.2031855292648994
  0.6678460899982105  0.6869806649205082  0.2029203861342049
  0.7518934332355935  0.7496685979419450  0.2782532813790277
  0.5839056236178803  0.6871861991044496  0.2840289810768898
  0.9189727438570042  0.6869059295061923  0.2848507947579600
  0.5014042389283695  0.7499869642407876  0.3697857169611206
  0.8335495745391238  0.6871359169282606  0.3690263320324975
  0.6692579497651410  0.6875112091394860  0.3679609163353816
  0.7523197196979177  0.7514304246603314  0.4555992267737415
  0.5850575587034491  0.6885124954701828  0.4533558417056441
  0.9172208047074273  0.6876797308440290  0.4551984602323524
  0.8430618757386754  0.6879869374526700  0.5468950097215401
  0.5010539871246346  0.7495096480539450  0.1977317408710319
  0.8360453975240258  0.8118656347405403  0.2029730453620394
  0.6676546913728740  0.8120891660427563  0.2027774046419877
  0.7520828677683555  0.8745979950455344  0.2782082507348874
  0.5842199270109092  0.8121698888982992  0.2840040661090193
  0.9193321488406972  0.8119270411335739  0.2844982979775448
  0.5021646565456980  0.8749497890806800  0.3698025326932934
  0.8342409442818560  0.8122155680654619  0.3687779766305658
  0.6699003652851606  0.8125021174091122  0.3682017694010560
  0.7534092264582379  0.8746283423164732  0.4558838102079010
  0.5851151517440203  0.8135470126755876  0.4537946838676949
  0.9193526000998086  0.8125876827889935  0.4543913176613136
  0.8448793751449676  0.8131488002605464  0.5434641599580218
  0.6760649647050109  0.8115389330541520  0.5395377109906117
  0.5011797573355884  0.8745332571054303  0.1976942290509510
  0.8360713448130838  0.9368690443584569  0.2028327157154694
  0.6679223105910764  0.9369584623054494  0.2027832387847500
  0.7517514678896587  0.4996592286993887  0.2786722730251996
  0.5846623937503120  0.9371602192508034  0.2840044816671355
  0.9194924620715855  0.9370045669173205  0.2842022559886914
  0.5018415990012064  0.4999187630078957  0.3696723408669731
  0.8346594111609180  0.9371265969057788  0.3685948149156204
  0.6702263315837818  0.9372773937506954  0.3684429807027065
  0.7489798987553632  0.5007764302334438  0.4582857191332075
  0.5857095312327071  0.9376833874521676  0.4542954586645243
  0.9205700355150167  0.9371014875483955  0.4536526010966208
  0.8414175658360949  0.9365802645130233  0.5418491952972139
  0.6673102204525335  0.9382429550003335  0.5423876343273707
  0.4072824599375083  0.9996538830465693  0.2326114730430402
  0.2515288502799858 -0.0003388305423379  0.1991973045776622
  0.0963165513317455 -0.0003088576946133  0.2328045319589897
  0.1570878761193399  0.1246424510010177  0.3166696508363048
  0.0021871472677419  0.1245943990000415  0.3035711891263365
  0.3473177444318624  0.1247028883482911  0.3165244426999312
  0.4039741926065322  0.1244594325849517  0.4025002895661289
  0.2525323094808809  0.1244007430242249  0.3887135389198514
  0.1014879247749546  0.1241911740900641  0.4028924087927948
  0.1541218856859345  0.1247769405533333  0.4880014537294908
  0.0031140863925712  0.1235660459110897  0.4755515351603068
  0.3542467557865571  0.1235760730486628  0.4878448846085698
  0.4123740061926136  0.1233631503701751  0.5666769566357056
  0.2558465205584535  0.1232442149903754  0.5567645305865966
  0.1020189474721456  0.1281739657485698  0.5665909259470332
  0.4071607872788747  0.1248293363960584  0.2328596813157406
  0.2515397367284862  0.1248982154745266  0.2007226838053480
  0.0963406232551246  0.1248568752577089  0.2332530409423854
  0.1570285592259783  0.2498346738516012  0.3173505373658875
  0.0020164928647635  0.2496368518889747  0.3043152524399028
  0.3467998285103354  0.2497597429839612  0.3168745355704267
  0.4035461256546864  0.2491993318049037  0.4024800007591415
  0.2521374152821461  0.2497498906976597  0.3894203481919095
  0.1013948340597292  0.2493008275340659  0.4035950386097070
  0.1535240077499586  0.2453334241196948  0.4876320133195278
  0.0016617480268955  0.2483626591788244  0.4754811273318611
  0.3532205795597618  0.2480540541474159  0.4887185208292604
  0.4137459664169769  0.2481849762522443  0.5693583006118917
  0.2599860805501852  0.2419729269287926  0.5635234277803591
  0.0869544798111587  0.2533751435518439  0.5637487046720980
  0.4069627959402293  0.2497075760376834  0.2330833232501808
  0.2513322347023602  0.2497450156423582  0.2003344225724164
  0.0961837148079532  0.2497856642556871  0.2337678108155790
  0.1565784498739091  0.3747072470108171  0.3180701507606705
  0.0017743073277751  0.3745428389576428  0.3046966353617503
  0.3461986054275863  0.3747472429385818  0.3171360666694419
  0.4034840691467552  0.3743118375312686  0.4016632638353860
  0.2513469252526365  0.3750528777443209  0.3921720903221410
  0.1013033613631531  0.3736636867175429  0.4044778442294371
  0.1450120303768400  0.3745051258665403  0.4920642382305195
 -0.0002889797564255  0.3738498982930731  0.4747842935614445
  0.3564289077004439  0.3738870783738086  0.4848833173049963
  0.4120846120861838  0.3736652833590555  0.5629631372181579
  0.2627287947256335  0.3739354161298291  0.5416454417903955
  0.0662021462655859  0.3806319663935501  0.5723350530655656
  0.4064419022414101  0.3746616965873004  0.2332082375158767
  0.2511123501346815  0.3746176708856716  0.2011201097122373
  0.0962128561883548  0.3745953921471127  0.2341816377726455
  0.1570890950910463 -0.0003428293506183  0.3163531968843181
  0.0022137311207830 -0.0004682914210266  0.3032468937891656
  0.3473412942693898  0.9996854776902961  0.3163338452820753
  0.4040055028541718  0.9995825009745027  0.4024919782876151
  0.2524496888353799  0.9997195570085138  0.3885485398393387
  0.1015211965274220 -0.0003303645052607  0.4027167335645329
  0.1533774539660551  0.9991876793746507  0.4879803486812906
  0.0031523852527287 -0.0005433488496042  0.4752996820163690
  0.3535137501465701  0.9995646086465788  0.4877708577181157
  0.4109776840381659  0.9988071486150946  0.5662681987120401
  0.2550076558887693  0.9989553845485747  0.5573710542032254
  0.0995402109813501  0.0000854654653913  0.5666289744387396
  0.4063998471383110  0.4996100694923378  0.2332862419045849
  0.2509983409257794  0.4995297577720982  0.2005746683887259
  0.0958839485289604  0.4994530472539040  0.2341014808713716
  0.1563567530968463  0.6244140807573614  0.3173722493264884
  0.0014289475862063  0.6244289196029960  0.3043485189879889
  0.3458212732668769  0.6245700850412435  0.3170142142297338
  0.4011591913480763  0.6254233401143341  0.4026603212511901
  0.2506181069732784  0.6243246640938207  0.3899741644043382
  0.1002885900138656  0.6251525255170715  0.4034530356364796
  0.1505661137645035  0.6259766037799691  0.4892636863854936
 -0.0005436281541499  0.6251366399113598  0.4736148717574622
  0.3490658402050453  0.6268683103218665  0.4898454072902255
  0.4149609684294557  0.6289588512204797  0.5723407729025871
  0.2715891757682432  0.6243571277357045  0.5700853554591200
  0.0757740693455987  0.6215646110076192  0.5649247683746518
  0.4064044107677222  0.6244885475325949  0.2332170954835711
  0.2510540395316895  0.6242720516117565  0.2012032463805329
  0.0958871316865158  0.6243146135054067  0.2337436924122119
  0.1566102805136495  0.7494589549680754  0.3165843347121738
  0.0017379414436610  0.7494420808445139  0.3037104280195217
  0.3463566569165832  0.7497053314968598  0.3165213188164438
  0.4024845975190061  0.7500813645449568  0.4025182531881886
  0.2513061268953255  0.7499768748691216  0.3885134224024723
  0.1003032250367510  0.7498359164489610  0.4027503689223517
  0.1515575780958942  0.7520890469831087  0.4870794412670258
  0.0008252868815237  0.7508419114368059  0.4746084503619104
  0.3511955238912712  0.7511168851451100  0.4881508894827040
  0.4061384054418883  0.7500006122911782  0.5684298424266215
  0.2551210623430775  0.7553952085845643  0.5593003795178638
  0.0856298552393893  0.7470132804303661  0.5630584810682578
  0.4068319923988293  0.7495019489462740  0.2328576161280297
  0.2512408515921176  0.7494173261551896  0.1990912831292709
  0.0959096323007797  0.7493236127939147  0.2331107780317815
  0.1568874704160723  0.8746527232873121  0.3163013600570170
  0.0020509512352349  0.8744981373329600  0.3032550096283650
  0.3470476044869872  0.8747762973295243  0.3163971936594763
  0.4034724633345385  0.8750895245897455  0.4025476409581303
  0.2520857891756929  0.8748151721962190  0.3884505359484678
  0.1010578562184001  0.8748471574003958  0.4023424753806921
  0.1527984656338482  0.8742571397813854  0.4874914495492670
  0.0025483699716277  0.8750309807076662  0.4748647717492370
  0.3528920739358607  0.8760755196196960  0.4882059497677531
  0.4076757630724210  0.8749592324299209  0.5705784323842483
  0.2521311388201939  0.8753061232676361  0.5569363090387143
  0.0992515057999382  0.8710488523682456  0.5661188049906971
  0.4069616903763888  0.8745649384867228  0.2327362281744505
  0.2514113090344809  0.8745743017568128  0.2006789577050865
  0.0963004377587380  0.8744850523136398  0.2328634920631401
  0.1563081351626860  0.4993362332724599  0.3178868684915732
  0.0014703636049481  0.4995137484639505  0.3045282979950307
  0.3458109936479868  0.4994916759342114  0.3171461185145728
  0.4024039241741896  0.5000135501118383  0.4016119929667742
  0.2509090677964433  0.4993701755197467  0.3920790842034710
  0.1004425277271313  0.4997719549944070  0.4037617503887080
  0.1443652427273265  0.4994590736050598  0.4897565814497865
  0.9985025555459928  0.4996655130846918  0.4739629648710623
  0.3568129433707972  0.4993494156509774  0.4857202051480335
  0.4075152870969087  0.4999538548207679  0.5708957860849736
  0.2601959317980024  0.5043946941478938  0.5380782419495490
  0.0676000802970609  0.5020164567737547  0.5624400329942197
  0.9076335690801458 -0.0004575216199164  0.2325068720830229
  0.7520917149797169 -0.0005090142255354  0.1996242890997739
  0.5962290604220403  0.9996155051331428  0.2322360502701776
  0.6572386177272421  0.1244758618299739  0.3156908689489830
  0.5022154985452562  0.1246331389352482  0.3030130918470612
  0.8474323717246922  0.1244889600151977  0.3161640561557595
  0.9038788021782883  0.1242077167022466  0.4026121651431037
  0.7526015405051661  0.1241269902868015  0.3878918964098893
  0.6015516962385437  0.1242491728470108  0.4019666753638899
  0.6542957019941743  0.1246901785900997  0.4870574230003636
  0.5035280275746151  0.1242320370871926  0.4748897162645710
  0.8538495864899099  0.1229685799502804  0.4879075065978870
  0.9108271668993209  0.1207716851894830  0.5674194770469091
  0.7539354140016450  0.1223242712854355  0.5568745134891618
  0.6012211966306537  0.1308749002431709  0.5655124149066594
  0.9078191551729303  0.1247393934873942  0.2327347462486133
  0.7522125983272382  0.1247883367857909  0.1991149780208355
  0.5961809469069727  0.1246851443015557  0.2321895743049548
  0.6570660366372133  0.2494382237189440  0.3156901178590720
  0.5020016781018598  0.2497040305098142  0.3031373019959942
  0.8472246795364241  0.2494582654499157  0.3165324680738858
  0.9028202550032599  0.2493498120913592  0.4030426136124161
  0.7520729008084857  0.2495643032816517  0.3877557404342923
  0.6015514665331301  0.2490290850979999  0.4016366498414410
  0.6555036977006649  0.2457889005712916  0.4852399757779269
  0.5035162393021061  0.2485296084333208  0.4746828397839976
  0.8510293640363924  0.2475689901055266  0.4889893531600475
  0.9119160290887893  0.2463689975807689  0.5688263440920117
  0.7624409906620288  0.2397760391985277  0.5654011493158343
  0.6038079290251004  0.2624279320119930  0.5649077780724883
  0.9076973932496626  0.2497217199737987  0.2332029215868832
  0.7521981269719830  0.2496792207695786  0.2005486063850443
  0.5962004528036342  0.2495927376828605  0.2322739885605266
  0.6567282075594101  0.3746614856852156  0.3158117158217265
  0.5016450962299703  0.3746104088363587  0.3031037569414102
  0.8467542750731138  0.3745174078140829  0.3167491258522059
  0.9021916525992075  0.3739194619320558  0.4027960429876047
  0.7513677046463368  0.3741567633150902  0.3892903235083515
  0.6013430702234717  0.3744008892639211  0.4015825791154360
  0.6486539329851460  0.3737253406366960  0.4827936816626659
  0.5034921356069301  0.3744694711334015  0.4726952199591040
  0.8550847725801559  0.3742144890919154  0.4882708050118021
  0.8912721560782421  0.3733794847330338  0.5748369289302953
  0.7449956606042942  0.3548481805239925  0.5323597160346617
  0.5935135387078301  0.3978567339488374  0.5581535433655660
  0.9075973478085263  0.3746188490575183  0.2334527785207649
  0.7520070240410056  0.3745653138493322  0.1996746130528319
  0.5959655716789480  0.3746346080401418  0.2322824002485546
  0.6570950627456967  0.9996069042851300  0.3157980782160974
  0.5021440790558377  0.9996547158923004  0.3030294704932369
  0.8474496020404036 -0.0004432316775421  0.3159990788717021
  0.9039886773445005 -0.0004794774092375  0.4022139134279918
  0.7525534650284611 -0.0004050112274636  0.3879803533217425
  0.6015622040374641  0.9996888064119281  0.4022533011767330
  0.6534106059986929  0.0001883642665207  0.4875291982574572
  0.5034233190893173 -0.0003665030576474  0.4750900529636924
  0.8533413803174490 -0.0010383245624838  0.4872789754550110
  0.9103742535816327 -0.0004640366917443  0.5658064135782082
  0.7532488330467739  0.9993550178132737  0.5567837806284747
  0.5985565696747458  0.0005295750845663  0.5662605351350072
  0.9072164929323860  0.4994424771793591  0.2335218045363953
  0.7518211213859647  0.4995667491776095  0.2003706367427875
  0.5958648365953467  0.4996477070436377  0.2324004631368859
  0.6564015848064918  0.6246800970040381  0.3156317778946472
  0.5011633357593968  0.6246412514095436  0.3033277781336730
  0.8464143629964087  0.6244539906675898  0.3166394093689526
  0.9011659817617118  0.6248438772677032  0.4030887345421329
  0.7507205558923025  0.6247723448017325  0.3883213871489093
  0.6007862971814996  0.6257269721487730  0.4010844308956577
  0.6501504859123902  0.6262595284559884  0.4869886639420484
  0.5004220450566901  0.6264688041379383  0.4717588628041249
  0.8472342305864224  0.6256311554097898  0.4890258423865386
  0.9095206030738774  0.6242534156485117  0.5680941348775547
  0.7709095011452621  0.6253880117504561  0.5707435775771622
  0.5819103795154215  0.6288718750592230  0.5665970703344334
  0.9072378599153710  0.6243067175525026  0.2332478021844639
  0.7518299966487048  0.6243740396319646  0.1993301018128004
  0.5955590475960285  0.6246130100707424  0.2322771158446827
  0.6565045010323159  0.7499039204457487  0.3155881568809674
  0.5014088983596668  0.7496716574398481  0.3031559477557182
  0.8468735881994448  0.7496417149844919  0.3162571908467922
  0.9021547742070327  0.7495539996764052  0.4028537698804243
  0.7515916585900083  0.7498259034828857  0.3877881173919621
  0.6009569772909696  0.7507418466467577  0.4015443492907858
  0.6530891399434319  0.7516566765379891  0.4865956832604676
  0.5019123860590491  0.7512278860184235  0.4727618036392062
  0.8504319382108583  0.7500662611169356  0.4888522680176853
  0.9110623159830954  0.7509569242906764  0.5687157604061088
  0.7597545805193752  0.7567846790568105  0.5635421285942723
  0.5900676950353164  0.7520423284263688  0.5616146781695553
  0.9074084790040862  0.7493045233705923  0.2329004604044423
  0.7518648360439569  0.7494732839916814  0.2000206358100270
  0.5957450105722448  0.7495646137665797  0.2322408378104169
  0.6568337713420728  0.8747661551976069  0.3157521252682879
  0.5018583487450795  0.8746520982440643  0.3031114571887174
  0.8472498944062953  0.8745868697181810  0.3160134679791702
  0.9033374996206937  0.8746144205509612  0.4022360795644366
  0.7522227373972936  0.8747985211364706  0.3878926791909789
  0.6013062619049571  0.8751440649209856  0.4021121178884675
  0.6538673094365476  0.8754865795475287  0.4875901302382369
  0.5032098154125775  0.8755004170477959  0.4750948870119540
  0.8533265155184264  0.8753532792604487  0.4875104809993682
  0.9117197081951678  0.8763316295736937  0.5666242835134326
  0.7556742729022755  0.8768131642758407  0.5569577967705290
  0.6024802003846066  0.8728300316446561  0.5682238060442796
  0.9075796772396647  0.8743392215470241  0.2325676514113115
  0.7519572658926379  0.8744247871738163  0.1994427582745646
  0.5959401041363191  0.8745739494785065  0.2322635985933842
  0.6564553683131915  0.4994363202116146  0.3159652910144400
  0.5013723890573319  0.4997137734611622  0.3032153964576763
  0.8463670206264668  0.4993419643725016  0.3168655246451045
  0.9014615766880479  0.4997405290343729  0.4026212436771336
  0.7508716630264014  0.4993529005440148  0.3892970719875429
  0.6014531728267863  0.4993892050664526  0.4016873344008287
  0.6478384392771211  0.5026715713339408  0.4875115215670797
  0.5023518757882727  0.5005965209607138  0.4713618135670776
  0.8504437767467160  0.5003834156930227  0.4866808079183042
  0.8962827527196640  0.4971903089570934  0.5692603022391083
  0.7494621994502496  0.4942923267117755  0.5485036727556820
  0.5756924104248792  0.5123454256112513  0.5671298070765813
  0.0059973637967672  0.1189836987096810  0.5436512762758325
 -0.0016587474577487  0.2530962503192113  0.5399273742635166
  0.9815264603852361  0.3766242204296285  0.5416458593368768
  0.1083157923591740  0.3216654511827569  0.5433995459505996
  0.0046871445703220  0.0061623669910134  0.5433787899437408
  0.1058463662717526  0.4378899444832872  0.5392822922466918
  0.9932886495529568  0.6219679672069897  0.5365843111897530
  0.1157022863073092  0.5606112562716578  0.5396844968473800
 -0.0007548573642936  0.7545384638733211  0.5388196270131810
  0.1165812354902740  0.6822892844283956  0.5397534809113380
  0.0047827015273186  0.8681104090228629  0.5425911674506693
  0.9823811344238513  0.4943747298257031  0.5373337389871009
  0.5062166185718123  0.1320874579178261  0.5423544816660900
  0.5061016997965959  0.2491039575503385  0.5402713042357216
  0.5047602157693883  0.3796018558828101  0.5369146058656821
  0.6389233180893984  0.3353538704585357  0.5370587070362876
  0.5046785047275734  0.9948206361007133  0.5424478123777776
  0.6454026120953353  0.4636581413791709  0.5462838893152910
  0.4952768018466324  0.6271781249947985  0.5355175112663568
  0.6140943477706936  0.5680485061503907  0.5335314535638537
  0.4993497474410536  0.7539566803795902  0.5361511404656786
  0.6204220590047893  0.6880139891080085  0.5342809107570247
  0.5039635667838357  0.8754184982683856  0.5430220122870142
  0.4909771817006923  0.5097722765897756  0.5342152584522513
  0.4286200827926973  0.4055877286759911  0.6198698972532580
  0.5701032222637719  0.4033178971667293  0.6204379708286071
  0.4901790717322648  0.5052013185268578  0.6165365240751808
  0.6236565057101908  0.5055584946437972  0.6265614072814515
  0.6263717519264907  0.3305598290086466  0.6687751227201858
  0.2393827422813549  0.4521018113981088  0.6593323763937414