POSCAR                                  
   1.00000000000000     
     6.4590070624676974    0.0000000000000000    0.0000000000000000
    -3.2295035312338487    5.6305502400753777   -0.0030804657599499
     0.0000000000000000   -0.0055596390747375   10.1541078473220168
   Al   N    Sc
    12    16     4
Direct
  0.1639312777058338  0.3396814572764642  0.0000632355746555
  0.6757496795706245  0.3396814572764642  0.0000632355746555
  0.1620516013603716  0.8241037027207420 -0.0000240377286877
  0.6664701916747161  0.8329408833494384  0.9973309963411643
  0.1654052438141743  0.8308109876283547  0.4961594353110511
  0.6682091753070925  0.8364188506141907  0.4952243214558810
  0.8324464313922562  0.1648923627845137  0.7544347374565186
  0.3314631375344134  0.6649862239630088  0.7495169670888163
  0.8335235864286011  0.6649862239630088  0.7495169670888163
  0.8325741757187434  0.1651478514374811  0.2418103150259224
  0.3347198139554159  0.6711500405088090  0.2452919886933050
  0.8364307265533991  0.6711500405088090  0.2452919886933050
  0.1574083504162850  0.3485841247686262  0.1885577277812119
  0.6911752743523354  0.3485841247686262  0.1885577277812119
  0.1542095492936344  0.8084195985872678  0.1843716922072562
  0.6664606205307694  0.8329217410615444  0.1854341614484844
  0.1568069645663080  0.3392677587432880  0.7011367791335902
  0.6824602941769741  0.3392677587432880  0.7011367791335902
  0.1544438859001257  0.8088882718002642  0.6860600761299082
  0.6665667324979457  0.8331339649959043  0.6898855357160814
  0.3329257696635048  0.1658510393269967  0.9642414283152507
  0.8320750038153762  0.1641495076307535  0.9435990713024385
  0.3352262806595785  0.6689779095321032  0.9392137813304593
  0.8337521288725308  0.6689779095321032  0.9392137813304593
  0.3242635209145384  0.1485265418290639  0.4425839418911063
  0.8228739877631694  0.1457474755263334  0.4278418488373393
  0.3457863279136271  0.6892838594535973  0.4336062173649580
  0.8434980315399833  0.6892838594535973  0.4336062173649580
  0.1641706021469536  0.3364953612759869  0.4942675386126194
  0.6723242591290344  0.3364953612759869  0.4942675386126194
  0.3292557086868138  0.1585109173736146  0.7542479677942600
  0.3313416661448836  0.1626828322897687  0.2334900373367935
 
  0.00000000E+00  0.00000000E+00  0.00000000E+00
  0.00000000E+00  0.00000000E+00  0.00000000E+00
  0.00000000E+00  0.00000000E+00  0.00000000E+00
  0.00000000E+00  0.00000000E+00  0.00000000E+00
  0.00000000E+00  0.00000000E+00  0.00000000E+00
  0.00000000E+00  0.00000000E+00  0.00000000E+00
  0.00000000E+00  0.00000000E+00  0.00000000E+00
  0.00000000E+00  0.00000000E+00  0.00000000E+00
  0.00000000E+00  0.00000000E+00  0.00000000E+00
  0.00000000E+00  0.00000000E+00  0.00000000E+00
  0.00000000E+00  0.00000000E+00  0.00000000E+00
  0.00000000E+00  0.00000000E+00  0.00000000E+00
  0.00000000E+00  0.00000000E+00  0.00000000E+00
  0.00000000E+00  0.00000000E+00  0.00000000E+00
  0.00000000E+00  0.00000000E+00  0.00000000E+00
  0.00000000E+00  0.00000000E+00  0.00000000E+00
  0.00000000E+00  0.00000000E+00  0.00000000E+00
  0.00000000E+00  0.00000000E+00  0.00000000E+00
  0.00000000E+00  0.00000000E+00  0.00000000E+00
  0.00000000E+00  0.00000000E+00  0.00000000E+00
  0.00000000E+00  0.00000000E+00  0.00000000E+00
  0.00000000E+00  0.00000000E+00  0.00000000E+00
  0.00000000E+00  0.00000000E+00  0.00000000E+00
  0.00000000E+00  0.00000000E+00  0.00000000E+00
  0.00000000E+00  0.00000000E+00  0.00000000E+00
  0.00000000E+00  0.00000000E+00  0.00000000E+00
  0.00000000E+00  0.00000000E+00  0.00000000E+00
  0.00000000E+00  0.00000000E+00  0.00000000E+00
  0.00000000E+00  0.00000000E+00  0.00000000E+00
  0.00000000E+00  0.00000000E+00  0.00000000E+00
  0.00000000E+00  0.00000000E+00  0.00000000E+00
  0.00000000E+00  0.00000000E+00  0.00000000E+00
