POSCAR                                  
   1.00000000000000     
     6.4559391336363436    0.0000000000000000    0.0000000000000000
    -3.2279695668181718    5.6266596399291187    0.0000000000000000
     0.0000000000000000    0.0000000000000000   10.1536064166041715
   Al   N    Sc
    12    16     4
Direct
  0.1639294594362426  0.3396695621121370  0.0000710340249770
  0.6757396026758884  0.3396695621121370  0.0000710340249770
  0.1620610474670381  0.8241225949340825 -0.0000040345369683
  0.6664598612973908  0.8329202225947872 -0.0026491125775993
  0.1654072986705094  0.8308150973410244  0.4961689178254259
  0.6681968170978352  0.8363941341956760  0.4952434827806961
  0.8324257910552243  0.1648510821104428  0.7544633378295479
  0.3314873930156920  0.6650001490169404  0.7495303714910324
  0.8335132560012544  0.6650001490169404  0.7495303714910324
  0.8325762243540989  0.1651519487081920  0.2418089155781722
  0.3347438738646483  0.6711665567867863  0.2453036360384842
  0.8364231829221438  0.6711665567867863  0.2453036360384842
  0.1573999497784851  0.3485793625884219  0.1885102713714339
  0.6911789128099309  0.3485793625884219  0.1885102713714339
  0.1542148860549554  0.8084302721099166  0.1843534712460068
  0.6664504868995271  0.8329014737990602  0.1854211155097416
  0.1567899513615290  0.3392199667894781  0.7011362446733320
  0.6824295154279432  0.3392199667894781  0.7011362446733320
  0.1544329250224583  0.8088663500449226  0.6860128902308988
  0.6665569430611550  0.8331143861223156  0.6898653669109280
  0.3329358247787280  0.1658711495574497  0.9642299101764202
  0.8320701071505732  0.1641397143011402  0.9435837753981120
  0.3352296204552991  0.6689982202133188  0.9391874565072492
  0.8337690997580256  0.6689982202133188  0.9391874565072492
  0.3242919869794300  0.1485834739588542  0.4425461992910404
  0.8228838748032881  0.1457672496065702  0.4277956272163302
  0.3457829757583440  0.6892872998242817  0.4335810587745926
  0.8435048240659436  0.6892872998242817  0.4335810587745926
  0.1641602381693845  0.3365004659456984  0.4943281319671274
  0.6723397277763083  0.3365004659456984  0.4943281319671274
  0.3292426145038458  0.1584847290076855  0.7543165833496536
  0.3313717275268806  0.1627429550537556  0.2335471440751347
