Ta  N Ru                                
   1.00000000000000     
    10.4555999800000006    0.0000000000000000    0.0000000000000000
     0.0000000000000000   11.6775998899999998    0.0000000000000000
     0.0000000000000000    0.0000000000000000   24.0732377500000005
   Ta   N    Ru
    64    64     2
Selective dynamics
Direct
  0.4991785186325330  0.1250000003211298  0.3753726828051569   F   F   F
  0.2600588226580172  0.1250000003211298  0.3190980514078845   F   F   F
  0.2470962603561304  0.0000000000000000  0.4358978840493251   F   F   F
  0.2471427247256103  0.1247781378491089  0.5617978309626315   T   T   T
  0.9985523999302689  0.1248735777979812  0.5006509039766616   T   T   T
  0.9949166752238426  0.9997809903953527  0.6280152968178766   T   T   T
  0.4964855247424843  0.1339984280505642  0.7443480917143618   T   T   T
  0.2514650425564382  0.1254657146475052  0.6868738676978535   T   T   T
  0.4991785186325330  0.3750000001070433  0.3753726828051569   F   F   F
  0.2600588226580172  0.3750000001070433  0.3190980514078845   F   F   F
  0.2470962603561304  0.2499999997859135  0.4358978840493251   F   F   F
  0.2466498191412967  0.3750285118987521  0.5614853131682284   T   T   T
  0.9986783593011372  0.3750160163356516  0.5005453394209420   T   T   T
  0.9950889709715464  0.2498144417020982  0.6284479489865217   T   T   T
  0.4928676702291893  0.3750447345899564  0.7437619609753641   T   T   T
  0.2531433968162036  0.3750387222676650  0.6856518086652281   T   T   T
  0.4991785186325330  0.6249999998929567  0.3753726828051569   F   F   F
  0.2600588226580172  0.6249999998929567  0.3190980514078845   F   F   F
  0.2470962603561304  0.5000000004281731  0.4358978840493251   F   F   F
  0.2471501406678223  0.6252839512538589  0.5617970758050694   T   T   T
  0.9985439529329531  0.6251723442681386  0.5006450889727179   T   T   T
  0.9950840248751004  0.5003319152887070  0.6284399738537743   T   T   T
  0.4965362831402105  0.6161328829321864  0.7443321788544717   T   T   T
  0.2514540018787018  0.6246720174376881  0.6868266853548560   T   T   T
  0.4991785186325330  0.8750000005352163  0.3753726828051569   F   F   F
  0.2600588226580172  0.8750000005352163  0.3190980514078845   F   F   F
  0.2470962603561304  0.7500000002140865  0.4358978840493251   F   F   F
  0.2477751433315146  0.8750351879640369  0.5619032816028927   T   T   T
  0.9983603101090238  0.8750211714670895  0.5007415435721380   T   T   T
  0.9949206494074070  0.7503207199447032  0.6279988866705731   T   T   T
  0.5120953451076575  0.8751280457448184  0.7416974681571720   T   T   T
  0.2485253533415747  0.8750855529720257  0.6865453327524961   T   T   T
  0.9991784928090510  0.1250000003211298  0.3753726828051569   F   F   F
  0.7600587968345351  0.1250000003211298  0.3190980514078845   F   F   F
  0.7470962345326484  0.0000000000000000  0.4358978840493251   F   F   F
  0.7501974393852489  0.1249758461283094  0.5624373694435856   T   T   T
  0.4990731318922742  0.1246809630521689  0.4999992522103880   T   T   T
  0.4981582254609430  0.9994524214832529  0.6252663438713137   T   T   T
  0.0139252532241746  0.1258826163799401  0.7442573310776118   T   T   T
  0.7456554597850353  0.1254281601844286  0.6893781220652178   T   T   T
  0.9991784928090510  0.3750000001070433  0.3753726828051569   F   F   F
  0.7600587968345351  0.3750000001070433  0.3190980514078845   F   F   F
  0.7470962345326484  0.2499999997859135  0.4358978840493251   F   F   F
  0.7510252233616094  0.3750415692950942  0.5622595811793788   T   T   T
  0.4992668577665255  0.3750148802173793  0.4995815987664146   T   T   T
  0.5032845241717091  0.2492788263249996  0.6205579035203683   T   T   T
  0.0181900833093278  0.3751735092614559  0.7455516850840662   T   T   T
  0.7464630429449891  0.3750729702314554  0.6893177744620146   T   T   T
  0.9991784928090510  0.6249999998929567  0.3753726828051569   F   F   F
  0.7600587968345351  0.6249999998929567  0.3190980514078845   F   F   F
  0.7470962345326484  0.5000000004281731  0.4358978840493251   F   F   F
  0.7501908338262063  0.6250923703061467  0.5624317919626114   T   T   T
  0.4990657215734966  0.6253614385505110  0.5000017286775088   T   T   T
  0.5032822256592868  0.5008006959777256  0.6205737608238390   T   T   T
  0.0139438864817216  0.6243287487715086  0.7442519001527907   T   T   T
  0.7456683699388067  0.6247678332402118  0.6893786135792176   T   T   T
  0.9991784928090439  0.8750000005352163  0.3753726828051569   F   F   F
  0.7600587968345351  0.8750000005352163  0.3190980514078845   F   F   F
  0.7470962345326484  0.7500000002140865  0.4358978840493251   F   F   F
  0.7491011443799416  0.8750317493038570  0.5626264632586735   T   T   T
  0.4987617255909884  0.8750145044005070  0.5005480899165198   T   T   T
  0.4981479485258147  0.7506450127892148  0.6252535646814241   T   T   T
  0.0106020461343527  0.8750750473782332  0.7434719571797592   T   T   T
  0.7472362468198244  0.8750775148918085  0.6891499928589285   T   T   T
  0.1472195596423447  0.0000000000000000  0.3601606351366584   F   F   F
  0.4003222342624682  0.0000000000000000  0.3237632067519129   F   F   F
  0.4439214822817661  0.0000000000000000  0.4377276028165085   F   F   F
  0.4000804114015011  0.0001412117537414  0.5515062935904198   T   T   T
  0.1503066495634190  0.9997426060523769  0.5102283232960509   T   T   T
  0.1919435103506121  0.9997951278510706  0.6244893781862078   T   T   T
  0.1497651126448668  0.9996425375655545  0.7376543816067708   T   T   T
  0.3982551262503863  0.0004126445281674  0.7007124988837701   T   T   T
  0.1472195596423447  0.2499999997859135  0.3601606351366584   F   F   F
  0.4003222342624682  0.2499999997859135  0.3237632067519129   F   F   F
  0.4439214822817661  0.2499999997859135  0.4377276028165085   F   F   F
  0.3985436960920127  0.2498692030029185  0.5493485138128642   T   T   T
  0.1499876222637485  0.2497125740956277  0.5100977731341780   T   T   T
  0.1914407653248356  0.2497466383181875  0.6242598445523913   T   T   T
  0.1664957398174770  0.2506682592219249  0.7416383199924994   T   T   T
  0.4038677783508967  0.2516263351461868  0.6906800231052821   T   T   T
  0.1472195596423447  0.5000000004281731  0.3601606351366584   F   F   F
  0.4003222342624682  0.5000000004281731  0.3237632067519129   F   F   F
  0.4439214822817661  0.5000000004281731  0.4377276028165085   F   F   F
  0.3985386415793686  0.5001608529508779  0.5493499372472299   T   T   T
  0.1500053398044403  0.5003239015886412  0.5100895765506740   T   T   T
  0.1914300649575247  0.5003522496077715  0.6242601524325841   T   T   T
  0.1663897862660609  0.4995959720952868  0.7415485563084999   T   T   T
  0.4038660355532577  0.4984621428995744  0.6907017001985609   T   T   T
  0.1472195596423447  0.7500000002140865  0.3601606351366584   F   F   F
  0.4003222342624682  0.7500000002140865  0.3237632067519129   F   F   F
  0.4439214822817661  0.7500000002140865  0.4377276028165085   F   F   F
  0.4000865066360238  0.7499328494553431  0.5514987804052781   T   T   T
  0.1502982394732690  0.7503061990934630  0.5102280290807181   T   T   T
  0.1919569413409658  0.7503473792816093  0.6244722741817580   T   T   T
  0.1497677932241532  0.7505230909457377  0.7376269701401701   T   T   T
  0.3982681112156073  0.7497833545055590  0.7007138608991232   T   T   T
  0.6472195338188556  0.0000000000000000  0.3601606351366584   F   F   F
  0.9003222591295312  0.0000000000000000  0.3237632067519129   F   F   F
  0.9439215071488221  0.0000000000000000  0.4377276028165085   F   F   F
  0.9012689555393976  0.9997738552649122  0.5527172730767513   T   T   T
  0.6515320547066596  0.9998209564143871  0.5107209530200369   T   T   T
  0.6953760591956529  0.0003314022395944  0.6255964454890697   T   T   T
  0.6446810672641212  0.0020261696008104  0.7408112522709521   T   T   T
  0.8944532062829812  0.0013993282573526  0.7048465243236539   T   T   T
  0.6472195338188556  0.2499999997859135  0.3601606351366584   F   F   F
  0.9003222591295312  0.2499999997859135  0.3237632067519129   F   F   F
  0.9439215071488221  0.2499999997859135  0.4377276028165085   F   F   F
  0.9023214695345477  0.2499583794351734  0.5524806657322331   T   T   T
  0.6516370699906506  0.2499757176900419  0.5106785356549917   T   T   T
  0.6992341334236557  0.2501670752493922  0.6253086257925607   T   T   T
  0.6438387735331529  0.2508699336655121  0.7393822002592155   T   T   T
  0.8960519781953146  0.2511811725778187  0.7052899065421762   T   T   T
  0.6472195338188556  0.5000000004281731  0.3601606351366584   F   F   F
  0.9003222591295312  0.5000000004281731  0.3237632067519129   F   F   F
  0.9439215071488221  0.5000000004281731  0.4377276028165085   F   F   F
  0.9023036119502593  0.5001075151930092  0.5524789198001152   T   T   T
  0.6516300431604843  0.5000641204973263  0.5106779211155018   T   T   T
  0.6992215051077407  0.4999461938326262  0.6253012567086979   T   T   T
  0.6438398445107820  0.4993615081739453  0.7393905849169401   T   T   T
  0.8960658112165834  0.4990220932814151  0.7052804778716151   T   T   T
  0.6472195338188556  0.7500000002140865  0.3601606351366584   F   F   F
  0.9003222591295312  0.7500000002140865  0.3237632067519129   F   F   F
  0.9439215071488221  0.7500000002140865  0.4377276028165085   F   F   F
  0.9012630627868368  0.7502882274716346  0.5527038185303322   T   T   T
  0.6515162965043494  0.7502242960035307  0.5107176626613582   T   T   T
  0.6953942067436474  0.7497803612106675  0.6255774782253315   T   T   T
  0.6446958017687635  0.7481667564166029  0.7407910841331030   T   T   T
  0.8944664058631744  0.7488117081721505  0.7048543564799356   T   T   T
  0.3157782885440911  0.2494645741300880  0.7957620437029871   T   T   T
  0.3154323169423574  0.5018430088314805  0.7957769473670452   T   T   T
 
  0.00000000E+00  0.00000000E+00  0.00000000E+00
  0.00000000E+00  0.00000000E+00  0.00000000E+00
  0.00000000E+00  0.00000000E+00  0.00000000E+00
  0.00000000E+00  0.00000000E+00  0.00000000E+00
  0.00000000E+00  0.00000000E+00  0.00000000E+00
  0.00000000E+00  0.00000000E+00  0.00000000E+00
  0.00000000E+00  0.00000000E+00  0.00000000E+00
  0.00000000E+00  0.00000000E+00  0.00000000E+00
  0.00000000E+00  0.00000000E+00  0.00000000E+00
  0.00000000E+00  0.00000000E+00  0.00000000E+00
  0.00000000E+00  0.00000000E+00  0.00000000E+00
  0.00000000E+00  0.00000000E+00  0.00000000E+00
  0.00000000E+00  0.00000000E+00  0.00000000E+00
  0.00000000E+00  0.00000000E+00  0.00000000E+00
  0.00000000E+00  0.00000000E+00  0.00000000E+00
  0.00000000E+00  0.00000000E+00  0.00000000E+00
  0.00000000E+00  0.00000000E+00  0.00000000E+00
  0.00000000E+00  0.00000000E+00  0.00000000E+00
  0.00000000E+00  0.00000000E+00  0.00000000E+00
  0.00000000E+00  0.00000000E+00  0.00000000E+00
  0.00000000E+00  0.00000000E+00  0.00000000E+00
  0.00000000E+00  0.00000000E+00  0.00000000E+00
  0.00000000E+00  0.00000000E+00  0.00000000E+00
  0.00000000E+00  0.00000000E+00  0.00000000E+00
  0.00000000E+00  0.00000000E+00  0.00000000E+00
  0.00000000E+00  0.00000000E+00  0.00000000E+00
  0.00000000E+00  0.00000000E+00  0.00000000E+00
  0.00000000E+00  0.00000000E+00  0.00000000E+00
  0.00000000E+00  0.00000000E+00  0.00000000E+00
  0.00000000E+00  0.00000000E+00  0.00000000E+00
  0.00000000E+00  0.00000000E+00  0.00000000E+00
  0.00000000E+00  0.00000000E+00  0.00000000E+00
  0.00000000E+00  0.00000000E+00  0.00000000E+00
  0.00000000E+00  0.00000000E+00  0.00000000E+00
  0.00000000E+00  0.00000000E+00  0.00000000E+00
  0.00000000E+00  0.00000000E+00  0.00000000E+00
  0.00000000E+00  0.00000000E+00  0.00000000E+00
  0.00000000E+00  0.00000000E+00  0.00000000E+00
  0.00000000E+00  0.00000000E+00  0.00000000E+00
  0.00000000E+00  0.00000000E+00  0.00000000E+00
  0.00000000E+00  0.00000000E+00  0.00000000E+00
  0.00000000E+00  0.00000000E+00  0.00000000E+00
  0.00000000E+00  0.00000000E+00  0.00000000E+00
  0.00000000E+00  0.00000000E+00  0.00000000E+00
  0.00000000E+00  0.00000000E+00  0.00000000E+00
  0.00000000E+00  0.00000000E+00  0.00000000E+00
  0.00000000E+00  0.00000000E+00  0.00000000E+00
  0.00000000E+00  0.00000000E+00  0.00000000E+00
  0.00000000E+00  0.00000000E+00  0.00000000E+00
  0.00000000E+00  0.00000000E+00  0.00000000E+00
  0.00000000E+00  0.00000000E+00  0.00000000E+00
  0.00000000E+00  0.00000000E+00  0.00000000E+00
  0.00000000E+00  0.00000000E+00  0.00000000E+00
  0.00000000E+00  0.00000000E+00  0.00000000E+00
  0.00000000E+00  0.00000000E+00  0.00000000E+00
  0.00000000E+00  0.00000000E+00  0.00000000E+00
  0.00000000E+00  0.00000000E+00  0.00000000E+00
  0.00000000E+00  0.00000000E+00  0.00000000E+00
  0.00000000E+00  0.00000000E+00  0.00000000E+00
  0.00000000E+00  0.00000000E+00  0.00000000E+00
  0.00000000E+00  0.00000000E+00  0.00000000E+00
  0.00000000E+00  0.00000000E+00  0.00000000E+00
  0.00000000E+00  0.00000000E+00  0.00000000E+00
  0.00000000E+00  0.00000000E+00  0.00000000E+00
  0.00000000E+00  0.00000000E+00  0.00000000E+00
  0.00000000E+00  0.00000000E+00  0.00000000E+00
  0.00000000E+00  0.00000000E+00  0.00000000E+00
  0.00000000E+00  0.00000000E+00  0.00000000E+00
  0.00000000E+00  0.00000000E+00  0.00000000E+00
  0.00000000E+00  0.00000000E+00  0.00000000E+00
  0.00000000E+00  0.00000000E+00  0.00000000E+00
  0.00000000E+00  0.00000000E+00  0.00000000E+00
  0.00000000E+00  0.00000000E+00  0.00000000E+00
  0.00000000E+00  0.00000000E+00  0.00000000E+00
  0.00000000E+00  0.00000000E+00  0.00000000E+00
  0.00000000E+00  0.00000000E+00  0.00000000E+00
  0.00000000E+00  0.00000000E+00  0.00000000E+00
  0.00000000E+00  0.00000000E+00  0.00000000E+00
  0.00000000E+00  0.00000000E+00  0.00000000E+00
  0.00000000E+00  0.00000000E+00  0.00000000E+00
  0.00000000E+00  0.00000000E+00  0.00000000E+00
  0.00000000E+00  0.00000000E+00  0.00000000E+00
  0.00000000E+00  0.00000000E+00  0.00000000E+00
  0.00000000E+00  0.00000000E+00  0.00000000E+00
  0.00000000E+00  0.00000000E+00  0.00000000E+00
  0.00000000E+00  0.00000000E+00  0.00000000E+00
  0.00000000E+00  0.00000000E+00  0.00000000E+00
  0.00000000E+00  0.00000000E+00  0.00000000E+00
  0.00000000E+00  0.00000000E+00  0.00000000E+00
  0.00000000E+00  0.00000000E+00  0.00000000E+00
  0.00000000E+00  0.00000000E+00  0.00000000E+00
  0.00000000E+00  0.00000000E+00  0.00000000E+00
  0.00000000E+00  0.00000000E+00  0.00000000E+00
  0.00000000E+00  0.00000000E+00  0.00000000E+00
  0.00000000E+00  0.00000000E+00  0.00000000E+00
  0.00000000E+00  0.00000000E+00  0.00000000E+00
  0.00000000E+00  0.00000000E+00  0.00000000E+00
  0.00000000E+00  0.00000000E+00  0.00000000E+00
  0.00000000E+00  0.00000000E+00  0.00000000E+00
  0.00000000E+00  0.00000000E+00  0.00000000E+00
  0.00000000E+00  0.00000000E+00  0.00000000E+00
  0.00000000E+00  0.00000000E+00  0.00000000E+00
  0.00000000E+00  0.00000000E+00  0.00000000E+00
  0.00000000E+00  0.00000000E+00  0.00000000E+00
  0.00000000E+00  0.00000000E+00  0.00000000E+00
  0.00000000E+00  0.00000000E+00  0.00000000E+00
  0.00000000E+00  0.00000000E+00  0.00000000E+00
  0.00000000E+00  0.00000000E+00  0.00000000E+00
  0.00000000E+00  0.00000000E+00  0.00000000E+00
  0.00000000E+00  0.00000000E+00  0.00000000E+00
  0.00000000E+00  0.00000000E+00  0.00000000E+00
  0.00000000E+00  0.00000000E+00  0.00000000E+00
  0.00000000E+00  0.00000000E+00  0.00000000E+00
  0.00000000E+00  0.00000000E+00  0.00000000E+00
  0.00000000E+00  0.00000000E+00  0.00000000E+00
  0.00000000E+00  0.00000000E+00  0.00000000E+00
  0.00000000E+00  0.00000000E+00  0.00000000E+00
  0.00000000E+00  0.00000000E+00  0.00000000E+00
  0.00000000E+00  0.00000000E+00  0.00000000E+00
  0.00000000E+00  0.00000000E+00  0.00000000E+00
  0.00000000E+00  0.00000000E+00  0.00000000E+00
  0.00000000E+00  0.00000000E+00  0.00000000E+00
  0.00000000E+00  0.00000000E+00  0.00000000E+00
  0.00000000E+00  0.00000000E+00  0.00000000E+00
  0.00000000E+00  0.00000000E+00  0.00000000E+00
  0.00000000E+00  0.00000000E+00  0.00000000E+00
  0.00000000E+00  0.00000000E+00  0.00000000E+00
  0.00000000E+00  0.00000000E+00  0.00000000E+00
  0.00000000E+00  0.00000000E+00  0.00000000E+00
  0.00000000E+00  0.00000000E+00  0.00000000E+00
