Mo  S Ru                                
   1.00000000000000     
    15.9214998300000001    0.0000000000000000    0.0000000000000000
    -7.9622501300000001   13.7910221699999997    0.0000000000000000
     0.0000000000000000    0.0000000000000000   13.5821998300000004
   Mo   S    Ru
    25    50     3
Direct
  0.1305417620918874  0.0634701323603721  0.6760586700341378
  0.1323911214346936  0.2657979946431581  0.6811213149047930
  0.1324801094434562  0.4655905168854773  0.6790055123789500
  0.1319825157055945  0.6648131747278754  0.6759114909299058
  0.1317048435687553  0.8641381491544777  0.6742242386118562
  0.3309295308426741  0.0621041050549991  0.6790984758264003
  0.3299604547170247  0.2604750985669142  0.6920946237904033
  0.3330209146664700  0.4673838384876916  0.6852287579930589
  0.3323747268955799  0.6655808270744359  0.6763364597373922
  0.3318847882478622  0.8642318399781814  0.6738426049681507
  0.5324387339920378  0.0632801539375407  0.6752970924780257
  0.5317635233874469  0.2600704492261414  0.6896280836179471
  0.5361539514811895  0.4735644920487658  0.6915054816410162
  0.5338892701969584  0.6700965653920079  0.6765224202589906
  0.5326022365909679  0.8662142906283847  0.6725921517728395
  0.7331865602202683  0.0660481381088118  0.6738113213726038
  0.7340939083358222  0.2654453184048435  0.6802600478418270
  0.7315713284239322  0.4659088070399520  0.6873491968486007
  0.7353959509748407  0.6697094947195552  0.6771607669171047
  0.7336896309952294  0.8677404138648512  0.6724883823933467
  0.9329290765870013  0.0662748475662696  0.6742527544121089
  0.9330364694380648  0.2658518978739650  0.6774007591480498
  0.9322388816141327  0.4652712472445586  0.6793661252552567
  0.9321470233058022  0.6653825542030205  0.6772623999131255
  0.9330278789151549  0.8661352184167797  0.6732216057997107
  0.0684198053548641  0.1355185294452710  0.5618128354484284
  0.0631676462797088  0.1293949372518384  0.7918092601216031
  0.0677701626775757  0.3324274184823821  0.5639517751307466
  0.0644664369642953  0.3323265208405672  0.7941932767175786
  0.0645061439084387  0.5302931249704130  0.5628360540465991
  0.0663197482017281  0.5333412917872309  0.7932379030257195
  0.0639982442369913  0.7298243074877817  0.5603457941074197
  0.0661968166039628  0.7323280056173544  0.7908292068825560
  0.0666130789492456  0.9324992001153163  0.5584956690838254
  0.0640817342397284  0.9296657431407525  0.7894857057972544
  0.2686392102582715  0.1357688720832613  0.5673289347635020
  0.2563471984545131  0.1196815947873375  0.7960887070826743
  0.2704983471337741  0.3318262108832855  0.5733941016984261
  0.2615332935373829  0.3311780796638857  0.8059373260437042
  0.2668736343862861  0.5293318952221995  0.5651337298683430
  0.2647966876750232  0.5351236337705032  0.7956593507661083
  0.2647143268684644  0.7300785477251281  0.5598729645386200
  0.2656733830935920  0.7324889843955020  0.7903741791361654
  0.2657181205254631  0.9323108611477693  0.5598313476516523
  0.2635589285387780  0.9273640504575624  0.7907776600702974
  0.4662483280136840  0.1347383764661032  0.5659623061726577
  0.4636456780360518  0.1205576825814276  0.7954574414095887
  0.4671930663308146  0.3343011260648865  0.5858282302455038
  0.4344422930893543  0.2735891437235409  0.8473796975449162
  0.4661869546614668  0.5307729217376362  0.5693442482822633
  0.4673565346701878  0.5453069081878112  0.7994822339803065
  0.4650319289311398  0.7315551957269832  0.5591986761874495
  0.4665247857265769  0.7364961953452536  0.7903281336183525
  0.4652185445137818  0.9322984229343874  0.5578633748236186
  0.4651810762283120  0.9297760802197814  0.7889581643353836
  0.6668821421720494  0.1350008833392806  0.5611288247738457
  0.6658392051907498  0.1288514531483500  0.7910424101614524
  0.6625758855166310  0.3322609253191828  0.5727647862567338
  0.6686885289844042  0.3270250450820882  0.8057993415940956
  0.6633985981970056  0.5301542030853454  0.5705444069515622
  0.6740261714774647  0.5463047188099139  0.8028151513293054
  0.6661785290546902  0.7323157833796330  0.5598471815909249
  0.6688529554208884  0.7387782019324405  0.7901281748458686
  0.6663896521467834  0.9337287824482630  0.5572563015068965
  0.6661519551103368  0.9328435706229641  0.7877137105586343
  0.8673685949689585  0.1345005491770266  0.5595792514807911
  0.8653652454619873  0.1310637704266640  0.7900928137067211
  0.8654372961489472  0.3327713616171053  0.5636087008397581
  0.8678693054950983  0.3319636264875356  0.7942420356665423
  0.8602116397608057  0.5286946918705624  0.5668288728236348
  0.8685003619528331  0.5342116062549991  0.7964069007517978
  0.8657165335990271  0.7311978778717219  0.5600457372515137
  0.8690505566370774  0.7363240656064391  0.7910818259467121
  0.8673187523097141  0.9339026429117325  0.5576167968437176
  0.8661698210110700  0.9329221017816423  0.7880518299771282
  0.4220389724730040  0.4031570861769822  0.8778201848326788
  0.5820048708959646  0.3968225851043385  0.8681108227491947
  0.5253339743113656  0.4428719707154229  0.0114561390785966
 
  0.00000000E+00  0.00000000E+00  0.00000000E+00
  0.00000000E+00  0.00000000E+00  0.00000000E+00
  0.00000000E+00  0.00000000E+00  0.00000000E+00
  0.00000000E+00  0.00000000E+00  0.00000000E+00
  0.00000000E+00  0.00000000E+00  0.00000000E+00
  0.00000000E+00  0.00000000E+00  0.00000000E+00
  0.00000000E+00  0.00000000E+00  0.00000000E+00
  0.00000000E+00  0.00000000E+00  0.00000000E+00
  0.00000000E+00  0.00000000E+00  0.00000000E+00
  0.00000000E+00  0.00000000E+00  0.00000000E+00
  0.00000000E+00  0.00000000E+00  0.00000000E+00
  0.00000000E+00  0.00000000E+00  0.00000000E+00
  0.00000000E+00  0.00000000E+00  0.00000000E+00
  0.00000000E+00  0.00000000E+00  0.00000000E+00
  0.00000000E+00  0.00000000E+00  0.00000000E+00
  0.00000000E+00  0.00000000E+00  0.00000000E+00
  0.00000000E+00  0.00000000E+00  0.00000000E+00
  0.00000000E+00  0.00000000E+00  0.00000000E+00
  0.00000000E+00  0.00000000E+00  0.00000000E+00
  0.00000000E+00  0.00000000E+00  0.00000000E+00
  0.00000000E+00  0.00000000E+00  0.00000000E+00
  0.00000000E+00  0.00000000E+00  0.00000000E+00
  0.00000000E+00  0.00000000E+00  0.00000000E+00
  0.00000000E+00  0.00000000E+00  0.00000000E+00
  0.00000000E+00  0.00000000E+00  0.00000000E+00
  0.00000000E+00  0.00000000E+00  0.00000000E+00
  0.00000000E+00  0.00000000E+00  0.00000000E+00
  0.00000000E+00  0.00000000E+00  0.00000000E+00
  0.00000000E+00  0.00000000E+00  0.00000000E+00
  0.00000000E+00  0.00000000E+00  0.00000000E+00
  0.00000000E+00  0.00000000E+00  0.00000000E+00
  0.00000000E+00  0.00000000E+00  0.00000000E+00
  0.00000000E+00  0.00000000E+00  0.00000000E+00
  0.00000000E+00  0.00000000E+00  0.00000000E+00
  0.00000000E+00  0.00000000E+00  0.00000000E+00
  0.00000000E+00  0.00000000E+00  0.00000000E+00
  0.00000000E+00  0.00000000E+00  0.00000000E+00
  0.00000000E+00  0.00000000E+00  0.00000000E+00
  0.00000000E+00  0.00000000E+00  0.00000000E+00
  0.00000000E+00  0.00000000E+00  0.00000000E+00
  0.00000000E+00  0.00000000E+00  0.00000000E+00
  0.00000000E+00  0.00000000E+00  0.00000000E+00
  0.00000000E+00  0.00000000E+00  0.00000000E+00
  0.00000000E+00  0.00000000E+00  0.00000000E+00
  0.00000000E+00  0.00000000E+00  0.00000000E+00
  0.00000000E+00  0.00000000E+00  0.00000000E+00
  0.00000000E+00  0.00000000E+00  0.00000000E+00
  0.00000000E+00  0.00000000E+00  0.00000000E+00
  0.00000000E+00  0.00000000E+00  0.00000000E+00
  0.00000000E+00  0.00000000E+00  0.00000000E+00
  0.00000000E+00  0.00000000E+00  0.00000000E+00
  0.00000000E+00  0.00000000E+00  0.00000000E+00
  0.00000000E+00  0.00000000E+00  0.00000000E+00
  0.00000000E+00  0.00000000E+00  0.00000000E+00
  0.00000000E+00  0.00000000E+00  0.00000000E+00
  0.00000000E+00  0.00000000E+00  0.00000000E+00
  0.00000000E+00  0.00000000E+00  0.00000000E+00
  0.00000000E+00  0.00000000E+00  0.00000000E+00
  0.00000000E+00  0.00000000E+00  0.00000000E+00
  0.00000000E+00  0.00000000E+00  0.00000000E+00
  0.00000000E+00  0.00000000E+00  0.00000000E+00
  0.00000000E+00  0.00000000E+00  0.00000000E+00
  0.00000000E+00  0.00000000E+00  0.00000000E+00
  0.00000000E+00  0.00000000E+00  0.00000000E+00
  0.00000000E+00  0.00000000E+00  0.00000000E+00
  0.00000000E+00  0.00000000E+00  0.00000000E+00
  0.00000000E+00  0.00000000E+00  0.00000000E+00
  0.00000000E+00  0.00000000E+00  0.00000000E+00
  0.00000000E+00  0.00000000E+00  0.00000000E+00
  0.00000000E+00  0.00000000E+00  0.00000000E+00
  0.00000000E+00  0.00000000E+00  0.00000000E+00
  0.00000000E+00  0.00000000E+00  0.00000000E+00
  0.00000000E+00  0.00000000E+00  0.00000000E+00
  0.00000000E+00  0.00000000E+00  0.00000000E+00
  0.00000000E+00  0.00000000E+00  0.00000000E+00
  0.00000000E+00  0.00000000E+00  0.00000000E+00
  0.00000000E+00  0.00000000E+00  0.00000000E+00
  0.00000000E+00  0.00000000E+00  0.00000000E+00
