Mo  S Cu                                
   1.00000000000000     
    15.9215000000000000    0.0000000000000000    0.0000000000000000
    -7.9622500000000000   13.7910219999999999    0.0000000000000000
     0.0000000000000000    0.0000000000000000   13.5822000000000003
   Mo   S    Cu
    25    50     1
Direct
  0.1324673612065652  0.0659248043214617  0.6784814089101232
  0.1314112691910836  0.2651324150010552  0.6773807100256235
  0.1324695590303122  0.4654488645333856  0.6785224128163208
  0.1326617584332084  0.6658119417655968  0.6788059683715275
  0.1326572233785797  0.8657865109911995  0.6787914133326396
  0.3329808711175701  0.0659287104347186  0.6784903231398047
  0.3326309527120230  0.2657459744441795  0.6798564950824897
  0.3325696376223917  0.4656152043735773  0.6800275369387307
  0.3329388560785844  0.6658610107165615  0.6786894196875721
  0.3327226311562441  0.8657881188010705  0.6785800726544551
  0.5327285571305396  0.0654664448466775  0.6781958617853263
  0.5332387394565572  0.2651379307600834  0.6773983383393443
  0.5325627517232618  0.4656162105356643  0.6800356938284153
  0.5331000751758452  0.6666777710405114  0.6778054570860661
  0.5326857933758617  0.8659594596107567  0.6783877371585163
  0.7326181230254321  0.0657185071632256  0.6783986575154515
  0.7329074836729035  0.2657020538574884  0.6781645759332804
  0.7325005191527438  0.4654499435497002  0.6785335709778195
  0.7324468900631800  0.6658617220070226  0.6786922577940189
  0.7327962010550522  0.8659578868485838  0.6783854189123204
  0.9322548668195125  0.0654600890351134  0.6781826873855223
  0.9323105306650916  0.2657008797358174  0.6781543150165987
  0.9326382516010341  0.4657545210101119  0.6785142180235866
  0.9326769086420370  0.6658115465132042  0.6788069900390212
  0.9325897384580273  0.8657852280058620  0.6785751027783533
  0.0654388125758913  0.1320320954981753  0.5628519957780895
  0.0652384646983748  0.1321406408912793  0.7933114711593703
  0.0655090278145281  0.3323426173280239  0.5628533805333760
  0.0652636612925122  0.3319976869256962  0.7933172405820059
  0.0661293677345682  0.5325879413890462  0.5636043023805399
  0.0659252830264947  0.5322637096553322  0.7936371452676170
  0.0660060771293800  0.7324822692179040  0.5637849734049496
  0.0660093833721831  0.7324876578288340  0.7940265456865632
  0.0660541975380013  0.9324458027891041  0.5636130334872860
  0.0659414104115186  0.9326251203957767  0.7936395984358242
  0.2662354010150452  0.1329403487348912  0.5638660084478317
  0.2655914589594843  0.1316648338410218  0.7939716821655196
  0.2662012922186108  0.3325418284507577  0.5643493903175525
  0.2654375239612676  0.3320634364105217  0.7966669964846389
  0.2662809990425998  0.5321755728317967  0.5640108536993367
  0.2654993542711850  0.5327097013853574  0.7941107130522767
  0.2659662053112442  0.7323117355373441  0.5636897253057924
  0.2661635220525227  0.7325180661537516  0.7937191628396221
  0.2659278395065527  0.9324528673395704  0.5636176119824583
  0.2662128721682890  0.9326264300085825  0.7936453119645108
  0.4661224456349942  0.1320409869339016  0.5628667554939639
  0.4664262322847748  0.1321457490489237  0.7933268684725476
  0.4658660987996441  0.3325435379956900  0.5643591362168721
  0.4661366624958561  0.3320696439791462  0.7966802066994774
  0.4657930038860698  0.5320598335772360  0.5645839635752523
  0.4659439712674995  0.5323723368465210  0.7969766042407116
  0.4661114970684537  0.7327046955364480  0.5631794151311738
  0.4663135153349103  0.7329862164396559  0.7936292928592721
  0.4658370443807271  0.9322143502281364  0.5632175506352084
  0.4660750455251019  0.9324750444885481  0.7936303171683008
  0.6660955370688555  0.1322920430654833  0.5631765650015907
  0.6660516522061073  0.1323985058195305  0.7933715155982171
  0.6663507649581177  0.3323439123205674  0.5628684938115001
  0.6662572816167085  0.3320013302462925  0.7933313520870016
  0.6654189781072830  0.5321728801646515  0.5640206087475974
  0.6667348430058269  0.5327126910494613  0.7941176068612918
  0.6661190339463801  0.7327003957592098  0.5631799061668730
  0.6661998970938754  0.7329867995305150  0.7936285884073797
  0.6660061712882666  0.9324877399472769  0.5633316440455403
  0.6660355980236687  0.9325424728250553  0.7935259979182945
  0.8657119910076787  0.1322877311877377  0.5631680331486848
  0.8658742832740458  0.1323975642719830  0.7933616952293292
  0.8660931888903605  0.3326701219826234  0.5631005617865910
  0.8659520772657814  0.3323741552947794  0.7935187371214454
  0.8659813853179585  0.5325862656659908  0.5636092431940014
  0.8658709102787725  0.5322660233879972  0.7936416670568178
  0.8658745053773060  0.7323066234575109  0.5636903498575521
  0.8658881762713975  0.7325203791814161  0.7937182549167972
  0.8659010357605297  0.9322048129434677  0.5632107465796494
  0.8659299304392363  0.9324744219311185  0.7936223273500431
  0.3987605603811417  0.3980358967019910  0.9004113254948649
 
  0.00000000E+00  0.00000000E+00  0.00000000E+00
  0.00000000E+00  0.00000000E+00  0.00000000E+00
  0.00000000E+00  0.00000000E+00  0.00000000E+00
  0.00000000E+00  0.00000000E+00  0.00000000E+00
  0.00000000E+00  0.00000000E+00  0.00000000E+00
  0.00000000E+00  0.00000000E+00  0.00000000E+00
  0.00000000E+00  0.00000000E+00  0.00000000E+00
  0.00000000E+00  0.00000000E+00  0.00000000E+00
  0.00000000E+00  0.00000000E+00  0.00000000E+00
  0.00000000E+00  0.00000000E+00  0.00000000E+00
  0.00000000E+00  0.00000000E+00  0.00000000E+00
  0.00000000E+00  0.00000000E+00  0.00000000E+00
  0.00000000E+00  0.00000000E+00  0.00000000E+00
  0.00000000E+00  0.00000000E+00  0.00000000E+00
  0.00000000E+00  0.00000000E+00  0.00000000E+00
  0.00000000E+00  0.00000000E+00  0.00000000E+00
  0.00000000E+00  0.00000000E+00  0.00000000E+00
  0.00000000E+00  0.00000000E+00  0.00000000E+00
  0.00000000E+00  0.00000000E+00  0.00000000E+00
  0.00000000E+00  0.00000000E+00  0.00000000E+00
  0.00000000E+00  0.00000000E+00  0.00000000E+00
  0.00000000E+00  0.00000000E+00  0.00000000E+00
  0.00000000E+00  0.00000000E+00  0.00000000E+00
  0.00000000E+00  0.00000000E+00  0.00000000E+00
  0.00000000E+00  0.00000000E+00  0.00000000E+00
  0.00000000E+00  0.00000000E+00  0.00000000E+00
  0.00000000E+00  0.00000000E+00  0.00000000E+00
  0.00000000E+00  0.00000000E+00  0.00000000E+00
  0.00000000E+00  0.00000000E+00  0.00000000E+00
  0.00000000E+00  0.00000000E+00  0.00000000E+00
  0.00000000E+00  0.00000000E+00  0.00000000E+00
  0.00000000E+00  0.00000000E+00  0.00000000E+00
  0.00000000E+00  0.00000000E+00  0.00000000E+00
  0.00000000E+00  0.00000000E+00  0.00000000E+00
  0.00000000E+00  0.00000000E+00  0.00000000E+00
  0.00000000E+00  0.00000000E+00  0.00000000E+00
  0.00000000E+00  0.00000000E+00  0.00000000E+00
  0.00000000E+00  0.00000000E+00  0.00000000E+00
  0.00000000E+00  0.00000000E+00  0.00000000E+00
  0.00000000E+00  0.00000000E+00  0.00000000E+00
  0.00000000E+00  0.00000000E+00  0.00000000E+00
  0.00000000E+00  0.00000000E+00  0.00000000E+00
  0.00000000E+00  0.00000000E+00  0.00000000E+00
  0.00000000E+00  0.00000000E+00  0.00000000E+00
  0.00000000E+00  0.00000000E+00  0.00000000E+00
  0.00000000E+00  0.00000000E+00  0.00000000E+00
  0.00000000E+00  0.00000000E+00  0.00000000E+00
  0.00000000E+00  0.00000000E+00  0.00000000E+00
  0.00000000E+00  0.00000000E+00  0.00000000E+00
  0.00000000E+00  0.00000000E+00  0.00000000E+00
  0.00000000E+00  0.00000000E+00  0.00000000E+00
  0.00000000E+00  0.00000000E+00  0.00000000E+00
  0.00000000E+00  0.00000000E+00  0.00000000E+00
  0.00000000E+00  0.00000000E+00  0.00000000E+00
  0.00000000E+00  0.00000000E+00  0.00000000E+00
  0.00000000E+00  0.00000000E+00  0.00000000E+00
  0.00000000E+00  0.00000000E+00  0.00000000E+00
  0.00000000E+00  0.00000000E+00  0.00000000E+00
  0.00000000E+00  0.00000000E+00  0.00000000E+00
  0.00000000E+00  0.00000000E+00  0.00000000E+00
  0.00000000E+00  0.00000000E+00  0.00000000E+00
  0.00000000E+00  0.00000000E+00  0.00000000E+00
  0.00000000E+00  0.00000000E+00  0.00000000E+00
  0.00000000E+00  0.00000000E+00  0.00000000E+00
  0.00000000E+00  0.00000000E+00  0.00000000E+00
  0.00000000E+00  0.00000000E+00  0.00000000E+00
  0.00000000E+00  0.00000000E+00  0.00000000E+00
  0.00000000E+00  0.00000000E+00  0.00000000E+00
  0.00000000E+00  0.00000000E+00  0.00000000E+00
  0.00000000E+00  0.00000000E+00  0.00000000E+00
  0.00000000E+00  0.00000000E+00  0.00000000E+00
  0.00000000E+00  0.00000000E+00  0.00000000E+00
  0.00000000E+00  0.00000000E+00  0.00000000E+00
  0.00000000E+00  0.00000000E+00  0.00000000E+00
  0.00000000E+00  0.00000000E+00  0.00000000E+00
  0.00000000E+00  0.00000000E+00  0.00000000E+00
