Ta  N Cu                                
   1.00000000000000     
    18.1096308199999996    0.0000000000000000    0.0000000000000000
     0.0000000000000000   23.3551997799999995    0.0000000000000000
     0.0000000000000000    0.0000000000000000   30.4818170799999990
   Ta   N    Cu
   240   240    29
Selective dynamics
Direct
  0.9966390910667968  0.9992284895796359  0.1949658048404004   F   F   F
  0.3277700721234282  0.0581236732199741  0.2013683430974780   F   F   F
  0.1684773163145010  0.0580615029104266  0.2013791692237277   F   F   F
  0.2480345979797249  0.1239858801156473  0.2800241854873065   F   F   F
  0.0808382023107441  0.0616618146522256  0.2828839231391385   F   F   F
  0.4152130473966196  0.0616915296624398  0.2828976690388316   F   F   F
  0.9980464637655189  0.1239130055516924  0.3686967535598100   F   F   F
  0.3306249619063166  0.0615271979488909  0.3679135981482631   F   F   F
  0.1655902889355545  0.0614771876723381  0.3678745584808851   F   F   F
  0.2482234523203992  0.1240333330580001  0.4552496810702664   T   T   T
  0.0819539194616902  0.0614733635343767  0.4539190756314195   T   T   T
  0.4143406699403332  0.0614227659171386  0.4539440203491095   T   T   T
  0.9985625350957216  0.1239917682326692  0.5402519234530613   T   T   T
  0.3335451597261621  0.0613587674630543  0.5422010644976469   T   T   T
  0.1633169284401990  0.0614323069071905  0.5420705835415763   T   T   T
  0.9998663793854163  0.1240188064021766  0.1949490735543762   F   F   F
  0.3277441190819346  0.1900150733799464  0.2013777257402296   F   F   F
  0.1684874766541498  0.1900526667213995  0.2014457334969322   F   F   F
  0.2479610459557691  0.2488560600957541  0.2806718502885275   F   F   F
  0.0807401329454578  0.1862822857856941  0.2829109556483189   F   F   F
  0.4151825663776805  0.1863078903622224  0.2828924528143659   F   F   F
  0.9979134406230799  0.2488367068038002  0.3688529778422236   F   F   F
  0.3305502502783781  0.1863879581851293  0.3679501445259632   F   F   F
  0.1655133133188826  0.1863874871979334  0.3678839739300770   F   F   F
  0.2480987345341866  0.2487970973353510  0.4552471471271256   T   T   T
  0.0817191734812879  0.1863087270704181  0.4538706692120240   T   T   T
  0.4144082285367061  0.1862820176796560  0.4540177562398273   T   T   T
  0.9978846375648027  0.2491896032311679  0.5403383443189976   T   T   T
  0.3321821911962713  0.1853642502340164  0.5423167533987391   T   T   T
  0.1626563181071045  0.1866888046476014  0.5418915713410832   T   T   T
  0.9965867984491581  0.2488217636646581  0.1950600905580941   F   F   F
  0.3278069585738805  0.3080767909406390  0.2013524319725377   F   F   F
  0.1683836644881964  0.3079724458687565  0.2014227361802696   F   F   F
  0.2478726951762340  0.3738996489971385  0.2800185755855225   F   F   F
  0.0806947979517147  0.3114654153474348  0.2829083967457464   F   F   F
  0.4151504840008684  0.3115013388252024  0.2828788053340006   F   F   F
  0.9980860007393559  0.3738734449823653  0.3689089128278411   F   F   F
  0.3306098870545640  0.3113551615271177  0.3678795122538006   F   F   F
  0.1653729460179036  0.3113895864092697  0.3678189515596983   F   F   F
  0.2475023668098151  0.3738275881544568  0.4548988479863367   T   T   T
  0.0813705479956025  0.3113413114835594  0.4539549196252372   T   T   T
  0.4141458505525353  0.3112345743509892  0.4537601278411523   T   T   T
  0.9960834023244046  0.3742517479083096  0.5412950065341960   T   T   T
  0.3291690036705539  0.3106671481966634  0.5407680467763798   T   T   T
  0.1612017350730351  0.3111925315558380  0.5415854165260874   T   T   T
  0.0000884711574685  0.3736088786306269  0.1951165832532453   F   F   F
  0.3275851981172551  0.4399150551817712  0.2012908870851362   F   F   F
  0.1685466164571991  0.4399824491674735  0.2014116804089170   F   F   F
  0.2480693308799289  0.9991129264491363  0.2806420620381189   F   F   F
  0.0805761318109504  0.4362118113296631  0.2829060018753964   F   F   F
  0.4151609756559367  0.4362390001358420  0.2827771709730342   F   F   F
  0.9981841253238741  0.9990334152474531  0.3686637502779746   F   F   F
  0.3305373289768667  0.4364125803251824  0.3677033088474957   F   F   F
  0.1651475963108595  0.4364318479831013  0.3677546181246214   F   F   F
  0.2483840986437543  0.9990943151141446  0.4553069271804392   T   T   T
  0.0816435083966685  0.4363719411519767  0.4543025676303902   T   T   T
  0.4138321308664489  0.4363246014395329  0.4533656013795662   T   T   T
  0.9984745401181843  0.9989678378845495  0.5403174775619051   T   T   T
  0.3290591970760390  0.4353308965630195  0.5399866081408624   T   T   T
  0.1602364666075510  0.4353609549663660  0.5416463282240064   T   T   T
  0.9974941609549575  0.4988032262509705  0.1947335352226958   F   F   F
  0.3276587501412109  0.5580830873971649  0.2013224796899138   F   F   F
  0.1685634583245488  0.5579298881081982  0.2014202100841445   F   F   F
  0.2478788797307985  0.6240525937389378  0.2798800339759779   F   F   F
  0.0805087643415590  0.5615776411054938  0.2828216565099879   F   F   F
  0.4152730707074710  0.5616187026253741  0.2827175944722242   F   F   F
  0.9984322253566518  0.6240315705832913  0.3688794854483106   F   F   F
  0.3306171759938721  0.5616018327204415  0.3676583312138959   F   F   F
  0.1653293228205115  0.5615251474419196  0.3677317192272866   F   F   F
  0.2476806319934088  0.6241533107842577  0.4545900473131484   T   T   T
  0.0824761912399756  0.5615913956204580  0.4545624433731264   T   T   T
  0.4136560742011264  0.5617996900380751  0.4533760315077177   T   T   T
  0.9979655888570390  0.6239660282557802  0.5400515420484713   T   T   T
  0.3306941350127247  0.5615369510924114  0.5392234312174871   T   T   T
  0.1595775966525267  0.5613978663122188  0.5427532123250014   T   T   T
  0.0007626328850776  0.6240828225533619  0.1950305319527885   F   F   F
  0.3277245162527294  0.6900373429389717  0.2012986950186075   F   F   F
  0.1685678758635234  0.6900977149337848  0.2013988530896356   F   F   F
  0.2479661813448288  0.7491353173944049  0.2804739618232759   F   F   F
  0.0806195893506327  0.6864872127417954  0.2828095837388958   F   F   F
  0.4152967597602313  0.6865188973348211  0.2827428882399161   F   F   F
  0.9983423284384756  0.7491591664732056  0.3686678182769256   F   F   F
  0.3305721723155486  0.6866449078176089  0.3677124618451373   F   F   F
  0.1654460562879692  0.6865511385490706  0.3677456291591952   F   F   F
  0.2480519757544428  0.7491997367156564  0.4551444385626344   T   T   T
  0.0823379883009850  0.6865430258764162  0.4541724941439094   T   T   T
  0.4139718595944225  0.6868580165182894  0.4537093791611911   T   T   T
  0.9982143098055286  0.7490660261928309  0.5398974637810163   T   T   T
  0.3306613290044906  0.6880042300298032  0.5407373018079632   T   T   T
  0.1609444972667075  0.6871758387111244  0.5423323847119090   T   T   T
  0.9975498219460661  0.7492908288023230  0.1946259957019620   F   F   F
  0.3277081713585162  0.8081820826967885  0.2012359690992511   F   F   F
  0.1686403787219746  0.8081072385500292  0.2013036487915301   F   F   F
  0.2480623732560474  0.8741734257175366  0.2799900011735161   F   F   F
  0.0808062855916347  0.8117972947607157  0.2828303830238710   F   F   F
  0.4152394974112426  0.8118373714891831  0.2827982327095597   F   F   F
  0.9982814768390753  0.8741312081381807  0.3686082745825630   F   F   F
  0.3305722827540194  0.8116304368431315  0.3678017609834683   F   F   F
  0.1655802942536155  0.8115675386442760  0.3678001206613075   F   F   F
  0.2482277536855917  0.8742047262562802  0.4550971472088428   T   T   T
  0.0820961620967614  0.8117195279403415  0.4538490486951091   T   T   T
  0.4142400548678566  0.8119799909758786  0.4537446789699082   T   T   T
  0.9985029147427562  0.8740049089523020  0.5402828193744449   T   T   T
  0.3318160915894637  0.8134668973503911  0.5418373700022192   T   T   T
  0.1628087665659755  0.8116530812829226  0.5418810569039983   T   T   T
  0.0001695230582257  0.8744660372158037  0.1949890646086132   F   F   F
  0.3278755960857325  0.9401282886392863  0.2012964313740326   F   F   F
  0.1684307112782975  0.9401051674497793  0.2013510212954799   F   F   F
  0.2477634163058013  0.4989877247798020  0.2804829835951494   F   F   F
  0.0808864087048207  0.9364890562284884  0.2828658795953913   F   F   F
  0.4151985799564741  0.9365279340804662  0.2828566281784148   F   F   F
  0.9982291290021976  0.4989252119341074  0.3689904040327008   F   F   F
  0.3306079543812572  0.9365981111723087  0.3678491662938654   F   F   F
  0.1656342434483733  0.9365619307924433  0.3678331895560376   F   F   F
  0.2472192226825071  0.4989078798206178  0.4543982435289778   T   T   T
  0.0819934791342004  0.9365655291935360  0.4539000523681885   T   T   T
  0.4143652625937353  0.9367350550635565  0.4538434176971553   T   T   T
  0.9978398707361396  0.4988093843781248  0.5408828387629205   T   T   T
  0.3336354453930786  0.9371601058413218  0.5421798734549903   T   T   T
  0.1633407477497374  0.9366104710188421  0.5420402334441172   T   T   T
  0.4995081948335383  0.9992389369319312  0.1949174481431513   F   F   F
  0.8278637013098447  0.0649706281382123  0.2014574125907060   F   F   F
  0.6681941294262117  0.0648913310216201  0.2014505560440796   F   F   F
  0.7480737809982614  0.1239609606113987  0.2805778598288242   F   F   F
  0.5805885887186761  0.0613698025922034  0.2828971441357382   F   F   F
  0.9154802306455849  0.0613875716545067  0.2828585965650063   F   F   F
  0.4980713350621500  0.1239550518629713  0.3687213583921931   F   F   F
  0.8306319521095560  0.0614552225423068  0.3678334520075808   F   F   F
  0.6655235062378821  0.0614641284819726  0.3678327958787193   F   F   F
  0.7483220517909445  0.1237942455506963  0.4551469451475134   T   T   T
  0.5819696859661206  0.0613155352161263  0.4539252878042188   T   T   T
  0.9144469399472575  0.0613751245747580  0.4538274657701616   T   T   T
  0.4980284503503035  0.1242943402458742  0.5402587081604316   T   T   T
  0.8331634160107614  0.0608110250984646  0.5419814143525328   T   T   T
  0.6631101528029724  0.0605754406681711  0.5420847146858268   T   T   T
  0.4962290004319385  0.1240128120197141  0.1949237469802441   F   F   F
  0.8278285266557432  0.1831807066648850  0.2015020293534278   F   F   F
  0.6681650841074429  0.1831700452275058  0.2014439947554436   F   F   F
  0.7480121011102980  0.2487936328840945  0.2802008153773770   F   F   F
  0.5805575002881227  0.1865533603241118  0.2829032133277281   F   F   F
  0.9154393131908165  0.1865927091632855  0.2828907468793176   F   F   F
  0.4980206990216303  0.2487696125372238  0.3687945495669283   F   F   F
  0.8306878339776134  0.1863650510807133  0.3678776422865440   F   F   F
  0.6654983814849516  0.1863662927742240  0.3678888292836646   F   F   F
  0.7480683832527347  0.2486586867773808  0.4548065737928449   T   T   T
  0.5819788461561193  0.1861147134940964  0.4539653488569115   T   T   T
  0.9141377564382063  0.1861611597180643  0.4540284035160080   T   T   T
  0.4977898874608337  0.2495257505110630  0.5396526622499899   T   T   T
  0.8347480350417888  0.1848519447691453  0.5420477598753590   T   T   T
  0.6633872294315368  0.1839277890257116  0.5420276381662361   T   T   T
  0.4994969301091459  0.2488225343709729  0.1949607854545903   F   F   F
  0.8276486223809201  0.3144374729900079  0.2014756857795561   F   F   F
  0.6682550362448509  0.3143727336593969  0.2013982297672143   F   F   F
  0.7481107226679526  0.3736837655944072  0.2804792108541818   F   F   F
  0.5805386153090026  0.3111003574553877  0.2828651250471950   F   F   F
  0.9154162867688953  0.3111159856668095  0.2828653874987452   F   F   F
  0.4979761923164361  0.3738199665273854  0.3686254323523386   F   F   F
  0.8307727059452006  0.3113278014528689  0.3679032641186595   F   F   F
  0.6653401783703501  0.3113284437081347  0.3678747225131005   F   F   F
  0.7488044326796247  0.3738679192924403  0.4546176870592420   T   T   T
  0.5817821085846240  0.3111150633907510  0.4535696766788853   T   T   T
  0.9140983551467945  0.3113143778450203  0.4543257857664045   T   T   T
  0.4948492527192416  0.3737141841340749  0.5385286427157332   T   T   T
  0.8344651931204227  0.3097647454124450  0.5417285329318441   T   T   T
  0.6634719962491346  0.3105971648830711  0.5393778080411878   T   T   T
  0.4960368374864501  0.3736197113360760  0.1950264311473902   F   F   F
  0.8276932395245780  0.4322155706261341  0.2010926705554539   F   F   F
  0.6684153376904689  0.4322341532117662  0.2010307319907341   F   F   F
  0.7480533498804931  0.9991578843176114  0.2801697804821259   F   F   F
  0.5807309991314327  0.4363297722131492  0.2828266102829033   F   F   F
  0.9152908286619592  0.4363544776323067  0.2829131536800134   F   F   F
  0.4980844772406030  0.9990622739173176  0.3686740186946906   F   F   F
  0.8310067250724913  0.4363752867028552  0.3678842691880604   F   F   F
  0.6654693361661828  0.4363854771530455  0.3676726020166754   F   F   F
  0.7482796641059598  0.9989631253895672  0.4551043680924001   T   T   T
  0.5816040886814451  0.4366614902481709  0.4530348457806112   T   T   T
  0.9142757347828852  0.4363902477996454  0.4545173139937668   T   T   T
  0.4982130041071032  0.9990214223046719  0.5402579122487015   T   T   T
  0.8330908049838127  0.4369292251471631  0.5410492444640077   T   T   T
  0.6644197403453344  0.4376336317919851  0.5378799533582200   T   T   T
  0.4987752146788367  0.4988284026573240  0.1946126434795872   F   F   F
  0.8322322608230834  0.5619713863993354  0.2024646688156011   F   F   F
  0.6640696941606663  0.5619000532480172  0.2023906574797962   F   F   F
  0.7481089556523628  0.6240455717480486  0.2774673825317748   F   F   F
  0.5806094615903419  0.5612917946960110  0.2828477704387566   F   F   F
  0.9154977903630197  0.5612980887975922  0.2829218145810088   F   F   F
  0.4979987769844527  0.6241932904587628  0.3685379047619435   F   F   F
  0.8309074408839905  0.5615340533815782  0.3675828763945859   F   F   F
  0.6658091553519583  0.5615632974046036  0.3674279643698952   F   F   F
  0.7487464795329482  0.6243688167933525  0.4545466368476736   T   T   T
  0.5817191370870056  0.5620868101299307  0.4531153195322598   T   T   T
  0.9146934511236611  0.5617082079380472  0.4539846626840487   T   T   T
  0.5001095307130676  0.6247415360186147  0.5391595819882478   T   T   T
  0.8348015882881293  0.5640455084686291  0.5415513714319546   T   T   T
  0.6663702871500081  0.5634780118369141  0.5395743424783579   T   T   T
  0.4955195436722875  0.6240622275678973  0.1949752202895922   F   F   F
  0.8321735627739315  0.6860532194514164  0.2024060765080904   F   F   F
  0.6640133153194796  0.6861068263574523  0.2023436786531647   F   F   F
  0.7480487114645697  0.7502093394638507  0.2784411105717481   F   F   F
  0.5806452988752895  0.6867897149711268  0.2828367802802916   F   F   F
  0.9154565415928246  0.6868051290974648  0.2828564641461995   F   F   F
  0.4980368230388947  0.7492582450519265  0.3685692349151779   F   F   F
  0.8306606108936663  0.6866575816548206  0.3674162524696811   F   F   F
  0.6656812675985861  0.6866998848682115  0.3674711048426786   F   F   F
  0.7485332754582227  0.7493409356399870  0.4547559431591405   T   T   T
  0.5817668509689051  0.6868974211620880  0.4534411485312188   T   T   T
  0.9147315292424730  0.6867693112471158  0.4535445112160557   T   T   T
  0.4983191978428949  0.7486671358354576  0.5393165942966029   T   T   T
  0.8350930411343331  0.6875435713533290  0.5414563741297138   T   T   T
  0.6672791347177605  0.6879184092817451  0.5400400802083888   T   T   T
  0.4987560536035289  0.7492456140317358  0.1945521483983654   F   F   F
  0.8277448695113705  0.8158545925313447  0.2009610839118636   F   F   F
  0.6684293633767169  0.8158305721844670  0.2009143675367824   F   F   F
  0.7480745540675784  0.8743143365224526  0.2804291482218915   F   F   F
  0.5808264179733271  0.8116929925058400  0.2828037769984562   F   F   F
  0.9152948596662753  0.8117047243686670  0.2827968548389421   F   F   F
  0.4980320189652545  0.8741437107073224  0.3686001057782065   F   F   F
  0.8306221783045729  0.8117011277391839  0.3676510481835109   F   F   F
  0.6656564189418432  0.8116968460374281  0.3677146270703915   F   F   F
  0.7483539288837309  0.8740609429384165  0.4550188194705477   T   T   T
  0.5819205624032462  0.8119616785808610  0.4536652705118345   T   T   T
  0.9145921455398378  0.8117584067243410  0.4535548020524771   T   T   T
  0.4981170584084903  0.8738568384968494  0.5401214569356064   T   T   T
  0.8340549911172570  0.8117604772649599  0.5416329628867110   T   T   T
  0.6642430041658534  0.8131146600364541  0.5418294395634947   T   T   T
  0.4960459486605941  0.8744858614949536  0.1949700040651265   F   F   F
  0.8278019109834034  0.9336484040129278  0.2013508572632645   F   F   F
  0.6683489641673432  0.9336827860780588  0.2013120800474297   F   F   F
  0.7481370070248587  0.4978913950441921  0.2785472722218714   F   F   F
  0.5806327641084437  0.9368643902047609  0.2828049252239637   F   F   F
  0.9154797888916875  0.9369038246779695  0.2828022679020705   F   F   F
  0.4979897210295547  0.4989515872169505  0.3685473858240229   F   F   F
  0.8306502848963078  0.9366169506600528  0.3677664612506106   F   F   F
  0.6655495144986077  0.9365975117340639  0.3678042870795935   F   F   F
  0.7492152409354458  0.4994615568789883  0.4542789392148103   T   T   T
  0.5819956472567885  0.9365902669452884  0.4538595469904153   T   T   T
  0.9144971021186942  0.9364999810089725  0.4537510085991908   T   T   T
  0.4978629363225894  0.4992111708201843  0.5382606009245373   T   T   T
  0.8334727180775608  0.9363646976083962  0.5419142190043971   T   T   T
  0.6629493927492043  0.9366744131222259  0.5419441663635713   T   T   T
  0.4047472901493450  0.9991607102407727  0.2311987169762233   F   F   F
  0.2481597799904804  0.9990974695057844  0.1761215214273548   F   F   F
  0.0914930854454568  0.9991284262095093  0.2312023912978631   F   F   F
  0.1509934148950265  0.1239634439984201  0.3154956272705220   F   F   F
  0.9980085833687937  0.1239796716480939  0.3016075116477310   F   F   F
  0.3450554051659012  0.1240101573646228  0.3155174107487966   F   F   F
  0.3994355308453521  0.1240043770672443  0.4017303485504655   F   F   F
  0.2480876084474488  0.1239394664685705  0.3871583826196243   F   F   F
  0.0967137882272979  0.1239076106074748  0.4016204797722622   F   F   F
  0.1496969184274320  0.1239209365721105  0.4872127078941637   T   T   T
  0.9981918156389812  0.1238848785278294  0.4722728802399530   T   T   T
  0.3469006807457425  0.1240414000854019  0.4874568843406766   T   T   T
  0.4012709765647757  0.1245285172086302  0.5702052472673690   T   T   T
  0.2485391458761237  0.1245417429015623  0.5572552177371320   T   T   T
  0.0955009536151993  0.1240009535268137  0.5699223425804115   T   T   T
  0.4033352790346925  0.1240332785541227  0.2308344342311770   F   F   F
  0.2481005849681921  0.1240551580501190  0.2098317821150033   F   F   F
  0.0928330354555484  0.1240273698056953  0.2308220662021014   F   F   F
  0.1506180897397229  0.2488813649531565  0.3157649681690202   F   F   F
  0.9981461344886782  0.2488942100584310  0.3017314215836109   F   F   F
  0.3453482327808146  0.2489135205333710  0.3157792061653595   F   F   F
  0.3993608744366455  0.2487808305958339  0.4017663044121917   F   F   F
  0.2480755154345005  0.2489219126688198  0.3871848246128238   F   F   F
  0.0966121848308319  0.2488525491003131  0.4016524988608055   F   F   F
  0.1494077926327175  0.2486881848786985  0.4872095084163237   T   T   T
  0.9978067953437089  0.2488944268064754  0.4723340492652955   T   T   T
  0.3469780473674587  0.2484143211715684  0.4877924246932921   T   T   T
  0.4010098020855435  0.2501523386337647  0.5718874189557276   T   T   T
  0.2474087974999553  0.2492469191685326  0.5575950796089472   T   T   T
  0.0943459459608014  0.2488385415159332  0.5699748683191775   T   T   T
  0.4047347553824920  0.2489228118261906  0.2312160059717812   F   F   F
  0.2481656884488572  0.2490522476703916  0.1762141668228949   F   F   F
  0.0913729836045292  0.2488895858205353  0.2312692508290581   F   F   F
  0.1508458138739712  0.3738753717481558  0.3154843418540736   F   F   F
  0.9978994149368319  0.3738319552923102  0.3017586181250067   F   F   F
  0.3449424266065719  0.3738852196622062  0.3154412669941777   F   F   F
  0.3992150956504119  0.3738359800919682  0.4014431609468900   F   F   F
  0.2478744069725849  0.3739212715910227  0.3868973745576980   F   F   F
  0.0967075484534945  0.3739547973158039  0.4017130595549148   F   F   F
  0.1490284063352532  0.3736158227101024  0.4872200140720710   T   T   T
  0.9976140601423781  0.3739591785059928  0.4730210695467456   T   T   T
  0.3464020779051911  0.3734860002630803  0.4871573528894677   T   T   T
  0.3961398889293895  0.3735198519620114  0.5706460976864113   T   T   T
  0.2458287048556876  0.3738358279209550  0.5572670622079176   T   T   T
  0.0925822185757973  0.3738798271999970  0.5697568975773732   T   T   T
  0.4032731021735998  0.3738792680967578  0.2308831189928497   F   F   F
  0.2480410586304842  0.3738733165313164  0.2099871206234525   F   F   F
  0.0928567245083158  0.3738673649658679  0.2309477804923574   F   F   F
  0.1507009185955326  0.9990645004022340  0.3157375091760741   F   F   F
  0.9982571251554617  0.9990773026904947  0.3015775593651071   F   F   F
  0.3454229444087602  0.9990954142889379  0.3157505661404585   F   F   F
  0.3994736873382578  0.9990793579073411  0.4017187350695792   F   F   F
  0.2481317286179774  0.9990431775274686  0.3872386927925220   F   F   F
  0.0967817631082966  0.9990044709435608  0.4016763819514395   F   F   F
  0.1497952715778929  0.9990818721723492  0.4872491045218772   T   T   T
  0.9982019858083010  0.9989950144701519  0.4722423049088658   T   T   T
  0.3470086285463785  0.9991635408198321  0.4873864817139454   T   T   T
  0.4014918720823369  0.9992351004164634  0.5700811808398170   T   T   T
  0.2484537801021239  0.9991887581467084  0.5574218869118820   T   T   T
  0.0955802932286237  0.9990463882636386  0.5697543406593865   T   T   T
  0.4045374570479510  0.4986216820963563  0.2311458986027120   F   F   F
  0.2481754622538475  0.4989631049946865  0.1760731647301128   F   F   F
  0.0915745338203422  0.4986137181310824  0.2313066173678351   F   F   F
  0.1507823117511791  0.6240460427352446  0.3154015055850437   F   F   F
  0.9978400542568338  0.6240418038505027  0.3017897514395784   F   F   F
  0.3450795911917979  0.6240922422972304  0.3152956719993512   F   F   F
  0.3991592690016006  0.6242626112102556  0.4013980192810749   F   F   F
  0.2479646352061877  0.6240858197445931  0.3867129367341491   F   F   F
  0.0971312456605915  0.6239351466596617  0.4018746312875621   F   F   F
  0.1502990176966675  0.6241813453746643  0.4881973230339341   T   T   T
  0.9983920259508622  0.6240658508015768  0.4720431733259100   T   T   T
  0.3457377879602225  0.6246987845523672  0.4870298885406391   T   T   T
  0.4004188666069116  0.6234601488923585  0.5676193997034772   T   T   T
  0.2482925095587234  0.6237297650499846  0.5618383188071040   T   T   T
  0.0940714877160029  0.6239871764863968  0.5705609249050734   T   T   T
  0.4028620501718194  0.6240598726319249  0.2308169483969635   F   F   F
  0.2480770615731416  0.6240604720701697  0.2096173592023902   F   F   F
  0.0933600478554624  0.6240161136399394  0.2308922063776109   F   F   F
  0.1506178688627742  0.7490142736856527  0.3156780639010393   F   F   F
  0.9980152096772557  0.7491538143460090  0.3016203389670125   F   F   F
  0.3453905307165144  0.7490616293071142  0.3156284605589548   F   F   F
  0.3993209509281428  0.7491957750232530  0.4015913476507222   F   F   F
  0.2481180342471490  0.7490699358085280  0.3871091729548581   F   F   F
  0.0969243391787700  0.7490340123307675  0.4017003306549611   F   F   F
  0.1497553897862808  0.7493497649013519  0.4873703378635617   T   T   T
  0.9982763964675704  0.7491315599927353  0.4719024229532761   T   T   T
  0.3469264298578369  0.7497781254537234  0.4875871949407515   T   T   T
  0.4002745831727828  0.7495083622386222  0.5708192488947704   T   T   T
  0.2476289993867447  0.7488570012348930  0.5577712417262688   T   T   T
  0.0949631490736565  0.7491316406054830  0.5700676095436433   T   T   T
  0.4045582747003778  0.7494686050593913  0.2311416009586509   F   F   F
  0.2482229507978460  0.7491103122561285  0.1760754611811350   F   F   F
  0.0916644307385184  0.7494454410528704  0.2312230265506230   F   F   F
  0.1510041826462825  0.8741043190511277  0.3154521915397552   F   F   F
  0.9980240999744439  0.8741504757960996  0.3015246753787011   F   F   F
  0.3451180237808984  0.8741179776797452  0.3154467128637464   F   F   F
  0.3993686603490900  0.8741589107485694  0.4015694001402395   F   F   F
  0.2481296302869609  0.8740799989851311  0.3870548126785067   F   F   F
  0.0969161667316669  0.8740928440904128  0.4015854096845075   F   F   F
  0.1497831352357940  0.8742310530972520  0.4872039144959092   T   T   T
  0.9982752281347965  0.8740701770924755  0.4721211772473379   T   T   T
  0.3468041768288326  0.8743853673191933  0.4872455164609571   T   T   T
  0.4012574917509054  0.8739379097540007  0.5699541656948399   T   T   T
  0.2483734544254380  0.8738944328470616  0.5572488051876644   T   T   T
  0.0953440576586857  0.8741268992075351  0.5698240712452757   T   T   T
  0.4032738200236849  0.8742048534084503  0.2308432591643879   F   F   F
  0.2481676211221640  0.8742306292530486  0.2099197361891640   F   F   F
  0.0929759428414485  0.8741683733094590  0.2308491315177221   F   F   F
  0.1504423821269256  0.4990264313637169  0.3157070319903639   F   F   F
  0.9979671137216499  0.4989009346851319  0.3018721284184025   F   F   F
  0.3452587223973040  0.4990427874644396  0.3155331578415215   F   F   F
  0.3991089090572615  0.4990266882658219  0.4013165936891028   F   F   F
  0.2478550250203284  0.4989766351722480  0.3866136972435399   F   F   F
  0.0969108104656513  0.4990787109422001  0.4019639304258931   F   F   F
  0.1500156319072352  0.4987836387138430  0.4880369900129633   T   T   T
  0.9980500709652064  0.4990256639552203  0.4726926989902080   T   T   T
  0.3455605740977607  0.4986691839891734  0.4866916293385419   T   T   T
  0.3984552690381760  0.4987970084721845  0.5677216924292425   T   T   T
  0.2473333479273550  0.4984657278108731  0.5610222442812230   T   T   T
  0.0933569629441735  0.4986018501778742  0.5704262900237647   T   T   T
  0.9036940157789459  0.9992003587990723  0.2308317441028365   F   F   F
  0.7480871440536632  0.9992808547921541  0.2102201447893464   F   F   F
  0.5924310719880239  0.9991772804265864  0.2308477864535519   F   F   F
  0.6506364551058255  0.1239819409500242  0.3156984038958086   F   F   F
  0.4979907701950594  0.1240003094505724  0.3016296231904292   F   F   F
  0.8454641705390671  0.1239652423131616  0.3157055885068658   F   F   F
  0.8993906149656112  0.1238810640565617  0.4017362865166803   F   F   F
  0.7480845487495174  0.1238936094427174  0.3871221314999147   F   F   F
  0.5967091271714864  0.1239491859315649  0.4017450458370107   F   F   F
  0.6496190236698308  0.1235980776092771  0.4873588441223256   T   T   T
  0.4981306660023293  0.1238937114560952  0.4722854167064601   T   T   T
  0.8466510424173758  0.1233986201008938  0.4872496953506331   T   T   T
  0.9014842140542016  0.1232395329912682  0.5698352617871868   T   T   T
  0.7481531401491583  0.1239751181287142  0.5575570582413695   T   T   T
  0.5952399124585680  0.1237040697511685  0.5701760410961264   T   T   T
  0.9050379415741148  0.1240205190828831  0.2311762773690944   F   F   F
  0.7480019407706493  0.1240531456502936  0.1767624609077245   F   F   F
  0.5910735622605046  0.1240082305988324  0.2311873331404399   F   F   F
  0.6508313237939305  0.2489157898353014  0.3155265309399979   F   F   F
  0.4977502904170166  0.2488992624665087  0.3017059965901510   F   F   F
  0.8451924366727681  0.2489504288025373  0.3155429669680316   F   F   F
  0.8991262252578593  0.2488189377414969  0.4017698475080564   F   F   F
  0.7480364527939045  0.2489246529579461  0.3869613799283371   F   F   F
  0.5968197865228504  0.2487790322810923  0.4017331699045812   F   F   F
  0.6497028718677289  0.2480326330471380  0.4875885204616598   T   T   T
  0.4981742698027886  0.2488608871233110  0.4719265950137758   T   T   T
  0.8460459220232159  0.2482285662620072  0.4876447989277657   T   T   T
  0.9010071184733763  0.2480679874196316  0.5705066021231973   T   T   T
  0.7481844280352686  0.2483732041841160  0.5601518115419053   T   T   T
  0.5961124068802557  0.2484280298793257  0.5711905006254885   T   T   T
  0.9036428827652898  0.2488618832101466  0.2309075269865772   F   F   F
  0.7479877494266916  0.2487876385016321  0.2102211617890859   F   F   F
  0.5923520532595816  0.2488467688029345  0.2309165815648910   F   F   F
  0.6506590397738421  0.3738543057755024  0.3156240316891257   F   F   F
  0.4979781249897428  0.3738692489146445  0.3015843174923987   F   F   F
  0.8454615752349142  0.3738464702612774  0.3157219917284522   F   F   F
  0.8993540046113395  0.3739480322270197  0.4017722095719662   F   F   F
  0.7481403201790968  0.3739622474768680  0.3869459937064903   F   F   F
  0.5966387226440446  0.3738954957464315  0.4014468024620825   F   F   F
  0.6497788143409989  0.3737567543760357  0.4860619170944274   T   T   T
  0.4976936925925178  0.3740885482161571  0.4713006784768718   T   T   T
  0.8467070208193436  0.3737107783016882  0.4882664834387260   T   T   T
  0.8984356461525318  0.3736784919925942  0.5740419412230517   T   T   T
  0.7460218203992193  0.3748971282496499  0.5571557924239874   T   T   T
  0.5949198114292547  0.3749910496437414  0.5671203684926647   T   T   T
  0.9049994537657824  0.3736494263462902  0.2311108941278377   F   F   F