Ta  N W                                 
   1.00000000000000     
    18.1096308199999996    0.0000000000000000    0.0000000000000000
     0.0000000000000000   23.3551997799999995    0.0000000000000000
     0.0000000000000000    0.0000000000000000   30.4818171199999988
   Ta   N    W 
   192   240    48
Direct
  0.0000000000000000  0.0000000000000000  0.1967746529588652
  0.3337956007046046  0.0625000001605613  0.2026708343951640
  0.1662043700291989  0.0625000001605613  0.2026708343951640
  0.2499999997239044  0.1249999998929567  0.2779036960799388
  0.0823335396328133  0.0625000001605613  0.2836887671944126
  0.4176664603671867  0.0625000001605613  0.2836887671944126
  0.0000000000000000  0.1249999998929567  0.3693888343914722
  0.3324455201188528  0.0625000001605613  0.3678791095711489
  0.1675544506149578  0.0625000001605613  0.3678791095711489
  0.2499999997239044  0.1249999998929567  0.4538527864790325
  0.0836084512772999  0.0625000001605613  0.4539513188997049
  0.4163915487227001  0.0625000001605613  0.4539513188997049
  0.0000000000000000  0.1249999998929567  0.1967746529588652
  0.3337956007046046  0.1875000000535181  0.2026708343951640
  0.1662043700291989  0.1875000000535181  0.2026708343951640
  0.2499999997239044  0.2500000002140865  0.2779036960799388
  0.0823335396328133  0.1875000000535181  0.2836887671944126
  0.4176664603671867  0.1875000000535181  0.2836887671944126
  0.0000000000000000  0.2500000002140865  0.3693888343914722
  0.3324455201188528  0.1875000000535181  0.3678791095711489
  0.1675544506149578  0.1875000000535181  0.3678791095711489
  0.2499999997239044  0.2500000002140865  0.4538527864790325
  0.0836084512772999  0.1875000000535181  0.4539513188997049
  0.4163915487227001  0.1875000000535181  0.4539513188997049
  0.0000000000000000  0.2500000002140865  0.1967746529588652
  0.3337956007046046  0.3124999999464819  0.2026708343951640
  0.1662043700291989  0.3124999999464819  0.2026708343951640
  0.2499999997239044  0.3750000001070433  0.2779036960799388
  0.0823335396328133  0.3124999999464819  0.2836887671944126
  0.4176664603671867  0.3124999999464819  0.2836887671944126
  0.0000000000000000  0.3750000001070433  0.3693888343914722
  0.3324455201188528  0.3124999999464819  0.3678791095711489
  0.1675544506149578  0.3124999999464819  0.3678791095711489
  0.2499999997239044  0.3750000001070433  0.4538527864790325
  0.0836084512772999  0.3124999999464819  0.4539513188997049
  0.4163915487227001  0.3124999999464819  0.4539513188997049
  0.0000000000000000  0.3750000001070433  0.1967746529588652
  0.3337956007046046  0.4375000002676046  0.2026708343951640
  0.1662043700291989  0.4375000002676046  0.2026708343951640
  0.2499999997239044  0.0000000000000000  0.2779036960799388
  0.0823335396328133  0.4375000002676046  0.2836887671944126
  0.4176664603671867  0.4375000002676046  0.2836887671944126
  0.0000000000000000  0.0000000000000000  0.3693888343914722
  0.3324455201188528  0.4375000002676046  0.3678791095711489
  0.1675544506149578  0.4375000002676046  0.3678791095711489
  0.2499999997239044  0.0000000000000000  0.4538527864790325
  0.0836084512772999  0.4375000002676046  0.4539513188997049
  0.4163915487227001  0.4375000002676046  0.4539513188997049
  0.0000000000000000  0.5000000000000000  0.1967746529588652
  0.3337956007046046  0.5625000001605613  0.2026708343951640
  0.1662043700291989  0.5625000001605613  0.2026708343951640
  0.2499999997239044  0.6249999998929567  0.2779036960799388
  0.0823335396328133  0.5625000001605613  0.2836887671944126
  0.4176664603671867  0.5625000001605613  0.2836887671944126
  0.0000000000000000  0.6249999998929567  0.3693888343914722
  0.3324455201188528  0.5625000001605613  0.3678791095711489
  0.1675544506149578  0.5625000001605613  0.3678791095711489
  0.2499999997239044  0.6249999998929567  0.4538527864790325
  0.0836084512772999  0.5625000001605613  0.4539513188997049
  0.4163915487227001  0.5625000001605613  0.4539513188997049
  0.0000000000000000  0.6249999998929567  0.1967746529588652
  0.3337956007046046  0.6875000000535181  0.2026708343951640
  0.1662043700291989  0.6875000000535181  0.2026708343951640
  0.2499999997239044  0.7500000002140865  0.2779036960799388
  0.0823335396328133  0.6875000000535181  0.2836887671944126
  0.4176664603671867  0.6875000000535181  0.2836887671944126
  0.0000000000000000  0.7500000002140865  0.3693888343914722
  0.3324455201188528  0.6875000000535181  0.3678791095711489
  0.1675544506149578  0.6875000000535181  0.3678791095711489
  0.2499999997239044  0.7500000002140865  0.4538527864790325
  0.0836084512772999  0.6875000000535181  0.4539513188997049
  0.4163915487227001  0.6875000000535181  0.4539513188997049
  0.0000000000000000  0.7500000002140865  0.1967746529588652
  0.3337956007046046  0.8124999999464819  0.2026708343951640
  0.1662043700291989  0.8124999999464819  0.2026708343951640
  0.2499999997239044  0.8750000001070433  0.2779036960799388
  0.0823335396328133  0.8124999999464819  0.2836887671944126
  0.4176664603671867  0.8124999999464819  0.2836887671944126
  0.0000000000000000  0.8750000001070433  0.3693888343914722
  0.3324455201188528  0.8124999999464819  0.3678791095711489
  0.1675544506149578  0.8124999999464819  0.3678791095711489
  0.2499999997239044  0.8750000001070433  0.4538527864790325
  0.0836084512772999  0.8124999999464819  0.4539513188997049
  0.4163915487227001  0.8124999999464819  0.4539513188997049
  0.0000000000000000  0.8750000001070433  0.1967746529588652
  0.3337956007046046  0.9375000002676046  0.2026708343951640
  0.1662043700291989  0.9375000002676046  0.2026708343951640
  0.2499999997239044  0.5000000000000000  0.2779036960799388
  0.0823335396328133  0.9375000002676046  0.2836887671944126
  0.4176664603671867  0.9375000002676046  0.2836887671944126
  0.0000000000000000  0.5000000000000000  0.3693888343914722
  0.3324455201188528  0.9375000002676046  0.3678791095711489
  0.1675544506149578  0.9375000002676046  0.3678791095711489
  0.2499999997239044  0.5000000000000000  0.4538527864790325
  0.0836084512772999  0.9375000002676046  0.4539513188997049
  0.4163915487227001  0.9375000002676046  0.4539513188997049
  0.5000000000000000  0.0000000000000000  0.1967746529588652
  0.8337956001524134  0.0625000001605613  0.2026708343951640
  0.6662043700291989  0.0625000001605613  0.2026708343951640
  0.7499999997239044  0.1249999998929567  0.2779036960799388
  0.5823335396328133  0.0625000001605613  0.2836887671944126
  0.9176664603671867  0.0625000001605613  0.2836887671944126
  0.5000000000000000  0.1249999998929567  0.3693888343914722
  0.8324455195666545  0.0625000001605613  0.3678791095711489
  0.6675544506149578  0.0625000001605613  0.3678791095711489
  0.7499999997239044  0.1249999998929567  0.4538527864790325
  0.5836084512772999  0.0625000001605613  0.4539513188997049
  0.9163915487227001  0.0625000001605613  0.4539513188997049
  0.5000000000000000  0.1249999998929567  0.1967746529588652
  0.8337956001524134  0.1875000000535181  0.2026708343951640
  0.6662043700291989  0.1875000000535181  0.2026708343951640
  0.7499999997239044  0.2500000002140865  0.2779036960799388
  0.5823335396328133  0.1875000000535181  0.2836887671944126
  0.9176664603671867  0.1875000000535181  0.2836887671944126
  0.5000000000000000  0.2500000002140865  0.3693888343914722
  0.8324455195666545  0.1875000000535181  0.3678791095711489
  0.6675544506149578  0.1875000000535181  0.3678791095711489
  0.7499999997239044  0.2500000002140865  0.4538527864790325
  0.5836084512772999  0.1875000000535181  0.4539513188997049
  0.9163915487227001  0.1875000000535181  0.4539513188997049
  0.5000000000000000  0.2500000002140865  0.1967746529588652
  0.8337956001524134  0.3124999999464819  0.2026708343951640
  0.6662043700291989  0.3124999999464819  0.2026708343951640
  0.7499999997239044  0.3750000001070433  0.2779036960799388
  0.5823335396328133  0.3124999999464819  0.2836887671944126
  0.9176664603671867  0.3124999999464819  0.2836887671944126
  0.5000000000000000  0.3750000001070433  0.3693888343914722
  0.8324455195666545  0.3124999999464819  0.3678791095711489
  0.6675544506149578  0.3124999999464819  0.3678791095711489
  0.7499999997239044  0.3750000001070433  0.4538527864790325
  0.5836084512772999  0.3124999999464819  0.4539513188997049
  0.9163915487227001  0.3124999999464819  0.4539513188997049
  0.5000000000000000  0.3750000001070433  0.1967746529588652
  0.8337956001524134  0.4375000002676046  0.2026708343951640
  0.6662043700291989  0.4375000002676046  0.2026708343951640
  0.7499999997239044  0.0000000000000000  0.2779036960799388
  0.5823335396328133  0.4375000002676046  0.2836887671944126
  0.9176664603671867  0.4375000002676046  0.2836887671944126
  0.5000000000000000  0.0000000000000000  0.3693888343914722
  0.8324455195666545  0.4375000002676046  0.3678791095711489
  0.6675544506149578  0.4375000002676046  0.3678791095711489
  0.7499999997239044  0.0000000000000000  0.4538527864790325
  0.5836084512772999  0.4375000002676046  0.4539513188997049
  0.9163915487227001  0.4375000002676046  0.4539513188997049
  0.5000000000000000  0.5000000000000000  0.1967746529588652
  0.8337956001524134  0.5625000001605613  0.2026708343951640
  0.6662043700291989  0.5625000001605613  0.2026708343951640
  0.7499999997239044  0.6249999998929567  0.2779036960799388
  0.5823335396328133  0.5625000001605613  0.2836887671944126
  0.9176664603671867  0.5625000001605613  0.2836887671944126
  0.5000000000000000  0.6249999998929567  0.3693888343914722
  0.8324455195666545  0.5625000001605613  0.3678791095711489
  0.6675544506149578  0.5625000001605613  0.3678791095711489
  0.7499999997239044  0.6249999998929567  0.4538527864790325
  0.5836084512772999  0.5625000001605613  0.4539513188997049
  0.9163915487227001  0.5625000001605613  0.4539513188997049
  0.5000000000000000  0.6249999998929567  0.1967746529588652
  0.8337956001524134  0.6875000000535181  0.2026708343951640
  0.6662043700291989  0.6875000000535181  0.2026708343951640
  0.7499999997239044  0.7500000002140865  0.2779036960799388
  0.5823335396328133  0.6875000000535181  0.2836887671944126
  0.9176664603671867  0.6875000000535181  0.2836887671944126
  0.5000000000000000  0.7500000002140865  0.3693888343914722
  0.8324455195666545  0.6875000000535181  0.3678791095711489
  0.6675544506149578  0.6875000000535181  0.3678791095711489
  0.7499999997239044  0.7500000002140865  0.4538527864790325
  0.5836084512772999  0.6875000000535181  0.4539513188997049
  0.9163915487227001  0.6875000000535181  0.4539513188997049
  0.5000000000000000  0.7500000002140865  0.1967746529588652
  0.8337956001524134  0.8124999999464819  0.2026708343951640
  0.6662043700291989  0.8124999999464819  0.2026708343951640
  0.7499999997239044  0.8750000001070433  0.2779036960799388
  0.5823335396328133  0.8124999999464819  0.2836887671944126
  0.9176664603671867  0.8124999999464819  0.2836887671944126
  0.5000000000000000  0.8750000001070433  0.3693888343914722
  0.8324455195666545  0.8124999999464819  0.3678791095711489
  0.6675544506149578  0.8124999999464819  0.3678791095711489
  0.7499999997239044  0.8750000001070433  0.4538527864790325
  0.5836084512772999  0.8124999999464819  0.4539513188997049
  0.9163915487227001  0.8124999999464819  0.4539513188997049
  0.5000000000000000  0.8750000001070433  0.1967746529588652
  0.8337956001524134  0.9375000002676046  0.2026708343951640
  0.6662043700291989  0.9375000002676046  0.2026708343951640
  0.7499999997239044  0.5000000000000000  0.2779036960799388
  0.5823335396328133  0.9375000002676046  0.2836887671944126
  0.9176664603671867  0.9375000002676046  0.2836887671944126
  0.5000000000000000  0.5000000000000000  0.3693888343914722
  0.8324455195666545  0.9375000002676046  0.3678791095711489
  0.6675544506149578  0.9375000002676046  0.3678791095711489
  0.7499999997239044  0.5000000000000000  0.4538527864790325
  0.5836084512772999  0.9375000002676046  0.4539513188997049
  0.9163915487227001  0.9375000002676046  0.4539513188997049
  0.4061257452623721  0.0000000000000000  0.2319928575223642
  0.2499999997239044  0.0000000000000000  0.1992010633838035
  0.0938742547376279  0.0000000000000000  0.2319928575223642
  0.1544473384092200  0.1249999998929567  0.3155580274845278
  0.0000000000000000  0.1249999998929567  0.3029201112666371
  0.3455526615907800  0.1249999998929567  0.3155580274845278
  0.4011778417703553  0.1249999998929567  0.4023213860294561
  0.2499999997239044  0.1249999998929567  0.3866352109584739
  0.0988221576774535  0.1249999998929567  0.4023213860294561
  0.1530819658031604  0.1249999998929567  0.4872030807288255
  0.0000000000000000  0.1249999998929567  0.4743028706113392
  0.3469180336446485  0.1249999998929567  0.4872030807288255
  0.4010997442829520  0.1249999998929567  0.5679833460385595
  0.2499999997239044  0.1249999998929567  0.5577796190875617
  0.0989002557170480  0.1249999998929567  0.5679833460385595
  0.4061257452623721  0.1249999998929567  0.2319928575223642
  0.2499999997239044  0.1249999998929567  0.1992010633838035
  0.0938742547376279  0.1249999998929567  0.2319928575223642
  0.1544473384092200  0.2500000002140865  0.3155580274845278
  0.0000000000000000  0.2500000002140865  0.3029201112666371
  0.3455526615907800  0.2500000002140865  0.3155580274845278
  0.4011778417703553  0.2500000002140865  0.4023213860294561
  0.2499999997239044  0.2500000002140865  0.3866352109584739
  0.0988221576774535  0.2500000002140865  0.4023213860294561
  0.1530819658031604  0.2500000002140865  0.4872030807288255
  0.0000000000000000  0.2500000002140865  0.4743028706113392
  0.3469180336446485  0.2500000002140865  0.4872030807288255
  0.4010997442829520  0.2500000002140865  0.5679833460385595
  0.2499999997239044  0.2500000002140865  0.5577796190875617
  0.0989002557170480  0.2500000002140865  0.5679833460385595
  0.4061257452623721  0.2500000002140865  0.2319928575223642
  0.2499999997239044  0.2500000002140865  0.1992010633838035
  0.0938742547376279  0.2500000002140865  0.2319928575223642
  0.1544473384092200  0.3750000001070433  0.3155580274845278
  0.0000000000000000  0.3750000001070433  0.3029201112666371
  0.3455526615907800  0.3750000001070433  0.3155580274845278
  0.4011778417703553  0.3750000001070433  0.4023213860294561
  0.2499999997239044  0.3750000001070433  0.3866352109584739
  0.0988221576774535  0.3750000001070433  0.4023213860294561
  0.1530819658031604  0.3750000001070433  0.4872030807288255
  0.0000000000000000  0.3750000001070433  0.4743028706113392
  0.3469180336446485  0.3750000001070433  0.4872030807288255
  0.4010997442829520  0.3750000001070433  0.5679833460385595
  0.2499999997239044  0.3750000001070433  0.5577796190875617
  0.0989002557170480  0.3750000001070433  0.5679833460385595
  0.4061257452623721  0.3750000001070433  0.2319928575223642
  0.2499999997239044  0.3750000001070433  0.1992010633838035
  0.0938742547376279  0.3750000001070433  0.2319928575223642
  0.1544473384092200  0.0000000000000000  0.3155580274845278
  0.0000000000000000  0.0000000000000000  0.3029201112666371
  0.3455526615907800  0.0000000000000000  0.3155580274845278
  0.4011778417703553  0.0000000000000000  0.4023213860294561
  0.2499999997239044  0.0000000000000000  0.3866352109584739
  0.0988221576774535  0.0000000000000000  0.4023213860294561
  0.1530819658031604  0.0000000000000000  0.4872030807288255
  0.0000000000000000  0.0000000000000000  0.4743028706113392
  0.3469180336446485  0.0000000000000000  0.4872030807288255
  0.4010997442829520  0.0000000000000000  0.5679833460385595
  0.2499999997239044  0.0000000000000000  0.5577796190875617
  0.0989002557170480  0.0000000000000000  0.5679833460385595
  0.4061257452623721  0.5000000000000000  0.2319928575223642
  0.2499999997239044  0.5000000000000000  0.1992010633838035
  0.0938742547376279  0.5000000000000000  0.2319928575223642
  0.1544473384092200  0.6249999998929567  0.3155580274845278
  0.0000000000000000  0.6249999998929567  0.3029201112666371
  0.3455526615907800  0.6249999998929567  0.3155580274845278
  0.4011778417703553  0.6249999998929567  0.4023213860294561
  0.2499999997239044  0.6249999998929567  0.3866352109584739
  0.0988221576774535  0.6249999998929567  0.4023213860294561
  0.1530819658031604  0.6249999998929567  0.4872030807288255
  0.0000000000000000  0.6249999998929567  0.4743028706113392
  0.3469180336446485  0.6249999998929567  0.4872030807288255
  0.4010997442829520  0.6249999998929567  0.5679833460385595
  0.2499999997239044  0.6249999998929567  0.5577796190875617
  0.0989002557170480  0.6249999998929567  0.5679833460385595
  0.4061257452623721  0.6249999998929567  0.2319928575223642
  0.2499999997239044  0.6249999998929567  0.1992010633838035
  0.0938742547376279  0.6249999998929567  0.2319928575223642
  0.1544473384092200  0.7500000002140865  0.3155580274845278
  0.0000000000000000  0.7500000002140865  0.3029201112666371
  0.3455526615907800  0.7500000002140865  0.3155580274845278
  0.4011778417703553  0.7500000002140865  0.4023213860294561
  0.2499999997239044  0.7500000002140865  0.3866352109584739
  0.0988221576774535  0.7500000002140865  0.4023213860294561
  0.1530819658031604  0.7500000002140865  0.4872030807288255
  0.0000000000000000  0.7500000002140865  0.4743028706113392
  0.3469180336446485  0.7500000002140865  0.4872030807288255
  0.4010997442829520  0.7500000002140865  0.5679833460385595
  0.2499999997239044  0.7500000002140865  0.5577796190875617
  0.0989002557170480  0.7500000002140865  0.5679833460385595
  0.4061257452623721  0.7500000002140865  0.2319928575223642
  0.2499999997239044  0.7500000002140865  0.1992010633838035
  0.0938742547376279  0.7500000002140865  0.2319928575223642
  0.1544473384092200  0.8750000001070433  0.3155580274845278
  0.0000000000000000  0.8750000001070433  0.3029201112666371
  0.3455526615907800  0.8750000001070433  0.3155580274845278
  0.4011778417703553  0.8750000001070433  0.4023213860294561
  0.2499999997239044  0.8750000001070433  0.3866352109584739
  0.0988221576774535  0.8750000001070433  0.4023213860294561
  0.1530819658031604  0.8750000001070433  0.4872030807288255
  0.0000000000000000  0.8750000001070433  0.4743028706113392
  0.3469180336446485  0.8750000001070433  0.4872030807288255
  0.4010997442829520  0.8750000001070433  0.5679833460385595
  0.2499999997239044  0.8750000001070433  0.5577796190875617
  0.0989002557170480  0.8750000001070433  0.5679833460385595
  0.4061257452623721  0.8750000001070433  0.2319928575223642
  0.2499999997239044  0.8750000001070433  0.1992010633838035
  0.0938742547376279  0.8750000001070433  0.2319928575223642
  0.1544473384092200  0.5000000000000000  0.3155580274845278
  0.0000000000000000  0.5000000000000000  0.3029201112666371
  0.3455526615907800  0.5000000000000000  0.3155580274845278
  0.4011778417703553  0.5000000000000000  0.4023213860294561
  0.2499999997239044  0.5000000000000000  0.3866352109584739
  0.0988221576774535  0.5000000000000000  0.4023213860294561
  0.1530819658031604  0.5000000000000000  0.4872030807288255
  0.0000000000000000  0.5000000000000000  0.4743028706113392
  0.3469180336446485  0.5000000000000000  0.4872030807288255
  0.4010997442829520  0.5000000000000000  0.5679833460385595
  0.2499999997239044  0.5000000000000000  0.5577796190875617
  0.0989002557170480  0.5000000000000000  0.5679833460385595
  0.9061257452623721  0.0000000000000000  0.2319928575223642
  0.7499999997239044  0.0000000000000000  0.1992010633838035
  0.5938742547376279  0.0000000000000000  0.2319928575223642
  0.6544473384092200  0.1249999998929567  0.3155580274845278
  0.5000000000000000  0.1249999998929567  0.3029201112666371
  0.8455526615907800  0.1249999998929567  0.3155580274845278
  0.9011778417703553  0.1249999998929567  0.4023213860294561
  0.7499999997239044  0.1249999998929567  0.3866352109584739
  0.5988221576774535  0.1249999998929567  0.4023213860294561
  0.6530819658031604  0.1249999998929567  0.4872030807288255
  0.5000000000000000  0.1249999998929567  0.4743028706113392
  0.8469180336446485  0.1249999998929567  0.4872030807288255
  0.9010997442829520  0.1249999998929567  0.5679833460385595
  0.7499999997239044  0.1249999998929567  0.5577796190875617
  0.5989002557170480  0.1249999998929567  0.5679833460385595
  0.9061257452623721  0.1249999998929567  0.2319928575223642
  0.7499999997239044  0.1249999998929567  0.1992010633838035
  0.5938742547376279  0.1249999998929567  0.2319928575223642
  0.6544473384092200  0.2500000002140865  0.3155580274845278
  0.5000000000000000  0.2500000002140865  0.3029201112666371
  0.8455526615907800  0.2500000002140865  0.3155580274845278
  0.9011778417703553  0.2500000002140865  0.4023213860294561
  0.7499999997239044  0.2500000002140865  0.3866352109584739
  0.5988221576774535  0.2500000002140865  0.4023213860294561
  0.6530819658031604  0.2500000002140865  0.4872030807288255
  0.5000000000000000  0.2500000002140865  0.4743028706113392
  0.8469180336446485  0.2500000002140865  0.4872030807288255
  0.9010997442829520  0.2500000002140865  0.5679833460385595
  0.7499999997239044  0.2500000002140865  0.5577796190875617
  0.5989002557170480  0.2500000002140865  0.5679833460385595
  0.9061257452623721  0.2500000002140865  0.2319928575223642
  0.7499999997239044  0.2500000002140865  0.1992010633838035
  0.5938742547376279  0.2500000002140865  0.2319928575223642
  0.6544473384092200  0.3750000001070433  0.3155580274845278
  0.5000000000000000  0.3750000001070433  0.3029201112666371
  0.8455526615907800  0.3750000001070433  0.3155580274845278
  0.9011778417703553  0.3750000001070433  0.4023213860294561
  0.7499999997239044  0.3750000001070433  0.3866352109584739
  0.5988221576774535  0.3750000001070433  0.4023213860294561
  0.6530819658031604  0.3750000001070433  0.4872030807288255
  0.5000000000000000  0.3750000001070433  0.4743028706113392
  0.8469180336446485  0.3750000001070433  0.4872030807288255
  0.9010997442829520  0.3750000001070433  0.5679833460385595
  0.7499999997239044  0.3750000001070433  0.5577796190875617
  0.5989002557170480  0.3750000001070433  0.5679833460385595
  0.9061257452623721  0.3750000001070433  0.2319928575223642
  0.7499999997239044  0.3750000001070433  0.1992010633838035
  0.5938742547376279  0.3750000001070433  0.2319928575223642
  0.6544473384092200  0.0000000000000000  0.3155580274845278
  0.5000000000000000  0.0000000000000000  0.3029201112666371
  0.8455526615907800  0.0000000000000000  0.3155580274845278
  0.9011778417703553  0.0000000000000000  0.4023213860294561
  0.7499999997239044  0.0000000000000000  0.3866352109584739
  0.5988221576774535  0.0000000000000000  0.4023213860294561
  0.6530819658031604  0.0000000000000000  0.4872030807288255
  0.5000000000000000  0.0000000000000000  0.4743028706113392
  0.8469180336446485  0.0000000000000000  0.4872030807288255
  0.9010997442829520  0.0000000000000000  0.5679833460385595
  0.7499999997239044  0.0000000000000000  0.5577796190875617
  0.5989002557170480  0.0000000000000000  0.5679833460385595
  0.9061257452623721  0.5000000000000000  0.2319928575223642
  0.7499999997239044  0.5000000000000000  0.1992010633838035
  0.5938742547376279  0.5000000000000000  0.2319928575223642
  0.6544473384092200  0.6249999998929567  0.3155580274845278
  0.5000000000000000  0.6249999998929567  0.3029201112666371
  0.8455526615907800  0.6249999998929567  0.3155580274845278
  0.9011778417703553  0.6249999998929567  0.4023213860294561
  0.7499999997239044  0.6249999998929567  0.3866352109584739
  0.5988221576774535  0.6249999998929567  0.4023213860294561
  0.6530819658031604  0.6249999998929567  0.4872030807288255
  0.5000000000000000  0.6249999998929567  0.4743028706113392
  0.8469180336446485  0.6249999998929567  0.4872030807288255
  0.9010997442829520  0.6249999998929567  0.5679833460385595
  0.7499999997239044  0.6249999998929567  0.5577796190875617
  0.5989002557170480  0.6249999998929567  0.5679833460385595
  0.9061257452623721  0.6249999998929567  0.2319928575223642
  0.7499999997239044  0.6249999998929567  0.1992010633838035
  0.5938742547376279  0.6249999998929567  0.2319928575223642
  0.6544473384092200  0.7500000002140865  0.3155580274845278
  0.5000000000000000  0.7500000002140865  0.3029201112666371
  0.8455526615907800  0.7500000002140865  0.3155580274845278
  0.9011778417703553  0.7500000002140865  0.4023213860294561
  0.7499999997239044  0.7500000002140865  0.3866352109584739
  0.5988221576774535  0.7500000002140865  0.4023213860294561
  0.6530819658031604  0.7500000002140865  0.4872030807288255
  0.5000000000000000  0.7500000002140865  0.4743028706113392
  0.8469180336446485  0.7500000002140865  0.4872030807288255
  0.9010997442829520  0.7500000002140865  0.5679833460385595
  0.7499999997239044  0.7500000002140865  0.5577796190875617
  0.5989002557170480  0.7500000002140865  0.5679833460385595
  0.9061257452623721  0.7500000002140865  0.2319928575223642
  0.7499999997239044  0.7500000002140865  0.1992010633838035
  0.5938742547376279  0.7500000002140865  0.2319928575223642
  0.6544473384092200  0.8750000001070433  0.3155580274845278
  0.5000000000000000  0.8750000001070433  0.3029201112666371
  0.8455526615907800  0.8750000001070433  0.3155580274845278
  0.9011778417703553  0.8750000001070433  0.4023213860294561
  0.7499999997239044  0.8750000001070433  0.3866352109584739
  0.5988221576774535  0.8750000001070433  0.4023213860294561
  0.6530819658031604  0.8750000001070433  0.4872030807288255
  0.5000000000000000  0.8750000001070433  0.4743028706113392
  0.8469180336446485  0.8750000001070433  0.4872030807288255
  0.9010997442829520  0.8750000001070433  0.5679833460385595
  0.7499999997239044  0.8750000001070433  0.5577796190875617
  0.5989002557170480  0.8750000001070433  0.5679833460385595
  0.9061257452623721  0.8750000001070433  0.2319928575223642
  0.7499999997239044  0.8750000001070433  0.1992010633838035
  0.5938742547376279  0.8750000001070433  0.2319928575223642
  0.6544473384092200  0.5000000000000000  0.3155580274845278
  0.5000000000000000  0.5000000000000000  0.3029201112666371
  0.8455526615907800  0.5000000000000000  0.3155580274845278
  0.9011778417703553  0.5000000000000000  0.4023213860294561
  0.7499999997239044  0.5000000000000000  0.3866352109584739
  0.5988221576774535  0.5000000000000000  0.4023213860294561
  0.6530819658031604  0.5000000000000000  0.4872030807288255
  0.5000000000000000  0.5000000000000000  0.4743028706113392
  0.8469180336446485  0.5000000000000000  0.4872030807288255
  0.9010997442829520  0.5000000000000000  0.5679833460385595
  0.7499999997239044  0.5000000000000000  0.5577796190875617
  0.5989002557170480  0.5000000000000000  0.5679833460385595
  0.0000000000000000  0.1249999998929567  0.5407482613944978
  0.3349508803579937  0.0625000001605613  0.5389091231055758
  0.1650490903758097  0.0625000001605613  0.5389091231055758
  0.0000000000000000  0.2500000002140865  0.5407482613944978
  0.3349508803579937  0.1875000000535181  0.5389091231055758
  0.1650490903758097  0.1875000000535181  0.5389091231055758
  0.0000000000000000  0.3750000001070433  0.5407482613944978
  0.3349508803579937  0.3124999999464819  0.5389091231055758
  0.1650490903758097  0.3124999999464819  0.5389091231055758
  0.0000000000000000  0.0000000000000000  0.5407482613944978
  0.3349508803579937  0.4375000002676046  0.5389091231055758
  0.1650490903758097  0.4375000002676046  0.5389091231055758
  0.0000000000000000  0.6249999998929567  0.5407482613944978
  0.3349508803579937  0.5625000001605613  0.5389091231055758
  0.1650490903758097  0.5625000001605613  0.5389091231055758
  0.0000000000000000  0.7500000002140865  0.5407482613944978
  0.3349508803579937  0.6875000000535181  0.5389091231055758
  0.1650490903758097  0.6875000000535181  0.5389091231055758
  0.0000000000000000  0.8750000001070433  0.5407482613944978
  0.3349508803579937  0.8124999999464819  0.5389091231055758
  0.1650490903758097  0.8124999999464819  0.5389091231055758
  0.0000000000000000  0.5000000000000000  0.5407482613944978
  0.3349508803579937  0.9375000002676046  0.5389091231055758
  0.1650490903758097  0.9375000002676046  0.5389091231055758
  0.5000000000000000  0.1249999998929567  0.5407482613944978
  0.8349508803579937  0.0625000001605613  0.5389091231055758
  0.6650490903758097  0.0625000001605613  0.5389091231055758
  0.5000000000000000  0.2500000002140865  0.5407482613944978
  0.8349508803579937  0.1875000000535181  0.5389091231055758
  0.6650490903758097  0.1875000000535181  0.5389091231055758
  0.5000000000000000  0.3750000001070433  0.5407482613944978
  0.8349508803579937  0.3124999999464819  0.5389091231055758
  0.6650490903758097  0.3124999999464819  0.5389091231055758
  0.5000000000000000  0.0000000000000000  0.5407482613944978
  0.8349508803579937  0.4375000002676046  0.5389091231055758
  0.6650490903758097  0.4375000002676046  0.5389091231055758
  0.5000000000000000  0.6249999998929567  0.5407482613944978
  0.8349508803579937  0.5625000001605613  0.5389091231055758
  0.6650490903758097  0.5625000001605613  0.5389091231055758
  0.5000000000000000  0.7500000002140865  0.5407482613944978
  0.8349508803579937  0.6875000000535181  0.5389091231055758
  0.6650490903758097  0.6875000000535181  0.5389091231055758
  0.5000000000000000  0.8750000001070433  0.5407482613944978
  0.8349508803579937  0.8124999999464819  0.5389091231055758
  0.6650490903758097  0.8124999999464819  0.5389091231055758
  0.5000000000000000  0.5000000000000000  0.5407482613944978
  0.8349508803579937  0.9375000002676046  0.5389091231055758
  0.6650490903758097  0.9375000002676046  0.5389091231055758
 
  0.00000000E+00  0.00000000E+00  0.00000000E+00
  0.00000000E+00  0.00000000E+00  0.00000000E+00
  0.00000000E+00  0.00000000E+00  0.00000000E+00
  0.00000000E+00  0.00000000E+00  0.00000000E+00
  0.00000000E+00  0.00000000E+00  0.00000000E+00
  0.00000000E+00  0.00000000E+00  0.00000000E+00
  0.00000000E+00  0.00000000E+00  0.00000000E+00
  0.00000000E+00  0.00000000E+00  0.00000000E+00