Ta  N Cu                                
   1.00000000000000     
    18.1096308199999996    0.0000000000000000    0.0000000000000000
     0.0000000000000000   11.6775998899999998    0.0000000000000000
     0.0000000000000000    0.0000000000000000   23.4818170799999990
   Ta   N    Cu
   120   120     2
Direct
  0.0000802369585873  0.0001261603461303  0.2547748415579060
  0.3335297241681697  0.1250056064319416  0.2637867609095229
  0.1664548586776932  0.1250011286969938  0.2637727509506224
  0.2497906200095094  0.2499950509409262  0.3614074115725326
  0.0825882727703733  0.1250123106179285  0.3685129191450986
  0.4173466019721164  0.1250082896643953  0.3683478448054667
 -0.0000351839318797  0.2500686615822879  0.4798831709884033
  0.3321680848615835  0.1250116951512235  0.4780558084063760
  0.1673231478314286  0.1251400448782319  0.4784999910841717
  0.2497196729155119  0.2501921191411066  0.5911495725200480
  0.0833502683282306  0.1251631400337730  0.5903625427460614
  0.4162612669823034  0.1249739970904973  0.5896876263203992
 -0.0019242352491155  0.2501692858637668  0.7018531722200230
  0.3370273291200084  0.1251723428363265  0.7039760264777202
  0.1686479382142072  0.1242270969290901  0.7025537026487348
  0.0000820711701472  0.2499939228222480  0.2548179125220131
  0.3335245884884102  0.3749925973508520  0.2637868638574408
  0.1664706612173305  0.3749942553335903  0.2637702356299552
  0.2498374693770652  0.4999821036626199  0.3613925962511578
  0.0825903140173838  0.3749968807411613  0.3684874490931351
  0.4173571013127366  0.3749885949713102  0.3683397162195394
  0.0000306002723844  0.5001011003463084  0.4798135167829482
  0.3321777837673835  0.3750288727896172  0.4780420361421240
  0.1673298606687773  0.3750434369881385  0.4784703600694775
  0.2497075695123435  0.5003811369658721  0.5910615445586044
  0.0833209534572371  0.3753455193360912  0.5903680597636476
  0.4162575770726264  0.3750928645817863  0.5896748722081263
 -0.0011287446772750  0.4985800765915576  0.7018226318805756
  0.3369923403339510  0.3751331818473827  0.7039494172785729
  0.1686290057464702  0.3763917378206597  0.7026252610728269
  0.0000719259517947  0.4998798250929665  0.2547622637645408
  0.3333905972003288  0.6249141417833070  0.2637733518210576
  0.1665415178969308  0.6250117750653384  0.2637865865135627
  0.2499006008079864  0.7500204598898340  0.3613866629674544
  0.0825876354238877  0.6250195780361782  0.3684278589412047
  0.4173683688836900  0.6249887710105131  0.3683700174163282
  0.0000754992028288  0.7500697606312987  0.4797445226263785
  0.3321802568613021  0.6250227615384906  0.4780825271934964
  0.1674724128669547  0.6250610116924007  0.4783673526347013
  0.2496828614421188  0.7501168623246324  0.5909881301277167
  0.0834068731663917  0.6253227900544691  0.5901332964897744
  0.4161728639496929  0.6250929227917805  0.5896369743612105
 -0.0000610175113766  0.7501180122811333  0.7021893601472813
  0.3357628910465000  0.6250061980661088  0.7038549778394020
  0.1648934580397654  0.6264109730812883  0.7051191697306928
  0.0001014047211709  0.7500092361963119  0.2547077557419563
  0.3333910887954797  0.8750989649241685  0.2637775726513237
  0.1665357332421943  0.8750104945216951  0.2637964937949769
  0.2498055245933008  0.0000314307150043  0.3614155404816112
  0.0825814623399941  0.8750096654306503  0.3684477550295253
  0.4173616638080211  0.8750267062016792  0.3683761054572043
  0.0000237000732309  0.0000523813539862  0.4798565355914866
  0.3321725084976192  0.8750207997134271  0.4780935272928630
  0.1674572264328387  0.8751027043444384  0.4783918733951317
  0.2497601558986652 -0.0000750783478795  0.5910691941503030
  0.0834003290834284  0.8750655588729728  0.5901299760681267
  0.4161650773724112  0.8749581945474320  0.5896582925623316
 -0.0011662692694652  0.0016819075510810  0.7017701075706151
  0.3358412570167870  0.8752810618559320  0.7039018284906212
  0.1650193390617569  0.8742075656192225  0.7050167261376769
  0.4999403066162107 -0.0000395781697238  0.2546928689042922
  0.8334780361747538  0.1250358850229430  0.2636804818302769
  0.6664556513573284  0.1250561265115626  0.2637567922586543
  0.7499879090959888  0.2499944509991738  0.3612955683357700
  0.5824299084629284  0.1250098944407394  0.3682964729410344
  0.9174505523369255  0.1250000592650336  0.3683716313265969
  0.4999228625630142  0.2500007607091883  0.4797834637890904
  0.8323839721765844  0.1250618566976067  0.4779616278390886
  0.6675713594862053  0.1249827293545911  0.4779290189764392
  0.7495695789368686  0.2500520936797150  0.5906330902905256
  0.5834599737993967  0.1249582178884907  0.5897386970269032
  0.9159293417592665  0.1250377589252018  0.5897242951806019
  0.5008873208078850  0.2500545928390775  0.7018908882120014
  0.8345243345265976  0.1255800621195790  0.7032629210411312
  0.6645836148099467  0.1248518893915270  0.7041129397680876
  0.4998896454031956  0.2499983551128517  0.2547195130716930
  0.8334641165438935  0.3749580419502260  0.2636786892229789
  0.6664573253024743  0.3749431498619539  0.2637550823783388
  0.7499404259097978  0.4999664849763227  0.3613101345204239
  0.5824280556478598  0.3749842168529576  0.3682962819993365
  0.9174463872915579  0.3750032963218616  0.3683544664732805
  0.4999177487231678  0.4999720977866096  0.4797451312438559
  0.8323837420759387  0.3749903477404110  0.4779524091777003
  0.6675612713305472  0.3750162526020787  0.4779256448844980
  0.7496838733786934  0.5002110582764646  0.5905983016963745
  0.5834612861938199  0.3750730028073149  0.5897286583144760
  0.9159378242501948  0.3752167933419067  0.5897092188801752
  0.5005081964607209  0.5001173868207401  0.7020332694784331
  0.8345169173301574  0.3746731760842110  0.7032373057270407
  0.6645712470689094  0.3752285091425079  0.7041005281465946
  0.4999445475647560  0.5000462135144917  0.2546853756894585
  0.8333973949963784  0.6250111151892367  0.2637292378054593
  0.6665306740858811  0.6249925823189567  0.2637229857368216
  0.7498928175351424  0.7500099091689585  0.3613224555668930
  0.5824113246828099  0.6249884479426706  0.3683359243628611
  0.9175246836405320  0.6250117376575897  0.3682784599397778
  0.4999330527723144  0.7500173795382964  0.4797216896182587
  0.8323182364006799  0.6250268682664822  0.4778859340914808
  0.6675202081235185  0.6250148556876514  0.4779952751092158
  0.7497075673962201  0.7500470926470121  0.5905917139817287
  0.5834527330095410  0.6250653887675064  0.5898283910501460
  0.9159801682377346  0.6252403125906704  0.5894226856574568
  0.5001389399901751  0.7500412784540560  0.7021931429437201
  0.8345730838940691  0.6248275906272063  0.7038807216969214
  0.6645692998091256  0.6251966670974578  0.7040556981893134
  0.4999158227442791  0.7500013748430151  0.2546846504287492
  0.8334027372965299  0.8750062720356069  0.2637359616784013
  0.6665253489059743  0.8750139899056222  0.2637219790104028
  0.7499521399412665  0.0000490325343403  0.3613195917925091
  0.5824139336781484  0.8750235340711617  0.3683382637712421
  0.9175273336794797  0.8750185655265116  0.3682904768151672
  0.4999119143267377  0.0000368867185004  0.4797587801015000
  0.8323256975558775  0.8750310131815723  0.4779033776113524
  0.6675287081453641  0.8750148555989179  0.4780031567338843
  0.7496904050556921 -0.0001185801257832  0.5906207905417039
  0.5834564017889072  0.8749620098581903  0.5898319505908624
  0.9159758700946671  0.8749600173087583  0.5894375074704880
  0.5005507514198332  0.0000041355608293  0.7020391209082346
  0.8346616394781214  0.8754055549520543  0.7039242725328406
  0.6645926575099753  0.8749016397477152  0.7040741550738958
  0.4068576340429292  0.0000042353232295  0.3011566605562147
  0.2499734281899854  0.0000820091797207  0.2576690858714901
  0.0931885883457246  0.0000546793329693  0.3012324329706632
  0.1543961101804333  0.2500187883281030  0.4101488858930417
  0.0000122472396531  0.2500082483915118  0.3931959158631247
  0.3453705928386300  0.2499955665804958  0.4099295743273371
  0.4008304871105786  0.2500083357881398  0.5218429328262770
  0.2498001181232232  0.2500667757442391  0.5030792330622640
  0.0988690999960902  0.2501773339538925  0.5223546325966667
  0.1511774870124804  0.2503291558045811  0.6341469491442083
 -0.0005552415381732  0.2502040384597666  0.6134216236442649
  0.3484385618152562  0.2500811663272182  0.6330881604991456
  0.4042466996333124  0.2501423159309115  0.7403383285058542
  0.2516798108867352  0.2503624946367526  0.7240945236551571
  0.1002007429455307  0.2503478449843702  0.7436827344390650
  0.4068173488861316  0.2499966196723500  0.3011664822448684
  0.2499770849681080  0.2499927728322165  0.2578285041709599
  0.0931976932842107  0.2499900867148446  0.3012423384261378
  0.1544087850863481  0.5000123431441061  0.4101001270048872
  0.0000321354301391  0.5000195099461399  0.3931022608768878
  0.3454155177710708  0.4999796395602973  0.4098952417034319
  0.4008456823172698  0.4999675317857356  0.5218495730817397
  0.2498177982344368  0.5000010966414186  0.5029704169345035
  0.0989130454579358  0.5001697650051993  0.5223281351377199
  0.1512357139540575  0.5013695369001502  0.6341672962595528
 -0.0005040123918928  0.5007960695369682  0.6132868938248124
  0.3481880123115388  0.5003544202808705  0.6331014398379886
  0.4036586951759656  0.5007802680232902  0.7403014108759512
  0.2506134105297864  0.4996424000971659  0.7242485738330118
  0.0972823497603956  0.4995127351394250  0.7435079670593258
  0.4068645448402087  0.5000042144916734  0.3011495212552413
  0.2499743198686531  0.4999300271439642  0.2576575126885277
  0.0931877439669022  0.4999569434250394  0.3012045540672705
  0.1544107309843933  0.7500474513038142  0.4100893816136705
  0.0000455725863051  0.7500193011629009  0.3930316224945004
  0.3454469237406221  0.7500194409223737  0.4098806675121165
  0.4008652674098870  0.7500197023252011  0.5218864600008117
  0.2498833295284557  0.7500592792457828  0.5029094611905776
  0.0988920311325425  0.7501396090663877  0.5223248853575475
  0.1514550895543752  0.7502256571437708  0.6336861608679932
 -0.0004054158822645  0.7501460820470015  0.6134268503654778
  0.3479955558621554  0.7500559102543022  0.6331592154450746
  0.4029504732775192  0.7500954282924044  0.7402924237141181
  0.2491723790763607  0.7502544630382761  0.7237463883496582
  0.0969420685728922  0.7503867825744631  0.7412770394854445
  0.4068229385245442  0.7500083582054456  0.3011472885835326
  0.2500268105325108  0.7500093408617038  0.2575487458803483
  0.0931880264359235  0.7500189024082904  0.3011849964509963
  0.1543926898187277  0.0000573401648129  0.4101413651695193
  0.0000332850049320  0.0000056322566700  0.3931482968812980
  0.3453954394637891  0.0000340160300568  0.4099066500107528
  0.4008347612923007  0.0000508645603150  0.5218681875139786
  0.2498122022674487  0.0001001287350419  0.5029853758529357
  0.0989118827363558  0.0001515423994845  0.5223612491429376
  0.1512902685745059 -0.0008205292094465  0.6341019473103416
 -0.0004937793087081 -0.0004252987210962  0.6132370749848091
  0.3482211010271848 -0.0001935405313161  0.6331422577868174
  0.4037116085422044 -0.0005148623337009  0.7403356156793216
  0.2506548206024153  0.0010103151101371  0.7242759292981260
  0.0972864951338669  0.0008440897280459  0.7433138528334919
  0.9068660354446144  0.0000552010663707  0.3010707352459869
  0.7499682099409939  0.0000476003159106  0.2575928843978789
  0.5930700367617499 -0.0000203180472380  0.3011019268475981
  0.6543461521351102  0.2500011354532733  0.4098027003618246
  0.4998937694794456  0.2499927340701107  0.3930769404901872
  0.8455359345845971  0.2500041935052194  0.4097603769989734
  0.9007377884984279  0.2500770237600889  0.5218575706974760
  0.7498983025025039  0.2500177483763644  0.5025615118751626
  0.5989817448374757  0.2500024748389524  0.5218837647176985
  0.6514256450687634  0.2500222839084323  0.6331283584517972
  0.4999303036057364  0.2500282597599785  0.6130771213739171
  0.8478169560231482  0.2501180497593785  0.6329281315120904
  0.9017947085137635  0.2501648280213116  0.7401427470047226
  0.7494308268091094  0.2501003262877359  0.7237055857890869
  0.5969435755342813  0.2500350791672886  0.7405381676648605
  0.9068463474305787  0.2499914153486071  0.3010905733593372
  0.7499929421995574  0.2499948931825740  0.2575365439283725
  0.5930581079685114  0.2499950953113713  0.3010916163038696
  0.6543227883651959  0.5000289572944678  0.4098002632971828
  0.4999012816519413  0.4999623117944113  0.3930519069793154
  0.8455402641596432  0.5000721496811337  0.4097238339957314
  0.9008634763335605  0.5001037616209021  0.5217767961818606
  0.7499359995240948  0.5000128150770299  0.5025278503798104
  0.5989604132838403  0.5000368705966031  0.5219178741471293
  0.6514943948300678  0.5001123995312113  0.6331448459632243
  0.4998345052345288  0.5000758910574590  0.6132020472387260
  0.8478345399067665  0.5008734708698531  0.6328684313137951
  0.9027426927384901  0.4994384594504516  0.7400422930473438
  0.7497095006487368  0.5001271160261194  0.7237320269657034
  0.5968109393501774  0.5001271551600937  0.7405275020212174
  0.9068550661832530  0.4999543657372477  0.3010573263933491
  0.7499690867525907  0.4999560834961878  0.2575878907919925
  0.5930689417554844  0.5000267377245710  0.3010996276753609
  0.6543034837032861  0.7500115290730699  0.4097997856029542
  0.4998936953173711  0.7500120910362008  0.3930216610664623
  0.8455608570465948  0.7500199267190112  0.4097127435604485
  0.9009515880218638  0.7500620616916114  0.5217434427445896
  0.7499331825601337  0.7500164972607426  0.5025128349185962
  0.5989287597039019  0.7500084850793759  0.5219556976992981
  0.6515453346974400  0.7500231054769100  0.6331660412392300
  0.4997519963644827  0.7500178292876892  0.6133508476008438
  0.8478508624515773  0.7500980033202774  0.6328015163938211
  0.9031649173537879  0.7500724354375030  0.7399081435261781
  0.7500010790694385  0.7500804941163282  0.7236629074243817
  0.5966295949686846  0.7500343168302905  0.7405183260968192
  0.9069031390409711  0.7500152299868292  0.3010257359156744
  0.7499532276170436  0.7500083173061238  0.2574371289878775
  0.5930413716990015  0.7500047099790339  0.3010858710594171
  0.6543298031674356 -0.0000236593842781  0.4098072964947004
  0.4998974355920630  0.0000433498366335  0.3930626593347472
  0.8455449389128771 -0.0000446992552418  0.4097433945376706
  0.9008529632166200  0.0000298332144791  0.5218065078159330
  0.7499404515062618  0.0000265584622193  0.5025526830588967
  0.5989628410735792 -0.0000155292992931  0.5219254920962934
  0.6515000806048746 -0.0000805273865724  0.6331671535960480
  0.4998445118588339 -0.0000456952915398  0.6132059148521671
  0.8478425350053319 -0.0006371717292459  0.6329057266684313
  0.9027610554222056  0.0008650541594990  0.7400653961940403
  0.7497218268121648  0.0000339383481918  0.7237824520694150
  0.5968239606026103 -0.0000561438418175  0.7405582059950467
  0.0635082487674116  0.1269259981541666  0.7919247127771322
  0.0633164898518525  0.3734832689495074  0.7922549846051177
 
  0.00000000E+00  0.00000000E+00  0.00000000E+00
  0.00000000E+00  0.00000000E+00  0.00000000E+00
  0.00000000E+00  0.00000000E+00  0.00000000E+00
  0.00000000E+00  0.00000000E+00  0.00000000E+00
  0.00000000E+00  0.00000000E+00  0.00000000E+00
  0.00000000E+00  0.00000000E+00  0.00000000E+00
  0.00000000E+00  0.00000000E+00  0.00000000E+00
  0.00000000E+00  0.00000000E+00  0.00000000E+00
  0.00000000E+00  0.00000000E+00  0.00000000E+00
  0.00000000E+00  0.00000000E+00  0.00000000E+00
  0.00000000E+00  0.00000000E+00  0.00000000E+00
  0.00000000E+00  0.00000000E+00  0.00000000E+00
  0.00000000E+00  0.00000000E+00  0.00000000E+00
  0.00000000E+00  0.00000000E+00  0.00000000E+00
  0.00000000E+00  0.00000000E+00  0.00000000E+00
  0.00000000E+00  0.00000000E+00  0.00000000E+00
  0.00000000E+00  0.00000000E+00  0.00000000E+00
  0.00000000E+00  0.00000000E+00  0.00000000E+00
  0.00000000E+00  0.00000000E+00  0.00000000E+00
  0.00000000E+00  0.00000000E+00  0.00000000E+00
  0.00000000E+00  0.00000000E+00  0.00000000E+00
  0.00000000E+00  0.00000000E+00  0.00000000E+00
  0.00000000E+00  0.00000000E+00  0.00000000E+00
  0.00000000E+00  0.00000000E+00  0.00000000E+00
  0.00000000E+00  0.00000000E+00  0.00000000E+00
  0.00000000E+00  0.00000000E+00  0.00000000E+00
  0.00000000E+00  0.00000000E+00  0.00000000E+00
  0.00000000E+00  0.00000000E+00  0.00000000E+00
  0.00000000E+00  0.00000000E+00  0.00000000E+00
  0.00000000E+00  0.00000000E+00  0.00000000E+00
  0.00000000E+00  0.00000000E+00  0.00000000E+00
  0.00000000E+00  0.00000000E+00  0.00000000E+00
  0.00000000E+00  0.00000000E+00  0.00000000E+00
  0.00000000E+00  0.00000000E+00  0.00000000E+00
  0.00000000E+00  0.00000000E+00  0.00000000E+00
  0.00000000E+00  0.00000000E+00  0.00000000E+00
  0.00000000E+00  0.00000000E+00  0.00000000E+00
  0.00000000E+00  0.00000000E+00  0.00000000E+00
  0.00000000E+00  0.00000000E+00  0.00000000E+00
  0.00000000E+00  0.00000000E+00  0.00000000E+00
  0.00000000E+00  0.00000000E+00  0.00000000E+00
  0.00000000E+00  0.00000000E+00  0.00000000E+00
  0.00000000E+00  0.00000000E+00  0.00000000E+00
  0.00000000E+00  0.00000000E+00  0.00000000E+00
  0.00000000E+00  0.00000000E+00  0.00000000E+00
  0.00000000E+00  0.00000000E+00  0.00000000E+00
  0.00000000E+00  0.00000000E+00  0.00000000E+00
  0.00000000E+00  0.00000000E+00  0.00000000E+00
  0.00000000E+00  0.00000000E+00  0.00000000E+00
  0.00000000E+00  0.00000000E+00  0.00000000E+00
  0.00000000E+00  0.00000000E+00  0.00000000E+00
  0.00000000E+00  0.00000000E+00  0.00000000E+00
  0.00000000E+00  0.00000000E+00  0.00000000E+00
  0.00000000E+00  0.00000000E+00  0.00000000E+00
  0.00000000E+00  0.00000000E+00  0.00000000E+00
  0.00000000E+00  0.00000000E+00  0.00000000E+00
  0.00000000E+00  0.00000000E+00  0.00000000E+00
  0.00000000E+00  0.00000000E+00  0.00000000E+00
  0.00000000E+00  0.00000000E+00  0.00000000E+00
  0.00000000E+00  0.00000000E+00  0.00000000E+00
  0.00000000E+00  0.00000000E+00  0.00000000E+00
  0.00000000E+00  0.00000000E+00  0.00000000E+00
  0.00000000E+00  0.00000000E+00  0.00000000E+00
  0.00000000E+00  0.00000000E+00  0.00000000E+00
  0.00000000E+00  0.00000000E+00  0.00000000E+00
  0.00000000E+00  0.00000000E+00  0.00000000E+00
  0.00000000E+00  0.00000000E+00  0.00000000E+00
  0.00000000E+00  0.00000000E+00  0.00000000E+00
  0.00000000E+00  0.00000000E+00  0.00000000E+00
  0.00000000E+00  0.00000000E+00  0.00000000E+00
  0.00000000E+00  0.00000000E+00  0.00000000E+00
  0.00000000E+00  0.00000000E+00  0.00000000E+00
  0.00000000E+00  0.00000000E+00  0.00000000E+00
  0.00000000E+00  0.00000000E+00  0.00000000E+00
  0.00000000E+00  0.00000000E+00  0.00000000E+00
  0.00000000E+00  0.00000000E+00  0.00000000E+00
  0.00000000E+00  0.00000000E+00  0.00000000E+00
  0.00000000E+00  0.00000000E+00  0.00000000E+00
  0.00000000E+00  0.00000000E+00  0.00000000E+00
  0.00000000E+00  0.00000000E+00  0.00000000E+00
  0.00000000E+00  0.00000000E+00  0.00000000E+00
  0.00000000E+00  0.00000000E+00  0.00000000E+00
  0.00000000E+00  0.00000000E+00  0.00000000E+00
  0.00000000E+00  0.00000000E+00  0.00000000E+00
  0.00000000E+00  0.00000000E+00  0.00000000E+00
  0.00000000E+00  0.00000000E+00  0.00000000E+00
  0.00000000E+00  0.00000000E+00  0.00000000E+00
  0.00000000E+00  0.00000000E+00  0.00000000E+00
  0.00000000E+00  0.00000000E+00  0.00000000E+00
  0.00000000E+00  0.00000000E+00  0.00000000E+00
  0.00000000E+00  0.00000000E+00  0.00000000E+00
  0.00000000E+00  0.00000000E+00  0.00000000E+00
  0.00000000E+00  0.00000000E+00  0.00000000E+00
  0.00000000E+00  0.00000000E+00  0.00000000E+00
  0.00000000E+00  0.00000000E+00  0.00000000E+00
  0.00000000E+00  0.00000000E+00  0.00000000E+00
  0.00000000E+00  0.00000000E+00  0.00000000E+00
  0.00000000E+00  0.00000000E+00  0.00000000E+00
  0.00000000E+00  0.00000000E+00  0.00000000E+00
  0.00000000E+00  0.00000000E+00  0.00000000E+00
  0.00000000E+00  0.00000000E+00  0.00000000E+00
  0.00000000E+00  0.00000000E+00  0.00000000E+00
  0.00000000E+00  0.00000000E+00  0.00000000E+00
  0.00000000E+00  0.00000000E+00  0.00000000E+00
  0.00000000E+00  0.00000000E+00  0.00000000E+00
  0.00000000E+00  0.00000000E+00  0.00000000E+00
  0.00000000E+00  0.00000000E+00  0.00000000E+00
  0.00000000E+00  0.00000000E+00  0.00000000E+00
  0.00000000E+00  0.00000000E+00  0.00000000E+00
  0.00000000E+00  0.00000000E+00  0.00000000E+00
  0.00000000E+00  0.00000000E+00  0.00000000E+00
  0.00000000E+00  0.00000000E+00  0.00000000E+00
  0.00000000E+00  0.00000000E+00  0.00000000E+00
  0.00000000E+00  0.00000000E+00  0.00000000E+00
  0.00000000E+00  0.00000000E+00  0.00000000E+00
  0.00000000E+00  0.00000000E+00  0.00000000E+00
  0.00000000E+00  0.00000000E+00  0.00000000E+00
  0.00000000E+00  0.00000000E+00  0.00000000E+00
  0.00000000E+00  0.00000000E+00  0.00000000E+00
  0.00000000E+00  0.00000000E+00  0.00000000E+00
  0.00000000E+00  0.00000000E+00  0.00000000E+00
  0.00000000E+00  0.00000000E+00  0.00000000E+00
  0.00000000E+00  0.00000000E+00  0.00000000E+00
  0.00000000E+00  0.00000000E+00  0.00000000E+00
  0.00000000E+00  0.00000000E+00  0.00000000E+00
  0.00000000E+00  0.00000000E+00  0.00000000E+00
  0.00000000E+00  0.00000000E+00  0.00000000E+00
  0.00000000E+00  0.00000000E+00  0.00000000E+00
  0.00000000E+00  0.00000000E+00  0.00000000E+00
  0.00000000E+00  0.00000000E+00  0.00000000E+00
  0.00000000E+00  0.00000000E+00  0.00000000E+00
  0.00000000E+00  0.00000000E+00  0.00000000E+00
  0.00000000E+00  0.00000000E+00  0.00000000E+00
  0.00000000E+00  0.00000000E+00  0.00000000E+00
  0.00000000E+00  0.00000000E+00  0.00000000E+00
  0.00000000E+00  0.00000000E+00  0.00000000E+00
  0.00000000E+00  0.00000000E+00  0.00000000E+00
  0.00000000E+00  0.00000000E+00  0.00000000E+00
  0.00000000E+00  0.00000000E+00  0.00000000E+00
  0.00000000E+00  0.00000000E+00  0.00000000E+00
  0.00000000E+00  0.00000000E+00  0.00000000E+00
  0.00000000E+00  0.00000000E+00  0.00000000E+00
  0.00000000E+00  0.00000000E+00  0.00000000E+00
  0.00000000E+00  0.00000000E+00  0.00000000E+00
  0.00000000E+00  0.00000000E+00  0.00000000E+00
  0.00000000E+00  0.00000000E+00  0.00000000E+00
  0.00000000E+00  0.00000000E+00  0.00000000E+00
  0.00000000E+00  0.00000000E+00  0.00000000E+00
  0.00000000E+00  0.00000000E+00  0.00000000E+00
  0.00000000E+00  0.00000000E+00  0.00000000E+00
  0.00000000E+00  0.00000000E+00  0.00000000E+00
  0.00000000E+00  0.00000000E+00  0.00000000E+00
  0.00000000E+00  0.00000000E+00  0.00000000E+00
  0.00000000E+00  0.00000000E+00  0.00000000E+00
  0.00000000E+00  0.00000000E+00  0.00000000E+00
  0.00000000E+00  0.00000000E+00  0.00000000E+00
  0.00000000E+00  0.00000000E+00  0.00000000E+00
  0.00000000E+00  0.00000000E+00  0.00000000E+00
  0.00000000E+00  0.00000000E+00  0.00000000E+00
  0.00000000E+00  0.00000000E+00  0.00000000E+00
  0.00000000E+00  0.00000000E+00  0.00000000E+00
  0.00000000E+00  0.00000000E+00  0.00000000E+00
  0.00000000E+00  0.00000000E+00  0.00000000E+00
  0.00000000E+00  0.00000000E+00  0.00000000E+00
  0.00000000E+00  0.00000000E+00  0.00000000E+00
  0.00000000E+00  0.00000000E+00  0.00000000E+00
  0.00000000E+00  0.00000000E+00  0.00000000E+00
  0.00000000E+00  0.00000000E+00  0.00000000E+00
  0.00000000E+00  0.00000000E+00  0.00000000E+00
  0.00000000E+00  0.00000000E+00  0.00000000E+00
  0.00000000E+00  0.00000000E+00  0.00000000E+00
  0.00000000E+00  0.00000000E+00  0.00000000E+00
  0.00000000E+00  0.00000000E+00  0.00000000E+00
  0.00000000E+00  0.00000000E+00  0.00000000E+00
  0.00000000E+00  0.00000000E+00  0.00000000E+00
  0.00000000E+00  0.00000000E+00  0.00000000E+00
  0.00000000E+00  0.00000000E+00  0.00000000E+00
  0.00000000E+00  0.00000000E+00  0.00000000E+00
  0.00000000E+00  0.00000000E+00  0.00000000E+00
  0.00000000E+00  0.00000000E+00  0.00000000E+00
  0.00000000E+00  0.00000000E+00  0.00000000E+00
  0.00000000E+00  0.00000000E+00  0.00000000E+00
  0.00000000E+00  0.00000000E+00  0.00000000E+00
  0.00000000E+00  0.00000000E+00  0.00000000E+00
  0.00000000E+00  0.00000000E+00  0.00000000E+00
  0.00000000E+00  0.00000000E+00  0.00000000E+00
  0.00000000E+00  0.00000000E+00  0.00000000E+00
  0.00000000E+00  0.00000000E+00  0.00000000E+00
  0.00000000E+00  0.00000000E+00  0.00000000E+00
  0.00000000E+00  0.00000000E+00  0.00000000E+00
  0.00000000E+00  0.00000000E+00  0.00000000E+00
  0.00000000E+00  0.00000000E+00  0.00000000E+00
  0.00000000E+00  0.00000000E+00  0.00000000E+00
  0.00000000E+00  0.00000000E+00  0.00000000E+00
  0.00000000E+00  0.00000000E+00  0.00000000E+00
  0.00000000E+00  0.00000000E+00  0.00000000E+00
  0.00000000E+00  0.00000000E+00  0.00000000E+00
  0.00000000E+00  0.00000000E+00  0.00000000E+00
  0.00000000E+00  0.00000000E+00  0.00000000E+00
  0.00000000E+00  0.00000000E+00  0.00000000E+00
  0.00000000E+00  0.00000000E+00  0.00000000E+00
  0.00000000E+00  0.00000000E+00  0.00000000E+00
  0.00000000E+00  0.00000000E+00  0.00000000E+00
  0.00000000E+00  0.00000000E+00  0.00000000E+00
  0.00000000E+00  0.00000000E+00  0.00000000E+00
  0.00000000E+00  0.00000000E+00  0.00000000E+00
  0.00000000E+00  0.00000000E+00  0.00000000E+00
  0.00000000E+00  0.00000000E+00  0.00000000E+00
  0.00000000E+00  0.00000000E+00  0.00000000E+00
  0.00000000E+00  0.00000000E+00  0.00000000E+00
  0.00000000E+00  0.00000000E+00  0.00000000E+00
  0.00000000E+00  0.00000000E+00  0.00000000E+00
  0.00000000E+00  0.00000000E+00  0.00000000E+00
  0.00000000E+00  0.00000000E+00  0.00000000E+00
  0.00000000E+00  0.00000000E+00  0.00000000E+00
  0.00000000E+00  0.00000000E+00  0.00000000E+00
  0.00000000E+00  0.00000000E+00  0.00000000E+00
  0.00000000E+00  0.00000000E+00  0.00000000E+00
  0.00000000E+00  0.00000000E+00  0.00000000E+00
  0.00000000E+00  0.00000000E+00  0.00000000E+00
  0.00000000E+00  0.00000000E+00  0.00000000E+00
  0.00000000E+00  0.00000000E+00  0.00000000E+00
  0.00000000E+00  0.00000000E+00  0.00000000E+00
  0.00000000E+00  0.00000000E+00  0.00000000E+00
  0.00000000E+00  0.00000000E+00  0.00000000E+00
  0.00000000E+00  0.00000000E+00  0.00000000E+00
  0.00000000E+00  0.00000000E+00  0.00000000E+00
  0.00000000E+00  0.00000000E+00  0.00000000E+00
  0.00000000E+00  0.00000000E+00  0.00000000E+00
  0.00000000E+00  0.00000000E+00  0.00000000E+00
  0.00000000E+00  0.00000000E+00  0.00000000E+00
  0.00000000E+00  0.00000000E+00  0.00000000E+00
  0.00000000E+00  0.00000000E+00  0.00000000E+00
  0.00000000E+00  0.00000000E+00  0.00000000E+00
  0.00000000E+00  0.00000000E+00  0.00000000E+00
  0.00000000E+00  0.00000000E+00  0.00000000E+00
  0.00000000E+00  0.00000000E+00  0.00000000E+00
  0.00000000E+00  0.00000000E+00  0.00000000E+00
  0.00000000E+00  0.00000000E+00  0.00000000E+00
  0.00000000E+00  0.00000000E+00  0.00000000E+00
  0.00000000E+00  0.00000000E+00  0.00000000E+00
  0.00000000E+00  0.00000000E+00  0.00000000E+00
