Mo  S Co                                
   1.00000000000000     
    15.9214998300000001    0.0000000000000000    0.0000000000000000
    -7.9622501300000001   13.7910221699999997    0.0000000000000000
     0.0000000000000000    0.0000000000000000   13.5821998300000004
   Mo   S    Co
    25    49     4
Direct
  0.1343792204505191  0.0685376285714608  0.6748310214149535
  0.1366468085430565  0.2685985790114536  0.6715480947866004
  0.1342178268357692  0.4645105292047191  0.6753996498988031
  0.1332903800637770  0.6655866071750794  0.6777861738882313
  0.1333380080311679  0.8664243385384862  0.6774890803555095
  0.3331477639091063  0.0668971582722409  0.6772617223671682
  0.3316459254979409  0.2672814840517182  0.6707851063656776
  0.3305533907028299  0.4613438227737426  0.6715566424253541
  0.3329064377222833  0.6644791029905337  0.6777955604189544
  0.3329893548928704  0.8656728366739740  0.6787443004225193
  0.5330037018533912  0.0658517478044706  0.6795030739351851
  0.5323316234943207  0.2655443313005784  0.6770269753722878
  0.5305241751736433  0.4650849845075787  0.6739772161566860
  0.5317919799984632  0.6646004052591391  0.6775119295886242
  0.5329440665785697  0.8655185989142342  0.6792955476838539
  0.7333999717164043  0.0659701829215217  0.6798381771059095
  0.7330573582998919  0.2659567172620385  0.6801197477648161
  0.7321505649742923  0.4654754198112037  0.6783011198966558
  0.7325144555236969  0.6656695315847576  0.6776194853724530
  0.7331229309948826  0.8658519729660100  0.6789054846435632
  0.9343017252445746  0.0670969998147055  0.6780554288041056
  0.9343631529003382  0.2660165726806488  0.6788572738863865
  0.9331430313449518  0.4654560887277409  0.6784463208535891
  0.9329467413947559  0.6659141476791722  0.6778123373095094
  0.9333175430875658  0.8664762616958200  0.6776601717905453
  0.0659312354077475  0.1337017710477514  0.5597405312741804
  0.0726619231665781  0.1387602714759389  0.7900406184972755
  0.0654439267210061  0.3310427745244143  0.5598975450161883
  0.0731315586304370  0.3332477612717993  0.7912901849958792
  0.0660844774893532  0.5322456832366568  0.5625778767807615
  0.0677687179268214  0.5315007920835929  0.7918353882832695
  0.0664892815405388  0.7325157258708499  0.5628487502475871
  0.0665919678426245  0.7327828587876160  0.7925444705055504
  0.0664014353641350  0.9327512991656314  0.5620687023176114
  0.0677624897284209  0.9352016343639650  0.7912720555074166
  0.2675445724345509  0.1330340708620993  0.5589164452081711
  0.2665238659007238  0.1381457433284550  0.7895348358986696
  0.2661570973048185  0.3318762502986902  0.5556207730494522
  0.2676869854235814  0.5326268705165137  0.5597267822074636
  0.2661317475384293  0.5262324841475000  0.7903456278481521
  0.2668885051970377  0.7324944985155774  0.5633041836821837
  0.2661846459226295  0.7312245348041986  0.7932298430129514
  0.2669480339117378  0.9326227673830397  0.5630169937479509
  0.2662271253636105  0.9335786190805143  0.7928785155503012
  0.4667609840789759  0.1319464702330378  0.5631167102808524
  0.4654622785559482  0.1330784532549633  0.7935614827643768
  0.4658733676122507  0.3309649990821859  0.5589779853501927
  0.4609796511428518  0.3326726759138627  0.7895724034631599
  0.4648831450796833  0.5329678664571892  0.5590839291660479
  0.4605116476410952  0.5265798630495120  0.7899081631943412
  0.4664012947683553  0.7327676432229729  0.5635065295603332
  0.4656580163778465  0.7309823540143325  0.7934831978337825
  0.4667435524430042  0.9326190386403761  0.5643169365809629
  0.4659187990788662  0.9320835484075628  0.7943525576075540
  0.6667334829630327  0.1327237340652872  0.5650205682101210
  0.6663853267083466  0.1324634710316687  0.7950116554820208
  0.6667626105340625  0.3320208786129307  0.5637021872559015
  0.6642683554659861  0.3331010556409938  0.7946407129187313
  0.6665996001708722  0.5326272100215305  0.5619245183722384
  0.6630793212242371  0.5309620355822264  0.7916381113892358
  0.6660448653338682  0.7328071081483061  0.5632134822364910
  0.6652283995346844  0.7312429437667919  0.7931093633956651
  0.6664801474593972  0.9328580431368568  0.5644801688261435
  0.6664741966333461  0.9320785800321290  0.7945128360287029
  0.8662482904086314  0.1327155564352689  0.5642587733711139
  0.8678190407706295  0.1329957654845950  0.7942240226645070
  0.8659264549788493  0.3316193727788005  0.5644398031524835
  0.8677460336369611  0.3328785918322658  0.7943188933083521
  0.8660567409247089  0.5320144486783031  0.5633867932451386
  0.8662009714847485  0.5325919530991968  0.7929782046324165
  0.8662379276234278  0.7327100737128797  0.5628315328011837
  0.8662543172806779  0.7327357968438550  0.7926426501234510
  0.8662572361316907  0.9331528411462614  0.5634134880738318
  0.8676742060334910  0.9335121344444463  0.7933219045258085
  0.2090327893919491  0.3331035446630973  1.0276510282659768
  0.5146142215051628  0.3394625819576159  0.9593309733774457
  0.5339840085753097  0.3462303151629182  0.1090744215829717
  0.2093439265286728  0.3394089827148059  0.1772654678891701
 
  0.00000000E+00  0.00000000E+00  0.00000000E+00
  0.00000000E+00  0.00000000E+00  0.00000000E+00
  0.00000000E+00  0.00000000E+00  0.00000000E+00
  0.00000000E+00  0.00000000E+00  0.00000000E+00
  0.00000000E+00  0.00000000E+00  0.00000000E+00
  0.00000000E+00  0.00000000E+00  0.00000000E+00
  0.00000000E+00  0.00000000E+00  0.00000000E+00
  0.00000000E+00  0.00000000E+00  0.00000000E+00
  0.00000000E+00  0.00000000E+00  0.00000000E+00
  0.00000000E+00  0.00000000E+00  0.00000000E+00
  0.00000000E+00  0.00000000E+00  0.00000000E+00
  0.00000000E+00  0.00000000E+00  0.00000000E+00
  0.00000000E+00  0.00000000E+00  0.00000000E+00
  0.00000000E+00  0.00000000E+00  0.00000000E+00
  0.00000000E+00  0.00000000E+00  0.00000000E+00
  0.00000000E+00  0.00000000E+00  0.00000000E+00
  0.00000000E+00  0.00000000E+00  0.00000000E+00
  0.00000000E+00  0.00000000E+00  0.00000000E+00
  0.00000000E+00  0.00000000E+00  0.00000000E+00
  0.00000000E+00  0.00000000E+00  0.00000000E+00
  0.00000000E+00  0.00000000E+00  0.00000000E+00
  0.00000000E+00  0.00000000E+00  0.00000000E+00
  0.00000000E+00  0.00000000E+00  0.00000000E+00
  0.00000000E+00  0.00000000E+00  0.00000000E+00
  0.00000000E+00  0.00000000E+00  0.00000000E+00
  0.00000000E+00  0.00000000E+00  0.00000000E+00
  0.00000000E+00  0.00000000E+00  0.00000000E+00
  0.00000000E+00  0.00000000E+00  0.00000000E+00
  0.00000000E+00  0.00000000E+00  0.00000000E+00
  0.00000000E+00  0.00000000E+00  0.00000000E+00
  0.00000000E+00  0.00000000E+00  0.00000000E+00
  0.00000000E+00  0.00000000E+00  0.00000000E+00
  0.00000000E+00  0.00000000E+00  0.00000000E+00
  0.00000000E+00  0.00000000E+00  0.00000000E+00
  0.00000000E+00  0.00000000E+00  0.00000000E+00
  0.00000000E+00  0.00000000E+00  0.00000000E+00
  0.00000000E+00  0.00000000E+00  0.00000000E+00
  0.00000000E+00  0.00000000E+00  0.00000000E+00
  0.00000000E+00  0.00000000E+00  0.00000000E+00
  0.00000000E+00  0.00000000E+00  0.00000000E+00
  0.00000000E+00  0.00000000E+00  0.00000000E+00
  0.00000000E+00  0.00000000E+00  0.00000000E+00
  0.00000000E+00  0.00000000E+00  0.00000000E+00
  0.00000000E+00  0.00000000E+00  0.00000000E+00
  0.00000000E+00  0.00000000E+00  0.00000000E+00
  0.00000000E+00  0.00000000E+00  0.00000000E+00
  0.00000000E+00  0.00000000E+00  0.00000000E+00
  0.00000000E+00  0.00000000E+00  0.00000000E+00
  0.00000000E+00  0.00000000E+00  0.00000000E+00
  0.00000000E+00  0.00000000E+00  0.00000000E+00
  0.00000000E+00  0.00000000E+00  0.00000000E+00
  0.00000000E+00  0.00000000E+00  0.00000000E+00
  0.00000000E+00  0.00000000E+00  0.00000000E+00
  0.00000000E+00  0.00000000E+00  0.00000000E+00
  0.00000000E+00  0.00000000E+00  0.00000000E+00
  0.00000000E+00  0.00000000E+00  0.00000000E+00
  0.00000000E+00  0.00000000E+00  0.00000000E+00
  0.00000000E+00  0.00000000E+00  0.00000000E+00
  0.00000000E+00  0.00000000E+00  0.00000000E+00
  0.00000000E+00  0.00000000E+00  0.00000000E+00
  0.00000000E+00  0.00000000E+00  0.00000000E+00
  0.00000000E+00  0.00000000E+00  0.00000000E+00
  0.00000000E+00  0.00000000E+00  0.00000000E+00
  0.00000000E+00  0.00000000E+00  0.00000000E+00
  0.00000000E+00  0.00000000E+00  0.00000000E+00
  0.00000000E+00  0.00000000E+00  0.00000000E+00
  0.00000000E+00  0.00000000E+00  0.00000000E+00
  0.00000000E+00  0.00000000E+00  0.00000000E+00
  0.00000000E+00  0.00000000E+00  0.00000000E+00
  0.00000000E+00  0.00000000E+00  0.00000000E+00
  0.00000000E+00  0.00000000E+00  0.00000000E+00
  0.00000000E+00  0.00000000E+00  0.00000000E+00
  0.00000000E+00  0.00000000E+00  0.00000000E+00
  0.00000000E+00  0.00000000E+00  0.00000000E+00
  0.00000000E+00  0.00000000E+00  0.00000000E+00
  0.00000000E+00  0.00000000E+00  0.00000000E+00
  0.00000000E+00  0.00000000E+00  0.00000000E+00
  0.00000000E+00  0.00000000E+00  0.00000000E+00
