Ta  N Co Cu                             
   1.00000000000000     
    18.1096310000000003    0.0000000000000000    0.0000000000000000
     0.0000000000000000   23.3552000000000000    0.0000000000000000
     0.0000000000000000    0.0000000000000000   30.4818169999999995
   Ta   N    Co   Cu
   216   240    24     1
Direct
  0.0000323200000025  0.0000034099999979  0.1978754699999996
  0.3339013399999970  0.0624207600000020  0.2029264999999967
  0.1660758900000019  0.0624086799999972  0.2029252399999990
  0.2500011599999965  0.1249439099999989  0.2783779600000003
  0.0829022899999998  0.0625059899999982  0.2842576399999999
  0.4170701999999977  0.0624951100000004  0.2842516799999970
  0.0000111800000013  0.1248631599999968  0.3697845800000010
  0.3313008499999981  0.0622724899999980  0.3690018500000036
  0.1686605200000031  0.0622710800000021  0.3690001399999971
  0.2500205699999967  0.1267024699999979  0.4598860500000015
  0.0829579500000008  0.0617423400000021  0.4535367399999970
  0.4170349099999981  0.0617445800000027  0.4535178799999997
  0.0000447199999982  0.1290085700000034  0.5416416500000025
  0.3394358600000018  0.0665001400000023  0.5472722700000006
  0.1604889700000030  0.0664817600000021  0.5472776699999997
  0.9999951200000012  0.1253370599999997  0.1979304099999979
  0.3343599199999971  0.1875799299999983  0.2028154699999973
  0.1656159899999992  0.1875831300000002  0.2028105999999994
  0.2499946300000033  0.2499152500000008  0.2783817199999987
  0.0828585300000029  0.1874436100000025  0.2843655799999993
  0.4171173800000005  0.1874372600000029  0.2843547700000002
  0.0000674400000023  0.2493761799999987  0.3694739199999972
  0.3315991999999994  0.1873089699999966  0.3690411600000019
  0.1684479700000026  0.1872936800000033  0.3690233900000024
  0.2501846199999989  0.2486205299999966  0.4599921800000004
  0.0843047999999982  0.1869313700000035  0.4544528099999994
  0.4157600500000029  0.1869400499999969  0.4545166400000014
  0.9993783399999998  0.2523508100000029  0.5401037600000009
  0.0000021899999965  0.2498171599999992  0.1980844300000015
  0.3334390899999988  0.3126331500000035  0.2031161800000021
  0.1665145199999998  0.3126808299999979  0.2031349599999999
  0.2499412800000016  0.3750192899999973  0.2786978500000004
  0.0830718400000023  0.3125521700000036  0.2843689099999978
  0.4169157299999995  0.3125394500000027  0.2843239899999972
  0.0001665200000005  0.3750673400000011  0.3697360999999972
  0.3316257800000031  0.3124482500000028  0.3688210500000011
  0.1684010999999970  0.3124541899999969  0.3688178600000001
  0.2504382700000036  0.3757068800000027  0.4612589099999980
  0.0831160800000035  0.3118644400000008  0.4523452199999980
  0.4171327999999974  0.3118752600000008  0.4524354699999975
  0.9990740000000002  0.3783499999999975  0.5416960299999971
  0.0000541699999985  0.3756105399999967  0.1983632399999991
  0.3342992199999983  0.4374177999999986  0.2032351900000009
  0.1656071900000029  0.4374438800000036  0.2032882700000016
  0.2499804200000000  0.0000049599999983  0.2783677500000010
  0.0830919899999998  0.4375960899999995  0.2850375599999992
  0.4168832100000017  0.4376115800000022  0.2849028199999992
  0.9999743300000006  0.0000028500000013  0.3693033400000019
  0.3313274599999971  0.4377958700000022  0.3701203999999976
  0.1686084299999990  0.4377848399999991  0.3703474799999995
  0.2499785999999986  0.9999977900000019  0.4624866600000033
  0.0857297200000033  0.4373974800000013  0.4555682800000014
  0.4143540299999984  0.4372834799999978  0.4550191699999999
  0.9999865300000010  0.9999825399999978  0.5437535599999990
  0.0000684600000014  0.4999946100000017  0.1985734900000011
  0.3342724800000028  0.5625866199999976  0.2032158000000024
  0.1655804199999977  0.5625660500000009  0.2032745799999987
  0.2499121700000018  0.6250317200000026  0.2786370099999971
  0.0830551700000015  0.5624109600000011  0.2850162499999982
  0.4169188400000010  0.5624331100000006  0.2848776200000032
  0.9999772600000014  0.6249623900000003  0.3697164299999969
  0.3312843799999996  0.5623159800000010  0.3700596999999988
  0.1685350699999972  0.5623083799999975  0.3702833899999973
  0.2503939099999997  0.6245889699999978  0.4611334100000022
  0.0856690399999991  0.5627480500000033  0.4555721600000027
  0.4144757199999987  0.5629480999999998  0.4548589099999987
  0.9997402099999988  0.6216276700000023  0.5416910799999997
  0.0000193300000007  0.6243693199999996  0.1983407299999982
  0.3334093699999983  0.6873677800000024  0.2031029300000000
  0.1665391800000009  0.6873328900000004  0.2031260300000000
  0.2499343900000000  0.7501341999999980  0.2783363400000027
  0.0830288599999989  0.6874613800000020  0.2843474200000031
  0.4169162499999999  0.6874931199999992  0.2842771199999987
  0.9999005000000025  0.7506368399999985  0.3694554200000013
  0.3315646100000009  0.6876377899999966  0.3686875100000009
  0.1683202999999978  0.6876225900000037  0.3687649600000000
  0.2500069700000012  0.7513626799999997  0.4598774199999980
  0.0829165500000002  0.6881862500000011  0.4522622100000007
  0.4171109400000006  0.6883181000000036  0.4521213800000012
  0.0000731700000003  0.7475595200000029  0.5400663799999990
  0.0000078400000021  0.7502082199999975  0.1980606999999992
  0.3343759600000027  0.8124242900000027  0.2027821599999982
  0.1655706299999977  0.8124332300000034  0.2027932800000016
  0.2499732499999965  0.8750989799999971  0.2783718199999967
  0.0828282299999969  0.8125642899999974  0.2843507099999982
  0.4171380700000000  0.8125839300000024  0.2843271200000004
  0.9999468199999981  0.8751468800000026  0.3697797399999985
  0.3315316300000006  0.8127557299999992  0.3689611499999970
  0.1683523000000022  0.8127403499999986  0.3689922800000005
  0.2499236800000020  0.8733180600000026  0.4598579199999975
  0.0841378499999976  0.8130740599999982  0.4544253500000011
  0.4157212200000018  0.8131321700000029  0.4544413300000016
  0.0000148299999978  0.8708938400000008  0.5416607499999984
  0.9999863899999966  0.8746837300000010  0.1979273000000035
  0.3338946100000015  0.9376102000000017  0.2029253500000010
  0.1660693999999978  0.9376083300000033  0.2029230300000009
  0.2498748000000006  0.5000065799999973  0.2792916599999984
  0.0828895300000028  0.9375108400000016  0.2842525699999996
  0.4170665999999983  0.9375108500000024  0.2842490499999997
  0.0001549799999978  0.5000234099999972  0.3705346200000008
  0.3312771100000020  0.9377697899999973  0.3689853999999997
  0.1686410599999988  0.9377555399999977  0.3689866899999998
  0.2498891600000022  0.5004270100000028  0.4691222399999972
  0.0829180799999989  0.9382749199999978  0.4535247199999972
  0.4169887700000032  0.9382919399999992  0.4535145600000021
  0.0003859099999985  0.4999089499999982  0.5430587800000026
  0.3394764600000002  0.9334826999999990  0.5472392200000016
  0.1604872799999981  0.9334454299999990  0.5472685100000021
  0.4999775900000003  0.0000072500000030  0.1978772300000031
  0.8339184700000004  0.0624040000000008  0.2029309999999995
  0.6660742999999982  0.0624080500000019  0.2029347000000001
  0.7499984900000030  0.1249235100000021  0.2783816999999971
  0.5829107899999997  0.0624988200000018  0.2842573000000002
  0.9170635199999992  0.0624975500000033  0.2842562700000002
  0.5000020100000029  0.1248577799999993  0.3698008000000002
  0.8313165799999993  0.0622582199999968  0.3690019100000015
  0.6686955999999995  0.0622549899999996  0.3689992600000025
  0.7500469300000034  0.1266958799999998  0.4598757099999986
  0.5829782200000011  0.0617369200000013  0.4535207699999972
  0.9170401399999975  0.0617272100000008  0.4535086100000001
  0.4998649799999981  0.1289279699999994  0.5416651000000030
  0.8394541099999984  0.0664805899999976  0.5472404699999984
  0.6605918500000030  0.0664378600000006  0.5472152299999991
  0.4999934599999989  0.1253336199999993  0.1979201199999991
  0.8343948200000000  0.1875782299999997  0.2028103900000033
  0.6656064499999985  0.1875765899999990  0.2028022399999969
  0.7500477600000011  0.2498945099999972  0.2783469100000033
  0.5828559699999971  0.1874335899999977  0.2843540399999966
  0.9171292899999983  0.1874512300000006  0.2843654999999998
  0.4999386900000005  0.2493654599999999  0.3694541099999995
  0.8316002700000027  0.1873055000000008  0.3690306700000008
  0.6684668799999969  0.1872844900000032  0.3690060200000005
  0.7500314600000024  0.2487159599999984  0.4599750100000009
  0.5842592300000007  0.1869415800000027  0.4544905999999997
  0.9158187199999972  0.1869532600000028  0.4544427299999967
  0.5002309500000024  0.2520830400000023  0.5401284499999974
  0.4999820099999965  0.2497972800000028  0.1980523800000000
  0.8334696599999987  0.3126746800000006  0.2031435999999971
  0.6665379599999994  0.3126279800000020  0.2031098000000000
  0.7500941699999970  0.3750038700000005  0.2786661199999969
  0.5830932300000029  0.3125354000000016  0.2843185899999980
  0.9169430099999971  0.3125665100000035  0.2843751699999970
  0.4999290499999987  0.3750495299999983  0.3696077600000010
  0.8316708500000018  0.3124382600000004  0.3688556600000013
  0.6684341099999997  0.3124117400000017  0.3687366699999970
  0.7499174699999998  0.3755006800000018  0.4614393299999975
  0.5829557899999998  0.3117668100000017  0.4521319999999989
  0.9171331000000009  0.3118549000000002  0.4523673500000029
  0.5002322899999996  0.3783724500000005  0.5416405400000031
  0.4999470300000013  0.3755803600000007  0.1983005900000023
  0.8343993100000020  0.4374349300000020  0.2032703599999977
  0.6656922499999993  0.4374003699999989  0.2032289899999995
  0.7499900400000001  0.0000004099999984  0.2783724399999983
  0.5830992899999998  0.4375939099999968  0.2849110300000035
  0.9169523600000034  0.4376091399999993  0.2850035700000006
  0.4999913600000028  0.0000137800000033  0.3693004900000005
  0.8314706099999967  0.4377234700000017  0.3702361300000021
  0.6688154300000022  0.4377426499999970  0.3701344600000027
  0.7500073900000004  0.0000033099999968  0.4624974700000024
  0.5854085599999976  0.4371189900000019  0.4549421400000000
  0.9143776100000025  0.4373585199999965  0.4553178099999968
  0.5000113400000004  0.0000026000000020  0.5437000000000012
  0.4999857800000029  0.4999978700000014  0.1984919900000008
  0.8343897600000005  0.5625343399999991  0.2032609600000015
  0.6656778299999999  0.5625839100000007  0.2032126399999967
  0.7500697799999969  0.6249699399999997  0.2786772600000020
  0.5831225000000018  0.5624036299999986  0.2849002100000035
  0.9169344399999986  0.5623878800000028  0.2850050600000031
  0.5000690399999996  0.6249896500000034  0.3695816099999973
  0.8314338200000009  0.5622628799999987  0.3702412800000019
  0.6687399799999980  0.5622209599999977  0.3701496099999986
  0.7495739700000001  0.6243580800000004  0.4614322400000006
  0.5854600799999972  0.5627198500000006  0.4550608199999999
  0.9142841000000033  0.5626501799999986  0.4552861299999975
  0.5002216099999970  0.6216130999999976  0.5416023399999972
  0.5000326799999968  0.6244163900000004  0.1982778400000029
  0.8334351000000026  0.6873398299999991  0.2031307499999997
  0.6665640900000014  0.6873752300000007  0.2031043100000005
  0.7500171499999979  0.7500963999999968  0.2783592899999974
  0.5830910500000002  0.6874642000000009  0.2843221099999980
  0.9169029099999975  0.6874338100000017  0.2843443699999995
  0.5000246399999995  0.7506717199999997  0.3694239800000005
  0.8316044099999971  0.6875443300000015  0.3688405899999978
  0.6683760299999975  0.6875519999999966  0.3688042100000004
  0.7497953399999986  0.7513091400000036  0.4599738400000035
  0.5829212800000008  0.6881271199999972  0.4523444800000007
  0.9168439500000005  0.6881539999999973  0.4524330200000009
  0.4998856699999976  0.7479547599999989  0.5400763499999996
  0.5000250000000008  0.7502243899999996  0.1980247999999989
  0.8343834200000018  0.8124145299999981  0.2027974200000031
  0.6656180399999982  0.8124197400000028  0.2027908800000020
  0.7499932300000012  0.8750661099999988  0.2783738400000004
  0.5828805800000012  0.8125791499999977  0.2843390900000031
  0.9170983100000001  0.8125532099999973  0.2843534699999992
  0.4999789800000016  0.8751662299999978  0.3697838300000029
  0.8315619600000019  0.8126951799999986  0.3690329300000030
  0.6683992600000010  0.8126908699999973  0.3690316599999974
  0.7499553199999980  0.8732774400000025  0.4598577800000001
  0.5842318899999981  0.8130658999999980  0.4544859100000025
  0.9156493099999992  0.8130420000000029  0.4544641199999973
  0.5000599500000007  0.8710394000000008  0.5416498100000027
  0.5000169300000010  0.8746810700000012  0.1979086400000014
  0.8339174600000021  0.9375946299999995  0.2029288800000018
  0.6660822999999993  0.9375935600000034  0.2029263299999968
  0.7500991300000024  0.4999933100000007  0.2792917499999987
  0.5829083799999992  0.9375115699999981  0.2842496100000034
  0.9170623999999989  0.9374942500000003  0.2842517799999982
  0.5000567000000018  0.5000135200000031  0.3702946100000020
  0.8313003900000027  0.9377347400000033  0.3689998600000024
  0.6686749400000025  0.9377423299999990  0.3689948999999970
  0.7496951600000017  0.4994875100000016  0.4693808199999978
  0.5829170399999981  0.9382782300000017  0.4535182400000011
  0.9169989199999975  0.9382539400000027  0.4535430399999996
  0.4996089099999992  0.5000367399999988  0.5417225799999983
  0.8394649099999967  0.9334484299999986  0.5472956699999969
  0.6605347100000003  0.9334558400000006  0.5472915699999987
  0.4054668699999979  0.0000077600000026  0.2324761200000012
  0.2499829500000033  0.0000072400000022  0.1985313699999978
  0.0945381599999990  0.0000056499999985  0.2324928900000032
  0.1552991900000009  0.1248242699999977  0.3162636100000000
  0.9999894500000011  0.1249020799999983  0.3031495600000014
  0.3446827400000032  0.1248249300000026  0.3162709799999988
  0.4007570599999966  0.1246986399999983  0.4019750200000018
  0.2500057700000013  0.1248741499999966  0.3898574800000034
  0.0992545000000007  0.1246740099999997  0.4019695499999969
  0.1484168599999975  0.1214820000000003  0.4885623899999985
  0.0000088700000020  0.1243701200000018  0.4732611100000028
  0.3515986100000035  0.1214252099999982  0.4885458099999980
  0.4047773799999987  0.1286423700000014  0.5712651099999988
  0.2499317199999993  0.0895349199999984  0.5766889800000001
  0.0951329399999992  0.1287359800000019  0.5712265700000003
  0.4053743300000008  0.1250089500000016  0.2326198499999990
  0.2499784000000034  0.1251369100000019  0.2001479899999978
  0.0946202800000009  0.1250300600000003  0.2326223199999973
  0.1553433799999979  0.2497751000000008  0.3161288599999992
  0.0000080399999973  0.2499153999999990  0.3029575300000005
  0.3446607699999973  0.2497819299999975  0.3161301900000026
  0.4009351099999989  0.2487811000000022  0.4014286299999981
  0.2500367600000004  0.2497683599999974  0.3899616899999998
  0.0991173199999977  0.2487344800000031  0.4013912799999986
  0.1478160899999992  0.2515102699999971  0.4864366700000033
  0.9999746499999986  0.2489707200000026  0.4727176399999991
  0.3525428100000028  0.2516801900000019  0.4866461599999994
  0.3986206200000026  0.2519722199999990  0.5649541499999984
  0.2502113099999974  0.1887614299999996  0.5116371900000019
  0.1008261699999977  0.2526641600000019  0.5645695899999978
  0.4052981399999993  0.2500115799999989  0.2326019500000029
  0.2499601999999967  0.2498084200000008  0.1993474900000010
  0.0946803599999981  0.2500431200000008  0.2326223100000036
  0.1556304300000022  0.3752627000000004  0.3165506400000027
  0.0000220200000030  0.3750195100000013  0.3031613699999980
  0.3443453800000000  0.3752331900000030  0.3164592899999974
  0.4010312500000026  0.3751077300000034  0.4012687000000028
  0.2500148199999970  0.3751928300000031  0.3912599399999976
  0.0990006600000015  0.3751781300000019  0.4014429100000001
  0.1477237300000027  0.3696260899999970  0.4848026100000027
  0.0001580799999985  0.3761414700000003  0.4743420599999979
  0.3530404700000034  0.3697897400000016  0.4850292200000013
  0.3955555300000029  0.3854049600000025  0.5638906000000006
  0.2514128899999974  0.4334176600000035  0.5183164199999979
  0.1042269900000008  0.3872547200000014  0.5621465500000014
  0.4052385999999970  0.3751634099999990  0.2328209000000001
  0.2499733200000023  0.3753947399999973  0.1988889400000033
  0.0947205299999965  0.3751862900000020  0.2329149899999976
  0.1551659900000004  0.0000117000000017  0.3161598200000029
  0.9999762899999993  0.0000042200000010  0.3027960000000007
  0.3447907299999997  0.0000216700000024  0.3161613700000032
  0.4012154699999968  0.0000155600000014  0.4016650800000008
  0.2499707300000011  0.0000214299999968  0.3901302299999969
  0.0987383800000003  0.0000089199999991  0.4016743700000021
  0.1446302000000017  0.9999894600000019  0.4874553399999968
  0.9999706700000033  0.9999894400000002  0.4744149699999980
  0.3553110300000029  0.0000323399999971  0.4874467799999991
  0.4033722400000030  0.9999491399999982  0.5732665199999971
  0.2499652200000000  0.9999800200000024  0.5348480400000000
  0.0966667200000018  0.9999692700000011  0.5733218900000026
  0.4051792300000017  0.5000069100000033  0.2332075599999968
  0.2499870299999998  0.5000008100000031  0.2019650000000013
  0.0947936100000035  0.5000020900000024  0.2333659499999996
  0.1555842599999977  0.6247710499999997  0.3164940999999999
  0.9999756599999969  0.6249965399999979  0.3031387799999976
  0.3443180800000007  0.6248101999999989  0.3163652100000007
  0.4010721799999999  0.6249858199999991  0.4010664500000019
  0.2499423300000032  0.6249374900000007  0.3911032299999988
  0.0988464200000010  0.6248551199999994  0.4013561499999980
  0.1476437700000020  0.6305296600000005  0.4845872000000000
  0.9998836800000035  0.6239059999999981  0.4743618099999978
  0.3532246899999976  0.6303095399999989  0.4846568500000004
  0.3954316700000007  0.6148816600000018  0.5634481499999993
  0.2517019599999983  0.5682262999999992  0.5189216899999991
  0.1061427799999990  0.6124466099999992  0.5614774399999973
  0.4052989400000016  0.6248485799999983  0.2327692599999978
  0.2499462800000032  0.6246073200000026  0.1987798799999965
  0.0947011499999988  0.6248075999999969  0.2328734199999971
  0.1552904200000000  0.7502690800000025  0.3160959300000030
  0.9999538699999988  0.7500871700000005  0.3029305700000009
  0.3446369500000017  0.7503033300000013  0.3160527300000027
  0.4009324000000021  0.7513967599999987  0.4012827099999967
  0.2499434200000010  0.7503183399999998  0.3898901000000023
  0.0989550800000032  0.7513172499999996  0.4013346500000026
  0.1476024899999970  0.7484004200000030  0.4864161400000029
  0.9998791699999998  0.7510032899999999  0.4727013099999979
  0.3523851599999972  0.7484260499999991  0.4865298899999999
  0.3985476599999984  0.7480258000000006  0.5649202399999993
  0.2499164500000006  0.8112163500000023  0.5116267100000016
  0.1016488499999966  0.7475515499999972  0.5647590499999993
  0.4053383299999993  0.7500050499999986  0.2325535000000016
  0.2499470300000013  0.7502187700000036  0.1993266799999986
  0.0946780299999972  0.7499800200000024  0.2325987700000027
  0.1552699399999966  0.8751915900000000  0.3162478899999996
  0.9999661299999971  0.8751054600000003  0.3031420699999998
  0.3446745999999976  0.8752026100000023  0.3162351699999988
  0.4007151599999972  0.8753630799999996  0.4019260500000001
  0.2499477200000015  0.8751540900000023  0.3898292299999966
  0.0991795699999969  0.8753525699999969  0.4019490100000027
  0.1483410499999991  0.8785501999999994  0.4885244700000015
  0.9999257699999973  0.8756161499999990  0.4732781900000020
  0.3514762499999975  0.8786034099999966  0.4885209500000016
  0.4049143900000018  0.8712546400000036  0.5711568400000004
  0.2499875800000027  0.9104433299999997  0.5766516899999985
  0.0951650200000032  0.8711728399999998  0.5711830500000019
  0.4053657799999968  0.8750101099999981  0.2326022100000031
  0.2499886399999980  0.8748768800000022  0.2001595500000022
  0.0946043200000020  0.8749883199999999  0.2326188700000031
  0.1554656899999998  0.5000409299999973  0.3172781800000024
  0.0000333999999995  0.4999973099999977  0.3038111199999989
  0.3444160600000004  0.5000328400000029  0.3170711799999992
  0.4010955999999979  0.5000274800000000  0.4018716100000006
  0.2499841699999976  0.5001083399999970  0.3940030099999987
  0.0989758600000030  0.5000875500000035  0.4025305199999991
  0.1410194099999984  0.5000328900000000  0.4870386500000023
  0.9999163100000033  0.5000492799999989  0.4738004100000026
  0.3587590500000033  0.5002658699999998  0.4856821999999994
  0.4046638599999994  0.4978149100000024  0.5745883000000021
  0.2522975099999982  0.4991154100000017  0.5821650999999974
  0.0968706199999971  0.5002903399999994  0.5780157599999995
  0.9054428500000000  0.0000032000000019  0.2324924999999993
  0.7499996100000033  0.9999975899999995  0.1985624699999988
  0.5945139900000029  0.0000026599999998  0.2324789800000033
  0.6553127399999994  0.1248199799999981  0.3162624699999981
  0.4999959100000027  0.1248897199999988  0.3031541499999975
  0.8446775399999993  0.1248349600000012  0.3162667699999986
  0.9007864000000012  0.1246874699999978  0.4019571600000020
  0.7500136399999988  0.1248787399999998  0.3898327100000003
  0.5992399000000006  0.1247017700000015  0.4019581299999970
  0.6484954299999970  0.1213981000000004  0.4885447400000018
  0.5000010700000033  0.1243772199999995  0.4732680700000031
  0.8516043799999977  0.1214356600000031  0.4885465500000024
  0.9049038100000004  0.1287166600000020  0.5711446700000025
  0.7500069399999987  0.0895364200000017  0.5766442800000036
  0.5950690299999977  0.1287167799999978  0.5711132400000025
  0.9053850600000004  0.1250274599999983  0.2326238599999968
  0.7500113600000020  0.1251208700000035  0.2001500599999986
  0.5946021600000009  0.1250036499999965  0.2326239699999988
  0.6553722600000000  0.2497433500000028  0.3160881200000034
  0.4999866200000014  0.2499087599999967  0.3029294500000006
  0.8446654299999992  0.2497771000000029  0.3161339199999986
  0.9010642200000021  0.2487528899999987  0.4013877000000008
  0.7500285899999994  0.2497567300000014  0.3899933699999991
  0.5990250300000000  0.2486445400000008  0.4012967299999985
  0.6476354999999998  0.2517554900000007  0.4866023100000021
  0.5001217300000036  0.2489103999999998  0.4727527100000017
  0.8524543699999967  0.2516510600000004  0.4865505300000024
  0.8979022799999967  0.2520583599999995  0.5650031300000009
  0.7500857300000021  0.1887161100000014  0.5116311199999970
  0.6015979299999969  0.2519611000000026  0.5648792699999987
  0.9053122600000023  0.2500403800000015  0.2326226400000024
  0.7500275100000025  0.2497850099999965  0.1993319299999996
  0.5946721600000018  0.2500014399999984  0.2325865500000006
  0.6557170499999998  0.3752468500000035  0.3164102599999978
  0.4999920799999984  0.3750146200000017  0.3030430100000032
  0.8443963499999967  0.3752605399999993  0.3165285800000035
  0.9012187399999974  0.3751346199999972  0.4013616100000021
  0.7500865299999973  0.3751669399999997  0.3912937200000002
  0.5989597100000026  0.3750815699999990  0.4010809600000016
  0.6468714700000007  0.3697844499999974  0.4846585100000027
  0.4999580499999965  0.3759479300000024  0.4740896899999996
  0.8529887799999969  0.3698264399999971  0.4849280700000023
  0.8928332200000000  0.3859437600000035  0.5632658299999989
  0.7494288099999977  0.4323027300000035  0.5185592500000027
  0.6051444499999974  0.3850911899999971  0.5634392999999989
  0.9053266900000025  0.3751990000000021  0.2328722700000014
  0.7500227700000011  0.3753905499999988  0.1987947100000014
  0.5947066700000008  0.3751699399999993  0.2327908099999974
  0.6551843000000019  0.9999919500000019  0.3161630700000018
  0.4999877400000017  0.0000037300000031  0.3027969299999995
  0.8448011500000021  0.0000000599999979  0.3161679000000035
  0.9012104700000023  0.9999864600000024  0.4016712900000030
  0.7499921499999971  0.9999875199999977  0.3901383500000009
  0.5987594200000004  0.0000137099999975  0.4016725800000032
  0.6446548999999990  0.0000070399999998  0.4874514600000026
  0.4999823500000034  0.0000043000000005  0.4743755900000011
  0.8553398500000000  0.0000286399999965  0.4874572499999985
  0.9033754700000003  0.9999762099999998  0.5733125400000034
  0.7500106399999993  0.9999453000000003  0.5348708499999972
  0.5966547599999998  0.0000220800000008  0.5732936699999982
  0.9052916500000023  0.4999945499999967  0.2333157799999981
  0.7500173800000027  0.5000047999999992  0.2018509299999991
  0.5947844800000013  0.4999928599999990  0.2332134899999971
  0.6557031899999970  0.6247430000000023  0.3164470399999999
  0.5000057199999972  0.6250093700000008  0.3030178400000025
  0.8443741999999972  0.6247399700000003  0.3165347799999978
  0.9010747000000023  0.6249161699999988  0.4013856400000009
  0.7499962699999969  0.6247732699999986  0.3913633200000035
  0.5990136899999996  0.6249073500000009  0.4012235499999974
  0.6468009600000002  0.6301823000000013  0.4850532099999967
  0.5000729300000017  0.6240963699999966  0.4740134500000011
  0.8524160199999997  0.6301962900000007  0.4848703400000005
  0.8942386299999967  0.6133671099999987  0.5628215500000024
  0.7492047200000016  0.5668275499999993  0.5184504899999993
  0.6050906899999973  0.6147478099999972  0.5639625100000032
  0.9053126399999982  0.6247934299999969  0.2328636399999979
  0.7500138300000003  0.6246017599999973  0.1988551600000008
  0.5947456500000001  0.6248253600000027  0.2328096900000034
  0.6553514900000010  0.7502331100000035  0.3161044000000004
  0.4999994000000001  0.7501148999999998  0.3029028799999978
  0.8446519199999969  0.7502040399999998  0.3161291500000019
  0.9009146400000034  0.7512323099999989  0.4014040300000019
  0.7499636300000034  0.7502199300000001  0.3899638700000025
  0.5990416400000029  0.7512518799999981  0.4013716600000024
  0.6474836699999997  0.7482982399999969  0.4866408399999997
  0.4999337799999992  0.7511442300000013  0.4726769299999987
  0.8521799999999971  0.7484014400000021  0.4865264800000020
  0.8986183700000012  0.7475816199999983  0.5648112599999990
  0.7497870600000027  0.8112386199999975  0.5115828899999997
  0.6014012899999983  0.7481168699999969  0.5649277899999987
  0.9053160099999999  0.7499631100000030  0.2325927899999982
  0.7500080800000006  0.7502049100000008  0.1992764100000031
  0.5946935699999969  0.7500018100000005  0.2325898200000012
  0.6553042700000020  0.8751853600000032  0.3162593699999974
  0.4999921699999987  0.8751205599999992  0.3031406400000023
  0.8446728300000004  0.8751788200000021  0.3162625399999968
  0.9007240600000017  0.8753283400000029  0.4019723600000020
  0.7499705899999967  0.8751214300000001  0.3898443699999987
  0.5992102800000012  0.8753024100000033  0.4019701900000001
  0.6483601500000020  0.8786014300000033  0.4885503000000000
  0.4999648499999978  0.8756463699999983  0.4732459499999990
  0.8515287900000033  0.8785249299999975  0.4885783300000028
  0.9049215799999999  0.8712645800000018  0.5712267999999980
  0.7500148000000024  0.9103975700000007  0.5766819400000003
  0.5951544799999979  0.8713078800000034  0.5712433500000031
  0.9053627999999989  0.8749813100000026  0.2326181399999996
  0.7499983000000014  0.8748748300000031  0.2001512800000000
  0.5946080499999979  0.8750030899999999  0.2326082800000009
  0.6555720200000010  0.4999907500000020  0.3171043099999977
  0.4999913099999986  0.5000076099999973  0.3036366899999976
  0.8445412299999973  0.4999783800000017  0.3172178499999987
  0.9012773299999992  0.5000034700000029  0.4021929999999969
  0.7500890499999997  0.4999494799999979  0.3940089099999966
  0.5990049700000029  0.4999929800000018  0.4019589099999976
  0.6406738599999997  0.4997938200000007  0.4861235899999983
  0.4997765600000008  0.4999688700000036  0.4728738800000016
  0.8584440799999982  0.5001647200000008  0.4860529099999980
  0.9051952200000031  0.5000089400000007  0.5737926600000023
  0.7478157400000001  0.5003710100000021  0.5815940000000026
  0.5956460399999983  0.5023359400000018  0.5742858699999971
  0.3623470100000006  0.1915732300000030  0.5328050399999995
  0.1372017799999981  0.1916797100000025  0.5328335700000011
  0.3763930900000005  0.3178719599999980  0.5346016599999999
  0.1240577700000003  0.3183027999999979  0.5340334400000017
  0.3281140699999980  0.4469688699999992  0.5635563399999981
  0.1772789099999983  0.4469654999999975  0.5623127400000030
  0.3316397999999978  0.5517500099999992  0.5610033199999975
  0.1769109000000029  0.5530400900000032  0.5623076299999994
  0.3754104799999993  0.6826126799999983  0.5338231599999972
  0.1241193299999992  0.6817907800000000  0.5339787500000028
  0.3622775300000001  0.8085209999999989  0.5327917600000021
  0.1376473199999992  0.8083484799999994  0.5327489800000009
  0.8622164300000037  0.1914613799999998  0.5327212299999999
  0.6375526100000002  0.1913918099999989  0.5327735500000017
  0.8750882799999999  0.3180659100000014  0.5344712799999982
  0.6249264599999975  0.3174345099999982  0.5337902600000035
  0.8269369799999993  0.4478808000000001  0.5629730699999982
  0.6679773500000010  0.4488429299999979  0.5609431600000008
  0.8251006099999998  0.5514352900000006  0.5625030599999974
  0.6728433199999984  0.5528478800000016  0.5636743299999978
  0.8751823099999996  0.6818010799999996  0.5343628500000008
  0.6237886999999986  0.6821524799999992  0.5346111599999972
  0.8626747500000036  0.8083903599999971  0.5328396299999980
  0.6375181200000029  0.8085626800000014  0.5327630999999968
  0.0921409999999980  0.4957134499999967  0.6366244399999985
 
  0.00000000E+00  0.00000000E+00  0.00000000E+00
  0.00000000E+00  0.00000000E+00  0.00000000E+00
  0.00000000E+00  0.00000000E+00  0.00000000E+00
  0.00000000E+00  0.00000000E+00  0.00000000E+00
  0.00000000E+00  0.00000000E+00  0.00000000E+00
  0.00000000E+00  0.00000000E+00  0.00000000E+00