Ta  N  W Cu                             
   1.00000000000000     
    18.1096308199999996    0.0000000000000000    0.0000000000000000
     0.0000000000000000   23.3551997799999995    0.0000000000000000
     0.0000000000000000    0.0000000000000000   30.4818171199999988
   Ta   N    W    Cu
   228   240    12    29
Selective dynamics
Direct
  0.0000000000000000  0.0001390252300000  0.1975199400000000   F   F   F
  0.3342412800000000  0.0625524880000000  0.2026450200000000   F   F   F
  0.1657755700000000  0.0626168900000000  0.2027497200000000   F   F   F
  0.2499165800000000  0.1251061200000000  0.2779072400000000   F   F   F
  0.0827778930000000  0.0626426570000000  0.2840939600000000   F   F   F
  0.4170590400000000  0.0625437580000000  0.2839983600000000   F   F   F
  0.0015912212417234  0.1239621092172171  0.3708019765568946   T   T   T
  0.3358123992446297  0.0608762761535069  0.3671446135950315   T   T   T
  0.1641390897099224  0.0603844799667903  0.3670978860507754   T   T   T
  0.2478387590724493  0.1218485205741307  0.4522333060509245   T   T   T
  0.0844617165010961  0.0641663858803174  0.4528415255726534   T   T   T
  0.4197353750835938  0.0632774616355581  0.4573125241487017   T   T   T
  0.9983010672387472  0.1257056425324659  0.5379488492042311   T   T   T
  0.3347358852168438  0.0618727330828500  0.5438011055100168   T   T   T
  0.0000000000000000  0.1251616800000000  0.1975133200000000   F   F   F
  0.3342042900000000  0.1875506100000000  0.2026586200000000   F   F   F
  0.1657719100000000  0.1875901400000000  0.2027378200000000   F   F   F
  0.2499857300000000  0.2501082500000000  0.2779215700000000   F   F   F
  0.0827393900000000  0.1876578300000000  0.2840736900000000   F   F   F
  0.4171118400000000  0.1875393300000000  0.2840150000000000   F   F   F
  0.9961966460676870  0.2503485545577701  0.3716898492961990   T   T   T
  0.3300960645587989  0.1847939959777542  0.3680260978964748   T   T   T
  0.1684983399599525  0.1842470695732048  0.3650276255232455   T   T   T
  0.2435768301262097  0.2513899159601408  0.4536122995429349   T   T   T
  0.0834079546859613  0.1847960268630071  0.4548015316896110   T   T   T
  0.4131559461648536  0.1875259793233447  0.4528446376189622   T   T   T
  0.0018253251422077  0.2477978718612847  0.5413713657352887   T   T   T
  0.3289003610173409  0.1888622968899690  0.5425140091413304   T   T   T
  0.1639701601577713  0.1878389668440307  0.5427074706609237   T   T   T
  0.0000000000000000  0.2501390300000000  0.1975199400000000   F   F   F
  0.3342412800000000  0.3125524900000000  0.2026450200000000   F   F   F
  0.1657755700000000  0.3126168900000000  0.2027497200000000   F   F   F
  0.2499165800000000  0.3751061200000000  0.2779072400000000   F   F   F
  0.0827778930000000  0.3126426600000000  0.2840939600000000   F   F   F
  0.4170590400000000  0.3125437600000000  0.2839983600000000   F   F   F
  0.0012380556103741  0.3711051921562312  0.3679160212646784   T   T   T
  0.3325830820302325  0.3115949551466590  0.3677392324868664   T   T   T
  0.1633003864359405  0.3095020858333232  0.3682702568232216   T   T   T
  0.2481937692101234  0.3729820884254751  0.4520435613507147   T   T   T
  0.0843841112289285  0.3128132169045104  0.4527030222399462   T   T   T
  0.4199768692077935  0.3162719364362312  0.4569438406776145   T   T   T
  0.9948142908534774  0.3691542579202429  0.5426880970190470   T   T   T
  0.3321088697663678  0.3154068947929368  0.5430603789952103   T   T   T
  0.0000000000000000  0.3751616800000000  0.1975133200000000   F   F   F
  0.3342042900000000  0.4375506100000000  0.2026586200000000   F   F   F
  0.1657719100000000  0.4375901400000000  0.2027378200000000   F   F   F
  0.2499857300000000  0.0001082500700000  0.2779215700000000   F   F   F
  0.0827393900000000  0.4376578300000000  0.2840736900000000   F   F   F
  0.4171118400000000  0.4375393300000000  0.2840150000000000   F   F   F
  0.9982365578168724  0.0041674834290842  0.3707689339047369   T   T   T
  0.3315127796804421  0.4387007783851980  0.3691475427573196   T   T   T
  0.1663489322236085  0.4379051132816391  0.3676622017060462   T   T   T
  0.2491472123012081  0.0011869115810922  0.4533976963906177   T   T   T
  0.0748425565917937  0.4371597516600138  0.4532819780382648   T   T   T
  0.4167580545040470  0.4377842418237888  0.4550246369373961   T   T   T
  0.9990067135124135  0.9987253935385956  0.5384077050651058   T   T   T
  0.3325826836007894  0.4388443822478157  0.5403870065087036   T   T   T
  0.1572414533459053  0.4399216800980583  0.5458403917869021   T   T   T
  0.0000000000000000  0.5001390300000000  0.1975199400000000   F   F   F
  0.3342412800000000  0.5625524900000000  0.2026450200000000   F   F   F
  0.1657755700000000  0.5626168900000000  0.2027497200000000   F   F   F
  0.2499165800000000  0.6251061200000000  0.2779072400000000   F   F   F
  0.0827778930000000  0.5626426600000000  0.2840939600000000   F   F   F
  0.4170590400000000  0.5625437599999999  0.2839983600000000   F   F   F
  0.0006555175044876  0.6201611346155705  0.3705036758912064   T   T   T
  0.3367040293949649  0.5607635286600869  0.3678250036790548   T   T   T
  0.1671051027915908  0.5620225544144272  0.3668082937110801   T   T   T
  0.2518993326920946  0.6210630395075016  0.4516357368310145   T   T   T
  0.0823890720246346  0.5593322926563929  0.4562401777903556   T   T   T
  0.4110467616712745  0.5627329256728723  0.4532378538494177   T   T   T
  0.0049900463209584  0.6223851367003833  0.5381325300750184   T   T   T
  0.3306575042628705  0.5643305840539288  0.5396283927009219   T   T   T
  0.0000000000000000  0.6251616800000001  0.1975133200000000   F   F   F
  0.3342042900000000  0.6875506100000000  0.2026586200000000   F   F   F
  0.1657719100000000  0.6875901400000000  0.2027378200000000   F   F   F
  0.2499857300000000  0.7501082500000000  0.2779215700000000   F   F   F
  0.0827393900000000  0.6876578300000000  0.2840736900000000   F   F   F
  0.4171118400000000  0.6875393300000000  0.2840150000000000   F   F   F
  0.0016098614228663  0.7468884829900874  0.3716114380285577   T   T   T
  0.3333625839311201  0.6884457515799661  0.3686147711729370   T   T   T
  0.1684594390171151  0.6864132775825413  0.3683024757935723   T   T   T
  0.2492545317917211  0.7489824181129277  0.4536096300259426   T   T   T
  0.0874181866326734  0.6849083834440828  0.4489445909013073   T   T   T
  0.4113913003335953  0.6869118048023281  0.4546105828486590   T   T   T
  0.0018529012093809  0.7482315693427235  0.5379294985566198   T   T   T
  0.3292843794473712  0.6839566896777438  0.5374946051205144   T   T   T
  0.1622310724180427  0.6870006771889936  0.5379996552190640   T   T   T
  0.0000000000000000  0.7501390300000000  0.1975199400000000   F   F   F
  0.3342412800000000  0.8125524900000000  0.2026450200000000   F   F   F
  0.1657755700000000  0.8126168900000000  0.2027497200000000   F   F   F
  0.2499165800000000  0.8751061200000000  0.2779072400000000   F   F   F
  0.0827778930000000  0.8126426600000000  0.2840939600000000   F   F   F
  0.4170590400000000  0.8125437599999999  0.2839983600000000   F   F   F
  0.9952316402278333  0.8770797922430948  0.3714186628477010   T   T   T
  0.3361508882144909  0.8144453326342925  0.3683616975003303   T   T   T
  0.1634879733076013  0.8149377696334489  0.3708842499740519   T   T   T
  0.2477547524929471  0.8793375725766813  0.4567680164248956   T   T   T
  0.0830167182158224  0.8125511761322257  0.4554468558391950   T   T   T
  0.4197004188475270  0.8125275408661470  0.4532267615205939   T   T   T
  0.0048901872231934  0.8739882928311961  0.5419148762691928   T   T   T
  0.3310311335118741  0.8100509664134806  0.5383085203332038   T   T   T
  0.0000000000000000  0.8751616800000001  0.1975133200000000   F   F   F
  0.3342042900000000  0.9375506100000000  0.2026586200000000   F   F   F
  0.1657719100000000  0.9375901400000000  0.2027378200000000   F   F   F
  0.2499857300000000  0.5001082500000000  0.2779215700000000   F   F   F
  0.0827393900000000  0.9376578300000000  0.2840736900000000   F   F   F
  0.4171118400000000  0.9375393300000000  0.2840150000000000   F   F   F
  0.0007036021057584  0.4940535319506903  0.3708866122064997   T   T   T
  0.3332213015557303  0.9365434518511002  0.3703493989500357   T   T   T
  0.1645817295909520  0.9360369208638164  0.3674036424256771   T   T   T
  0.2471605177691857  0.4971849448424546  0.4554362449504900   T   T   T
  0.0871440742130460  0.9354828603041750  0.4560847612241681   T   T   T
  0.4216549332929966  0.9400207577835907  0.4557759094565510   T   T   T
  0.0011423826276549  0.5001165814611930  0.5415775970556825   T   T   T
  0.3310391106189877  0.9371718445298197  0.5414802914533086   T   T   T
  0.1632947440679679  0.9374315388359987  0.5425621600346104   T   T   T
  0.5000000000000000  0.0000124504500000  0.1975155100000000   F   F   F
  0.8342244000000000  0.0626168900000000  0.2027497200000000   F   F   F
  0.6657586900000000  0.0625524880000000  0.2026450200000000   F   F   F
  0.7500834199999999  0.1251061200000000  0.2779072400000000   F   F   F
  0.5829409600000000  0.0625437580000000  0.2839983600000000   F   F   F
  0.9172221100000000  0.0626426570000000  0.2840939600000000   F   F   F
  0.4985557736785691  0.1256102959776311  0.3708797930299153   T   T   T
  0.8341263460989459  0.0609122409379792  0.3697486633858632   T   T   T
  0.6681160832080020  0.0629575793615874  0.3658465730154075   T   T   T
  0.7470016005810796  0.1263437563914635  0.4534770296421388   T   T   T
  0.5792405570441616  0.0610314101423541  0.4525711240885896   T   T   T
  0.9176869792370257  0.0638505564566947  0.4545850552443323   T   T   T
  0.4984271379896209  0.1247694314541394  0.5397648158275899   T   T   T
  0.6605168519228006  0.0614212925361274  0.5420977560901946   T   T   T
  0.5000000000000000  0.1250361000000000  0.1975007800000000   F   F   F
  0.8342280600000000  0.1875901400000000  0.2027378200000000   F   F   F
  0.6657956800000000  0.1875506100000000  0.2026586200000000   F   F   F
  0.7500142700000000  0.2501082500000000  0.2779215700000000   F   F   F
  0.5828881600000000  0.1875393300000000  0.2840150000000000   F   F   F
  0.9172606100000000  0.1876578300000000  0.2840736900000000   F   F   F
  0.4963743584823490  0.2513864312084335  0.3682039862913176   T   T   T
  0.8289063704190482  0.1854405379800149  0.3708595966827761   T   T   T
  0.6676775125133317  0.1893362467926655  0.3658462398356446   T   T   T
  0.7509041109366477  0.2511121006275022  0.4556002227200823   T   T   T
  0.5863977952822611  0.1852523231466618  0.4539179180728596   T   T   T
  0.9161770842414763  0.1851831270719319  0.4553598526944526   T   T   T
  0.8325357248719673  0.1818793743577309  0.5411823754095167   T   T   T
  0.6600881301740331  0.1838291159740233  0.5387659610235115   T   T   T
  0.5000000000000000  0.2500124500000000  0.1975155100000000   F   F   F
  0.8342244000000000  0.3126168900000000  0.2027497200000000   F   F   F
  0.6657586900000000  0.3125524900000000  0.2026450200000000   F   F   F
  0.7500834199999999  0.3751061200000000  0.2779072400000000   F   F   F
  0.5829409600000000  0.3125437600000000  0.2839983600000000   F   F   F
  0.9172221100000000  0.3126426600000000  0.2840939600000000   F   F   F
  0.4936455074516029  0.3719719633506509  0.3709693339794302   T   T   T
  0.8338756247503384  0.3114889360871377  0.3681116089351465   T   T   T
  0.6652997610542247  0.3138390125066994  0.3715538415538818   T   T   T
  0.7553031235301467  0.3743245406688440  0.4537095044373027   T   T   T
  0.5855004947604527  0.3109937925047859  0.4530096970293083   T   T   T
  0.9211634087562199  0.3113624995998858  0.4554453852044412   T   T   T
  0.4997634617529156  0.3786495815353411  0.5371702646708369   T   T   T
  0.6728717539691558  0.3097646073754626  0.5384050643550665   T   T   T
  0.5000000000000000  0.3750361000000000  0.1975007800000000   F   F   F
  0.8342280600000000  0.4375901400000000  0.2027378200000000   F   F   F
  0.6657956800000000  0.4375506100000000  0.2026586200000000   F   F   F
  0.7500142700000000  0.0001082500700000  0.2779215700000000   F   F   F
  0.5828881600000000  0.4375393300000000  0.2840150000000000   F   F   F
  0.9172606100000000  0.4376578300000000  0.2840736900000000   F   F   F
  0.4905901565922396  0.0021723443793908  0.3698075686135012   T   T   T
  0.8350336402832469  0.4390482118424242  0.3692890783446673   T   T   T
  0.6662833053328839  0.4353916232179240  0.3669556095600370   T   T   T
  0.7479803890361078  0.0024399656396812  0.4560620417757292   T   T   T
  0.5853092707553417  0.4354063589223595  0.4526787475169934   T   T   T
  0.9153777431887723  0.4326749902847099  0.4597404569306993   T   T   T
  0.8431007332390572  0.4357813283424790  0.5465596379876240   T   T   T
  0.6707307302440345  0.4353840418839467  0.5355586918136858   T   T   T
  0.5000000000000000  0.5000124500000001  0.1975155100000000   F   F   F
  0.8342244000000000  0.5626168900000000  0.2027497200000000   F   F   F
  0.6657586900000000  0.5625524900000000  0.2026450200000000   F   F   F
  0.7500834199999999  0.6251061200000000  0.2779072400000000   F   F   F
  0.5829409600000000  0.5625437599999999  0.2839983600000000   F   F   F
  0.9172221100000000  0.5626426600000000  0.2840939600000000   F   F   F
  0.4995995750671271  0.6260207504698301  0.3687648027733048   T   T   T
  0.8277102281339065  0.5594404873024312  0.3699485809657331   T   T   T
  0.6694122643204913  0.5604763639736109  0.3679678614273283   T   T   T
  0.7551057043168397  0.6193482155361513  0.4556743488555556   T   T   T
  0.5866471267761503  0.5616434604245758  0.4534830558602963   T   T   T
  0.9127036157077606  0.5611973513707824  0.4538805638332914   T   T   T
  0.5003628327819407  0.6320448431882412  0.5396575885947308   T   T   T
  0.6714306128116618  0.5600908112454022  0.5355652991896861   T   T   T
  0.5000000000000000  0.6250361000000000  0.1975007800000000   F   F   F
  0.8342280600000000  0.6875901400000000  0.2027378200000000   F   F   F
  0.6657956800000000  0.6875506100000000  0.2026586200000000   F   F   F
  0.7500142700000000  0.7501082500000000  0.2779215700000000   F   F   F
  0.5828881600000000  0.6875393300000000  0.2840150000000000   F   F   F
  0.9172606100000000  0.6876578300000000  0.2840736900000000   F   F   F
  0.5028447578883756  0.7473422215418981  0.3716003566210230   T   T   T
  0.8324469877410590  0.6826636705835962  0.3686258011928627   T   T   T
  0.6668363732473102  0.6857742652820754  0.3701678874176950   T   T   T
  0.7528313027911616  0.7492331406798936  0.4562660289267834   T   T   T
  0.5805172818015226  0.6831089501261760  0.4544690804369325   T   T   T
  0.9195776885161538  0.6881138103504131  0.4513153659879007   T   T   T
  0.8395605312980713  0.6905631763233379  0.5391178274607435   T   T   T
  0.6748799702233433  0.6861949310111782  0.5415940457535460   T   T   T
  0.5000000000000000  0.7500124500000001  0.1975155100000000   F   F   F
  0.8342244000000000  0.8126168900000000  0.2027497200000000   F   F   F
  0.6657586900000000  0.8125524900000000  0.2026450200000000   F   F   F
  0.7500834199999999  0.8751061200000000  0.2779072400000000   F   F   F
  0.5829409600000000  0.8125437599999999  0.2839983600000000   F   F   F
  0.9172221100000000  0.8126426600000000  0.2840939600000000   F   F   F
  0.5051331659742130  0.8773658517945135  0.3691043496059548   T   T   T
  0.8298785925964780  0.8116103254758871  0.3689112661861163   T   T   T
  0.6705989649778156  0.8108664728843522  0.3673530280519758   T   T   T
  0.7502194917752142  0.8741977511861345  0.4546781215001978   T   T   T
  0.5881068798769155  0.8150006776668274  0.4537849017651112   T   T   T
  0.9147560987384405  0.8104833753183058  0.4567270752233147   T   T   T
  0.5008111122790575  0.8731930657625627  0.5424911735959993   T   T   T
  0.6698901425901127  0.8133436847734559  0.5374983075897611   T   T   T
  0.5000000000000000  0.8750361000000000  0.1975007800000000   F   F   F
  0.8342280600000000  0.9375901400000000  0.2027378200000000   F   F   F
  0.6657956800000000  0.9375506100000000  0.2026586200000000   F   F   F
  0.7500142700000000  0.5001082500000000  0.2779215700000000   F   F   F
  0.5828881600000000  0.9375393300000000  0.2840150000000000   F   F   F
  0.9172606100000000  0.9376578300000000  0.2840736900000000   F   F   F
  0.4981210298560912  0.5013262112122886  0.3679409513878576   T   T   T
  0.8305091680361643  0.9360093311549030  0.3690697830572690   T   T   T
  0.6675436677242657  0.9381025848192507  0.3681954140264511   T   T   T
  0.7536848191527866  0.4963732251755221  0.4552545099204808   T   T   T
  0.5828188523824667  0.9392086640545720  0.4550314557332445   T   T   T
  0.9144018493202625  0.9377340398831464  0.4527145172577931   T   T   T
  0.8381255080794594  0.9362240951160726  0.5407413615433115   T   T   T
  0.6623139863407183  0.9387259428249227  0.5401565423328559   T   T   T
  0.4055527200000000  0.0000176674110000  0.2322994800000000   F   F   F
  0.2499761000000000  0.0000817538890000  0.1993901200000000   F   F   F
  0.0943479460000000  0.0001388777200000  0.2323544100000000   F   F   F
  0.1550166300000000  0.1251879700000000  0.3158142600000000   F   F   F
  0.0000000000000000  0.1251347500000000  0.3031760000000000   F   F   F
  0.3449847900000000  0.1250905600000000  0.3157902000000000   F   F   F
  0.3995040707785122  0.1245705052705731  0.4016807677356002   T   T   T
  0.2503982236954760  0.1229983136467683  0.3856481635212083   T   T   T
  0.0964922076875697  0.1259526430432480  0.3985209060744306   T   T   T
  0.1520622375983817  0.1254961875663675  0.4896060149002620   T   T   T
  0.0000325577272358  0.1234124878292578  0.4691376962688996   T   T   T
  0.3459466119137620  0.1269347255028441  0.4867372168345573   T   T   T
  0.3989648364432796  0.1265707193791504  0.5745869541071671   T   T   T
  0.2417886554935393  0.1240189447535270  0.5571562511826667   T   T   T
  0.0935409819160577  0.1273580467574587  0.5695450476294035   T   T   T
  0.4055647800000000  0.1250478600000000  0.2322778600000000   F   F   F
  0.2499963900000000  0.1250700400000000  0.1993201600000000   F   F   F
  0.0943339330000000  0.1251306900000000  0.2323645300000000   F   F   F
  0.1549875400000000  0.2501089900000000  0.3157839700000000   F   F   F
  0.0000000000000000  0.2501635000000000  0.3031695800000000   F   F   F
  0.3449474300000000  0.2500679500000000  0.3158140000000000   F   F   F
  0.4026574315968245  0.2461805756131140  0.3993851020978977   T   T   T
  0.2441768123123859  0.2504884462100589  0.3874960130409686   T   T   T
  0.0921129176419581  0.2478724843581603  0.4025063343350459   T   T   T
  0.1539766646988473  0.2568446719892650  0.4911496092115732   T   T   T
  0.0018015024806165  0.2476861239230225  0.4733567894370043   T   T   T
  0.3443911716293487  0.2493801378270372  0.4929142881950713   T   T   T
  0.3974815739700847  0.2512871195561752  0.5725596151366309   T   T   T
  0.2492783589923698  0.2500230146582075  0.5693088732057010   T   T   T
  0.0995585142609961  0.2528098653123187  0.5721715001856388   T   T   T
  0.4055527200000000  0.2500176700000000  0.2322994800000000   F   F   F
  0.2499761000000000  0.2500817500000000  0.1993901200000000   F   F   F
  0.0943479460000000  0.2501388800000000  0.2323544100000000   F   F   F
  0.1550166300000000  0.3751879700000000  0.3158142600000000   F   F   F
  0.0000000000000000  0.3751347500000000  0.3031760000000000   F   F   F
  0.3449847900000000  0.3750905600000000  0.3157902000000000   F   F   F
  0.3959028516979908  0.3719302206079406  0.4050102674720839   T   T   T
  0.2472350633104777  0.3742269906388627  0.3856800926795320   T   T   T
  0.1019824013036721  0.3741593148446309  0.4043309436133555   T   T   T
  0.1543838937270895  0.3758447654623306  0.4894642843508204   T   T   T
  0.9968003548670614  0.3742441486504834  0.4761373725647780   T   T   T
  0.3482011129805017  0.3759294276138523  0.4907972576629623   T   T   T
  0.4026162470983630  0.3789510603359273  0.5698565545431870   T   T   T
  0.2496092256970004  0.3821126191366401  0.5626226032791868   T   T   T
  0.0921804863056481  0.3775179916456147  0.5742311233644390   T   T   T
  0.4055647800000000  0.3750478600000000  0.2322778600000000   F   F   F
  0.2499963900000000  0.3750700400000000  0.1993201600000000   F   F   F
  0.0943339330000000  0.3751306900000000  0.2323645300000000   F   F   F
  0.1549875400000000  0.0001089895300000  0.3157839700000000   F   F   F
  0.0000000000000000  0.0001634983200000  0.3031695800000000   F   F   F
  0.3449474300000000  0.0000679478090000  0.3158140000000000   F   F   F
  0.4005891428088099  0.9956969687818220  0.4049773811714177   T   T   T
  0.2547699607461001  0.9966299301529586  0.3852465174217256   T   T   T
  0.0973889358077792  0.9968500184699988  0.4024194667365958   T   T   T
  0.1529024625715881  0.0024850309344959  0.4855450560387463   T   T   T
  0.0016556838062009  0.0001308197935367  0.4718430436281522   T   T   T
  0.3485105551942447  0.9998544637041188  0.4902784301476202   T   T   T
  0.3987053023901691  0.9973215295012572  0.5763517625181990   T   T   T
  0.2481140747967488  0.9999971136781141  0.5561780387757473   T   T   T
  0.0984262929157270  0.0023866964712882  0.5682366904070653   T   T   T
  0.4055527200000000  0.5000176700000000  0.2322994800000000   F   F   F
  0.2499761000000000  0.5000817500000000  0.1993901200000000   F   F   F
  0.0943479460000000  0.5001388800000000  0.2323544100000000   F   F   F
  0.1550166300000000  0.6251879700000000  0.3158142600000000   F   F   F
  0.0000000000000000  0.6251347500000000  0.3031760000000000   F   F   F
  0.3449847900000000  0.6250905600000000  0.3157902000000000   F   F   F
  0.4008531961824516  0.6256266399260256  0.3993014876970051   T   T   T
  0.2538312199960214  0.6204316811935777  0.3856505871548063   T   T   T
  0.1036016175854896  0.6202258304390796  0.4053250643075613   T   T   T
  0.1553819373405697  0.6207823835181916  0.4874649013931794   T   T   T
  0.0005794769315651  0.6197487362816865  0.4714776383531585   T   T   T
  0.3441869030272900  0.6253293678705351  0.4873181602338988   T   T   T
  0.3988710205068517  0.6243518612159648  0.5685839125112265   T   T   T
  0.2457697703222690  0.6239483755316552  0.5527978660485695   T   T   T
  0.1007902138251463  0.6220866149534947  0.5713194129960784   T   T   T
  0.4055647800000000  0.6250478600000000  0.2322778600000000   F   F   F
  0.2499963900000000  0.6250700400000000  0.1993201600000000   F   F   F
  0.0943339330000000  0.6251306900000000  0.2323645300000000   F   F   F
  0.1549875400000000  0.7501089900000000  0.3157839700000000   F   F   F
  0.0000000000000000  0.7501635000000000  0.3031695800000000   F   F   F
  0.3449474300000000  0.7500679500000000  0.3158140000000000   F   F   F
  0.4054602576387972  0.7477533588336790  0.4035438568753740   T   T   T
  0.2491221367601714  0.7529255528319713  0.3866438973388973   T   T   T
  0.1006610731843814  0.7500270871670243  0.4039377784442595   T   T   T
  0.1565493918555504  0.7455615939841345  0.4868265672611466   T   T   T
  0.0021349938670211  0.7522786235585323  0.4706780245199816   T   T   T
  0.3469075276659154  0.7513967456147824  0.4864283622745444   T   T   T
  0.4008850550173516  0.7424670305079759  0.5726023274526091   T   T   T
  0.2441485700071990  0.7524039929456927  0.5577908392044589   T   T   T
  0.0958304532009634  0.7528877243810026  0.5657885611529739   T   T   T
  0.4055527200000000  0.7500176700000000  0.2322994800000000   F   F   F
  0.2499761000000000  0.7500817500000000  0.1993901200000000   F   F   F
  0.0943479460000000  0.7501388800000000  0.2323544100000000   F   F   F
  0.1550166300000000  0.8751879700000000  0.3158142600000000   F   F   F
  0.0000000000000000  0.8751347500000000  0.3031760000000000   F   F   F
  0.3449847900000000  0.8750905600000000  0.3157902000000000   F   F   F
  0.3994017050975868  0.8770804752933862  0.4035254533003775   T   T   T
  0.2474859232415208  0.8749811323413134  0.3859627982063094   T   T   T
  0.0948538956209935  0.8741604759800080  0.4007460929618736   T   T   T
  0.1517976822928795  0.8749570196204581  0.4879211743600070   T   T   T
  0.9987570578342192  0.8746023650617226  0.4731281224901666   T   T   T
  0.3508707540997480  0.8767351405411868  0.4879899385054547   T   T   T
  0.4028781660615791  0.8724353880286060  0.5714699999871653   T   T   T
  0.2492631956640737  0.8713301513468342  0.5574978379123233   T   T   T
  0.1013003328429494  0.8718165605568141  0.5717690635988539   T   T   T
  0.4055647800000000  0.8750478600000000  0.2322778600000000   F   F   F
  0.2499963900000000  0.8750700400000000  0.1993201600000000   F   F   F
  0.0943339330000000  0.8751306900000000  0.2323645300000000   F   F   F
  0.1549875400000000  0.5001089900000000  0.3157839700000000   F   F   F
  0.0000000000000000  0.5001635000000000  0.3031695800000000   F   F   F
  0.3449474300000000  0.5000679500000000  0.3158140000000000   F   F   F
  0.4005661212715089  0.4967955932012801  0.4026578732281053   T   T   T
  0.2520121541399423  0.4989513348354483  0.3891371106666587   T   T   T
  0.1009411156844741  0.5015761159970780  0.4025417639795908   T   T   T
  0.1464879395120747  0.4980929267597702  0.4888759448734451   T   T   T
  0.9952165707428369  0.4963213302090931  0.4724689495382137   T   T   T
  0.3476632297323959  0.4994180090582959  0.4879043950003021   T   T   T
  0.4040894236667685  0.5042404881359471  0.5653773901105330   T   T   T
  0.2447575023688953  0.5052820829227026  0.5612054082889374   T   T   T
  0.0943259951386036  0.5024608379159321  0.5744584129449507   T   T   T
  0.9056520500000000  0.0001388777200000  0.2323544100000000   F   F   F
  0.7500239000000000  0.0000817538890000  0.1993901200000000   F   F   F
  0.5944472800000000  0.0000176674110000  0.2322994800000000   F   F   F
  0.6550152100000000  0.1250905600000000  0.3157902000000000   F   F   F
  0.5000000000000000  0.1250205500000000  0.3029941100000000   F   F   F
  0.8449833700000000  0.1251879700000000  0.3158142600000000   F   F   F
  0.9042556256030886  0.1226788442897439  0.4034806875205929   T   T   T
  0.7481406466140614  0.1288149346993385  0.3870438792595752   T   T   T
  0.5956966266002670  0.1247884240932535  0.4013069032417012   T   T   T
  0.6489107195400151  0.1191855526606432  0.4855860633480679   T   T   T
  0.4975398128666081  0.1280385880191164  0.4713149617179238   T   T   T
  0.8463439115905377  0.1232632304061999  0.4884336889403067   T   T   T
  0.9036295283744510  0.1207824335620976  0.5716270030138875   T   T   T
  0.7475223092850242  0.1196427752996322  0.5582753013406714   T   T   T
  0.5952555884734825  0.1255450683153513  0.5713555110249692   T   T   T
  0.9056660700000000  0.1251306900000000  0.2323645300000000   F   F   F
  0.7500036100000000  0.1250700400000000  0.1993201600000000   F   F   F
  0.5944352200000000  0.1250478600000000  0.2322778600000000   F   F   F
  0.6550525699999999  0.2500679500000000  0.3158140000000000   F   F   F
  0.5000000000000000  0.2500500500000000  0.3029755800000000   F   F   F
  0.8450124600000000  0.2501089900000000  0.3157839700000000   F   F   F
  0.8974116858750406  0.2440382101348225  0.4032575118280997   T   T   T
  0.7494358045304559  0.2501325119313899  0.3871118833487965   T   T   T
  0.6009429853937156  0.2490416460251840  0.4020615306884212   T   T   T
  0.6525677656380147  0.2496949476691733  0.4872958995058982   T   T   T
  0.4973195573830713  0.2511272203309604  0.4711185055340320   T   T   T
  0.8484486880645878  0.2441101177138938  0.4860406905015333   T   T   T
  0.8972524595445658  0.2375956490799868  0.5671869169818731   T   T   T
  0.7428596621002105  0.2496797067844425  0.5631857349672600   T   T   T
  0.5884506561636329  0.2524215874608849  0.5708649924685013   T   T   T
  0.9056520500000000  0.2501388800000000  0.2323544100000000   F   F   F
  0.7500239000000000  0.2500817500000000  0.1993901200000000   F   F   F
  0.5944472800000000  0.2500176700000000  0.2322994800000000   F   F   F
  0.6550152100000000  0.3750905600000000  0.3157902000000000   F   F   F
  0.5000000000000000  0.3750205500000000  0.3029941100000000   F   F   F
  0.8449833700000000  0.3751879700000000  0.3158142600000000   F   F   F
  0.9032382400803041  0.3731662900676480  0.4030282672986711   T   T   T
  0.7510606414853964  0.3728503069169740  0.3884092326701524   T   T   T
  0.5953829639214775  0.3734921847101155  0.4006882596010903   T   T   T
  0.6594061266814287  0.3692313712273318  0.4863332140801339   T   T   T
  0.5047954951750216  0.3731224872222822  0.4674227332503521   T   T   T
  0.8485742390246451  0.3643917054006033  0.4889944010745423   T   T   T
  0.9003824946389707  0.3648827261997483  0.5762607197212130   T   T   T
  0.7534099341071583  0.3698051911593060  0.5593120572484280   T   T   T
  0.5981163911885704  0.3700052433454008  0.5661548838329856   T   T   T
  0.9056660700000000  0.3751306900000000  0.2323645300000000   F   F   F
  0.7500036100000000  0.3750700400000000  0.1993201600000000   F   F   F
  0.5944352200000000  0.3750478600000000  0.2322778600000000   F   F   F
  0.6550525699999999  0.0000679478090000  0.3158140000000000   F   F   F
  0.5000000000000000  0.0000500498270000  0.3029755800000000   F   F   F
  0.8450124600000000  0.0001089895300000  0.3157839700000000   F   F   F
  0.9002491893225351  0.0017144053740684  0.4037513253696622   T   T   T
  0.7469028807718825  0.0011827909741492  0.3886070317912848   T   T   T
  0.5984983804970702  0.9987609966691362  0.3987274675981950   T   T   T
  0.6462715659703289  0.0037870269568762  0.4867254919221594   T   T   T
  0.4990792225599078  0.0006206198153439  0.4776001595657095   T   T   T
  0.8481123566855837  0.9991563991846890  0.4868418891544154   T   T   T
  0.9035090865247576  0.9985197879396612  0.5684937308934099   T   T   T