Mo  S Cu                                
   1.00000000000000     
    15.9214998300000001    0.0000000000000000    0.0000000000000000
    -7.9622501300000001   13.7910221699999997    0.0000000000000000
     0.0000000000000000    0.0000000000000000   13.5821998300000004
   Mo   S    Cu
    25    50     3
Direct
  0.1316363617175043  0.0656018880005860  0.6783210694851505
  0.1325781734469302  0.2649173357550936  0.6826691777855771
  0.1324901779287160  0.4654812995779452  0.6812273780234719
  0.1325429116998791  0.6657354907063535  0.6778783822097196
  0.1327415324017451  0.8660441692494132  0.6767400554235650
  0.3324228471394335  0.0651658100694448  0.6794620638676321
  0.3340240384904050  0.2656552811572084  0.6824350947640951
  0.3336675723490856  0.4660201802830315  0.6806482166498284
  0.3327058626312507  0.6657436927008504  0.6778608582964338
  0.3325404268292047  0.8655707884584629  0.6773859781746978
  0.5322384107267553  0.0651684390203684  0.6793962522813430
  0.5326339168162590  0.2658670047133498  0.6810206129681973
  0.5351273646914549  0.4689057244619264  0.6734825262245394
  0.5331046569222053  0.6670280408446843  0.6751814873603053
  0.5328100407626266  0.8660437527389604  0.6767180964389468
  0.7334775371663298  0.0656037192899674  0.6783560315317203
  0.7311180210054644  0.2656045053987484  0.6824731604024521
  0.7332526707468503  0.4688673663417617  0.6736572439968711
  0.7337887695249421  0.6680533925409335  0.6730622312098049
  0.7329393238974973  0.8663940498240450  0.6752962205803570
  0.9327251012304387  0.0659431643381581  0.6788247390044191
  0.9318520638780186  0.2649155355515660  0.6826645869832646
  0.9318551804489630  0.4660153322337450  0.6806755754499321
  0.9334138120518034  0.6670049242245426  0.6752383581378183
  0.9329794134476543  0.8663902892858104  0.6753150694808525
  0.0666673632534582  0.1341847393832154  0.5647624708630445
  0.0644679913203774  0.1302442979030616  0.7957234024086901
  0.0654081420632835  0.3313052421321956  0.5676603585747628
  0.0660325937870780  0.3325514824066929  0.7971365998471640
  0.0650074693459501  0.5305815270199403  0.5651585835542434
  0.0661054066189948  0.5337791056814325  0.7948806091388292
  0.0673228547670561  0.7328850448037585  0.5612836877043534
  0.0654753825229832  0.7328854433308081  0.7917437517662478
  0.0672215384821158  0.9341461698512532  0.5614684643947641
  0.0645812314856400  0.9310635845607749  0.7920111651356194
  0.2670169224251779  0.1339639789311065  0.5658379759217240
  0.2631428891500107  0.1272808405044827  0.7981633831091131
  0.2662298994372634  0.3311613174086006  0.5681184333965774
  0.2671615969491441  0.3332551888123660  0.8002799450538234
  0.2650734459254522  0.5305859592402413  0.5651483500483181
  0.2671934069166966  0.5337852669040970  0.7948611673852497
  0.2656865568505538  0.7318696526230539  0.5625270195783045
  0.2660300406835105  0.7325319364296590  0.7926417337938858
  0.2667756257149989  0.9335533126638396  0.5624848537946079
  0.2647484145638828  0.9302347755409386  0.7932825404401029
  0.4663840413834066  0.1332968825425098  0.5649112402103569
  0.4642939910875796  0.1291130721885807  0.7978626800121305
  0.4652042243779420  0.3308159118642280  0.5646456685908063
  0.4723982016848609  0.3399062617354858  0.7975067584781357
  0.4642227848459584  0.5324307752757207  0.5613416347993763
  0.4695150943851090  0.5353519107114977  0.7917141465837148
  0.4650667734776093  0.7329016623356210  0.5612470335630206
  0.4669310863020044  0.7328914537267934  0.7917218761566787
  0.4662791094581209  0.9335457014202149  0.5624600782062785
  0.4650137960202727  0.9302525622594757  0.7932528567345898
  0.6664666158925172  0.1339584940581275  0.5658382313568069
  0.6636078862554555  0.1272185993371338  0.7981680389982770
  0.6651058242153098  0.3308173044954685  0.5647653406279147
  0.6668371134470945  0.3397758425633484  0.7977333972514131
  0.6670236085776295  0.5344443011832780  0.5576166160248448
  0.6682331750304584  0.5370325196618779  0.7895316435601174
  0.6658606833174616  0.7340841774783016  0.5589611929961507
  0.6668625385598972  0.7331848542910322  0.7895579403961221
  0.6664522914135631  0.9341595191319598  0.5614632282117782
  0.6659945811441901  0.9310410639987978  0.7919910041610478
  0.8670226964617669  0.1341818110390562  0.5647612438934857
  0.8652979083128685  0.1302514950766920  0.7957256152279086
  0.8644086060462612  0.3311464321638198  0.5681274963771230
  0.8656284823611884  0.3332459710977247  0.8002776697123579
  0.8676580905014220  0.5323876548224149  0.5614205339853484
  0.8653486714546759  0.5353269626052892  0.7917769098863232
  0.8677673196522164  0.7340786682210521  0.5589837100267445
  0.8658273094673135  0.7331845155066361  0.7895878766387199
  0.8670889039119913  0.9346290166822371  0.5611465263457944
  0.8653000097840220  0.9310851041384396  0.7914531504671700
  0.3470065065411347  0.2568507585363591  0.8979107398728416
  0.5281833192070451  0.2579534975908970  0.9062065620922581
  0.7097851805070832  0.2569385634712660  0.8976236802872890
 
  0.00000000E+00  0.00000000E+00  0.00000000E+00
  0.00000000E+00  0.00000000E+00  0.00000000E+00
  0.00000000E+00  0.00000000E+00  0.00000000E+00
  0.00000000E+00  0.00000000E+00  0.00000000E+00
  0.00000000E+00  0.00000000E+00  0.00000000E+00
  0.00000000E+00  0.00000000E+00  0.00000000E+00
  0.00000000E+00  0.00000000E+00  0.00000000E+00
  0.00000000E+00  0.00000000E+00  0.00000000E+00
  0.00000000E+00  0.00000000E+00  0.00000000E+00
  0.00000000E+00  0.00000000E+00  0.00000000E+00
  0.00000000E+00  0.00000000E+00  0.00000000E+00
  0.00000000E+00  0.00000000E+00  0.00000000E+00
  0.00000000E+00  0.00000000E+00  0.00000000E+00
  0.00000000E+00  0.00000000E+00  0.00000000E+00
  0.00000000E+00  0.00000000E+00  0.00000000E+00
  0.00000000E+00  0.00000000E+00  0.00000000E+00
  0.00000000E+00  0.00000000E+00  0.00000000E+00
  0.00000000E+00  0.00000000E+00  0.00000000E+00
  0.00000000E+00  0.00000000E+00  0.00000000E+00
  0.00000000E+00  0.00000000E+00  0.00000000E+00
  0.00000000E+00  0.00000000E+00  0.00000000E+00
  0.00000000E+00  0.00000000E+00  0.00000000E+00
  0.00000000E+00  0.00000000E+00  0.00000000E+00
  0.00000000E+00  0.00000000E+00  0.00000000E+00
  0.00000000E+00  0.00000000E+00  0.00000000E+00
  0.00000000E+00  0.00000000E+00  0.00000000E+00
  0.00000000E+00  0.00000000E+00  0.00000000E+00
  0.00000000E+00  0.00000000E+00  0.00000000E+00
  0.00000000E+00  0.00000000E+00  0.00000000E+00
  0.00000000E+00  0.00000000E+00  0.00000000E+00
  0.00000000E+00  0.00000000E+00  0.00000000E+00
  0.00000000E+00  0.00000000E+00  0.00000000E+00
  0.00000000E+00  0.00000000E+00  0.00000000E+00
  0.00000000E+00  0.00000000E+00  0.00000000E+00
  0.00000000E+00  0.00000000E+00  0.00000000E+00
  0.00000000E+00  0.00000000E+00  0.00000000E+00
  0.00000000E+00  0.00000000E+00  0.00000000E+00
  0.00000000E+00  0.00000000E+00  0.00000000E+00
  0.00000000E+00  0.00000000E+00  0.00000000E+00
  0.00000000E+00  0.00000000E+00  0.00000000E+00
  0.00000000E+00  0.00000000E+00  0.00000000E+00
  0.00000000E+00  0.00000000E+00  0.00000000E+00
  0.00000000E+00  0.00000000E+00  0.00000000E+00
  0.00000000E+00  0.00000000E+00  0.00000000E+00
  0.00000000E+00  0.00000000E+00  0.00000000E+00
  0.00000000E+00  0.00000000E+00  0.00000000E+00
  0.00000000E+00  0.00000000E+00  0.00000000E+00
  0.00000000E+00  0.00000000E+00  0.00000000E+00
  0.00000000E+00  0.00000000E+00  0.00000000E+00
  0.00000000E+00  0.00000000E+00  0.00000000E+00
  0.00000000E+00  0.00000000E+00  0.00000000E+00
  0.00000000E+00  0.00000000E+00  0.00000000E+00
  0.00000000E+00  0.00000000E+00  0.00000000E+00
  0.00000000E+00  0.00000000E+00  0.00000000E+00
  0.00000000E+00  0.00000000E+00  0.00000000E+00
  0.00000000E+00  0.00000000E+00  0.00000000E+00
  0.00000000E+00  0.00000000E+00  0.00000000E+00
  0.00000000E+00  0.00000000E+00  0.00000000E+00
  0.00000000E+00  0.00000000E+00  0.00000000E+00
  0.00000000E+00  0.00000000E+00  0.00000000E+00
  0.00000000E+00  0.00000000E+00  0.00000000E+00
  0.00000000E+00  0.00000000E+00  0.00000000E+00
  0.00000000E+00  0.00000000E+00  0.00000000E+00
  0.00000000E+00  0.00000000E+00  0.00000000E+00
  0.00000000E+00  0.00000000E+00  0.00000000E+00
  0.00000000E+00  0.00000000E+00  0.00000000E+00
  0.00000000E+00  0.00000000E+00  0.00000000E+00
  0.00000000E+00  0.00000000E+00  0.00000000E+00
  0.00000000E+00  0.00000000E+00  0.00000000E+00
  0.00000000E+00  0.00000000E+00  0.00000000E+00
  0.00000000E+00  0.00000000E+00  0.00000000E+00
  0.00000000E+00  0.00000000E+00  0.00000000E+00
  0.00000000E+00  0.00000000E+00  0.00000000E+00
  0.00000000E+00  0.00000000E+00  0.00000000E+00
  0.00000000E+00  0.00000000E+00  0.00000000E+00
  0.00000000E+00  0.00000000E+00  0.00000000E+00
  0.00000000E+00  0.00000000E+00  0.00000000E+00
  0.00000000E+00  0.00000000E+00  0.00000000E+00
