generated by phonopy                    
   1.00000000000000     
     5.1319845275475311   -0.0003644751788522   -0.0546951632669028
    -2.5663079085377061    4.4442467350954225    0.0546951632669028
    -0.1311999555185888    0.0757483296363242   12.6758813781508497
   B    N    Ga
    14    16     2
Direct
  0.6713654039190177  0.3181609247297276  0.0023631259263193
  0.1818390752702722  0.8286345960809823  0.0023631259263193
  0.6720844612252124  0.8279155387747876 -0.0085213672712457
  0.1720844612252117  0.3279155387747884  0.4914786327287543
  0.6818390752702719  0.3286345960809824  0.5023631259263198
  0.1713654039190176  0.8181609247297281  0.5023631259263198
  0.3279572788686808  0.1720427211313195  0.2560436910399764
  0.8199788207474453  0.1720088733255804  0.2579744147004810
  0.3279911266744195  0.6800211792525547  0.2579744147004810
  0.8249626239926444  0.6750373760073556  0.2571424591216376
  0.3249626239926443  0.1750373760073555  0.7571424591216378
  0.8279911266744199  0.1800211792525546  0.7579744147004812
  0.3199788207474450  0.6720088733255801  0.7579744147004812
  0.8279572788686803  0.6720427211313197  0.7560436910399766
  0.3633580382848700  0.1366419617151303  0.0296137061838647
  0.8168958821214523  0.1472377878068432 -0.0171098538474203
  0.3527622121931569  0.6831041178785477 -0.0171098538474203
  0.8413944109779781  0.6586055890220219  0.0020647547046935
  0.3413944109779773  0.1586055890220223  0.5020647547046934
  0.8527622121931572  0.1831041178785466  0.4828901461525796
  0.3168958821214537  0.6472377878068428  0.4828901461525796
  0.8633580382848702  0.6366419617151298  0.5296137061838648
  0.1578370452989371  0.3421629547010629  0.2439364478952777
  0.6585841876445486  0.3417858740298339  0.2583794776217299
  0.1582141259701660  0.8414158123554514  0.2583794776217299
  0.6584042316660947  0.8415957683339053  0.2553548938818408
  0.1584042316660949  0.3415957683339051  0.7553548938818407
  0.6582141259701660  0.3414158123554517  0.7583794776217293
  0.1585841876445483  0.8417858740298340  0.7583794776217293
  0.6578370452989368  0.8421629547010632  0.7439364478952771
  0.1663710751451046  0.3336289248548956  0.0611510856417362
  0.6663710751451044  0.8336289248548956  0.5611510856417367
 
  0.00000000E+00  0.00000000E+00  0.00000000E+00
  0.00000000E+00  0.00000000E+00  0.00000000E+00
  0.00000000E+00  0.00000000E+00  0.00000000E+00
  0.00000000E+00  0.00000000E+00  0.00000000E+00
  0.00000000E+00  0.00000000E+00  0.00000000E+00
  0.00000000E+00  0.00000000E+00  0.00000000E+00
  0.00000000E+00  0.00000000E+00  0.00000000E+00
  0.00000000E+00  0.00000000E+00  0.00000000E+00
  0.00000000E+00  0.00000000E+00  0.00000000E+00
  0.00000000E+00  0.00000000E+00  0.00000000E+00
  0.00000000E+00  0.00000000E+00  0.00000000E+00
  0.00000000E+00  0.00000000E+00  0.00000000E+00
  0.00000000E+00  0.00000000E+00  0.00000000E+00
  0.00000000E+00  0.00000000E+00  0.00000000E+00
  0.00000000E+00  0.00000000E+00  0.00000000E+00
  0.00000000E+00  0.00000000E+00  0.00000000E+00
  0.00000000E+00  0.00000000E+00  0.00000000E+00
  0.00000000E+00  0.00000000E+00  0.00000000E+00
  0.00000000E+00  0.00000000E+00  0.00000000E+00
  0.00000000E+00  0.00000000E+00  0.00000000E+00
  0.00000000E+00  0.00000000E+00  0.00000000E+00
  0.00000000E+00  0.00000000E+00  0.00000000E+00
  0.00000000E+00  0.00000000E+00  0.00000000E+00
  0.00000000E+00  0.00000000E+00  0.00000000E+00
  0.00000000E+00  0.00000000E+00  0.00000000E+00
  0.00000000E+00  0.00000000E+00  0.00000000E+00
  0.00000000E+00  0.00000000E+00  0.00000000E+00
  0.00000000E+00  0.00000000E+00  0.00000000E+00
  0.00000000E+00  0.00000000E+00  0.00000000E+00
  0.00000000E+00  0.00000000E+00  0.00000000E+00
  0.00000000E+00  0.00000000E+00  0.00000000E+00
  0.00000000E+00  0.00000000E+00  0.00000000E+00
