generated by phonopy
1.0000000000000
     5.1351871023555393    0.0000000000000000    0.0000000000000000
    -2.5675935511777697    4.4472024838260974    0.0000000000000000
     0.0000000000000000    0.0000000000000000   14.2456236032181025
B    N    Ga
14   16   2
Direct
  0.6666666666666679  0.3333333333333321  0.0000000000000000
  0.1666666666666679  0.8333333333333321  0.0000000000000000
  0.6666666666666679  0.8333333333333321  0.0000000000000000
  0.1666666666666679  0.3333333333333321  0.5000000000000000
  0.6666666666666679  0.3333333333333321  0.5000000000000000
  0.1666666666666679  0.8333333333333321  0.5000000000000000
  0.3333333333333321  0.1666666666666679  0.2500000000000000
  0.8333333333333321  0.1666666666666679  0.2500000000000000
  0.3333333333333321  0.6666666666666679  0.2500000000000000
  0.8333333333333321  0.6666666666666679  0.2500000000000000
  0.3333333333333321  0.1666666666666679  0.7500000000000000
  0.8333333333333321  0.1666666666666679  0.7500000000000000
  0.3333333333333321  0.6666666666666679  0.7500000000000000
  0.8333333333333321  0.6666666666666679  0.7500000000000000
  0.3333333333333321  0.1666666666666679  0.0000000000000000
  0.8333333333333321  0.1666666666666679  0.0000000000000000
  0.3333333333333321  0.6666666666666679  0.0000000000000000
  0.8333333333333321  0.6666666666666679  0.0000000000000000
  0.3333333333333321  0.1666666666666679  0.5000000000000000
  0.8333333333333321  0.1666666666666679  0.5000000000000000
  0.3333333333333321  0.6666666666666679  0.5000000000000000
  0.8333333333333321  0.6666666666666679  0.5000000000000000
  0.1666666666666679  0.3333333333333321  0.2500000000000000
  0.6666666666666679  0.3333333333333321  0.2500000000000000
  0.1666666666666679  0.8333333333333321  0.2500000000000000
  0.6666666666666679  0.8333333333333321  0.2500000000000000
  0.1666666666666679  0.3333333333333321  0.7500000000000000
  0.6666666666666679  0.3333333333333321  0.7500000000000000
  0.1666666666666679  0.8333333333333321  0.7500000000000000
  0.6666666666666679  0.8333333333333321  0.7500000000000000
  0.1666666666666679  0.3333333333333321  0.1000000000000000
  0.6666666666666679  0.8333333333333321  0.6000000000000000
