POSCAR                                  
   1.00000000000000     
     6.3903243311169238   -0.0465982443445125    0.0035485456122222
    -3.2359339513484535    5.5157714373735134   -0.0222333879226922
     0.0096340587581447   -0.0412165512412066    9.9689203425447097
   Al   N    Li   V 
    10    16     3     3
Direct
  0.1626367463172171  0.3218208441489797 -0.0059431965816178
  0.6678373853088161  0.3430424090783790 -0.0001984226997751
  0.1523430080457800  0.8361067569811014 -0.0040109045698561
  0.6690049267498089  0.3408560841719928  0.4956357857924109
  0.1591776024433547  0.8275234779353827  0.5054732254021179
  0.6682397827789216  0.8282416755943182  0.4942277745812178
  0.3317272846129909  0.1532375818138844  0.7486939424573179
  0.8422084216070111  0.6729194619003888  0.7546881226735905
  0.3438420056645902  0.1715799754905077  0.2439047129445645
  0.8264054002666086  0.6561593217285049  0.2466314371161699
  0.1812628969989711  0.3304560732054583  0.1868969895729552
  0.6625990612912896  0.3364028992406940  0.1871235970110636
  0.1596645985960373  0.8409262814959010  0.1933224581795729
  0.6466707402779917  0.8098314682552146  0.2131686273441458
  0.1651946547327876  0.3160312429238532  0.6842349779160845
  0.6629584747696087  0.3332051054720420  0.6872769811366986
  0.1589099599443274  0.8374701432535280  0.6897913943304148
  0.6912933834787047  0.8495742247866216  0.6889222617365630
  0.3326849912480139  0.1667924493890371  0.9373706111365568
  0.8455363559634390  0.1902883922348915  0.9180564277511151
  0.3194370456303623  0.6634492681155287  0.9873949198513883
  0.8369399141921621  0.6592564274217673  0.9382026408245457
  0.3320948254641513  0.1673260389587208  0.4415937195285120
  0.8406182867369215  0.1746070200335579  0.4609031554663505
  0.3237459092292318  0.6543696394689958  0.4583379899104033
  0.8333045930122922  0.6659496013115529  0.4405982253644588
  0.6793454662331242  0.8397996469442116 -0.0070088166481476
  0.3377685785060263  0.6788431590089433  0.7593059579159201
  0.8300231665051414  0.1689219160102367  0.2431546557951683
  0.1655391014649433  0.3334994862355657  0.4960812349978847
  0.8343713809358397  0.1673240247820351  0.7382589108000095
  0.3366140509935334  0.6641879026082019  0.1779106029621955
 
  0.00000000E+00  0.00000000E+00  0.00000000E+00
  0.00000000E+00  0.00000000E+00  0.00000000E+00
  0.00000000E+00  0.00000000E+00  0.00000000E+00
  0.00000000E+00  0.00000000E+00  0.00000000E+00
  0.00000000E+00  0.00000000E+00  0.00000000E+00
  0.00000000E+00  0.00000000E+00  0.00000000E+00
  0.00000000E+00  0.00000000E+00  0.00000000E+00
  0.00000000E+00  0.00000000E+00  0.00000000E+00
  0.00000000E+00  0.00000000E+00  0.00000000E+00
  0.00000000E+00  0.00000000E+00  0.00000000E+00
  0.00000000E+00  0.00000000E+00  0.00000000E+00
  0.00000000E+00  0.00000000E+00  0.00000000E+00
  0.00000000E+00  0.00000000E+00  0.00000000E+00
  0.00000000E+00  0.00000000E+00  0.00000000E+00
  0.00000000E+00  0.00000000E+00  0.00000000E+00
  0.00000000E+00  0.00000000E+00  0.00000000E+00
  0.00000000E+00  0.00000000E+00  0.00000000E+00
  0.00000000E+00  0.00000000E+00  0.00000000E+00
  0.00000000E+00  0.00000000E+00  0.00000000E+00
  0.00000000E+00  0.00000000E+00  0.00000000E+00
  0.00000000E+00  0.00000000E+00  0.00000000E+00
  0.00000000E+00  0.00000000E+00  0.00000000E+00
  0.00000000E+00  0.00000000E+00  0.00000000E+00
  0.00000000E+00  0.00000000E+00  0.00000000E+00
  0.00000000E+00  0.00000000E+00  0.00000000E+00
  0.00000000E+00  0.00000000E+00  0.00000000E+00
  0.00000000E+00  0.00000000E+00  0.00000000E+00
  0.00000000E+00  0.00000000E+00  0.00000000E+00
  0.00000000E+00  0.00000000E+00  0.00000000E+00
  0.00000000E+00  0.00000000E+00  0.00000000E+00
  0.00000000E+00  0.00000000E+00  0.00000000E+00
  0.00000000E+00  0.00000000E+00  0.00000000E+00
