Ta  N Ru Cu                             
   1.00000000000000     
     9.0548154099999998    0.0000000000000000    0.0000000000000000
     0.0000000000000000   11.6775998899999998    0.0000000000000000
     0.0000000000000000    0.0000000000000000   23.4818170799999990
   Ta   N    Ru   Cu
    60    60    16     1
Selective dynamics
Direct
  0.0000000000000000  0.0000000000000000  0.2546926809530987   F   F   F
  0.6670845899906297  0.1250000003211298  0.2638822399803757   F   F   F
  0.3329153514769843  0.1250000003211298  0.2638822399803757   F   F   F
  0.4999999994478088  0.2499999997859135  0.3618861993156202   F   F   F
  0.1650707596845180  0.1250000003211298  0.3684425577811794   F   F   F
  0.8349292403154820  0.1250000003211298  0.3684425577811794   F   F   F
  0.0008933374036310  0.2501117872506432  0.4799354734550867   T   T   T
  0.6644511110509449  0.1250487897790928  0.4779893599333180   T   T   T
  0.3351725798323685  0.1250445690127767  0.4780566237264970   T   T   T
  0.4979517344313331  0.2499517210307657  0.5901310057897799   T   T   T
  0.1681697930416245  0.1249821397724593  0.5905678039352983   T   T   T
  0.8327987368083062  0.1251834445536294  0.5894047459880355   T   T   T
  0.9941897892701241  0.2508431348215909  0.7014704734232642   T   T   T
  0.6633720593342008  0.1257332882196754  0.7005329768357179   T   T   T
  0.3292807677684190  0.1255489206457540  0.7054971529780774   T   T   T
  0.0000000000000000  0.2499999997859135  0.2546926809530987   F   F   F
  0.6670845899906297  0.3750000001070433  0.2638822399803757   F   F   F
  0.3329153514769843  0.3750000001070433  0.2638822399803757   F   F   F
  0.4999999994478088  0.5000000004281731  0.3618861993156202   F   F   F
  0.1650707596845180  0.3750000001070433  0.3684425577811794   F   F   F
  0.8349292403154820  0.3750000001070433  0.3684425577811794   F   F   F
  0.0008896394589984  0.4999202722630580  0.4799344972728946   T   T   T
  0.6645080662282110  0.3750180350965339  0.4779768473393808   T   T   T
  0.3350736562719656  0.3749905880137915  0.4781627651419800   T   T   T
  0.4979548132252547  0.5001608957373158  0.5901280955792551   T   T   T
  0.1673979835489089  0.3750422990956898  0.5908976294373486   T   T   T
  0.8334885519038924  0.3750471594268115  0.5894348513698529   T   T   T
  0.9942400840047926  0.4993612750133725  0.7014343912850883   T   T   T
  0.6630656724478023  0.3751550935005168  0.6989953459328421   T   T   T
  0.3261948207995682  0.3750945515235983  0.7038072068304508   T   T   T
  0.0000000000000000  0.5000000004281731  0.2546926809530987   F   F   F
  0.6670845899906297  0.6249999998929567  0.2638822399803757   F   F   F
  0.3329153514769843  0.6249999998929567  0.2638822399803757   F   F   F
  0.4999999994478088  0.7500000002140865  0.3618861993156202   F   F   F
  0.1650707596845180  0.6249999998929567  0.3684425577811794   F   F   F
  0.8349292403154820  0.6249999998929567  0.3684425577811794   F   F   F
  0.0008239064860335  0.7499870862147009  0.4799308999950648   T   T   T
  0.6644693951124895  0.6249673653174949  0.4779893140536774   T   T   T
  0.3351820824544241  0.6249745079388124  0.4780491197142892   T   T   T
  0.4981902646670407  0.7500157742120306  0.5903459616190091   T   T   T
  0.1681637646962074  0.6251026240169650  0.5905570021618635   T   T   T
  0.8328134430336754  0.6249372158689823  0.5893935819497794   T   T   T
  0.9933214487565577  0.7501052316806044  0.6999705069545319   T   T   T
  0.6633192510197997  0.6245312856407145  0.7004914935713898   T   T   T
  0.3293540982603863  0.6246434955959608  0.7055152859447805   T   T   T
  0.0000000000000000  0.7500000002140865  0.2546926809530987   F   F   F
  0.6670845899906297  0.8750000005352163  0.2638822399803757   F   F   F
  0.3329153514769843  0.8750000005352163  0.2638822399803757   F   F   F
  0.4999999994478088  0.0000000000000000  0.3618861993156202   F   F   F
  0.1650707596845180  0.8750000005352163  0.3684425577811794   F   F   F
  0.8349292403154820  0.8750000005352163  0.3684425577811794   F   F   F
  0.0008275574104841  0.0000499459114567  0.4799317012492222   T   T   T
  0.6644237769384609  0.8750138748057734  0.4779744235182987   T   T   T
  0.3354095455826094  0.8750115114690459  0.4779807082957532   T   T   T
  0.4982311182774042  0.0001144347809945  0.5903395763692556   T   T   T
  0.1683323237843507  0.8750353704432619  0.5903998258714246   T   T   T
  0.8324962007471831  0.8750844092364641  0.5893259207640893   T   T   T
  0.9933340921329598  0.0000637107822417  0.6999874347177558   T   T   T
  0.6646901842110419  0.8750957998569886  0.6997068355306019   T   T   T
  0.3290009879896595  0.8751041161046704  0.7049225030999994   T   T   T
  0.8141011533980276  0.0000000000000000  0.3013105672926031   F   F   F
  0.4999999994478088  0.0000000000000000  0.2564174481620327   F   F   F
  0.1858988466019724  0.0000000000000000  0.3013105672926031   F   F   F
  0.3088456122590841  0.2499999997859135  0.4099867722441957   F   F   F
  0.0000000000000000  0.2499999997859135  0.3930971035158137   F   F   F
  0.6911543877409159  0.2499999997859135  0.4099867722441957   F   F   F
  0.8021077406701274  0.2501427024764727  0.5216335497990312   T   T   T
  0.4996485049908519  0.2500303071736311  0.5026032319796649   T   T   T
  0.1988759852880231  0.2501022895540416  0.5226541642317910   T   T   T
  0.3030011234212474  0.2500156332928547  0.6353003542523904   T   T   T
  0.9994751753325589  0.2499193536010120  0.6131600241198429   T   T   T
  0.6951991447724515  0.2498975241022559  0.6321708444754595   T   T   T
  0.7965232219416313  0.2515745022580395  0.7450413323852930   T   T   T
  0.5004889057239920  0.2516899501898807  0.7244967604988943   T   T   T
  0.1919014475464037  0.2515900874584968  0.7416740565962813   T   T   T
  0.8141011533980276  0.2499999997859135  0.3013105672926031   F   F   F
  0.4999999994478088  0.2499999997859135  0.2564174481620327   F   F   F
  0.1858988466019724  0.2499999997859135  0.3013105672926031   F   F   F
  0.3088456122590841  0.5000000004281731  0.4099867722441957   F   F   F
  0.0000000000000000  0.5000000004281731  0.3930971035158137   F   F   F
  0.6911543877409159  0.5000000004281731  0.4099867722441957   F   F   F
  0.8021029974478570  0.4999219683522078  0.5216287747308725   T   T   T
  0.4996487671547528  0.4999939107936436  0.5026087665746334   T   T   T
  0.1988805533253527  0.4999319811788461  0.5226464939800497   T   T   T
  0.3029907698977731  0.5001003067498127  0.6352972355891841   T   T   T
  0.9994879131895950  0.5001980207863473  0.6131252542810683   T   T   T
  0.6951879968647710  0.5002463922157719  0.6321631793326475   T   T   T
  0.7965797999102924  0.4987892429000722  0.7449719603220684   T   T   T
  0.5005878202978566  0.4985292032299406  0.7245417260236237   T   T   T
  0.1919645281440634  0.4985701035282654  0.7416446682198199   T   T   T
  0.8141011533980276  0.5000000004281731  0.3013105672926031   F   F   F
  0.4999999994478088  0.5000000004281731  0.2564174481620327   F   F   F
  0.1858988466019724  0.5000000004281731  0.3013105672926031   F   F   F
  0.3088456122590841  0.7500000002140865  0.4099867722441957   F   F   F
  0.0000000000000000  0.7500000002140865  0.3930971035158137   F   F   F
  0.6911543877409159  0.7500000002140865  0.4099867722441957   F   F   F
  0.8018297710122272  0.7499316368886889  0.5215574834839435   T   T   T
  0.4996371137630469  0.7500145653339296  0.5026831502082950   T   T   T
  0.1990951175555288  0.7500465870951766  0.5224231029609595   T   T   T
  0.3035218905831013  0.7499417298507611  0.6352024067799225   T   T   T
  0.9995999314393834  0.7499799327889747  0.6121399351509171   T   T   T
  0.6958262662616971  0.7496324761018289  0.6323205172895894   T   T   T
  0.7990026619274245  0.7514494673524789  0.7448183953432239   T   T   T
  0.5014509663763315  0.7504618361225553  0.7247839862867989   T   T   T
  0.1904069238783186  0.7506385929842403  0.7388956885961041   T   T   T
  0.8141011533980276  0.7500000002140865  0.3013105672926031   F   F   F
  0.4999999994478088  0.7500000002140865  0.2564174481620327   F   F   F
  0.1858988466019724  0.7500000002140865  0.3013105672926031   F   F   F
  0.3088456122590841  0.0000000000000000  0.4099867722441957   F   F   F
  0.0000000000000000  0.0000000000000000  0.3930971035158137   F   F   F
  0.6911543877409159  0.0000000000000000  0.4099867722441957   F   F   F
  0.8018338983788841  0.0001339439151317  0.5215620161910020   T   T   T
  0.4996316552213075  0.0000270476718229  0.5026845780245728   T   T   T
  0.1990958741131900  0.0000072576868471  0.5224256480001787   T   T   T
  0.3035247809331555  0.0001674863333938  0.6352040928239816   T   T   T
  0.9996046671924524  0.0001147278778107  0.6121469024404694   T   T   T
  0.6958390826162630  0.0005764388221331  0.6323247023354392   T   T   T
  0.7990723064015008  0.9988089961217816  0.7448304606875855   T   T   T
  0.5013942047832870  0.9998362638007957  0.7248226771158099   T   T   T
  0.1904518631974457  0.9995612234377119  0.7389637543396919   T   T   T
  0.1342401318501052  0.9914933482629613  0.8179828454654483   T   T   T
  0.5735374230809474  0.9914044258891790  0.8048647877642493   T   T   T
  0.8836165582357821  0.1228437650860687  0.7984384282659304   T   T   T
  0.1417433657806885  0.5420871753850558  0.8202040686839318   T   T   T
  0.5818389344021166  0.5070837938747855  0.8037521347903639   T   T   T
  0.8837263601440695  0.6273546007341460  0.7984293919688513   T   T   T
  0.1419132582510817  0.2080489576291190  0.8202867507812850   T   T   T
  0.5816437433752374  0.2437400245234448  0.8037759150617436   T   T   T
  0.8718934302726155  0.3752780414898248  0.8009751719314735   T   T   T
  0.1342672031953110  0.7586781430237636  0.8179161372194141   T   T   T
  0.5739396833501798  0.7596019370870315  0.8047541796107037   T   T   T
  0.8889159461667593  0.8750187016966955  0.7987342601919273   T   T   T
  0.3621283113834252  0.8750059191073407  0.8381865369908016   T   T   T
  0.3811972164365742  0.6215344564467586  0.8366387767380775   T   T   T
  0.0664704938792202  0.3750757245553692  0.8680029107623662   T   T   T
  0.3813491410746196  0.1292738737362050  0.8367890239892279   T   T   T
  0.3599429461444136  0.3754179715759293  0.8375569212458804   T   T   T
 
  0.00000000E+00  0.00000000E+00  0.00000000E+00
  0.00000000E+00  0.00000000E+00  0.00000000E+00
  0.00000000E+00  0.00000000E+00  0.00000000E+00
  0.00000000E+00  0.00000000E+00  0.00000000E+00
  0.00000000E+00  0.00000000E+00  0.00000000E+00
  0.00000000E+00  0.00000000E+00  0.00000000E+00
  0.00000000E+00  0.00000000E+00  0.00000000E+00
  0.00000000E+00  0.00000000E+00  0.00000000E+00
  0.00000000E+00  0.00000000E+00  0.00000000E+00
  0.00000000E+00  0.00000000E+00  0.00000000E+00
  0.00000000E+00  0.00000000E+00  0.00000000E+00
  0.00000000E+00  0.00000000E+00  0.00000000E+00
  0.00000000E+00  0.00000000E+00  0.00000000E+00
  0.00000000E+00  0.00000000E+00  0.00000000E+00
  0.00000000E+00  0.00000000E+00  0.00000000E+00
  0.00000000E+00  0.00000000E+00  0.00000000E+00
  0.00000000E+00  0.00000000E+00  0.00000000E+00
  0.00000000E+00  0.00000000E+00  0.00000000E+00
  0.00000000E+00  0.00000000E+00  0.00000000E+00
  0.00000000E+00  0.00000000E+00  0.00000000E+00
  0.00000000E+00  0.00000000E+00  0.00000000E+00
  0.00000000E+00  0.00000000E+00  0.00000000E+00
  0.00000000E+00  0.00000000E+00  0.00000000E+00
  0.00000000E+00  0.00000000E+00  0.00000000E+00
  0.00000000E+00  0.00000000E+00  0.00000000E+00
  0.00000000E+00  0.00000000E+00  0.00000000E+00
  0.00000000E+00  0.00000000E+00  0.00000000E+00
  0.00000000E+00  0.00000000E+00  0.00000000E+00
  0.00000000E+00  0.00000000E+00  0.00000000E+00
  0.00000000E+00  0.00000000E+00  0.00000000E+00
  0.00000000E+00  0.00000000E+00  0.00000000E+00
  0.00000000E+00  0.00000000E+00  0.00000000E+00
  0.00000000E+00  0.00000000E+00  0.00000000E+00
  0.00000000E+00  0.00000000E+00  0.00000000E+00
  0.00000000E+00  0.00000000E+00  0.00000000E+00
  0.00000000E+00  0.00000000E+00  0.00000000E+00
  0.00000000E+00  0.00000000E+00  0.00000000E+00
  0.00000000E+00  0.00000000E+00  0.00000000E+00
  0.00000000E+00  0.00000000E+00  0.00000000E+00
  0.00000000E+00  0.00000000E+00  0.00000000E+00
  0.00000000E+00  0.00000000E+00  0.00000000E+00
  0.00000000E+00  0.00000000E+00  0.00000000E+00
  0.00000000E+00  0.00000000E+00  0.00000000E+00
  0.00000000E+00  0.00000000E+00  0.00000000E+00
  0.00000000E+00  0.00000000E+00  0.00000000E+00
  0.00000000E+00  0.00000000E+00  0.00000000E+00
  0.00000000E+00  0.00000000E+00  0.00000000E+00
  0.00000000E+00  0.00000000E+00  0.00000000E+00
  0.00000000E+00  0.00000000E+00  0.00000000E+00
  0.00000000E+00  0.00000000E+00  0.00000000E+00
  0.00000000E+00  0.00000000E+00  0.00000000E+00
  0.00000000E+00  0.00000000E+00  0.00000000E+00
  0.00000000E+00  0.00000000E+00  0.00000000E+00
  0.00000000E+00  0.00000000E+00  0.00000000E+00
  0.00000000E+00  0.00000000E+00  0.00000000E+00
  0.00000000E+00  0.00000000E+00  0.00000000E+00
  0.00000000E+00  0.00000000E+00  0.00000000E+00
  0.00000000E+00  0.00000000E+00  0.00000000E+00
  0.00000000E+00  0.00000000E+00  0.00000000E+00
  0.00000000E+00  0.00000000E+00  0.00000000E+00
  0.00000000E+00  0.00000000E+00  0.00000000E+00
  0.00000000E+00  0.00000000E+00  0.00000000E+00
  0.00000000E+00  0.00000000E+00  0.00000000E+00
  0.00000000E+00  0.00000000E+00  0.00000000E+00
  0.00000000E+00  0.00000000E+00  0.00000000E+00
  0.00000000E+00  0.00000000E+00  0.00000000E+00
  0.00000000E+00  0.00000000E+00  0.00000000E+00
  0.00000000E+00  0.00000000E+00  0.00000000E+00
  0.00000000E+00  0.00000000E+00  0.00000000E+00
  0.00000000E+00  0.00000000E+00  0.00000000E+00
  0.00000000E+00  0.00000000E+00  0.00000000E+00
  0.00000000E+00  0.00000000E+00  0.00000000E+00
  0.00000000E+00  0.00000000E+00  0.00000000E+00
  0.00000000E+00  0.00000000E+00  0.00000000E+00
  0.00000000E+00  0.00000000E+00  0.00000000E+00
  0.00000000E+00  0.00000000E+00  0.00000000E+00
  0.00000000E+00  0.00000000E+00  0.00000000E+00
  0.00000000E+00  0.00000000E+00  0.00000000E+00
  0.00000000E+00  0.00000000E+00  0.00000000E+00
  0.00000000E+00  0.00000000E+00  0.00000000E+00
  0.00000000E+00  0.00000000E+00  0.00000000E+00
  0.00000000E+00  0.00000000E+00  0.00000000E+00
  0.00000000E+00  0.00000000E+00  0.00000000E+00
  0.00000000E+00  0.00000000E+00  0.00000000E+00
  0.00000000E+00  0.00000000E+00  0.00000000E+00
  0.00000000E+00  0.00000000E+00  0.00000000E+00
  0.00000000E+00  0.00000000E+00  0.00000000E+00
  0.00000000E+00  0.00000000E+00  0.00000000E+00
  0.00000000E+00  0.00000000E+00  0.00000000E+00
  0.00000000E+00  0.00000000E+00  0.00000000E+00
  0.00000000E+00  0.00000000E+00  0.00000000E+00
  0.00000000E+00  0.00000000E+00  0.00000000E+00
  0.00000000E+00  0.00000000E+00  0.00000000E+00
  0.00000000E+00  0.00000000E+00  0.00000000E+00
  0.00000000E+00  0.00000000E+00  0.00000000E+00
  0.00000000E+00  0.00000000E+00  0.00000000E+00
  0.00000000E+00  0.00000000E+00  0.00000000E+00
  0.00000000E+00  0.00000000E+00  0.00000000E+00
  0.00000000E+00  0.00000000E+00  0.00000000E+00
  0.00000000E+00  0.00000000E+00  0.00000000E+00
  0.00000000E+00  0.00000000E+00  0.00000000E+00
  0.00000000E+00  0.00000000E+00  0.00000000E+00
  0.00000000E+00  0.00000000E+00  0.00000000E+00
  0.00000000E+00  0.00000000E+00  0.00000000E+00
  0.00000000E+00  0.00000000E+00  0.00000000E+00
  0.00000000E+00  0.00000000E+00  0.00000000E+00
  0.00000000E+00  0.00000000E+00  0.00000000E+00
  0.00000000E+00  0.00000000E+00  0.00000000E+00
  0.00000000E+00  0.00000000E+00  0.00000000E+00
  0.00000000E+00  0.00000000E+00  0.00000000E+00
  0.00000000E+00  0.00000000E+00  0.00000000E+00
  0.00000000E+00  0.00000000E+00  0.00000000E+00
  0.00000000E+00  0.00000000E+00  0.00000000E+00
  0.00000000E+00  0.00000000E+00  0.00000000E+00
  0.00000000E+00  0.00000000E+00  0.00000000E+00
  0.00000000E+00  0.00000000E+00  0.00000000E+00
  0.00000000E+00  0.00000000E+00  0.00000000E+00
  0.00000000E+00  0.00000000E+00  0.00000000E+00
  0.00000000E+00  0.00000000E+00  0.00000000E+00
  0.00000000E+00  0.00000000E+00  0.00000000E+00
  0.00000000E+00  0.00000000E+00  0.00000000E+00
  0.00000000E+00  0.00000000E+00  0.00000000E+00
  0.00000000E+00  0.00000000E+00  0.00000000E+00
  0.00000000E+00  0.00000000E+00  0.00000000E+00
  0.00000000E+00  0.00000000E+00  0.00000000E+00
  0.00000000E+00  0.00000000E+00  0.00000000E+00
  0.00000000E+00  0.00000000E+00  0.00000000E+00
  0.00000000E+00  0.00000000E+00  0.00000000E+00
  0.00000000E+00  0.00000000E+00  0.00000000E+00
  0.00000000E+00  0.00000000E+00  0.00000000E+00
  0.00000000E+00  0.00000000E+00  0.00000000E+00
  0.00000000E+00  0.00000000E+00  0.00000000E+00
  0.00000000E+00  0.00000000E+00  0.00000000E+00
  0.00000000E+00  0.00000000E+00  0.00000000E+00
  0.00000000E+00  0.00000000E+00  0.00000000E+00
  0.00000000E+00  0.00000000E+00  0.00000000E+00
  0.00000000E+00  0.00000000E+00  0.00000000E+00
