Ru Cu                                   
   1.00000000000000     
    10.8623999999999992    0.0000000000000000    0.0000000000000000
    -5.4311999999999969    9.4071143460680844    0.0000000000000000
     0.0000000000000000    0.0000000000000000   22.7112499999999962
   Ru   Cu
    96     1
Direct
  0.0832862460131961  0.1665496118240016  0.3582598002911756
  0.1667016418092639  0.0834775649617287  0.2676970731051604
  0.0833985547984413  0.1667186580896532  0.5478528679167598
  0.1668485074142358  0.0834968282911224  0.4520959487064212
  0.0838544507248504  0.1667832338891523  0.7322504569038486
  0.1666576917348560  0.0831790141013850  0.6416630099754272
  0.0832755547368003  0.4166824424644418  0.3581983849354493
  0.1668085460002817  0.3333532714809598  0.2677572749383090
  0.0833360250566250  0.4166584194816154  0.5478652376820609
  0.1670229401893522  0.3334901785294326  0.4520291960130386
  0.0832310227289481  0.4165570789674373  0.7325634006305846
  0.1659388850182305  0.3326690948189551  0.6416666919616992
  0.0832739132133416  0.6665278072867277  0.3582499139347016
  0.1668035492154487  0.5833920609206085  0.2676761273383588
  0.0834455523459750  0.6666788092680667  0.5478856604519300
  0.1669587393257398  0.5834424109209743  0.4521139056347365
  0.0839094074008348  0.6667179405281912  0.7322659986591129
  0.1660923801189020  0.5831758720971966  0.6416932518687086
  0.0833542152640886  0.9167062409157354  0.3583032513402884
  0.1667937373448242  0.8332371489938433  0.2678118160236709
  0.0834232279124031  0.9166377640268604  0.5477966533948506
  0.1668829334247134  0.8331501438315985  0.4520033447384650
  0.0835243817277776  0.9166841800875615  0.7321096095110777
  0.1667607909577240  0.8333368429570325  0.6417649757410281
  0.3334182994462061  0.1666263220216621  0.3582254666060715
  0.4167802655137600  0.0833327759710222  0.2676324412516793
  0.3334556053216323  0.1667378813472059  0.5479317941359687
  0.4167114160530584  0.0833370826388340  0.4521523238043543
  0.3333302151539587  0.1669446279922450  0.7321444700095827
  0.4167855699442398  0.0833157002711128  0.6419260039480609
  0.3334718486477097  0.4167001685990150  0.3581721933068931
  0.4166779966273940  0.3334235277601533  0.2676588001855493
  0.3333692201814873  0.4167256090527050  0.5483295603588975
  0.4166242118329496  0.3333810291152468  0.4521362084750090
  0.3319004139159132  0.4135040684931126  0.7325834267088827
  0.4169265651705612  0.3329057102510790  0.6415676958153249
  0.3334024605543636  0.6666594955102708  0.3582086216975285
  0.4167524192688725  0.5832910572888674  0.2677062208486800
  0.3334272096981670  0.6666585767793590  0.5485688819657962
  0.4166955776136563  0.5833477238933220  0.4521890166226479
  0.3319235575012758  0.6682226259519244  0.7328553182982834
  0.4167227621514723  0.5833433990211094  0.6421678579177313
  0.3334865462828061  0.9167402384801846  0.3582481546500145
  0.4166844192543971  0.8332233777285211  0.2676662069368124
  0.3333872466265742  0.9166151856302559  0.5478892235659677
  0.4166051782332234  0.8330794050942570  0.4521290826400806
  0.3333269689489324  0.9162494974311263  0.7322837249687280
  0.4169355606766555  0.8340270887105997  0.6417107498592353
  0.5833413301756246  0.1665488351701258  0.3582584945023147
  0.6666990601035997  0.0834675291697210  0.2676772214937382
  0.5835637979015031  0.1667564979856612  0.5478936210297424
  0.6667386996816586  0.0833551014458669  0.4521627418151872
  0.5834609355857379  0.1666956055653477  0.7325480783139193
  0.6667162459403521  0.0833540398728360  0.6424488042883350
  0.5833914356925178  0.4166230588654505  0.3582127098587494
  0.6667677722410458  0.3332377593365901  0.2677839282516275
  0.5834095111980069  0.4166044198884770  0.5478515889652614
  0.6667711856234227  0.3332437912131256  0.4521071532397213
  0.5834444166937380  0.4166698094695217  0.7325125606527213
  0.6668213603894309  0.3333252454249555  0.6423472760734049
  0.5833204983383901  0.6665481221932685  0.3581728190487349
  0.6666025179283858  0.5833694937269456  0.2676636085025400
  0.5833443424181207  0.6667118518441462  0.5483371501861936
  0.6666468362514910  0.5833924206471911  0.4521432677513230
  0.5868553862293679  0.6682776770005360  0.7324908698064942
  0.6672903527202894  0.5831654561251826  0.6415214326049410
  0.5833469663110828  0.9167464505655933  0.3582123918423610
  0.6666690646394218  0.8332141568805118  0.2677693389026478
  0.5833979287347466  0.9167262180634516  0.5478770702137979
  0.6665637600523414  0.8330186716901616  0.4520405322280135
  0.5836027892138681  0.9169255549089966  0.7325912341827698
  0.6674683406236700  0.8342315914099596  0.6416493027300885
  0.8333688645328514  0.1666711882287028  0.3582100130284879
  0.9167132618055384  0.0833097926529239  0.2676339733488847
  0.8332740595148632  0.1668191355146209  0.5479947833188027
  0.9166617513610108  0.0833738621236645  0.4521544699223241
  0.8334940069318806  0.1667621001189419  0.7326201087562634
  0.9167518918682221  0.0833399275418824  0.6419574947732638
  0.8334787920683872  0.4167006904450812  0.3582475720958926
  0.9165475996540037  0.3333156957475807  0.2676687360456859
  0.8333332024583521  0.4165241303604421  0.5478820413647535
  0.9166713945944135  0.3332845173676021  0.4521642741600461
  0.8333509361287581  0.4165972202424946  0.7325498049508379
  0.9167164444125382  0.3333378876219683  0.6424441036730522
  0.8334233248802847  0.6666245127520423  0.3582237238648866
  0.9167080365932000  0.5832557237707223  0.2676243465776612
  0.8334381404605914  0.6666878838482252  0.5479082708118249
  0.9166932341253313  0.5833145664788063  0.4521499121117054
  0.8331654556632740  0.6667936587318658  0.7321378435647055
  0.9167993644064223  0.5833114926676390  0.6419210283967589
  0.8334816165121107  0.9167489077752445  0.3582590575727263
  0.9166599876143913  0.8333686876423448  0.2676986466545139
  0.8333337469089158  0.9166647577001620  0.5478600777415114
  0.9165296248637398  0.8332031977066230  0.4521030006483480
  0.8332918564330918  0.9162366720066663  0.7322633904795923
  0.9169009007680992  0.8334157476690228  0.6416612471152854
  0.4192781064610070  0.5825885439928724  0.8194433158474917
 
  0.00000000E+00  0.00000000E+00  0.00000000E+00
  0.00000000E+00  0.00000000E+00  0.00000000E+00
  0.00000000E+00  0.00000000E+00  0.00000000E+00
  0.00000000E+00  0.00000000E+00  0.00000000E+00
  0.00000000E+00  0.00000000E+00  0.00000000E+00
  0.00000000E+00  0.00000000E+00  0.00000000E+00
  0.00000000E+00  0.00000000E+00  0.00000000E+00
  0.00000000E+00  0.00000000E+00  0.00000000E+00
  0.00000000E+00  0.00000000E+00  0.00000000E+00
  0.00000000E+00  0.00000000E+00  0.00000000E+00
  0.00000000E+00  0.00000000E+00  0.00000000E+00
  0.00000000E+00  0.00000000E+00  0.00000000E+00
  0.00000000E+00  0.00000000E+00  0.00000000E+00
  0.00000000E+00  0.00000000E+00  0.00000000E+00
  0.00000000E+00  0.00000000E+00  0.00000000E+00
  0.00000000E+00  0.00000000E+00  0.00000000E+00
  0.00000000E+00  0.00000000E+00  0.00000000E+00
  0.00000000E+00  0.00000000E+00  0.00000000E+00
  0.00000000E+00  0.00000000E+00  0.00000000E+00
  0.00000000E+00  0.00000000E+00  0.00000000E+00
  0.00000000E+00  0.00000000E+00  0.00000000E+00
  0.00000000E+00  0.00000000E+00  0.00000000E+00
  0.00000000E+00  0.00000000E+00  0.00000000E+00
  0.00000000E+00  0.00000000E+00  0.00000000E+00
  0.00000000E+00  0.00000000E+00  0.00000000E+00
  0.00000000E+00  0.00000000E+00  0.00000000E+00
  0.00000000E+00  0.00000000E+00  0.00000000E+00
  0.00000000E+00  0.00000000E+00  0.00000000E+00
  0.00000000E+00  0.00000000E+00  0.00000000E+00
  0.00000000E+00  0.00000000E+00  0.00000000E+00
  0.00000000E+00  0.00000000E+00  0.00000000E+00
  0.00000000E+00  0.00000000E+00  0.00000000E+00
  0.00000000E+00  0.00000000E+00  0.00000000E+00
  0.00000000E+00  0.00000000E+00  0.00000000E+00
  0.00000000E+00  0.00000000E+00  0.00000000E+00
  0.00000000E+00  0.00000000E+00  0.00000000E+00
  0.00000000E+00  0.00000000E+00  0.00000000E+00
  0.00000000E+00  0.00000000E+00  0.00000000E+00
  0.00000000E+00  0.00000000E+00  0.00000000E+00
  0.00000000E+00  0.00000000E+00  0.00000000E+00
  0.00000000E+00  0.00000000E+00  0.00000000E+00
  0.00000000E+00  0.00000000E+00  0.00000000E+00
  0.00000000E+00  0.00000000E+00  0.00000000E+00
  0.00000000E+00  0.00000000E+00  0.00000000E+00
  0.00000000E+00  0.00000000E+00  0.00000000E+00
  0.00000000E+00  0.00000000E+00  0.00000000E+00
  0.00000000E+00  0.00000000E+00  0.00000000E+00
  0.00000000E+00  0.00000000E+00  0.00000000E+00
  0.00000000E+00  0.00000000E+00  0.00000000E+00
  0.00000000E+00  0.00000000E+00  0.00000000E+00
  0.00000000E+00  0.00000000E+00  0.00000000E+00
  0.00000000E+00  0.00000000E+00  0.00000000E+00
  0.00000000E+00  0.00000000E+00  0.00000000E+00
  0.00000000E+00  0.00000000E+00  0.00000000E+00
  0.00000000E+00  0.00000000E+00  0.00000000E+00
  0.00000000E+00  0.00000000E+00  0.00000000E+00
  0.00000000E+00  0.00000000E+00  0.00000000E+00
  0.00000000E+00  0.00000000E+00  0.00000000E+00
  0.00000000E+00  0.00000000E+00  0.00000000E+00
  0.00000000E+00  0.00000000E+00  0.00000000E+00
  0.00000000E+00  0.00000000E+00  0.00000000E+00
  0.00000000E+00  0.00000000E+00  0.00000000E+00
  0.00000000E+00  0.00000000E+00  0.00000000E+00
  0.00000000E+00  0.00000000E+00  0.00000000E+00
  0.00000000E+00  0.00000000E+00  0.00000000E+00
  0.00000000E+00  0.00000000E+00  0.00000000E+00
  0.00000000E+00  0.00000000E+00  0.00000000E+00
  0.00000000E+00  0.00000000E+00  0.00000000E+00
  0.00000000E+00  0.00000000E+00  0.00000000E+00
  0.00000000E+00  0.00000000E+00  0.00000000E+00
  0.00000000E+00  0.00000000E+00  0.00000000E+00
  0.00000000E+00  0.00000000E+00  0.00000000E+00
  0.00000000E+00  0.00000000E+00  0.00000000E+00
  0.00000000E+00  0.00000000E+00  0.00000000E+00
  0.00000000E+00  0.00000000E+00  0.00000000E+00
  0.00000000E+00  0.00000000E+00  0.00000000E+00
  0.00000000E+00  0.00000000E+00  0.00000000E+00
  0.00000000E+00  0.00000000E+00  0.00000000E+00
  0.00000000E+00  0.00000000E+00  0.00000000E+00
  0.00000000E+00  0.00000000E+00  0.00000000E+00
  0.00000000E+00  0.00000000E+00  0.00000000E+00
  0.00000000E+00  0.00000000E+00  0.00000000E+00
  0.00000000E+00  0.00000000E+00  0.00000000E+00
  0.00000000E+00  0.00000000E+00  0.00000000E+00
  0.00000000E+00  0.00000000E+00  0.00000000E+00
  0.00000000E+00  0.00000000E+00  0.00000000E+00
  0.00000000E+00  0.00000000E+00  0.00000000E+00
  0.00000000E+00  0.00000000E+00  0.00000000E+00
  0.00000000E+00  0.00000000E+00  0.00000000E+00
  0.00000000E+00  0.00000000E+00  0.00000000E+00
  0.00000000E+00  0.00000000E+00  0.00000000E+00
  0.00000000E+00  0.00000000E+00  0.00000000E+00
  0.00000000E+00  0.00000000E+00  0.00000000E+00
  0.00000000E+00  0.00000000E+00  0.00000000E+00
  0.00000000E+00  0.00000000E+00  0.00000000E+00
  0.00000000E+00  0.00000000E+00  0.00000000E+00
  0.00000000E+00  0.00000000E+00  0.00000000E+00
