Ru Ta  N  Cu                            
   1.00000000000000     
    18.1096308199999996    0.0000000000000000    0.0000000000000000
     0.0000000000000000   23.3551997799999995    0.0000000000000000
     0.0000000000000000    0.0000000000000000   32.4818170799999990
   Ru   Ta   N    Cu
   128   240   240     3
Selective dynamics
Direct
  0.0401045863392235  0.0071384240024236  0.4480502665348058   T   T   T
  0.2768987120115371  0.4967002636019349  0.4392850139435173   T   T   T
  0.4081636355315896  0.0640793383110039  0.4361377581405202   T   T   T
  0.0308185585202355  0.2527926673940426  0.4471196148347608   T   T   T
  0.2774837841854548  0.2536548623652574  0.4392355911896255   T   T   T
  0.4216538982647707  0.3123131761684143  0.4327952703806955   T   T   T
  0.0447715822234154  0.1222824428592399  0.4477243724636594   T   T   T
  0.2707741667662718  0.1349725465393354  0.4391788460014714   T   T   T
  0.4137391191459506  0.1858360004294223  0.4337088529492624   T   T   T
  0.0323609690151662  0.3734928690654025  0.4481511390295581   T   T   T
  0.2757202926046937  0.3758144545447807  0.4388381003703093   T   T   T
  0.4221934472382899  0.4374982316894303  0.4346754775325261   T   T   T
  0.1509828570678181  0.4371114185000706  0.4479590411077330   T   T   T
  0.1539829162652103  0.3142128750076822  0.4490184805642518   T   T   T
  0.1524799198509314  0.1979676651984882  0.4479943267691791   T   T   T
  0.1669145063140071  0.0619419996317630  0.4561687886446217   T   T   T
  0.0634172132599684  0.4393539414843373  0.5082196586843409   T   T   T
  0.3286626483648157  0.4339661148732803  0.4991255569442724   T   T   T
  0.4372144742384716  0.0086992579062798  0.5033420617102897   T   T   T
  0.0653717691198098  0.1899715210253858  0.5077912955414872   T   T   T
  0.3246102932509591  0.1897481750712563  0.4991438487332857   T   T   T
  0.4449844138654104  0.2546431184218962  0.5010282588584202   T   T   T
  0.0728904921054777  0.0611449529783471  0.5121939195138082   T   T   T
  0.3108172675249104  0.0657659834002504  0.4964098408304790   T   T   T
  0.4395932198427294  0.1179560633894019  0.5033846245210197   T   T   T
  0.0661291166897456  0.3084809118361355  0.5094022308129705   T   T   T
  0.3218692162552699  0.3163472749846966  0.4986311355749936   T   T   T
  0.4496830267596235  0.3628565416791478  0.5022318575219726   T   T   T
  0.2022628198911940  0.3780804513388836  0.5057962212630940   T   T   T
  0.2025576796826473  0.2540482156348854  0.5066040841295629   T   T   T
  0.1981594820624679  0.1404895173423902  0.5077358528587952   T   T   T
  0.2018956722150965  0.4950024838393504  0.5068564999808221   T   T   T
  0.0295848463276696  0.4998686940348239  0.4469050168209538   T   T   T
  0.2768577379826667  0.9972669038349643  0.4374466535594889   T   T   T
  0.4177801790988449  0.5663739136509216  0.4333251250637369   T   T   T
  0.0451649174904459  0.7535965991143208  0.4468371447042407   T   T   T
  0.2710215983795244  0.7350353798775707  0.4384389715177400   T   T   T
  0.4042736043299324  0.8136223041302372  0.4352047852620763   T   T   T
  0.0327491366768742  0.6202443277709709  0.4481922697927116   T   T   T
  0.2738563150090595  0.6203855182140885  0.4391991235330703   T   T   T
  0.4131483847132847  0.6882640154019212  0.4335241752891725   T   T   T
  0.0490371996844068  0.8686731733391272  0.4483458786797990   T   T   T
  0.2704596831235150  0.8839736896555973  0.4395248915489970   T   T   T
  0.4080871926269914  0.9366540139775099  0.4327073978333598   T   T   T
  0.1543102763094911  0.9462137972181862  0.4496329586168675   T   T   T
  0.1715589479448841  0.8077035517861095  0.4573189328821134   T   T   T
  0.1516633330236211  0.6767671631309444  0.4490991785059383   T   T   T
  0.1528856064060029  0.5564276461238640  0.4492855540259014   T   T   T
  0.0667496919848249  0.9401045434371952  0.5083628305756421   T   T   T
  0.3240630213515070  0.9417581185004490  0.5005511933610099   T   T   T
  0.4451423293081200  0.5132520238712026  0.5040748483224214   T   T   T
  0.0629968774037228  0.6891719401884762  0.5080348270641318   T   T   T
  0.3248954070218391  0.6814662430776105  0.4995920190468267   T   T   T
  0.4352367358770317  0.7582262629038179  0.5024017576400172   T   T   T
  0.0631942514182998  0.5557927773255096  0.5091496961702314   T   T   T
  0.3202309461669143  0.5595054813374173  0.4980096262643205   T   T   T
  0.4453880141628824  0.6214270904479944  0.5014339460147960   T   T   T
  0.0744857797936133  0.8065649894092806  0.5120194818876261   T   T   T
  0.3068133273530281  0.8091074714875516  0.4948084797126020   T   T   T
  0.4332206996315860  0.8684821423901989  0.5018888437045157   T   T   T
  0.1993317251288257  0.8859107887334154  0.5087177392065650   T   T   T
  0.1986314382351828  0.7300314516319609  0.5104188060033159   T   T   T
  0.2014012390518718  0.6188160746611878  0.5069836580883821   T   T   T
  0.1963877093476615  0.9923012696284711  0.5139989098991085   T   T   T
  0.5309867375981726  0.0005003861214200  0.4474818476589075   T   T   T
  0.7769466142474070  0.4938181736243504  0.4408433148804318   T   T   T
  0.9161063802521491  0.0643641013688526  0.4351673205555556   T   T   T
  0.5440300431564524  0.2514490869110672  0.4473860043535974   T   T   T
  0.7740535072218239  0.2347108875872235  0.4381578759230198   T   T   T
  0.9057578193554587  0.3137434526236658  0.4358687167438559   T   T   T
  0.5342433499920068  0.1213908277570562  0.4480088202999893   T   T   T
  0.7755453110056172  0.1201263289126550  0.4397842903831176   T   T   T
  0.9135709622252304  0.1864274991325578  0.4333600430618511   T   T   T
  0.5496711338843248  0.3665361415061301  0.4485391182366467   T   T   T
  0.7682516476403666  0.3810273255948360  0.4392266915015163   T   T   T
  0.9049529102122142  0.4345996532502279  0.4342823356165286   T   T   T
  0.6516251858413787  0.4469563937400460  0.4495671665390656   T   T   T
  0.6702132847402130  0.3036303080066252  0.4565450920796469   T   T   T
  0.6538252718141001  0.1792065034803202  0.4497360874176645   T   T   T
  0.6538256993051710  0.0573612741323519  0.4487582950899120   T   T   T
  0.5604040029439554  0.4404171463480526  0.5078495709412808   T   T   T
  0.8234494093902839  0.4271728236606639  0.5016299647319298   T   T   T
  0.9458316940493221  0.0077321043170575  0.5032594375970826   T   T   T
  0.5649369814647393  0.1877465348623349  0.5084796531593586   T   T   T
  0.8267347677794111  0.1809234512491960  0.4999844732668273   T   T   T
  0.9368464033043123  0.2564094631270591  0.5025994272064951   T   T   T
  0.5655566066493593  0.0587576283929863  0.5091836305625893   T   T   T
  0.8205667929352649  0.0580073469727201  0.4984485632344863   T   T   T
  0.9452533703847512  0.1180468147129891  0.5022786938507352   T   T   T
  0.5754397512234815  0.3033528864393930  0.5127174259671744   T   T   T
  0.8074859101474477  0.3087394550060851  0.4954468988985605   T   T   T
  0.9384083399239238  0.3657910582376374  0.5033810381058831   T   T   T
  0.6937840838851579  0.3828443433726287  0.5075024571848880   T   T   T
  0.6999217947330570  0.2293807417678146  0.5120197072664844   T   T   T
  0.7032398447245063  0.1191534555114606  0.5067620263354661   T   T   T
  0.7018478174835581  0.4923761880109736  0.5122975754976314   T   T   T
  0.5408419303796762  0.5102146785232902  0.4487437758646021   T   T   T
  0.7770718626803602  0.9968892777034249  0.4390770991714869   T   T   T
  0.9045988411247295  0.5649855560516404  0.4353924803246473   T   T   T
  0.5300668776385000  0.7549013811131787  0.4472627112650442   T   T   T
  0.7770398956964915  0.7552901054593801  0.4391898670883424   T   T   T
  0.9210421305378670  0.8144515130189827  0.4338413921951161   T   T   T
  0.5452828924437835  0.6239744110729460  0.4482590201557218   T   T   T
  0.7699364437118705  0.6393957746068850  0.4385382888627475   T   T   T
  0.9140598613071312  0.6866785022668892  0.4335122144268677   T   T   T
  0.5305778903459308  0.8754460049900366  0.4480113010985035   T   T   T
  0.7763742444443438  0.8776716810248774  0.4389739554833089   T   T   T
  0.9201967016174146  0.9372046822227189  0.4338319362725224   T   T   T
  0.6510714086277315  0.9376557064130669  0.4475625839832559   T   T   T
  0.6527116179507789  0.8170442970142161  0.4486161731514521   T   T   T
  0.6517037717607342  0.7005065673658309  0.4480033508057474   T   T   T
  0.6691406917789127  0.5647498163563560  0.4567619980310111   T   T   T
  0.5650742995197192  0.9386739520710341  0.5083157134910820   T   T   T
  0.8272656556125537  0.9366858622216119  0.4987925043266676   T   T   T
  0.9315013545667695  0.5060709535895476  0.5010341592162555   T   T   T
  0.5646599688584959  0.6915195874312302  0.5079104392402632   T   T   T
  0.8252337728051292  0.6913739230901145  0.4994384984943602   T   T   T
  0.9448649971746900  0.7573175368828422  0.5007552159256883   T   T   T
  0.5749338421564562  0.5646270647380494  0.5130442443305945   T   T   T
  0.8089477587731289  0.5705960841763504  0.4952948072042430   T   T   T
  0.9381983937152604  0.6169050845999947  0.5031582799236546   T   T   T
  0.5629854041769843  0.8137418863860897  0.5089974732563856   T   T   T
  0.8221112807073105  0.8179589905385386  0.4985359200204338   T   T   T
  0.9487415661293023  0.8681293968739154  0.5019508579201261   T   T   T
  0.7028020549572813  0.8801962312486901  0.5056304378059969   T   T   T
  0.7035083085006318  0.7560919894969692  0.5061798815836769   T   T   T
  0.6966383135239362  0.6444590039343648  0.5088616715720363   T   T   T
  0.7021658679336915  0.9944953887595694  0.5062580493247791   T   T   T
  0.0002112439569970  0.0001379294448540  0.0373463921698374   F   F   F
  0.3342257926207992  0.0625994154237475  0.0423987318545187   F   F   F
  0.1660626269271432  0.0626581163633873  0.0424061668450690   F   F   F
  0.2502202084754828  0.1252178855354416  0.1130358333669221   F   F   F
  0.0828588434925734  0.0627073156657261  0.1186643004524512   F   F   F
  0.4176999472490408  0.0627059576615423  0.1186271515872050   F   F   F
  0.0010852226677955  0.1251838058139039  0.1991436860460863   T   T   T
  0.3328890904276205  0.0627807948556368  0.1977163493382419   T   T   T
  0.1681990822938999  0.0627594519245274  0.1977098659794825   T   T   T
  0.2495750330890905  0.1252477199361047  0.2787125911459658   T   T   T
  0.0845547895938946  0.0626279564406053  0.2789615788063884   T   T   T
  0.4174534438472039  0.0627425615407841  0.2780566063620512   T   T   T
  0.0030858309768190  0.1253307671056916  0.3593355238123439   T   T   T
  0.3334735776753449  0.0626806690952267  0.3579993995450646   T   T   T
  0.1661184318306118  0.0628004265889515  0.3617633408432369   T   T   T
  0.0001993579241457  0.1251124241418680  0.0373673238785415   F   F   F
  0.3342248374093941  0.1876083518869578  0.0424180467130881   F   F   F
  0.1660568042752573  0.1876606967942038  0.0424146876443743   F   F   F
  0.2502332970886698  0.2502158349488468  0.1130222857832806   F   F   F
  0.0828712378028129  0.1877169521294775  0.1186661494224168   F   F   F
  0.4176644359050954  0.1877065482458207  0.1186607550294028   F   F   F
  0.0009887057059754  0.2502110855799105  0.1991165206402309   T   T   T
  0.3329723220942569  0.1877838035078803  0.1976767918228460   T   T   T
  0.1682309910938247  0.1877855372783809  0.1976618211040669   T   T   T
  0.2497101427065397  0.2503001327144083  0.2787490712938387   T   T   T
  0.0843389248009329  0.1876983818553295  0.2787706592719220   T   T   T
  0.4174331774546468  0.1877377306653694  0.2782127245862223   T   T   T
  0.0032112319415691  0.2502305443898050  0.3596274454097239   T   T   T
  0.3337094722348714  0.1876371198897439  0.3578836046565037   T   T   T
  0.1664776940067684  0.1876907224963861  0.3602042828169198   T   T   T
  0.0002122078768210  0.2501392066830732  0.0373456541597363   F   F   F
  0.3342232035055162  0.3125992309382539  0.0423967923009556   F   F   F
  0.1660586660861370  0.3126582257413517  0.0424062846115874   F   F   F
  0.2502173161139041  0.3752178897059935  0.1130360339591618   F   F   F
  0.0828568376004242  0.3127060748111887  0.1186645141734175   F   F   F
  0.4176984722473520  0.3127078846600213  0.1186298408889357   F   F   F
  0.0009933535497515  0.3752631252966698  0.1991311214472414   T   T   T
  0.3330027103910059  0.3128079204907923  0.1977701638300543   T   T   T
  0.1682397695406935  0.3127852893632573  0.1977649321151973   T   T   T
  0.2497961315724250  0.3752710921075808  0.2788533582923841   T   T   T
  0.0841330103073095  0.3127365807151726  0.2788333463431293   T   T   T
  0.4174335378575695  0.3127928118860406  0.2784063620878301   T   T   T
  0.0039173867757511  0.3751547662176957  0.3598098742068983   T   T   T
  0.3338856015970160  0.3127779529358464  0.3587276542395817   T   T   T
  0.1665555291806332  0.3127775417756442  0.3605755484089239   T   T   T
  0.0001993469486266  0.3751125453592721  0.0373668329409540   F   F   F
  0.3342265491584655  0.4376091382735581  0.0424193945147948   F   F   F
  0.1660559599480962  0.4376604044393986  0.0424156771225839   F   F   F
  0.2502327017382058  0.0002164962773534  0.1130220722767348   F   F   F
  0.0828707196508915  0.4377156099338606  0.1186668391713255   F   F   F
  0.4176643738564039  0.4377089816271393  0.1186614737223408   F   F   F
  0.0010844478319201  0.0002216847030185  0.1991544014068352   T   T   T
  0.3330617154856403  0.4377614627330823  0.1977922758676192   T   T   T
  0.1682038938706802  0.4377765624063837  0.1977460390961489   T   T   T
  0.2495170553117524  0.0001770246741113  0.2787228782325995   T   T   T
  0.0840771246019205  0.4377585634125825  0.2788396487551139   T   T   T
  0.4174896955528861  0.4377511284096809  0.2785751810424597   T   T   T
  0.0028014875995152  0.0001214470742715  0.3597566380870470   T   T   T
  0.3337293831896831  0.4378982129468272  0.3587621101627722   T   T   T
  0.1663849471150392  0.4376934475039950  0.3603423005830554   T   T   T
  0.0002112439569970  0.5001379294448540  0.0373463921698374   F   F   F
  0.3342257926207992  0.5625994154237475  0.0423987318545187   F   F   F
  0.1660626269271432  0.5626581163633873  0.0424061668450690   F   F   F
  0.2502202084754828  0.6252178855354416  0.1130358333669221   F   F   F
  0.0828588434925734  0.5627073156657261  0.1186643004524512   F   F   F
  0.4176999472490408  0.5627059576615423  0.1186271515872050   F   F   F
  0.0009442305968288  0.6252120311234048  0.1991531293591073   T   T   T
  0.3330066312779407  0.5627201218253998  0.1977774252648869   T   T   T
  0.1681706392335604  0.5627252973832789  0.1977424972984366   T   T   T
  0.2494614791359751  0.6251429952245434  0.2787474648992187   T   T   T
  0.0840470971107408  0.5627507493740009  0.2788885414598825   T   T   T
  0.4175098578313320  0.5625749410011061  0.2784030640788696   T   T   T
  0.0034589940616997  0.6252375729443926  0.3597028275997558   T   T   T
  0.3337519383431319  0.5627013599237313  0.3585752288758164   T   T   T
  0.1662021801281420  0.5626278507156777  0.3606992129732099   T   T   T
  0.0001993579241457  0.6251124241418680  0.0373673238785415   F   F   F
  0.3342248374093941  0.6876083518869507  0.0424180467130881   F   F   F
  0.1660568042752573  0.6876606967941967  0.0424146876443743   F   F   F
  0.2502332970886698  0.7502158349488468  0.1130222857832806   F   F   F
  0.0828712378028129  0.6877169521294704  0.1186661494224168   F   F   F
  0.4176644359050954  0.6877065482458136  0.1186607550294028   F   F   F
  0.0009745756444382  0.7502630702022161  0.1991487959602760   T   T   T
  0.3328947994576461  0.6876963699309030  0.1976946411087790   T   T   T
  0.1681305409947669  0.6876961256550471  0.1976802076961210   T   T   T
  0.2493623829306917  0.7501156977200140  0.2786541602689889   T   T   T
  0.0841366099239982  0.6877370013962839  0.2788916783481509   T   T   T
  0.4173832886317959  0.6876363521667970  0.2780991756117013   T   T   T
  0.0014769977804385  0.7502055978145419  0.3592300409147188   T   T   T
  0.3334173832671347  0.6879419284243558  0.3575739473547340   T   T   T
  0.1662621984323727  0.6878300374189731  0.3605604701206635   T   T   T
  0.0002122078768210  0.7501392066830732  0.0373456541597363   F   F   F
  0.3342232035055162  0.8125992309382539  0.0423967923009556   F   F   F
  0.1660586660861370  0.8126582257413517  0.0424062846115874   F   F   F
  0.2502173161139041  0.8752178897059935  0.1130360339591618   F   F   F
  0.0828568376004242  0.8127060748111887  0.1186645141734175   F   F   F
  0.4176984722473520  0.8127078846600213  0.1186298408889357   F   F   F
  0.0010313859862646  0.8752212876894093  0.1991638817836029   T   T   T
  0.3328565915798616  0.8127208467571199  0.1976956573837158   T   T   T
  0.1681436879275285  0.8127318274327096  0.1976803429237443   T   T   T
  0.2493916812980173  0.8752723529299169  0.2786707751912600   T   T   T
  0.0845583118135779  0.8127272928516633  0.2789415986397569   T   T   T
  0.4172500317781244  0.8126960767422795  0.2780564644369289   T   T   T
  0.0024297688282375  0.8755051804509671  0.3594884039566638   T   T   T
  0.3328661997254752  0.8127724049796003  0.3578355302124977   T   T   T
  0.1656968097044609  0.8126616141428709  0.3618890356950616   T   T   T
  0.0001993469486266  0.8751125453592721  0.0373668329409540   F   F   F
  0.3342265491584655  0.9376091382735510  0.0424193945147948   F   F   F
  0.1660559599480962  0.9376604044393915  0.0424156771225839   F   F   F
  0.2502327017382058  0.5002164962773534  0.1130220722767348   F   F   F
  0.0828707196508915  0.9377156099338535  0.1186668391713255   F   F   F
  0.4176643738564039  0.9377089816271322  0.1186614737223408   F   F   F
  0.0009437654582597  0.5002293379955738  0.1991482295852672   T   T   T
  0.3327811520597972  0.9377479435761040  0.1976274382536365   T   T   T
  0.1682140603385947  0.9377413790649365  0.1976466124189065   T   T   T
  0.2497080347168357  0.5002012824596663  0.2788517859931964   T   T   T
  0.0843810515203640  0.9377093445319418  0.2789090882795394   T   T   T
  0.4174981196062090  0.9377031807380102  0.2780004057987888   T   T   T
  0.0030338390409644  0.5003210444932543  0.3597398271522888   T   T   T
  0.3338714523584738  0.9377794347509378  0.3573547761906883   T   T   T
  0.1663368677353763  0.9375017281886528  0.3603940828832577   T   T   T
  0.5002112439569970  0.0001379294448540  0.0373463921698374   F   F   F
  0.8342257926207992  0.0625994154237475  0.0423987318545187   F   F   F
  0.6660626269271432  0.0626581163633873  0.0424061668450690   F   F   F
  0.7502202084754828  0.1252178855354416  0.1130358333669221   F   F   F
  0.5828588434925734  0.0627073156657261  0.1186643004524512   F   F   F
  0.9176999472490408  0.0627059576615423  0.1186271515872050   F   F   F
  0.5011196696608818  0.1252749649777406  0.1991446825614224   T   T   T
  0.8329075838176769  0.0627475421397864  0.1977001728003930   T   T   T
  0.6682485314568192  0.0627608215212659  0.1977454047705906   T   T   T
  0.7496700970282550  0.1251719675148459  0.2788150299248838   T   T   T
  0.5842365697212509  0.0627477982095880  0.2789063967767716   T   T   T
  0.9174692182528020  0.0626334303041671  0.2781787134806137   T   T   T
  0.5036147977280134  0.1250994576851133  0.3597318615589087   T   T   T
  0.8340944944133489  0.0625622836553528  0.3584906262232588   T   T   T
  0.6666474136861583  0.0626669806451925  0.3606722464426623   T   T   T
  0.5001993579241457  0.1251124241418680  0.0373673238785415   F   F   F
  0.8342248374093941  0.1876083518869578  0.0424180467130881   F   F   F
  0.6660568042752573  0.1876606967942038  0.0424146876443743   F   F   F
  0.7502332970886698  0.2502158349488468  0.1130222857832806   F   F   F
  0.5828712378028129  0.1877169521294775  0.1186661494224168   F   F   F
  0.9176644359050954  0.1877065482458207  0.1186607550294028   F   F   F
  0.5010697515353683  0.2503112202899524  0.1991682615971227   T   T   T
  0.8328690639568416  0.1877505262100052  0.1976736395060593   T   T   T
  0.6681760305188873  0.1877451415352642  0.1977043075955864   T   T   T
  0.7495761769340322  0.2500850205132109  0.2787829491840787   T   T   T
  0.5844183993260391  0.1877545939250954  0.2789414004538341   T   T   T
  0.9174980566791719  0.1876436266546766  0.2780936141022211   T   T   T
  0.5019993189458363  0.2499705307028744  0.3593770807924934   T   T   T
  0.8341180747157597  0.1876655383405632  0.3578555936225232   T   T   T
  0.6665816640816750  0.1877956270235756  0.3607422502099660   T   T   T
  0.5002122078768210  0.2501392066830732  0.0373456541597363   F   F   F
  0.8342232035055162  0.3125992309382539  0.0423967923009556   F   F   F
  0.6660586660861370  0.3126582257413517  0.0424062846115874   F   F   F
  0.7502173161139041  0.3752178897059935  0.1130360339591618   F   F   F
  0.5828568376004242  0.3127060748111887  0.1186645141734175   F   F   F
  0.9176984722473520  0.3127078846600213  0.1186298408889357   F   F   F
  0.5010539316368277  0.3752615672611195  0.1992227563535974   T   T   T
  0.8328036856552593  0.3127457989678504  0.1977195265040462   T   T   T
  0.6681574256019847  0.3127492438432291  0.1977200398695372   T   T   T
  0.7495610885084426  0.3752468386440612  0.2788243883053003   T   T   T
  0.5845675280829954  0.3127166062708608  0.2790351005198307   T   T   T
  0.9173201338342443  0.3126828317717182  0.2781072467754661   T   T   T
  0.5018851500593563  0.3753396004173823  0.3598822558529935   T   T   T
  0.8332096330718123  0.3124149887544977  0.3580102214993516   T   T   T
  0.6658882620121439  0.3126581313490248  0.3618559857766430   T   T   T
  0.5001993469486266  0.3751125453592721  0.0373668329409540   F   F   F
  0.8342265491584655  0.4376091382735581  0.0424193945147948   F   F   F
  0.6660559599480962  0.4376604044393986  0.0424156771225839   F   F   F
  0.7502327017382058  0.0002164962773534  0.1130220722767348   F   F   F
  0.5828707196508915  0.4377156099338606  0.1186668391713255   F   F   F
  0.9176643738564039  0.4377089816271393  0.1186614737223408   F   F   F
  0.5011448994776969  0.0002352649149485  0.1991044585466205   T   T   T
  0.8327404359780252  0.4377494063930771  0.1977000203907227   T   T   T
  0.6681650051214754  0.4377415879247226  0.1977456509874292   T   T   T
  0.7496758008933699  0.0002352255635357  0.2787815999664885   T   T   T
  0.5843482117075720  0.4376836854964897  0.2791579271186067   T   T   T
  0.9173266093088022  0.4376698272128243  0.2781299822926243   T   T   T
  0.5036794154913347  0.0001130781967131  0.3597666088020502   T   T   T
  0.8339005646925577  0.4376904585748511  0.3579187620990587   T   T   T
  0.6662965749772906  0.4374031744250675  0.3606445615807458   T   T   T
  0.5002112439569970  0.5001379294448540  0.0373463921698374   F   F   F
  0.8342257926207992  0.5625994154237475  0.0423987318545187   F   F   F
  0.6660626269271432  0.5626581163633873  0.0424061668450690   F   F   F
  0.7502202084754828  0.6252178855354416  0.1130358333669221   F   F   F
  0.5828588434925734  0.5627073156657261  0.1186643004524512   F   F   F
  0.9176999472490408  0.5627059576615423  0.1186271515872050   F   F   F
  0.5011376446058520  0.6250938549149040  0.1991830598885411   T   T   T
  0.8327613578255476  0.5627317657243468  0.1977394008062857   T   T   T
  0.6681246749790509  0.5627020516847514  0.1977910145496831   T   T   T
  0.7494167713642801  0.6252027109613605  0.2788644643277304   T   T   T
  0.5846155398354937  0.5625246356816199  0.2792367992652796   T   T   T
  0.9171824096907338  0.5627069957869038  0.2781916115589499   T   T   T
  0.5028432491610064  0.6253158838042240  0.3593872479672487   T   T   T
  0.8333994820339029  0.5625755985578171  0.3583351774286174   T   T   T
  0.6663117723740103  0.5625715133987620  0.3623320055551633   T   T   T
  0.5001993579241457  0.6251124241418680  0.0373673238785415   F   F   F
  0.8342248374093941  0.6876083518869507  0.0424180467130881   F   F   F
  0.6660568042752573  0.6876606967941967  0.0424146876443743   F   F   F
  0.7502332970886698  0.7502158349488468  0.1130222857832806   F   F   F
  0.5828712378028129  0.6877169521294704  0.1186661494224168   F   F   F
  0.9176644359050954  0.6877065482458136  0.1186607550294028   F   F   F
  0.5010524749704834  0.7501699715764916  0.1991186303097157   T   T   T
  0.8328723670384924  0.6877219475874236  0.1976895149885204   T   T   T
  0.6681782721622178  0.6877130547726324  0.1977201249889284   T   T   T
  0.7496074333736641  0.7502615444649428  0.2787674736762366   T   T   T
  0.5842926774870003  0.6875968932456331  0.2788761901739492   T   T   T
  0.9171913208198125  0.6877230838519032  0.2781726827693164   T   T   T
  0.5031922506885805  0.7502956056082667  0.3596048893697452   T   T   T
  0.8335748524828116  0.6879148410380219  0.3578812613718269   T   T   T
  0.6663836291909185  0.6875685599020519  0.3604272321722156   T   T   T
  0.5002122078768210  0.7501392066830732  0.0373456541597363   F   F   F
  0.8342232035055162  0.8125992309382539  0.0423967923009556   F   F   F
  0.6660586660861370  0.8126582257413517  0.0424062846115874   F   F   F
  0.7502173161139041  0.8752178897059935  0.1130360339591618   F   F   F
  0.5828568376004242  0.8127060748111887  0.1186645141734175   F   F   F
  0.9176984722473520  0.8127078846600213  0.1186298408889357   F   F   F
  0.5010957408994704  0.8752200888555847  0.1991069380459229   T   T   T
  0.8328805351034145  0.8127521863917275  0.1977033896710960   T   T   T
  0.6682647962338649  0.8127269751779599  0.1977368688152690   T   T   T
  0.7496259517872912  0.8752208257268425  0.2788039107522135   T   T   T
  0.5841166220673509  0.8126748018201296  0.2788200583208483   T   T   T
  0.9173029984586849  0.8127909754923586  0.2782415274957481   T   T   T
  0.5037271640079574  0.8751083947950586  0.3597196890695892   T   T   T
  0.8337845047050064  0.8129669091686292  0.3587081505733248   T   T   T
  0.6663850619940820  0.8127753924638434  0.3605829824450656   T   T   T
  0.5001993469486266  0.8751125453592721  0.0373668329409540   F   F   F
  0.8342265491584655  0.9376091382735510  0.0424193945147948   F   F   F
  0.6660559599480962  0.9376604044393915  0.0424156771225839   F   F   F
  0.7502327017382058  0.5002164962773534  0.1130220722767348   F   F   F
  0.5828707196508915  0.9377156099338535  0.1186668391713255   F   F   F
  0.9176643738564039  0.9377089816271322  0.1186614737223408   F   F   F
  0.5011201018969321  0.5002074191939361  0.1992252366012142   T   T   T
  0.8330009928710123  0.9377465995321612  0.1977089242827626   T   T   T
  0.6682248996795270  0.9377416519672651  0.1977289502910690   T   T   T
  0.7494859738813028  0.5000604581621190  0.2789752144548542   T   T   T
  0.5842510446655667  0.9377091006621754  0.2787984661587831   T   T   T
  0.9174208787562527  0.9377206798102689  0.2782970358290298   T   T   T
  0.5023400199751233  0.5000557921443212  0.3603830853770402   T   T   T
  0.8339520498687126  0.9379318043036082  0.3582368319109620   T   T   T
  0.6666987074618357  0.9377337895476069  0.3603271822323632   T   T   T
  0.4059663601692378  0.0001462046730154  0.0700885167279779   F   F   F
  0.2501335306342440  0.0001313415364734  0.0393543396202674   F   F   F
  0.0944334762619548  0.0001738881651363  0.0701382961740649   F   F   F
  0.1549947328934422  0.1252546000618224  0.1485264565477067   F   F   F
  0.0003044512358912  0.1252329358346600  0.1366467142038701   F   F   F
  0.3454752489896649  0.1252525403775380  0.1484231789215542   F   F   F
  0.4017470738260617  0.1252848945720687  0.2292838898063768   T   T   T
  0.2504498474120486  0.1252983596043704  0.2153850195095466   T   T   T
  0.1001761071854520  0.1251833400442348  0.2298026587304889   T   T   T
  0.1517843405994565  0.1249132010513391  0.3110256955455798   T   T   T
  0.0010054414096580  0.1251330112800949  0.2953184939405898   T   T   T
  0.3485548517018058  0.1251456812901771  0.3089391167173679   T   T   T
  0.4035244782508033  0.1245707861843895  0.3861936954517998   T   T   T
  0.2520919283635930  0.1257951411854044  0.3762710554834907   T   T   T
  0.0998524304011709  0.1258682209535823  0.3904992366237129   T   T   T
  0.4059504510021199  0.1251528418496832  0.0701137697057277   F   F   F
  0.2501484584581348  0.1251294756807368  0.0393952583647277   F   F   F
  0.0944439778587522  0.1251741239827453  0.0701534912843229   F   F   F
  0.1549877250862224  0.2502614546838657  0.1485179043880294   F   F   F
  0.0002974674814880  0.2502100279361912  0.1366324893501272   F   F   F
  0.3454803331882346  0.2503006024972620  0.1484139149937889   F   F   F
  0.4017312770216712  0.2502799233668104  0.2293670840307953   T   T   T
  0.2505050709242705  0.2502690820931808  0.2154245301275114   T   T   T
  0.1000909375230316  0.2502757334550217  0.2297785868385444   T   T   T
  0.1517015466840566  0.2503451154417223  0.3108282942429864   T   T   T
  0.0008045156447328  0.2502257882393528  0.2954405940814135   T   T   T
  0.3486427134509714  0.2504489114970959  0.3091462466625783   T   T   T
  0.4025854653772015  0.2490224199907141  0.3869646898578545   T   T   T
  0.2521432885598885  0.2505268303984577  0.3760509725938198   T   T   T
  0.1015054225970830  0.2496659730514013  0.3917094634093917   T   T   T
  0.4059628358367533  0.2501443164155361  0.0700852243531500   F   F   F
  0.2501309939231433  0.2501318371526651  0.0393519425499136   F   F   F
  0.0944333317481849  0.2501740935465691  0.0701386596889861   F   F   F
  0.1549942609652177  0.3752545226085218  0.1485264414225469   F   F   F
  0.0003019335461047  0.3752315664304433  0.1366474736751755   F   F   F
  0.3454762333887373  0.3752493953370220  0.1484229723695165   F   F   F
  0.4017497119880895  0.3753401060871530  0.2294956779429206   T   T   T
  0.2505168817371614  0.3753062500779774  0.2154906567897007   T   T   T