generated by phonopy                    
   1.00000000000000     
     5.0799955394631651   -0.0000000000000005    0.0000000000000000
    -2.5399977697315825    4.3994051882867335   -0.0000000000000000
     0.0000000000000000    0.0000000000000000   12.9682112483147005
   B    N    Al
    15    16     1
Direct
  0.1666963425562735  0.3333036574437264  0.9847904143497390
  0.6666073148874742  0.3333036574437264  0.9847904143497390
  0.1666963425562735  0.8333926851125258  0.9847904143497390
  0.6666666666666714  0.8333333333333286  0.9850524254722184
  0.1642251021667667  0.3357748978332332  0.4890406804794243
  0.6715497956664734  0.3357748978332332  0.4890406804794243
  0.1642251021667667  0.8284502043335266  0.4890406804794243
  0.3333333333333286  0.1666666666666714  0.2408801574879142
  0.8331587165978241  0.1663174331956691  0.2410356285681091
  0.3336825668043311  0.6668412834021759  0.2410356285681091
  0.8331587165978241  0.6668412834021759  0.2410356285681091
  0.3333333333333286  0.1666666666666714  0.7301454418073831
  0.8359583152141994  0.1719166304284125  0.7278323577570427
  0.3280833695715871  0.6640416847858006  0.7278323577570427
  0.8359583152141994  0.6640416847858006  0.7278323577570427
  0.3333333333333286  0.1666666666666714  0.9839194081866292
  0.8333078605424773  0.1666157210849769  0.9835839861995068
  0.3333842789150233  0.6666921394575227  0.9835839861995068
  0.8333078605424773  0.6666921394575227  0.9835839861995068
  0.3333333333333286  0.1666666666666714  0.4944954480188792
  0.8447153722602770  0.1894307445205614  0.4907548160271712
  0.3105692554794386  0.6552846277397230  0.4907548160271712
  0.8447153722602770  0.6552846277397230  0.4907548160271712
  0.1666805586973344  0.3333194413026657  0.2399833439964360
  0.6666388826053455  0.3333194413026657  0.2399833439964360
  0.1666805586973344  0.8333611173946545  0.2399833439964360
  0.6666666666666714  0.8333333333333286  0.2392026482625952
  0.1666209300756898  0.3333790699243102  0.7322700373683941
  0.6667581398486346  0.3333790699243102  0.7322700373683941
  0.1666209300756898  0.8332418601513654  0.7322700373683941
  0.6666666666666714  0.8333333333333286  0.7157804718358300
  0.6666666666666714  0.8333333333333286  0.5426502046910957
 
  0.00000000E+00  0.00000000E+00  0.00000000E+00
  0.00000000E+00  0.00000000E+00  0.00000000E+00
  0.00000000E+00  0.00000000E+00  0.00000000E+00
  0.00000000E+00  0.00000000E+00  0.00000000E+00
  0.00000000E+00  0.00000000E+00  0.00000000E+00
  0.00000000E+00  0.00000000E+00  0.00000000E+00
  0.00000000E+00  0.00000000E+00  0.00000000E+00
  0.00000000E+00  0.00000000E+00  0.00000000E+00
  0.00000000E+00  0.00000000E+00  0.00000000E+00
  0.00000000E+00  0.00000000E+00  0.00000000E+00
  0.00000000E+00  0.00000000E+00  0.00000000E+00
  0.00000000E+00  0.00000000E+00  0.00000000E+00
  0.00000000E+00  0.00000000E+00  0.00000000E+00
  0.00000000E+00  0.00000000E+00  0.00000000E+00
  0.00000000E+00  0.00000000E+00  0.00000000E+00
  0.00000000E+00  0.00000000E+00  0.00000000E+00
  0.00000000E+00  0.00000000E+00  0.00000000E+00
  0.00000000E+00  0.00000000E+00  0.00000000E+00
  0.00000000E+00  0.00000000E+00  0.00000000E+00
  0.00000000E+00  0.00000000E+00  0.00000000E+00
  0.00000000E+00  0.00000000E+00  0.00000000E+00
  0.00000000E+00  0.00000000E+00  0.00000000E+00
  0.00000000E+00  0.00000000E+00  0.00000000E+00
  0.00000000E+00  0.00000000E+00  0.00000000E+00
  0.00000000E+00  0.00000000E+00  0.00000000E+00
  0.00000000E+00  0.00000000E+00  0.00000000E+00
  0.00000000E+00  0.00000000E+00  0.00000000E+00
  0.00000000E+00  0.00000000E+00  0.00000000E+00
  0.00000000E+00  0.00000000E+00  0.00000000E+00
  0.00000000E+00  0.00000000E+00  0.00000000E+00
  0.00000000E+00  0.00000000E+00  0.00000000E+00
  0.00000000E+00  0.00000000E+00  0.00000000E+00
