generated by phonopy                    
   1.00000000000000     
     5.0861259642132985   -0.0000000000000005   -0.0000000000000000
    -2.5430629821066493    4.4047142918563376   -0.0000000000000000
    -0.0000000000000000    0.0000000000000000   12.8789173433092099
   B    N    Al
    15    16     1
Direct
  0.1666993418779705  0.3333006581220294 -0.0149846245150481
  0.6666013162440730  0.3333006581220294 -0.0149846245150481
  0.1666993418779705  0.8333986837559270 -0.0149846245150481
  0.6666666666666714  0.8333333333333286 -0.0146906108509083
  0.1641630373419392  0.3358369626580608  0.4889988223423891
  0.6716739253161359  0.3358369626580608  0.4889988223423891
  0.1641630373419392  0.8283260746838641  0.4889988223423891
  0.3333333333333286  0.1666666666666714  0.2409510156931318
  0.8331559985130883  0.1663119970261904  0.2411158557269835
  0.3336880029738097  0.6668440014869117  0.2411158557269835
  0.8331559985130882  0.6668440014869117  0.2411158557269835
  0.3333333333333286  0.1666666666666714  0.7297375023736784
  0.8360445551069298  0.1720891102138733  0.7276229993582956
  0.3279108897861263  0.6639554448930702  0.7276229993582956
  0.8360445551069298  0.6639554448930702  0.7276229993582956
  0.3333333333333286  0.1666666666666714  0.9841147378055595
  0.8333083068156329  0.1666166136312806  0.9837928494180598
  0.3333833863687192  0.6666916931843671  0.9837928494180598
  0.8333083068156329  0.6666916931843671  0.9837928494180598
  0.3333333333333286  0.1666666666666714  0.4946089704377682
  0.8448127593811959  0.1896255187624068  0.4906334979589477
  0.3103744812375933  0.6551872406188042  0.4906334979589477
  0.8448127593811957  0.6551872406188044  0.4906334979589477
  0.1666821447807738  0.3333178552192265  0.2400484090907170
  0.6666357104384673  0.3333178552192265  0.2400484090907170
  0.1666821447807738  0.8333642895615327  0.2400484090907170
  0.6666666666666714  0.8333333333333286  0.2392191330932061
  0.1666122395310554  0.3333877604689444  0.7320547529464942
  0.6667755209379029  0.3333877604689444  0.7320547529464942
  0.1666122395310554  0.8332244790620971  0.7320547529464942
  0.6666666666666714  0.8333333333333286  0.7156342159701981
  0.6666666666666714  0.8333333333333286  0.5425773484968693
