Ru Ta  N  Cu                            
   1.00000000000000     
    18.1096308199999996    0.0000000000000000    0.0000000000000000
     0.0000000000000000   23.3551997799999995    0.0000000000000000
     0.0000000000000000    0.0000000000000000   30.4818170799999990
   Ru   Ta   N    Cu
    64   240   240     1
Selective dynamics
Direct
  0.0673901149730635  0.0110413364525765  0.5336110550598812   T   T   T
  0.2857840292122989  0.5025076891903025  0.5252127459690556   T   T   T
  0.4413530720742663  0.0625896622268072  0.5193915637661158   T   T   T
  0.0709272380299377  0.2621649018564284  0.5343637065128743   T   T   T
  0.2835558609389812  0.2490626066682045  0.5255883156236271   T   T   T
  0.4408165905129793  0.3103930056498438  0.5199054040384844   T   T   T
  0.0669125067610087  0.1225884077817838  0.5332121757263447   T   T   T
  0.2843937853715331  0.1323421268789190  0.5253494170077527   T   T   T
  0.4444587408943980  0.1860146315784704  0.5206871035020574   T   T   T
  0.0692261634360099  0.3747389639785995  0.5329894768760630   T   T   T
  0.2834674680949433  0.3843563632157559  0.5257799852281430   T   T   T
  0.4359755069681003  0.4368892738343890  0.5203266254275380   T   T   T
  0.1737772798375680  0.4375390228884145  0.5483481492586249   T   T   T
  0.1884641475317742  0.3110743215343742  0.5506993291986927   T   T   T
  0.1723262055255222  0.1835870601500410  0.5488431633039016   T   T   T
  0.1861341108184388  0.0606239201571854  0.5504265887230058   T   T   T
  0.0681356044247202  0.5116338116741486  0.5329987579822156   T   T   T
  0.2852331377915555  0.9993083022645798  0.5249132172699396   T   T   T
  0.4434569254716371  0.5626904793703243  0.5199387498755550   T   T   T
  0.0693523860773394  0.7624304552255805  0.5339965749112338   T   T   T
  0.2833025233239740  0.7490490989487727  0.5254990201412449   T   T   T
  0.4407912239060580  0.8120748014902802  0.5193700863789086   T   T   T
  0.0667193503686515  0.6224369863583564  0.5329993574688053   T   T   T
  0.2815322550117405  0.6321957083071222  0.5261975545938682   T   T   T
  0.4459267349837541  0.6883676205251170  0.5207553766058224   T   T   T
  0.0680524491670598  0.8740749174155346  0.5336220629933847   T   T   T
  0.2841603677501495  0.8823724154243204  0.5254032285629391   T   T   T
  0.4447497636757126  0.9373050663847186  0.5209970498771500   T   T   T
  0.1734979691459430  0.9379543193211670  0.5483987680441257   T   T   T
  0.1873248333723710  0.8118347475423755  0.5510001839815794   T   T   T
  0.1702054248708268  0.6857389940942622  0.5489834148778279   T   T   T
  0.1855025549074315  0.5601275906108835  0.5513957719013287   T   T   T
  0.5680506731244401  0.0054064540023814  0.5336043276065306   T   T   T
  0.7876586414146517  0.4962431159531265  0.5244843409333647   T   T   T
  0.9408578590127973  0.0600519055106312  0.5192686130201636   T   T   T
  0.5688875952155698  0.2472083492156249  0.5343354618983899   T   T   T
  0.7849709049515895  0.2470198319171635  0.5249883600231093   T   T   T
  0.9442770736220899  0.3089345791678511  0.5200121185335762   T   T   T
  0.5657312638044451  0.1161903716693263  0.5333017689661375   T   T   T
  0.7876756132381121  0.1238690475606441  0.5242210106801782   T   T   T
  0.9468720171235905  0.1877005501970593  0.5212244404879200   T   T   T
  0.5678047852555697  0.3554690443075654  0.5338777841659177   T   T   T
  0.7918878935009800  0.3762670679474116  0.5234629717855482   T   T   T
  0.9498173422816037  0.4377525251566311  0.5221047242031467   T   T   T
  0.6777840861179752  0.4302548792429156  0.5472662670517286   T   T   T
  0.6888966533527984  0.3169287348742674  0.5518934223158969   T   T   T
  0.6776420900524585  0.1863637833274215  0.5477111897568040   T   T   T
  0.6844588344387437  0.0671361135058735  0.5513739948634415   T   T   T
  0.5729419225178585  0.5218580587019951  0.5355013233286071   T   T   T
  0.7818728831644361  0.9990990035664175  0.5257743643274343   T   T   T
  0.9409827302602121  0.5612408130988346  0.5194828531065994   T   T   T
  0.5660974914312519  0.7608759079890259  0.5330183315387313   T   T   T
  0.7881569908252906  0.7538463451653336  0.5244295131738005   T   T   T
  0.9416066310571026  0.8109528641402018  0.5192329892251356   T   T   T
  0.5689092469899300  0.6305447361284328  0.5348199003711158   T   T   T
  0.7840669100663302  0.6320786577159105  0.5253661224272527   T   T   T
  0.9463678617322568  0.6869572699344632  0.5212952451640299   T   T   T
  0.5671488500258617  0.8715684067303704  0.5336200612103436   T   T   T
  0.7813978617963159  0.8768430791867792  0.5258699712934137   T   T   T
  0.9467136071478601  0.9372292841271771  0.5210369422753817   T   T   T
  0.6733631865174010  0.9376741954399974  0.5485399505810715   T   T   T
  0.6837761708173904  0.8086064238828282  0.5520352620898190   T   T   T
  0.6771160041664959  0.6916419087300066  0.5480289348980267   T   T   T
  0.6924215057603609  0.5590231120275426  0.5510368815701412   T   T   T
  0.9996246524628063  0.9999635445867767  0.1022212275957983   F   F   F
  0.3339438256838960  0.0624457813299060  0.1075563970202325   F   F   F
  0.1656734882889026  0.0624869619810369  0.1076523577670159   F   F   F
  0.2496380332605455  0.1248777014917124  0.1827535963680589   F   F   F
  0.0820753910794778  0.0624168821917976  0.1887361965005994   F   F   F
  0.4168249566545654  0.0624128089775482  0.1889653308070223   F   F   F
  0.0002820958121857  0.1249088678829774  0.2747682801624324   T   T   T
  0.3320286501996446  0.0624219266762010  0.2731820717230001   T   T   T
  0.1676973631273695  0.0624368771144350  0.2728394466832992   T   T   T
  0.2491816661663706  0.1250158367906703  0.3596445620393905   T   T   T
  0.0838898082027073  0.0625198001457734  0.3592378972659365   T   T   T
  0.4160503810454637  0.0624236192009985  0.3589948189350459   T   T   T
  0.4962030562377115  0.1249113665756559  0.4437087444333850   T   T   T
  0.3322012467087734  0.0623404187384274  0.4451861435867548   T   T   T
  0.1655702255481138  0.0626788842478831  0.4473737556943598   T   T   T
  0.9996175425524214  0.1249358288969233  0.1022184789678420   F   F   F
  0.3339435537114426  0.1874256191358299  0.1075504356733603   F   F   F
  0.1656688965935942  0.1874633245330628  0.1076544484778310   F   F   F
  0.2496428192825420  0.2499248694537357  0.1827745152021549   F   F   F
  0.0820483011947246  0.1874164370395803  0.1887315368489411   F   F   F
  0.4168235962087010  0.1874178821048673  0.1889761876915443   F   F   F
  0.0002673662264610  0.2499178204836832  0.2747924669725376   T   T   T
  0.3320650153017130  0.1874474075500611  0.2732093985356687   T   T   T
  0.1676895617985650  0.1874630144676440  0.2728782757072274   T   T   T
  0.2490971464203863  0.2500498247915843  0.3596795891583238   T   T   T
  0.0837075569156650  0.1875316263672770  0.3594784878260133   T   T   T
  0.4159023175143338  0.1874811315689991  0.3588629495474366   T   T   T
  0.4963243548165150  0.2494339597221052  0.4440656789104478   T   T   T
  0.3324715890121624  0.1871664670928086  0.4443517934879619   T   T   T
  0.1641161552022558  0.1876803097338824  0.4480756051781114   T   T   T
  0.9996247444640574  0.2499647011854407  0.1022230082490267   F   F   F
  0.3339438339619036  0.3124448417397900  0.1075557633545969   F   F   F
  0.1656741876920407  0.3124866150128511  0.1076519504247102   F   F   F
  0.2496342491082189  0.3748782083517597  0.1827543288382500   F   F   F
  0.0820773763724816  0.3124181279228466  0.1887355922833933   F   F   F
  0.4168238893201348  0.3124134579098339  0.1889644027201030   F   F   F
  0.0001819797442012  0.3749310244247454  0.2747752013858314   T   T   T
  0.3320219255578201  0.3124601240759847  0.2732030938548863   T   T   T
  0.1676032178361271  0.3124595157984145  0.2729108754993051   T   T   T
  0.2491807552941695  0.3750378638234304  0.3596583404722689   T   T   T
  0.0836937994511248  0.3125431341517662  0.3594151647697958   T   T   T
  0.4160555496938192  0.3124865716362141  0.3590952693690493   T   T   T
  0.4965717053839500  0.3747079221308519  0.4441735499875995   T   T   T
  0.3319870084185793  0.3121170749632133  0.4452852044824487   T   T   T
  0.1654952603379475  0.3127064461788346  0.4473359515087129   T   T   T
  0.9996196554118555  0.3749345235867736  0.1022175688270863   F   F   F
  0.3339389444248013  0.4374272239936090  0.1075500232538360   F   F   F
  0.1656692123176882  0.4374660331456823  0.1076535614342404   F   F   F
  0.2496367764464793  0.9999279799998888  0.1827742299965678   F   F   F
  0.0820476334098430  0.4374171254006285  0.1887298800136392   F   F   F
  0.4168193524269412  0.4374154383080295  0.1889763507298241   F   F   F
  0.5003001081072108  0.4998951232048223  0.2748271234844915   T   T   T
  0.3320801271900697  0.4374306468673689  0.2732391640828695   T   T   T
  0.1675913583823846  0.4374446841790027  0.2729235047164328   T   T   T
  0.2493045386145575  0.5000275295118337  0.3596803903645447   T   T   T
  0.0835842093472710  0.4375082546700140  0.3595669602743154   T   T   T
  0.4160889633553836  0.4374802803421901  0.3591499576026441   T   T   T
  0.4972987782375628  0.4996481787718497  0.4446868955256474   T   T   T
  0.3327943968332107  0.4371961629999069  0.4446604683570993   T   T   T
  0.1642735294108415  0.4378678670943479  0.4477989233501787   T   T   T
  0.9996246524628063  0.4999635445867767  0.1022212275957983   F   F   F
  0.3339438256838960  0.5624457813299060  0.1075563970202325   F   F   F
  0.1656734882889026  0.5624869619810369  0.1076523577670159   F   F   F
  0.2496380332605455  0.6248777014917124  0.1827535963680589   F   F   F
  0.0820753910794778  0.5624168821917976  0.1887361965005994   F   F   F
  0.4168249566545654  0.5624128089775482  0.1889653308070223   F   F   F
  0.0001839767637447  0.6248801217917800  0.2747806088460464   T   T   T
  0.3320846533697980  0.5623866717709628  0.2732286807751796   T   T   T
  0.1676851040238695  0.5624052962215134  0.2728848529570690   T   T   T
  0.2493233246231294  0.6249655908093522  0.3596897503670661   T   T   T
  0.0837259950854477  0.5624686429994317  0.3592661930640282   T   T   T
  0.4161327766191262  0.5624083139565670  0.3592017418937700   T   T   T
  0.4967341114950779  0.6250217551508174  0.4441614343269485   T   T   T
  0.3324711202094542  0.5625037928564527  0.4454350240266663   T   T   T
  0.1654718693879064  0.5626625288824496  0.4471491516568786   T   T   T
  0.9996175425524214  0.6249358288969233  0.1022184789678420   F   F   F
  0.3339435537114426  0.6874256191358228  0.1075504356733603   F   F   F
  0.1656688965935942  0.6874633245330557  0.1076544484778310   F   F   F
  0.2496428192825420  0.7499248694537357  0.1827745152021549   F   F   F
  0.0820483011947246  0.6874164370395732  0.1887315368489411   F   F   F
  0.4168235962087010  0.6874178821048602  0.1889761876915443   F   F   F
  0.0002412360557532  0.7498967244138741  0.2747758522549052   T   T   T
  0.3321157866252278  0.6873818044835978  0.2732460781024387   T   T   T
  0.1676973788669726  0.6873912024538894  0.2728718267229219   T   T   T
  0.2492642548347844  0.7499961339184225  0.3597307789570410   T   T   T
  0.0836979055241761  0.6874606094672273  0.3594382743613342   T   T   T
  0.4159387942728101  0.6874187189117397  0.3589999444101207   T   T   T
  0.4957476841783989  0.7497774625432455  0.4438951067694185   T   T   T
  0.3327257427598602  0.6871895552051738  0.4447710347221394   T   T   T
  0.1641662144185679  0.6877528452185535  0.4480533194721730   T   T   T
  0.9996247444640574  0.7499647011854407  0.1022230082490267   F   F   F
  0.3339438339619036  0.8124448417397900  0.1075557633545969   F   F   F
  0.1656741876920407  0.8124866150128511  0.1076519504247102   F   F   F
  0.2496342491082189  0.8748782083517597  0.1827543288382500   F   F   F
  0.0820773763724816  0.8124181279228466  0.1887355922833933   F   F   F
  0.4168238893201348  0.8124134579098339  0.1889644027201030   F   F   F
  0.0002880800187306  0.8749009232571121  0.2747647989905027   T   T   T
  0.3320539559424655  0.8123840883722389  0.2732006334993995   T   T   T
  0.1677204881931361  0.8123939383634097  0.2728489948992159   T   T   T
  0.2492982474779765  0.8749345274264086  0.3596978294710958   T   T   T
  0.0838924941644707  0.8124725078287349  0.3592280694049976   T   T   T
  0.4160014571178667  0.8123966520889730  0.3591059294553125   T   T   T
  0.4960494373816374  0.8751140283243122  0.4441157007552936   T   T   T
  0.3321749709238979  0.8123899422656125  0.4454553465098697   T   T   T
  0.1656520058089145  0.8127401899978116  0.4473872216101664   T   T   T
  0.9996196554118555  0.8749345235867736  0.1022175688270863   F   F   F
  0.3339389444248013  0.9374272239936019  0.1075500232538360   F   F   F
  0.1656692123176882  0.9374660331456752  0.1076535614342404   F   F   F
  0.2496367764464793  0.4999279799998888  0.1827742299965678   F   F   F
  0.0820476334098430  0.9374171254006214  0.1887298800136392   F   F   F
  0.4168193524269412  0.9374154383080224  0.1889763507298241   F   F   F
  0.5001942891000638  0.9998900252881517  0.2747494019845835   T   T   T
  0.3321111456074937  0.9373972159042525  0.2732385061980388   T   T   T
  0.1677366964611731  0.9374097531566749  0.2728407541584683   T   T   T
  0.2492628009612853  0.0000363543720252  0.3596830965350410   T   T   T
  0.0838068768319676  0.9374741880920378  0.3593473276377314   T   T   T
  0.4159641134001751  0.9374144748454262  0.3589292830767476   T   T   T
  0.4959856216890732  0.9996943029114493  0.4441473507054755   T   T   T
  0.3324655366033026  0.9373089131848426  0.4443479942786790   T   T   T
  0.1642987944690427  0.9378029583847096  0.4479654121524618   T   T   T
  0.4996261485864011  0.9999638794554073  0.1022212895025945   F   F   F
  0.8339437371848675  0.0624482785398897  0.1075580759875550   F   F   F
  0.6656689243728380  0.0624780056916450  0.1076592327669417   F   F   F
  0.7496377014008289  0.1248750966894079  0.1827574333080477   F   F   F
  0.5820735458319604  0.0624174442172745  0.1887352315057669   F   F   F
  0.9168252921289621  0.0624138005358219  0.1889639379559043   F   F   F
  0.5002127226591498  0.1249172660762601  0.2747520176684674   T   T   T
  0.8321287834523721  0.0623804782249120  0.2731901235960759   T   T   T
  0.6677545212635194  0.0623840669554267  0.2728297533185035   T   T   T
  0.7493701550891421  0.1246723838884344  0.3596580230215379   T   T   T
  0.5837607368228158  0.0623499482160341  0.3590759449025402   T   T   T
  0.9162068690415378  0.0622973606448491  0.3590585549878870   T   T   T
  0.9951457924597926  0.1246469192236327  0.4442792486454526   T   T   T
  0.8326983038434992  0.0621686284401201  0.4452475523751567   T   T   T
  0.6655688064544263  0.0622298934459499  0.4470601370431777   T   T   T
  0.4996213536236240  0.1249348955726433  0.1022183024833154   F   F   F
  0.8339388961320680  0.1874236234033546  0.1075519903559652   F   F   F
  0.6656669566206190  0.1874574838225769  0.1076541056651124   F   F   F
  0.7496375557706187  0.2499211919418656  0.1827775726101990   F   F   F
  0.5820467926301731  0.1874136002736648  0.1887331258771638   F   F   F
  0.9168211714113710  0.1874148173649246  0.1889752459503455   F   F   F
  0.5002046523763108  0.2499544020547835  0.2747715865473023   T   T   T
  0.8322058747093318  0.1873813182781688  0.2732471733791909   T   T   T
  0.6677257371218313  0.1873914569873144  0.2728447172322203   T   T   T
  0.7493366289069370  0.2498003103276379  0.3596912223914113   T   T   T
  0.5836759162467698  0.1873720329827006  0.3592706356461298   T   T   T
  0.9162046622350521  0.1873251478995790  0.3590158677341481   T   T   T
  0.9955004408515321  0.2493047695351118  0.4445225911359617   T   T   T
  0.8320972499087090  0.1870636986930697  0.4444468517426551   T   T   T
  0.6644505921110896  0.1869146244751555  0.4478884857078388   T   T   T
  0.4996265847195431  0.2499624135589542  0.1022211658925301   F   F   F
  0.8339432913754052  0.3124470264806618  0.1075580597257542   F   F   F
  0.6656786166489255  0.3124812578813660  0.1076589101753385   F   F   F
  0.7496359798815462  0.3748756411498491  0.1827578042801292   F   F   F
  0.5820751330297256  0.3124154754956550  0.1887345581865603   F   F   F
  0.9168256971425777  0.3124110138011744  0.1889624020058491   F   F   F
  0.5002616496614989  0.3749674093542363  0.2748036074231740   T   T   T
  0.8321163366943218  0.3124056812178785  0.2732609576684231   T   T   T
  0.6677130530678748  0.3124209992042845  0.2728940467457924   T   T   T
  0.7490608263473327  0.3747508177021980  0.3598072520607849   T   T   T
  0.5837921524178040  0.3123587876966833  0.3593342343699333   T   T   T
  0.9163391770823920  0.3123171776416988  0.3592025519990802   T   T   T
  0.9934794613509682  0.3745179660273097  0.4452512328861993   T   T   T
  0.8319952873843495  0.3120646498932297  0.4450535298899991   T   T   T
  0.6650352775300009  0.3120023551626814  0.4473913548426489   T   T   T
  0.4996231203952064  0.3749337364865255  0.1022171720136171   F   F   F
  0.8339311317052278  0.4374224703005467  0.1075522038351053   F   F   F
  0.6656706818776428  0.4374574332997483  0.1076540871022118   F   F   F
  0.7496383104150084  0.9999213865668750  0.1827756388646549   F   F   F
  0.5820474546648100  0.4374150382907018  0.1887310280212660   F   F   F
  0.9168210958579976  0.4374163027642837  0.1889749839040178   F   F   F
  0.0001340643036424  0.4999104160099564  0.2747829421861582   T   T   T
  0.8321827782246090  0.4373947168272768  0.2733602187324766   T   T   T
  0.6676838669685015  0.4374203407636431  0.2729832694644422   T   T   T
  0.7489424254821394  0.4999158702423468  0.3599587099954372   T   T   T
  0.5836987802027256  0.4374443632463780  0.3597675922303724   T   T   T
  0.9161943115962592  0.4373686192764220  0.3591645765964916   T   T   T
  0.9938337593281902  0.4992147556452651  0.4448193145019124   T   T   T
  0.8316185333978320  0.4370930272173174  0.4439212615485954   T   T   T
  0.6631353842371712  0.4370910773543737  0.4489974104923960   T   T   T
  0.4996261485864011  0.4999638794554073  0.1022212895025945   F   F   F
  0.8339437371848675  0.5624482785398897  0.1075580759875550   F   F   F
  0.6656689243728380  0.5624780056916450  0.1076592327669417   F   F   F
  0.7496377014008289  0.6248750966894079  0.1827574333080477   F   F   F
  0.5820735458319604  0.5624174442172745  0.1887352315057669   F   F   F
  0.9168252921289621  0.5624138005358219  0.1889639379559043   F   F   F
  0.5002551616308197  0.6248721538893300  0.2748084815433604   T   T   T
  0.8320213352403653  0.5623818281216941  0.2732716403427848   T   T   T
  0.6676759947265684  0.5623961425712395  0.2729490801318098   T   T   T
  0.7491999445738147  0.6248968630525105  0.3598537273019202   T   T   T
  0.5838070655975568  0.5624323796012333  0.3595753164008762   T   T   T
  0.9160767823398852  0.5623726236030956  0.3592113725695285   T   T   T
  0.9947063697559457  0.6246673276754707  0.4443008206357588   T   T   T
  0.8316769188653443  0.5622631578053063  0.4455796983214950   T   T   T
  0.6649273757757036  0.5624206353142757  0.4480302145199321   T   T   T
  0.4996213536236240  0.6249348955726433  0.1022183024833154   F   F   F
  0.8339388961320680  0.6874236234033475  0.1075519903559652   F   F   F
  0.6656669566206190  0.6874574838225698  0.1076541056651124   F   F   F
  0.7496375557706187  0.7499211919418656  0.1827775726101990   F   F   F
  0.5820467926301731  0.6874136002736577  0.1887331258771638   F   F   F
  0.9168211714113710  0.6874148173649175  0.1889752459503455   F   F   F
  0.5001982589919374  0.7498696961877694  0.2747802938748679   T   T   T
  0.8321656066637162  0.6873643500600993  0.2732666912314088   T   T   T
  0.6676929921545405  0.6873740917173474  0.2728826799243965   T   T   T
  0.7493875565860462  0.7500316363149329  0.3596974282781413   T   T   T
  0.5836971910130302  0.6874319670334906  0.3594161917712013   T   T   T
  0.9160718511119030  0.6873688924616632  0.3590482967583997   T   T   T
  0.9962546929105170  0.7492936675835929  0.4442042936337334   T   T   T
  0.8320724143498615  0.6872445678489432  0.4445283308523841   T   T   T
  0.6645368104511925  0.6880325404101909  0.4480438019777696   T   T   T
  0.4996265847195431  0.7499624135589542  0.1022211658925301   F   F   F
  0.8339432913754052  0.8124470264806618  0.1075580597257542   F   F   F
  0.6656786166489255  0.8124812578813660  0.1076589101753385   F   F   F
  0.7496359798815462  0.8748756411498491  0.1827578042801292   F   F   F
  0.5820751330297256  0.8124154754956550  0.1887345581865603   F   F   F
  0.9168256971425777  0.8124110138011744  0.1889624020058491   F   F   F
  0.5001684026326959  0.8748825718522431  0.2747562960719199   T   T   T
  0.8321247554304649  0.8123700931854970  0.2732135968854830   T   T   T
  0.6677594151785058  0.8123862591186417  0.2728427343763624   T   T   T
  0.7494208163163768  0.8748316256850213  0.3596861415591376   T   T   T
  0.5837448117308562  0.8124707078115615  0.3590961751466306   T   T   T
  0.9162064246338570  0.8124260557880706  0.3590887448330057   T   T   T
  0.9960504854230730  0.8746703416650593  0.4440349390435684   T   T   T
  0.8329494696525440  0.8123702255990707  0.4452783954893685   T   T   T
  0.6655508487705342  0.8127009338676722  0.4469863338518522   T   T   T
  0.4996231203952064  0.8749337364865255  0.1022171720136171   F   F   F
  0.8339311317052278  0.9374224703005396  0.1075522038351053   F   F   F
  0.6656706818776428  0.9374574332997412  0.1076540871022118   F   F   F
  0.7496383104150084  0.4999213865668750  0.1827756388646549   F   F   F
  0.5820474546648100  0.9374150382906947  0.1887310280212660   F   F   F
  0.9168210958579976  0.9374163027642766  0.1889749839040178   F   F   F
  0.0002971587210585  0.9998922092375632  0.2747718171956565   T   T   T
  0.8321848452166097  0.9373756765956470  0.2731993110179206   T   T   T
  0.6677458628669422  0.9373734010932070  0.2728220219877527   T   T   T
  0.7493910554454406 -0.0001434101598402  0.3596780824125789   T   T   T
  0.5836040386251814  0.9374154158015638  0.3592689421128903   T   T   T
  0.9160847138262929  0.9373590499567918  0.3589216545982167   T   T   T
  0.9962353991620490  0.9992994890267191  0.4438471645971704   T   T   T
  0.8324643291979932  0.9372075373025183  0.4449561890692428   T   T   T
  0.6645631778812157  0.9374609725099047  0.4479273279886287   T   T   T
  0.4054220745019208  0.9999222115495812  0.1371706404740110   F   F   F
  0.2498130538845231  0.9999469596221715  0.1043552466225179   F   F   F
  0.0938777968594522  0.9999465964224399  0.1371098030237761   F   F   F
  0.1543635830516692  0.1248899271375592  0.2204647086472562   F   F   F
  0.9995670073461937  0.1248966516782701  0.2080976692853085   F   F   F
  0.3446973568903360  0.1248674306196307  0.2206598414842134   F   F   F
  0.4004806103878064  0.1249193891717591  0.3067467367541673   T   T   T
  0.2496290516542312  0.1249531155777980  0.2919877743945954   T   T   T
  0.0995713572761006  0.1250134576723161  0.3071425980104015   T   T   T
  0.1518243802451632  0.1251930006396505  0.3937210531025491   T   T   T
  0.4996758455303044  0.1249204355532311  0.3759379139598484   T   T   T
  0.3477215283067385  0.1247435843501907  0.3923097920849110   T   T   T
  0.3998483899688518  0.1259205668513579  0.4783929634891938   T   T   T
  0.2507906217211471  0.1254660279263106  0.4634577898573339   T   T   T
  0.0946446953622216  0.1246205065734924  0.4728015430345625   T   T   T
  0.4054214644049878  0.1249282036816339  0.1371697875501496   F   F   F
  0.2498118312390858  0.1249501818115135  0.1042602234590362   F   F   F
  0.0938664600244081  0.1249385922007349  0.1371069089706722   F   F   F
  0.1543560911150905  0.2498790211591952  0.2204709660202369   F   F   F
  0.9995706735895027  0.2499094862395950  0.2080999580462830   F   F   F
  0.3447055266517580  0.2498932390428195  0.2206623926809286   F   F   F
  0.4004886162943481  0.2500151275967993  0.3068175115521672   T   T   T
  0.2496016519388633  0.2499786716959548  0.2920189163706125   T   T   T
  0.0995207430938754  0.2499980740889530  0.3072092025936063   T   T   T
  0.1517355629955080  0.2501639789443481  0.3938313950622727   T   T   T
  0.4996697917502439  0.2498178881696453  0.3762539597003500   T   T   T
  0.3475673557426016  0.2503387206319969  0.3925106803359564   T   T   T
  0.3998897049413134  0.2483853993281958  0.4788709150811999   T   T   T
  0.2504083556967576  0.2497489543391118  0.4635262460372462   T   T   T
  0.0946891679475622  0.2514526247402554  0.4734907074120769   T   T   T
  0.4054229972694188  0.2499207711709062  0.1371716336629376   F   F   F
  0.2498138581555835  0.2499451823925298  0.1043557657097551   F   F   F
  0.0938776901322669  0.2499459403779412  0.1371098843944125   F   F   F
  0.1543617400249389  0.3748920346981564  0.2204674382050342   F   F   F
  0.9995672189247742  0.3748993922795947  0.2080981530608312   F   F   F
  0.3446956533108718  0.3748674624887514  0.2206599019871973   F   F   F
  0.4005402312242459  0.3749854749681420  0.3068738067411223   T   T   T
  0.2496055948091535  0.3749636897113638  0.2920136068354558   T   T   T
  0.0993676757160272  0.3750097034952622  0.3072618131885397   T   T   T
  0.1518917993147763  0.3751833621860867  0.3936768566515184   T   T   T
  0.4996828292633553  0.3748990412325612  0.3763283347495083   T   T   T
  0.3475636129802303  0.3748079635483484  0.3925438841910199   T   T   T
  0.4003809504929032  0.3739559502142693  0.4783849090586906   T   T   T
  0.2507833412918505  0.3756435980088488  0.4636756103170120   T   T   T
  0.0942885028223170  0.3748270936454741  0.4721324679614528   T   T   T
  0.4054204481464510  0.3749288137657416  0.1371674470345781   F   F   F
  0.2498106243523637  0.3749504007233213  0.1042578114000037   F   F   F
  0.0938682935435935  0.3749385903486697  0.1371059653233644   F   F   F
  0.1543531827738107  0.9998787448957458  0.2204712064644667   F   F   F
  0.9995677263797802  0.9999081653989563  0.2081008624749074   F   F   F
  0.3447067510723798  0.9998918897834912  0.2206650007889195   F   F   F
  0.4006022232345516  0.4999054441283106  0.3069363984676446   T   T   T
  0.2496437557568278  0.4999241878902802  0.2920439239110549   T   T   T
  0.0993989528647266  0.4999157414751179  0.3071975938556303   T   T   T
  0.1518854689227880  0.5001231447224311  0.3936685355810576   T   T   T
  0.4997579807111361  0.4999106607393328  0.3766792228913436   T   T   T
  0.3477682238318994  0.0002777368318745  0.3924652214806443   T   T   T
  0.4006532916082695  0.5001164751448486  0.4788415906767811   T   T   T
  0.2507816167282333  0.5000526396451270  0.4634728245077876   T   T   T
  0.0947693215633356  0.0013648542509945  0.4733219462753662   T   T   T
  0.4054220745019208  0.4999222115495883  0.1371706404740110   F   F   F
  0.2498130538845231  0.4999469596221715  0.1043552466225179   F   F   F
  0.0938777968594522  0.4999465964224399  0.1371098030237761   F   F   F
  0.1543635830516692  0.6248899271375592  0.2204647086472562   F   F   F
  0.9995670073461937  0.6248966516782701  0.2080976692853085   F   F   F
  0.3446973568903360  0.6248674306196307  0.2206598414842134   F   F   F
  0.4005507317655362  0.6248408667471548  0.3068771827248414   T   T   T
  0.2496571422960749  0.6249145027171761  0.2920404509127186   T   T   T
  0.0994894322076895  0.6249252892038180  0.3071358334114722   T   T   T
  0.1518902312960481  0.6251405269482749  0.3936696140432957   T   T   T
  0.4997171125555678  0.6249972868663801  0.3763359427526012   T   T   T
  0.3478015794004114  0.6248202354501488  0.3925828314784183   T   T   T
  0.4008268856090720  0.6259576680617721  0.4791011281063750   T   T   T
  0.2506773366453306  0.6255057787848678  0.4638619940382260   T   T   T
  0.0945072019981970  0.6244457919015229  0.4725275462217682   T   T   T
  0.4054214644049878  0.6249282036816339  0.1371697875501496   F   F   F
  0.2498118312390858  0.6249501818115135  0.1042602234590362   F   F   F
  0.0938664600244081  0.6249385922007349  0.1371069089706722   F   F   F
  0.1543560911150905  0.7498790211591952  0.2204709660202369   F   F   F
  0.9995706735895027  0.7499094862395950  0.2080999580462830   F   F   F
  0.3447055266517580  0.7498932390428195  0.2206623926809286   F   F   F
  0.4004815296293183  0.7499205730037476  0.3068337037852816   T   T   T
  0.2496410294708880  0.7498966959797584  0.2920593810014377   T   T   T
  0.0995520826589592  0.7498934627687150  0.3071304109441994   T   T   T
  0.1518078655396077  0.7500542273148524  0.3937770178926536   T   T   T
  0.4996662288994415  0.7499242226747080  0.3761292838715249   T   T   T
  0.3476775999079038  0.7501767634936485  0.3926204284551430   T   T   T
  0.3992534243497985  0.7486535836007562  0.4788898186220447   T   T   T
  0.2504733579635564  0.7498104684123144  0.4634202824364403   T   T   T
  0.0948993145015372  0.7514000931798851  0.4735050611207894   T   T   T
  0.4054229972694188  0.7499207711709062  0.1371716336629376   F   F   F
  0.2498138581555835  0.7499451823925369  0.1043557657097551   F   F   F
  0.0938776901322669  0.7499459403779412  0.1371098843944125   F   F   F
  0.1543617400249389  0.8748920346981564  0.2204674382050342   F   F   F
  0.9995672189247742  0.8748993922795947  0.2080981530608312   F   F   F
  0.3446956533108718  0.8748674624887514  0.2206599019871973   F   F   F
  0.4004830653924913  0.8748491207042828  0.3068223824347546   T   T   T
  0.2496527977173748  0.8749060308574028  0.2920163312608711   T   T   T
  0.0996014349225084  0.8749268408151657  0.3070826062708921   T   T   T
  0.1518564122515163  0.8751331748620477  0.3936871258694871   T   T   T
  0.4997176286366257  0.8749643219883054  0.3762331983731798   T   T   T
  0.3478218928304477  0.8746459206646169  0.3924903877267852   T   T   T