Mo  S Co                                
   1.00000000000000     
    15.9214998300000001    0.0000000000000000    0.0000000000000000
    -7.9622501300000001   13.7910221699999997    0.0000000000000000
     0.0000000000000000    0.0000000000000000   13.5821998300000004
   Mo   S    Ru
    25    49     4
Direct
  0.1380429040532718  0.0708115330287313  0.6811475338035038
  0.1347821839233703  0.2680187594338506  0.6774094570505156
  0.1359799987313579  0.4666905738284086  0.6769526273826401
  0.1374244089452645  0.6687316344127296  0.6772207969643347
  0.1375585584928700  0.8696137061283409  0.6783993315862489
  0.3380675598737994  0.0693334225488087  0.6797795783465759
  0.3401037658961030  0.2658865745425416  0.6766920151144831
  0.3381648235094943  0.4691261246518792  0.6751824903130839
  0.3384959353922099  0.6683169652476622  0.6767809730929173
  0.3373317935336431  0.8682263472721772  0.6781506668681416
  0.5385451863015902  0.0686114603291941  0.6787712608037921
  0.5365381318135789  0.2689438118938625  0.6785433270880432
  0.5376459580385387  0.4686238711219985  0.6760682808490728
  0.5358269039896584  0.6689926666288031  0.6760271407687668
  0.5368333711291129  0.8678279188263076  0.6774571859186835
  0.7366852313749064  0.0681344304096783  0.6776786458053081
  0.7366295147763111  0.2667537877628305  0.6780038361780854
  0.7375099604785618  0.4699189072859866  0.6770509793257844
  0.7372882432390995  0.6691392043933604  0.6771747926713374
  0.7368841189261204  0.8684153693219656  0.6771299837999720
  0.9356694832037675  0.0677014961163636  0.6774525513934577
  0.9372605792718929  0.2688595469936175  0.6770975716942971
  0.9365575865154554  0.4687273544485606  0.6769796953399592
  0.9377404471603654  0.6694347059602563  0.6769826391089921
  0.9373913722478733  0.8694441707193263  0.6782542105258642
  0.0705607288324828  0.1357227795449205  0.5640753685982247
  0.0673814070569136  0.1358368986128724  0.7987804819856450
  0.0700732521872141  0.3355658585276728  0.5606290670156611
  0.0704723315664424  0.3352078846240403  0.7928716081129537
  0.0701553669184420  0.5353844842267321  0.5621296482828484
  0.0697730357641646  0.5350232693224513  0.7915074010977463
  0.0715239653513180  0.7367546171961408  0.5624665391676800
  0.0707754866836439  0.7354648549096510  0.7924118560666571
  0.0718975915749311  0.9382202901569769  0.5646760115948766
  0.0706234658329237  0.9360365083619158  0.7941236618244574
  0.2709695811175337  0.1344078958028092  0.5636847225890662
  0.2724875629463739  0.1361721378763718  0.8005323901361265
  0.2712413984332613  0.3342762654261975  0.5674485688286666
  0.2701622057293491  0.5342512202512850  0.5614176454614537
  0.2676936494978648  0.5310004924431837  0.7934649023619045
  0.2708371942781937  0.7352053619424055  0.5624652141218860
  0.2707896833006913  0.7342378375713352  0.7921308761441352
  0.2720594990746150  0.9367080596751975  0.5636773840360760
  0.2701382046924223  0.9342541325555445  0.7933201275276502
  0.4714936479035785  0.1369109086098774  0.5658064597482522
  0.4670370229980634  0.1249188471700933  0.8053374046849555
  0.4735099403591647  0.3358244902491947  0.5615510473177778
  0.4659343796086972  0.3394867972686200  0.7987130119755648
  0.4703021727441055  0.5349157683349262  0.5604856587014950
  0.4709060460221721  0.5336089266145336  0.7939230801474366
  0.4700897573007765  0.7352369901145082  0.5610276477489791
  0.4702461897922632  0.7346087624127691  0.7930596828384324
  0.4704034165446842  0.9354306592695210  0.5629299500423031
  0.4707120163804106  0.9340121919348761  0.7930597638270811
  0.6703184823892414  0.1348893293428546  0.5626175921882108
  0.6710275262076735  0.1348073741745210  0.7940201087546157
  0.6688775538818064  0.3340916870272537  0.5647094521937817
  0.6763493624291073  0.3387024160295979  0.7989196779106962
  0.6715547923839722  0.5361633493451592  0.5614368985310705
  0.6708183189823629  0.5356113553227289  0.7917974657373250
  0.6703191715913661  0.7352491412405726  0.5617742070324852
  0.6694751483329568  0.7349607840485177  0.7915516440451000
  0.6701313805043796  0.9350326919779448  0.5622053046462980
  0.6701550931117453  0.9346327376291370  0.7924486120394718
  0.8700630455593625  0.1350631918852869  0.5623319408482956
  0.8696147824162921  0.1352127772718603  0.7923246622315077
  0.8697070812854122  0.3349962588588653  0.5622800819953184
  0.8709451352281548  0.3353932549717058  0.7922848580807837
  0.8706829054928775  0.5358520901067791  0.5616883380235009
  0.8711688125199899  0.5364811650678547  0.7920828083634603
  0.8711831862592092  0.7365528111688988  0.5624343724730991
  0.8705819383252305  0.7354904541391960  0.7923920009749921
  0.8704043461419460  0.9352599596763440  0.5623283664951515
  0.8694247407886309  0.9347182898603776  0.7929603188314687
  0.2268967015255825  0.2471371700159821  0.8403740355390141
  0.5334926845947834  0.2672541831186663  0.8796288163296708
  0.2786545312736166  0.3260914460479185  0.9828833124076723
  0.3256324557356365  0.4417774955400233  0.8721253729930751
 
  0.00000000E+00  0.00000000E+00  0.00000000E+00
  0.00000000E+00  0.00000000E+00  0.00000000E+00
  0.00000000E+00  0.00000000E+00  0.00000000E+00
  0.00000000E+00  0.00000000E+00  0.00000000E+00
  0.00000000E+00  0.00000000E+00  0.00000000E+00
  0.00000000E+00  0.00000000E+00  0.00000000E+00
  0.00000000E+00  0.00000000E+00  0.00000000E+00
  0.00000000E+00  0.00000000E+00  0.00000000E+00
  0.00000000E+00  0.00000000E+00  0.00000000E+00
  0.00000000E+00  0.00000000E+00  0.00000000E+00
  0.00000000E+00  0.00000000E+00  0.00000000E+00
  0.00000000E+00  0.00000000E+00  0.00000000E+00
  0.00000000E+00  0.00000000E+00  0.00000000E+00
  0.00000000E+00  0.00000000E+00  0.00000000E+00
  0.00000000E+00  0.00000000E+00  0.00000000E+00
  0.00000000E+00  0.00000000E+00  0.00000000E+00
  0.00000000E+00  0.00000000E+00  0.00000000E+00
  0.00000000E+00  0.00000000E+00  0.00000000E+00
  0.00000000E+00  0.00000000E+00  0.00000000E+00
  0.00000000E+00  0.00000000E+00  0.00000000E+00
  0.00000000E+00  0.00000000E+00  0.00000000E+00
  0.00000000E+00  0.00000000E+00  0.00000000E+00
  0.00000000E+00  0.00000000E+00  0.00000000E+00
  0.00000000E+00  0.00000000E+00  0.00000000E+00
  0.00000000E+00  0.00000000E+00  0.00000000E+00
  0.00000000E+00  0.00000000E+00  0.00000000E+00
  0.00000000E+00  0.00000000E+00  0.00000000E+00
  0.00000000E+00  0.00000000E+00  0.00000000E+00
  0.00000000E+00  0.00000000E+00  0.00000000E+00
  0.00000000E+00  0.00000000E+00  0.00000000E+00
  0.00000000E+00  0.00000000E+00  0.00000000E+00
  0.00000000E+00  0.00000000E+00  0.00000000E+00
  0.00000000E+00  0.00000000E+00  0.00000000E+00
  0.00000000E+00  0.00000000E+00  0.00000000E+00
  0.00000000E+00  0.00000000E+00  0.00000000E+00
  0.00000000E+00  0.00000000E+00  0.00000000E+00
  0.00000000E+00  0.00000000E+00  0.00000000E+00
  0.00000000E+00  0.00000000E+00  0.00000000E+00
  0.00000000E+00  0.00000000E+00  0.00000000E+00
  0.00000000E+00  0.00000000E+00  0.00000000E+00
  0.00000000E+00  0.00000000E+00  0.00000000E+00
  0.00000000E+00  0.00000000E+00  0.00000000E+00
  0.00000000E+00  0.00000000E+00  0.00000000E+00
  0.00000000E+00  0.00000000E+00  0.00000000E+00
  0.00000000E+00  0.00000000E+00  0.00000000E+00
  0.00000000E+00  0.00000000E+00  0.00000000E+00
  0.00000000E+00  0.00000000E+00  0.00000000E+00
  0.00000000E+00  0.00000000E+00  0.00000000E+00
  0.00000000E+00  0.00000000E+00  0.00000000E+00
  0.00000000E+00  0.00000000E+00  0.00000000E+00
  0.00000000E+00  0.00000000E+00  0.00000000E+00
  0.00000000E+00  0.00000000E+00  0.00000000E+00
  0.00000000E+00  0.00000000E+00  0.00000000E+00
  0.00000000E+00  0.00000000E+00  0.00000000E+00
  0.00000000E+00  0.00000000E+00  0.00000000E+00
  0.00000000E+00  0.00000000E+00  0.00000000E+00
  0.00000000E+00  0.00000000E+00  0.00000000E+00
  0.00000000E+00  0.00000000E+00  0.00000000E+00
  0.00000000E+00  0.00000000E+00  0.00000000E+00
  0.00000000E+00  0.00000000E+00  0.00000000E+00
  0.00000000E+00  0.00000000E+00  0.00000000E+00
  0.00000000E+00  0.00000000E+00  0.00000000E+00
  0.00000000E+00  0.00000000E+00  0.00000000E+00
  0.00000000E+00  0.00000000E+00  0.00000000E+00
  0.00000000E+00  0.00000000E+00  0.00000000E+00
  0.00000000E+00  0.00000000E+00  0.00000000E+00
  0.00000000E+00  0.00000000E+00  0.00000000E+00
  0.00000000E+00  0.00000000E+00  0.00000000E+00
  0.00000000E+00  0.00000000E+00  0.00000000E+00
  0.00000000E+00  0.00000000E+00  0.00000000E+00
  0.00000000E+00  0.00000000E+00  0.00000000E+00
  0.00000000E+00  0.00000000E+00  0.00000000E+00
  0.00000000E+00  0.00000000E+00  0.00000000E+00
  0.00000000E+00  0.00000000E+00  0.00000000E+00
  0.00000000E+00  0.00000000E+00  0.00000000E+00
  0.00000000E+00  0.00000000E+00  0.00000000E+00
  0.00000000E+00  0.00000000E+00  0.00000000E+00
  0.00000000E+00  0.00000000E+00  0.00000000E+00
