Ta  N Cu                                
   1.00000000000000     
    18.1096308199999996    0.0000000000000000    0.0000000000000000
     0.0000000000000000   23.3551997799999995    0.0000000000000000
     0.0000000000000000    0.0000000000000000   30.4818170799999990
   Ta   N    Cu
   240   240    29
Selective dynamics
Direct
  0.9966937581116326  0.9992307588815663  0.1949656736146252   F   F   F
  0.3278262853069052  0.0581302242236674  0.2013640126469767   F   F   F
  0.1685297193706106  0.0580763175985126  0.2013764462889398   F   F   F
  0.2481239427055328  0.1239990249400478  0.2800193629401591   F   F   F
  0.0809027535990410  0.0616719622853950  0.2828823484298653   F   F   F
  0.4152708067187447  0.0617052311080712  0.2828976362323843   F   F   F
  0.9981466314618146  0.1239138190750282  0.3686839918534162   F   F   F
  0.3307074042274678  0.0615374740331163  0.3679211764366386   F   F   F
  0.1656652766596807  0.0614792000721636  0.3678665209023038   F   F   F
  0.2480187530110170  0.1240194771757783  0.4551831884369113   T   T   T
  0.0818262957918320  0.0614679161276802  0.4538196577883382   T   T   T
  0.4143508485735706  0.0614462136346676  0.4538917584739355   T   T   T
  0.9984730894913607  0.1239407744296912  0.5400789773141926   T   T   T
  0.3334301696413380  0.0611178349079741  0.5420172026403870   T   T   T
  0.1630325860755609  0.0613434084374473  0.5419457463913100   T   T   T
  0.9999350721165072  0.1240229168358695  0.1949437589105827   F   F   F
  0.3278040871735470  0.1900311725785642  0.2013785787077467   F   F   F
  0.1685505922422763  0.1900667107031708  0.2014297239526641   F   F   F
  0.2480688891260314  0.2488634246227832  0.2806597119045477   F   F   F
  0.0808177711929758  0.1862893934106182  0.2828966192326519   F   F   F
  0.4152463445966603  0.1863197078590773  0.2828927808787967   F   F   F
  0.9980298979943569  0.2488182954862310  0.3688194168508545   F   F   F
  0.3306515223594175  0.1863993903288303  0.3679693691016652   F   F   F
  0.1656181746503407  0.1863876584660034  0.3678585817430573   F   F   F
  0.2478784541674761  0.2488297806009375  0.4551398991637495   T   T   T
  0.0815046997527618  0.1862486718161451  0.4537206295192469   T   T   T
  0.4144075189964607  0.1863474179697735  0.4540095170363801   T   T   T
  0.9978961864064884  0.2490776543422475  0.5401225324639782   T   T   T
  0.3317292851601953  0.1849274902985320  0.5418953466057880   T   T   T
  0.1623570724006656  0.1865780503483122  0.5416517505481308   T   T   T
  0.9966596878422749  0.2488304983362468  0.1950417517563565   F   F   F
  0.3278582020260075  0.3080911346415363  0.2013508244568243   F   F   F
  0.1684292755781343  0.3080016470747537  0.2014071531197601   F   F   F
  0.2479658500294022  0.3739154912936513  0.2800083071688064   F   F   F
  0.0807686260718583  0.3114753488955202  0.2828911077501957   F   F   F
  0.4152105625309517  0.3115170954876731  0.2828762792378754   F   F   F
  0.9981892607129339  0.3738825221900939  0.3688814538349021   F   F   F
  0.3307344616537051  0.3113670646580076  0.3679109080199225   F   F   F
  0.1654933239550189  0.3113924551494449  0.3677859154714156   F   F   F
  0.2474886399709766  0.3739703030756201  0.4548922413528904   T   T   T
  0.0812471778450669  0.3114030840382348  0.4538002048679750   T   T   T
  0.4143204561623218  0.3112798098176959  0.4539058835809930   T   T   T
  0.9968876151444794  0.3741070275799805  0.5407082905949583   T   T   T
  0.3284689481483249  0.3104741064671705  0.5402531359148184   T   T   T
  0.1608541853467986  0.3112376213021851  0.5413895767913006   T   T   T
  0.0001455126295085  0.3736273327652100  0.1951038215468515   F   F   F
  0.3276437305086901  0.4399423724389990  0.2012839321191819   F   F   F
  0.1686005104327108  0.4400026159827632  0.2014015432179761   F   F   F
  0.2481275319559515  0.9991253433842360  0.2806417011672480   F   F   F
  0.0806341672292561  0.4362285527835468  0.2828947820718284   F   F   F
  0.4152180723472085  0.4362562125769145  0.2827695598782185   F   F   F
  0.9982560759899570  0.9990349138430688  0.3686670309222890   F   F   F
  0.3306250723447945  0.4364252541623941  0.3677156440701239   F   F   F
  0.1652250136814217  0.4364415674461029  0.3677316208079517   F   F   F
  0.2481993594839768  0.9990924382163330  0.4552961410411719   T   T   T
  0.0814145583805620  0.4364224711786072  0.4542313597685047   T   T   T
  0.4140231122525412  0.4364325970443114  0.4536303697468394   T   T   T
  0.9983491105869448  0.9989956064003563  0.5402064263617173   T   T   T
  0.3288641246865505  0.4353397120493087  0.5403060772150938   T   T   T
  0.1598962445589254  0.4354758133861301  0.5415585717688086   T   T   T
  0.9975475027381009  0.4988193254495883  0.1947342897708921   F   F   F
  0.3276907220795593  0.5581005567403423  0.2013295002687556   F   F   F
  0.1686001791172913  0.5579492414001521  0.2014174543429164   F   F   F
  0.2479179197315062  0.6240740022477311  0.2798791482020135   F   F   F
  0.0805444359687968  0.5615926270616569  0.2828272992182121   F   F   F
  0.4153230993363763  0.5616386125385588  0.2827168399240350   F   F   F
  0.9984274765022505  0.6240143153252049  0.3689083551183074   F   F   F
  0.3306765366738702  0.5616176750169473  0.3676528525378870   F   F   F
  0.1653679210673147  0.5615369221217605  0.3677336220009906   F   F   F
  0.2477405303795053  0.6240818564553021  0.4546841391536701   T   T   T
  0.0821826707215268  0.5615584800252101  0.4545496876902171   T   T   T
  0.4136518737716449  0.5617594870251554  0.4536004519551015   T   T   T
  0.9976552782553060  0.6238772724173928  0.5401431787905523   T   T   T
  0.3307047550132996  0.5616573934383765  0.5397964429738998   T   T   T
  0.1592671225281287  0.5615004291118999  0.5427063427781542   T   T   T
  0.0007926721501192  0.6240966952670632  0.1950378149831735   F   F   F
  0.3277528437214130  0.6900539987588132  0.2013046657912696   F   F   F
  0.1685978599093261  0.6901160406173190  0.2014040693141013   F   F   F
  0.2479976010908018  0.7491516734951276  0.2804764879194011   F   F   F
  0.0806472541884773  0.6864944060007545  0.2828238217352350   F   F   F
  0.4153476718969387  0.6865364094950195  0.2827403293373507   F   F   F
  0.9983602746905689  0.7491476058784556  0.3686904547227243   F   F   F
  0.3306007758804199  0.6866641326585139  0.3677048507503216   F   F   F
  0.1654768686223278  0.6865590596973234  0.3677534042862263   F   F   F
  0.2479902033617446  0.7491453513800361  0.4551822229323731   T   T   T
  0.0821900687183420  0.6865659140400560  0.4541747533057713   T   T   T
  0.4138143807094331  0.6867818421523983  0.4538225855168179   T   T   T
  0.9980952991823152  0.7490566404052026  0.5399745220390015   T   T   T
  0.3305540916334967  0.6881570464651573  0.5408542480720347   T   T   T
  0.1606579181798199  0.6874258628050405  0.5422706911425088   T   T   T
  0.9975738975334920  0.7493023893970729  0.1946383637310376   F   F   F
  0.3277395911044891  0.8081947565340002  0.2012418086461381   F   F   F
  0.1686733446065887  0.8081214537998704  0.2013126049505161   F   F   F
  0.2481040637801328  0.8741855429335175  0.2799914774634544   F   F   F
  0.0808388097223514  0.8118055156280946  0.2828446538266576   F   F   F
  0.4152914034942228  0.8118522718113113  0.2827966908067268   F   F   F
  0.9983234986785874  0.8741276543257186  0.3686222173209117   F   F   F
  0.3306182251593768  0.8116491906968406  0.3677951668883921   F   F   F
  0.1656139779883148  0.8115719059800739  0.3678033356927415   F   F   F
  0.2483313375678333  0.8741961138275496  0.4551038147420837   T   T   T
  0.0820456864420309  0.8117273559841073  0.4538137439168702   T   T   T
  0.4141969936227275  0.8120087160920327  0.4537960955288308   T   T   T
  0.9986183616577342  0.8740493644926433  0.5401675288587161   T   T   T
  0.3317979426034607  0.8133640320441098  0.5418643395808671   T   T   T
  0.1626561019368766  0.8118242376315015  0.5418282999754405   T   T   T
  0.0002111583630864  0.8744695482112448  0.1949996282833126   F   F   F
  0.3279259560300645  0.9401409624764909  0.2012977764382029   F   F   F
  0.1684761014912866  0.9401224227078728  0.2013523007467626   F   F   F
  0.2478334895178165  0.4990099039949243  0.2804757005647645   F   F   F
  0.0809328480833145  0.9364959069513077  0.2828690290139377   F   F   F
  0.4152494920931815  0.9365423205983845  0.2828551846949168   F   F   F
  0.9982549716052134  0.4989332187164024  0.3689989337079211   F   F   F
  0.3306749353159901  0.9366114272647863  0.3678471322943864   F   F   F
  0.1656851003658417  0.9365710080001719  0.3678313195887739   F   F   F
  0.2473626626103049  0.4989974192460291  0.4545044676446711   T   T   T
  0.0819490387691962  0.9365825824441957  0.4538378951871952   T   T   T
  0.4143646216526076  0.9366219784090889  0.4538082436233006   T   T   T
  0.9967445387180018  0.4985838666337296  0.5412072261410820   T   T   T
  0.3335140040160126  0.9369678856517909  0.5421671805252869   T   T   T
  0.1631517580796418  0.9365968340326041  0.5419450917167794   T   T   T
  0.4995751205490322  0.9992456592036945  0.1949191868846398   F   F   F
  0.8279267064595004  0.0649668602406592  0.2014606276221400   F   F   F
  0.6682492934441839  0.0648932149703896  0.2014528524951018   F   F   F
  0.7481281167276705  0.1239588197605244  0.2805709704757504   F   F   F
  0.5806407156785980  0.0613727141493996  0.2829004247800597   F   F   F
  0.9155410822449852  0.0613916392711786  0.2828575139523792   F   F   F
  0.4981550474257546  0.1239587341264894  0.3687228346821385   F   F   F
  0.8307129587305440  0.0614455887133474  0.3678353547812847   F   F   F
  0.6656035741318362  0.0614564214188036  0.3678308931050083   F   F   F
  0.7481403276769044  0.1238643541525419  0.4551689528404158   T   T   T
  0.5819533824513810  0.0613479509549831  0.4539591050615910   T   T   T
  0.9143197877492152  0.0613736326670264  0.4538035782379737   T   T   T
  0.4979354752309387  0.1241816941329806  0.5402570599704778   T   T   T
  0.8329188939237876  0.0606378498254514  0.5419089178700928   T   T   T
  0.6629130411823732  0.0606240750390285  0.5421578443863939   T   T   T
  0.4962916742661676  0.1240264278313106  0.1949224347225140   F   F   F
  0.8278905930783651  0.1831892700684037  0.2014928763557791   F   F   F
  0.6682190333021936  0.1831741128441777  0.2014358259510942   F   F   F
  0.7480700260901259  0.2487972295135705  0.2801865445745904   F   F   F
  0.5806078602324618  0.1865544307495526  0.2828960615231111   F   F   F
  0.9155156813958740  0.1865945074780271  0.2828735891095349   F   F   F
  0.4980892260950043  0.2487654164694959  0.3687886116007064   F   F   F
  0.8307711045873205  0.1863524628775437  0.3678595003234619   F   F   F
  0.6655645341311285  0.1863548606305230  0.3678636339353005   F   F   F
  0.7478030464775048  0.2486465912969440  0.4549584718030975   T   T   T
  0.5821210264100494  0.1862560134821178  0.4541845699538015   T   T   T
  0.9139500256872806  0.1860819240904234  0.4540126177594881   T   T   T
  0.4978956550905668  0.2491698498993530  0.5398153507292824   T   T   T
  0.8345190008654539  0.1848449553535436  0.5423410058997866   T   T   T
  0.6633861865352694  0.1839858803494705  0.5425000525765156   T   T   T
  0.4995652363055711  0.2488362786336253  0.1949534040048775   F   F   F
  0.8277098052957470  0.3144458651254567  0.2014677794267499   F   F   F
  0.6683143417056172  0.3143863494709933  0.2013910779625974   F   F   F
  0.7481637331356694  0.3736875334919532  0.2804715669529259   F   F   F
  0.5805898035418906  0.3111117467820677  0.2828549222433665   F   F   F
  0.9154842064306621  0.3111227507555938  0.2828453099555190   F   F   F
  0.4980135757400248  0.3738232634377425  0.3686152623549575   F   F   F
  0.8308386929336606  0.3113187242451403  0.3678644869028247   F   F   F
  0.6654016926006037  0.3113230487639171  0.3678455575851132   F   F   F
  0.7482422815107873  0.3737959641097161  0.4548040149266447   T   T   T
  0.5820205574698152  0.3111001722505708  0.4539844050888814   T   T   T
  0.9138805341231692  0.3112597837238032  0.4542687671406396   T   T   T
  0.4963929122592510  0.3738853269355771  0.5394280042795591   T   T   T
  0.8343273873948255  0.3095462036742945  0.5418804161722068   T   T   T
  0.6633611189131335  0.3107608188992022  0.5409574272162483   T   T   T
  0.4960932163276439  0.3736365384239946  0.1950262343087346   F   F   F
  0.8277348196101997  0.4322281160122898  0.2010960824255434   F   F   F
  0.6684568625568446  0.4322519650910905  0.2010384415048776   F   F   F
  0.7481160237147222  0.9991586122069123  0.2801749310937112   F   F   F
  0.5807741253556955  0.4363351243403528  0.2828249043478621   F   F   F
  0.9153520667960251  0.4363612427210839  0.2829125631640323   F   F   F
  0.4981662017116690  0.9990718221122421  0.3686785787902878   F   F   F
  0.8310464829232771  0.4363710478181133  0.3678869593164009   F   F   F
  0.6655182051911126  0.4363755864219812  0.3676633177932587   F   F   F
  0.7481149138247578  0.9989972525466423  0.4551157302309238   T   T   T
  0.5815721439907648  0.4366463702575469  0.4534174280197904   T   T   T
  0.9141006720641898  0.4363203912324070  0.4544817990644641   T   T   T
  0.4979475077958773  0.9989514512257001  0.5401784464364032   T   T   T
  0.8325110924939702  0.4367867003471746  0.5408608721838128   T   T   T
  0.6635209166421948  0.4371534287646034  0.5390924440430941   T   T   T
  0.4988357349628174  0.4988477987662918  0.1946154648337028   F   F   F
  0.8322708590698937  0.5619826900919804  0.2024824171013648   F   F   F
  0.6641315949255784  0.5619188927357541  0.2024041409279391   F   F   F
  0.7481561681001736  0.6240475413308602  0.2774902814291167   F   F   F
  0.5806539682955290  0.5612984741507532  0.2828587277907744   F   F   F
  0.9155383765023686  0.5613042544481317  0.2829393332216696   F   F   F
  0.4980567019642876  0.6242021107643865  0.3685410541804899   F   F   F
  0.8309704460336391  0.5615153851619112  0.3676255903836037   F   F   F
  0.6658527233301186  0.5615487824356364  0.3674464015909678   F   F   F
  0.7482524044576235  0.6242933652827024  0.4545938914862130   T   T   T
  0.5814598256635616  0.5619807508280615  0.4533066615586956   T   T   T
  0.9144910851820042  0.5616734138303376  0.4541045521209785   T   T   T
  0.4994065775986363  0.6250979233404673  0.5392635314412557   T   T   T
  0.8343908288624288  0.5636898887893046  0.5415792113229980   T   T   T
  0.6660791502304459  0.5633939376701392  0.5397186950667257   T   T   T
  0.4955778551867809  0.6240820946640611  0.1949818143846684   F   F   F
  0.8322027185311782  0.6860576296042282  0.2024300908244925   F   F   F
  0.6640843824777676  0.6861151756758801  0.2023631984868501   F   F   F
  0.7481005623283039  0.7502049293110318  0.2784742778857989   F   F   F
  0.5806905234305617  0.6867969082300860  0.2828481641160749   F   F   F
  0.9154810589341409  0.6868046152932550  0.2828805112690489   F   F   F
  0.4981005460386285  0.7492590157582484  0.3685704815600204   F   F   F
  0.8307013074714931  0.6866329618696980  0.3674641498767244   F   F   F
  0.6657272100039435  0.6866827152441530  0.3674899685475026   F   F   F
  0.7485491972858012  0.7492397421401402  0.4547957675864790   T   T   T
  0.5816013492177716  0.6867764679498712  0.4534767277455143   T   T   T
  0.9146226337743680  0.6867368333241952  0.4536309619456048   T   T   T
  0.4979773832670698  0.7488386238912264  0.5395551796867379   T   T   T
  0.8348869451376295  0.6875002480672855  0.5415456844226038   T   T   T
  0.6671533295248612  0.6880480675909862  0.5399874510010300   T   T   T
  0.4988222614689377  0.7492617132303536  0.1945616294604449   F   F   F
  0.8277994813369673  0.8158565621141491  0.2009842124543084   F   F   F
  0.6684802755134243  0.8158414477069371  0.2009390707884933   F   F   F
  0.7481320372935159  0.8743161776542081  0.2804444032179703   F   F   F
  0.5808789866871535  0.8117042533814711  0.2828174572852618   F   F   F
  0.9153326848437686  0.8117061373302477  0.2828197537362840   F   F   F
  0.4981015952041332  0.8741542865106666  0.3686006962941875   F   F   F
  0.8306790541188960  0.8116836583960065  0.3676812629176780   F   F   F
  0.6657109755482011  0.8116852426256571  0.3677291603247141   F   F   F
  0.7482139152411428  0.8740308574499704  0.4550314203905704   T   T   T
  0.5818640600055958  0.8119309543378426  0.4536837819524831   T   T   T
  0.9144658057905551  0.8116725733283912  0.4536065091203826   T   T   T
  0.4978909367903216  0.8738317454162200  0.5400871316148376   T   T   T
  0.8341704906729036  0.8116056303372570  0.5416593727777430   T   T   T
  0.6642021787649782  0.8129982865760562  0.5417153159565478   T   T   T
  0.4961081807409258  0.8744972080046125  0.1949738752254220   F   F   F
  0.8278586211400167  0.9336474620385360  0.2013652592918191   F   F   F
  0.6684018641965892  0.9336866396096397  0.2013193630778147   F   F   F
  0.7481814032915750  0.4978885691210309  0.2785669888942195   F   F   F
  0.5806867685224262  0.9368738955826643  0.2828150296084644   F   F   F
  0.9155293205474635  0.9369081491967464  0.2828170636079435   F   F   F
  0.4980357186541511  0.4989581382206438  0.3685514210165337   F   F   F
  0.8307231742894245  0.9366067602098695  0.3677824707948787   F   F   F
  0.6656177102565550  0.9365916458026575  0.3678141290125509   F   F   F
  0.7485657849092814  0.4993013955127154  0.4544725961369104   T   T   T
  0.5819563866985185  0.9365700702177872  0.4538300571698122   T   T   T
  0.9144281799738838  0.9365311040778367  0.4537422508390273   T   T   T
  0.4977233441328511  0.4993757203920238  0.5390348649099345   T   T   T
  0.8334583434537457  0.9362418034384244  0.5417977156706939   T   T   T
  0.6629827488946779  0.9366290711481468  0.5419217650175876   T   T   T
  0.4048016258787541  0.9991753536607959  0.2311932383002144   F   F   F
  0.2482063298074451  0.9991048768498274  0.1761225056206541   F   F   F
  0.0915467585440268  0.9991373749661818  0.2312018335883295   F   F   F
  0.1510759124354166  0.1239692242957986  0.3154806675324338   F   F   F
  0.9980781043884335  0.1239836536307308  0.3015965871021464   F   F   F
  0.3451327120979926  0.1240214182402539  0.3155236767794420   F   F   F
  0.3995257590789478  0.1240152525897145  0.4017411746767152   F   F   F
  0.2481731430458822  0.1239467881785785  0.3871578577165309   F   F   F
  0.0968176003932442  0.1239008883357116  0.4016036500669173   F   F   F
  0.1494279420441773  0.1239633922962358  0.4870491796214403   T   T   T
  0.9979871680435942  0.1239030025424792  0.4721300253090354   T   T   T
  0.3467652294801888  0.1239641039930738  0.4872801054191832   T   T   T
  0.4011369860885945  0.1243434622679560  0.5699974380451365   T   T   T
  0.2481870187304954  0.1243957786663639  0.5569753174605687   T   T   T
  0.0951928134685987  0.1239798072892132  0.5696915833915608   T   T   T
  0.4033957993186732  0.1240467230976492  0.2308346310698326   F   F   F
  0.2481611604714118  0.1240692448489114  0.2098166583446996   F   F   F
  0.0928976419630843  0.1240336639072837  0.2308172436549540   F   F   F
  0.1507141159932246  0.2488909987821160  0.3157373451438588   F   F   F
  0.9982264784788129  0.2489005041600194  0.3017059965901510   F   F   F
  0.3454326629945044  0.2489280355023382  0.3157931160972609   F   F   F
  0.3994590542404026  0.2487957309179549  0.4018016369514967   F   F   F
  0.2481840212356161  0.2489272647960163  0.3871872522896211   F   F   F
  0.0967500120469040  0.2488349941230936  0.4015991883906409   F   F   F
  0.1490702088109145  0.2486544798441508  0.4870126508389580   T   T   T
  0.9976181479981443  0.2488445580777202  0.4721284761994088   T   T   T
  0.3466398016191237  0.2484403801459339  0.4874759162810792   T   T   T
  0.3994146289687158  0.2488940892331250  0.5705908356296806   T   T   T
  0.2468370505034787  0.2492976859734791  0.5571734536305369   T   T   T
  0.0942976818764552  0.2487474059031288  0.5698510434643859   T   T   T
  0.4047963800512164  0.2489359566505911  0.2312096743282481   F   F   F
  0.2482156066392989  0.2490709158900657  0.1762168897576757   F   F   F
  0.0914447133936633  0.2489034585342367  0.2312503871242342   F   F   F
  0.1509434967045920  0.3738849627601013  0.3154578670544268   F   F   F
  0.9979720834529999  0.3738400048916191  0.3017409354521305   F   F   F
  0.3450250898046718  0.3739049583073211  0.3154516338302216   F   F   F
  0.3993050477878270  0.3738457851889976  0.4014887619029039   F   F   F
  0.2479830232121785  0.3739333459899896  0.3868980634930068   F   F   F
  0.0968451547926179  0.3739638745235325  0.4016435427018195   F   F   F
  0.1488265035847965  0.3737236927381922  0.4870767107384937   T   T   T
  0.9974154026454741  0.3739266481162708  0.4726451366309500   T   T   T
  0.3463963066314112  0.3737398150891802  0.4872236909213645   T   T   T
  0.3965767549875256  0.3732722674591239  0.5705104992445096   T   T   T
  0.2456366706375124  0.3739904862704190  0.5571411135049024   T   T   T
  0.0926539858466780  0.3739124832990766  0.5697170517960393   T   T   T
  0.4033232964602220  0.3738967802569562  0.2308791494132265   F   F   F
  0.2481025728607307  0.3738958382825714  0.2099786237546724   F   F   F
  0.0929137659803487  0.3738859903685210  0.2309337065282335   F   F   F
  0.1507597823024014  0.9990710514059273  0.3157336380157787   F   F   F
  0.9983175902202106  0.9990866368003282  0.3015798230096820   F   F   F
  0.3454861152161257  0.9991102289770240  0.3157520096239637   F   F   F
  0.3995517673396733  0.9990916463913919  0.4017169307152102   F   F   F
  0.2482012496376242  0.9990536248797639  0.3872384303409788   F   F   F
  0.0968516154433701  0.9990069115135611  0.4016747416292787   F   F   F
  0.1496295446496237  0.9991425966017496  0.4871710350205034   T   T   T
  0.9980724459002940  0.9989986922295004  0.4721464608684401   T   T   T
  0.3469337272722300  0.9990901753653901  0.4872820727174829   T   T   T
  0.4013570227371164  0.9991363056891486  0.5699494675452171   T   T   T
  0.2483082238696842  0.9991809391964117  0.5572243381619413   T   T   T
  0.0952666407929816  0.9990725052911921  0.5696768915866617   T   T   T
  0.4045938911083766  0.4986413779244501  0.2311435037323548   F   F   F
  0.2482175393125985  0.4989866115373474  0.1760642085711268   F   F   F
  0.0916221328028186  0.4986365824184773  0.2313061580776363   F   F   F
  0.1508263214832368  0.6240572607938546  0.3154060328742077   F   F   F
  0.9978747871570377  0.6240472844287552  0.3018114364985252   F   F   F
  0.3451217786890268  0.6241108676998834  0.3152898652589116   F   F   F
  0.3992042174606851  0.6242822214043144  0.4013788603182604   F   F   F
  0.2479993128871527  0.6240940834289859  0.3867102137993683   F   F   F
  0.0971310800028746  0.6239333483449201  0.4018833578014522   F   F   F
  0.1501219087255132  0.6241475524953042  0.4880821363736346   T   T   T
  0.9981095577991490  0.6239547850234717  0.4721431371804178   T   T   T
  0.3456581018427853  0.6244546518976136  0.4873002941905584   T   T   T
  0.3998491590619773  0.6238964914326189  0.5682581783258266   T   T   T
  0.2479494642282010  0.6238518274334249  0.5617568141327237   T   T   T
  0.0939207503360937  0.6239764852484108  0.5704623019516337   T   T   T
  0.4029127966508170  0.6240779414133542  0.2308146519459413   F   F   F
  0.2481082052229269  0.6240803819833545  0.2096092888173686   F   F   F
  0.0933903632166917  0.6240353812978583  0.2308995878273308   F   F   F
  0.1506522704475515  0.7490219807488216  0.3156852157056491   F   F   F
  0.9980476233694944  0.7491541996991629  0.3016417943808491   F   F   F
  0.3454323316790848  0.7490811110501241  0.3156222601411898   F   F   F
  0.3993704273646799  0.7492152139492418  0.4015749116226885   F   F   F
  0.2481530432435406  0.7490856496539919  0.3871069421167164   F   F   F
  0.0969425615270509  0.7490340123307675  0.4017085322657508   F   F   F
  0.1496381697186580  0.7493502607043112  0.4873095863179107   T   T   T
  0.9981601572779704  0.7491114526902400  0.4718883743243688   T   T   T
  0.3468465216206639  0.7497527189674155  0.4876724669211371   T   T   T
  0.3996986826034730  0.7495927138025036  0.5710260377489064   T   T   T
  0.2472865914184906  0.7487994621733542  0.5577705215974281   T   T   T
  0.0946307647062015  0.7492918895990739  0.5699766745449831   T   T   T
  0.4046067019714101  0.7494849183430929  0.2311390748625257   F   F   F
  0.2482502291010249  0.7491244418719347  0.1760770358904082   F   F   F
  0.0916911016300901  0.7494577723539422  0.2312331965480041   F   F   F
  0.1510469775551186  0.8741128396376325  0.3154535037974853   F   F   F
  0.9980673366371775  0.8741569839827790  0.3015393398588060   F   F   F
  0.3451646288171020  0.8741356611080136  0.3154415950586085   F   F   F
  0.3994319415949334  0.8741793344659641  0.4015590661106359   F   F   F
  0.2481788858465563  0.8740953702944552  0.3870517288728479   F   F   F
  0.0969590720789739  0.8740980677665604  0.4015913148442820   F   F   F
  0.1497170399143537  0.8742693994600231  0.4871662390264316   T   T   T
  0.9982142798527790  0.8740741231163665  0.4721022214465091   T   T   T
  0.3467907950210029  0.8743493959779102  0.4872162244563630   T   T   T
  0.4012072513922773  0.8738740635521888  0.5699860655360662   T   T   T
  0.2482410651318797  0.8738834218903300  0.5572333018289509   T   T   T
  0.0951547495253727  0.8742627268201962  0.5697809501168647   T   T   T
  0.4033278244376746  0.8742202675347883  0.2308393223912120   F   F   F
  0.2482060537112574  0.8742442450646450  0.2099190472538623   F   F   F
  0.0930168602962169  0.8741765085428028  0.2308574315478467   F   F   F
  0.1505026815339576  0.4990458702897058  0.3156971572509661   F   F   F
  0.9980147679233582  0.4989071003356642  0.3018756059013796   F   F   F
  0.3453111254534136  0.4990551615825254  0.3155370618082571   F   F   F
  0.3991611464556613  0.4990353801203895  0.4013172170115240   F   F   F
  0.2479136678502414  0.4989886667541938  0.3866146814368321   F   F   F
  0.0969406840729832  0.4990999053659166  0.4019480193009528   F   F   F
  0.1499189873983473  0.4989139364834518  0.4879436884817696   T   T   T
  0.9976898607130139  0.4990179003477853  0.4730130306023030   T   T   T
  0.3455289524154168  0.4986829538797924  0.4871667758165800   T   T   T
  0.3986289931746068  0.4984334566541261  0.5683641642172325   T   T   T
  0.2468372556290138  0.4986785783395864  0.5615132946073530   T   T   T
  0.0927051979944706  0.4986025612965111  0.5702581017842359   T   T   T
  0.9037555852284314  0.9992009582373171  0.2308404378102793   F   F   F
  0.7481461734182417  0.9992830384600566  0.2102189965638388   F   F   F
  0.5924909848603974  0.9991805345199225  0.2308545445808434   F   F   F
  0.6506971410475160  0.1239786440396671  0.3156905631558899   F   F   F
  0.4980477012286215  0.1240066035521608  0.3016302793192907   F   F   F
  0.8455318141046462  0.1239625020240354  0.3156962058641142   F   F   F
  0.8994863651229323  0.1238686043044410  0.4017221141332286   F   F   F
  0.7481615243661821  0.1238843181498979  0.3871129785022660   F   F   F
  0.5967882563383995  0.1239452895829629  0.4017419620313518   F   F   F
  0.6495381033864552  0.1236829739935265  0.4875851809221042   T   T   T
  0.4981216569646061  0.1239703951778234  0.4723134920339406   T   T   T
  0.8463795889679453  0.1234557170209257  0.4872867122060058   T   T   T
  0.9012002116382193  0.1231791349859334  0.5697986098349688   T   T   T
  0.7480240137520622  0.1239754734442176  0.5577968221583742   T   T   T
  0.5951442748259431  0.1237115939992051  0.5703957521916572   T   T   T
  0.9050989588312319  0.1240218035934078  0.2311654512428447   F   F   F
  0.7480614118891253  0.1240507050802861  0.1767802748063758   F   F   F
  0.5911293336900840  0.1240149100535746  0.2311847742378745   F   F   F
  0.6508906844739286  0.2489080827721324  0.3155084217833632   F   F   F
  0.4978104241663388  0.2489077402359925  0.3016968763989425   F   F   F
  0.8452648290927414  0.2489419510330535  0.3155137036207165   F   F   F
  0.8992273316811890  0.2487832283488203  0.4017191615533449   F   F   F
  0.7481153610838760  0.2489088962954682  0.3869245054862063   F   F   F
  0.5968848900035155  0.2487553116533405  0.4017022006222177   F   F   F
  0.6498938413959128  0.2483396114956720  0.4883417923969253   T   T   T
  0.4982316895328194  0.2489634224046650  0.4723135652728327   T   T   T
  0.8457517628493521  0.2480919765364095  0.4878375561035411   T   T   T
  0.9013313337560876  0.2478415409643171  0.5704685714381096   T   T   T
  0.7482659265028238  0.2490056453466725  0.5616129145371859   T   T   T
  0.5959898841840797  0.2479317518451529  0.5719569479581892   T   T   T
  0.9037127903195952  0.2488665502650633  0.2308880727657723   F   F   F
  0.7480459505027071  0.2487929906288286  0.2101978364079855   F   F   F
  0.5924148375322886  0.2488533626236418  0.2309105779857958   F   F   F
  0.6507080192372499  0.3738565322604117  0.3156099905314420   F   F   F
  0.4980278775224605  0.3738785402074569  0.3015720478826509   F   F   F
  0.8455248564807576  0.3738496815375996  0.3157028655720779   F   F   F
  0.8994385452635072  0.3739574519708952  0.4017166026507795   F   F   F
  0.7482089024717098  0.3739455060229844  0.3869196829390589   F   F   F
  0.5966483307913180  0.3738754573821907  0.4014050726663569   F   F   F
  0.6494814685703606  0.3736882581071433  0.4870158378245636   T   T   T
  0.4979416548296506  0.3741084113189632  0.4719560406468433   T   T   T
  0.8463089593517327  0.3734444370870108  0.4882531615281093   T   T   T
  0.8998334876701705  0.3733961110743420  0.5732513008569677   T   T   T
  0.7457299749992981  0.3752174976963975  0.5580756928172917   T   T   T
  0.5946362597381405  0.3745428002677420  0.5698694236955258   T   T   T
  0.9050584831303610  0.3736634275110475  0.2310991166147360   F   F   F