Cu	N	Ru	Ta                              
   1.00000000000000     
    18.1096308199999996    0.0000000000000000    0.0000000000000000
     0.0000000000000000   23.3551997799999995    0.0000000000000000
     0.0000000000000000    0.0000000000000000   30.4818171199999988
   Cu   N    Ru   Ta
     4   240    24   216
Selective dynamics
Direct
  0.3060206407753642  0.4695329888221672  0.6288921721685665   T   T   T
  0.4207529980206272  0.4100169065913645  0.6331757779403889   T   T   T
  0.4312025009990310  0.5100548301486614  0.6253565356710054   T   T   T
  0.5449567083680039  0.4527461821867188  0.6152094334565726   T   T   T
  0.0000000000000000  0.0000770226766207  0.3028264943543491   F   F   F
  0.0000000000000000  0.5000770226766207  0.3028264943543491   F   F   F
  0.0000000000000000  0.6248851796377153  0.3029475127301708   F   F   F
  0.0000000000000000  0.7500770228907001  0.3028264943543491   F   F   F
  0.0000000000000000  0.8748851798518018  0.3029475127301708   F   F   F
  0.0000000000000000  0.1248851796377153  0.3029475127301708   F   F   F
  0.0000000000000000  0.2500770228907001  0.3028264943543491   F   F   F
  0.0000000000000000  0.3748851798518018  0.3029475127301708   F   F   F
  0.0020909942687576 -0.0007626925123581  0.4724061834029448   T   T   T
  0.0022283750026041  0.2490407902079447  0.4717130754455956   T   T   T
  0.0013786673949340  0.8740338871432223  0.4737503453951117   T   T   T
  0.0022261660804887  0.4970643636360721  0.4696748823174157   T   T   T
  0.0030186692622623  0.3731237549528321  0.4728974500390849   T   T   T
  0.5800714790147926  0.6421073675622937  0.5736139826132438   T   T   T
  0.5513825271650918  0.7832086203648595  0.5570762381712736   T   T   T
  0.5979894114997006  0.8854303570873502  0.5720595170794354   T   T   T
  0.5960449752266984  0.1320499565501110  0.5723599135814567   T   T   T
  0.5958786354692045  0.2609074765610607  0.5675433091567448   T   T   T
  0.5943504772119894  0.6250779795299195  0.2321437935324795   F   F   F
  0.5943504772119894  0.8750779797440060  0.2321437935324795   F   F   F
  0.5943504772119894  0.1250779795299195  0.2321437935324795   F   F   F
  0.5943504772119894  0.3750779797440060  0.2321437935324795   F   F   F
  0.5943930523482663  0.9999373617004466  0.2321734905809336   F   F   F
  0.5943930523482663  0.4999373617004466  0.2321734905809336   F   F   F
  0.5943930523482663  0.7499373619145331  0.2321734905809336   F   F   F
  0.5943930523482663  0.2499373619145331  0.2321734905809336   F   F   F
  0.5968463856291235  0.3886696605730016  0.5757292771790409   T   T   T
  0.5983737907359434  0.7505925450960065  0.4020198775449729   T   T   T
  0.5912005946003001  0.0078964505418561  0.5709057036836681   T   T   T
  0.5981131582176117  0.6250080227824558  0.4014026294914649   T   T   T
  0.5991622475595330  0.1259707512345155  0.4021268027759093   T   T   T
  0.5979198541331354  0.8750515786522667  0.4027429330274750   T   T   T
  0.6004168187926805  0.2515726391907191  0.4015743122400980   T   T   T
  0.5984298509895383  0.0011747997153650  0.4022529841408008   T   T   T
  0.5998057809360849  0.3758373257491919  0.4018146696114436   T   T   T
  0.5994987777412990  0.5010696204341830  0.4014529115469430   T   T   T
  0.5929499858090009  0.5046242793011690  0.5731736013161375   T   T   T
  0.6463055100174826  0.7450529914314842  0.4893675437421005   T   T   T
  0.6553576070520554  0.2509655367759470  0.4866510343900703   T   T   T
  0.6458407203434803  0.6283366529700639  0.4855715351786811   T   T   T
  0.6483590677977927  0.8826734384431769  0.4877736959721338   T   T   T
  0.6496384003363298  0.3801634714245372  0.4865233509758697   T   T   T
  0.6478082980161037 -0.0012601275471351  0.4868194565191905   T   T   T
  0.6497701593977551  0.1332438688537869  0.4870316479806951   T   T   T
  0.6505183184104932  0.5017273739952324  0.4871637823580502   T   T   T
  0.6547082680948861  0.6251230654212776  0.3157550047659328   F   F   F
  0.6547082680948861  0.8751230656353641  0.3157550047659328   F   F   F
  0.6547082680948861  0.1251230654212776  0.3157550047659328   F   F   F
  0.6547082680948861  0.3751230656353641  0.3157550047659328   F   F   F
  0.6547523877132235  0.9998547719551993  0.3156484409089586   F   F   F
  0.6547523877132235  0.4998547719551993  0.3156484409089586   F   F   F
  0.6547523877132235  0.7498547721692859  0.3156484409089586   F   F   F
  0.6547523877132235  0.2498547721692859  0.3156484409089586   F   F   F
  0.7411875445761417  0.7194567059164083  0.5758973329305406   T   T   T
  0.7227528325821305  0.6075994186038040  0.5508972275450481   T   T   T
  0.7529095901986733  0.1939893797420828  0.5732429525239263   T   T   T
  0.7507728204959190  0.0647327454495426  0.5116882710016687   T   T   T
  0.7496360135894122  0.7505477897172693  0.3887565605692005   T   T   T
  0.7496113247368121  0.8752058519851910  0.3889332229971191   T   T   T
  0.7498191497386203  0.6245158101389348  0.3886534422403353   T   T   T
  0.7517580338084771  0.9465060277398313  0.5752008186163644   T   T   T
  0.7499999997239044  0.0000513585844359  0.1992858820091215   F   F   F
  0.7499999997239044  0.5000513585844431  0.1992858820091215   F   F   F
  0.7499999997239044  0.6250070552811167  0.1993925282102751   F   F   F
  0.7499999997239044  0.7500513587985225  0.1992858820091215   F   F   F
  0.7499999997239044  0.8750070554952032  0.1993925282102751   F   F   F
  0.7499999997239044  0.1250070552811167  0.1993925282102751   F   F   F
  0.7499999997239044  0.2500513587985225  0.1992858820091215   F   F   F
  0.7499999997239044  0.3750070554952032  0.1993925282102751   F   F   F
  0.7497795605438331  0.0003898580936249  0.3891233179548727   T   T   T
  0.7502231074930149  0.1249069534256837  0.3888956411567175   T   T   T
  0.7506408045984336  0.2503558103550744  0.3876926915173732   T   T   T
  0.7502030440781443  0.4999851944365135  0.3881836861132299   T   T   T
  0.7503353967155757  0.3751118429313240  0.3879864925765977   T   T   T
  0.7612400127928685  0.4958597235225997  0.5548556256634269   T   T   T
  0.7498287228049091  0.8146092982478481  0.5097215367410406   T   T   T
  0.7425792049128073  0.3769722424134302  0.5532232896666799   T   T   T
  0.8452476122867765  0.9998547719551993  0.3156484409089586   F   F   F
  0.8452476122867765  0.4998547719551993  0.3156484409089586   F   F   F
  0.8452476122867765  0.7498547721692859  0.3156484409089586   F   F   F
  0.8452476122867765  0.2498547721692859  0.3156484409089586   F   F   F
  0.8452917319051139  0.6251230654212776  0.3157550047659328   F   F   F
  0.8452917319051139  0.8751230656353641  0.3157550047659328   F   F   F
  0.8452917319051139  0.1251230654212776  0.3157550047659328   F   F   F
  0.8452917319051139  0.3751230656353641  0.3157550047659328   F   F   F
  0.8502342055884677  0.7473070241358672  0.4858707739106849   T   T   T
  0.8508799162040186  0.2482051331774497  0.4888011678980281   T   T   T
  0.8470296275141123  0.6267819296475553  0.4893694719322754   T   T   T
  0.8537273405960367  0.1293539988700644  0.4875691242627141   T   T   T
  0.8520760339230788  0.9967956313463957  0.4864110604582568   T   T   T
  0.8524407633037993  0.8811578357816393  0.4865282552632695   T   T   T
  0.8502944367083928  0.4898387563971407  0.4840632673832969   T   T   T
  0.8512934000848883  0.3738323108025365  0.4859522361037583   T   T   T
  0.0798038614001360  0.6182002311699536  0.5698220107190402   T   T   T
  0.0997546800627204  0.1240588978512053  0.5742110417642001   T   T   T
  0.8823325476326279  0.6333658356565003  0.5753002711725158   T   T   T
  0.9007820544297058  0.7496409262584626  0.4020365217603528   T   T   T
  0.9089797348306223  0.1244880590213329  0.5724088380318690   T   T   T
  0.9002123302537229  0.6231965545834646  0.4037456085099718   T   T   T
  0.9012499957719921  0.2497395612800043  0.4014796704034029   T   T   T
  0.9020049272568097  0.1246254701866091  0.4018349353327419   T   T   T
  0.9012085517585570  0.8748762910717238  0.4017996472425819   T   T   T
  0.9017903382344064  0.0003616968621431  0.4014685883173952   T   T   T
  0.9097779239380164  0.0020109356594360  0.5692549281593444   T   T   T
  0.9010703107841300  0.4997985143843304  0.4017669497435187   T   T   T
  0.9016025914039870  0.3735765307478427  0.4012186152810250   T   T   T
  0.9340873697108070  0.5416624381713416  0.5373028508287290   T   T   T
  0.9049197816958334  0.7552923944111629  0.5706778083196614   T   T   T
  0.9056069476517337  0.9999373617004466  0.2321734905809336   F   F   F
  0.9056069476517337  0.4999373617004466  0.2321734905809336   F   F   F
  0.9056069476517337  0.7499373619145331  0.2321734905809336   F   F   F
  0.9056069476517337  0.2499373619145331  0.2321734905809336   F   F   F
  0.9056495227880106  0.6250779795299195  0.2321437935324795   F   F   F
  0.9056495227880106  0.8750779797440060  0.2321437935324795   F   F   F
  0.9056495227880106  0.1250779795299195  0.2321437935324795   F   F   F
  0.9056495227880106  0.3750779797440060  0.2321437935324795   F   F   F
  0.9192889927163155  0.2446960742856308  0.5698290263357999   T   T   T
  0.9035677216520284  0.8765088163961543  0.5728040076174215   T   T   T
  0.9110523686814227  0.3842476498452847  0.5713070605427371   T   T   T
  0.1007427383727857  0.4936154552842330  0.5709974320370066   T   T   T
  0.0906581434715074  0.9851173743958200  0.5704001173377663   T   T   T
  0.0943504772119894  0.6250779795299195  0.2321437935324795   F   F   F
  0.0943504772119894  0.8750779797440060  0.2321437935324795   F   F   F
  0.0943504772119894  0.1250779795299195  0.2321437935324795   F   F   F
  0.0943504772119894  0.3750779797440060  0.2321437935324795   F   F   F
  0.0943930523482663  0.9999373617004466  0.2321734905809336   F   F   F
  0.0943930523482663  0.4999373617004466  0.2321734905809336   F   F   F
  0.0943930523482663  0.7499373619145331  0.2321734905809336   F   F   F
  0.0943930523482663  0.2499373619145331  0.2321734905809336   F   F   F
  0.0800049420075939  0.7351921727789938  0.5711974269921207   T   T   T
  0.0986906720837798  0.7497709266717174  0.4024012590716315   T   T   T
  0.0976048030562667  0.6241780732314089  0.4020982358043224   T   T   T
  0.1002443162006649  0.1242649981668076  0.4019864353617895   T   T   T
  0.0995140761225795  0.8741095740128064  0.4016604886250822   T   T   T
  0.0956342238446170  0.8642513402272973  0.5704330486656117   T   T   T
  0.1001341118876408  0.2493607387076113  0.4013541854198189   T   T   T
  0.1008053777104973  0.0003232683597542  0.4020125869335714   T   T   T
  0.9978489231445372  0.6242506154682317  0.4764256012722985   T   T   T
  0.0018079030293775  0.1247858508077563  0.4740268033600421   T   T   T
  0.9990352508333765  0.7495335239585085  0.4727901457646779   T   T   T
  0.0999734079823039  0.3738214956633667  0.4015259765004676   T   T   T
  0.0999501162486419  0.4990640814780513  0.4014985236887697   T   T   T
  0.1005543224280831  0.2448965600993052  0.5678475817091065   T   T   T
  0.1069336121335364  0.3706696190500358  0.5704283722167993   T   T   T
  0.1482896690117969  0.6263314612344792  0.4861865448118018   T   T   T
  0.1515742491395237  0.1261754703908376  0.4860131151322188   T   T   T
  0.1469131414162530  0.7459612808757571  0.4889993584636741   T   T   T
  0.1529511404106879  0.2474279814117931  0.4854376885050052   T   T   T
  0.1546711324005664  0.9962829759170949  0.4899654152847328   T   T   T
  0.1510416697811376  0.8783263289711011  0.4836522648693182   T   T   T
  0.1521286207229894  0.3744886948070503  0.4852220242166717   T   T   T
  0.1562245039764880  0.4948517137100856  0.4870475116511475   T   T   T
  0.1547082680948861  0.6251230654212776  0.3157550047659328   F   F   F
  0.1547082680948861  0.8751230656353641  0.3157550047659328   F   F   F
  0.1547082680948861  0.1251230654212776  0.3157550047659328   F   F   F
  0.1547082680948861  0.3751230656353641  0.3157550047659328   F   F   F
  0.1547523877132235  0.9998547719551993  0.3156484409089586   F   F   F
  0.1547523877132235  0.4998547719551993  0.3156484409089586   F   F   F
  0.1547523877132235  0.7498547721692859  0.3156484409089586   F   F   F
  0.1547523877132235  0.2498547721692859  0.3156484409089586   F   F   F
  0.2393036702182761  0.6145505340956918  0.5607461267385268   T   T   T
  0.2588812391919539  0.1262332795284974  0.5524116175116759   T   T   T
  0.2355510673955704  0.7362616913707138  0.5573885012031998   T   T   T
  0.2489501504101300  0.7497802866708684  0.3872568290759266   T   T   T
  0.2489363095454492  0.6245952226451923  0.3868336483022581   T   T   T
  0.2499999997239044  0.0000513585844359  0.1992858820091215   F   F   F
  0.2499999997239044  0.5000513585844431  0.1992858820091215   F   F   F
  0.2499999997239044  0.6250070552811167  0.1993925282102751   F   F   F
  0.2499999997239044  0.7500513587985225  0.1992858820091215   F   F   F
  0.2499999997239044  0.8750070554952032  0.1993925282102751   F   F   F
  0.2499999997239044  0.1250070552811167  0.1993925282102751   F   F   F
  0.2499999997239044  0.2500513587985225  0.1992858820091215   F   F   F
  0.2499999997239044  0.3750070554952032  0.1993925282102751   F   F   F
  0.2503754892039915  0.8746131442569024  0.3879285139740012   T   T   T
  0.2506323792580498  0.0000878627865332  0.3879049702526041   T   T   T
  0.2508791595677856  0.1249181053589201  0.3879299248433377   T   T   T
  0.2507799222077478  0.2499812344184797  0.3875366264114857   T   T   T
  0.2496308234312637  0.4993706648956216  0.3860948148592882   T   T   T
  0.2505408907349759  0.3742930675254051  0.3875921607019348   T   T   T
  0.2343097399756667  0.8478126039830906  0.5531761539718666   T   T   T
  0.2441131700815995  0.2445512417384744  0.5561377606783288   T   T   T
  0.2541262591106532  0.9554635205002361  0.5739024345293690   T   T   T
  0.2558139795235815  0.3641324424044961  0.5501087035272002   T   T   T
  0.2555850898409867  0.4791374132958626  0.5728234887590166   T   T   T
  0.3452476122867765  0.9998547719551993  0.3156484409089586   F   F   F
  0.3452476122867765  0.4998547719551993  0.3156484409089586   F   F   F
  0.3452476122867765  0.7498547721692859  0.3156484409089586   F   F   F
  0.3452476122867765  0.2498547721692859  0.3156484409089586   F   F   F
  0.3452917319051139  0.6251230654212776  0.3157550047659328   F   F   F
  0.3452917319051139  0.8751230656353641  0.3157550047659328   F   F   F
  0.3452917319051139  0.1251230654212776  0.3157550047659328   F   F   F
  0.3452917319051139  0.3751230656353641  0.3157550047659328   F   F   F
  0.3468545391818235  0.6254334837467840  0.4846208205148759   T   T   T
  0.3437099877339077  0.7450493073222628  0.4838698828387566   T   T   T
  0.3484205903151930  0.8772750095427188  0.4907714629429242   T   T   T
  0.3518716883264009  0.1307844126260383  0.4860451693814790   T   T   T
  0.3513226777259820  0.2508949413668095  0.4872470446209416   T   T   T
  0.3523276498807462  0.3782553174265958  0.4855685398717887   T   T   T
  0.3474124645833897  0.9987282251784292  0.4877984940871172   T   T   T
  0.3478733743985978  0.4962225943972625  0.4850963459739024   T   T   T
  0.3997688850657826  0.7503676670679830  0.4013556826514963   T   T   T
  0.3994613065706367  0.6240142149560794  0.4012107349239136   T   T   T
  0.3808133151436630  0.7444846139364348  0.5669401605660682   T   T   T
  0.4018147467204506  0.1252864796829015  0.4020509813006727   T   T   T
  0.4008901546192845  0.8747806376202076  0.4033647408181689   T   T   T
  0.4014952652148888  0.2510615923249937  0.4015316961642034   T   T   T
  0.4009210593759939  0.0003224536559526  0.4026197378471161   T   T   T
  0.4001897227203359  0.5008637808456076  0.4007810079207565   T   T   T
  0.4015841352302696  0.3750733139532040  0.4010762691936623   T   T   T
  0.3917162230497781  0.6218294404536244  0.5748957092022566   T   T   T
  0.4087017108672130  0.3834614992374379  0.5746820281784545   T   T   T
  0.4115683689020901  0.2508173339425360  0.5704128513319870   T   T   T
  0.4038139126237947  0.5106018646019779  0.5640352818803487   T   T   T
  0.4056069476517337  0.9999373617004466  0.2321734905809336   F   F   F
  0.4056069476517337  0.4999373617004466  0.2321734905809336   F   F   F
  0.4056069476517337  0.7499373619145331  0.2321734905809336   F   F   F
  0.4056069476517337  0.2499373619145331  0.2321734905809336   F   F   F
  0.4056495227880106  0.6250779795299195  0.2321437935324795   F   F   F
  0.4056495227880106  0.8750779797440060  0.2321437935324795   F   F   F
  0.4056495227880106  0.1250779795299195  0.2321437935324795   F   F   F
  0.4056495227880106  0.3750779797440060  0.2321437935324795   F   F   F
  0.4158012298376690  0.8905085331995287  0.5777772988111263   T   T   T
  0.4037990679569133  0.1358702494771060  0.5738107258774132   T   T   T
  0.4059022489167790  0.0146598072415004  0.5680134223058482   T   T   T
  0.4963597226741691  0.6250598343508984  0.4732913373074631   T   T   T
  0.4969256736353018  0.7497572930613821  0.4713460026300146   T   T   T
  0.4982598218033816  0.8746486378734891  0.4784155008288804   T   T   T
  0.5017315353070290  0.2519520566034920  0.4720396024529774   T   T   T
  0.5000000000000000  0.0000770226766207  0.3028264943543491   F   F   F
  0.5000000000000000  0.5000770226766207  0.3028264943543491   F   F   F
  0.5000000000000000  0.6248851796377153  0.3029475127301708   F   F   F
  0.5000000000000000  0.7500770228907001  0.3028264943543491   F   F   F
  0.5000000000000000  0.8748851798518018  0.3029475127301708   F   F   F
  0.5000000000000000  0.1248851796377153  0.3029475127301708   F   F   F
  0.5000000000000000  0.2500770228907001  0.3028264943543491   F   F   F
  0.5000000000000000  0.3748851798518018  0.3029475127301708   F   F   F
  0.5001918705044713  0.1276287833005886  0.4739051152432691   T   T   T
  0.4984722728419355  0.5017641783033585  0.4708760345970860   T   T   T
  0.5016862189955327  0.3770657265061888  0.4727876557421362   T   T   T
  0.4986305330916173  0.0017236336179047  0.4748840111646226   T   T   T
 -0.0052229639593021  0.7506405306932667  0.5400072834436387   T   T   T
  0.0125181772076694  0.2438645935927470  0.5387176795633475   T   T   T
  0.6206146028080733  0.5710226647238661  0.5410602997536632   T   T   T
  0.6419720483084678  0.8180844204840167  0.5353638474753168   T   T   T
  0.6392835325045187  0.0666151585461090  0.5348767392368237   T   T   T
  0.6459097434083230  0.3234073938158523  0.5396564390940011   T   T   T
  0.8126961840402810  0.5713970621073370  0.5413980677515687   T   T   T
  0.8610385984531975  0.0621425831776010  0.5351165899138980   T   T   T
  0.8590990770834555  0.8144845586880306  0.5337991750186418   T   T   T
  0.8881289523416902  0.3114625601476448  0.5394153087946387   T   T   T
  0.0169195118309600  0.4870366351131495  0.5356517693654759   T   T   T
 -0.0012647059377061  0.9906871507637034  0.5395896236769261   T   T   T
  0.1369070542304313  0.5584699299413008  0.5362035106438831   T   T   T
  0.1204104287176193  0.0526549806020059  0.5421322065118459   T   T   T
  0.1451862915835027  0.7938223159433503  0.5466961760353506   T   T   T
  0.1734976615349071  0.3083289894066104  0.5387792490248855   T   T   T
  0.3190063858449921  0.5571621073810263  0.5756712711910432   T   T   T
  0.3775979334281390  0.3150716041484409  0.5391789130771503   T   T   T
  0.3080415054406056  0.8013554797613720  0.5329422670933390   T   T   T
  0.3527991911369487  0.0735792993914350  0.5383714819186988   T   T   T
  0.4692157966340105  0.7419127334374629  0.5366665017595931   T   T   T
  0.5037824719337755  0.2509823647068256  0.5390506212136854   T   T   T
  0.5006576092254489  0.0144323876222825  0.5415291893238037   T   T   T
  0.4982622381966574  0.4972497469893210  0.5376949668793749   T   T   T
  0.0000000000000000  0.9999830748611132  0.1973415402473861   F   F   F
  0.0000000000000000  0.4999830748611132  0.1973415402473861   F   F   F
  0.0000000000000000  0.6250597900044994  0.1972695212469660   F   F   F
  0.0000000000000000  0.7499830750751997  0.1973415402473861   F   F   F
  0.0000000000000000  0.8750597902185859  0.1972695212469660   F   F   F
  0.0000000000000000  0.1250597900044994  0.1972695212469660   F   F   F
  0.0000000000000000  0.2499830750751997  0.1973415402473861   F   F   F
  0.0000000000000000  0.3750597902185859  0.1972695212469660   F   F   F
  0.0007267522759015  0.2495642395483845  0.3692493092762527   T   T   T
  0.0011982909718994 -0.0001631407014033  0.3694828525452389   T   T   T
  0.0001828588602037  0.4995428636161790  0.3695019770630475   T   T   T
  0.0006640595509741  0.3742071900541830  0.3692370774529457   T   T   T
 -0.0003848301099407  0.8756754115825142  0.5425661952811857   T   T   T
  0.0087275729184632  0.3800914443205415  0.5416990630468483   T   T   T
  0.5798431833792432  0.6881746510819438  0.4526279268971481   T   T   T
  0.5824959423441172  0.4374754614066489  0.2839355729984092   F   F   F
  0.5824959423441172  0.6874754611925624  0.2839355729984092   F   F   F
  0.5824959423441172  0.9374754614066489  0.2839355729984092   F   F   F
  0.5824959423441172  0.1874754611925624  0.2839355729984092   F   F   F
  0.5827651808530874  0.5624885324787385  0.2838652796168972   F   F   F
  0.5827651808530874  0.0624885324787385  0.2838652796168972   F   F   F
  0.5827651808530874  0.8124885322646520  0.2838652796168972   F   F   F
  0.5827651808530874  0.3124885322646520  0.2838652796168972   F   F   F
  0.5845277017431985  0.1904323517841285  0.4528879542630823   T   T   T
  0.5810444574750815  0.9387799606633691  0.4537337890699286   T   T   T
  0.5827012007755912  0.4399526869018366  0.4531073181035296   T   T   T
  0.5847157631970987  0.8131310625020562  0.4557282049212737   T   T   T
  0.5825660460642779  0.5634802143651332  0.4542178478265163   T   T   T
  0.5837484860346230  0.0645578759278292  0.4551344369302726   T   T   T
  0.5858100348333192  0.3144338778036524  0.4545261850603988   T   T   T
  0.6599930568888440  0.1915025871530111  0.5434708056798999   T   T   T
  0.6636727548794086  0.6841079071851688  0.5432623127454360   T   T   T
  0.6659163253997278  0.5625456426731574  0.2025671506292426   F   F   F
  0.6659163253997278  0.0625456426731503  0.2025671506292426   F   F   F
  0.6659163253997278  0.8125456424590709  0.2025671506292426   F   F   F
  0.6659163253997278  0.3125456424590709  0.2025671506292426   F   F   F
  0.6659898017733283  0.4375125970341855  0.2025194438276969   F   F   F
  0.6659898017733283  0.6875125968200990  0.2025194438276969   F   F   F
  0.6659898017733283  0.9375125970341855  0.2025194438276969   F   F   F
  0.6659898017733283  0.1875125968200990  0.2025194438276969   F   F   F
  0.6680072478970395  0.6876833512899787  0.3686779467386393   T   T   T
  0.6673790755236979  0.8127996031314789  0.3689231109018910   T   T   T
  0.6675414934060637  0.9377732724169672  0.3687813556332102   T   T   T
  0.6677899236620097  0.0628057037271110  0.3687952189687776   T   T   T
  0.6677969487556976  0.5626573083954158  0.3679953329096452   T   T   T
  0.6686521959420191  0.1877091051914676  0.3683068622006969   T   T   T
  0.6596424600586589  0.9459603944416222  0.5452280513420295   T   T   T
  0.6684478851738315  0.3129038973923058  0.3679706667475784   T   T   T
  0.6683628598819575  0.4378014298044625  0.3682539776734359   T   T   T
  0.6663571612402719  0.4456705160319365  0.5413989336353857   T   T   T
  0.7475342195337681  0.7503549151803536  0.4578600456226337   T   T   T
  0.7487305295370557  0.6263304976133512  0.4567408817711305   T   T   T
  0.7527578080332613  0.2501690105826349  0.4554930840301243   T   T   T
  0.7515072522159624  0.1268831739111981  0.4582331709251996   T   T   T
  0.7497615825562880  0.8762465425927349  0.4581917235730562   T   T   T
  0.7499999997239044  0.0001643475558382  0.2779548773829816   F   F   F
  0.7499999997239044  0.5001643475558382  0.2779548773829816   F   F   F
  0.7499999997239044  0.6249264342623420  0.2780286426703711   F   F   F
  0.7499999997239044  0.7501643477699247  0.2779548773829816   F   F   F
  0.7499999997239044  0.8749264344764285  0.2780286426703711   F   F   F
  0.7499999997239044  0.1249264342623420  0.2780286426703711   F   F   F
  0.7499999997239044  0.2501643477699247  0.2779548773829816   F   F   F
  0.7499999997239044  0.3749264344764285  0.2780286426703711   F   F   F
  0.7500362068957102  0.0024419954383438  0.4582731109345038   T   T   T
  0.7500660981809312  0.3761683133844968  0.4561067880515259   T   T   T
  0.7513353765499589  0.4984821638722636  0.4562293775721165   T   T   T
  0.0806552370557157  0.6865128135342807  0.4533322331403162   T   T   T
  0.0840274784366280  0.1865439882607274  0.4530951008802588   T   T   T
  0.0824959423441172  0.4374754614066489  0.2839355729984092   F   F   F
  0.0824959423441172  0.6874754611925624  0.2839355729984092   F   F   F
  0.0824959423441172  0.9374754614066489  0.2839355729984092   F   F   F
  0.0824959423441172  0.1874754611925624  0.2839355729984092   F   F   F
  0.0827651808530874  0.5624885324787385  0.2838652796168972   F   F   F
  0.0827651808530874  0.0624885324787385  0.2838652796168972   F   F   F
  0.0827651808530874  0.8124885322646520  0.2838652796168972   F   F   F
  0.0827651808530874  0.3124885322646520  0.2838652796168972   F   F   F
  0.8454393586838185  0.1859893392687325  0.5443889427538642   T   T   T
  0.8314635825614186  0.6970731055993586  0.5456322128935123   T   T   T
  0.8319349698124457  0.6873271329609092  0.3691219407947539   T   T   T
  0.8317923173224838  0.8126091418742800  0.3686918945263051   T   T   T
  0.8317127374667649  0.9376204571058010  0.3686141772812635   T   T   T
  0.8322600175522344  0.1871910174366426  0.3685163637793522   T   T   T
  0.8324436788698319  0.0624650554570100  0.3686834783502159   T   T   T
  0.8329985300814231  0.5622598319161547  0.3689188681952414   T   T   T
  0.8324661977915498  0.3123543464542022  0.3679256592860096   T   T   T
  0.8324906859918489  0.4373493201630165  0.3682276988713446   T   T   T
  0.8340101684082839  0.4375125970341855  0.2025194438276969   F   F   F
  0.8340101684082839  0.6875125968200990  0.2025194438276969   F   F   F
  0.8340101684082839  0.9375125970341855  0.2025194438276969   F   F   F
  0.8340101684082839  0.1875125968200990  0.2025194438276969   F   F   F
  0.8340836447818845  0.5625456426731574  0.2025671506292426   F   F   F
  0.8340836447818845  0.0625456426731503  0.2025671506292426   F   F   F
  0.8340836447818845  0.8125456424590709  0.2025671506292426   F   F   F
  0.8340836447818845  0.3125456424590709  0.2025671506292426   F   F   F
  0.8417948270126934  0.9383384463046501  0.5436660891799308   T   T   T
  0.8256657360982053  0.4270757173484898  0.5401625401320033   T   T   T
  0.0856284713159495  0.9374862789292087  0.4528367192827386   T   T   T
  0.0850459863302347  0.8117117803229597  0.4555408871769658   T   T   T
  0.0847696428268908  0.5606169479791508  0.4540238453509706   T   T   T
  0.0864748132216151  0.0613809203038013  0.4552146143661638   T   T   T
  0.0853118215833308  0.4361178439995009  0.4535144203890711   T   T   T
  0.0863722546994857  0.3109624729878777  0.4536414311621355   T   T   T
  0.9156762801734462  0.8124069595220951  0.4541176438371513   T   T   T
  0.9175644476087804  0.0624848107222875  0.4543463745967491   T   T   T
  0.9155890906933792  0.6863501838489180  0.4542424826763684   T   T   T
  0.9177761978306770  0.3110808878639574  0.4539694489717241   T   T   T
  0.9142151271999500  0.5591597386107788  0.4585544911742853   T   T   T
  0.9182384145802593  0.1876495444402289  0.4527570296368037   T   T   T
  0.9172348191469126  0.5624885324787385  0.2838652796168972   F   F   F
  0.9172348191469126  0.0624885324787385  0.2838652796168972   F   F   F
  0.9172348191469126  0.8124885322646520  0.2838652796168972   F   F   F
  0.9172348191469126  0.3124885322646520  0.2838652796168972   F   F   F
  0.9175040576558828  0.4374754614066489  0.2839355729984092   F   F   F
  0.9175040576558828  0.6874754611925624  0.2839355729984092   F   F   F
  0.9175040576558828  0.9374754614066489  0.2839355729984092   F   F   F
  0.9175040576558828  0.1874754611925624  0.2839355729984092   F   F   F
  0.9191202087347452  0.9379824461621479  0.4528353518995028   T   T   T
  0.9190420576940035  0.4352555269333079  0.4519969882259623   T   T   T
  0.9793251094124982  0.6162281443900052  0.5452420516882612   T   T   T
  0.0045312745854428  0.1289012286659117  0.5429819744313799   T   T   T
 -0.0002952401128363  0.7496666495720157  0.3696775817175114   T   T   T
  0.9985492519567228  0.6241483170328875  0.3699233099114071   T   T   T
  0.0002306260870325  0.8747836360508315  0.3694924348728423   T   T   T
  0.0010405921357293  0.1245411999690639  0.3695153360200400   T   T   T
  0.1560460859042772  0.6748446946517270  0.5443082197521458   T   T   T
  0.1659163253997278  0.5625456426731574  0.2025671506292426   F   F   F
  0.1659163253997278  0.0625456426731503  0.2025671506292426   F   F   F
  0.1659163253997278  0.8125456424590709  0.2025671506292426   F   F   F
  0.1659163253997278  0.3125456424590709  0.2025671506292426   F   F   F
  0.1659898017733283  0.4375125970341855  0.2025194438276969   F   F   F
  0.1659898017733283  0.6875125968200990  0.2025194438276969   F   F   F
  0.1659898017733283  0.9375125970341855  0.2025194438276969   F   F   F
  0.1659898017733283  0.1875125968200990  0.2025194438276969   F   F   F
  0.1711291221488252  0.1787413196348171  0.5420148068597745   T   T   T
  0.1670120595955796  0.6872236378837916  0.3682586160512634   T   T   T
  0.1675807597412219  0.8122074804243081  0.3680897004838404   T   T   T
  0.1687125666196682  0.0624171062165548  0.3680300134158576   T   T   T
  0.1668910009597905  0.5621679688906498  0.3679311403782828   T   T   T