Mo  S Cu                                
   1.00000000000000     
    15.9214998300000001    0.0000000000000000    0.0000000000000000
    -7.9622501300000001   13.7910221699999997    0.0000000000000000
     0.0000000000000000    0.0000000000000000   13.5821998300000004
   Mo   S    Cu
    25    50     4
Direct
  0.1327106977178829  0.0652388810272555  0.6789122564596610
  0.1347584495714997  0.2657995517548741  0.6838428012231432
  0.1334753878555119  0.4657536186496358  0.6824270181214942
  0.1327158163685525  0.6657788837014778  0.6776412377489720
  0.1328209591126424  0.8658683431275307  0.6760175515781484
  0.3327904606293401  0.0659513283414839  0.6782317105439901
  0.3329444684720784  0.2654644227183240  0.6816290113049419
  0.3350886231632302  0.4682141127616930  0.6753169509893908
  0.3330642639059462  0.6667055817772152  0.6756158140936819
  0.3326916002262550  0.8658855298729335  0.6760291634686340
  0.5321702222219216  0.0652529551254162  0.6789175519580581
  0.5321133907291369  0.2654487869230024  0.6817003633275078
  0.5341243701895877  0.4686268144361208  0.6724185167949486
  0.5338127628494433  0.6679737337989735  0.6723133547955840
  0.5329709771991844  0.8665354173405717  0.6749494466928283
  0.7334593189627867  0.0660391480120097  0.6786722471920257
  0.7307061400583805  0.2657972503010484  0.6838330332360201
  0.7327334848745721  0.4681258268299331  0.6754447374547823
  0.7338025787251610  0.6679416578383979  0.6723221983160812
  0.7331435929715369  0.8666190107393632  0.6739638768962664
  0.9322398479165983  0.0660243714661561  0.6786648747060724
  0.9319020973238352  0.2640544494274408  0.6852077574435214
  0.9319428752376950  0.4657767304092317  0.6824285766121037
  0.9332571633640185  0.6666727259239664  0.6756273891286284
  0.9332048133172179  0.8665137408847698  0.6749480316261440
  0.0675448691699287  0.1349496154557812  0.5662444313592729
  0.0633410231254317  0.1262239400600365  0.7988118414000098
  0.0656231638582980  0.3306016581039160  0.5704184571702413
  0.0675026300168184  0.3330756834087651  0.8021028293464525
  0.0646019403285294  0.5295393217541289  0.5663227995964348
  0.0671468921347795  0.5346142980746080  0.7955253614617348
  0.0668130912143994  0.7322296261234342  0.5610925067815273
  0.0658768418940383  0.7330874610725076  0.7914536236613756
  0.0674877588055836  0.9343117631443789  0.5611255195212266
  0.0647372650099811  0.9299397265447737  0.7920198112215289
  0.2666247064074767  0.1337289791067704  0.5645692027440674
  0.2642567424436209  0.1287821982348802  0.7978555127191740
  0.2654831461002658  0.3307748076052164  0.5659159476802671
  0.2739256412431530  0.3389942535908617  0.7989942266620957
  0.2637739150750278  0.5313774204753869  0.5628672432412998
  0.2698872252134095  0.5354631540293937  0.7930511092406505
  0.2650686626103251  0.7322603910188406  0.5610907625636656
  0.2668670886265687  0.7331039120880547  0.7914622977326005
  0.2668148800915517  0.9339858752650159  0.5614611227250847
  0.2651843058307861  0.9307521519592967  0.7920028976466966
  0.4667569486248482  0.1337583510410454  0.5646016186978713
  0.4641031149482373  0.1287400316702758  0.7979116404412707
  0.4648410257997213  0.3300233002275945  0.5646397533729157
  0.4690140291227252  0.3385643403930061  0.7992395629120708
  0.4660301830546487  0.5335643940702042  0.5578828382108654
  0.4696657159013498  0.5368663206326119  0.7891444532125504
  0.4653937403782038  0.7338804961244776  0.5588242845593498
  0.4673511944442126  0.7332381130618444  0.7892897486453734
  0.4664777949834047  0.9343351795603638  0.5611385859422455
  0.4648563803196595  0.9299471018613303  0.7920297018258466
  0.6670718946763188  0.1349669426445388  0.5662554019699115
  0.6625236449377923  0.1261555244141590  0.7988112772446030
  0.6648990151877499  0.3307322341051204  0.5660158284256482
  0.6646014230038020  0.3388668180901249  0.7991977597972522
  0.6671969935965549  0.5335027213910735  0.5579450413818563
  0.6668053744500000  0.5368330089934190  0.7891781395427842
  0.6671822359744510  0.7346863976532063  0.5571857836694889
  0.6664727671635760  0.7332787516351758  0.7879149610512002
  0.6672010236366361  0.9353860629328707  0.5605410527131127
  0.6655222946974888  0.9304812027238967  0.7907913566094180
  0.8672777411165313  0.1348792169892974  0.5656788908191928
  0.8643211234417905  0.1289473327705295  0.7970356797350320
  0.8646799952368553  0.3305963515640329  0.5704527379870754
  0.8654350686580514  0.3331415596595946  0.8021335706591799
  0.8671771290500061  0.5313218209745827  0.5629162842340065
  0.8652333433104005  0.5354506682915883  0.7930988334097862
  0.8681224004827115  0.7338520433247098  0.5588228933885730
  0.8655214069594521  0.7332226741901451  0.7892933201771157
  0.8678469643259703  0.9353748126206796  0.5605314996261370
  0.8646291462882658  0.9304740488460226  0.7907927409743820
  0.3381418468984663  0.2544379047139600  0.9088032074386234
  0.5150614010776877  0.2543940001486362  0.9086560517642539
  0.7121730010515250  0.2575431307888323  0.8951993803531764
  0.1461229767487353  0.2568107846262180  0.8959123149680934
 
  0.00000000E+00  0.00000000E+00  0.00000000E+00
  0.00000000E+00  0.00000000E+00  0.00000000E+00
  0.00000000E+00  0.00000000E+00  0.00000000E+00
  0.00000000E+00  0.00000000E+00  0.00000000E+00
  0.00000000E+00  0.00000000E+00  0.00000000E+00
  0.00000000E+00  0.00000000E+00  0.00000000E+00
  0.00000000E+00  0.00000000E+00  0.00000000E+00
  0.00000000E+00  0.00000000E+00  0.00000000E+00
  0.00000000E+00  0.00000000E+00  0.00000000E+00
  0.00000000E+00  0.00000000E+00  0.00000000E+00
  0.00000000E+00  0.00000000E+00  0.00000000E+00
  0.00000000E+00  0.00000000E+00  0.00000000E+00
  0.00000000E+00  0.00000000E+00  0.00000000E+00
  0.00000000E+00  0.00000000E+00  0.00000000E+00
  0.00000000E+00  0.00000000E+00  0.00000000E+00
  0.00000000E+00  0.00000000E+00  0.00000000E+00
  0.00000000E+00  0.00000000E+00  0.00000000E+00
  0.00000000E+00  0.00000000E+00  0.00000000E+00
  0.00000000E+00  0.00000000E+00  0.00000000E+00
  0.00000000E+00  0.00000000E+00  0.00000000E+00
  0.00000000E+00  0.00000000E+00  0.00000000E+00
  0.00000000E+00  0.00000000E+00  0.00000000E+00
  0.00000000E+00  0.00000000E+00  0.00000000E+00
  0.00000000E+00  0.00000000E+00  0.00000000E+00
  0.00000000E+00  0.00000000E+00  0.00000000E+00
  0.00000000E+00  0.00000000E+00  0.00000000E+00
  0.00000000E+00  0.00000000E+00  0.00000000E+00
  0.00000000E+00  0.00000000E+00  0.00000000E+00
  0.00000000E+00  0.00000000E+00  0.00000000E+00
  0.00000000E+00  0.00000000E+00  0.00000000E+00
  0.00000000E+00  0.00000000E+00  0.00000000E+00
  0.00000000E+00  0.00000000E+00  0.00000000E+00
  0.00000000E+00  0.00000000E+00  0.00000000E+00
  0.00000000E+00  0.00000000E+00  0.00000000E+00
  0.00000000E+00  0.00000000E+00  0.00000000E+00
  0.00000000E+00  0.00000000E+00  0.00000000E+00
  0.00000000E+00  0.00000000E+00  0.00000000E+00
  0.00000000E+00  0.00000000E+00  0.00000000E+00
  0.00000000E+00  0.00000000E+00  0.00000000E+00
  0.00000000E+00  0.00000000E+00  0.00000000E+00
  0.00000000E+00  0.00000000E+00  0.00000000E+00
  0.00000000E+00  0.00000000E+00  0.00000000E+00
  0.00000000E+00  0.00000000E+00  0.00000000E+00
  0.00000000E+00  0.00000000E+00  0.00000000E+00
  0.00000000E+00  0.00000000E+00  0.00000000E+00
  0.00000000E+00  0.00000000E+00  0.00000000E+00
  0.00000000E+00  0.00000000E+00  0.00000000E+00
  0.00000000E+00  0.00000000E+00  0.00000000E+00
  0.00000000E+00  0.00000000E+00  0.00000000E+00
  0.00000000E+00  0.00000000E+00  0.00000000E+00
  0.00000000E+00  0.00000000E+00  0.00000000E+00
  0.00000000E+00  0.00000000E+00  0.00000000E+00
  0.00000000E+00  0.00000000E+00  0.00000000E+00
  0.00000000E+00  0.00000000E+00  0.00000000E+00
  0.00000000E+00  0.00000000E+00  0.00000000E+00
  0.00000000E+00  0.00000000E+00  0.00000000E+00
  0.00000000E+00  0.00000000E+00  0.00000000E+00
  0.00000000E+00  0.00000000E+00  0.00000000E+00
  0.00000000E+00  0.00000000E+00  0.00000000E+00
  0.00000000E+00  0.00000000E+00  0.00000000E+00
  0.00000000E+00  0.00000000E+00  0.00000000E+00
  0.00000000E+00  0.00000000E+00  0.00000000E+00
  0.00000000E+00  0.00000000E+00  0.00000000E+00
  0.00000000E+00  0.00000000E+00  0.00000000E+00
  0.00000000E+00  0.00000000E+00  0.00000000E+00
  0.00000000E+00  0.00000000E+00  0.00000000E+00
  0.00000000E+00  0.00000000E+00  0.00000000E+00
  0.00000000E+00  0.00000000E+00  0.00000000E+00
  0.00000000E+00  0.00000000E+00  0.00000000E+00
  0.00000000E+00  0.00000000E+00  0.00000000E+00
  0.00000000E+00  0.00000000E+00  0.00000000E+00
  0.00000000E+00  0.00000000E+00  0.00000000E+00
  0.00000000E+00  0.00000000E+00  0.00000000E+00
  0.00000000E+00  0.00000000E+00  0.00000000E+00
  0.00000000E+00  0.00000000E+00  0.00000000E+00
  0.00000000E+00  0.00000000E+00  0.00000000E+00
  0.00000000E+00  0.00000000E+00  0.00000000E+00
  0.00000000E+00  0.00000000E+00  0.00000000E+00
  0.00000000E+00  0.00000000E+00  0.00000000E+00
