Mo  S Cu                                
   1.00000000000000     
    15.9214998300000001    0.0000000000000000    0.0000000000000000
    -7.9622501300000001   13.7910221699999997    0.0000000000000000
     0.0000000000000000    0.0000000000000000   13.5821998300000004
   Mo   S    Cu
    25    50     4
Direct
  0.1323250566572085  0.0656485929023205  0.6785409443121750
  0.1322990443176124  0.2654707448791100  0.6788358974068416
  0.1325021196111607  0.4655373278268797  0.6792658789295416
  0.1327061570450070  0.6657588861862322  0.6791741298978522
  0.1324946168405532  0.8657944501065700  0.6790613921439288
  0.3331147211038328  0.0669332371509270  0.6786340545992999
  0.3285464616685161  0.2636757487623171  0.6723390772807250
  0.3332697679376011  0.4650113810625598  0.6786359132256408
  0.3329047982165037  0.6659469551775317  0.6794085973075781
  0.3329017564679901  0.8657867122816043  0.6793415860631669
  0.5328887135574121  0.0657450431443323  0.6791845303377499
  0.5343088969722061  0.2641695159915258  0.6733354615248928
  0.5345704530151849  0.4694620448296121  0.6728902133494259
  0.5329539163451784  0.6660921242365561  0.6791963530867804
  0.5329192486279126  0.8659124687948392  0.6792528449849087
  0.7327690716033928  0.0656145684179847  0.6787361577515938
  0.7327182390902678  0.2655922816260912  0.6789275204076830
  0.7316789162434887  0.4653361720558351  0.6788073857740073
  0.7327820851177265  0.6660538467344423  0.6786341125517197
  0.7327813542512018  0.8660903622021863  0.6786342941424905
  0.9322814949704963  0.0655954477138678  0.6784939487748147
  0.9324955449204992  0.2654950280659278  0.6790308124284152
  0.9326479342250806  0.4655382837976134  0.6792198292885701
  0.9326482127897293  0.6659537774778954  0.6790767156637187
  0.9325132885752083  0.8658916598749684  0.6788059018144850
  0.0656829161392238  0.1323218368339596  0.5635571370079333
  0.0652103821947208  0.1319480035663290  0.7939139332350749
  0.0656796961523298  0.3323164055115555  0.5639878294039065
  0.0657633058784768  0.3321696164957970  0.7942167195294232
  0.0660165191609465  0.5323523903844176  0.5640961732121497
  0.0660073765740279  0.5324182149522514  0.7943203777526477
  0.0660315500264446  0.7324188952121133  0.5639734267521703
  0.0659841279543869  0.7324836489726394  0.7941748176312871
  0.0656751160426197  0.9322101465257049  0.5637228308468565
  0.0657569033277667  0.9324409308417927  0.7939802439489938
  0.2641562115187028  0.1295439574263284  0.5609941380277235
  0.2663032831479839  0.1340391828942344  0.7953206692303922
  0.2640527133259809  0.3334018713469717  0.5612243646523822
  0.2663500442475097  0.3309074504600389  0.7955509305628112
  0.2661724376770778  0.5323989327359797  0.5645148517490099
  0.2662335448438071  0.5320730387465957  0.7938961778822602
  0.2661809325056979  0.7324740671865229  0.5641834395636351
  0.2659675446675323  0.7324217430086222  0.7944440679392102
  0.2661897397782909  0.9325431454290225  0.5643454727928585
  0.2660579830595964  0.9327857939111013  0.7938909264061422
  0.4651757065109194  0.1300134930766532  0.5618933002972497
  0.4669923467946688  0.1341434519018918  0.7958564041858622
  0.4659703324976903  0.3324762464538153  0.5587016582800572
  0.4652223986548663  0.3324602108856496  0.7820202458463896
  0.4651550823967767  0.5342745585646824  0.5617075638242923
  0.4673370268196777  0.5318879765467628  0.7958332747195556
  0.4661879310080934  0.7327077320350810  0.5642546081865802
  0.4662278878992581  0.7326519532614739  0.7944612485558480
  0.4662289319962412  0.9324127606330848  0.5642259481545935
  0.4661938828430863  0.9324471962994991  0.7944440132210460
  0.6660213925608076  0.1323401767374364  0.5639344321780371
  0.6664240941218011  0.1321426984523271  0.7942178624128999
  0.6684339121577381  0.3333788089942900  0.5617453327959936
  0.6644874974896950  0.3315880816205166  0.7957529086798587
  0.6686771851061479  0.5340673608672972  0.5613189898418938
  0.6645917426770964  0.5320032375691142  0.7954870337301543
  0.6660154577609063  0.7326447956295965  0.5637881363245043
  0.6665439140947100  0.7332041634215685  0.7941055143598206
  0.6658536321004647  0.9324226412972294  0.5636013919249407
  0.6663009092441641  0.9325764075930820  0.7941292664694899
  0.8658953575504640  0.1324802664997335  0.5634897117467261
  0.8659141535525521  0.1321746682202161  0.7939784722249428
  0.8660454776099016  0.3322463440830177  0.5640107688158622
  0.8660185936906686  0.3322240133394914  0.7942636928781965
  0.8659412753175388  0.5323386796470828  0.5643012298289349
  0.8659095596070898  0.5324476652919969  0.7940104271790673
  0.8661383970433860  0.7327065937850605  0.5637657409190027
  0.8660400756598392  0.7327083147403286  0.7940362913249359
  0.8658943667285968  0.9324038320600181  0.5633885592909209
  0.8659258441908975  0.9325766120517471  0.7938465926569478
  0.3460930923891397  0.2706509684479173  0.9069040438599458
  0.5257043823398462  0.2768786314666514  0.9067386777287183
  0.5286340942507692  0.4500396295395035  0.9069519934515924
  0.4635781871045239  0.3324300443278858  0.0367411799133706
 
  0.00000000E+00  0.00000000E+00  0.00000000E+00
  0.00000000E+00  0.00000000E+00  0.00000000E+00
  0.00000000E+00  0.00000000E+00  0.00000000E+00
  0.00000000E+00  0.00000000E+00  0.00000000E+00
  0.00000000E+00  0.00000000E+00  0.00000000E+00
  0.00000000E+00  0.00000000E+00  0.00000000E+00
  0.00000000E+00  0.00000000E+00  0.00000000E+00
  0.00000000E+00  0.00000000E+00  0.00000000E+00
  0.00000000E+00  0.00000000E+00  0.00000000E+00
  0.00000000E+00  0.00000000E+00  0.00000000E+00
  0.00000000E+00  0.00000000E+00  0.00000000E+00
  0.00000000E+00  0.00000000E+00  0.00000000E+00
  0.00000000E+00  0.00000000E+00  0.00000000E+00
  0.00000000E+00  0.00000000E+00  0.00000000E+00
  0.00000000E+00  0.00000000E+00  0.00000000E+00
  0.00000000E+00  0.00000000E+00  0.00000000E+00
  0.00000000E+00  0.00000000E+00  0.00000000E+00
  0.00000000E+00  0.00000000E+00  0.00000000E+00
  0.00000000E+00  0.00000000E+00  0.00000000E+00
  0.00000000E+00  0.00000000E+00  0.00000000E+00
  0.00000000E+00  0.00000000E+00  0.00000000E+00
  0.00000000E+00  0.00000000E+00  0.00000000E+00
  0.00000000E+00  0.00000000E+00  0.00000000E+00
  0.00000000E+00  0.00000000E+00  0.00000000E+00
  0.00000000E+00  0.00000000E+00  0.00000000E+00
  0.00000000E+00  0.00000000E+00  0.00000000E+00
  0.00000000E+00  0.00000000E+00  0.00000000E+00
  0.00000000E+00  0.00000000E+00  0.00000000E+00
  0.00000000E+00  0.00000000E+00  0.00000000E+00
  0.00000000E+00  0.00000000E+00  0.00000000E+00
  0.00000000E+00  0.00000000E+00  0.00000000E+00
  0.00000000E+00  0.00000000E+00  0.00000000E+00
  0.00000000E+00  0.00000000E+00  0.00000000E+00
  0.00000000E+00  0.00000000E+00  0.00000000E+00
  0.00000000E+00  0.00000000E+00  0.00000000E+00
  0.00000000E+00  0.00000000E+00  0.00000000E+00
  0.00000000E+00  0.00000000E+00  0.00000000E+00
  0.00000000E+00  0.00000000E+00  0.00000000E+00
  0.00000000E+00  0.00000000E+00  0.00000000E+00
  0.00000000E+00  0.00000000E+00  0.00000000E+00
  0.00000000E+00  0.00000000E+00  0.00000000E+00
  0.00000000E+00  0.00000000E+00  0.00000000E+00
  0.00000000E+00  0.00000000E+00  0.00000000E+00
  0.00000000E+00  0.00000000E+00  0.00000000E+00
  0.00000000E+00  0.00000000E+00  0.00000000E+00
  0.00000000E+00  0.00000000E+00  0.00000000E+00
  0.00000000E+00  0.00000000E+00  0.00000000E+00
  0.00000000E+00  0.00000000E+00  0.00000000E+00
  0.00000000E+00  0.00000000E+00  0.00000000E+00
  0.00000000E+00  0.00000000E+00  0.00000000E+00
  0.00000000E+00  0.00000000E+00  0.00000000E+00
  0.00000000E+00  0.00000000E+00  0.00000000E+00
  0.00000000E+00  0.00000000E+00  0.00000000E+00
  0.00000000E+00  0.00000000E+00  0.00000000E+00
  0.00000000E+00  0.00000000E+00  0.00000000E+00
  0.00000000E+00  0.00000000E+00  0.00000000E+00
  0.00000000E+00  0.00000000E+00  0.00000000E+00
  0.00000000E+00  0.00000000E+00  0.00000000E+00
  0.00000000E+00  0.00000000E+00  0.00000000E+00
  0.00000000E+00  0.00000000E+00  0.00000000E+00
  0.00000000E+00  0.00000000E+00  0.00000000E+00
  0.00000000E+00  0.00000000E+00  0.00000000E+00
  0.00000000E+00  0.00000000E+00  0.00000000E+00
  0.00000000E+00  0.00000000E+00  0.00000000E+00
  0.00000000E+00  0.00000000E+00  0.00000000E+00
  0.00000000E+00  0.00000000E+00  0.00000000E+00
  0.00000000E+00  0.00000000E+00  0.00000000E+00
  0.00000000E+00  0.00000000E+00  0.00000000E+00
  0.00000000E+00  0.00000000E+00  0.00000000E+00
  0.00000000E+00  0.00000000E+00  0.00000000E+00
  0.00000000E+00  0.00000000E+00  0.00000000E+00
  0.00000000E+00  0.00000000E+00  0.00000000E+00
  0.00000000E+00  0.00000000E+00  0.00000000E+00
  0.00000000E+00  0.00000000E+00  0.00000000E+00
  0.00000000E+00  0.00000000E+00  0.00000000E+00
  0.00000000E+00  0.00000000E+00  0.00000000E+00
  0.00000000E+00  0.00000000E+00  0.00000000E+00
  0.00000000E+00  0.00000000E+00  0.00000000E+00
  0.00000000E+00  0.00000000E+00  0.00000000E+00
