Ta  N  W Cu                             
   1.00000000000000     
    18.1096308199999996    0.0000000000000000    0.0000000000000000
     0.0000000000000000   23.3551997799999995    0.0000000000000000
     0.0000000000000000    0.0000000000000000   30.4818171199999988
   Ta   N    W    Cu
   216   240    24     2
Direct
  0.9996387708919912  0.0000047678075461  0.1961257859809393
  0.3282408799049037  0.0584215369388446  0.2033862560495123
  0.1687414932560003  0.0601034426364109  0.2018088839401173
  0.2502455429218173  0.1249151857602513  0.2810178350205916
  0.0829825414885050  0.0625566473644668  0.2841275206311664
  0.4173805527056089  0.0626750484470193  0.2840116903746619
  0.0002351296800640  0.1249284487270828  0.3698245823748394
  0.3332046544836516  0.0625315401472051  0.3692619027531023
  0.1672746769948859  0.0624607794127385  0.3691044590377288
  0.2499996019851807  0.1252823350342922  0.4558425828667296
  0.0836458786477650  0.0625636812747317  0.4552898144437449
  0.4163827765880797  0.0626142602433433  0.4549628937816053
  0.3364787962925746  0.0625563515837229  0.5420770444420597
  0.1662479635528626  0.0628130084135066  0.5424521702384126
  0.9998668003679470  0.1248196977575091  0.1971315253030781
  0.3281206357875419  0.1913506759914867  0.2031721768813526
  0.1685784845895384  0.1896642443269840  0.2016731962905070
  0.2514619813194017  0.2499296627986638  0.2813325439617742
  0.0831070631189661  0.1873305513584853  0.2839124629360725
  0.4175721288865546  0.1872676945533485  0.2837925968788682
  0.0002072573951040  0.2501833246090683  0.3695267072473243
  0.3332775434560133  0.1873979589054926  0.3690297686636583
  0.1671957940411843  0.1874718315078070  0.3689131678617557
  0.2502823549314712  0.2502579899266664  0.4552562438185035
  0.0841620956919513  0.1877912866616853  0.4547820256015385
  0.4168270374698722  0.1876590267635052  0.4550569404502269
  0.3340608554352471  0.1874887852426710  0.5418760346668847
  0.1637077580964146  0.1887869896334209  0.5419633635211270
  0.9995191831678412  0.2497890491372274  0.1958015064678591
  0.3281530983616250  0.3082575737224076  0.2030055944428284
  0.1686533818903513  0.3099475645928678  0.2014408309239997
  0.2503587303560053  0.3749258166180383  0.2805887932560367
  0.0829508094759319  0.3124418426156552  0.2836289539806316
  0.4174655701849233  0.3125748384636609  0.2835242421688662
  0.0002522917970325  0.3749203158808143  0.3692417468203288
  0.3334821511552661  0.3124606068278553  0.3686947677839072
  0.1672519175444052  0.3124057940082920  0.3685517650961359
  0.2504695118891718  0.3752098319337804  0.4544542153339464
  0.0838049190984620  0.3126518343373093  0.4543955789924254
  0.4161293839878013  0.3126680404480524  0.4546027746670092
  0.3359349889197674  0.3122528726253719  0.5410911873035005
  0.9997684591613805  0.3749432709765230  0.1967159566664094
  0.3279393665074650  0.4414921660982500  0.2028795459825972
  0.1685609300489119  0.4397099646106568  0.2013009552719254
  0.2514417035737964  0.0000072809458871  0.2817407030116854
  0.0830724016737889  0.4373404960643583  0.2834693039567995
  0.4176415112902774  0.4372766810278605  0.2833418555185716
  0.0002672832367168  0.0001044290887933  0.3698718842380515
  0.3334018197026296  0.4374124908221475  0.3684343265505561
  0.1670819467392235  0.4374639467205057  0.3681938176126067
  0.2500305044284730  0.0000146310775193  0.4560366517376266
  0.0841063731522738  0.4375978390392916  0.4541608983017440
  0.4161990024488986  0.4375283172425029  0.4545051535156261
  0.3336549232014363  0.4373502568103476  0.5409558744277163
  0.9994314804931648  0.5000506159616407  0.1955049193658027
  0.3280271900762273  0.5584965908523429  0.2028965843561821
  0.1686533296060944  0.5602264753454875  0.2012970381717167
  0.2504128035683735  0.6250896593105182  0.2805676712956213
  0.0828982155925502  0.5626042719533544  0.2834720977654186
  0.4174579651136909  0.5626980572881664  0.2834049686742617
  0.0002929692587088  0.6248408560289676  0.3692228324212081
  0.3335306417935371  0.5625502085712526  0.3685342503893096
  0.1672707074423556  0.5624739061278206  0.3682742576917875
  0.2504894139007732  0.6247140539250751  0.4545045317351892
  0.0836366087993383  0.5623639822908615  0.4540214306786865
  0.4158211166291679  0.5623839354602467  0.4545338268093317
  0.3360480491201798  0.5625810752966132  0.5408407423363357
  0.9997903101279704  0.6251357098246828  0.1967199261824106
  0.3280452255023931  0.6917304263323913  0.2030149901176586
  0.1685898589967678  0.6900450333121739  0.2014723824912608
  0.2514555047461826  0.7500267961699620  0.2813840178984677
  0.0831199643343794  0.6874892271746447  0.2836389155212657
  0.4175981580528685  0.6874393630192515  0.2835213958113201
  0.0002162828910670  0.7500233957685580  0.3694712118371157
  0.3333831358747616  0.6875687663354952  0.3687031363775262
  0.1671483851843405  0.6875630174492144  0.3684875416494293
  0.2503650715973222  0.7498102632396666  0.4552483634374340
  0.0841931652053560  0.6871772824401887  0.4544028646050577
  0.4167081853140857  0.6873703347025995  0.4548323932030840
  0.3336997930196262  0.6876002565112671  0.5415731066812128
  0.9995271407717965  0.7502145900655464  0.1958132432638067
  0.3282300871783477  0.8087278972791694  0.2032253431958537
  0.1686590201874836  0.8103899124686862  0.2016120707270659
  0.2502863202819441  0.8750725008556088  0.2810119866978269
  0.0829458421034914  0.8126710894024214  0.2838855156656450
  0.4173964336837344  0.8127667389739699  0.2838233718312395
  0.0002637456073344  0.8747908478405932  0.3698419862172031
  0.3333264032022214  0.8126211353917085  0.3690471852989461
  0.1672872373950298  0.8125039787105877  0.3688858551960053
  0.2500530635383953  0.8747245818582954  0.4558572926722917
  0.0835101477883669  0.8123460273567247  0.4550039247900273
  0.4162720323895215  0.8124018479939394  0.4548577173478776
  0.3366111263676146  0.8128366985315409  0.5416235734137302
  0.1663122189014246  0.8112982929131718  0.5421842152874135
  0.9998762957794582  0.8751284601389813  0.1971529662080300
  0.3282418840854078  0.9415759087197060  0.2033316411063453
  0.1686566545244972  0.9399176413915313  0.2018584124706209
  0.2516051887258541  0.4999461270420937  0.2809346325150059
  0.0830937188480334  0.9374298811641211  0.2840834432640236
  0.4175298891515737  0.9373574337271577  0.2840406197300638
  0.0003095976089256  0.5000782974201385  0.3690409022413661
  0.3332616126918992  0.9374793787136326  0.3693141813580354
  0.1672986638328808  0.9375083613228128  0.3690759362872029
  0.2504434466699408  0.4999762467955264  0.4542660215845018
  0.0842525702471804  0.9373527470740868  0.4549319938103409
  0.4169424906973589  0.9374415789765891  0.4553462749050468
  0.3336445784276449  0.9375056492836364  0.5423147173727259
  0.1634099895682510  0.9371352082825553  0.5421769803790966
  0.4996757630791109  0.0000081486047989  0.1961515424001874
  0.8282004287363947  0.0584947039611166  0.2033685206884357
  0.6686329676763521  0.0601178053210134  0.2018853462050885
  0.7502688128796180  0.1249488944862449  0.2811029845252975
  0.5831500123424860  0.0625808239181040  0.2841226043434801
  0.9175059022350993  0.0626293534274538  0.2840284505066606
  0.5002867001832954  0.1251720164042993  0.3698500898070805
  0.8332818919988867  0.0624915698830080  0.3693401630095750
  0.6672922781550312  0.0624652760316309  0.3691303503495078
  0.7501213934313995  0.1251802242112134  0.4558914524103841
  0.5841612668572509  0.0625722366887231  0.4549543654336574
  0.9170599436622879  0.0625464412290881  0.4553285119543560
  0.8337620252345985  0.0624208301320337  0.5423746904979581
  0.6635157273602914  0.0625373829912022  0.5422658117027694
  0.5000062362399049  0.1249098846228947  0.1971522563509538
  0.8281451139203568  0.1913381225371680  0.2032544019505380
  0.6687139319462361  0.1897170744588692  0.2017246858894595
  0.7514338414691082  0.2499087967423819  0.2814586543971060
  0.5830196049101772  0.1873578223131815  0.2839715325207024
  0.9173248481103613  0.1872345275549563  0.2838328724603514
  0.5002897599852290  0.2499771989021724  0.3695378211634193
  0.8333707567529842  0.1873862805119089  0.3690887936443232
  0.6673292728543885  0.1875010555226027  0.3690008001675835
  0.7504759974799029  0.2501319254925889  0.4553957268635358
  0.5835028715069299  0.1875272987531460  0.4550633401652533
  0.9163114632780847  0.1876349598033755  0.4548801055086358
  0.8369592078803123  0.1872223342492774  0.5417290823579464
  0.6662151270707710  0.1880649263454330  0.5422177549192426
  0.4997403327488499  0.2498628471869964  0.1958466941538148
  0.8279278535539447  0.3082926453363086  0.2030083234791320
  0.6685750640019208  0.3099598727198085  0.2015765910981671
  0.7502988312793590  0.3749391346241495  0.2807640960638125
  0.5832359934271523  0.3125098348268693  0.2838298396313164
  0.9175515153803246  0.3125550458567972  0.2835241942909121
  0.5003710366694705  0.3750994700830290  0.3694087155575474
  0.8334400107945896  0.3124349153252766  0.3688353343189661
  0.6672477748191241  0.3124302004869008  0.3687795518378749
  0.7505053178929231  0.3750727101884550  0.4548445236550549
  0.5839587503766879  0.3125794196672018  0.4547052021015290
  0.9167500405335218  0.3125993210218780  0.4548672465313217
  0.8344717144342013  0.3126186929228609  0.5416809112374210
  0.5000883382308317  0.3749376413621377  0.1967805484455312
  0.8279707526439282  0.4414161487374741  0.2029115989594743
  0.6686044072555788  0.4397637255917601  0.2014813778435567
  0.7513942131255433  0.9999707757798149  0.2816817620828260
  0.5830446057579408  0.4373630046822257  0.2837232663568088
  0.9173087343589899  0.4372672579769628  0.2833817325717902
  0.5002841766109682  0.9998851417968595  0.3698844939141495
  0.8335179577033571  0.4374038304528725  0.3686103620537367
  0.6672569977915757  0.4374717330461806  0.3686953636844450
  0.7501211347329857  0.9999562402870623  0.4560590762106997
  0.5836501500917777  0.4375230835250434  0.4545526700749818
  0.9160216649967410  0.4374913060100099  0.4544307256865352
  0.8391256167466352  0.4376324122115491  0.5410095660221117
  0.4997527146160152  0.4999929478630492  0.1956302200393125
  0.8278114763442588  0.5585034278176124  0.2028544035882121
  0.6684455027147678  0.5602175681584995  0.2014522470559896
  0.7502260220120078  0.6250653192619069  0.2807046173259451
  0.5831116131347756  0.5625974871964630  0.2837279242585780
  0.9175099582613555  0.5626916188032851  0.2833251506311996
  0.5003075795304071  0.6250377957268469  0.3693951903118133
  0.8333819419062678  0.5625123544406705  0.3686287329750684
  0.6671169278025104  0.5624786515342564  0.3686888682085367
  0.7506071360816691  0.6248859925604648  0.4547857685829086
  0.5838413571201144  0.5624121241786142  0.4547283745656756
  0.9165807889290036  0.5624417621001783  0.4544437793380709
  0.8363708485368662  0.5623925769842444  0.5411481725590761
  0.5000488249144368  0.6250870604229490  0.1967834362878023
  0.8279398067834833  0.6917000866870566  0.2030724463632723
  0.6685700375446189  0.6900228126611339  0.2015330539155471
  0.7514096054709114  0.7499991598363849  0.2814340063535781
  0.5830299344899146  0.6874905681492294  0.2838032924882299
  0.9173414170903484  0.6873890655068919  0.2835165810689162
  0.5002651042801958  0.7498399691748929  0.3696014875683744
  0.8334339385988088  0.6874830408449597  0.3687667593701320
  0.6672863167991423  0.6875441043248856  0.3687498451995239
  0.7502847257791743  0.7497393422871852  0.4553678203547094
  0.5834938227746349  0.6874467307596817  0.4546919537562530
  0.9161229483080930  0.6873210827912075  0.4545642084905026
  0.8374379872672932  0.6873235802199318  0.5413856421796055
  0.4997306146826688  0.7501885085829727  0.1958806973254923
  0.8280628015906757  0.8086581559834798  0.2031662534287477
  0.6685543921664348  0.8103142932437493  0.2017102498596515
  0.7502151901614624  0.8750261316468340  0.2810840469128877
  0.5831650412439728  0.8126556978962682  0.2839863793495283
  0.9175174840519631  0.8127371963639547  0.2838002904262922
  0.5002871054945430  0.8750685550416648  0.3698594830064152
  0.8332731069620323  0.8125643974846710  0.3690940538252718
  0.6671760811261080  0.8125061218878784  0.3690406186180297
  0.7500151700277158  0.8747742379781585  0.4559021804585086
  0.5839190376879486  0.8123073018333145  0.4549091497280386
  0.9168391078303131  0.8123284813222824  0.4550826483888670
  0.8342839859556150  0.8125972734824316  0.5419445165836336
  0.6636725847675393  0.8119083596574086  0.5419465153112242
  0.4999784458687344  0.8752502390088281  0.1971452937346783
  0.8282048217401297  0.9415160568681316  0.2034485594038955
  0.6686526833370863  0.9398901373423101  0.2018557510717471
  0.7513909797287113  0.4999318320086346  0.2811274134202648
  0.5829744053733990  0.9374611617892583  0.2841570583805080
  0.9172996642081515  0.9373359550462936  0.2839894624628698
  0.5003649782698005  0.4998916464349250  0.3692583151653537
  0.8332784919905265  0.9374570548362371  0.3692963769230531
  0.6672642804491673  0.9375498984552522  0.3691582296823199
  0.7504780810773539  0.4999842802181860  0.4547922730557303
  0.5835463880795473  0.9374666656804180  0.4553501208836863
  0.9163751088108825  0.9373901037852548  0.4550061757989425
  0.8367023288623727  0.9374433231939037  0.5420859164026410
  0.6662749050677590  0.9372963356511335  0.5424958096443504
  0.4061755667174225  0.9999953782372373  0.2326936618822941
  0.2473299215422102  0.0000016070682634  0.1777381653185586
  0.0946636428885697  0.0000035769662645  0.2323222091185286
  0.1532998460884230  0.1249448619692686  0.3166223106576567
  0.0001947153627384  0.1250205393067745  0.3028592150522940
  0.3472106159523705  0.1249989235383921  0.3168479695408308
  0.4017952343225630  0.1251031165931451  0.4030446116616346
  0.2501598886001091  0.1250326460584219  0.3880400619770867
  0.0987595829445169  0.1250150731969768  0.4030105575915641
  0.1518063092571680  0.1254454271442924  0.4885265906839393
  0.0002778809939770  0.1255121632368841  0.4745301161561173
  0.3483140044286230  0.1253014075228975  0.4883626121459130
  0.4062589247616302  0.1263196653407093  0.5696045169592310
  0.2500383219751328  0.1263582021891239  0.5585593017076107
  0.0946229589264789  0.1259194309651264  0.5700908637092752
  0.4048128419054038  0.1249213891649106  0.2317657624533638
  0.2490932010744515  0.1248899807162971  0.2106455850926992
  0.0939914788960152  0.1248545916269137  0.2321985815984959
  0.1532221392850559  0.2499382190651716  0.3164500961006098
  0.0002931189028246  0.2498815906094123  0.3024500910716696
  0.3478563950546842  0.2498882417707478  0.3168824022409424
  0.4019000957372896  0.2500052901047098  0.4027994369485270
  0.2502979274547670  0.2500024568145776  0.3876008038704839
  0.0986970906685798  0.2501520548537783  0.4026838801913684
  0.1523579020684878  0.2512810302561590  0.4880307840894886
  0.0003820262426828  0.2506116885474867  0.4745415707817457
  0.3481998085466600  0.2500180211485912  0.4881095201009416
  0.4056913274753242  0.2503920104969524  0.5695500114619279
  0.2488024077684798  0.2533290511925514  0.5581258301936245
  0.0974248174444909  0.2545329093482280  0.5695924704161044
  0.4061765364533727  0.2498454684619489  0.2323191733784356
  0.2472621446215797  0.2497679457509747  0.1775287304651130
  0.0945710444273544  0.2498320458032310  0.2319594640707336
  0.1532097332699394  0.3748550682579364  0.3160544127974418
  0.0001373428889622  0.3749920456001732  0.3023710358197320
  0.3473766710748194  0.3749270913085141  0.3162794396572579
  0.4017968775850491  0.3751423160061478  0.4024791060422714
  0.2502334203135703  0.3750123516499286  0.3870756530167156
  0.0988316956362354  0.3750643659537261  0.4023932009126625
  0.1529866337867247  0.3753356919148700  0.4873554487271008
  0.0004887906638800  0.3753296398928825  0.4738088977573653
  0.3479465024782584  0.3753458527556361  0.4877423820052087
  0.4055299292152199  0.3756095985524723  0.5690431547925527
  0.2474017439555496  0.3764260822530261  0.5577745157059297
  0.0987365660996602  0.3760053325873542  0.5685966265527753
  0.4049007948803123  0.3749004451458973  0.2312787780313172
  0.2490554062633024  0.3748678445395583  0.2103264126149043
  0.0939177322970508  0.3748449694842932  0.2317185642330983
  0.1532646932840009  0.0000133464545442  0.3168539576767202
  0.0002767408234163  0.9999243372414242  0.3027752356836046
  0.3477673265046306  0.9999806205626456  0.3173006932156639
  0.4019154180352089  0.0000206890079681  0.4031983563423651
  0.2502285315169743  0.0000050345649996  0.3881822107739694
  0.0986983736748357  0.0000155256662850  0.4030900523140346
  0.1518367069558266  0.0001592520235718  0.4886525098796994
  0.0002926762972209  0.9997867824149864  0.4746418126972998
  0.3483994782858133  0.9999160331564099  0.4885219473681630
  0.4057809168006372  0.9995791636053752  0.5699884815344021
  0.2500334273310472  0.0000601291378786  0.5586502029697655
  0.0943650011667856  0.0004505142060864  0.5701377604581310
  0.4061608374818206  0.4999959560126257  0.2320143018927112
  0.2471396460078523  0.4999805930188828  0.1772781449841929
  0.0946133761648866  0.5000057414313090  0.2316050331438504
  0.1532796780458838  0.6249920666896855  0.3160543596722221
  0.0001344447636029  0.6250689681391677  0.3023440388671901
  0.3473402657814404  0.6251069758468475  0.3163269420848849
  0.4017865298326342  0.6250132336884135  0.4025729971159535
  0.2502498864545188  0.6250556953281361  0.3871153450675564
  0.0988586944995546  0.6248711346345672  0.4023695764517683
  0.1529792093109492  0.6240881619669167  0.4873198124689466
  0.0004460292027204  0.6245876032410322  0.4738677844964627
  0.3480414619005003  0.6251486090733565  0.4878227998736762
  0.4044324772145416  0.6245993236129124  0.5693630333447430
  0.2473883735731235  0.6233373207372352  0.5576768540951562
  0.0989044369108214  0.6231687337737029  0.5686659634748210
  0.4048722792059749  0.6250838480069163  0.2313128391784574
  0.2490603262148312  0.6251376571634353  0.2102631586795738
  0.0939821834782606  0.6250896495000404  0.2317262836927441
  0.1531762083989392  0.7501026310377554  0.3164386298440505
  0.0002947991035853  0.7499699937030115  0.3024057044544293
  0.3478358531825450  0.7500623544876390  0.3169148250268989
  0.4019046534754480  0.7499020501439659  0.4028774560443864
  0.2502881302530042  0.7499680846598409  0.3876139492465498
  0.0986935987317068  0.7498990007864066  0.4027079113614889
  0.1523724296861175  0.7491115467853291  0.4879655269780301
  0.0002187601968160  0.7492971307746288  0.4740895889939551
  0.3482199674147992  0.7495779582518622  0.4881700798995183
  0.4061257917359455  0.7489558654210953  0.5693232007683022
  0.2485537588405720  0.7466478298311330  0.5583542289313570
  0.0963274070243898  0.7461977085447771  0.5691977367411454
  0.4061430976906806  0.7501819885935817  0.2323242051052787
  0.2472870724513214  0.7503136758808253  0.1776018210522494
  0.0946017784600883  0.7501839952159060  0.2319457868608907
  0.1533048485120361  0.8749993591001584  0.3166241291922489
  0.0001961269621447  0.8750663087898047  0.3028670091806589
  0.3472188855098466  0.8750665137246258  0.3168516914151809
  0.4017558770461420  0.8749887398661542  0.4030826687464852
  0.2501874096028232  0.8749535742913750  0.3880282215668416
  0.0988299491342204  0.8748477883681929  0.4029799180003764
  0.1518178259590215  0.8741906985807830  0.4884989103232442
  0.0002771363271705  0.8746439362236416  0.4746238645146050
  0.3482614137029643  0.8751200841047222  0.4884337748496392
  0.4058032883088245  0.8750035698627272  0.5698963108401571
  0.2499733099262684  0.8736062808519947  0.5585098809761178
  0.0948404374822474  0.8730304195543397  0.5701533118678483
  0.4048325338604144  0.8751086844006934  0.2318042098809983
  0.2490870255724076  0.8751258634690657  0.2106642440391511
  0.0940115413342042  0.8751193900183765  0.2321853842019763
  0.1531919257522958  0.5000322025822115  0.3160008874788716
  0.0002459231445542  0.4999060989090083  0.3020337992171136
  0.3478973818142634  0.4999665324020341  0.3165251210870537
  0.4019131936540745  0.4999269599496330  0.4024526789931855
  0.2502908506002086  0.4999312616758402  0.3868820173518372
  0.0987512364672440  0.4999732845056499  0.4022534423826301
  0.1529700030000498  0.5002215955299221  0.4871905144872599
  0.0004800275325323  0.5000640071732576  0.4736555157860565
  0.3477836642160597  0.4996835028237072  0.4876050722635128
  0.4039282779340567  0.4996874351619596  0.5689833130356519
  0.2472427291811670  0.5000283659647522  0.5575297422118055
  0.0991333219831745  0.5004420100672391  0.5686360380305118
  0.9060969975093300  0.0000261524420822  0.2326792628467373
  0.7472778410933785  0.0000009174012092  0.1778607536667707
  0.5946823624015281  0.0000162814920586  0.2323621915098002
  0.6533290596076071  0.1250015486956926  0.3167116919210073
  0.5002373627382326  0.1249630288670005  0.3028905620544009
  0.8472338706812792  0.1249032769870766  0.3169021239499230
  0.9018176289588595  0.1250401129214538  0.4030947871075128
  0.7501800015483227  0.1250162395705701  0.3880980687005078
  0.5987926504567582  0.1251202908156799  0.4030293854151807
  0.6518155404271866  0.1254994963390530  0.4885221965263682
  0.5002361849410732  0.1253416054552616  0.4747412520254528
  0.8483178894375030  0.1248468759063215  0.4884595037649575
  0.9059706684083011  0.1249964147877307  0.5698510192185751
  0.7500609341804250  0.1262403963033947  0.5585803559877505
  0.5946996486769365  0.1267794357340861  0.5702408230059106
  0.9047212159477453  0.1249004936427198  0.2318048942473112
  0.7490566304090081  0.1249188893609272  0.2107692276374209
  0.5940707097810787  0.1249367600511349  0.2322469870685495
  0.6532238954772041  0.2499296209897963  0.3166309980218358
  0.5003889505322832  0.2500110557568789  0.3024766090820066
  0.8478317872140906  0.2499682393361766  0.3169780218854825
  0.9019264651512202  0.2500852997019649  0.4029173627068587
  0.7503102137027966  0.2499963252708426  0.3877628237947945
  0.5986868783876673  0.2500727559817406  0.4028947960336424
  0.6523862046280726  0.2504118491148049  0.4881372519828275
  0.5001862740060403  0.2506597703492872  0.4740387021166299
  0.8482440191352651  0.2504039750339189  0.4883078326625991
  0.9064581622861994  0.2508433064917952  0.5693102048862357
  0.7485207141916348  0.2533877186533005  0.5584254684883021
  0.5968134261042692  0.2528233930126547  0.5695971161378992
  0.9059984434293256  0.2498633732178348  0.2323528739472991
  0.7472115830347192  0.2497533190596215  0.1775087825672585
  0.5946961241621551  0.2498683315269403  0.2321127633694928
  0.6532934048731320  0.3749961538151467  0.3163813389765551
  0.5002213563642002  0.3749164611828633  0.3025174297323261
  0.8473076616101736  0.3748511017693161  0.3164008308828130
  0.9018204479098273  0.3749103878994191  0.4025587941907816
  0.7502884959743170  0.3749966109503404  0.3874407358098182
  0.5988314265040344  0.3750900688756573  0.4027519318727855
  0.6527790789658354  0.3749659547508131  0.4879777953358371
  0.5001838817317150  0.3756056683143285  0.4740316725294207
  0.8482969890730914  0.3747518895589863  0.4879657497508205
  0.9066299942015164  0.3748635211493863  0.5693535263857967
  0.7486006466105195  0.3769100559416145  0.5580720221735334
  0.5990023760711196  0.3745196615466426  0.5703023276561723
  0.9047030519258783  0.3748938871312077  0.2313202406580430
  0.7489767627941433  0.3748851728030900  0.2104733318255469
  0.5940405183309068  0.3749140637379043  0.2319582548718415
  0.6532877349574449  0.9999881515372095  0.3168882383792564
  0.5003538822312308  0.0000824654218050  0.3027933210176741
  0.8477114983839940  0.0000092101541327  0.3173048181917508
  0.9019259063359257  0.9999911544726743  0.4032101357232136
  0.7502344443295712  0.9999856327413781  0.3881991559867188
  0.5986478159505211  0.9999545332004587  0.4031378245641548
  0.6518311829020433  0.9998592386288649  0.4886481431128615
  0.5001994159945724  0.0002382229173179  0.4747115259059811
  0.8484625411526068  0.0001491625001506  0.4885586630749259
  0.9058298253440853  0.0004012949415539  0.5701040833767976
  0.7500218385657931  0.9999566951996997  0.5586474439065299
  0.5945053330085415  0.9994553130969948  0.5701654119389019
  0.9059936350655988  0.4999915042827325  0.2320050007770078
  0.7471193844701247  0.4999876467763684  0.1774185269030966
  0.5946654212956446  0.4999687577627725  0.2319044078769252
  0.6532688983472497  0.6250060466664635  0.3163720244812183
  0.5001962567841858  0.6250081410639439  0.3025115292762948
  0.8472345173977374  0.6249723253420498  0.3163651379572130
  0.9018364912430101  0.6248685674642900  0.4024744172496497
  0.7502177416640947  0.6249779821720907  0.3873814627597199
  0.5987557395162568  0.6248872242233219  0.4027798144906143
  0.6528771204931587  0.6253533451475093  0.4878607135541770
  0.5002152095232688  0.6244797280480725  0.4738442933847153
  0.8483447728538067  0.6246590693774507  0.4878828664335657
  0.9069755906650059  0.6243964279334762  0.5691352983323270
  0.7486869658258968  0.6233215065662066  0.5580393363822509
  0.6001912628464368  0.6258294430124565  0.5701250112079421
  0.9046610624613152  0.6250744562423591  0.2312764399239100
  0.7489020617443387  0.6250995332005971  0.2104115239526507
  0.5939931332645685  0.6250751978134872  0.2319648993963312
  0.6532164497830166  0.7499967889717496  0.3166255244259233
  0.5003501645272053  0.7500802317366393  0.3025321825615777
  0.8478030778007621  0.7500697560772167  0.3169376734226290
  0.9018749935344559  0.7499539214321587  0.4028060694308877
  0.7502633631560656  0.7499696895506176  0.3877163335470968
  0.5986649207954926  0.7497862080334698  0.4028713888302775
  0.6523165196944873  0.7491369739371621  0.4881445720956279
  0.5002137882965130  0.7494104800382431  0.4746804691299218
  0.8481567835336605  0.7499490630790078  0.4882227627751732
  0.9060328505232604  0.7499028041767275  0.5695534312839072
  0.7486570668110488  0.7463260656772661  0.5582211067593690
  0.5967988065841396  0.7458066452444214  0.5695458447124011
  0.9060201615567394  0.7501633235006508  0.2323311817015892
  0.7471320187829420  0.7502436715456895  0.1775106760308276
  0.5946638347336730  0.7501363453300982  0.2320987825484764
  0.6532936239697094  0.8750493824392294  0.3167229342392872
  0.5002320248559968  0.8749573726754605  0.3029105880561218
  0.8471795115973464  0.8749856420562878  0.3168913126376935
  0.9017843947203730  0.8748378249312196  0.4030666972469916
  0.7501334099598580  0.8749627085161222  0.3881217143576663
  0.5987256761772599  0.8750038733073140  0.4031085016057432
  0.6517612277898408  0.8746729282848875  0.4885952586494469
  0.5001544703283685  0.8744715826562270  0.4746210145025529
  0.8483260737798304  0.8746149095371081  0.4884579461113816
  0.9062063452741285  0.8737021724468548  0.5697075260557796
  0.7500215539881907  0.8736024145701293  0.5586129874460326
  0.5946965930939214  0.8742111528460441  0.5702113551556494
  0.9046736211653581  0.8750538823058562  0.2317735336267575
  0.7490123082318476  0.8750768673951015  0.2107503803642743
  0.5940144774934666  0.8751313960102038  0.2322699584299670
  0.6532140491420080  0.4999811335398761  0.3164219710885732
  0.5003196582635923  0.5000129019923492  0.3022467253015435
  0.8477459313062496  0.5000352415451914  0.3166028927476958
  0.9019896567983636  0.5000028828643011  0.4023940320546160
  0.7502984469599312  0.4999501481217621  0.3873575217401992
  0.5986244093304904  0.5000095754956249  0.4027468561233860
  0.6527500335251517  0.4997993968236543  0.4880087218855991
  0.5001194807541864  0.4997467908140365  0.4740228880178918
  0.8484575743718565  0.5002886873717998  0.4876803744911911
  0.9071653574853116  0.5003666199684815  0.5690970872263748
  0.7493691347800677  0.4997680156569260  0.5577315151300084
  0.6022612798828462  0.5000144611436852  0.5705757501807227
  0.0003681298689244  0.1185218037141169  0.5414449705811322
  0.0009124171248942  0.2591689741934786  0.5412373248973523
  0.0012467182784803  0.3694590301754701  0.5405120954338827
  0.1657412103720830  0.3135349094921054  0.5400105687927876
  0.0002079242006445  0.0071663266860398  0.5415328150388987
  0.1636925867143120  0.4379709598767363  0.5394975560786861
  0.0015430990486109  0.6172904064482339  0.5404249364237685
  0.1661423777062296  0.5619894400009358  0.5395574555180005
  0.0005274907389179  0.7546586487091105  0.5408950625107067
  0.1633265351753224  0.6861174850034502  0.5397351465046043
  0.0005565211669563  0.8665424532241346  0.5413864551981007
  0.0017719975421002  0.5066584641509664  0.5402169782590533
  0.5006155401970460  0.1335629878020228  0.5414964194070819
  0.5001140370887356  0.2464886224549474  0.5408681034048541
  0.4995692902111983  0.3804483609773470  0.5405651084177663
  0.6638025860022907  0.3118724960901531  0.5401895942906947
  0.5000893805020610  0.9926867238863579  0.5415791166093555
  0.6704920854341339  0.4365861107441873  0.5389906499432655
  0.4993866368422886  0.6284925412246309  0.5404887845951549
  0.6687829877270914  0.5633242729970220  0.5388601275363953
  0.5005012043092663  0.7411260464492813  0.5413478246058787
  0.6664570303310455  0.6881343909910740  0.5402732634194152
  0.5001895977803343  0.8813951001581799  0.5415296296549172
  0.4988827311855886  0.4961680379944227  0.5406365059791582
  0.5605581902918075  0.5626448993387640  0.6055950930886951
  0.5676996738965840  0.4379995601241120  0.6083552766054652
 
  0.00000000E+00  0.00000000E+00  0.00000000E+00
  0.00000000E+00  0.00000000E+00  0.00000000E+00
  0.00000000E+00  0.00000000E+00  0.00000000E+00
  0.00000000E+00  0.00000000E+00  0.00000000E+00
  0.00000000E+00  0.00000000E+00  0.00000000E+00