Ta  N Ru Cu                             
   1.00000000000000     
     9.0548154099999998    0.0000000000000000    0.0000000000000000
     0.0000000000000000   11.6775998899999998    0.0000000000000000
     0.0000000000000000    0.0000000000000000   23.4818170799999990
   Ta   N    Ru   Cu
    60    60    16     1
Selective dynamics
Direct
  0.0000000000000000  0.0000000000000000  0.2546926809530987   F   F   F
  0.6670845899906297  0.1250000003211298  0.2638822399803757   F   F   F
  0.3329153514769843  0.1250000003211298  0.2638822399803757   F   F   F
  0.4999999994478088  0.2499999997859135  0.3618861993156202   F   F   F
  0.1650707596845180  0.1250000003211298  0.3684425577811794   F   F   F
  0.8349292403154820  0.1250000003211298  0.3684425577811794   F   F   F
  0.0008148256709648  0.2499621945777751  0.4799338256842286   T   T   T
  0.6644224013300569  0.1249278069259255  0.4780101656677289   T   T   T
  0.3355008049047877  0.1249573898828428  0.4779828097566003   T   T   T
  0.4989289071651153  0.2499103943867228  0.5904311557965931   T   T   T
  0.1691233527935072  0.1249631813913169  0.5901628686761595   T   T   T
  0.8327182211945187  0.1248027548829111  0.5895550360719958   T   T   T
  0.9938008264182869  0.2500566710342301  0.6995717939284277   T   T   T
  0.6655992142349227  0.1245645990781618  0.7014924925488113   T   T   T
  0.3308683931038456  0.1249430468326483  0.7049329546735025   T   T   T
  0.0000000000000000  0.2499999997859135  0.2546926809530987   F   F   F
  0.6670845899906297  0.3750000001070433  0.2638822399803757   F   F   F
  0.3329153514769843  0.3750000001070433  0.2638822399803757   F   F   F
  0.4999999994478088  0.5000000004281731  0.3618861993156202   F   F   F
  0.1650707596845180  0.3750000001070433  0.3684425577811794   F   F   F
  0.8349292403154820  0.3750000001070433  0.3684425577811794   F   F   F
  0.0008815532423662  0.4998829576979664  0.4799324898753564   T   T   T
  0.6645145093028720  0.3749285605921384  0.4780489869117825   T   T   T
  0.3355482892319834  0.3749433821201487  0.4779947191368084   T   T   T
  0.4992858003443278  0.4998317251291250  0.5903909729748703   T   T   T
  0.1690017614638800  0.3749848405327668  0.5903346651760687   T   T   T
  0.8329380659660897  0.3748577659934199  0.5892736520250355   T   T   T
  0.9959750208426521  0.4988030789817384  0.6996318341407426   T   T   T
  0.6662771573245823  0.3750011546010040  0.7003287956742060   T   T   T
  0.3291408882702418  0.3750639227588622  0.7055258092554897   T   T   T
  0.0000000000000000  0.5000000004281731  0.2546926809530987   F   F   F
  0.6670845899906297  0.6249999998929567  0.2638822399803757   F   F   F
  0.3329153514769843  0.6249999998929567  0.2638822399803757   F   F   F
  0.4999999994478088  0.7500000002140865  0.3618861993156202   F   F   F
  0.1650707596845180  0.6249999998929567  0.3684425577811794   F   F   F
  0.8349292403154820  0.6249999998929567  0.3684425577811794   F   F   F
  0.0008831556996886  0.7500402467312892  0.4799350458645880   T   T   T
  0.6644411214544164  0.6249506455136176  0.4779860168191262   T   T   T
  0.3354774751214333  0.6249635466787364  0.4779627193785425   T   T   T
  0.4993323114432147  0.7500117261776906  0.5904172822666892   T   T   T
  0.1693433370938642  0.6249862071597019  0.5901626413380275   T   T   T
  0.8330440205863523  0.6248672644910624  0.5894033726224356   T   T   T
  0.9964345102125223  0.7502443730269237  0.6994683736738072   T   T   T
  0.6665611705730115  0.6246481058997313  0.7015681462728097   T   T   T
  0.3335717406113052  0.6250248005100267  0.7043284356567144   T   T   T
  0.0000000000000000  0.7500000002140865  0.2546926809530987   F   F   F
  0.6670845899906297  0.8750000005352163  0.2638822399803757   F   F   F
  0.3329153514769843  0.8750000005352163  0.2638822399803757   F   F   F
  0.4999999994478088  0.0000000000000000  0.3618861993156202   F   F   F
  0.1650707596845180  0.8750000005352163  0.3684425577811794   F   F   F
  0.8349292403154820  0.8750000005352163  0.3684425577811794   F   F   F
  0.0008052969543960  0.9998837107621817  0.4799469936643405   T   T   T
  0.6644796131110211  0.8749468920136479  0.4780307027820225   T   T   T
  0.3355271842477741  0.8749936820318346  0.4779953605753563   T   T   T
  0.4990025054452299  0.9998304349362422  0.5904745518130254   T   T   T
  0.1691187692782624  0.8750085245791279  0.5903582861080228   T   T   T
  0.8329232996028607  0.8748272537454379  0.5892887773745671   T   T   T
  0.9946011950290835  0.9990442226066496  0.6995271916339324   T   T   T
  0.6662884465986464  0.8739707676242610  0.7006006152348172   T   T   T
  0.3292380668566644  0.8751323990548390  0.7056405878554637   T   T   T
  0.8141011533980276  0.0000000000000000  0.3013105672926031   F   F   F
  0.4999999994478088  0.0000000000000000  0.2564174481620327   F   F   F
  0.1858988466019724  0.0000000000000000  0.3013105672926031   F   F   F
  0.3088456122590841  0.2499999997859135  0.4099867722441957   F   F   F
  0.0000000000000000  0.2499999997859135  0.3930971035158137   F   F   F
  0.6911543877409159  0.2499999997859135  0.4099867722441957   F   F   F
  0.8017625142999916  0.2497902435333198  0.5217005335705225   T   T   T
  0.4998595873790265  0.2499212318559365  0.5027375667184801   T   T   T
  0.1992615345228584  0.2500146707344685  0.5222909604671518   T   T   T
  0.3041269873376444  0.2501446943480756  0.6350869795254591   T   T   T
  0.0000971697108244  0.2499570885791914  0.6116688682590246   T   T   T
  0.6958973557777888  0.2493398658318227  0.6330215048942911   T   T   T
  0.8019868899703938  0.2536869504357933  0.7449039572412810   T   T   T
  0.5022961709014570  0.2502528184126881  0.7253513487111055   T   T   T
  0.1904414217299129  0.2490553720248686  0.7384486092154904   T   T   T
  0.8141011533980276  0.2499999997859135  0.3013105672926031   F   F   F
  0.4999999994478088  0.2499999997859135  0.2564174481620327   F   F   F
  0.1858988466019724  0.2499999997859135  0.3013105672926031   F   F   F
  0.3088456122590841  0.5000000004281731  0.4099867722441957   F   F   F
  0.0000000000000000  0.5000000004281731  0.3930971035158137   F   F   F
  0.6911543877409159  0.5000000004281731  0.4099867722441957   F   F   F
  0.8018214785633186  0.4999486466999283  0.5216664285349053   T   T   T
  0.4998729836423068  0.4999334455240624  0.5027164077597088   T   T   T
  0.1993437316668901  0.4998504550932650  0.5222800754497653   T   T   T
  0.3045964019115164  0.4997995265646817  0.6349767304751534   T   T   T
  0.0002841183719199  0.4998115587064741  0.6117526230802379   T   T   T
  0.6961178263803947  0.5005834288026840  0.6330228406969723   T   T   T
  0.8032302307762553  0.4992603006266971  0.7444427402743622   T   T   T
  0.5028762756348917  0.4989634817067407  0.7251816010365260   T   T   T
  0.1925142214541707  0.5023543405327138  0.7388777760054088   T   T   T
  0.8141011533980276  0.5000000004281731  0.3013105672926031   F   F   F
  0.4999999994478088  0.5000000004281731  0.2564174481620327   F   F   F
  0.1858988466019724  0.5000000004281731  0.3013105672926031   F   F   F
  0.3088456122590841  0.7500000002140865  0.4099867722441957   F   F   F
  0.0000000000000000  0.7500000002140865  0.3930971035158137   F   F   F
  0.6911543877409159  0.7500000002140865  0.4099867722441957   F   F   F
  0.8017683398088963  0.7498765071339538  0.5216776852899369   T   T   T
  0.4998879879164092  0.7499593281325482  0.5027276954245599   T   T   T
  0.1993817140664188  0.7500978780638531  0.5222707152460108   T   T   T
  0.3046925987902049  0.7503142607947110  0.6350213082853625   T   T   T
  0.0003094792984154  0.7499733963633594  0.6116458277987518   T   T   T
  0.6961129776094591  0.7492324827495580  0.6331154397198816   T   T   T
  0.8045324521070442  0.7497687374270421  0.7444083650891673   T   T   T
  0.5032567324800323  0.7511049791038800  0.7260540797798462   T   T   T
  0.1931335424277872  0.7481572100387293  0.7386094555747453   T   T   T
  0.8141011533980276  0.7500000002140865  0.3013105672926031   F   F   F
  0.4999999994478088  0.7500000002140865  0.2564174481620327   F   F   F
  0.1858988466019724  0.7500000002140865  0.3013105672926031   F   F   F
  0.3088456122590841  0.0000000000000000  0.4099867722441957   F   F   F
  0.0000000000000000  0.0000000000000000  0.3930971035158137   F   F   F
  0.6911543877409159  0.0000000000000000  0.4099867722441957   F   F   F
  0.8017256198874076 -0.0000704564442556  0.5217019969239054   T   T   T
  0.4998667756188019  0.9999377191013827  0.5027555191260351   T   T   T
  0.1993132974836284  0.9999231773017131  0.5222923599088375   T   T   T
  0.3042356137517110  0.9998631285015697  0.6351987468220266   T   T   T
  0.0001866895632505  0.9997621957649426  0.6116231376920931   T   T   T
  0.6957954669432183  0.0000786145805650  0.6331379214933830   T   T   T
  0.8029140760423996  0.9955126189675660  0.7446199409389606   T   T   T
  0.5022670360216347  0.9997873887694017  0.7254499214705302   T   T   T
  0.1901985129747994  0.0016838193059730  0.7389004128498607   T   T   T
  0.1267512921031878  0.0198628557373267  0.8164671420326558   T   T   T
  0.5644749454970289  0.9999193303404497  0.8062859958310631   T   T   T
  0.8714083738009126  0.1235211127593026  0.7974962422386545   T   T   T
  0.1390204922693312  0.5203233466714232  0.8173067649159225   T   T   T
  0.5599998325512233  0.4832820150540190  0.8067570943217912   T   T   T
  0.8868113870303456  0.6237587942200261  0.7987079963875749   T   T   T
  0.1261670196154064  0.2418879153471035  0.8161914297368204   T   T   T
  0.5635046613744177  0.2566823536615110  0.8062243353100542   T   T   T
  0.8868968951548176  0.3752163646021707  0.7998578257890924   T   T   T
  0.1372243628806059  0.7405261332100201  0.8171464027960477   T   T   T
  0.5568091069560621  0.7729264940993565  0.8080492792893911   T   T   T
  0.8844541546014261  0.8733542000331105  0.7998086826485811   T   T   T
  0.3379106425864499  0.8777229334418030  0.8375396089894799   T   T   T
  0.3775155981133303  0.6201792911668490  0.8425312410297263   T   T   T
  0.3405577136855505  0.3679982783831433  0.8372587847567442   T   T   T
  0.3632718697778886  0.1223581203599558  0.8382394352351308   T   T   T
  0.6815850399416137  0.6290626352050890  0.8712845942417505   T   T   T
 
  0.00000000E+00  0.00000000E+00  0.00000000E+00
  0.00000000E+00  0.00000000E+00  0.00000000E+00
  0.00000000E+00  0.00000000E+00  0.00000000E+00
  0.00000000E+00  0.00000000E+00  0.00000000E+00
  0.00000000E+00  0.00000000E+00  0.00000000E+00
  0.00000000E+00  0.00000000E+00  0.00000000E+00
  0.00000000E+00  0.00000000E+00  0.00000000E+00
  0.00000000E+00  0.00000000E+00  0.00000000E+00
  0.00000000E+00  0.00000000E+00  0.00000000E+00
  0.00000000E+00  0.00000000E+00  0.00000000E+00
  0.00000000E+00  0.00000000E+00  0.00000000E+00
  0.00000000E+00  0.00000000E+00  0.00000000E+00
  0.00000000E+00  0.00000000E+00  0.00000000E+00
  0.00000000E+00  0.00000000E+00  0.00000000E+00
  0.00000000E+00  0.00000000E+00  0.00000000E+00
  0.00000000E+00  0.00000000E+00  0.00000000E+00
  0.00000000E+00  0.00000000E+00  0.00000000E+00
  0.00000000E+00  0.00000000E+00  0.00000000E+00
  0.00000000E+00  0.00000000E+00  0.00000000E+00
  0.00000000E+00  0.00000000E+00  0.00000000E+00
  0.00000000E+00  0.00000000E+00  0.00000000E+00
  0.00000000E+00  0.00000000E+00  0.00000000E+00
  0.00000000E+00  0.00000000E+00  0.00000000E+00
  0.00000000E+00  0.00000000E+00  0.00000000E+00
  0.00000000E+00  0.00000000E+00  0.00000000E+00
  0.00000000E+00  0.00000000E+00  0.00000000E+00
  0.00000000E+00  0.00000000E+00  0.00000000E+00
  0.00000000E+00  0.00000000E+00  0.00000000E+00
  0.00000000E+00  0.00000000E+00  0.00000000E+00
  0.00000000E+00  0.00000000E+00  0.00000000E+00
  0.00000000E+00  0.00000000E+00  0.00000000E+00
  0.00000000E+00  0.00000000E+00  0.00000000E+00
  0.00000000E+00  0.00000000E+00  0.00000000E+00
  0.00000000E+00  0.00000000E+00  0.00000000E+00
  0.00000000E+00  0.00000000E+00  0.00000000E+00
  0.00000000E+00  0.00000000E+00  0.00000000E+00
  0.00000000E+00  0.00000000E+00  0.00000000E+00
  0.00000000E+00  0.00000000E+00  0.00000000E+00
  0.00000000E+00  0.00000000E+00  0.00000000E+00
  0.00000000E+00  0.00000000E+00  0.00000000E+00
  0.00000000E+00  0.00000000E+00  0.00000000E+00
  0.00000000E+00  0.00000000E+00  0.00000000E+00
  0.00000000E+00  0.00000000E+00  0.00000000E+00
  0.00000000E+00  0.00000000E+00  0.00000000E+00
  0.00000000E+00  0.00000000E+00  0.00000000E+00
  0.00000000E+00  0.00000000E+00  0.00000000E+00
  0.00000000E+00  0.00000000E+00  0.00000000E+00
  0.00000000E+00  0.00000000E+00  0.00000000E+00
  0.00000000E+00  0.00000000E+00  0.00000000E+00
  0.00000000E+00  0.00000000E+00  0.00000000E+00
  0.00000000E+00  0.00000000E+00  0.00000000E+00
  0.00000000E+00  0.00000000E+00  0.00000000E+00
  0.00000000E+00  0.00000000E+00  0.00000000E+00
  0.00000000E+00  0.00000000E+00  0.00000000E+00
  0.00000000E+00  0.00000000E+00  0.00000000E+00
  0.00000000E+00  0.00000000E+00  0.00000000E+00
  0.00000000E+00  0.00000000E+00  0.00000000E+00
  0.00000000E+00  0.00000000E+00  0.00000000E+00
  0.00000000E+00  0.00000000E+00  0.00000000E+00
  0.00000000E+00  0.00000000E+00  0.00000000E+00
  0.00000000E+00  0.00000000E+00  0.00000000E+00
  0.00000000E+00  0.00000000E+00  0.00000000E+00
  0.00000000E+00  0.00000000E+00  0.00000000E+00
  0.00000000E+00  0.00000000E+00  0.00000000E+00
  0.00000000E+00  0.00000000E+00  0.00000000E+00
  0.00000000E+00  0.00000000E+00  0.00000000E+00
  0.00000000E+00  0.00000000E+00  0.00000000E+00
  0.00000000E+00  0.00000000E+00  0.00000000E+00
  0.00000000E+00  0.00000000E+00  0.00000000E+00
  0.00000000E+00  0.00000000E+00  0.00000000E+00
  0.00000000E+00  0.00000000E+00  0.00000000E+00
  0.00000000E+00  0.00000000E+00  0.00000000E+00
  0.00000000E+00  0.00000000E+00  0.00000000E+00
  0.00000000E+00  0.00000000E+00  0.00000000E+00
  0.00000000E+00  0.00000000E+00  0.00000000E+00
  0.00000000E+00  0.00000000E+00  0.00000000E+00
  0.00000000E+00  0.00000000E+00  0.00000000E+00
  0.00000000E+00  0.00000000E+00  0.00000000E+00
  0.00000000E+00  0.00000000E+00  0.00000000E+00
  0.00000000E+00  0.00000000E+00  0.00000000E+00
  0.00000000E+00  0.00000000E+00  0.00000000E+00
  0.00000000E+00  0.00000000E+00  0.00000000E+00
  0.00000000E+00  0.00000000E+00  0.00000000E+00
  0.00000000E+00  0.00000000E+00  0.00000000E+00
  0.00000000E+00  0.00000000E+00  0.00000000E+00
  0.00000000E+00  0.00000000E+00  0.00000000E+00
  0.00000000E+00  0.00000000E+00  0.00000000E+00
  0.00000000E+00  0.00000000E+00  0.00000000E+00
  0.00000000E+00  0.00000000E+00  0.00000000E+00
  0.00000000E+00  0.00000000E+00  0.00000000E+00
  0.00000000E+00  0.00000000E+00  0.00000000E+00
  0.00000000E+00  0.00000000E+00  0.00000000E+00
  0.00000000E+00  0.00000000E+00  0.00000000E+00
  0.00000000E+00  0.00000000E+00  0.00000000E+00
  0.00000000E+00  0.00000000E+00  0.00000000E+00
  0.00000000E+00  0.00000000E+00  0.00000000E+00
  0.00000000E+00  0.00000000E+00  0.00000000E+00
  0.00000000E+00  0.00000000E+00  0.00000000E+00
  0.00000000E+00  0.00000000E+00  0.00000000E+00
  0.00000000E+00  0.00000000E+00  0.00000000E+00
  0.00000000E+00  0.00000000E+00  0.00000000E+00
  0.00000000E+00  0.00000000E+00  0.00000000E+00
  0.00000000E+00  0.00000000E+00  0.00000000E+00
  0.00000000E+00  0.00000000E+00  0.00000000E+00
  0.00000000E+00  0.00000000E+00  0.00000000E+00
  0.00000000E+00  0.00000000E+00  0.00000000E+00
  0.00000000E+00  0.00000000E+00  0.00000000E+00
  0.00000000E+00  0.00000000E+00  0.00000000E+00
  0.00000000E+00  0.00000000E+00  0.00000000E+00
  0.00000000E+00  0.00000000E+00  0.00000000E+00
  0.00000000E+00  0.00000000E+00  0.00000000E+00
  0.00000000E+00  0.00000000E+00  0.00000000E+00
  0.00000000E+00  0.00000000E+00  0.00000000E+00
  0.00000000E+00  0.00000000E+00  0.00000000E+00
  0.00000000E+00  0.00000000E+00  0.00000000E+00
  0.00000000E+00  0.00000000E+00  0.00000000E+00
  0.00000000E+00  0.00000000E+00  0.00000000E+00
  0.00000000E+00  0.00000000E+00  0.00000000E+00
  0.00000000E+00  0.00000000E+00  0.00000000E+00
  0.00000000E+00  0.00000000E+00  0.00000000E+00
  0.00000000E+00  0.00000000E+00  0.00000000E+00
  0.00000000E+00  0.00000000E+00  0.00000000E+00
  0.00000000E+00  0.00000000E+00  0.00000000E+00
  0.00000000E+00  0.00000000E+00  0.00000000E+00
  0.00000000E+00  0.00000000E+00  0.00000000E+00
  0.00000000E+00  0.00000000E+00  0.00000000E+00
  0.00000000E+00  0.00000000E+00  0.00000000E+00
  0.00000000E+00  0.00000000E+00  0.00000000E+00
  0.00000000E+00  0.00000000E+00  0.00000000E+00
  0.00000000E+00  0.00000000E+00  0.00000000E+00
  0.00000000E+00  0.00000000E+00  0.00000000E+00
  0.00000000E+00  0.00000000E+00  0.00000000E+00
  0.00000000E+00  0.00000000E+00  0.00000000E+00
  0.00000000E+00  0.00000000E+00  0.00000000E+00
  0.00000000E+00  0.00000000E+00  0.00000000E+00
  0.00000000E+00  0.00000000E+00  0.00000000E+00
  0.00000000E+00  0.00000000E+00  0.00000000E+00
