Ta  N Cu                                
   1.00000000000000     
    10.4555999800000006    0.0000000000000000    0.0000000000000000
     0.0000000000000000   11.6775998899999998    0.0000000000000000
     0.0000000000000000    0.0000000000000000   24.0732377500000005
   Ta   N    Cu
    64    64     1
Selective dynamics
Direct
  0.4991785186325330  0.1250000003211298  0.3753726828051569   F   F   F
  0.2600588226580172  0.1250000003211298  0.3190980514078845   F   F   F
  0.2470962603561304  0.0000000000000000  0.4358978840493251   F   F   F
  0.2485340630734770  0.1249570850210904  0.5616142216568986   T   T   T
  0.9986633422190353  0.1249857095257453  0.5004485650340754   T   T   T
  0.9977586877430419  0.0002234903330702  0.6262481435998234   T   T   T
  0.5090025479820842  0.1262540740800923  0.7449038794249442   T   T   T
  0.2507949134729449  0.1247536419212014  0.6866904407836337   T   T   T
  0.4991785186325330  0.3750000001070433  0.3753726828051569   F   F   F
  0.2600588226580172  0.3750000001070433  0.3190980514078845   F   F   F
  0.2470962603561304  0.2499999997859135  0.4358978840493251   F   F   F
  0.2485753318546377  0.3750219139614005  0.5616069659455719   T   T   T
  0.9985573972878051  0.3750182490160687  0.5004258095242105   T   T   T
  0.9977155852739805  0.2500109436585572  0.6260729325774449   T   T   T
  0.5088345639555852  0.3737699362913488  0.7449080109343658   T   T   T
  0.2506647344012158  0.3752622369252507  0.6866847146790266   T   T   T
  0.4991785186325330  0.6249999998929567  0.3753726828051569   F   F   F
  0.2600588226580172  0.6249999998929567  0.3190980514078845   F   F   F
  0.2470962603561304  0.5000000004281731  0.4358978840493251   F   F   F
  0.2486893436281026  0.6250232276289452  0.5616079394499320   T   T   T
  0.9985783961323128  0.6249935079469100  0.5004975989705958   T   T   T
  0.9977526011570254  0.4997026970400695  0.6262490460830171   T   T   T
  0.5111622549061123  0.6240242778172602  0.7432727932382902   T   T   T
  0.2509469752733404  0.6248629581224224  0.6867573505804685   T   T   T
  0.4991785186325330  0.8750000005352163  0.3753726828051569   F   F   F
  0.2600588226580172  0.8750000005352163  0.3190980514078845   F   F   F
  0.2470962603561304  0.7500000002140865  0.4358978840493251   F   F   F
  0.2487010176702366  0.8750033481264132  0.5616026472237434   T   T   T
  0.9985375675307787  0.8750144130321393  0.5004842355075417   T   T   T
  0.9977851110686886  0.7499842213278423  0.6262505217168798   T   T   T
  0.5110538981072088  0.8758307452430660  0.7431754629738423   T   T   T
  0.2507959904452483  0.8750531873393091  0.6867462680931238   T   T   T
  0.9991784928090510  0.1250000003211298  0.3753726828051569   F   F   F
  0.7600587968345351  0.1250000003211298  0.3190980514078845   F   F   F
  0.7470962345326484  0.0000000000000000  0.4358978840493251   F   F   F
  0.7488307671231290  0.1250139630987629  0.5616667854529517   T   T   T
  0.4985929950794703  0.1249529061769951  0.5004705857678627   T   T   T
  0.4978175498463873 -0.0003180632431558  0.6258515849022320   T   T   T
  0.0108452352573920  0.1260107228876281  0.7432627087234547   T   T   T
  0.7494741980581426  0.1249249452047533  0.6868064025103604   T   T   T
  0.9991784928090510  0.3750000001070433  0.3753726828051569   F   F   F
  0.7600587968345351  0.3750000001070433  0.3190980514078845   F   F   F
  0.7470962345326484  0.2499999997859135  0.4358978840493251   F   F   F
  0.7488478332392079  0.3749850107754596  0.5616482854124134   T   T   T
  0.4985886469436959  0.3750401656265027  0.5004406362559878   T   T   T
  0.4982341380074722  0.2499786134126352  0.6255041828594118   T   T   T
  0.0108611090757698  0.3739656653196829  0.7432603081029842   T   T   T
  0.7495178719182840  0.3750034784767627  0.6868447088020755   T   T   T
  0.9991784928090510  0.6249999998929567  0.3753726828051569   F   F   F
  0.7600587968345351  0.6249999998929567  0.3190980514078845   F   F   F
  0.7470962345326484  0.5000000004281731  0.4358978840493251   F   F   F
  0.7487581595086990  0.6249641962393426  0.5617240959613401   T   T   T
  0.4987498310145086  0.6250305748275037  0.5004881473995155   T   T   T
  0.4978113124249396  0.5004517492567468  0.6258036647392116   T   T   T
  0.0116780113092872  0.6246440014320760  0.7426219023359959   T   T   T
  0.7495213589084200  0.6248443781442287  0.6868019327078581   T   T   T
  0.9991784928090439  0.8750000005352163  0.3753726828051569   F   F   F
  0.7600587968345351  0.8750000005352163  0.3190980514078845   F   F   F
  0.7470962345326484  0.7500000002140865  0.4358978840493251   F   F   F
  0.7487797735589751  0.8750064069330640  0.5617029368005027   T   T   T
  0.4986929706671571  0.8749727130572823  0.5004643253187050   T   T   T
  0.4979197695946155  0.7498370537930652  0.6260723653870776   T   T   T
  0.0116069121331679  0.8752379738278558  0.7426133859639324   T   T   T
  0.7497064895330389  0.8752161770984780  0.6868598162067389   T   T   T
  0.1472195596423447  0.0000000000000000  0.3601606351366584   F   F   F
  0.4003222342624682  0.0000000000000000  0.3237632067519129   F   F   F
  0.4439214822817661  0.0000000000000000  0.4377276028165085   F   F   F
  0.4006646944591936 -0.0001021195500147  0.5516999986235727   T   T   T
  0.1507053841981860 -0.0000872781642869  0.5102884826529511   T   T   T
  0.1947355863934577 -0.0000348760696032  0.6245140627917656   T   T   T
  0.1515557259264900  0.0001202170160458  0.7384711841944938   T   T   T
  0.3991567037586927  0.0008690562398267  0.7014207728770038   T   T   T
  0.1472195596423447  0.2499999997859135  0.3601606351366584   F   F   F
  0.4003222342624682  0.2499999997859135  0.3237632067519129   F   F   F
  0.4439214822817661  0.2499999997859135  0.4377276028165085   F   F   F
  0.4004280834898680  0.2499608734620233  0.5515590259772587   T   T   T
  0.1506905510777629  0.2499923829536604  0.5102158229933519   T   T   T
  0.1946444802526716  0.2499767766116665  0.6244803805782407   T   T   T
  0.1519232440717045  0.2499252968569383  0.7383084101711224   T   T   T
  0.3995303500447034  0.2499854913725792  0.6993774264712777   T   T   T
  0.1472195596423447  0.5000000004281731  0.3601606351366584   F   F   F
  0.4003222342624682  0.5000000004281731  0.3237632067519129   F   F   F
  0.4439214822817661  0.5000000004281731  0.4377276028165085   F   F   F
  0.4006003965436836  0.5001423014346454  0.5516931050662433   T   T   T
  0.1507130032760943  0.5001197917209040  0.5102774854718639   T   T   T
  0.1947068324265363  0.5000259558787500  0.6245056975443674   T   T   T
  0.1515757841185165  0.4999878719928803  0.7384272444518302   T   T   T
  0.3992671949429181  0.4991344509295443  0.7014522686892058   T   T   T
  0.1472195596423447  0.7500000002140865  0.3601606351366584   F   F   F
  0.4003222342624682  0.7500000002140865  0.3237632067519129   F   F   F
  0.4439214822817661  0.7500000002140865  0.4377276028165085   F   F   F
  0.4008022025037205  0.7500057216171838  0.5518467617871631   T   T   T
  0.1507438619020997  0.7499687741453123  0.5103110613395605   T   T   T
  0.1947307850829112  0.7499855449429672  0.6244526297112227   T   T   T
  0.1523185584490008  0.7499765874424019  0.7384961853918820   T   T   T
  0.3992258724958544  0.7499814380417662  0.7019175298872277   T   T   T
  0.6472195338188556  0.0000000000000000  0.3601606351366584   F   F   F
  0.9003222591295312  0.0000000000000000  0.3237632067519129   F   F   F
  0.9439215071488221  0.0000000000000000  0.4377276028165085   F   F   F
  0.9009770438994581  0.0000141585205348  0.5518908856293903   T   T   T
  0.6508397168642732 -0.0000291853511406  0.5103201361351761   T   T   T
  0.6947093591548675  0.0000734534983623  0.6244207757967040   T   T   T
  0.6513297874679976  0.0009010602272725  0.7387934539012412   T   T   T
  0.8980129558519528  0.0001343675973549  0.7018983599950692   T   T   T
  0.6472195338188556  0.2499999997859135  0.3601606351366584   F   F   F
  0.9003222591295312  0.2499999997859135  0.3237632067519129   F   F   F
  0.9439215071488221  0.2499999997859135  0.4377276028165085   F   F   F
  0.9009008323415897  0.2499807041135312  0.5517981474178055   T   T   T
  0.6506982919100937  0.2499467638056669  0.5102941099184879   T   T   T
  0.6950436488659744  0.2499713925845467  0.6243544403473105   T   T   T
  0.6517153516824969  0.2499173116625747  0.7381176260732630   T   T   T
  0.8978364265905420  0.2499193808197898  0.7016012711362647   T   T   T
  0.6472195338188556  0.5000000004281731  0.3601606351366584   F   F   F
  0.9003222591295312  0.5000000004281731  0.3237632067519129   F   F   F
  0.9439215071488221  0.5000000004281731  0.4377276028165085   F   F   F
  0.9009646275069519  0.5000038467891816  0.5518878479771261   T   T   T
  0.6508148823196473  0.5000735101744010  0.5103125027070667   T   T   T
  0.6947480260612485  0.4998951327523530  0.6244403291037289   T   T   T
  0.6512178306117219  0.4992525842707307  0.7387325968322778   T   T   T
  0.8980233927291966  0.4999660425716423  0.7019268444209595   T   T   T
  0.6472195338188556  0.7500000002140865  0.3601606351366584   F   F   F
  0.9003222591295312  0.7500000002140865  0.3237632067519129   F   F   F
  0.9439215071488221  0.7500000002140865  0.4377276028165085   F   F   F
  0.9010185420020416  0.7499870977515025  0.5519020859642234   T   T   T
  0.6508740608943098  0.7499912816127369  0.5103384244377891   T   T   T
  0.6947504867325706  0.7500141938288201  0.6245156492465637   T   T   T
  0.6508987021398925  0.7498821245717804  0.7386434833288495   T   T   T
  0.8976841167431940  0.7499132366784349  0.7018717872077198   T   T   T
  0.4149822536484770  0.2499507636638020  0.8256042526734899   T   T   T
 
  0.00000000E+00  0.00000000E+00  0.00000000E+00
  0.00000000E+00  0.00000000E+00  0.00000000E+00
  0.00000000E+00  0.00000000E+00  0.00000000E+00
  0.00000000E+00  0.00000000E+00  0.00000000E+00
  0.00000000E+00  0.00000000E+00  0.00000000E+00
  0.00000000E+00  0.00000000E+00  0.00000000E+00
  0.00000000E+00  0.00000000E+00  0.00000000E+00
  0.00000000E+00  0.00000000E+00  0.00000000E+00
  0.00000000E+00  0.00000000E+00  0.00000000E+00
  0.00000000E+00  0.00000000E+00  0.00000000E+00
  0.00000000E+00  0.00000000E+00  0.00000000E+00
  0.00000000E+00  0.00000000E+00  0.00000000E+00
  0.00000000E+00  0.00000000E+00  0.00000000E+00
  0.00000000E+00  0.00000000E+00  0.00000000E+00
  0.00000000E+00  0.00000000E+00  0.00000000E+00
  0.00000000E+00  0.00000000E+00  0.00000000E+00
  0.00000000E+00  0.00000000E+00  0.00000000E+00
  0.00000000E+00  0.00000000E+00  0.00000000E+00
  0.00000000E+00  0.00000000E+00  0.00000000E+00
  0.00000000E+00  0.00000000E+00  0.00000000E+00
  0.00000000E+00  0.00000000E+00  0.00000000E+00
  0.00000000E+00  0.00000000E+00  0.00000000E+00
  0.00000000E+00  0.00000000E+00  0.00000000E+00
  0.00000000E+00  0.00000000E+00  0.00000000E+00
  0.00000000E+00  0.00000000E+00  0.00000000E+00
  0.00000000E+00  0.00000000E+00  0.00000000E+00
  0.00000000E+00  0.00000000E+00  0.00000000E+00
  0.00000000E+00  0.00000000E+00  0.00000000E+00
  0.00000000E+00  0.00000000E+00  0.00000000E+00
  0.00000000E+00  0.00000000E+00  0.00000000E+00
  0.00000000E+00  0.00000000E+00  0.00000000E+00
  0.00000000E+00  0.00000000E+00  0.00000000E+00
  0.00000000E+00  0.00000000E+00  0.00000000E+00
  0.00000000E+00  0.00000000E+00  0.00000000E+00
  0.00000000E+00  0.00000000E+00  0.00000000E+00
  0.00000000E+00  0.00000000E+00  0.00000000E+00
  0.00000000E+00  0.00000000E+00  0.00000000E+00
  0.00000000E+00  0.00000000E+00  0.00000000E+00
  0.00000000E+00  0.00000000E+00  0.00000000E+00
  0.00000000E+00  0.00000000E+00  0.00000000E+00
  0.00000000E+00  0.00000000E+00  0.00000000E+00
  0.00000000E+00  0.00000000E+00  0.00000000E+00
  0.00000000E+00  0.00000000E+00  0.00000000E+00
  0.00000000E+00  0.00000000E+00  0.00000000E+00
  0.00000000E+00  0.00000000E+00  0.00000000E+00
  0.00000000E+00  0.00000000E+00  0.00000000E+00
  0.00000000E+00  0.00000000E+00  0.00000000E+00
  0.00000000E+00  0.00000000E+00  0.00000000E+00
  0.00000000E+00  0.00000000E+00  0.00000000E+00
  0.00000000E+00  0.00000000E+00  0.00000000E+00
  0.00000000E+00  0.00000000E+00  0.00000000E+00
  0.00000000E+00  0.00000000E+00  0.00000000E+00
  0.00000000E+00  0.00000000E+00  0.00000000E+00
  0.00000000E+00  0.00000000E+00  0.00000000E+00
  0.00000000E+00  0.00000000E+00  0.00000000E+00
  0.00000000E+00  0.00000000E+00  0.00000000E+00
  0.00000000E+00  0.00000000E+00  0.00000000E+00
  0.00000000E+00  0.00000000E+00  0.00000000E+00
  0.00000000E+00  0.00000000E+00  0.00000000E+00
  0.00000000E+00  0.00000000E+00  0.00000000E+00
  0.00000000E+00  0.00000000E+00  0.00000000E+00
  0.00000000E+00  0.00000000E+00  0.00000000E+00
  0.00000000E+00  0.00000000E+00  0.00000000E+00
  0.00000000E+00  0.00000000E+00  0.00000000E+00
  0.00000000E+00  0.00000000E+00  0.00000000E+00
  0.00000000E+00  0.00000000E+00  0.00000000E+00
  0.00000000E+00  0.00000000E+00  0.00000000E+00
  0.00000000E+00  0.00000000E+00  0.00000000E+00
  0.00000000E+00  0.00000000E+00  0.00000000E+00
  0.00000000E+00  0.00000000E+00  0.00000000E+00
  0.00000000E+00  0.00000000E+00  0.00000000E+00
  0.00000000E+00  0.00000000E+00  0.00000000E+00
  0.00000000E+00  0.00000000E+00  0.00000000E+00
  0.00000000E+00  0.00000000E+00  0.00000000E+00
  0.00000000E+00  0.00000000E+00  0.00000000E+00
  0.00000000E+00  0.00000000E+00  0.00000000E+00
  0.00000000E+00  0.00000000E+00  0.00000000E+00
  0.00000000E+00  0.00000000E+00  0.00000000E+00
  0.00000000E+00  0.00000000E+00  0.00000000E+00
  0.00000000E+00  0.00000000E+00  0.00000000E+00
  0.00000000E+00  0.00000000E+00  0.00000000E+00
  0.00000000E+00  0.00000000E+00  0.00000000E+00
  0.00000000E+00  0.00000000E+00  0.00000000E+00
  0.00000000E+00  0.00000000E+00  0.00000000E+00
  0.00000000E+00  0.00000000E+00  0.00000000E+00
  0.00000000E+00  0.00000000E+00  0.00000000E+00
  0.00000000E+00  0.00000000E+00  0.00000000E+00
  0.00000000E+00  0.00000000E+00  0.00000000E+00
  0.00000000E+00  0.00000000E+00  0.00000000E+00
  0.00000000E+00  0.00000000E+00  0.00000000E+00
  0.00000000E+00  0.00000000E+00  0.00000000E+00
  0.00000000E+00  0.00000000E+00  0.00000000E+00
  0.00000000E+00  0.00000000E+00  0.00000000E+00
  0.00000000E+00  0.00000000E+00  0.00000000E+00
  0.00000000E+00  0.00000000E+00  0.00000000E+00
  0.00000000E+00  0.00000000E+00  0.00000000E+00
  0.00000000E+00  0.00000000E+00  0.00000000E+00
  0.00000000E+00  0.00000000E+00  0.00000000E+00
  0.00000000E+00  0.00000000E+00  0.00000000E+00
  0.00000000E+00  0.00000000E+00  0.00000000E+00
  0.00000000E+00  0.00000000E+00  0.00000000E+00
  0.00000000E+00  0.00000000E+00  0.00000000E+00
  0.00000000E+00  0.00000000E+00  0.00000000E+00
  0.00000000E+00  0.00000000E+00  0.00000000E+00
  0.00000000E+00  0.00000000E+00  0.00000000E+00
  0.00000000E+00  0.00000000E+00  0.00000000E+00
  0.00000000E+00  0.00000000E+00  0.00000000E+00
  0.00000000E+00  0.00000000E+00  0.00000000E+00
  0.00000000E+00  0.00000000E+00  0.00000000E+00
  0.00000000E+00  0.00000000E+00  0.00000000E+00
  0.00000000E+00  0.00000000E+00  0.00000000E+00
  0.00000000E+00  0.00000000E+00  0.00000000E+00
  0.00000000E+00  0.00000000E+00  0.00000000E+00
  0.00000000E+00  0.00000000E+00  0.00000000E+00
  0.00000000E+00  0.00000000E+00  0.00000000E+00
  0.00000000E+00  0.00000000E+00  0.00000000E+00
  0.00000000E+00  0.00000000E+00  0.00000000E+00
  0.00000000E+00  0.00000000E+00  0.00000000E+00
  0.00000000E+00  0.00000000E+00  0.00000000E+00
  0.00000000E+00  0.00000000E+00  0.00000000E+00
  0.00000000E+00  0.00000000E+00  0.00000000E+00
  0.00000000E+00  0.00000000E+00  0.00000000E+00
  0.00000000E+00  0.00000000E+00  0.00000000E+00
  0.00000000E+00  0.00000000E+00  0.00000000E+00
  0.00000000E+00  0.00000000E+00  0.00000000E+00
  0.00000000E+00  0.00000000E+00  0.00000000E+00
  0.00000000E+00  0.00000000E+00  0.00000000E+00
  0.00000000E+00  0.00000000E+00  0.00000000E+00
  0.00000000E+00  0.00000000E+00  0.00000000E+00
