Mo  S Cu                                
   1.00000000000000     
    15.9214998300000001    0.0000000000000000    0.0000000000000000
    -7.9622501300000001   13.7910221699999997    0.0000000000000000
     0.0000000000000000    0.0000000000000000   13.5821998300000004
   Mo   S    Co
    25    50     4
Direct
  0.1318725917193433  0.0636912747880132  0.6765498295473762
  0.1279863074928187  0.2611578070621050  0.6891794332894463
  0.1347345337163759  0.4667363643752935  0.6869526905370833
  0.1333001921765629  0.6670022964358324  0.6762524650445556
  0.1329047127851481  0.8659112783984995  0.6710302404799862
  0.3314652534595410  0.0633162180602511  0.6755938482177726
  0.3286750673783843  0.2572580828868283  0.6948374100045314
  0.3391817700521216  0.4792631651981551  0.6867197005207046
  0.3326085118974405  0.6692038333437793  0.6748459130853348
  0.3325812704274469  0.8659089078192252  0.6709270609468092
  0.5313730673840666  0.0637000031900357  0.6767342034554176
  0.5282799163687741  0.2576743671693080  0.6950537476123202
  0.5369238710201500  0.4735260802289289  0.6954489759199944
  0.5363306961882017  0.6704229298441362  0.6751687698014379
  0.5334901822436819  0.8674653829277474  0.6696419970685241
  0.7328188359710595  0.0651622569933963  0.6728477966296751
  0.7330287669687863  0.2612731664214820  0.6894874032102152
  0.7391162478091857  0.4790562318645613  0.6869934353078122
  0.7335703162926208  0.6704447096453663  0.6753087240894189
  0.7338253382381126  0.8681345072165527  0.6690777053297552
  0.9318797462089421  0.0651757041517982  0.6727919724212157
  0.9333896573873943  0.2670708596434395  0.6830404905310345
  0.9316449374500380  0.4665835319019322  0.6870984533278843
  0.9362339874940133  0.6692224855593167  0.6750759088493581
  0.9335051497124880  0.8675036754077183  0.6698075111458621
  0.0696903093025796  0.1369953756145819  0.5635037614292671
  0.0572625756084335  0.1213151014177924  0.7936366800482020
  0.0687911982210707  0.3331666864925893  0.5722090998420342
  0.0632331744316375  0.3295869226729096  0.8062337850032222
  0.0635998297928637  0.5276491377627366  0.5694049449818195
  0.0682368191435359  0.5367251929589827  0.7976227596571803
  0.0665547692363901  0.7311769505136638  0.5579191729680204
  0.0693080959141525  0.7368864069741150  0.7894940050830854
  0.0678757957980025  0.9348621032226276  0.5561031863267658
  0.0639170732010399  0.9290259948183675  0.7873460846533362
  0.2684249408804078  0.1375371135114634  0.5652795958273060
  0.2599370863174428  0.1178273137578216  0.7972738229076128
  0.2685736391307287  0.3350238144219944  0.5864149530403964
  0.2401226150793505  0.2826456812478000  0.8412490138442692
  0.2641103172354420  0.5315471916530825  0.5660582071303324
  0.2735276801170983  0.5469400659039820  0.8018825182856659
  0.2641503021752172  0.7311798961369149  0.5577846071916852
  0.2672739115494309  0.7368618640798772  0.7893275148846399
  0.2668359660616844  0.9341345347577388  0.5561115869520421
  0.2641831003047770  0.9286884232974373  0.7871864587207398
  0.4689102583199158  0.1378332082986375  0.5656362371624226
  0.4575124047184005  0.1179810232424430  0.7974020790182550
  0.4667160698798369  0.3336704378304418  0.5861427599054991
  0.4645422562195165  0.3287732272066606  0.8211273356511413
  0.4687907607937021  0.5310495348770559  0.5701377150214952
  0.4751453004365800  0.5510125575843006  0.8066788970730912
  0.4653400360938846  0.7315065399255971  0.5577054490482212
  0.4689491594384165  0.7389821226038435  0.7871804003265126
  0.4665737437676043  0.9350211990815396  0.5560429168365886
  0.4646036988104569  0.9288850847213155  0.7873028451335742
  0.6668664048727209  0.1371062724257683  0.5637590533805721
  0.6635871029039038  0.1212310410288282  0.7938091215651752
  0.6661138726610218  0.3350263382041803  0.5867227338056722
  0.6424536539880634  0.2830623540064181  0.8415738701858828
  0.6620653468668962  0.5312955965960811  0.5699313528054759
  0.6757056986381826  0.5511415004192486  0.8067950256078404
  0.6662222771238220  0.7329095746677083  0.5566867383235703
  0.6702459177134230  0.7411561323611835  0.7886737385664873
  0.6670210857255441  0.9351616066252433  0.5540064969914837
  0.6659629998018701  0.9315918051436896  0.7852731377490940
  0.8692348817132824  0.1389746159315521  0.5611526024393214
  0.8637898172721847  0.1280046237425552  0.7904854987552312
  0.8639804084462668  0.3331521003457283  0.5723456735053247
  0.8664288643673999  0.3295183486447257  0.8064572047731886
  0.8668563606645847  0.5314686390679313  0.5665190228169195
  0.8729757266784048  0.5469739980463117  0.8019645775204864
  0.8657561893088044  0.7315262937143956  0.5579748579216215
  0.8695976519656483  0.7390448677764638  0.7873518727913194
  0.8676916213751014  0.9351191718416132  0.5540624720232827
  0.8651225367348161  0.9316873250790536  0.7853413780747402
  0.3801670137044511  0.3986372202833834  0.8288479321691753
  0.6186749230865942  0.3992145310631585  0.8311609690952366
  0.7824998566793795  0.3985461793894487  0.8371334111297344
  0.2160563207482866  0.3983978061606237  0.8368646145374612
 
  0.00000000E+00  0.00000000E+00  0.00000000E+00
  0.00000000E+00  0.00000000E+00  0.00000000E+00
  0.00000000E+00  0.00000000E+00  0.00000000E+00
  0.00000000E+00  0.00000000E+00  0.00000000E+00
  0.00000000E+00  0.00000000E+00  0.00000000E+00
  0.00000000E+00  0.00000000E+00  0.00000000E+00
  0.00000000E+00  0.00000000E+00  0.00000000E+00
  0.00000000E+00  0.00000000E+00  0.00000000E+00
  0.00000000E+00  0.00000000E+00  0.00000000E+00
  0.00000000E+00  0.00000000E+00  0.00000000E+00
  0.00000000E+00  0.00000000E+00  0.00000000E+00
  0.00000000E+00  0.00000000E+00  0.00000000E+00
  0.00000000E+00  0.00000000E+00  0.00000000E+00
  0.00000000E+00  0.00000000E+00  0.00000000E+00
  0.00000000E+00  0.00000000E+00  0.00000000E+00
  0.00000000E+00  0.00000000E+00  0.00000000E+00
  0.00000000E+00  0.00000000E+00  0.00000000E+00
  0.00000000E+00  0.00000000E+00  0.00000000E+00
  0.00000000E+00  0.00000000E+00  0.00000000E+00
  0.00000000E+00  0.00000000E+00  0.00000000E+00
  0.00000000E+00  0.00000000E+00  0.00000000E+00
  0.00000000E+00  0.00000000E+00  0.00000000E+00
  0.00000000E+00  0.00000000E+00  0.00000000E+00
  0.00000000E+00  0.00000000E+00  0.00000000E+00
  0.00000000E+00  0.00000000E+00  0.00000000E+00
  0.00000000E+00  0.00000000E+00  0.00000000E+00
  0.00000000E+00  0.00000000E+00  0.00000000E+00
  0.00000000E+00  0.00000000E+00  0.00000000E+00
  0.00000000E+00  0.00000000E+00  0.00000000E+00
  0.00000000E+00  0.00000000E+00  0.00000000E+00
  0.00000000E+00  0.00000000E+00  0.00000000E+00
  0.00000000E+00  0.00000000E+00  0.00000000E+00
  0.00000000E+00  0.00000000E+00  0.00000000E+00
  0.00000000E+00  0.00000000E+00  0.00000000E+00
  0.00000000E+00  0.00000000E+00  0.00000000E+00
  0.00000000E+00  0.00000000E+00  0.00000000E+00
  0.00000000E+00  0.00000000E+00  0.00000000E+00
  0.00000000E+00  0.00000000E+00  0.00000000E+00
  0.00000000E+00  0.00000000E+00  0.00000000E+00
  0.00000000E+00  0.00000000E+00  0.00000000E+00
  0.00000000E+00  0.00000000E+00  0.00000000E+00
  0.00000000E+00  0.00000000E+00  0.00000000E+00
  0.00000000E+00  0.00000000E+00  0.00000000E+00
  0.00000000E+00  0.00000000E+00  0.00000000E+00
  0.00000000E+00  0.00000000E+00  0.00000000E+00
  0.00000000E+00  0.00000000E+00  0.00000000E+00
  0.00000000E+00  0.00000000E+00  0.00000000E+00
  0.00000000E+00  0.00000000E+00  0.00000000E+00
  0.00000000E+00  0.00000000E+00  0.00000000E+00
  0.00000000E+00  0.00000000E+00  0.00000000E+00
  0.00000000E+00  0.00000000E+00  0.00000000E+00
  0.00000000E+00  0.00000000E+00  0.00000000E+00
  0.00000000E+00  0.00000000E+00  0.00000000E+00
  0.00000000E+00  0.00000000E+00  0.00000000E+00
  0.00000000E+00  0.00000000E+00  0.00000000E+00
  0.00000000E+00  0.00000000E+00  0.00000000E+00
  0.00000000E+00  0.00000000E+00  0.00000000E+00
  0.00000000E+00  0.00000000E+00  0.00000000E+00
  0.00000000E+00  0.00000000E+00  0.00000000E+00
  0.00000000E+00  0.00000000E+00  0.00000000E+00
  0.00000000E+00  0.00000000E+00  0.00000000E+00
  0.00000000E+00  0.00000000E+00  0.00000000E+00
  0.00000000E+00  0.00000000E+00  0.00000000E+00
  0.00000000E+00  0.00000000E+00  0.00000000E+00
  0.00000000E+00  0.00000000E+00  0.00000000E+00
  0.00000000E+00  0.00000000E+00  0.00000000E+00
  0.00000000E+00  0.00000000E+00  0.00000000E+00
  0.00000000E+00  0.00000000E+00  0.00000000E+00
  0.00000000E+00  0.00000000E+00  0.00000000E+00
  0.00000000E+00  0.00000000E+00  0.00000000E+00
  0.00000000E+00  0.00000000E+00  0.00000000E+00
  0.00000000E+00  0.00000000E+00  0.00000000E+00
  0.00000000E+00  0.00000000E+00  0.00000000E+00
  0.00000000E+00  0.00000000E+00  0.00000000E+00
  0.00000000E+00  0.00000000E+00  0.00000000E+00
  0.00000000E+00  0.00000000E+00  0.00000000E+00
  0.00000000E+00  0.00000000E+00  0.00000000E+00
  0.00000000E+00  0.00000000E+00  0.00000000E+00
  0.00000000E+00  0.00000000E+00  0.00000000E+00
