Mo  S Cu                                
   1.00000000000000     
    15.9214998300000001    0.0000000000000000    0.0000000000000000
    -7.9622501300000001   13.7910221699999997    0.0000000000000000
     0.0000000000000000    0.0000000000000000   13.5821998300000004
   Mo   S    Ru
    25    50     4
Direct
  0.1322256327987787  0.0643511851143828  0.6803273296890495
  0.1331848440597483  0.2652223321438782  0.6814372360334104
  0.1327649795028947  0.4656448400039324  0.6833402572922935
  0.1324588634599024  0.6652506804159302  0.6783347293513700
  0.1323874768476259  0.8649442818428668  0.6764155553422455
  0.3324056528696460  0.0651594065015146  0.6792720043988680
  0.3314642677961288  0.2643091348356208  0.6786516064457047
  0.3350956400106710  0.4700729759309681  0.6776953963815942
  0.3325635249110519  0.6662033289714770  0.6767698983196198
  0.3322271991473045  0.8649583496321682  0.6764260259324075
  0.5318103127960470  0.0643677321580682  0.6803728636598549
  0.5325022532254167  0.2643259992634839  0.6787013831857323
  0.5337430872882649  0.4678427332484247  0.6781680509063079
  0.5336476901373217  0.6671132175279197  0.6745920561573229
  0.5326533276077754  0.8657720511699267  0.6757195871020656
  0.7336061302417036  0.0661011865795444  0.6798904767336325
  0.7317020854338807  0.2652329560590303  0.6815235461193438
  0.7346422030643964  0.4700656830224759  0.6777566519818734
  0.7331190124452007  0.6670961233152113  0.6746203986700650
  0.7329603840004566  0.8662492714510890  0.6748611436152601
  0.9321655256250736  0.0660903768795862  0.6798672303226780
  0.9315303872972152  0.2633885496712480  0.6840581849646270
  0.9325502870697591  0.4656353749907254  0.6833687549155059
  0.9332942926877124  0.6661829422973682  0.6768024584777379
  0.9327704223991446  0.8657408822213171  0.6757240416902306
  0.0672360874033870  0.1337388889548663  0.5668617450383806
  0.0634527834720515  0.1252690393140412  0.8021033617121773
  0.0653380438841040  0.3312790999386124  0.5696779472581426
  0.0667051101271525  0.3310969402840698  0.8018246701638532
  0.0645476064417139  0.5294365311302300  0.5667841383779688
  0.0670210849777462  0.5343424151184806  0.7967984019370107
  0.0663365911366540  0.7313816354431566  0.5616531979997674
  0.0659724159907000  0.7327199096616681  0.7922724493984532
  0.0668032317710896  0.9332951234625924  0.5615296187528784
  0.0642163587094373  0.9289211213038726  0.7923033035541778
  0.2654407380559078  0.1320732916389744  0.5652377800777515
  0.2623629738755895  0.1246509486322225  0.8011929366312174
  0.2652577077523475  0.3323911006995175  0.5666407513061813
  0.2759388875346076  0.3459771019697371  0.7992789470406905
  0.2628671784611356  0.5314324904945025  0.5634727874256242
  0.2684751594344803  0.5356369204928129  0.7945365777151778
  0.2647137093089071  0.7314125830675806  0.5616475863275170
  0.2664293821649935  0.7327263006706204  0.7922638524019874
  0.2663056258484602  0.9329375325571547  0.5617954889910237
  0.2646943197637484  0.9297360085144675  0.7920707184513631
  0.4663265126981671  0.1320987415317063  0.5652808520545989
  0.4619344432556858  0.1246633346649446  0.8012211148780182
  0.4654687055572779  0.3312590247438152  0.5656847377339034
  0.4670339026932666  0.3344520902438077  0.7961136861906013
  0.4666551905415020  0.5325759304108786  0.5605500464854316
  0.4689946627602168  0.5367522971892811  0.7920277743042945
  0.4652676074794968  0.7326560254293426  0.5601768770097806
  0.4669362847174838  0.7330008800087597  0.7904599508378709
  0.4661759718421123  0.9333447112437980  0.5615534226382124
  0.4643826683407966  0.9289237988942460  0.7923245388165370
  0.6661882239158743  0.1337688969041935  0.5669143616053702
  0.6615090882417149  0.1252810732259917  0.8021482278673631
  0.6668044261908577  0.3323965058364635  0.5667068517010847
  0.6696997370534632  0.3459725525273427  0.7993582635477452
  0.6655981493767200  0.5325595803371286  0.5605860432576648
  0.6673896991261188  0.5367373768101515  0.7920632725468053
  0.6666571359903770  0.7336182556443305  0.5588543184850607
  0.6666687535485565  0.7336828166602487  0.7896048024085189
  0.6670003614413531  0.9350039405994295  0.5614175711503933
  0.6653529381925907  0.9303812878861208  0.7914952074799473
  0.8669491326264946  0.1342207576436394  0.5656805185307050
  0.8647721211933899  0.1298388698075996  0.7975521318479721
  0.8655834758181911  0.3312665832714288  0.5697214644015389
  0.8640905693088925  0.3310972876774656  0.8018669464766859
  0.8682182659861724  0.5314057173422668  0.5635209189463666
  0.8668482866232381  0.5356311053340193  0.7945837209890954
  0.8670378607300862  0.7326116529370879  0.5602018269111895
  0.8657183302076845  0.7329834705859213  0.7904872707019877
  0.8676738036689500  0.9349774611945492  0.5614131729147331
  0.8647014098266510  0.9303724226677161  0.7914922321953384
  0.3269427444296014  0.2629779643715224  0.8855318606447327
  0.5356658572814794  0.2629948213290234  0.8855753849096502
  0.7153780470509687  0.2634174324066976  0.8862940132678077
  0.1477016451590742  0.2634115070817629  0.8862226599611844
 
  0.00000000E+00  0.00000000E+00  0.00000000E+00
  0.00000000E+00  0.00000000E+00  0.00000000E+00
  0.00000000E+00  0.00000000E+00  0.00000000E+00
  0.00000000E+00  0.00000000E+00  0.00000000E+00
  0.00000000E+00  0.00000000E+00  0.00000000E+00
  0.00000000E+00  0.00000000E+00  0.00000000E+00
  0.00000000E+00  0.00000000E+00  0.00000000E+00
  0.00000000E+00  0.00000000E+00  0.00000000E+00
  0.00000000E+00  0.00000000E+00  0.00000000E+00
  0.00000000E+00  0.00000000E+00  0.00000000E+00
  0.00000000E+00  0.00000000E+00  0.00000000E+00
  0.00000000E+00  0.00000000E+00  0.00000000E+00
  0.00000000E+00  0.00000000E+00  0.00000000E+00
  0.00000000E+00  0.00000000E+00  0.00000000E+00
  0.00000000E+00  0.00000000E+00  0.00000000E+00
  0.00000000E+00  0.00000000E+00  0.00000000E+00
  0.00000000E+00  0.00000000E+00  0.00000000E+00
  0.00000000E+00  0.00000000E+00  0.00000000E+00
  0.00000000E+00  0.00000000E+00  0.00000000E+00
  0.00000000E+00  0.00000000E+00  0.00000000E+00
  0.00000000E+00  0.00000000E+00  0.00000000E+00
  0.00000000E+00  0.00000000E+00  0.00000000E+00
  0.00000000E+00  0.00000000E+00  0.00000000E+00
  0.00000000E+00  0.00000000E+00  0.00000000E+00
  0.00000000E+00  0.00000000E+00  0.00000000E+00
  0.00000000E+00  0.00000000E+00  0.00000000E+00
  0.00000000E+00  0.00000000E+00  0.00000000E+00
  0.00000000E+00  0.00000000E+00  0.00000000E+00
  0.00000000E+00  0.00000000E+00  0.00000000E+00
  0.00000000E+00  0.00000000E+00  0.00000000E+00
  0.00000000E+00  0.00000000E+00  0.00000000E+00
  0.00000000E+00  0.00000000E+00  0.00000000E+00
  0.00000000E+00  0.00000000E+00  0.00000000E+00
  0.00000000E+00  0.00000000E+00  0.00000000E+00
  0.00000000E+00  0.00000000E+00  0.00000000E+00
  0.00000000E+00  0.00000000E+00  0.00000000E+00
  0.00000000E+00  0.00000000E+00  0.00000000E+00
  0.00000000E+00  0.00000000E+00  0.00000000E+00
  0.00000000E+00  0.00000000E+00  0.00000000E+00
  0.00000000E+00  0.00000000E+00  0.00000000E+00
  0.00000000E+00  0.00000000E+00  0.00000000E+00
  0.00000000E+00  0.00000000E+00  0.00000000E+00
  0.00000000E+00  0.00000000E+00  0.00000000E+00
  0.00000000E+00  0.00000000E+00  0.00000000E+00
  0.00000000E+00  0.00000000E+00  0.00000000E+00
  0.00000000E+00  0.00000000E+00  0.00000000E+00
  0.00000000E+00  0.00000000E+00  0.00000000E+00
  0.00000000E+00  0.00000000E+00  0.00000000E+00
  0.00000000E+00  0.00000000E+00  0.00000000E+00
  0.00000000E+00  0.00000000E+00  0.00000000E+00
  0.00000000E+00  0.00000000E+00  0.00000000E+00
  0.00000000E+00  0.00000000E+00  0.00000000E+00
  0.00000000E+00  0.00000000E+00  0.00000000E+00
  0.00000000E+00  0.00000000E+00  0.00000000E+00
  0.00000000E+00  0.00000000E+00  0.00000000E+00
  0.00000000E+00  0.00000000E+00  0.00000000E+00
  0.00000000E+00  0.00000000E+00  0.00000000E+00
  0.00000000E+00  0.00000000E+00  0.00000000E+00
  0.00000000E+00  0.00000000E+00  0.00000000E+00
  0.00000000E+00  0.00000000E+00  0.00000000E+00
  0.00000000E+00  0.00000000E+00  0.00000000E+00
  0.00000000E+00  0.00000000E+00  0.00000000E+00
  0.00000000E+00  0.00000000E+00  0.00000000E+00
  0.00000000E+00  0.00000000E+00  0.00000000E+00
  0.00000000E+00  0.00000000E+00  0.00000000E+00
  0.00000000E+00  0.00000000E+00  0.00000000E+00
  0.00000000E+00  0.00000000E+00  0.00000000E+00
  0.00000000E+00  0.00000000E+00  0.00000000E+00
  0.00000000E+00  0.00000000E+00  0.00000000E+00
  0.00000000E+00  0.00000000E+00  0.00000000E+00
  0.00000000E+00  0.00000000E+00  0.00000000E+00
  0.00000000E+00  0.00000000E+00  0.00000000E+00
  0.00000000E+00  0.00000000E+00  0.00000000E+00
  0.00000000E+00  0.00000000E+00  0.00000000E+00
  0.00000000E+00  0.00000000E+00  0.00000000E+00
  0.00000000E+00  0.00000000E+00  0.00000000E+00
  0.00000000E+00  0.00000000E+00  0.00000000E+00
  0.00000000E+00  0.00000000E+00  0.00000000E+00
  0.00000000E+00  0.00000000E+00  0.00000000E+00
