Ta  N Ru Cu 
 1.0000000000000000
    18.1096308199999996    0.0000000000000000    0.0000000000000000
     0.0000000000000000   23.3551997799999995    0.0000000000000000
     0.0000000000000000    0.0000000000000000   30.4818171199999988
 216 240  24  29
Selective dynamics
Cartesian
  18.091734    0.017175   5.932538  F  F  F
   5.939211    1.410000   6.126756  F  F  F
   3.067504    1.411817   6.128839  F  F  F
   4.502516    2.917546   8.512837  F  F  F
   1.478179    1.476058   8.620364  F  F  F
   7.528211    1.474793   8.616349  F  F  F
  18.084849    2.928939  11.243126  F  F  F
   5.999467    1.469178  11.208587  F  F  F
   3.002884    1.469578  11.211767  F  F  F
   4.510422    2.909720  13.851137  F  F  F
   1.479422    1.458889  13.824429  F  F  F
   7.518855    1.461394  13.816974  F  F  F
  18.073073    2.944350   5.979286  F  F  F
   6.075122    4.398706   6.163207  F  F  F
   2.933857    4.401103   6.168059  F  F  F
   4.501925    5.865560   8.511562  F  F  F
   1.473314    4.390189   8.650137  F  F  F
   7.540445    4.387722   8.639059  F  F  F
  18.082196    5.850558  11.271029  F  F  F
   5.999345    4.388361  11.219944  F  F  F
   3.008729    4.389840  11.233139  F  F  F
   4.515981    5.782433  13.865189  F  F  F
   1.478743    4.368388  13.836429  F  F  F
   7.525204    4.371642  13.833455  F  F  F
   6.064654    4.302581  16.498632  F  F  F
   0.001551    5.835327   5.977366  F  F  F
   5.935167    7.384837   6.143364  F  F  F
   3.071402    7.387907   6.151592  F  F  F
   4.499874    8.764535   8.585402  F  F  F
   1.481247    7.308198   8.659752  F  F  F
   7.533505    7.306449   8.639601  F  F  F
  18.082221    8.767769  11.286405  F  F  F
   6.010498    7.307905  11.232215  F  F  F
   2.996351    7.307774  11.263833  F  F  F
   4.503298    8.743928  13.863533  F  F  F
   1.498084    7.297800  13.910511  F  F  F
   7.536155    7.296600  13.878417  F  F  F
  18.080396    8.778596   5.987951  F  F  F
   5.943028   10.158146   6.155000  F  F  F
   3.058364   10.157350   6.165015  F  F  F
   4.502301    0.019092   8.537735  F  F  F
   1.475688   10.231499   8.660915  F  F  F
   7.536467   10.232200   8.634856  F  F  F
  18.081717    0.010760  11.222097  F  F  F
   6.008012   10.227769  11.235131  F  F  F
   2.997545   10.224605  11.262581  F  F  F
   4.499775    0.001420  13.842185  F  F  F
   1.509224   10.234570  13.914519  F  F  F
   7.531953   10.224419  13.870368  F  F  F
   6.179901   10.244999  16.517593  F  F  F
   0.024739   11.680208   5.995654  F  F  F
   5.943570   13.211393   6.149436  F  F  F
   3.061648   13.211052   6.155829  F  F  F
   4.504704   14.608357   8.563452  F  F  F
   1.476631   13.141070   8.648741  F  F  F
   7.534342   13.141599   8.634011  F  F  F
  18.077396   14.617624  11.257149  F  F  F
   6.004678   13.149523  11.235370  F  F  F
   3.003382   13.148822  11.247274  F  F  F
   4.507938   14.613659  13.852323  F  F  F
   1.489586   13.148150  13.859448  F  F  F
   7.538061   13.156018  13.850216  F  F  F
  18.078134   14.588672   5.971562  F  F  F
   5.935112   15.985694   6.129133  F  F  F
   3.070766   15.983172   6.135701  F  F  F
   4.503711   17.512236   8.489985  F  F  F
   1.479519   16.067359   8.636249  F  F  F
   7.527886   16.068998   8.629767  F  F  F
  18.073034   17.527136  11.238567  F  F  F
   6.007999   16.073484  11.223907  F  F  F
   2.999923   16.072712  11.223408  F  F  F
   4.486251   17.580306  13.862029  F  F  F
   1.504806   16.083046  13.853715  F  F  F
   7.531085   16.087310  13.857274  F  F  F
   6.033858   16.142804  16.506115  F  F  F
  18.108364   17.543336   5.954643  F  F  F
   6.071173   18.979509   6.153367  F  F  F
   2.932163   18.978915   6.154860  F  F  F
   4.502392   20.463245   8.497961  F  F  F
   1.472012   18.988753   8.628856  F  F  F
   7.532505   18.988369   8.629446  F  F  F
  18.078271   20.452344  11.224142  F  F  F
   5.995432   18.989745  11.214329  F  F  F
   3.005514   18.988646  11.210498  F  F  F
   4.494684   20.454334  13.838824  F  F  F
   1.458566   19.007109  13.806472  F  F  F
   7.509579   19.004051  13.841949  F  F  F
  18.071928   20.438392   5.965901  F  F  F
   5.942370   21.970396   6.117317  F  F  F
   3.063317   21.971829   6.118580  F  F  F
   4.503582   11.681639   8.573763  F  F  F
   1.475523   21.904376   8.612896  F  F  F
   7.527805   21.903542   8.613270  F  F  F
  18.085534   11.687885  11.280353  F  F  F
   5.998647   21.908430  11.204550  F  F  F
   3.002514   21.908697  11.202641  F  F  F
   4.492185   11.731228  13.871252  F  F  F
   1.479438   21.909326  13.802568  F  F  F
   7.508500   21.914590  13.809751  F  F  F
   6.013461   21.916312  16.449995  F  F  F
   2.927620   21.887787  16.446747  F  F  F
   9.025656    0.014243   5.932405  F  F  F
  14.997971    1.398215   6.141298  F  F  F
  12.121787    1.398925   6.139957  F  F  F
  13.562966    2.931767   8.546448  F  F  F
  10.528997    1.476002   8.614687  F  F  F
  16.589549    1.476636   8.616181  F  F  F
   9.031456    2.929717  11.235050  F  F  F
  15.058253    1.471378  11.208969  F  F  F
  12.056135    1.472410  11.207248  F  F  F
  13.562037    2.918752  13.846161  F  F  F
  10.534481    1.467484  13.823024  F  F  F
  16.572184    1.462438  13.824954  F  F  F
   9.049307    2.940051   5.973564  F  F  F
  15.011244    4.466013   6.155268  F  F  F
  12.111400    4.461677   6.144004  F  F  F
  13.569344    5.857009   8.574207  F  F  F
  10.528170    4.386820   8.629063  F  F  F
  16.597236    4.386735   8.637629  F  F  F
   9.030952    5.851471  11.253689  F  F  F
  15.064008    4.388713  11.231072  F  F  F
  12.064413    4.389293  11.225973  F  F  F
  13.567201    5.796982  13.870292  F  F  F
  10.533941    4.371054  13.827287  F  F  F
  16.573015    4.381123  13.844912  F  F  F
  15.120347    4.311739  16.496469  F  F  F
   9.015174    5.831648   5.967201  F  F  F
  14.998865    7.226570   6.148173  F  F  F
  12.133574    7.228001   6.142277  F  F  F
  13.571550    8.746077   8.523196  F  F  F
  10.535845    7.307983   8.638528  F  F  F
  16.594040    7.310493   8.650209  F  F  F
   9.027695    8.761484  11.255967  F  F  F
  15.071717    7.306173  11.242300  F  F  F
  12.070606    7.302522  11.228552  F  F  F
  13.571129    8.784636  13.873776  F  F  F
  10.597898    7.302404  13.879663  F  F  F
  16.595351    7.310789  13.909938  F  F  F
   9.046025    8.777412   5.975432  F  F  F
  15.112110   10.248349   6.182999  F  F  F
  12.021930   10.244375   6.174868  F  F  F
  13.558192    0.016466   8.541250  F  F  F
  10.528810   10.224731   8.645169  F  F  F
  16.601958   10.224943   8.662626  F  F  F
   9.028876    0.011272  11.221831  F  F  F
  15.068860   10.227264  11.240330  F  F  F
  12.083445   10.227392  11.211180  F  F  F
  13.548529    0.010852  13.842038  F  F  F
  10.555382   10.232446  13.775465  F  F  F
  16.589072   10.223432  13.893827  F  F  F
  15.060799   10.258313  16.562012  F  F  F
   8.989931   11.682278   5.983865  F  F  F
  15.105953   13.121042   6.178216  F  F  F
  12.022428   13.123121   6.170938  F  F  F
  13.566009   14.628986   8.501557  F  F  F
  10.526557   13.150264   8.635684  F  F  F
  16.599607   13.149260   8.647208  F  F  F
   9.022734   14.618403  11.239301  F  F  F
  15.067939   13.155306  11.217734  F  F  F
  12.071167   13.158575  11.195150  F  F  F
  13.571574   14.614498  13.829153  F  F  F
  10.562073   13.152579  13.810722  F  F  F
  16.570953   13.151822  13.874729  F  F  F
   9.041437   14.591462   5.964640  F  F  F
  14.994827   16.149668   6.127930  F  F  F
  12.126156   16.148013   6.128126  F  F  F
  13.558762   17.529904   8.553010  F  F  F
  10.530625   16.069251   8.623062  F  F  F
  16.587678   16.066973   8.626297  F  F  F
   9.023190   17.529077  11.239320  F  F  F
  15.062465   16.077989  11.214965  F  F  F
  12.054856   16.078698  11.214160  F  F  F
  13.540214   17.582150  13.850794  F  F  F
  10.564780   16.090312  13.851839  F  F  F
  16.565675   16.083351  13.867143  F  F  F
  15.133339   16.142513  16.559757  F  F  F
   9.008184   17.544311   5.955970  F  F  F
  15.005635   18.913771   6.138917  F  F  F
  12.109170   18.916003   6.135121  F  F  F
  13.555800   20.449276   8.532740  F  F  F
  10.523594   18.993394   8.617665  F  F  F
  16.590456   18.993218   8.615935  F  F  F
   9.025955   20.452855  11.227560  F  F  F
  15.051690   18.993833  11.211380  F  F  F
  12.052618   18.995204  11.215399  F  F  F
  13.544071   20.467024  13.837273  F  F  F
  10.514433   19.012968  13.817859  F  F  F
  16.559110   19.003513  13.826811  F  F  F
   9.044276   20.435821   5.966001  F  F  F
  14.996317   21.985582   6.135412  F  F  F
  12.116600   21.984626   6.132101  F  F  F
  13.572104   11.689172   8.482514  F  F  F
  10.525895   21.904169   8.611091  F  F  F
  16.588345   21.904236   8.610444  F  F  F
   9.025017   11.693800  11.248817  F  F  F
  15.053497   21.911735  11.202162  F  F  F
  12.053082   21.913046  11.203577  F  F  F
  13.588785   11.686320  13.831924  F  F  F
  10.534356   21.919157  13.813659  F  F  F
  16.561061   21.912814  13.809045  F  F  F
  15.082215   21.921608  16.459528  F  F  F
  12.005247   21.910955  16.452410  F  F  F
   6.058840    1.426605  16.487557  F  F  F
   2.945543    1.419785  16.469736  F  F  F
   6.112717    7.227243  16.565379  F  F  F
   5.960467   13.237635  16.513475  F  F  F
   6.035026   19.033391  16.522102  F  F  F
  15.107958    1.435212  16.489436  F  F  F
  12.002616    1.461847  16.478568  F  F  F
  15.210949    7.264758  16.580294  F  F  F
  15.210618   13.197946  16.582503  F  F  F
  15.092033   19.049409  16.497828  F  F  F
   3.013354    4.355989  16.486302  F  F  F
  12.055746    4.373474  16.480469  F  F  F
   2.962791   18.950938  16.476518  F  F  F
  11.984261   18.979476  16.503515  F  F  F
   7.319011    0.011229   7.040899  F  F  F
   4.502689    0.012160   5.364491  F  F  F
   1.687052    0.014391   7.042540  F  F  F
   2.758942    2.930721   9.622698  F  F  F
  18.089071    2.929757   9.205951  F  F  F
   6.248831    2.928682   9.616141  F  F  F
   7.246940    2.927092  12.244075  F  F  F
   4.503032    2.924069  11.785301  F  F  F
   1.757636    2.925256  12.251837  F  F  F
   2.720760    2.911256  14.851997  F  F  F
  18.079675    2.918157  14.431141  F  F  F
   6.295271    2.896061  14.845701  F  F  F
   7.325307    2.863030  17.304783  F  F  F
   4.508776    2.884342  16.985151  F  F  F
   1.630348    2.833938  17.289094  F  F  F
   7.328612    2.920666   7.045374  F  F  F
   4.504340    2.954735   6.315293  F  F  F
   1.682320    2.924069   7.052766  F  F  F
   2.765965    5.854021   9.643540  F  F  F
  18.089499    5.852326   9.227007  F  F  F
   6.246350    5.851008   9.626339  F  F  F
   7.248417    5.846573  12.268031  F  F  F
   4.509607    5.846056  11.802367  F  F  F
   1.749199    5.853375  12.283015  F  F  F
   2.735065    5.763603  14.839733  F  F  F
  18.096438    5.812002  14.492501  F  F  F
   6.319320    5.803595  14.897579  F  F  F
   7.269715    5.731060  17.470519  F  F  F
   4.549338    5.744121  17.034997  F  F  F
   1.540985    5.346510  17.482526  F  F  F
   7.329857    5.860262   7.065568  F  F  F
   4.503957    5.837442   6.271470  F  F  F
   1.683927    5.863926   7.080802  F  F  F
   2.739376    8.766572   9.667367  F  F  F
  18.090223    8.766458   9.239511  F  F  F
   6.269200    8.767908   9.645365  F  F  F
   7.244975    8.760355  12.275579  F  F  F
   4.511525    8.764225  11.804792  F  F  F
   1.742065    8.760733  12.304435  F  F  F
   2.727233    8.745153  14.800455  F  F  F
  18.106052    8.778524  14.567814  F  F  F
   6.302125    8.735601  14.894441  F  F  F
   7.264843    8.726954  17.418452  F  F  F
   4.611773    8.707817  17.202021  F  F  F
   1.063631    8.791048  18.192825  F  F  F
   7.326431    8.766975   7.066286  F  F  F
   4.502549    8.778050   5.380547  F  F  F
   1.685317    8.767335   7.087859  F  F  F
   2.740345    0.012346   9.616077  F  F  F
  18.086923    0.012119   9.180944  F  F  F
   6.264167    0.011698   9.614882  F  F  F
   7.246150    0.012580  12.235434  F  F  F
   4.501336    0.010595  11.777222  F  F  F
   1.754415    0.012443  12.232961  F  F  F
   2.710206   23.352804  14.833145  F  F  F
  18.079541   23.351869  14.407595  F  F  F
   6.283846    0.007418  14.839346  F  F  F
   7.321507   23.312702  17.301200  F  F  F
   4.479193   23.350216  16.979466  F  F  F
   1.645347   23.326876  17.283621  F  F  F
   7.296265   11.685442   7.051231  F  F  F
   4.502980   11.682490   6.459405  F  F  F
   1.716266   11.682958   7.071195  F  F  F
   2.745613   14.606214   9.642657  F  F  F
  18.088288   14.609319   9.214638  F  F  F
   6.265534   14.608371   9.636582  F  F  F
   7.246868   14.620203  12.261814  F  F  F
   4.507550   14.621859  11.794527  F  F  F
   1.750080   14.629582  12.255474  F  F  F
   2.722735   14.579709  14.775818  F  F  F
  18.084058   14.643795  14.392818  F  F  F
   6.315340   14.634593  14.864115  F  F  F
   7.192170   14.690422  17.452629  F  F  F
   4.587045   14.684793  16.942172  F  F  F
   1.515890   15.160870  17.075471  F  F  F
   7.322097   14.605333   7.058184  F  F  F
   4.501949   14.587349   5.367001  F  F  F
   1.685192   14.603091   7.069064  F  F  F
   2.764997   17.525354   9.615792  F  F  F
  18.083911   17.527964   9.198405  F  F  F
   6.241928   17.525999   9.616175  F  F  F
   7.243936   17.540953  12.261083  F  F  F
   4.503254   17.529941  11.793825  F  F  F
   1.747132   17.526820  12.244888  F  F  F
   2.692628   17.608307  14.824335  F  F  F
  18.071774   17.565138  14.439285  F  F  F
   6.284365   17.575232  14.872656  F  F  F
   7.213548   17.620347  17.472093  F  F  F
   4.482933   17.615716  17.024653  F  F  F
   1.324394   17.901321  17.364967  F  F  F
   7.323613   17.514654   7.055308  F  F  F
   4.502276   17.536800   6.246682  F  F  F
   1.680733   17.511789   7.057461  F  F  F
   2.758825   20.450889   9.606936  F  F  F
  18.085483   20.447871   9.188973  F  F  F
   6.243961   20.450970   9.608871  F  F  F
   7.241550   20.446718  12.239910  F  F  F
   4.500446   20.451418  11.773179  F  F  F
   1.753139   20.448998  12.227547  F  F  F
   2.704521   20.434971  14.828823  F  F  F
  18.072305   20.476331  14.392006  F  F  F
   6.281349   20.459633  14.843336  F  F  F
   7.307203   20.515561  17.325698  F  F  F
   4.463519   20.439898  16.966973  F  F  F
   1.605304   20.461116  17.254852  F  F  F
   7.325204   20.458276   7.039924  F  F  F
   4.501845   20.428310   6.297128  F  F  F
   1.681039   20.459881   7.040266  F  F  F
   2.742726   11.685478   9.655808  F  F  F
  18.087588   11.688389   9.238597  F  F  F
   6.268083   11.686568   9.639452  F  F  F
   7.241815   11.689743  12.268881  F  F  F
   4.507530   11.684694  11.805608  F  F  F
   1.757545   11.675130  12.287676  F  F  F
   2.733786   11.730717  14.869695  F  F  F
  18.093444   11.688338  14.474635  F  F  F
   6.300428   11.732028  14.890968  F  F  F
   7.278760   11.780899  17.474269  F  F  F
   4.675341   11.619108  17.083428  F  F  F
   1.279605   12.196882  17.773045  F  F  F
  16.384241    0.014172   7.039052  F  F  F
  13.558295    0.014554   5.371847  F  F  F
  10.733307    0.013553   7.038948  F  F  F
  11.799643    2.935313   9.619994  F  F  F
   9.029921    2.929663   9.198545  F  F  F
  15.322745    2.934938   9.624388  F  F  F
  16.301666    2.926336  12.253816  F  F  F
  13.561337    2.926002  11.783133  F  F  F
  10.813169    2.925836  12.243908  F  F  F
  11.778531    2.921104  14.839728  F  F  F
   9.027678    2.922538  14.415303  F  F  F
  15.344924    2.903616  14.850532  F  F  F
  16.358420    2.870091  17.329911  F  F  F
  13.545931    2.905227  16.989806  F  F  F
  10.719457    2.967322  17.263880  F  F  F
  16.365075    2.938760   7.042715  F  F  F
  13.561756    2.937416   6.416843  F  F  F
  10.757709    2.935730   7.038823  F  F  F
  11.799105    5.844077   9.635631  F  F  F
   9.034025    5.850988   9.211216  F  F  F
  15.332906    5.848358   9.648188  F  F  F
  16.305682    5.856126  12.290101  F  F  F
  13.569871    5.849310  11.802511  F  F  F
  10.815062    5.855644  12.260025  F  F  F
  11.779924    5.744480  14.830618  F  F  F
   9.047038    5.828662  14.451373  F  F  F
  15.356488    5.817653  14.897980  F  F  F
  16.395767    5.715619  17.386857  F  F  F
  13.620131    5.783127  17.164214  F  F  F
  10.585188    5.629378  17.388119  F  F  F
  16.389355    5.856444   7.065539  F  F  F
  13.563163    5.840732   5.378405  F  F  F
  10.740138    5.853367   7.053847  F  F  F
  11.822358    8.763454   9.622770  F  F  F
   9.032561    8.766369   9.215767  F  F  F
  15.315578    8.764522   9.642727  F  F  F
  16.304267    8.767622  12.308090  F  F  F
  13.574443    8.760050  11.803491  F  F  F
  10.823154    8.744675  12.239148  F  F  F
  11.791687    8.824731  14.814778  F  F  F
   9.055166    8.750781  14.381814  F  F  F
  15.364736    8.780127  14.927256  F  F  F
  16.272225    8.824368  17.512009  F  F  F
  13.678011    8.698563  17.015246  F  F  F
  10.572363    8.781597  17.347225  F  F  F
  16.390159    8.759362   7.078254  F  F  F
  13.566732    8.761214   6.325357  F  F  F
  10.737852    8.758095   7.063293  F  F  F
  11.791738    0.013393   9.615299  F  F  F
   9.027599    0.012475   9.179504  F  F  F
  15.323206    0.013383   9.614748  F  F  F
  16.299303    0.014937  12.237194  F  F  F
  13.554745    0.013634  11.776412  F  F  F
  10.808213    0.017371  12.237924  F  F  F
  11.764187    0.020067  14.842761  F  F  F
   9.024625   23.350103  14.428485  F  F  F
  15.334506    0.013836  14.836314  F  F  F
  16.379894   23.346107  17.299240  F  F  F
  13.538915    0.017234  16.985678  F  F  F
  10.706219    0.000948  17.288875  F  F  F
  16.419137   11.682944   7.071719  F  F  F
  13.563257   11.682268   6.052498  F  F  F
  10.711874   11.683388   7.055944  F  F  F
  11.818522   14.617713   9.607790  F  F  F
   9.028505   14.610396   9.199592  F  F  F
  15.308332   14.614164   9.618745  F  F  F
  16.290446   14.616795  12.265776  F  F  F
  13.567465   14.617401  11.771608  F  F  F
  10.811665   14.619614  12.226862  F  F  F
  11.793878   14.598464  14.712469  F  F  F
   9.054263   14.629635  14.378420  F  F  F
  15.348455   14.623689  14.871766  F  F  F
  16.281236   14.715280  17.416469  F  F  F
  13.532298   14.612302  16.951392  F  F  F
  10.657321   14.961271  16.968796  F  F  F
  16.388389   14.613391   7.059395  F  F  F
  13.562346   14.613458   6.298227  F  F  F
  10.734124   14.616460   7.050948  F  F  F
  11.791458   17.535054   9.622121  F  F  F
   9.028653   17.528203   9.197059  F  F  F
  15.322758   17.534250   9.622664  F  F  F
  16.292572   17.535544  12.256887  F  F  F
  13.555498   17.533934  11.787000  F  F  F
  10.803346   17.530806  12.250434  F  F  F
  11.754388   17.615728  14.818719  F  F  F
   9.029055   17.562321  14.467031  F  F  F
  15.332849   17.568081  14.861986  F  F  F
  16.253682   17.628320  17.397430  F  F  F
  13.520445   17.602497  17.000820  F  F  F
  10.507064   17.767878  17.430033  F  F  F
  16.385267   17.521901   7.041450  F  F  F
  13.558955   17.536444   5.362363  F  F  F
  10.735274   17.523576   7.040149  F  F  F
  11.794367   20.448700   9.612816  F  F  F
   9.025859   20.447906   9.190894  F  F  F
  15.315768   20.448811   9.610312  F  F  F
  16.293414   20.451763  12.235130  F  F  F
  13.551810   20.455911  11.771955  F  F  F
  10.807306   20.457204  12.237022  F  F  F
  11.756977   20.446045  14.839766  F  F  F
   9.019608   20.486101  14.423468  F  F  F
  15.328704   20.467481  14.833991  F  F  F
  16.336938   20.517834  17.320744  F  F  F
  13.523084   20.451307  16.975528  F  F  F
  10.713056   20.500972  17.290925  F  F  F
  16.363055   20.445891   7.027774  F  F  F
  13.557353   20.445820   6.403272  F  F  F
  10.753431   20.445344   7.029594  F  F  F
  11.835847   11.689534   9.604955  F  F  F
   9.033677   11.687295   9.213052  F  F  F
  15.301563   11.687625   9.627175  F  F  F
  16.300378   11.689939  12.287913  F  F  F
  13.572677   11.700989  11.769809  F  F  F
  10.825808   11.709418  12.211472  F  F  F
  11.817515   11.668490  14.732093  F  F  F
   9.050733   11.706174  14.367981  F  F  F
  15.347214   11.682076  14.907985  F  F  F
  16.321483   11.686496  17.435481  F  F  F
  13.703970   11.758851  17.174183  F  F  F
  10.730877   12.015092  17.070423  F  F  F
  18.026352   20.562838  16.414471  F  F  F
   8.998653   20.627596  16.462708  F  F  F
  18.067235   23.241032  16.429117  F  F  F
   9.018576   23.152993  16.462471  F  F  F
  18.074802    2.952388  16.465807  F  F  F
  18.013895    9.005585  16.697149  F  F  F
   3.546508   10.228985  16.060846  F  F  F
  17.916219   14.940329  16.385934  F  F  F
   3.347418   16.019620  16.133669  F  F  F
   9.019941    3.057027  16.435425  F  F  F
   8.939353    8.767967  16.399653  F  F  F
  11.173720   10.308998  16.357334  F  F  F
   8.932117   14.784318  16.394523  F  F  F
  12.395929   16.070220  16.156433  F  F  F
  18.036104    5.459040  16.513770  F  F  F
   3.481999    7.256841  16.117216  F  F  F
   1.941766   13.437228  16.533054  F  F  F
  17.967665   17.731122  16.492510  F  F  F
  17.971819   11.667686  16.536488  F  F  F
   9.012307    5.680225  16.503069  F  F  F
  12.573083    7.311095  16.056332  F  F  F
  12.509117   13.100801  16.204757  F  F  F
   8.939913   17.654696  16.501141  F  F  F
   8.946285   11.889393  16.388559  F  F  F
   7.958626    9.134772  19.154098  T  T  T
  10.372558    9.936541  18.907209  T  T  T
   9.109264   10.249608  21.050080  T  T  T
  10.681651    8.880607  22.399758  T  T  T
  15.319363    8.397960  19.122833  T  T  T
   2.994303    8.974825  18.355691  T  T  T
  10.648916   13.514557  18.280041  T  T  T
   1.076170   10.571659  18.638967  T  T  T
   9.298541    7.838523  20.669786  T  T  T
  10.479223    7.169569  18.487200  T  T  T
   7.999784    6.665198  18.953749  T  T  T
   8.247337   11.765259  19.232768  T  T  T
   6.602636   10.388098  20.723472  T  T  T
  13.820615    8.422610  20.971888  T  T  T
   1.406165    7.045077  18.026651  T  T  T
   3.168191   11.734317  18.283526  T  T  T
  12.938063    9.091009  18.769560  T  T  T
   4.022681   10.454135  20.236792  T  T  T
   5.461016    8.973555  19.019848  T  T  T
  13.348368    6.674798  18.910209  T  T  T
  11.667946    7.609594  20.530437  T  T  T
   5.648178   11.689488  18.954436  T  T  T
  12.512073   11.535307  18.703853  T  T  T
  11.924695   10.136737  20.761725  T  T  T
   6.926558   13.857650  19.189632  T  T  T
   9.190699   14.352392  19.963869  T  T  T
  10.489972   12.101913  20.220822  T  T  T
   7.871589   16.179707  18.694316  T  T  T
  10.348193   16.142766  18.470965  T  T  T
