Mo  S Co                                
   1.00000000000000     
    15.9215000000000000    0.0000000000000000    0.0000000000000000
    -7.9622500000000000   13.7910219999999999    0.0000000000000000
     0.0000000000000000    0.0000000000000000   13.5822000000000003
   Mo   S    Co
    25    50     2
Direct
  0.1324386111004685  0.0655532440720847  0.6781021729997718
  0.1301077439880345  0.2645153225364609  0.6776766485613592
  0.1319196940854894  0.4660564559953855  0.6776294969201331
  0.1327407567715326  0.6661661374533310  0.6767568810701761
  0.1328195802436696  0.8659338417467950  0.6771640202705171
  0.3328551154579600  0.0652918352363514  0.6783387023941501
  0.3323539984873065  0.2657272371881518  0.6856938175946397
  0.3290804192716763  0.4646087268469969  0.6882814534681927
  0.3322981241378358  0.6666043457960811  0.6803166061375236
  0.3325484268651735  0.8660314315288531  0.6766795648162756
  0.5327934522142144  0.0653637750219218  0.6754446711118831
  0.5329865507370215  0.2634371222580185  0.6794268717594392
  0.5354732768836925  0.4621429218112780  0.6912035091546613
  0.5335469769929446  0.6694970239368274  0.6880264048458216
  0.5326273726328168  0.8668592731209017  0.6771892972470539
  0.7328731665337642  0.0663714643151749  0.6741000350807269
  0.7332619583236664  0.2653580177721580  0.6747555906457521
  0.7352644210901147  0.4655714215043147  0.6791052697243884
  0.7333761725260928  0.6665973306819026  0.6857104139349630
  0.7340170988622106  0.8684094804830522  0.6775076113965639
  0.9326252491451825  0.0659691570575092  0.6750097722101387
  0.9322965625786352  0.2658123807892778  0.6742668770268736
  0.9334170151612042  0.4659272880419962  0.6754534248073014
  0.9334520478249004  0.6658656134875685  0.6781590239964572
  0.9331335857647076  0.8661830730442972  0.6779133229522003
  0.0671357498515377  0.1325927402803302  0.5613538255655826
  0.0631724669909843  0.1304726812612884  0.7919060482031668
  0.0672061019755716  0.3333977546106297  0.5610928690178412
  0.0625723915587955  0.3316666889255799  0.7914645487923835
  0.0672208457511942  0.5331749066819711  0.5609718309289775
  0.0652278448190486  0.5327440534708145  0.7916746895596845
  0.0657346180429599  0.7327409765043029  0.5619831403816349
  0.0669342521068756  0.7329204994862124  0.7925350897253125
  0.0661060666591666  0.9327293712332789  0.5624127606355174
  0.0662992750987357  0.9323066460774001  0.7927982999941605
  0.2678750989027989  0.1355101915355164  0.5659367703178759
  0.2643793824650515  0.1292652782829578  0.7953345380865144
  0.2685352735157593  0.3342912125815616  0.5700916590228502
  0.2523595487843409  0.3247290221036465  0.8038105746496598
  0.2682584410185029  0.5320663091827527  0.5669450431074665
  0.2610253988770594  0.5338268979905365  0.7969833256383936
  0.2666804795683859  0.7320170683407738  0.5625205765144941
  0.2649862987699265  0.7338426643151479  0.7929827325566023
  0.2660254187829025  0.9331523079678306  0.5620126233489486
  0.2657879883123968  0.9317394801865149  0.7925980124756933
  0.4653460658834376  0.1326198142922053  0.5621918071643535
  0.4664054619186686  0.1292460478672837  0.7929658871231240
  0.4657152804254494  0.3337766560613176  0.5710959318358064
  0.4718712924848703  0.3262316093515096  0.8054981891899473
  0.4671804953945227  0.5307497397114034  0.5810417129879966
  0.4557017926818290  0.5434361613962722  0.8234727737846157
  0.4663641320932186  0.7303579713463293  0.5664616041188921
  0.4650757721973875  0.7381140297931950  0.7967356923268554
  0.4654755981784007  0.9317099410696201  0.5607778572811952
  0.4660364293024770  0.9334804908417240  0.7914840092630229
  0.6655380153700676  0.1323963856347490  0.5590939184549342
  0.6667375774998092  0.1323754590576414  0.7896633145233665
  0.6653148418127159  0.3331486591673283  0.5626692275117620
  0.6687637354839637  0.3299863365449909  0.7925025931467786
  0.6644796727181159  0.5328352326680843  0.5716347213220700
  0.6728633520873686  0.5260853034457043  0.8058005515166187
  0.6642444246297572  0.7298721292231747  0.5700654904280924
  0.6733941360315896  0.7456354185900977  0.8033298011867345
  0.6654126681883454  0.9315227833750725  0.5607786829102679
  0.6669011748362053  0.9359987448697780  0.7911530840134162
  0.8663353668780331  0.1324725244280174  0.5588412466298394
  0.8656767756445873  0.1328588116346054  0.7892807537201421
  0.8663331876629030  0.3331422410570823  0.5591786758989841
  0.8662508311465231  0.3319939284000242  0.7896979906101720
  0.8662254183786686  0.5333154423258506  0.5619924482235135
  0.8694544596182325  0.5323260069265743  0.7927644964332288
  0.8633725424441607  0.7308433695914829  0.5655661555806759
  0.8696843193776758  0.7344633215319476  0.7952799020737658
  0.8659849539272457  0.9314903135019748  0.5612490542733397
  0.8679887780382813  0.9352573626759479  0.7917299688860737
  0.3964562015808824  0.3973625646684837  0.8455738162699689
  0.6013168944023590  0.6009281404520479  0.8435572218674636
 
  0.00000000E+00  0.00000000E+00  0.00000000E+00
  0.00000000E+00  0.00000000E+00  0.00000000E+00
  0.00000000E+00  0.00000000E+00  0.00000000E+00
  0.00000000E+00  0.00000000E+00  0.00000000E+00
  0.00000000E+00  0.00000000E+00  0.00000000E+00
  0.00000000E+00  0.00000000E+00  0.00000000E+00
  0.00000000E+00  0.00000000E+00  0.00000000E+00
  0.00000000E+00  0.00000000E+00  0.00000000E+00
  0.00000000E+00  0.00000000E+00  0.00000000E+00
  0.00000000E+00  0.00000000E+00  0.00000000E+00
  0.00000000E+00  0.00000000E+00  0.00000000E+00
  0.00000000E+00  0.00000000E+00  0.00000000E+00
  0.00000000E+00  0.00000000E+00  0.00000000E+00
  0.00000000E+00  0.00000000E+00  0.00000000E+00
  0.00000000E+00  0.00000000E+00  0.00000000E+00
  0.00000000E+00  0.00000000E+00  0.00000000E+00
  0.00000000E+00  0.00000000E+00  0.00000000E+00
  0.00000000E+00  0.00000000E+00  0.00000000E+00
  0.00000000E+00  0.00000000E+00  0.00000000E+00
  0.00000000E+00  0.00000000E+00  0.00000000E+00
  0.00000000E+00  0.00000000E+00  0.00000000E+00
  0.00000000E+00  0.00000000E+00  0.00000000E+00
  0.00000000E+00  0.00000000E+00  0.00000000E+00
  0.00000000E+00  0.00000000E+00  0.00000000E+00
  0.00000000E+00  0.00000000E+00  0.00000000E+00
  0.00000000E+00  0.00000000E+00  0.00000000E+00
  0.00000000E+00  0.00000000E+00  0.00000000E+00
  0.00000000E+00  0.00000000E+00  0.00000000E+00
  0.00000000E+00  0.00000000E+00  0.00000000E+00
  0.00000000E+00  0.00000000E+00  0.00000000E+00
  0.00000000E+00  0.00000000E+00  0.00000000E+00
  0.00000000E+00  0.00000000E+00  0.00000000E+00
  0.00000000E+00  0.00000000E+00  0.00000000E+00
  0.00000000E+00  0.00000000E+00  0.00000000E+00
  0.00000000E+00  0.00000000E+00  0.00000000E+00
  0.00000000E+00  0.00000000E+00  0.00000000E+00
  0.00000000E+00  0.00000000E+00  0.00000000E+00
  0.00000000E+00  0.00000000E+00  0.00000000E+00
  0.00000000E+00  0.00000000E+00  0.00000000E+00
  0.00000000E+00  0.00000000E+00  0.00000000E+00
  0.00000000E+00  0.00000000E+00  0.00000000E+00
  0.00000000E+00  0.00000000E+00  0.00000000E+00
  0.00000000E+00  0.00000000E+00  0.00000000E+00
  0.00000000E+00  0.00000000E+00  0.00000000E+00
  0.00000000E+00  0.00000000E+00  0.00000000E+00
  0.00000000E+00  0.00000000E+00  0.00000000E+00
  0.00000000E+00  0.00000000E+00  0.00000000E+00
  0.00000000E+00  0.00000000E+00  0.00000000E+00
  0.00000000E+00  0.00000000E+00  0.00000000E+00
  0.00000000E+00  0.00000000E+00  0.00000000E+00
  0.00000000E+00  0.00000000E+00  0.00000000E+00
  0.00000000E+00  0.00000000E+00  0.00000000E+00
  0.00000000E+00  0.00000000E+00  0.00000000E+00
  0.00000000E+00  0.00000000E+00  0.00000000E+00
  0.00000000E+00  0.00000000E+00  0.00000000E+00
  0.00000000E+00  0.00000000E+00  0.00000000E+00
  0.00000000E+00  0.00000000E+00  0.00000000E+00
  0.00000000E+00  0.00000000E+00  0.00000000E+00
  0.00000000E+00  0.00000000E+00  0.00000000E+00
  0.00000000E+00  0.00000000E+00  0.00000000E+00
  0.00000000E+00  0.00000000E+00  0.00000000E+00
  0.00000000E+00  0.00000000E+00  0.00000000E+00
  0.00000000E+00  0.00000000E+00  0.00000000E+00
  0.00000000E+00  0.00000000E+00  0.00000000E+00
  0.00000000E+00  0.00000000E+00  0.00000000E+00
  0.00000000E+00  0.00000000E+00  0.00000000E+00
  0.00000000E+00  0.00000000E+00  0.00000000E+00
  0.00000000E+00  0.00000000E+00  0.00000000E+00
  0.00000000E+00  0.00000000E+00  0.00000000E+00
  0.00000000E+00  0.00000000E+00  0.00000000E+00
  0.00000000E+00  0.00000000E+00  0.00000000E+00
  0.00000000E+00  0.00000000E+00  0.00000000E+00
  0.00000000E+00  0.00000000E+00  0.00000000E+00
  0.00000000E+00  0.00000000E+00  0.00000000E+00
  0.00000000E+00  0.00000000E+00  0.00000000E+00
  0.00000000E+00  0.00000000E+00  0.00000000E+00
  0.00000000E+00  0.00000000E+00  0.00000000E+00
