Mo  S Cu                                
   1.00000000000000     
    15.9214998300000001    0.0000000000000000    0.0000000000000000
    -7.9622501300000001   13.7910221699999997    0.0000000000000000
     0.0000000000000000    0.0000000000000000   13.5821998300000004
   Mo   S    Cu
    25    50     4
Direct
  0.1324519790997059  0.0658664066252541  0.6784826273705704
  0.1312078128476273  0.2649751427450795  0.6786095000744581
  0.1326164789729631  0.4660607519449727  0.6785798577565316
  0.1326951234315530  0.6658701356069159  0.6783704513449820
  0.1327258462175536  0.8658714093938542  0.6784442036743741
  0.3328817673825668  0.0657928861059958  0.6780886131913633
  0.3347858944911835  0.2663368509603501  0.6787634684175785
  0.3321244988959364  0.4667519200154331  0.6817657895602665
  0.3326331658845092  0.6660908892615964  0.6782933352618485
  0.3328525263199253  0.8661305345578683  0.6780412052005715
  0.5328990678346557  0.0656882893051218  0.6778017894731221
  0.5331175770967462  0.2654632635205587  0.6772975781105188
  0.5324209317545723  0.4639478383955193  0.6785880971872871
  0.5337875983968132  0.6676507012365960  0.6777478491902542
  0.5328716830331146  0.8662959181928755  0.6777062047151574
  0.7327931040867171  0.0658543417867250  0.6781062840533636
  0.7329358229289724  0.2656770759640708  0.6779414492465676
  0.7327312481574708  0.4656383012124365  0.6783533346104349
  0.7326482505391354  0.6660426863421094  0.6784817655044222
  0.7330219816843027  0.8661774945429528  0.6781283524254320
  0.9325054847431318  0.0656665146369022  0.6783463089005082
  0.9323883272698836  0.2657469536943893  0.6781343579677639
  0.9324649300455476  0.4657177654508118  0.6783375193835539
  0.9326471203337618  0.6657791873992593  0.6785987126374167
  0.9327221592294563  0.8658103883464321  0.6785239004706796
  0.0658131184592747  0.1323656179002697  0.5632217120838447
  0.0652242971583235  0.1317365468135918  0.7937009925696188
  0.0660984258527435  0.3327895259258256  0.5633263226693899
  0.0650590125264472  0.3320714673238783  0.7938018193906942
  0.0659619172090871  0.5323899093151212  0.5633298174306773
  0.0655851195219199  0.5326933043470561  0.7936679147272727
  0.0659179210736198  0.7324797578847466  0.5634413429099965
  0.0661114960450391  0.7325301054135664  0.7935407694398151
  0.0660365161365775  0.9325496285675072  0.5634434763861762
  0.0660962684342650  0.9325130079423616  0.7935920496147233
  0.2662810671951235  0.1330838922258835  0.5634910084295726
  0.2663892607587215  0.1324357367198274  0.7932611978173085
  0.2666391263167256  0.3332008412211138  0.5659834539892472
  0.2635884742426384  0.3302268277458822  0.7963555372642048
  0.2663682232675697  0.5321531403782629  0.5639761079005865
  0.2653575987522245  0.5338349115842504  0.7954603841999699
  0.2660407917769803  0.7325759489479609  0.5631089474574011
  0.2660437688188679  0.7331178180603430  0.7934595009372032
  0.2658492736605353  0.9325139228642954  0.5630674053146123
  0.2662517122982848  0.9326784726832926  0.7932741234228331
  0.4660397273703296  0.1321199619392104  0.5625548000921157
  0.4663395587385821  0.1321388974636477  0.7929725250954007
  0.4663240180553885  0.3322144743968778  0.5623367296203696
  0.4672349712849808  0.3318228963397090  0.7948275158678015
  0.4653690444580292  0.5318829396665592  0.5655071882738056
  0.4691426820076714  0.5360780862756442  0.7957113082809997
  0.4657687720658572  0.7326839435634511  0.5627023376046694
  0.4667030533763992  0.7336270071522577  0.7932786428479162
  0.4659957526506417  0.9325719384470972  0.5626679194608357
  0.4662513631833960  0.9327015368828100  0.7930296265203296
  0.6662664370977751  0.1324512057048111  0.5628581841441331
  0.6660690881060773  0.1324268742064874  0.7930789158577625
  0.6665491887854458  0.3325920183770705  0.5627117451583104
  0.6663159959038651  0.3320636109207626  0.7931285971615907
  0.6656512582359824  0.5322364257240295  0.5635074486459644
  0.6659450310207831  0.5321418355673728  0.7934999299085348
  0.6666443320354531  0.7329448292567236  0.5628404828080917
  0.6666941396084312  0.7334279300002464  0.7933730308708604
  0.6663366764533833  0.9327324028656534  0.5628598002684058
  0.6660844948491587  0.9327097563134004  0.7931392178859866
  0.8660798968698842  0.1324670509072234  0.5630706597826034
  0.8658085548494867  0.1324201875970914  0.7933746942056104
  0.8661759260163393  0.3326093402237618  0.5629658478419941
  0.8658403725515029  0.3323259076929759  0.7933231673487171
  0.8660026595742423  0.5326028927092139  0.5633408364710206
  0.8658706931902458  0.5323287807906425  0.7935384080661763
  0.8659856229916016  0.7324162056617851  0.5635338151850320
  0.8659633541168574  0.7324465649960956  0.7936546088986773
  0.8662867214248493  0.9325298882470250  0.5631900786264055
  0.8659822728334774  0.9325297402047354  0.7934985663027589
  0.2993163980248781  0.3633907052592420  0.9549343758454398
  0.4506362307119858  0.3619870790319766  0.9553336783588549
  0.4436402772958417  0.5091603035003445  0.9572663382769377
  0.2942448990174285  0.5123295556156791  0.9542014425094152
 
  0.00000000E+00  0.00000000E+00  0.00000000E+00
  0.00000000E+00  0.00000000E+00  0.00000000E+00
  0.00000000E+00  0.00000000E+00  0.00000000E+00
  0.00000000E+00  0.00000000E+00  0.00000000E+00
  0.00000000E+00  0.00000000E+00  0.00000000E+00
  0.00000000E+00  0.00000000E+00  0.00000000E+00
  0.00000000E+00  0.00000000E+00  0.00000000E+00
  0.00000000E+00  0.00000000E+00  0.00000000E+00
  0.00000000E+00  0.00000000E+00  0.00000000E+00
  0.00000000E+00  0.00000000E+00  0.00000000E+00
  0.00000000E+00  0.00000000E+00  0.00000000E+00
  0.00000000E+00  0.00000000E+00  0.00000000E+00
  0.00000000E+00  0.00000000E+00  0.00000000E+00
  0.00000000E+00  0.00000000E+00  0.00000000E+00
  0.00000000E+00  0.00000000E+00  0.00000000E+00
  0.00000000E+00  0.00000000E+00  0.00000000E+00
  0.00000000E+00  0.00000000E+00  0.00000000E+00
  0.00000000E+00  0.00000000E+00  0.00000000E+00
  0.00000000E+00  0.00000000E+00  0.00000000E+00
  0.00000000E+00  0.00000000E+00  0.00000000E+00
  0.00000000E+00  0.00000000E+00  0.00000000E+00
  0.00000000E+00  0.00000000E+00  0.00000000E+00
  0.00000000E+00  0.00000000E+00  0.00000000E+00
  0.00000000E+00  0.00000000E+00  0.00000000E+00
  0.00000000E+00  0.00000000E+00  0.00000000E+00
  0.00000000E+00  0.00000000E+00  0.00000000E+00
  0.00000000E+00  0.00000000E+00  0.00000000E+00
  0.00000000E+00  0.00000000E+00  0.00000000E+00
  0.00000000E+00  0.00000000E+00  0.00000000E+00
  0.00000000E+00  0.00000000E+00  0.00000000E+00
  0.00000000E+00  0.00000000E+00  0.00000000E+00
  0.00000000E+00  0.00000000E+00  0.00000000E+00
  0.00000000E+00  0.00000000E+00  0.00000000E+00
  0.00000000E+00  0.00000000E+00  0.00000000E+00
  0.00000000E+00  0.00000000E+00  0.00000000E+00
  0.00000000E+00  0.00000000E+00  0.00000000E+00
  0.00000000E+00  0.00000000E+00  0.00000000E+00
  0.00000000E+00  0.00000000E+00  0.00000000E+00
  0.00000000E+00  0.00000000E+00  0.00000000E+00
  0.00000000E+00  0.00000000E+00  0.00000000E+00
  0.00000000E+00  0.00000000E+00  0.00000000E+00
  0.00000000E+00  0.00000000E+00  0.00000000E+00
  0.00000000E+00  0.00000000E+00  0.00000000E+00
  0.00000000E+00  0.00000000E+00  0.00000000E+00
  0.00000000E+00  0.00000000E+00  0.00000000E+00
  0.00000000E+00  0.00000000E+00  0.00000000E+00
  0.00000000E+00  0.00000000E+00  0.00000000E+00
  0.00000000E+00  0.00000000E+00  0.00000000E+00
  0.00000000E+00  0.00000000E+00  0.00000000E+00
  0.00000000E+00  0.00000000E+00  0.00000000E+00
  0.00000000E+00  0.00000000E+00  0.00000000E+00
  0.00000000E+00  0.00000000E+00  0.00000000E+00
  0.00000000E+00  0.00000000E+00  0.00000000E+00
  0.00000000E+00  0.00000000E+00  0.00000000E+00
  0.00000000E+00  0.00000000E+00  0.00000000E+00
  0.00000000E+00  0.00000000E+00  0.00000000E+00
  0.00000000E+00  0.00000000E+00  0.00000000E+00
  0.00000000E+00  0.00000000E+00  0.00000000E+00
  0.00000000E+00  0.00000000E+00  0.00000000E+00
  0.00000000E+00  0.00000000E+00  0.00000000E+00
  0.00000000E+00  0.00000000E+00  0.00000000E+00
  0.00000000E+00  0.00000000E+00  0.00000000E+00
  0.00000000E+00  0.00000000E+00  0.00000000E+00
  0.00000000E+00  0.00000000E+00  0.00000000E+00
  0.00000000E+00  0.00000000E+00  0.00000000E+00
  0.00000000E+00  0.00000000E+00  0.00000000E+00
  0.00000000E+00  0.00000000E+00  0.00000000E+00
  0.00000000E+00  0.00000000E+00  0.00000000E+00
  0.00000000E+00  0.00000000E+00  0.00000000E+00
  0.00000000E+00  0.00000000E+00  0.00000000E+00
  0.00000000E+00  0.00000000E+00  0.00000000E+00
  0.00000000E+00  0.00000000E+00  0.00000000E+00
  0.00000000E+00  0.00000000E+00  0.00000000E+00
  0.00000000E+00  0.00000000E+00  0.00000000E+00
  0.00000000E+00  0.00000000E+00  0.00000000E+00
  0.00000000E+00  0.00000000E+00  0.00000000E+00
  0.00000000E+00  0.00000000E+00  0.00000000E+00
  0.00000000E+00  0.00000000E+00  0.00000000E+00
  0.00000000E+00  0.00000000E+00  0.00000000E+00
