Ta  N Ru                                
   1.00000000000000     
     9.0548154099999998    0.0000000000000000    0.0000000000000000
     0.0000000000000000   11.6775998899999998    0.0000000000000000
     0.0000000000000000    0.0000000000000000   23.4818170799999990
   Ta   N    Ru
    60    60     1
Selective dynamics
Direct
  0.0000000000000000  0.0000000000000000  0.2546926809530987   F   F   F
  0.6670845899906297  0.1250000003211298  0.2638822399803757   F   F   F
  0.3329153514769843  0.1250000003211298  0.2638822399803757   F   F   F
  0.4999999994478088  0.2499999997859135  0.3618861993156202   F   F   F
  0.1650707596845180  0.1250000003211298  0.3684425577811794   F   F   F
  0.8349292403154820  0.1250000003211298  0.3684425577811794   F   F   F
 -0.0003199183502149  0.2502946536609751  0.4797437734854475   T   T   T
  0.6645069318211067  0.1250759932731296  0.4780191029543023   T   T   T
  0.3346749486795701  0.1250660012061128  0.4781566174848985   T   T   T
  0.4994320278932692  0.2503579745885692  0.5906132744377335   T   T   T
  0.1671230747704429  0.1251842791407138  0.5897681575184971   T   T   T
  0.8318122334701272  0.1251913354634702  0.5897808391241545   T   T   T
  0.0008403088294210  0.2501283239322885  0.7022505679256206   T   T   T
  0.6716191787011400  0.1252362088824249  0.7039781718890732   T   T   T
  0.3294347820378239  0.1252513726799402  0.7036958737949168   T   T   T
  0.0000000000000000  0.2499999997859135  0.2546926809530987   F   F   F
  0.6670845899906297  0.3750000001070433  0.2638822399803757   F   F   F
  0.3329153514769843  0.3750000001070433  0.2638822399803757   F   F   F
  0.4999999994478088  0.5000000004281731  0.3618861993156202   F   F   F
  0.1650707596845180  0.3750000001070433  0.3684425577811794   F   F   F
  0.8349292403154820  0.3750000001070433  0.3684425577811794   F   F   F
 -0.0000806140582311  0.5000407848603264  0.4798030403442807   T   T   T
  0.6643823134681938  0.3750654011813631  0.4779978426764521   T   T   T
  0.3348974049577504  0.3751867901352419  0.4782060662443843   T   T   T
  0.4973087895718397  0.5000222724807307  0.5912530744957160   T   T   T
  0.1658637370295142  0.3752850199891906  0.5904188473674156   T   T   T
  0.8315429124004630  0.3752057432954586  0.5898452503040162   T   T   T
 -0.0019506598589539  0.5003822230643199  0.7033444642315696   T   T   T
  0.6710165397885224  0.3742012136997634  0.7030952864630394   T   T   T
  0.3313536899678500  0.3712495715274641  0.7041096815997173   T   T   T
  0.0000000000000000  0.5000000004281731  0.2546926809530987   F   F   F
  0.6670845899906297  0.6249999998929567  0.2638822399803757   F   F   F
  0.3329153514769843  0.6249999998929567  0.2638822399803757   F   F   F
  0.4999999994478088  0.7500000002140865  0.3618861993156202   F   F   F
  0.1650707596845180  0.6249999998929567  0.3684425577811794   F   F   F
  0.8349292403154820  0.6249999998929567  0.3684425577811794   F   F   F
 -0.0000220518759943  0.7501150189904888  0.4798010993593030   T   T   T
  0.6645406456137879  0.6250769509570901  0.4782660232370396   T   T   T
  0.3350419624333530  0.6250780181419053  0.4785779657881341   T   T   T
  0.4974514447792001  0.7503391905893891  0.5911974307164738   T   T   T
  0.1664922999654612  0.6251670664496730  0.5906101357426957   T   T   T
  0.8313048133204306  0.6251437636795090  0.5897561378343943   T   T   T
 -0.0018377658113468  0.7499099227482400  0.7033026006404495   T   T   T
  0.6727596215792012  0.6252383527077494  0.7032801745815929   T   T   T
  0.3422889963662323  0.6254634909067484  0.7044066020142542   T   T   T
  0.0000000000000000  0.7500000002140865  0.2546926809530987   F   F   F
  0.6670845899906297  0.8750000005352163  0.2638822399803757   F   F   F
  0.3329153514769843  0.8750000005352163  0.2638822399803757   F   F   F
  0.4999999994478088  0.0000000000000000  0.3618861993156202   F   F   F
  0.1650707596845180  0.8750000005352163  0.3684425577811794   F   F   F
  0.8349292403154820  0.8750000005352163  0.3684425577811794   F   F   F
 -0.0002866307773867 -0.0001060860099094  0.4797364043846349   T   T   T
  0.6644225789756868  0.8750782526890950  0.4779944100390023   T   T   T
  0.3349060026760373  0.8749833427828220  0.4781961090128177   T   T   T
  0.4994527083282062  0.0000083218363239  0.5906020542491854   T   T   T
  0.1658484437271181  0.8750979183308366  0.5903901321670250   T   T   T
  0.8316077456118909  0.8751331738678223  0.5898209566654345   T   T   T
  0.0009000283613355  0.0002998722944038  0.7022067465263883   T   T   T
  0.6712087249777507  0.8762555999477643  0.7030614561247002   T   T   T
  0.3314300917174922  0.8792217816489641  0.7040671774859518   T   T   T
  0.8141011533980276  0.0000000000000000  0.3013105672926031   F   F   F
  0.4999999994478088  0.0000000000000000  0.2564174481620327   F   F   F
  0.1858988466019724  0.0000000000000000  0.3013105672926031   F   F   F
  0.3088456122590841  0.2499999997859135  0.4099867722441957   F   F   F
  0.0000000000000000  0.2499999997859135  0.3930971035158137   F   F   F
  0.6911543877409159  0.2499999997859135  0.4099867722441957   F   F   F
  0.8018930163484553  0.2501774573298552  0.5219349627541081   T   T   T
  0.4995529940516894  0.2501721719227110  0.5027280811941940   T   T   T
  0.1973342529665279  0.2505109941720348  0.5221199296684675   T   T   T
  0.3033766533676632  0.2495983050596426  0.6329082295883534   T   T   T
 -0.0008063678611300  0.2499039297574812  0.6136198922852139   T   T   T
  0.6954475452765581  0.2497775209755150  0.6328644236170738   T   T   T
  0.8061691619329160  0.2500653389063358  0.7400029041820970   T   T   T
  0.5006451532203801  0.2508178254031544  0.7238370014146951   T   T   T
  0.1944202528896449  0.2467892380448032  0.7402113963674402   T   T   T
  0.8141011533980276  0.2499999997859135  0.3013105672926031   F   F   F
  0.4999999994478088  0.2499999997859135  0.2564174481620327   F   F   F
  0.1858988466019724  0.2499999997859135  0.3013105672926031   F   F   F
  0.3088456122590841  0.5000000004281731  0.4099867722441957   F   F   F
  0.0000000000000000  0.5000000004281731  0.3930971035158137   F   F   F
  0.6911543877409159  0.5000000004281731  0.4099867722441957   F   F   F
  0.8021782184334100  0.4999616884531822  0.5219050641324661   T   T   T
  0.4995537743143085  0.4999312703629743  0.5031896491576066   T   T   T
  0.1972312935739389  0.5003035958454608  0.5225717310759027   T   T   T
  0.3007136156699944  0.4995055330482400  0.6352520629527300   T   T   T
 -0.0012458326009330  0.5005909654274966  0.6141633421317615   T   T   T
  0.6945670255877058  0.5001391002750165  0.6328317247777941   T   T   T
  0.8049291773466623  0.4995250359486835  0.7397818806854763   T   T   T
  0.4992512236096679  0.5021740662599626  0.7236890755345702   T   T   T
  0.1885247478906309  0.4747476438267247  0.7499941774695681   T   T   T
  0.8141011533980276  0.5000000004281731  0.3013105672926031   F   F   F
  0.4999999994478088  0.5000000004281731  0.2564174481620327   F   F   F
  0.1858988466019724  0.5000000004281731  0.3013105672926031   F   F   F
  0.3088456122590841  0.7500000002140865  0.4099867722441957   F   F   F
  0.0000000000000000  0.7500000002140865  0.3930971035158137   F   F   F
  0.6911543877409159  0.7500000002140865  0.4099867722441957   F   F   F
  0.8022153765454578  0.7502574518488579  0.5218978799302356   T   T   T
  0.4995936092949848  0.7502556651168261  0.5031554857473872   T   T   T
  0.1972476392437237  0.7499471854042908  0.5225629490466955   T   T   T
  0.3008694808421251  0.7509900514251235  0.6351448717069289   T   T   T
 -0.0011961469779700  0.7497407205190064  0.6141488929598350   T   T   T
  0.6946409669440721  0.7502443326418149  0.6328075961899919   T   T   T
  0.8050373244124118  0.7508815872669430  0.7397751071657230   T   T   T
  0.4994302434108936  0.7483782159318180  0.7236280316951056   T   T   T
  0.1892956942718019  0.7748815265265373  0.7496962382574552   T   T   T
  0.8141011533980276  0.7500000002140865  0.3013105672926031   F   F   F
  0.4999999994478088  0.7500000002140865  0.2564174481620327   F   F   F
  0.1858988466019724  0.7500000002140865  0.3013105672926031   F   F   F
  0.3088456122590841  0.0000000000000000  0.4099867722441957   F   F   F
  0.0000000000000000  0.0000000000000000  0.3930971035158137   F   F   F
  0.6911543877409159  0.0000000000000000  0.4099867722441957   F   F   F
  0.8019224765769878  0.0000620285994134  0.5219246351657627   T   T   T
  0.4995743819787091  0.0000040886365481  0.5027350328451493   T   T   T
  0.1973495069432591 -0.0002549020485824  0.5221203307252800   T   T   T
  0.3033551941718733  0.0008128050750733  0.6328947316682534   T   T   T
 -0.0007697531734148  0.0004823743899899  0.6135971759044205   T   T   T
  0.6954811096485645  0.0006087140617862  0.6328461440421521   T   T   T
  0.8062620863174840  0.0003911665831183  0.7399708154030046   T   T   T
  0.5007084423920931 -0.0003848259328813  0.7237902176608243   T   T   T
  0.1944621646107643  0.0035119889209579  0.7402010957897438   T   T   T
  0.1486787751145044  0.6248656901707341  0.7793342962572880   T   T   T
 
  0.00000000E+00  0.00000000E+00  0.00000000E+00
  0.00000000E+00  0.00000000E+00  0.00000000E+00
  0.00000000E+00  0.00000000E+00  0.00000000E+00
  0.00000000E+00  0.00000000E+00  0.00000000E+00
  0.00000000E+00  0.00000000E+00  0.00000000E+00
  0.00000000E+00  0.00000000E+00  0.00000000E+00
  0.00000000E+00  0.00000000E+00  0.00000000E+00
  0.00000000E+00  0.00000000E+00  0.00000000E+00
  0.00000000E+00  0.00000000E+00  0.00000000E+00
  0.00000000E+00  0.00000000E+00  0.00000000E+00
  0.00000000E+00  0.00000000E+00  0.00000000E+00
  0.00000000E+00  0.00000000E+00  0.00000000E+00
  0.00000000E+00  0.00000000E+00  0.00000000E+00
  0.00000000E+00  0.00000000E+00  0.00000000E+00
  0.00000000E+00  0.00000000E+00  0.00000000E+00
  0.00000000E+00  0.00000000E+00  0.00000000E+00
  0.00000000E+00  0.00000000E+00  0.00000000E+00
  0.00000000E+00  0.00000000E+00  0.00000000E+00
  0.00000000E+00  0.00000000E+00  0.00000000E+00
  0.00000000E+00  0.00000000E+00  0.00000000E+00
  0.00000000E+00  0.00000000E+00  0.00000000E+00
  0.00000000E+00  0.00000000E+00  0.00000000E+00
  0.00000000E+00  0.00000000E+00  0.00000000E+00
  0.00000000E+00  0.00000000E+00  0.00000000E+00
  0.00000000E+00  0.00000000E+00  0.00000000E+00
  0.00000000E+00  0.00000000E+00  0.00000000E+00
  0.00000000E+00  0.00000000E+00  0.00000000E+00
  0.00000000E+00  0.00000000E+00  0.00000000E+00
  0.00000000E+00  0.00000000E+00  0.00000000E+00
  0.00000000E+00  0.00000000E+00  0.00000000E+00
  0.00000000E+00  0.00000000E+00  0.00000000E+00
  0.00000000E+00  0.00000000E+00  0.00000000E+00
  0.00000000E+00  0.00000000E+00  0.00000000E+00
  0.00000000E+00  0.00000000E+00  0.00000000E+00
  0.00000000E+00  0.00000000E+00  0.00000000E+00
  0.00000000E+00  0.00000000E+00  0.00000000E+00
  0.00000000E+00  0.00000000E+00  0.00000000E+00
  0.00000000E+00  0.00000000E+00  0.00000000E+00
  0.00000000E+00  0.00000000E+00  0.00000000E+00
  0.00000000E+00  0.00000000E+00  0.00000000E+00
  0.00000000E+00  0.00000000E+00  0.00000000E+00
  0.00000000E+00  0.00000000E+00  0.00000000E+00
  0.00000000E+00  0.00000000E+00  0.00000000E+00
  0.00000000E+00  0.00000000E+00  0.00000000E+00
  0.00000000E+00  0.00000000E+00  0.00000000E+00
  0.00000000E+00  0.00000000E+00  0.00000000E+00
  0.00000000E+00  0.00000000E+00  0.00000000E+00
  0.00000000E+00  0.00000000E+00  0.00000000E+00
  0.00000000E+00  0.00000000E+00  0.00000000E+00
  0.00000000E+00  0.00000000E+00  0.00000000E+00
  0.00000000E+00  0.00000000E+00  0.00000000E+00
  0.00000000E+00  0.00000000E+00  0.00000000E+00
  0.00000000E+00  0.00000000E+00  0.00000000E+00
  0.00000000E+00  0.00000000E+00  0.00000000E+00
  0.00000000E+00  0.00000000E+00  0.00000000E+00
  0.00000000E+00  0.00000000E+00  0.00000000E+00
  0.00000000E+00  0.00000000E+00  0.00000000E+00
  0.00000000E+00  0.00000000E+00  0.00000000E+00
  0.00000000E+00  0.00000000E+00  0.00000000E+00
  0.00000000E+00  0.00000000E+00  0.00000000E+00
  0.00000000E+00  0.00000000E+00  0.00000000E+00
  0.00000000E+00  0.00000000E+00  0.00000000E+00
  0.00000000E+00  0.00000000E+00  0.00000000E+00
  0.00000000E+00  0.00000000E+00  0.00000000E+00
  0.00000000E+00  0.00000000E+00  0.00000000E+00
  0.00000000E+00  0.00000000E+00  0.00000000E+00
  0.00000000E+00  0.00000000E+00  0.00000000E+00
  0.00000000E+00  0.00000000E+00  0.00000000E+00
  0.00000000E+00  0.00000000E+00  0.00000000E+00
  0.00000000E+00  0.00000000E+00  0.00000000E+00
  0.00000000E+00  0.00000000E+00  0.00000000E+00
  0.00000000E+00  0.00000000E+00  0.00000000E+00
  0.00000000E+00  0.00000000E+00  0.00000000E+00
  0.00000000E+00  0.00000000E+00  0.00000000E+00
  0.00000000E+00  0.00000000E+00  0.00000000E+00
  0.00000000E+00  0.00000000E+00  0.00000000E+00
  0.00000000E+00  0.00000000E+00  0.00000000E+00
  0.00000000E+00  0.00000000E+00  0.00000000E+00
  0.00000000E+00  0.00000000E+00  0.00000000E+00
  0.00000000E+00  0.00000000E+00  0.00000000E+00
  0.00000000E+00  0.00000000E+00  0.00000000E+00
  0.00000000E+00  0.00000000E+00  0.00000000E+00
  0.00000000E+00  0.00000000E+00  0.00000000E+00
  0.00000000E+00  0.00000000E+00  0.00000000E+00
  0.00000000E+00  0.00000000E+00  0.00000000E+00
  0.00000000E+00  0.00000000E+00  0.00000000E+00
  0.00000000E+00  0.00000000E+00  0.00000000E+00
  0.00000000E+00  0.00000000E+00  0.00000000E+00
  0.00000000E+00  0.00000000E+00  0.00000000E+00
  0.00000000E+00  0.00000000E+00  0.00000000E+00
  0.00000000E+00  0.00000000E+00  0.00000000E+00
  0.00000000E+00  0.00000000E+00  0.00000000E+00
  0.00000000E+00  0.00000000E+00  0.00000000E+00
  0.00000000E+00  0.00000000E+00  0.00000000E+00
  0.00000000E+00  0.00000000E+00  0.00000000E+00
  0.00000000E+00  0.00000000E+00  0.00000000E+00
  0.00000000E+00  0.00000000E+00  0.00000000E+00
  0.00000000E+00  0.00000000E+00  0.00000000E+00
  0.00000000E+00  0.00000000E+00  0.00000000E+00
  0.00000000E+00  0.00000000E+00  0.00000000E+00
  0.00000000E+00  0.00000000E+00  0.00000000E+00
  0.00000000E+00  0.00000000E+00  0.00000000E+00
  0.00000000E+00  0.00000000E+00  0.00000000E+00
  0.00000000E+00  0.00000000E+00  0.00000000E+00
  0.00000000E+00  0.00000000E+00  0.00000000E+00
  0.00000000E+00  0.00000000E+00  0.00000000E+00
  0.00000000E+00  0.00000000E+00  0.00000000E+00
  0.00000000E+00  0.00000000E+00  0.00000000E+00
  0.00000000E+00  0.00000000E+00  0.00000000E+00
  0.00000000E+00  0.00000000E+00  0.00000000E+00
  0.00000000E+00  0.00000000E+00  0.00000000E+00
  0.00000000E+00  0.00000000E+00  0.00000000E+00
  0.00000000E+00  0.00000000E+00  0.00000000E+00
  0.00000000E+00  0.00000000E+00  0.00000000E+00
  0.00000000E+00  0.00000000E+00  0.00000000E+00
  0.00000000E+00  0.00000000E+00  0.00000000E+00
  0.00000000E+00  0.00000000E+00  0.00000000E+00
  0.00000000E+00  0.00000000E+00  0.00000000E+00
  0.00000000E+00  0.00000000E+00  0.00000000E+00
  0.00000000E+00  0.00000000E+00  0.00000000E+00
  0.00000000E+00  0.00000000E+00  0.00000000E+00
