Ta  N Ru Cu                             
   1.00000000000000     
     9.0548154099999998    0.0000000000000000    0.0000000000000000
     0.0000000000000000   11.6775998899999998    0.0000000000000000
     0.0000000000000000    0.0000000000000000   23.4818170799999990
   Ta   N    Ru   Cu
    60    60    16     2
Selective dynamics
Direct
  0.0000000000000000  0.0000000000000000  0.2546926809530987   F   F   F
  0.6670845899906297  0.1250000003211298  0.2638822399803757   F   F   F
  0.3329153514769843  0.1250000003211298  0.2638822399803757   F   F   F
  0.4999999994478088  0.2499999997859135  0.3618861993156202   F   F   F
  0.1650707596845180  0.1250000003211298  0.3684425577811794   F   F   F
  0.8349292403154820  0.1250000003211298  0.3684425577811794   F   F   F
  0.0001751582131734  0.2499231777098966  0.4799040843286195   T   T   T
  0.6646274970448983  0.1249653972525714  0.4780791524764789   T   T   T
  0.3354816707913461  0.1248575087808182  0.4779222328759320   T   T   T
  0.5003598208463359  0.2495526828503795  0.5902534626447359   T   T   T
  0.1685327580058851  0.1246578429259107  0.5898584630424369   T   T   T
  0.8323760791958249  0.1251670721681781  0.5897395001546155   T   T   T
  0.9953999788331782  0.2502378530537829  0.6992705503779758   T   T   T
  0.6674120860595181  0.1248499530326254  0.7014295963983284   T   T   T
  0.3308761078737117  0.1246568276451639  0.7038094286292645   T   T   T
  0.0000000000000000  0.2499999997859135  0.2546926809530987   F   F   F
  0.6670845899906297  0.3750000001070433  0.2638822399803757   F   F   F
  0.3329153514769843  0.3750000001070433  0.2638822399803757   F   F   F
  0.4999999994478088  0.5000000004281731  0.3618861993156202   F   F   F
  0.1650707596845180  0.3750000001070433  0.3684425577811794   F   F   F
  0.8349292403154820  0.3750000001070433  0.3684425577811794   F   F   F
  0.0000550698582602  0.4999658012725641  0.4799041855142799   T   T   T
  0.6645710492278406  0.3749488631655666  0.4780374088733594   T   T   T
  0.3355506440908920  0.3749140986684604  0.4779014174685090   T   T   T
  0.5007874889356952  0.5000064421358146  0.5901594445817838   T   T   T
  0.1683802549441319  0.3745941133831031  0.5895464188556948   T   T   T
  0.8324671926898723  0.3751275194544300  0.5898194192916353   T   T   T
 -0.0031853581842847  0.4997126677439789  0.6996610119718200   T   T   T
  0.6671323794936573  0.3759969414040025  0.7035412024229574   T   T   T
  0.3304895851315656  0.3748105712738218  0.7022620851726940   T   T   T
  0.0000000000000000  0.5000000004281731  0.2546926809530987   F   F   F
  0.6670845899906297  0.6249999998929567  0.2638822399803757   F   F   F
  0.3329153514769843  0.6249999998929567  0.2638822399803757   F   F   F
  0.4999999994478088  0.7500000002140865  0.3618861993156202   F   F   F
  0.1650707596845180  0.6249999998929567  0.3684425577811794   F   F   F
  0.8349292403154820  0.6249999998929567  0.3684425577811794   F   F   F
  0.0001731653091189  0.7499531549347904  0.4798992693554867   T   T   T
  0.6646078599508336  0.6249533775345240  0.4780465737326182   T   T   T
  0.3354519760867980  0.6249709397611031  0.4778818576945191   T   T   T
  0.5000839549228312  0.7497409834215957  0.5902487596237693   T   T   T
  0.1683077814589548  0.6249848587331492  0.5895409685689746   T   T   T
  0.8326787932696968  0.6246371656779405  0.5899051567629990   T   T   T
  0.9935308247553127  0.7499330708757176  0.6998434023049220   T   T   T
  0.6673072848796692  0.6244370928602517  0.7031820949935642   T   T   T
  0.3318338138501069  0.6237045505203483  0.7014540039511400   T   T   T
  0.0000000000000000  0.7500000002140865  0.2546926809530987   F   F   F
  0.6670845899906297  0.8750000005352163  0.2638822399803757   F   F   F
  0.3329153514769843  0.8750000005352163  0.2638822399803757   F   F   F
  0.4999999994478088  0.0000000000000000  0.3618861993156202   F   F   F
  0.1650707596845180  0.8750000005352163  0.3684425577811794   F   F   F
  0.8349292403154820  0.8750000005352163  0.3684425577811794   F   F   F
  0.0003025556501534 -0.0000928774536904  0.4799170099338649   T   T   T
  0.6646200375359567  0.8749358791878664  0.4781072887356466   T   T   T
  0.3355513056234871  0.8749560486531401  0.4779629896532852   T   T   T
  0.4993429914814753  0.0000089256419412  0.5902894346454586   T   T   T
  0.1684992646273283  0.8749262268289708  0.5900482323905470   T   T   T
  0.8324544561892638  0.8747102503337491  0.5895600747468920   T   T   T
  0.9920121917683763 -0.0006650070081416  0.7001162987410132   T   T   T
  0.6661881680254897  0.8744625459341798  0.7006962000360977   T   T   T
  0.3291724284858064  0.8747064591393255  0.7050327533216573   T   T   T
  0.8141011533980276  0.0000000000000000  0.3013105672926031   F   F   F
  0.4999999994478088  0.0000000000000000  0.2564174481620327   F   F   F
  0.1858988466019724  0.0000000000000000  0.3013105672926031   F   F   F
  0.3088456122590841  0.2499999997859135  0.4099867722441957   F   F   F
  0.0000000000000000  0.2499999997859135  0.3930971035158137   F   F   F
  0.6911543877409159  0.2499999997859135  0.4099867722441957   F   F   F
  0.8012564475906934  0.2500715097202030  0.5220035964686782   T   T   T
  0.4999483125134428  0.2499162451254175  0.5026261744538351   T   T   T
  0.1989363543629692  0.2496885943268649  0.5219118120339405   T   T   T
  0.3048792996804370  0.2493178664929921  0.6340834591886682   T   T   T
 -0.0000528261594643  0.2499918884551423  0.6115183389586001   T   T   T
  0.6958726505142734  0.2513708183809140  0.6341003441828874   T   T   T
  0.8041006324041189  0.2566706518311447  0.7446685217937067   T   T   T
  0.5019946726161061  0.2500282837169601  0.7271068280022952   T   T   T
  0.1935608599583252  0.2496479288860633  0.7383586694476511   T   T   T
  0.8141011533980276  0.2499999997859135  0.3013105672926031   F   F   F
  0.4999999994478088  0.2499999997859135  0.2564174481620327   F   F   F
  0.1858988466019724  0.2499999997859135  0.3013105672926031   F   F   F
  0.3088456122590841  0.5000000004281731  0.4099867722441957   F   F   F
  0.0000000000000000  0.5000000004281731  0.3930971035158137   F   F   F
  0.6911543877409159  0.5000000004281731  0.4099867722441957   F   F   F
  0.8011512561118650  0.4999820630109314  0.5220678537725618   T   T   T
  0.5000589793984176  0.4999684101894049  0.5025549217107442   T   T   T
  0.1988374446683758  0.4998805394637959  0.5217823031267056   T   T   T
  0.3050194794019584  0.4993148091105759  0.6332771361466648   T   T   T
  0.0002280802939791  0.4997741622804678  0.6116384111196354   T   T   T
  0.6958821215292027  0.4999165629522457  0.6344619326611610   T   T   T
  0.8059223344389790  0.4994874934987232  0.7446784899013811   T   T   T
  0.4986550375742227  0.4996211252364330  0.7275358977845697   T   T   T
  0.1960443514609373  0.5001109866115404  0.7379777669856137   T   T   T
  0.8141011533980276  0.5000000004281731  0.3013105672926031   F   F   F
  0.4999999994478088  0.5000000004281731  0.2564174481620327   F   F   F
  0.1858988466019724  0.5000000004281731  0.3013105672926031   F   F   F
  0.3088456122590841  0.7500000002140865  0.4099867722441957   F   F   F
  0.0000000000000000  0.7500000002140865  0.3930971035158137   F   F   F
  0.6911543877409159  0.7500000002140865  0.4099867722441957   F   F   F
  0.8013670499521041  0.7497172769012602  0.5219862589935622   T   T   T
  0.4999507161149417  0.7498703870123862  0.5026308279978656   T   T   T
  0.1988666119741430  0.7501427394137850  0.5219797919156444   T   T   T
  0.3045992216597972  0.7502927122360875  0.6340368810661523   T   T   T
 -0.0001893893437037  0.7499922554635815  0.6118590029367749   T   T   T
  0.6960577337733393  0.7481742792953627  0.6338748309867204   T   T   T
  0.8001702469326566  0.7489252082263954  0.7456205161786225   T   T   T
  0.5016705763977933  0.7493675094478380  0.7266488283493242   T   T   T
  0.1932419715029861  0.7468135128819214  0.7378393827806915   T   T   T
  0.8141011533980276  0.7500000002140865  0.3013105672926031   F   F   F
  0.4999999994478088  0.7500000002140865  0.2564174481620327   F   F   F
  0.1858988466019724  0.7500000002140865  0.3013105672926031   F   F   F
  0.3088456122590841  0.0000000000000000  0.4099867722441957   F   F   F
  0.0000000000000000  0.0000000000000000  0.3930971035158137   F   F   F
  0.6911543877409159  0.0000000000000000  0.4099867722441957   F   F   F
  0.8015424388551463 -0.0000308377835569  0.5218814486750905   T   T   T
  0.4999259011849033 -0.0000539755604463  0.5026522592127930   T   T   T
  0.1988761393226861 -0.0002911502138130  0.5221397582135140   T   T   T
  0.3039680813722029 -0.0004512424629862  0.6345463203746869   T   T   T
 -0.0003868172481430 -0.0002605494627196  0.6120180384322086   T   T   T
  0.6962032091497786  0.0003045353833152  0.6332268423250467   T   T   T
  0.8001189606181403  0.9962519922965677  0.7461472051926048   T   T   T
  0.5016841165130379  0.0000060391481616  0.7252003864605809   T   T   T
  0.1905473470438064  0.0010992768671477  0.7379440797454763   T   T   T
  0.1215122882058741  0.0112431125635485  0.8152906756519769   T   T   T
  0.5678579408242637 -0.0000667132039797  0.8055636442324360   T   T   T
  0.8681877461189035  0.1301592652672196  0.7976104074598565   T   T   T
  0.1443078064662728  0.5110435018149966  0.8173899282242055   T   T   T
  0.4592312867260906  0.4952157828641279  0.8133214908332324   T   T   T
  0.8963450579993195  0.6248440701536824  0.8001723174005038   T   T   T
  0.1286611542860290  0.2396935946712521  0.8160082187680862   T   T   T
  0.5563626130773522  0.2292628420563859  0.8091681059303001   T   T   T
  0.9077783919475513  0.3753032047467517  0.8016779663261906   T   T   T
  0.1378137510553271  0.7359261037151710  0.8160264300939044   T   T   T
  0.5640450014442208  0.7717158485153665  0.8078205526612299   T   T   T
  0.8937917200629787  0.8696577164982484  0.8003404722897742   T   T   T
  0.3449143287936173  0.8863028729462947  0.8378288754393776   T   T   T
  0.3650260233029614  0.6668154379937828  0.8572317660502160   T   T   T
  0.3448883521996894  0.3314513006029550  0.8549072678218695   T   T   T
  0.3549268984217196  0.1071605986882981  0.8430270452236290   T   T   T
  0.6644011870828160  0.6050227040381947  0.8626458386448829   T   T   T
  0.6715231523515528  0.3933007991583329  0.8610417475538373   T   T   T
 
  0.00000000E+00  0.00000000E+00  0.00000000E+00
  0.00000000E+00  0.00000000E+00  0.00000000E+00
  0.00000000E+00  0.00000000E+00  0.00000000E+00
  0.00000000E+00  0.00000000E+00  0.00000000E+00
  0.00000000E+00  0.00000000E+00  0.00000000E+00
  0.00000000E+00  0.00000000E+00  0.00000000E+00
  0.00000000E+00  0.00000000E+00  0.00000000E+00
  0.00000000E+00  0.00000000E+00  0.00000000E+00
  0.00000000E+00  0.00000000E+00  0.00000000E+00
  0.00000000E+00  0.00000000E+00  0.00000000E+00
  0.00000000E+00  0.00000000E+00  0.00000000E+00
  0.00000000E+00  0.00000000E+00  0.00000000E+00
  0.00000000E+00  0.00000000E+00  0.00000000E+00
  0.00000000E+00  0.00000000E+00  0.00000000E+00
  0.00000000E+00  0.00000000E+00  0.00000000E+00
  0.00000000E+00  0.00000000E+00  0.00000000E+00
  0.00000000E+00  0.00000000E+00  0.00000000E+00
  0.00000000E+00  0.00000000E+00  0.00000000E+00
  0.00000000E+00  0.00000000E+00  0.00000000E+00
  0.00000000E+00  0.00000000E+00  0.00000000E+00
  0.00000000E+00  0.00000000E+00  0.00000000E+00
  0.00000000E+00  0.00000000E+00  0.00000000E+00
  0.00000000E+00  0.00000000E+00  0.00000000E+00
  0.00000000E+00  0.00000000E+00  0.00000000E+00
  0.00000000E+00  0.00000000E+00  0.00000000E+00
  0.00000000E+00  0.00000000E+00  0.00000000E+00
  0.00000000E+00  0.00000000E+00  0.00000000E+00
  0.00000000E+00  0.00000000E+00  0.00000000E+00
  0.00000000E+00  0.00000000E+00  0.00000000E+00
  0.00000000E+00  0.00000000E+00  0.00000000E+00
  0.00000000E+00  0.00000000E+00  0.00000000E+00
  0.00000000E+00  0.00000000E+00  0.00000000E+00
  0.00000000E+00  0.00000000E+00  0.00000000E+00
  0.00000000E+00  0.00000000E+00  0.00000000E+00
  0.00000000E+00  0.00000000E+00  0.00000000E+00
  0.00000000E+00  0.00000000E+00  0.00000000E+00
  0.00000000E+00  0.00000000E+00  0.00000000E+00
  0.00000000E+00  0.00000000E+00  0.00000000E+00
  0.00000000E+00  0.00000000E+00  0.00000000E+00
  0.00000000E+00  0.00000000E+00  0.00000000E+00
  0.00000000E+00  0.00000000E+00  0.00000000E+00
  0.00000000E+00  0.00000000E+00  0.00000000E+00
  0.00000000E+00  0.00000000E+00  0.00000000E+00
  0.00000000E+00  0.00000000E+00  0.00000000E+00
  0.00000000E+00  0.00000000E+00  0.00000000E+00
  0.00000000E+00  0.00000000E+00  0.00000000E+00
  0.00000000E+00  0.00000000E+00  0.00000000E+00
  0.00000000E+00  0.00000000E+00  0.00000000E+00
  0.00000000E+00  0.00000000E+00  0.00000000E+00
  0.00000000E+00  0.00000000E+00  0.00000000E+00
  0.00000000E+00  0.00000000E+00  0.00000000E+00
  0.00000000E+00  0.00000000E+00  0.00000000E+00
  0.00000000E+00  0.00000000E+00  0.00000000E+00
  0.00000000E+00  0.00000000E+00  0.00000000E+00
  0.00000000E+00  0.00000000E+00  0.00000000E+00
  0.00000000E+00  0.00000000E+00  0.00000000E+00
  0.00000000E+00  0.00000000E+00  0.00000000E+00
  0.00000000E+00  0.00000000E+00  0.00000000E+00
  0.00000000E+00  0.00000000E+00  0.00000000E+00
  0.00000000E+00  0.00000000E+00  0.00000000E+00
  0.00000000E+00  0.00000000E+00  0.00000000E+00
  0.00000000E+00  0.00000000E+00  0.00000000E+00
  0.00000000E+00  0.00000000E+00  0.00000000E+00
  0.00000000E+00  0.00000000E+00  0.00000000E+00
  0.00000000E+00  0.00000000E+00  0.00000000E+00
  0.00000000E+00  0.00000000E+00  0.00000000E+00
  0.00000000E+00  0.00000000E+00  0.00000000E+00
  0.00000000E+00  0.00000000E+00  0.00000000E+00
  0.00000000E+00  0.00000000E+00  0.00000000E+00
  0.00000000E+00  0.00000000E+00  0.00000000E+00
  0.00000000E+00  0.00000000E+00  0.00000000E+00
  0.00000000E+00  0.00000000E+00  0.00000000E+00
  0.00000000E+00  0.00000000E+00  0.00000000E+00
  0.00000000E+00  0.00000000E+00  0.00000000E+00
  0.00000000E+00  0.00000000E+00  0.00000000E+00
  0.00000000E+00  0.00000000E+00  0.00000000E+00
  0.00000000E+00  0.00000000E+00  0.00000000E+00
  0.00000000E+00  0.00000000E+00  0.00000000E+00
  0.00000000E+00  0.00000000E+00  0.00000000E+00
  0.00000000E+00  0.00000000E+00  0.00000000E+00
  0.00000000E+00  0.00000000E+00  0.00000000E+00
  0.00000000E+00  0.00000000E+00  0.00000000E+00
  0.00000000E+00  0.00000000E+00  0.00000000E+00
  0.00000000E+00  0.00000000E+00  0.00000000E+00
  0.00000000E+00  0.00000000E+00  0.00000000E+00
  0.00000000E+00  0.00000000E+00  0.00000000E+00
  0.00000000E+00  0.00000000E+00  0.00000000E+00
  0.00000000E+00  0.00000000E+00  0.00000000E+00
  0.00000000E+00  0.00000000E+00  0.00000000E+00
  0.00000000E+00  0.00000000E+00  0.00000000E+00
  0.00000000E+00  0.00000000E+00  0.00000000E+00
  0.00000000E+00  0.00000000E+00  0.00000000E+00
  0.00000000E+00  0.00000000E+00  0.00000000E+00
  0.00000000E+00  0.00000000E+00  0.00000000E+00
  0.00000000E+00  0.00000000E+00  0.00000000E+00
  0.00000000E+00  0.00000000E+00  0.00000000E+00
  0.00000000E+00  0.00000000E+00  0.00000000E+00
  0.00000000E+00  0.00000000E+00  0.00000000E+00
  0.00000000E+00  0.00000000E+00  0.00000000E+00
  0.00000000E+00  0.00000000E+00  0.00000000E+00
  0.00000000E+00  0.00000000E+00  0.00000000E+00
  0.00000000E+00  0.00000000E+00  0.00000000E+00
  0.00000000E+00  0.00000000E+00  0.00000000E+00
  0.00000000E+00  0.00000000E+00  0.00000000E+00
  0.00000000E+00  0.00000000E+00  0.00000000E+00
  0.00000000E+00  0.00000000E+00  0.00000000E+00
  0.00000000E+00  0.00000000E+00  0.00000000E+00
  0.00000000E+00  0.00000000E+00  0.00000000E+00
  0.00000000E+00  0.00000000E+00  0.00000000E+00
  0.00000000E+00  0.00000000E+00  0.00000000E+00
  0.00000000E+00  0.00000000E+00  0.00000000E+00
  0.00000000E+00  0.00000000E+00  0.00000000E+00
  0.00000000E+00  0.00000000E+00  0.00000000E+00
  0.00000000E+00  0.00000000E+00  0.00000000E+00
  0.00000000E+00  0.00000000E+00  0.00000000E+00
  0.00000000E+00  0.00000000E+00  0.00000000E+00
  0.00000000E+00  0.00000000E+00  0.00000000E+00
  0.00000000E+00  0.00000000E+00  0.00000000E+00
  0.00000000E+00  0.00000000E+00  0.00000000E+00
  0.00000000E+00  0.00000000E+00  0.00000000E+00
  0.00000000E+00  0.00000000E+00  0.00000000E+00
  0.00000000E+00  0.00000000E+00  0.00000000E+00
  0.00000000E+00  0.00000000E+00  0.00000000E+00
  0.00000000E+00  0.00000000E+00  0.00000000E+00
  0.00000000E+00  0.00000000E+00  0.00000000E+00
  0.00000000E+00  0.00000000E+00  0.00000000E+00
  0.00000000E+00  0.00000000E+00  0.00000000E+00
  0.00000000E+00  0.00000000E+00  0.00000000E+00
  0.00000000E+00  0.00000000E+00  0.00000000E+00
  0.00000000E+00  0.00000000E+00  0.00000000E+00
  0.00000000E+00  0.00000000E+00  0.00000000E+00
  0.00000000E+00  0.00000000E+00  0.00000000E+00
  0.00000000E+00  0.00000000E+00  0.00000000E+00
  0.00000000E+00  0.00000000E+00  0.00000000E+00
  0.00000000E+00  0.00000000E+00  0.00000000E+00
  0.00000000E+00  0.00000000E+00  0.00000000E+00
  0.00000000E+00  0.00000000E+00  0.00000000E+00
  0.00000000E+00  0.00000000E+00  0.00000000E+00
