Mo  S Co                                
   1.00000000000000     
    15.9214998300000001    0.0000000000000000    0.0000000000000000
    -7.9622501300000001   13.7910221699999997    0.0000000000000000
     0.0000000000000000    0.0000000000000000   13.5821998300000004
   Mo   S    Ru
    25    49     4
Direct
  0.1358963818707721  0.0649789228094590  0.6750352875663097
  0.1329670984046558  0.2645885623330457  0.6615210684459072
  0.1362603435467662  0.4678328118047830  0.6752643690418267
  0.1347936215677876  0.6664523021039273  0.6799561533670797
  0.1344364811832222  0.8651847615057520  0.6799105155705902
  0.3343677623598182  0.0649836476329568  0.6794829496935861
  0.3287595051150234  0.2633935220242236  0.6754998033634649
  0.3291485439838269  0.4628883638044101  0.6757316853123143
  0.3350568097762689  0.6667123387332765  0.6797694238133332
  0.3349711944145284  0.8661132732318677  0.6811773548465041
  0.5357034589909944  0.0660272307396852  0.6830580824249495
  0.5318095488035581  0.2645226646096148  0.6830445526850539
  0.5320159047285102  0.4645214401403734  0.6809773135776140
  0.5339306062700118  0.6663224815558806  0.6836587169386519
  0.5355232095114317  0.8667638623219673  0.6831376576020745
  0.7366165327516327  0.0669520881043084  0.6833407888923446
  0.7347700515590603  0.2649995641913989  0.6813784173244315
  0.7338609189412608  0.4665258784797928  0.6850523305411542
  0.7331840385063799  0.6652534996630877  0.6844327981122973
  0.7354065946945170  0.8663242271599501  0.6844372494748256
  0.9376625455613876  0.0673549681373231  0.6803731981870200
  0.9384556087456914  0.2660706623897227  0.6805354897909268
  0.9351923724424225  0.4671408133135628  0.6801566781286112
  0.9338930420491565  0.6654915331467350  0.6819957538160679
  0.9345239121518674  0.8656137639170964  0.6816498390982133
  0.0644460289927338  0.1258209658059570  0.5561386277729028
  0.0823101545625278  0.1432946362021141  0.7893684150298057
  0.0650619019779910  0.3353021457740439  0.5563563299007512
  0.0837838102776161  0.3357383942679846  0.7897499253491063
  0.0671006688817570  0.5346795316696955  0.5633041948789668
  0.0695435883912339  0.5324712269859688  0.7935781992498363
  0.0663429414834340  0.7316332897655045  0.5656083063514714
  0.0684410302887244  0.7327263647883697  0.7959619398369213
  0.0657665544587331  0.9286386792988495  0.5637651339274896
  0.0695074291452542  0.9340384073672183  0.7937707800258522
  0.2687847733579787  0.1304738407562027  0.5606827868112489
  0.2662569970337501  0.1331182292622728  0.7917222151187673
  0.2689745181716177  0.3331645957377773  0.5563714147832997
  0.2692011155996283  0.5354677426919139  0.5609716798420692
  0.2667768562596891  0.5305662242891600  0.7920114859635063
  0.2686693082504803  0.7337431536246086  0.5651718083748918
  0.2678613589218486  0.7322328401539622  0.7955396750315700
  0.2681962817546690  0.9316091747789628  0.5649817535258848
  0.2674177523178969  0.9325070730014247  0.7954863572330240
  0.4695207646946926  0.1327603650737714  0.5669325356170418
  0.4661192038588808  0.1309975713483738  0.7970303157814627
  0.4663970782499547  0.3313384124571996  0.5659553971233535
  0.4568814831924470  0.3312042964090693  0.7969136442943849
  0.4672634339737840  0.5333423680337006  0.5666456141040044
  0.4584868485095654  0.5246630723606174  0.7963667297128438
  0.4701282834753755  0.7341861390186963  0.5671872681072045
  0.4667783107543286  0.7327642472100919  0.7974070829454618
  0.4695008644257754  0.9333730098434359  0.5674258005821642
  0.4676248394852038  0.9324823766082702  0.7976599145668644
  0.6687507224657949  0.1317872529980804  0.5676011943358930
  0.6689341741008050  0.1338325618876155  0.7992633205620407
  0.6665967855090216  0.3325661354425691  0.5698576216686604
  0.6655904100705428  0.3306384190972054  0.7982210966157481
  0.6671137226248192  0.5323826390426376  0.5689600722379140
  0.6645042772114422  0.5314252004635520  0.7992432391611501
  0.6674188789499453  0.7326926557991698  0.5695080155605012
  0.6669440670669999  0.7324130510373763  0.7994796255197940
  0.6695586313458435  0.9333292166405869  0.5689479473068744
  0.6690391108565308  0.9337154836893689  0.7988302195860726
  0.8689716739351070  0.1326372061120225  0.5669892812121304
  0.8724224824889362  0.1342413608965032  0.7969496453843377
  0.8683361923515491  0.3318046068613327  0.5677163726193584
  0.8703165030475688  0.3342134792314582  0.7966407494529193
  0.8655842034299752  0.5321448918194562  0.5673427423583846
  0.8684800221686473  0.5318020675808057  0.7987803339037214
  0.8656340764299557  0.7311838311591501  0.5679852736421935
  0.8681221689051526  0.7327721588652381  0.7978595595507159
  0.8670812187725900  0.9320520634699534  0.5677092250708000
  0.8712586261915618  0.9351284258013521  0.7972765258546701
  0.2407061187582329  0.3189860370577335  0.8177921639200036
  0.3804755673869735  0.3897843243638377  0.8963611205768984
  0.6864947755282671  0.2943254530599333  0.9489333803415434
  0.8414477535082838  0.3682848852679399  0.9461999357037740
 
  0.00000000E+00  0.00000000E+00  0.00000000E+00
  0.00000000E+00  0.00000000E+00  0.00000000E+00
  0.00000000E+00  0.00000000E+00  0.00000000E+00
  0.00000000E+00  0.00000000E+00  0.00000000E+00
  0.00000000E+00  0.00000000E+00  0.00000000E+00
  0.00000000E+00  0.00000000E+00  0.00000000E+00
  0.00000000E+00  0.00000000E+00  0.00000000E+00
  0.00000000E+00  0.00000000E+00  0.00000000E+00
  0.00000000E+00  0.00000000E+00  0.00000000E+00
  0.00000000E+00  0.00000000E+00  0.00000000E+00
  0.00000000E+00  0.00000000E+00  0.00000000E+00
  0.00000000E+00  0.00000000E+00  0.00000000E+00
  0.00000000E+00  0.00000000E+00  0.00000000E+00
  0.00000000E+00  0.00000000E+00  0.00000000E+00
  0.00000000E+00  0.00000000E+00  0.00000000E+00
  0.00000000E+00  0.00000000E+00  0.00000000E+00
  0.00000000E+00  0.00000000E+00  0.00000000E+00
  0.00000000E+00  0.00000000E+00  0.00000000E+00
  0.00000000E+00  0.00000000E+00  0.00000000E+00
  0.00000000E+00  0.00000000E+00  0.00000000E+00
  0.00000000E+00  0.00000000E+00  0.00000000E+00
  0.00000000E+00  0.00000000E+00  0.00000000E+00
  0.00000000E+00  0.00000000E+00  0.00000000E+00
  0.00000000E+00  0.00000000E+00  0.00000000E+00
  0.00000000E+00  0.00000000E+00  0.00000000E+00
  0.00000000E+00  0.00000000E+00  0.00000000E+00
  0.00000000E+00  0.00000000E+00  0.00000000E+00
  0.00000000E+00  0.00000000E+00  0.00000000E+00
  0.00000000E+00  0.00000000E+00  0.00000000E+00
  0.00000000E+00  0.00000000E+00  0.00000000E+00
  0.00000000E+00  0.00000000E+00  0.00000000E+00
  0.00000000E+00  0.00000000E+00  0.00000000E+00
  0.00000000E+00  0.00000000E+00  0.00000000E+00
  0.00000000E+00  0.00000000E+00  0.00000000E+00
  0.00000000E+00  0.00000000E+00  0.00000000E+00
  0.00000000E+00  0.00000000E+00  0.00000000E+00
  0.00000000E+00  0.00000000E+00  0.00000000E+00
  0.00000000E+00  0.00000000E+00  0.00000000E+00
  0.00000000E+00  0.00000000E+00  0.00000000E+00
  0.00000000E+00  0.00000000E+00  0.00000000E+00
  0.00000000E+00  0.00000000E+00  0.00000000E+00
  0.00000000E+00  0.00000000E+00  0.00000000E+00
  0.00000000E+00  0.00000000E+00  0.00000000E+00
  0.00000000E+00  0.00000000E+00  0.00000000E+00
  0.00000000E+00  0.00000000E+00  0.00000000E+00
  0.00000000E+00  0.00000000E+00  0.00000000E+00
  0.00000000E+00  0.00000000E+00  0.00000000E+00
  0.00000000E+00  0.00000000E+00  0.00000000E+00
  0.00000000E+00  0.00000000E+00  0.00000000E+00
  0.00000000E+00  0.00000000E+00  0.00000000E+00
  0.00000000E+00  0.00000000E+00  0.00000000E+00
  0.00000000E+00  0.00000000E+00  0.00000000E+00
  0.00000000E+00  0.00000000E+00  0.00000000E+00
  0.00000000E+00  0.00000000E+00  0.00000000E+00
  0.00000000E+00  0.00000000E+00  0.00000000E+00
  0.00000000E+00  0.00000000E+00  0.00000000E+00
  0.00000000E+00  0.00000000E+00  0.00000000E+00
  0.00000000E+00  0.00000000E+00  0.00000000E+00
  0.00000000E+00  0.00000000E+00  0.00000000E+00
  0.00000000E+00  0.00000000E+00  0.00000000E+00
  0.00000000E+00  0.00000000E+00  0.00000000E+00
  0.00000000E+00  0.00000000E+00  0.00000000E+00
  0.00000000E+00  0.00000000E+00  0.00000000E+00
  0.00000000E+00  0.00000000E+00  0.00000000E+00
  0.00000000E+00  0.00000000E+00  0.00000000E+00
  0.00000000E+00  0.00000000E+00  0.00000000E+00
  0.00000000E+00  0.00000000E+00  0.00000000E+00
  0.00000000E+00  0.00000000E+00  0.00000000E+00
  0.00000000E+00  0.00000000E+00  0.00000000E+00
  0.00000000E+00  0.00000000E+00  0.00000000E+00
  0.00000000E+00  0.00000000E+00  0.00000000E+00
  0.00000000E+00  0.00000000E+00  0.00000000E+00
  0.00000000E+00  0.00000000E+00  0.00000000E+00
  0.00000000E+00  0.00000000E+00  0.00000000E+00
  0.00000000E+00  0.00000000E+00  0.00000000E+00
  0.00000000E+00  0.00000000E+00  0.00000000E+00
  0.00000000E+00  0.00000000E+00  0.00000000E+00
  0.00000000E+00  0.00000000E+00  0.00000000E+00
