Mo  S Co                                
   1.00000000000000     
    15.9215000000000000    0.0000000000000000    0.0000000000000000
    -7.9622500000000000   13.7910219999999999    0.0000000000000000
     0.0000000000000000    0.0000000000000000   13.5822000000000003
   Mo   S    Co
    25    50     2
Direct
  0.1326129216908214  0.0657409247358487  0.6795211975594313
  0.1309722455026900  0.2652116710470551  0.6793746056443695
  0.1321309987581998  0.4656629977294457  0.6800027377474152
  0.1326542196548317  0.6659069425892099  0.6791523914675608
  0.1326529022798795  0.8657969081134951  0.6790249793676892
  0.3325566723858060  0.0654578824138170  0.6791919257223142
  0.3336204339127846  0.2652912090792654  0.6792541592950556
  0.3330689713448010  0.4670704782474289  0.6772903810965900
  0.3333220976349125  0.6667712431704302  0.6792090444983074
  0.3326002162389941  0.8659426228826987  0.6788892941117837
  0.5326777429150127  0.0658131498217784  0.6789231610353212
  0.5326893109377195  0.2658374351893471  0.6795119346188230
  0.5327266760361766  0.4656627452513362  0.6804159373029819
  0.5327847973707236  0.6667192010482523  0.6793523352413686
  0.5327468336219354  0.8660076189990349  0.6791699127593205
  0.7326451359709836  0.0657908344001399  0.6789132550525991
  0.7326153465800900  0.2657547436148846  0.6789153591395163
  0.7327321296613363  0.4659015783145790  0.6790930769617134
  0.7326375983521700  0.6658556435176024  0.6793193526669796
  0.7327784210528066  0.8658566321658796  0.6789499633399743
  0.9323450180525583  0.0653743034257417  0.6791225179948341
  0.9325592890331080  0.2658064425807751  0.6793896689241592
  0.9325053723470305  0.4659052516788833  0.6789596888569349
  0.9326538140725518  0.6658649250668418  0.6789362358735218
  0.9326183428703132  0.8657556532378123  0.6790295427301629
  0.0657583802492638  0.1319890370661341  0.5640720035858990
  0.0652559693057313  0.1319761677565339  0.7944198045907598
  0.0658981800243339  0.3329445600597083  0.5642825569011691
  0.0655279164331901  0.3324089390189897  0.7949279168790468
  0.0661027951843920  0.5325501944358493  0.5641175113852128
  0.0653742503149815  0.5326921758550256  0.7943756317992339
  0.0660360696572866  0.7324862835717667  0.5639169628516569
  0.0659241559126116  0.7325019010879785  0.7941201992370281
  0.0660728648845605  0.9326434575047031  0.5641228832218061
  0.0658537299430719  0.9322091282471803  0.7942512853695973
  0.2657709784874527  0.1320569334319117  0.5641048418662962
  0.2662119084965369  0.1321481534641009  0.7944900904007568
  0.2659966304546728  0.3327155331282583  0.5654282900551095
  0.2639293752330119  0.3286307446345305  0.7968151919308681
  0.2658405103429686  0.5329580761337240  0.5645646186319055
  0.2649963561410971  0.5336928789767015  0.7986633610633618
  0.2659475883022395  0.7325649325437169  0.5639033974223793
  0.2660535226962040  0.7329633548009511  0.7941664282462142
  0.2659272701376594  0.9324809367368587  0.5638440310334261
  0.2658791737630111  0.9321928260303096  0.7941897627494825
  0.4659182772980088  0.1326451303786556  0.5641146599349227
  0.4660606338403639  0.1322370227469634  0.7942271182630591
  0.4665777743905224  0.3331417538485653  0.5644927426688540
  0.4660483735527450  0.3322591784463498  0.7951549471409152
  0.4663148511689315  0.5328488178097714  0.5648279053016338
  0.4676516578210439  0.5337226553465868  0.7989955398441566
  0.4661032501830320  0.7326755746811955  0.5640337610406192
  0.4661930461790789  0.7330689079334434  0.7947510922274006
  0.4660114108825368  0.9324439560552378  0.5638598672246360
  0.4659781162617165  0.9325865137552043  0.7940265142038641
  0.6659843195175270  0.1324450795602985  0.5638038824937865
  0.6659934030809964  0.1324340841601952  0.7939683099848907
  0.6658056386516549  0.3324905545708106  0.5640781286026169
  0.6662347087801663  0.3325103855561906  0.7941517111950063
  0.6655666763451791  0.5324441664574948  0.5644129382775631
  0.6666713886921656  0.5326926312816695  0.7946165436510313
  0.6659635108620137  0.7324119870411181  0.5640512579204895
  0.6663056922272048  0.7328993964274488  0.7943045010890160
  0.6659517858948831  0.9323986634737551  0.5638821625303834
  0.6661087791662510  0.9325777453700681  0.7940429673378375
  0.8661809876353601  0.1325658034653188  0.5640445453034602
  0.8657136768725948  0.1322486203788458  0.7941710842440486
  0.8660864570032274  0.3324576870082936  0.5639876642091721
  0.8657836352827317  0.3325304822350077  0.7940779255000407
  0.8658925995625637  0.5325328258593771  0.5638250407780490
  0.8660332157718358  0.5326252775104479  0.7940906473529026
  0.8658147544637629  0.7324080267618882  0.5639684949078045
  0.8660891356881777  0.7325001087594742  0.7941640911069499
  0.8659701613334079  0.9323489833938581  0.5638361580285220
  0.8658036113068448  0.9321501442096576  0.7941851764878436
  0.2636941344025487  0.3137513079646581  0.9510868520635469
  0.3297218527991177  0.4604166107836036  0.8699388040073259
 
  0.00000000E+00  0.00000000E+00  0.00000000E+00
  0.00000000E+00  0.00000000E+00  0.00000000E+00
  0.00000000E+00  0.00000000E+00  0.00000000E+00
  0.00000000E+00  0.00000000E+00  0.00000000E+00
  0.00000000E+00  0.00000000E+00  0.00000000E+00
  0.00000000E+00  0.00000000E+00  0.00000000E+00
  0.00000000E+00  0.00000000E+00  0.00000000E+00
  0.00000000E+00  0.00000000E+00  0.00000000E+00
  0.00000000E+00  0.00000000E+00  0.00000000E+00
  0.00000000E+00  0.00000000E+00  0.00000000E+00
  0.00000000E+00  0.00000000E+00  0.00000000E+00
  0.00000000E+00  0.00000000E+00  0.00000000E+00
  0.00000000E+00  0.00000000E+00  0.00000000E+00
  0.00000000E+00  0.00000000E+00  0.00000000E+00
  0.00000000E+00  0.00000000E+00  0.00000000E+00
  0.00000000E+00  0.00000000E+00  0.00000000E+00
  0.00000000E+00  0.00000000E+00  0.00000000E+00
  0.00000000E+00  0.00000000E+00  0.00000000E+00
  0.00000000E+00  0.00000000E+00  0.00000000E+00
  0.00000000E+00  0.00000000E+00  0.00000000E+00
  0.00000000E+00  0.00000000E+00  0.00000000E+00
  0.00000000E+00  0.00000000E+00  0.00000000E+00
  0.00000000E+00  0.00000000E+00  0.00000000E+00
  0.00000000E+00  0.00000000E+00  0.00000000E+00
  0.00000000E+00  0.00000000E+00  0.00000000E+00
  0.00000000E+00  0.00000000E+00  0.00000000E+00
  0.00000000E+00  0.00000000E+00  0.00000000E+00
  0.00000000E+00  0.00000000E+00  0.00000000E+00
  0.00000000E+00  0.00000000E+00  0.00000000E+00
  0.00000000E+00  0.00000000E+00  0.00000000E+00
  0.00000000E+00  0.00000000E+00  0.00000000E+00
  0.00000000E+00  0.00000000E+00  0.00000000E+00
  0.00000000E+00  0.00000000E+00  0.00000000E+00
  0.00000000E+00  0.00000000E+00  0.00000000E+00
  0.00000000E+00  0.00000000E+00  0.00000000E+00
  0.00000000E+00  0.00000000E+00  0.00000000E+00
  0.00000000E+00  0.00000000E+00  0.00000000E+00
  0.00000000E+00  0.00000000E+00  0.00000000E+00
  0.00000000E+00  0.00000000E+00  0.00000000E+00
  0.00000000E+00  0.00000000E+00  0.00000000E+00
  0.00000000E+00  0.00000000E+00  0.00000000E+00
  0.00000000E+00  0.00000000E+00  0.00000000E+00
  0.00000000E+00  0.00000000E+00  0.00000000E+00
  0.00000000E+00  0.00000000E+00  0.00000000E+00
  0.00000000E+00  0.00000000E+00  0.00000000E+00
  0.00000000E+00  0.00000000E+00  0.00000000E+00
  0.00000000E+00  0.00000000E+00  0.00000000E+00
  0.00000000E+00  0.00000000E+00  0.00000000E+00
  0.00000000E+00  0.00000000E+00  0.00000000E+00
  0.00000000E+00  0.00000000E+00  0.00000000E+00
  0.00000000E+00  0.00000000E+00  0.00000000E+00
  0.00000000E+00  0.00000000E+00  0.00000000E+00
  0.00000000E+00  0.00000000E+00  0.00000000E+00
  0.00000000E+00  0.00000000E+00  0.00000000E+00
  0.00000000E+00  0.00000000E+00  0.00000000E+00
  0.00000000E+00  0.00000000E+00  0.00000000E+00
  0.00000000E+00  0.00000000E+00  0.00000000E+00
  0.00000000E+00  0.00000000E+00  0.00000000E+00
  0.00000000E+00  0.00000000E+00  0.00000000E+00
  0.00000000E+00  0.00000000E+00  0.00000000E+00
  0.00000000E+00  0.00000000E+00  0.00000000E+00
  0.00000000E+00  0.00000000E+00  0.00000000E+00
  0.00000000E+00  0.00000000E+00  0.00000000E+00
  0.00000000E+00  0.00000000E+00  0.00000000E+00
  0.00000000E+00  0.00000000E+00  0.00000000E+00
  0.00000000E+00  0.00000000E+00  0.00000000E+00
  0.00000000E+00  0.00000000E+00  0.00000000E+00
  0.00000000E+00  0.00000000E+00  0.00000000E+00
  0.00000000E+00  0.00000000E+00  0.00000000E+00
  0.00000000E+00  0.00000000E+00  0.00000000E+00
  0.00000000E+00  0.00000000E+00  0.00000000E+00
  0.00000000E+00  0.00000000E+00  0.00000000E+00
  0.00000000E+00  0.00000000E+00  0.00000000E+00
  0.00000000E+00  0.00000000E+00  0.00000000E+00
  0.00000000E+00  0.00000000E+00  0.00000000E+00
  0.00000000E+00  0.00000000E+00  0.00000000E+00
  0.00000000E+00  0.00000000E+00  0.00000000E+00
