POSCAR                                  
   1.00000000000000     
     6.3556978736701231    0.0000000000000000    0.0000000000000000
    -3.1778489368350615    5.5030709410687102    0.0149303906929321
     0.0000000000000000    0.0266086060174102    9.8653881615556198
   Al   N    Li   V 
    12    16     2     2
Direct
  0.1715773387006829  0.3295516045346212  0.0054051704316973
  0.6579742658339310  0.3295516045346212  0.0054051704316973
  0.1702664605584132  0.8405329211168330  0.0035100104921234
  0.6658923733311042  0.8317847466622148  0.9970613353333601
  0.1645637280436965  0.8291274560874001  0.5023904664193254
  0.6631609738975217  0.8263219477950509  0.5013182140401076
  0.8315075755403691  0.1630151510807314  0.7491633519444938
  0.3323586077272521  0.6766893053196983  0.7519542679244990
  0.8443306975924536  0.6766893053196983  0.7519542679244990
  0.8345705687908230  0.1691411375816388  0.2361739754899564
  0.3272410013018852  0.6635606588807261  0.2376936417239750
  0.8363196575788477  0.6635606588807261  0.2376936417239750
  0.1583708938448216  0.3387027050970332  0.1966844343043215
  0.6803318112522043  0.3387027050970332  0.1966844343043215
  0.1598261742151922  0.8196523484303917  0.1947183440644603
  0.6662288978467830  0.8324577956935733  0.1925753540921118
  0.1546993635180370  0.3489600960907124  0.6703547191398591
  0.6942607325726683  0.3489600960907124  0.6703547191398591
  0.1586250491441514  0.8172500982883101  0.6874029570710308
  0.6665406371970668  0.8330812743941406  0.6906647796030342
  0.3340558543457999  0.1681117086915926  0.9504976715202179
  0.8341155658957535  0.1682311317914999  0.9386799398449407
  0.3329676750468386  0.6646783645504354  0.9419620981944039
  0.8317106895036036  0.6646783645504354  0.9419620981944039
  0.3353230344231917  0.1706460688463764  0.4558355078929872
  0.8296892227316004  0.1593784454631939  0.4428318713460252
  0.3353042398276159  0.6660767529789412  0.4410064450466943
  0.8307725131513325  0.6660767529789412  0.4410064450466943
  0.3293848859175948  0.1587697718351826  0.7500865753816157
  0.3323381237928523  0.1646762475856974  0.2337248104593243
  0.1685146530580099  0.3356913868759190  0.4916216407369996
  0.6671767338179019  0.3356913868759190  0.4916216407369996
 
  0.00000000E+00  0.00000000E+00  0.00000000E+00
  0.00000000E+00  0.00000000E+00  0.00000000E+00
  0.00000000E+00  0.00000000E+00  0.00000000E+00
  0.00000000E+00  0.00000000E+00  0.00000000E+00
  0.00000000E+00  0.00000000E+00  0.00000000E+00
  0.00000000E+00  0.00000000E+00  0.00000000E+00
  0.00000000E+00  0.00000000E+00  0.00000000E+00
  0.00000000E+00  0.00000000E+00  0.00000000E+00
  0.00000000E+00  0.00000000E+00  0.00000000E+00
  0.00000000E+00  0.00000000E+00  0.00000000E+00
  0.00000000E+00  0.00000000E+00  0.00000000E+00
  0.00000000E+00  0.00000000E+00  0.00000000E+00
  0.00000000E+00  0.00000000E+00  0.00000000E+00
  0.00000000E+00  0.00000000E+00  0.00000000E+00
  0.00000000E+00  0.00000000E+00  0.00000000E+00
  0.00000000E+00  0.00000000E+00  0.00000000E+00
  0.00000000E+00  0.00000000E+00  0.00000000E+00
  0.00000000E+00  0.00000000E+00  0.00000000E+00
  0.00000000E+00  0.00000000E+00  0.00000000E+00
  0.00000000E+00  0.00000000E+00  0.00000000E+00
  0.00000000E+00  0.00000000E+00  0.00000000E+00
  0.00000000E+00  0.00000000E+00  0.00000000E+00
  0.00000000E+00  0.00000000E+00  0.00000000E+00
  0.00000000E+00  0.00000000E+00  0.00000000E+00
  0.00000000E+00  0.00000000E+00  0.00000000E+00
  0.00000000E+00  0.00000000E+00  0.00000000E+00
  0.00000000E+00  0.00000000E+00  0.00000000E+00
  0.00000000E+00  0.00000000E+00  0.00000000E+00
  0.00000000E+00  0.00000000E+00  0.00000000E+00
  0.00000000E+00  0.00000000E+00  0.00000000E+00
  0.00000000E+00  0.00000000E+00  0.00000000E+00
  0.00000000E+00  0.00000000E+00  0.00000000E+00
