Ta N Cu Ru                              
   1.00000000000000     
    18.1096308199999996    0.0000000000000000    0.0000000000000000
     0.0000000000000000   11.6775998899999998    0.0000000000000000
     0.0000000000000000    0.0000000000000000   23.4818170799999990
   Ta   N    Cu   Ru
   119   120     2     1
Direct
  0.0001421243054831  0.0004698960910007  0.2550546376299454
  0.3332332636794487  0.1255412323709928  0.2638432482193457
  0.1660042825049211  0.1255199910156021  0.2639453628108659
  0.2497622216377896  0.2504704703259011  0.3616944827732332
  0.0822852615569152  0.1254510563474754  0.3688005649979310
  0.4173126357086431  0.1255338223735754  0.3685701362135463
  0.0001330984108157  0.2504608535162470  0.4801925532363615
  0.3319360336292822  0.1254902428449820  0.4784784572417622
  0.1671853235326436  0.1255158553603399  0.4784904037269991
  0.2500597973702007  0.2542457079560085  0.5911493745367410
  0.0845099931404300  0.1255890916685048  0.5912122293940653
  0.4134686658392245  0.1254619973486165  0.5911161948749182
  0.9989520358183857  0.2502981442180485  0.7015452804182639
  0.1651848740266875  0.1254621932676190  0.7051156489557929
  0.0001203926490228  0.2505844030522150  0.2550542678586047
  0.3330844698584224  0.3755197607682476  0.2638891551068701
  0.1661645034514936  0.3754232671854711  0.2639723020720955
  0.2497011550963159  0.5005833775329218  0.3616843037770200
  0.0823316359275525  0.3754435245636022  0.3687770322468278
  0.4173396736323591  0.3754826558838969  0.3683646911369731
  0.9998832188299734  0.5005922349021119  0.4799742226801967
  0.3318015392299324  0.3754029651745870  0.4781449051929132
  0.1674331162915181  0.3756490174427460  0.4785903330589446
  0.2496277808232802  0.5013610033673613  0.5909975249244318
  0.0837911144163958  0.3758637508321190  0.5901739842801598
  0.4173573184846509  0.3769318029685405  0.5893641673776550
  0.0000599546690038  0.5005788643990203  0.7020922390502524
  0.3354523923262097  0.3716375724612334  0.7065870518183520
  0.1642828098365169  0.3783148292788475  0.7050369875736777
 -0.0000014599754097  0.5005487245906893  0.2549779763074151
  0.3330761161559146  0.6255338517560375  0.2638867088850269
  0.1661734448247048  0.6255125937553377  0.2638703298916186
  0.2497225463561633  0.7503948250818835  0.3616801766370065
  0.0823916493087060  0.6254795206846164  0.3686536900679223
  0.4174489262213171  0.6255523784462417  0.3683010394845181
  0.9999040301151370  0.7505279310852736  0.4799743822654017
  0.3320916989893990  0.6254686138882684  0.4777434967242012
  0.1673129948307339  0.6255314084695045  0.4782394338188532
  0.2496514107363064  0.7495929731489392  0.5910293139536257
  0.0833190549653539  0.6255555023090190  0.5902094601120185
  0.4164541798017309  0.6254547975276686  0.5893334874820811
  0.0000875990560970  0.7506354689100234  0.7020834298467161
  0.3344640892535755  0.6252140070589175  0.7028444245687824
  0.1637207645655632  0.6254713003643222  0.7045760944951279
  0.9999851208228017  0.7505272690533643  0.2549774755052979
  0.3330900495785731  0.8754999551142065  0.2638876554944042
  0.1661890554632527  0.8755455357789282  0.2639721947046972
  0.2497714594945709  0.0004555005239193  0.3617116495575991
  0.0823549833838320  0.8754749189927078  0.3687824122833909
  0.4173371140904352  0.8756095739159621  0.3683666392145820
  0.0001533926139749  0.0006380925649473  0.4801930185182161
  0.3318279938731929  0.8755906468674474  0.4781739155620401
  0.1674690891945072  0.8753900814991210  0.4786172123096524
  0.2500907267711076  0.9967247770538397  0.5912265235917503
  0.0837946606809859  0.8752801295314101  0.5901821213219796
  0.4173544522296119  0.8740378293487940  0.5894028388795650
  0.9989818431831616  0.0009667738769227  0.7015365520626993
  0.3355320456082396  0.8788305227222456  0.7066368210590280
  0.1643275173277631  0.8726315309087176  0.7050667883488110
  0.4996909270169673  0.0006521411846761  0.2548544170098968
  0.8334038071770586  0.1254863724991237  0.2640147692825211
  0.6665205381453455  0.1255308234294426  0.2638545100735760
  0.7497089727176832  0.2506084577653678  0.3616956751324957
  0.5822917895772958  0.1255662179389838  0.3684361790436333
  0.9173362859526510  0.1255238706392703  0.3686693549211436
  0.4998238215278491  0.2504316148082145  0.4799317841553761
  0.8320007118828443  0.1256028449213872  0.4782156467623756
  0.6670396637373220  0.1256625118199935  0.4783768429918312
  0.7499191980251266  0.2509610125529703  0.5910847740344570
  0.5829121236806062  0.1255878556498826  0.5905029046983928
  0.9160093623392564  0.1256416015023857  0.5897435901994525
  0.5036862142837395  0.2532560646648040  0.7043045021065389
  0.8359141570750629  0.1258359949365037  0.7036400183805004
  0.6669346940315763  0.1257091248851228  0.7040035116459784
  0.4997085826306915  0.2504382433888014  0.2548486093601844
  0.8332480813918267  0.3754377597377912  0.2640180129165574
  0.6665847036319983  0.3755325551631660  0.2638463365058388
  0.7497396256999870  0.5004324220586945  0.3616888877216283
  0.5823062347017512  0.3755458375877857  0.3683820888958806
  0.9173510226060733  0.3754738617490593  0.3686160194000359
  0.5000403560663614  0.5005208118066052  0.4796805947722340
  0.8319686567969875  0.3756123812910232  0.4781384041794833
  0.6671818130029645  0.3756100747730938  0.4783301594441470
  0.7501184271656971  0.5006404394339030  0.5909063893584549
  0.5837512767852127  0.3753664150848626  0.5903930231652182
  0.9161321395073736  0.3756799631731443  0.5896641434508276
  0.5003412680844301  0.4998102618857420  0.7030619054029515
  0.8358897766691900  0.3759625103029126  0.7040655258003086
  0.6658437696724342  0.3758638068356657  0.7042174515867011
  0.4997579979807137  0.5003856624818401  0.2547160462761464
  0.8332170228399609  0.6254945298813671  0.2639763637051882
  0.6665800682645177  0.6255327330552257  0.2637890296754360
  0.7497270078219260  0.7506484273735446  0.3616916279696849
  0.5823048898970886  0.6255819178471836  0.3682781458860244
  0.9173572912623137  0.6255245876765172  0.3685759605319537
  0.5000362786994562  0.7505475382405929  0.4796819960222949
  0.8319865720033561  0.6256110248351419  0.4781334194027521
  0.6672137553672024  0.6256521944081294  0.4781784278854492
  0.7501428642166923  0.7506882314578667  0.5908835767592419
  0.5837692752507782  0.6256163717832685  0.5901993364387279
  0.9160646375859299  0.6256473817850678  0.5896626652409135
  0.5003305139743330  0.7510124581427616  0.7031017546457373
  0.8355781641832547  0.6258548267747210  0.7044492062192741
  0.6650898274515903  0.6256478953614675  0.7043298390525499
  0.4997663923821067  0.7506837616166019  0.2547170763698146
  0.8332510128316619  0.8756287230157376  0.2639959931080604
  0.6665905884057540  0.8755427863770481  0.2638372432326634
  0.7497172646677115  0.0004550170604962  0.3616842754828047
  0.5823077409042240  0.8756192340450906  0.3683765565733468
  0.9173570488331403  0.8755758958889581  0.3686155729786780
  0.4998317651788190  0.0006671930998899  0.4799358410186819
  0.8319721296214627  0.8756122329972782  0.4781372220148362
  0.6671783334403696  0.8757040270054982  0.4783192109464013
  0.7499188345712295  0.0003876408835128  0.5910867877006670
  0.5837856905022522  0.8758002453806898  0.5903783672652954
  0.9161446941299101  0.8755909366612327  0.5896551811059243
  0.5038518442614688  0.9974037131814225  0.7043100195361910
  0.8359608800840389  0.8757412472179441  0.7040607057602204
  0.6659196040740848  0.8754258189096699  0.7042116038402696
  0.4065791592355369  0.0007566218182593  0.3012291083305443
  0.2496552574527497  0.0006209823360088  0.2582495669884581
  0.0931022686627719  0.0005199188311061  0.3016265782341239
  0.1542949606381289  0.2503914971796142  0.4103598859898557
  0.9998557278799435  0.2505183720350390  0.3934792208717277
  0.3453090118261510  0.2503904867444579  0.4100986934931245
  0.4011306931689473  0.2495044331893733  0.5222518338901717
  0.2497278282126532  0.2503550724352328  0.5030990625691352
  0.0990910182766332  0.2504481991351362  0.5226416587844328
  0.1513955866231389  0.2525076681251023  0.6348264826976857
  0.9999710490669141  0.2504230470320918  0.6132227219269455
  0.3483906355808767  0.2602794265285513  0.6325189298573094
  0.4151721119048040  0.2802682256332559  0.7507151257799562
  0.2487973727624783  0.2519251900064596  0.7262081826175828
  0.0957489460632630  0.2528396017243643  0.7445034908015590
  0.4065920510905914  0.2503235246172758  0.3012170864595695
  0.2496443822223096  0.2503996098865129  0.2581906242961229
  0.0930814140853993  0.2504623801640718  0.3016247111109642
  0.1541041886841239  0.5004963836238437  0.4101907741910866
  0.9998518024565279  0.5004883408995906  0.3932858882926133
  0.3454942235223843  0.5003625859429730  0.4098646797258479
  0.4009775933720592  0.5006859307987450  0.5217133013373988
  0.2498710571381590  0.5011159603249135  0.5028393266870865
  0.0988501350885812  0.5005478758356759  0.5222727704054688
  0.1511571758003814  0.5008707842164295  0.6337137475597361
  0.9996999350129453  0.5005381547320459  0.6133585132798921
  0.3480721472834803  0.5002454265123411  0.6325430968231398
  0.4017213686250214  0.5041663402626174  0.7386973650810659
  0.2495020470311266  0.4977680109684559  0.7232148395575958
  0.0964612104588343  0.5012307499275201  0.7415089101245728
  0.4066034050892544  0.5004592409710154  0.3010905056185480
  0.2495987166265245  0.5004710177327087  0.2579785852440063
  0.0930533141267765  0.5004530689518187  0.3014648047158193
  0.1541229929486955  0.7504940640189306  0.4101955400642937
  0.9998570425893121  0.7505286641644987  0.3932855604182409
  0.3454995497524360  0.7506568110388351  0.4098779240031627
  0.4009914435114633  0.7502818525114182  0.5217365101675761
  0.2498920956374779  0.7498866016498339  0.5028673135329885
  0.0988606023364705  0.7505497493227956  0.5222882563525227
  0.1511713574933407  0.7501963490600764  0.6337301471636572
  0.9997129854035255  0.7506648672804141  0.6133597115977586
  0.3480943288500226  0.7505598394946894  0.6325936193128242
  0.4017070124141380  0.7460256636192911  0.7387557056005528
  0.2495407152249840  0.7529909743364338  0.7232164749794200
  0.0964866461543724  0.7497637340363882  0.7415342448660278
  0.4066099754646986  0.7506191722610104  0.3010923490571362
  0.2496125380538876  0.7505430176028802  0.2578955973534541
  0.0930546170495538  0.7505564062863488  0.3014598139888893
  0.1543111172387031  0.0005723717466888  0.4103735047803054
  0.9998677710846533  0.0004646662726173  0.3934807365283702
  0.3453174649969513  0.0006221001302176  0.4101163741196952
  0.4011423631704063  0.0014721328322353  0.5222796539293996
  0.2497443889533597  0.0006525332205880  0.5031510198890281
  0.0991151088873122  0.0006431809226449  0.5226570531082252
  0.1513996691879384  0.9985393105548640  0.6348592523187406
  0.9999866738647843  0.0008180405704405  0.6132181814101028
  0.3484126402635017  0.9905559063968752  0.6326243779808152
  0.4156638506593640  0.9693759277742263  0.7508518494824020
  0.2489173177148588  0.9988505325648809  0.7262233514194588
  0.0957878888027817  0.9981427502235767  0.7445356220439097
  0.9069122097981236  0.0005982783669785  0.3013277393023894
  0.7499213588333166  0.0006086361234589  0.2574779977615246
  0.5929922350026210  0.0006092462071626  0.3011112304835403
  0.6540174756296829  0.2505195968430551  0.4100757970847002
  0.4997692044322332  0.2506034815469878  0.3931876522578694
  0.8453894644179515  0.2505688841817208  0.4100285707179504
  0.9007939955808011  0.2507174230330679  0.5218871605964180
  0.7495910483758730  0.2505901891375031  0.5029388547487273
  0.5985069442786782  0.2504092363968088  0.5224526994423346
  0.6518285057027541  0.2506633326553426  0.6335478622524050
  0.4987857559709562  0.2505517739207126  0.6147850768604488
  0.8483642365290472  0.2510318460905847  0.6331120217387343
  0.9036340098939146  0.2505064112714659  0.7406107214858521
  0.7514210540343204  0.2506950875363469  0.7237749758961644
  0.6000496285475924  0.2509275940773874  0.7415319031047339
  0.9068977625106899  0.2504494801326920  0.3013355032132309
  0.7499260796706312  0.2504307914151452  0.2575441411238020
  0.5929965984584132  0.2505085103510761  0.3011183404606477
  0.6540481287505795  0.5005210564058835  0.4099761171155451
  0.4998296691030024  0.5004986734198446  0.3929572755671551
  0.8454332736213190  0.5004995253323128  0.4099669406782451
  0.9007053915995101  0.5006396352968339  0.5219160380219057
  0.7496316915728735  0.5006241076300673  0.5027625103461100
  0.5987467751569434  0.5005058057457552  0.5223074524506597
  0.6520957144811906  0.5008555107273428  0.6331946713680805
  0.5000164448428459  0.5009941706374563  0.6142926077816057
  0.8483642539295526  0.5009361576636759  0.6331765892606441
  0.9036390900981122  0.5008859202866787  0.7406024013980776
  0.7507588833745267  0.5007355468150954  0.7239374941609639
  0.5977548455228435  0.5009971130417052  0.7405750774459539
  0.9067904916031566  0.5005000924343003  0.3013127431247591
  0.7499521166970231  0.5004949531448646  0.2573664397839515
  0.5929700415928377  0.5004949466584008  0.3010610948667683
  0.6540460891539396  0.7506757930701454  0.4099694867819150
  0.4998325538535241  0.7506241615182065  0.3929612001307893
  0.8454359425899316  0.7506357979667315  0.4099606482712314
  0.9007191239569355  0.7506223080530007  0.5219138542255676
  0.7496389123862973  0.7506558921522160  0.5027577486878372
  0.5987516305572610  0.7507255007616448  0.5223046065431930
  0.6521173366474670  0.7504042544755719  0.6331933778081973
  0.5000246402094410  0.7500393342523934  0.6143314847752611
  0.8483854412935722  0.7504947761489058  0.6331762464358776
  0.9036850682720323  0.7507763808946267  0.7405949659951819
  0.7507916209667876  0.7507517911289010  0.7239406159053110
  0.5977888659866345  0.7502398903982396  0.7405742011169610
  0.9067780408339293  0.7505684958442932  0.3013094693823526
  0.7499611331335759  0.7505551404903331  0.2573892088368384
  0.5929758251996561  0.7506231222646654  0.3010594615442716
  0.6540232632263419  0.0006793674642164  0.4100708844212564
  0.4997704199257479  0.0005067431393745  0.3931909452206817
  0.8453945328987447  0.0005549531620828  0.4100228167099378
  0.9008123973138558  0.0005496704202278  0.5218799443884673
  0.7495976168609888  0.0006827872809897  0.5029339551390934
  0.5985144523050705  0.0008143354245633  0.5224461789153002
  0.6518539339947969  0.0005982998639317  0.6335422085797606
  0.4988159507973876  0.0004440295517690  0.6147790036695920
  0.8483923728559818  0.0004202620433415  0.6331043529654865
  0.9036885502977934  0.0011849126500341  0.7405861678063764
  0.7514805941062216  0.0008068340688324  0.7237497377912773
  0.6001969894711721  0.0002618190779666  0.7415510311095522
  0.0703773680149689  0.1255142044694004  0.7932222503894445
  0.4067735506074349  0.1248136058020347  0.7643138296844256
  0.3096983204311897  0.1255233767329050  0.6834779137666116
 
  0.00000000E+00  0.00000000E+00  0.00000000E+00
  0.00000000E+00  0.00000000E+00  0.00000000E+00
  0.00000000E+00  0.00000000E+00  0.00000000E+00
  0.00000000E+00  0.00000000E+00  0.00000000E+00
  0.00000000E+00  0.00000000E+00  0.00000000E+00
  0.00000000E+00  0.00000000E+00  0.00000000E+00
  0.00000000E+00  0.00000000E+00  0.00000000E+00
  0.00000000E+00  0.00000000E+00  0.00000000E+00
  0.00000000E+00  0.00000000E+00  0.00000000E+00
  0.00000000E+00  0.00000000E+00  0.00000000E+00
  0.00000000E+00  0.00000000E+00  0.00000000E+00
  0.00000000E+00  0.00000000E+00  0.00000000E+00
  0.00000000E+00  0.00000000E+00  0.00000000E+00
  0.00000000E+00  0.00000000E+00  0.00000000E+00
  0.00000000E+00  0.00000000E+00  0.00000000E+00
  0.00000000E+00  0.00000000E+00  0.00000000E+00
  0.00000000E+00  0.00000000E+00  0.00000000E+00
  0.00000000E+00  0.00000000E+00  0.00000000E+00
  0.00000000E+00  0.00000000E+00  0.00000000E+00
  0.00000000E+00  0.00000000E+00  0.00000000E+00
  0.00000000E+00  0.00000000E+00  0.00000000E+00
  0.00000000E+00  0.00000000E+00  0.00000000E+00
  0.00000000E+00  0.00000000E+00  0.00000000E+00
  0.00000000E+00  0.00000000E+00  0.00000000E+00
  0.00000000E+00  0.00000000E+00  0.00000000E+00
  0.00000000E+00  0.00000000E+00  0.00000000E+00
  0.00000000E+00  0.00000000E+00  0.00000000E+00
  0.00000000E+00  0.00000000E+00  0.00000000E+00
  0.00000000E+00  0.00000000E+00  0.00000000E+00
  0.00000000E+00  0.00000000E+00  0.00000000E+00
  0.00000000E+00  0.00000000E+00  0.00000000E+00
  0.00000000E+00  0.00000000E+00  0.00000000E+00
  0.00000000E+00  0.00000000E+00  0.00000000E+00
  0.00000000E+00  0.00000000E+00  0.00000000E+00
  0.00000000E+00  0.00000000E+00  0.00000000E+00
  0.00000000E+00  0.00000000E+00  0.00000000E+00
  0.00000000E+00  0.00000000E+00  0.00000000E+00
  0.00000000E+00  0.00000000E+00  0.00000000E+00
  0.00000000E+00  0.00000000E+00  0.00000000E+00
  0.00000000E+00  0.00000000E+00  0.00000000E+00
  0.00000000E+00  0.00000000E+00  0.00000000E+00
  0.00000000E+00  0.00000000E+00  0.00000000E+00
  0.00000000E+00  0.00000000E+00  0.00000000E+00
  0.00000000E+00  0.00000000E+00  0.00000000E+00
  0.00000000E+00  0.00000000E+00  0.00000000E+00
  0.00000000E+00  0.00000000E+00  0.00000000E+00
  0.00000000E+00  0.00000000E+00  0.00000000E+00
  0.00000000E+00  0.00000000E+00  0.00000000E+00
  0.00000000E+00  0.00000000E+00  0.00000000E+00
  0.00000000E+00  0.00000000E+00  0.00000000E+00
  0.00000000E+00  0.00000000E+00  0.00000000E+00
  0.00000000E+00  0.00000000E+00  0.00000000E+00
  0.00000000E+00  0.00000000E+00  0.00000000E+00
  0.00000000E+00  0.00000000E+00  0.00000000E+00
  0.00000000E+00  0.00000000E+00  0.00000000E+00
  0.00000000E+00  0.00000000E+00  0.00000000E+00
  0.00000000E+00  0.00000000E+00  0.00000000E+00
  0.00000000E+00  0.00000000E+00  0.00000000E+00
  0.00000000E+00  0.00000000E+00  0.00000000E+00
  0.00000000E+00  0.00000000E+00  0.00000000E+00
  0.00000000E+00  0.00000000E+00  0.00000000E+00
  0.00000000E+00  0.00000000E+00  0.00000000E+00
  0.00000000E+00  0.00000000E+00  0.00000000E+00
  0.00000000E+00  0.00000000E+00  0.00000000E+00
  0.00000000E+00  0.00000000E+00  0.00000000E+00
  0.00000000E+00  0.00000000E+00  0.00000000E+00
  0.00000000E+00  0.00000000E+00  0.00000000E+00
  0.00000000E+00  0.00000000E+00  0.00000000E+00
  0.00000000E+00  0.00000000E+00  0.00000000E+00
  0.00000000E+00  0.00000000E+00  0.00000000E+00
  0.00000000E+00  0.00000000E+00  0.00000000E+00
  0.00000000E+00  0.00000000E+00  0.00000000E+00
  0.00000000E+00  0.00000000E+00  0.00000000E+00
  0.00000000E+00  0.00000000E+00  0.00000000E+00
  0.00000000E+00  0.00000000E+00  0.00000000E+00
  0.00000000E+00  0.00000000E+00  0.00000000E+00
  0.00000000E+00  0.00000000E+00  0.00000000E+00
  0.00000000E+00  0.00000000E+00  0.00000000E+00
  0.00000000E+00  0.00000000E+00  0.00000000E+00
  0.00000000E+00  0.00000000E+00  0.00000000E+00
  0.00000000E+00  0.00000000E+00  0.00000000E+00
  0.00000000E+00  0.00000000E+00  0.00000000E+00
  0.00000000E+00  0.00000000E+00  0.00000000E+00
  0.00000000E+00  0.00000000E+00  0.00000000E+00
  0.00000000E+00  0.00000000E+00  0.00000000E+00
  0.00000000E+00  0.00000000E+00  0.00000000E+00
  0.00000000E+00  0.00000000E+00  0.00000000E+00
  0.00000000E+00  0.00000000E+00  0.00000000E+00
  0.00000000E+00  0.00000000E+00  0.00000000E+00
  0.00000000E+00  0.00000000E+00  0.00000000E+00
  0.00000000E+00  0.00000000E+00  0.00000000E+00
  0.00000000E+00  0.00000000E+00  0.00000000E+00
  0.00000000E+00  0.00000000E+00  0.00000000E+00
  0.00000000E+00  0.00000000E+00  0.00000000E+00
  0.00000000E+00  0.00000000E+00  0.00000000E+00
  0.00000000E+00  0.00000000E+00  0.00000000E+00
  0.00000000E+00  0.00000000E+00  0.00000000E+00
  0.00000000E+00  0.00000000E+00  0.00000000E+00
  0.00000000E+00  0.00000000E+00  0.00000000E+00
  0.00000000E+00  0.00000000E+00  0.00000000E+00
  0.00000000E+00  0.00000000E+00  0.00000000E+00
  0.00000000E+00  0.00000000E+00  0.00000000E+00
  0.00000000E+00  0.00000000E+00  0.00000000E+00
  0.00000000E+00  0.00000000E+00  0.00000000E+00
  0.00000000E+00  0.00000000E+00  0.00000000E+00
  0.00000000E+00  0.00000000E+00  0.00000000E+00
  0.00000000E+00  0.00000000E+00  0.00000000E+00
  0.00000000E+00  0.00000000E+00  0.00000000E+00
  0.00000000E+00  0.00000000E+00  0.00000000E+00
  0.00000000E+00  0.00000000E+00  0.00000000E+00
  0.00000000E+00  0.00000000E+00  0.00000000E+00
  0.00000000E+00  0.00000000E+00  0.00000000E+00
  0.00000000E+00  0.00000000E+00  0.00000000E+00
  0.00000000E+00  0.00000000E+00  0.00000000E+00
  0.00000000E+00  0.00000000E+00  0.00000000E+00
  0.00000000E+00  0.00000000E+00  0.00000000E+00
  0.00000000E+00  0.00000000E+00  0.00000000E+00
  0.00000000E+00  0.00000000E+00  0.00000000E+00
  0.00000000E+00  0.00000000E+00  0.00000000E+00
  0.00000000E+00  0.00000000E+00  0.00000000E+00
  0.00000000E+00  0.00000000E+00  0.00000000E+00
  0.00000000E+00  0.00000000E+00  0.00000000E+00
  0.00000000E+00  0.00000000E+00  0.00000000E+00
  0.00000000E+00  0.00000000E+00  0.00000000E+00
  0.00000000E+00  0.00000000E+00  0.00000000E+00
  0.00000000E+00  0.00000000E+00  0.00000000E+00
  0.00000000E+00  0.00000000E+00  0.00000000E+00
  0.00000000E+00  0.00000000E+00  0.00000000E+00
  0.00000000E+00  0.00000000E+00  0.00000000E+00
  0.00000000E+00  0.00000000E+00  0.00000000E+00
  0.00000000E+00  0.00000000E+00  0.00000000E+00
  0.00000000E+00  0.00000000E+00  0.00000000E+00
  0.00000000E+00  0.00000000E+00  0.00000000E+00
  0.00000000E+00  0.00000000E+00  0.00000000E+00
  0.00000000E+00  0.00000000E+00  0.00000000E+00
  0.00000000E+00  0.00000000E+00  0.00000000E+00
  0.00000000E+00  0.00000000E+00  0.00000000E+00
  0.00000000E+00  0.00000000E+00  0.00000000E+00
  0.00000000E+00  0.00000000E+00  0.00000000E+00
  0.00000000E+00  0.00000000E+00  0.00000000E+00
  0.00000000E+00  0.00000000E+00  0.00000000E+00
  0.00000000E+00  0.00000000E+00  0.00000000E+00
  0.00000000E+00  0.00000000E+00  0.00000000E+00
  0.00000000E+00  0.00000000E+00  0.00000000E+00
  0.00000000E+00  0.00000000E+00  0.00000000E+00
  0.00000000E+00  0.00000000E+00  0.00000000E+00
  0.00000000E+00  0.00000000E+00  0.00000000E+00
  0.00000000E+00  0.00000000E+00  0.00000000E+00
  0.00000000E+00  0.00000000E+00  0.00000000E+00
  0.00000000E+00  0.00000000E+00  0.00000000E+00
  0.00000000E+00  0.00000000E+00  0.00000000E+00
  0.00000000E+00  0.00000000E+00  0.00000000E+00
  0.00000000E+00  0.00000000E+00  0.00000000E+00
  0.00000000E+00  0.00000000E+00  0.00000000E+00
  0.00000000E+00  0.00000000E+00  0.00000000E+00
  0.00000000E+00  0.00000000E+00  0.00000000E+00
  0.00000000E+00  0.00000000E+00  0.00000000E+00
  0.00000000E+00  0.00000000E+00  0.00000000E+00
  0.00000000E+00  0.00000000E+00  0.00000000E+00
  0.00000000E+00  0.00000000E+00  0.00000000E+00
  0.00000000E+00  0.00000000E+00  0.00000000E+00
  0.00000000E+00  0.00000000E+00  0.00000000E+00
  0.00000000E+00  0.00000000E+00  0.00000000E+00
  0.00000000E+00  0.00000000E+00  0.00000000E+00
  0.00000000E+00  0.00000000E+00  0.00000000E+00
  0.00000000E+00  0.00000000E+00  0.00000000E+00
  0.00000000E+00  0.00000000E+00  0.00000000E+00
  0.00000000E+00  0.00000000E+00  0.00000000E+00
  0.00000000E+00  0.00000000E+00  0.00000000E+00
  0.00000000E+00  0.00000000E+00  0.00000000E+00
  0.00000000E+00  0.00000000E+00  0.00000000E+00
  0.00000000E+00  0.00000000E+00  0.00000000E+00
  0.00000000E+00  0.00000000E+00  0.00000000E+00
  0.00000000E+00  0.00000000E+00  0.00000000E+00
  0.00000000E+00  0.00000000E+00  0.00000000E+00
  0.00000000E+00  0.00000000E+00  0.00000000E+00
  0.00000000E+00  0.00000000E+00  0.00000000E+00
  0.00000000E+00  0.00000000E+00  0.00000000E+00
  0.00000000E+00  0.00000000E+00  0.00000000E+00
  0.00000000E+00  0.00000000E+00  0.00000000E+00
  0.00000000E+00  0.00000000E+00  0.00000000E+00
  0.00000000E+00  0.00000000E+00  0.00000000E+00
  0.00000000E+00  0.00000000E+00  0.00000000E+00
  0.00000000E+00  0.00000000E+00  0.00000000E+00
  0.00000000E+00  0.00000000E+00  0.00000000E+00
  0.00000000E+00  0.00000000E+00  0.00000000E+00
  0.00000000E+00  0.00000000E+00  0.00000000E+00
  0.00000000E+00  0.00000000E+00  0.00000000E+00
  0.00000000E+00  0.00000000E+00  0.00000000E+00
  0.00000000E+00  0.00000000E+00  0.00000000E+00
  0.00000000E+00  0.00000000E+00  0.00000000E+00
  0.00000000E+00  0.00000000E+00  0.00000000E+00
  0.00000000E+00  0.00000000E+00  0.00000000E+00
  0.00000000E+00  0.00000000E+00  0.00000000E+00
  0.00000000E+00  0.00000000E+00  0.00000000E+00
  0.00000000E+00  0.00000000E+00  0.00000000E+00
  0.00000000E+00  0.00000000E+00  0.00000000E+00
  0.00000000E+00  0.00000000E+00  0.00000000E+00
  0.00000000E+00  0.00000000E+00  0.00000000E+00
  0.00000000E+00  0.00000000E+00  0.00000000E+00
  0.00000000E+00  0.00000000E+00  0.00000000E+00
  0.00000000E+00  0.00000000E+00  0.00000000E+00
  0.00000000E+00  0.00000000E+00  0.00000000E+00
  0.00000000E+00  0.00000000E+00  0.00000000E+00
  0.00000000E+00  0.00000000E+00  0.00000000E+00
  0.00000000E+00  0.00000000E+00  0.00000000E+00
  0.00000000E+00  0.00000000E+00  0.00000000E+00
  0.00000000E+00  0.00000000E+00  0.00000000E+00
  0.00000000E+00  0.00000000E+00  0.00000000E+00
  0.00000000E+00  0.00000000E+00  0.00000000E+00
  0.00000000E+00  0.00000000E+00  0.00000000E+00
  0.00000000E+00  0.00000000E+00  0.00000000E+00
  0.00000000E+00  0.00000000E+00  0.00000000E+00
  0.00000000E+00  0.00000000E+00  0.00000000E+00
  0.00000000E+00  0.00000000E+00  0.00000000E+00
  0.00000000E+00  0.00000000E+00  0.00000000E+00
  0.00000000E+00  0.00000000E+00  0.00000000E+00
  0.00000000E+00  0.00000000E+00  0.00000000E+00
  0.00000000E+00  0.00000000E+00  0.00000000E+00
  0.00000000E+00  0.00000000E+00  0.00000000E+00
  0.00000000E+00  0.00000000E+00  0.00000000E+00
  0.00000000E+00  0.00000000E+00  0.00000000E+00
  0.00000000E+00  0.00000000E+00  0.00000000E+00
  0.00000000E+00  0.00000000E+00  0.00000000E+00
  0.00000000E+00  0.00000000E+00  0.00000000E+00
  0.00000000E+00  0.00000000E+00  0.00000000E+00
  0.00000000E+00  0.00000000E+00  0.00000000E+00
  0.00000000E+00  0.00000000E+00  0.00000000E+00
  0.00000000E+00  0.00000000E+00  0.00000000E+00
  0.00000000E+00  0.00000000E+00  0.00000000E+00
  0.00000000E+00  0.00000000E+00  0.00000000E+00
  0.00000000E+00  0.00000000E+00  0.00000000E+00
  0.00000000E+00  0.00000000E+00  0.00000000E+00
  0.00000000E+00  0.00000000E+00  0.00000000E+00
  0.00000000E+00  0.00000000E+00  0.00000000E+00
  0.00000000E+00  0.00000000E+00  0.00000000E+00
  0.00000000E+00  0.00000000E+00  0.00000000E+00
  0.00000000E+00  0.00000000E+00  0.00000000E+00
  0.00000000E+00  0.00000000E+00  0.00000000E+00
  0.00000000E+00  0.00000000E+00  0.00000000E+00
  0.00000000E+00  0.00000000E+00  0.00000000E+00
  0.00000000E+00  0.00000000E+00  0.00000000E+00
