Ta  N Cu                                
   1.00000000000000     
    11.9754398999999996    0.0000000000000000    0.0000000000000000
    -1.7175315499999999   11.8516346499999994    0.0000000000000000
     0.0000000000000000    0.0000000000000000   22.7106327899999982
   Ta   N    Cu
    72    72     2
Selective dynamics
Direct
  0.9955339587019623  0.9955339540487174  0.2712224588739929   F   F   F
  0.2699333485827822  0.1030132974397020  0.3100259080635226   F   F   F
  0.1030132717436416  0.2699333822854797  0.3100259080635226   F   F   F
  0.3596205863249367  0.3596206399952564  0.3447007771003783   F   F   F
  0.1253409742651783  0.4593656738838163  0.3919418349552828   F   F   F
  0.4593656603424634  0.1253409739335112  0.3919418349552828   F   F   F
  0.2213574674439549  0.2213560479083377  0.4357872514880120   T   T   T
  0.4865484718920733  0.3200635671268840  0.4783316627307096   T   T   T
  0.3200749643748997  0.4865314192815718  0.4783354525794649   T   T   T
  0.0841125299070231  0.0841077932443651  0.5208466228092109   T   T   T
  0.3473415475005385  0.1815939120727956  0.5643141746335164   T   T   T
  0.1816122156715861  0.3473210284818686  0.5643134403036232   T   T   T
  0.4452011345729218  0.4451895003511600  0.6070144800090846   T   T   T
  0.2075621833124791  0.0418493087578162  0.6496822535159508   T   T   T
  0.0419376180885040  0.2075310854922834  0.6497120159534062   T   T   T
  0.3108803244414240  0.3108309231516068  0.6968774343364667   T   T   T
  0.0714833980537305  0.4001245456262293  0.7297689992039325   T   T   T
  0.4000865232819902  0.0714932559729526  0.7297837456124302   T   T   T
  0.9955339590589745  0.4955339536268326  0.2712224588739929   F   F   F
  0.2699333482257629  0.6030132978615868  0.3100259080635226   F   F   F
  0.1030132722216663  0.7699333827073573  0.3100259080635226   F   F   F
  0.3596205866819489  0.8596206395733716  0.3447007771003783   F   F   F
  0.1253409746221976  0.9593656734619316  0.3919418349552828   F   F   F
  0.4593656608204952  0.6253409743553888  0.3919418349552828   F   F   F
  0.2213188932967405  0.7212243075420924  0.4357808948484042   T   T   T
  0.4866366105756968  0.8201226017228750  0.4785348176970468   T   T   T
  0.3201756941154752  0.9865296118904399  0.4783969784705706   T   T   T
  0.0844391101348286  0.5842080940355904  0.5209581337957456   T   T   T
  0.3470395133279387  0.6815949437311151  0.5640939025040081   T   T   T
  0.1811754340540113  0.8468741209026222  0.5639633470808858   T   T   T
  0.4434134812077025  0.9439216246718014  0.6079539065277160   T   T   T
  0.2084920699397789  0.5433816846888070  0.6504648809551801   T   T   T
  0.0429105995866921  0.7067146487437619  0.6508018593572968   T   T   T
  0.3122520093625476  0.8119953306465839  0.6945117570791415   T   T   T
  0.0660419164290324  0.9018736351891110  0.7286287963202548   T   T   T
  0.4043304981870628  0.5711650972677725  0.7300644366855777   T   T   T
  0.4955339587019623  0.9955339540487174  0.2712224588739929   F   F   F
  0.7699333485827822  0.1030132974397020  0.3100259080635226   F   F   F
  0.6030132717436416  0.2699333822854797  0.3100259080635226   F   F   F
  0.8596205863249367  0.3596206399952564  0.3447007771003783   F   F   F
  0.6253409742651783  0.4593656738838163  0.3919418349552828   F   F   F
  0.9593656603424634  0.1253409739335112  0.3919418349552828   F   F   F
  0.7212392780580726  0.2213022754238727  0.4357843747009267   T   T   T
  0.9865383246443999  0.3201633936643118  0.4784016573732876   T   T   T
  0.8201390906312178  0.4866180548842781  0.4785287292283570   T   T   T
  0.5842387043037252  0.0844213073890844  0.5209661361839323   T   T   T
  0.8469268098858818  0.1811512662613759  0.5639845820163087   T   T   T
  0.6816139851000921  0.3470110798191604  0.5640952609635019   T   T   T
  0.9439492196971073  0.4433719312973926  0.6079490742436597   T   T   T
  0.7067537868180768  0.0429046592360255  0.6508237700002053   T   T   T
  0.5434005953416903  0.2084358911261012  0.6504609319385369   T   T   T
  0.8120714130255356  0.3121977567399332  0.6945228594889734   T   T   T
  0.5712150977748758  0.4043141067880197  0.7300588429526954   T   T   T
  0.9019445726188497  0.0660290166650631  0.7286384611895540   T   T   T
  0.4955339590589745  0.4955339536268326  0.2712224588739929   F   F   F
  0.7699333482257629  0.6030132978615868  0.3100259080635226   F   F   F
  0.6030132722216663  0.7699333827073573  0.3100259080635226   F   F   F
  0.8596205866819489  0.8596206395733716  0.3447007771003783   F   F   F
  0.6253409746221976  0.9593656734619316  0.3919418349552828   F   F   F
  0.9593656608204952  0.6253409743553888  0.3919418349552828   F   F   F
  0.7213055190750545  0.7213126730883901  0.4357499559756555   T   T   T
  0.9865249517108898  0.8200803371792496  0.4784309411674187   T   T   T
  0.8200882763976323  0.9865187398593922  0.4784390908304053   T   T   T
  0.5842155525632375  0.5842052219614462  0.5211235287722948   T   T   T
  0.8470168080785698  0.6811832421548988  0.5642795451104542   T   T   T
  0.6812103692209723  0.8470100459226466  0.5642844138907669   T   T   T
  0.9431463935842948  0.9431292577276816  0.6074913816667271   T   T   T
  0.7075983986179069  0.5434138480581107  0.6508916650035569   T   T   T
  0.5434419475841050  0.7075652606881385  0.6508976036077851   T   T   T
  0.8120466629966548  0.8120200535166279  0.6952584376695865   T   T   T
  0.5655769887827559  0.9059801750417587  0.7286163411919272   T   T   T
  0.9059921153819536  0.5655559544997787  0.7286011485190427   T   T   T
  0.4506180773709048  0.1400782132052782  0.2976725581183857   F   F   F
  0.2642075833142314  0.2642075209653356  0.2836189927733201   F   F   F
  0.1400781798198807  0.4506180903161052  0.2976725581183857   F   F   F
  0.3074132852265237  0.9999309000767909  0.3839488749030693   F   F   F
  0.1352939988863540  0.1352940283866033  0.3689431455789318   F   F   F
  0.9999308780646601  0.3074132624267207  0.3839488749030693   F   F   F
  0.1683313988527889  0.3642950796023888  0.4692327425838934   T   T   T
  0.4969484827931305  0.4969475852437040  0.4538377468220756   T   T   T
  0.3643004457531412  0.1683252506368289  0.4692320722113108   T   T   T
  0.0294717101215148  0.2251230223160697  0.5548011095154418   T   T   T
  0.3577842504343567  0.3577781905462821  0.5399954408038600   T   T   T
  0.2251392644204204  0.0294455916255473  0.5547818723257082   T   T   T
  0.3889073627178750  0.0873995890517990  0.6400434487965782   T   T   T
  0.2216726985201466  0.2216377312254514  0.6275276607375400   T   T   T
  0.0874484021200068  0.3888885960057927  0.6400502395656296   T   T   T
  0.2509619740127515  0.4563079962426740  0.7281954394401652   T   T   T
  0.0750100882915962  0.0749396336956999  0.7091295604973517   T   T   T
  0.4563819373893938  0.2509739353289335  0.7281545536940204   T   T   T
  0.4506180777279170  0.6400782127833935  0.2976725581183857   F   F   F
  0.2642075828362067  0.7642075205434509  0.2836189927733201   F   F   F
  0.1400781801769000  0.9506180898942276  0.2976725581183857   F   F   F
  0.3074132857045484  0.4999309004986756  0.3839488749030693   F   F   F
  0.1352939993643858  0.6352940288084810  0.3689431455789318   F   F   F
  0.9999308775866353  0.8074132620048431  0.3839488749030693   F   F   F
  0.1681688873515920  0.8641884443474070  0.4691732780607876   T   T   T
  0.4969527000092214  0.9969638289634120  0.4538137396133171   T   T   T
  0.3643108365854787  0.6682185707073450  0.4693014274608918   T   T   T
  0.0293779858773153  0.7248780022873716  0.5550771072892395   T   T   T
  0.3570195787841131  0.8571925450786867  0.5399112690461572   T   T   T
  0.2252921722099742  0.5296252939343459  0.5548180922785965   T   T   T
  0.3901140639943379  0.5875640022678280  0.6394525759820325   T   T   T
  0.2211687926150949  0.7213789785418365  0.6276937698913213   T   T   T
  0.0866056682499943  0.8893057142870265  0.6393763837054264   T   T   T
  0.2496767785145846  0.9493762452707016  0.7281618220611586   T   T   T
  0.0749530414324286  0.5734477023757285  0.7093161585389343   T   T   T
  0.4516360247939227  0.7515445834071814  0.7295186725557700   T   T   T
  0.9506180773709048  0.1400782132052782  0.2976725581183857   F   F   F
  0.7642075824791874  0.2642075209653356  0.2836189927733201   F   F   F
  0.6400781798198807  0.4506180903161052  0.2976725581183857   F   F   F
  0.8074132852265237  0.9999309000767909  0.3839488749030693   F   F   F
  0.6352939988863540  0.1352940283866033  0.3689431455789318   F   F   F
  0.4999308780646601  0.3074132624267207  0.3839488749030693   F   F   F
  0.6682291765303493  0.3642945468929562  0.4693027078575165   T   T   T
  0.9969706953311223  0.4969488527034273  0.4538159632177205   T   T   T
  0.8642058716082586  0.1681675574613551  0.4691820058514378   T   T   T
  0.5296522191329679  0.2252681475884607  0.5548120349108484   T   T   T
  0.8572122041519804  0.3570077885232646  0.5399120331503138   T   T   T
  0.7249088388952348  0.0293677180831202  0.5550910196995819   T   T   T
  0.8893726061680638  0.0866131405275221  0.6393985083609771   T   T   T
  0.7214161812298433  0.2211515380177403  0.6277084660938659   T   T   T
  0.5875773538202504  0.3900883903447595  0.6394451336088891   T   T   T
  0.7515931079811015  0.4515931343583545  0.7294993360126300   T   T   T
  0.5734657922884953  0.0749170881002663  0.7093287418775646   T   T   T
  0.9495035580113801  0.2496687938116174  0.7282001870161401   T   T   T
  0.9506180777279170  0.6400782127833935  0.2976725581183857   F   F   F
  0.7642075828362067  0.7642075205434509  0.2836189927733201   F   F   F
  0.6400781801769000  0.9506180898942276  0.2976725581183857   F   F   F
  0.8074132857045484  0.4999309004986756  0.3839488749030693   F   F   F
  0.6352939993643858  0.6352940288084810  0.3689431455789318   F   F   F
  0.4999308775866353  0.8074132620048431  0.3839488749030693   F   F   F
  0.6682172315298247  0.8642369575271206  0.4692870490559707   T   T   T
  0.9968616112197016  0.9968527569093170  0.4537315070650511   T   T   T
  0.8642313947789177  0.6682062010649433  0.4692799044064271   T   T   T
  0.5294182711903832  0.7249524854740308  0.5552951833440477   T   T   T
  0.8566096499954976  0.8566002241613306  0.5397816541710057   T   T   T
  0.7249565091616847  0.5294030339467305  0.5552862154022866   T   T   T
  0.8894482714752606  0.5869201851247970  0.6396106319541470   T   T   T
  0.7215372960903935  0.7215121207502242  0.6281965725469332   T   T   T
  0.5869621321847008  0.8894252312507583  0.6396311947209289   T   T   T
  0.7502845470141830  0.9514796627874136  0.7299113505537832   T   T   T
  0.5756738591178344  0.5756422425672991  0.7103935201607473   T   T   T
  0.9514898195133592  0.7502270079306997  0.7298905624959493   T   T   T
  0.1785019716429956  0.1774171715007490  0.7588273208380131   T   T   T
  0.3986133418837555  0.3984924614888848  0.8042897320810402   T   T   T
 
  0.00000000E+00  0.00000000E+00  0.00000000E+00
  0.00000000E+00  0.00000000E+00  0.00000000E+00
  0.00000000E+00  0.00000000E+00  0.00000000E+00
  0.00000000E+00  0.00000000E+00  0.00000000E+00
  0.00000000E+00  0.00000000E+00  0.00000000E+00
  0.00000000E+00  0.00000000E+00  0.00000000E+00
  0.00000000E+00  0.00000000E+00  0.00000000E+00
  0.00000000E+00  0.00000000E+00  0.00000000E+00
  0.00000000E+00  0.00000000E+00  0.00000000E+00
  0.00000000E+00  0.00000000E+00  0.00000000E+00
  0.00000000E+00  0.00000000E+00  0.00000000E+00
  0.00000000E+00  0.00000000E+00  0.00000000E+00
  0.00000000E+00  0.00000000E+00  0.00000000E+00
  0.00000000E+00  0.00000000E+00  0.00000000E+00
  0.00000000E+00  0.00000000E+00  0.00000000E+00
  0.00000000E+00  0.00000000E+00  0.00000000E+00
  0.00000000E+00  0.00000000E+00  0.00000000E+00
  0.00000000E+00  0.00000000E+00  0.00000000E+00
  0.00000000E+00  0.00000000E+00  0.00000000E+00
  0.00000000E+00  0.00000000E+00  0.00000000E+00
  0.00000000E+00  0.00000000E+00  0.00000000E+00
  0.00000000E+00  0.00000000E+00  0.00000000E+00
  0.00000000E+00  0.00000000E+00  0.00000000E+00
  0.00000000E+00  0.00000000E+00  0.00000000E+00
  0.00000000E+00  0.00000000E+00  0.00000000E+00
  0.00000000E+00  0.00000000E+00  0.00000000E+00
  0.00000000E+00  0.00000000E+00  0.00000000E+00
  0.00000000E+00  0.00000000E+00  0.00000000E+00
  0.00000000E+00  0.00000000E+00  0.00000000E+00
  0.00000000E+00  0.00000000E+00  0.00000000E+00
  0.00000000E+00  0.00000000E+00  0.00000000E+00
  0.00000000E+00  0.00000000E+00  0.00000000E+00
  0.00000000E+00  0.00000000E+00  0.00000000E+00
  0.00000000E+00  0.00000000E+00  0.00000000E+00
  0.00000000E+00  0.00000000E+00  0.00000000E+00
  0.00000000E+00  0.00000000E+00  0.00000000E+00
  0.00000000E+00  0.00000000E+00  0.00000000E+00
  0.00000000E+00  0.00000000E+00  0.00000000E+00
  0.00000000E+00  0.00000000E+00  0.00000000E+00
  0.00000000E+00  0.00000000E+00  0.00000000E+00
  0.00000000E+00  0.00000000E+00  0.00000000E+00
  0.00000000E+00  0.00000000E+00  0.00000000E+00
  0.00000000E+00  0.00000000E+00  0.00000000E+00
  0.00000000E+00  0.00000000E+00  0.00000000E+00
  0.00000000E+00  0.00000000E+00  0.00000000E+00
  0.00000000E+00  0.00000000E+00  0.00000000E+00
  0.00000000E+00  0.00000000E+00  0.00000000E+00
  0.00000000E+00  0.00000000E+00  0.00000000E+00
  0.00000000E+00  0.00000000E+00  0.00000000E+00
  0.00000000E+00  0.00000000E+00  0.00000000E+00
  0.00000000E+00  0.00000000E+00  0.00000000E+00
  0.00000000E+00  0.00000000E+00  0.00000000E+00
  0.00000000E+00  0.00000000E+00  0.00000000E+00
  0.00000000E+00  0.00000000E+00  0.00000000E+00
  0.00000000E+00  0.00000000E+00  0.00000000E+00
  0.00000000E+00  0.00000000E+00  0.00000000E+00
  0.00000000E+00  0.00000000E+00  0.00000000E+00
  0.00000000E+00  0.00000000E+00  0.00000000E+00
  0.00000000E+00  0.00000000E+00  0.00000000E+00
  0.00000000E+00  0.00000000E+00  0.00000000E+00
  0.00000000E+00  0.00000000E+00  0.00000000E+00
  0.00000000E+00  0.00000000E+00  0.00000000E+00
  0.00000000E+00  0.00000000E+00  0.00000000E+00
  0.00000000E+00  0.00000000E+00  0.00000000E+00
  0.00000000E+00  0.00000000E+00  0.00000000E+00
  0.00000000E+00  0.00000000E+00  0.00000000E+00
  0.00000000E+00  0.00000000E+00  0.00000000E+00
  0.00000000E+00  0.00000000E+00  0.00000000E+00
  0.00000000E+00  0.00000000E+00  0.00000000E+00
  0.00000000E+00  0.00000000E+00  0.00000000E+00
  0.00000000E+00  0.00000000E+00  0.00000000E+00
  0.00000000E+00  0.00000000E+00  0.00000000E+00
  0.00000000E+00  0.00000000E+00  0.00000000E+00
  0.00000000E+00  0.00000000E+00  0.00000000E+00
  0.00000000E+00  0.00000000E+00  0.00000000E+00
  0.00000000E+00  0.00000000E+00  0.00000000E+00
  0.00000000E+00  0.00000000E+00  0.00000000E+00
  0.00000000E+00  0.00000000E+00  0.00000000E+00
  0.00000000E+00  0.00000000E+00  0.00000000E+00
  0.00000000E+00  0.00000000E+00  0.00000000E+00
  0.00000000E+00  0.00000000E+00  0.00000000E+00
  0.00000000E+00  0.00000000E+00  0.00000000E+00
  0.00000000E+00  0.00000000E+00  0.00000000E+00
  0.00000000E+00  0.00000000E+00  0.00000000E+00
  0.00000000E+00  0.00000000E+00  0.00000000E+00
  0.00000000E+00  0.00000000E+00  0.00000000E+00
  0.00000000E+00  0.00000000E+00  0.00000000E+00
  0.00000000E+00  0.00000000E+00  0.00000000E+00
  0.00000000E+00  0.00000000E+00  0.00000000E+00
  0.00000000E+00  0.00000000E+00  0.00000000E+00
  0.00000000E+00  0.00000000E+00  0.00000000E+00
  0.00000000E+00  0.00000000E+00  0.00000000E+00
  0.00000000E+00  0.00000000E+00  0.00000000E+00
  0.00000000E+00  0.00000000E+00  0.00000000E+00
  0.00000000E+00  0.00000000E+00  0.00000000E+00
  0.00000000E+00  0.00000000E+00  0.00000000E+00
  0.00000000E+00  0.00000000E+00  0.00000000E+00
  0.00000000E+00  0.00000000E+00  0.00000000E+00
  0.00000000E+00  0.00000000E+00  0.00000000E+00
  0.00000000E+00  0.00000000E+00  0.00000000E+00
  0.00000000E+00  0.00000000E+00  0.00000000E+00
  0.00000000E+00  0.00000000E+00  0.00000000E+00
  0.00000000E+00  0.00000000E+00  0.00000000E+00
  0.00000000E+00  0.00000000E+00  0.00000000E+00
  0.00000000E+00  0.00000000E+00  0.00000000E+00
  0.00000000E+00  0.00000000E+00  0.00000000E+00
  0.00000000E+00  0.00000000E+00  0.00000000E+00
  0.00000000E+00  0.00000000E+00  0.00000000E+00
  0.00000000E+00  0.00000000E+00  0.00000000E+00
  0.00000000E+00  0.00000000E+00  0.00000000E+00
  0.00000000E+00  0.00000000E+00  0.00000000E+00
  0.00000000E+00  0.00000000E+00  0.00000000E+00
  0.00000000E+00  0.00000000E+00  0.00000000E+00
  0.00000000E+00  0.00000000E+00  0.00000000E+00
  0.00000000E+00  0.00000000E+00  0.00000000E+00
  0.00000000E+00  0.00000000E+00  0.00000000E+00
  0.00000000E+00  0.00000000E+00  0.00000000E+00
  0.00000000E+00  0.00000000E+00  0.00000000E+00
  0.00000000E+00  0.00000000E+00  0.00000000E+00
  0.00000000E+00  0.00000000E+00  0.00000000E+00
  0.00000000E+00  0.00000000E+00  0.00000000E+00
  0.00000000E+00  0.00000000E+00  0.00000000E+00
  0.00000000E+00  0.00000000E+00  0.00000000E+00
  0.00000000E+00  0.00000000E+00  0.00000000E+00
  0.00000000E+00  0.00000000E+00  0.00000000E+00
  0.00000000E+00  0.00000000E+00  0.00000000E+00
  0.00000000E+00  0.00000000E+00  0.00000000E+00
  0.00000000E+00  0.00000000E+00  0.00000000E+00
  0.00000000E+00  0.00000000E+00  0.00000000E+00
  0.00000000E+00  0.00000000E+00  0.00000000E+00
  0.00000000E+00  0.00000000E+00  0.00000000E+00
  0.00000000E+00  0.00000000E+00  0.00000000E+00
  0.00000000E+00  0.00000000E+00  0.00000000E+00
  0.00000000E+00  0.00000000E+00  0.00000000E+00
  0.00000000E+00  0.00000000E+00  0.00000000E+00
  0.00000000E+00  0.00000000E+00  0.00000000E+00
  0.00000000E+00  0.00000000E+00  0.00000000E+00
  0.00000000E+00  0.00000000E+00  0.00000000E+00
  0.00000000E+00  0.00000000E+00  0.00000000E+00
  0.00000000E+00  0.00000000E+00  0.00000000E+00
  0.00000000E+00  0.00000000E+00  0.00000000E+00
  0.00000000E+00  0.00000000E+00  0.00000000E+00
  0.00000000E+00  0.00000000E+00  0.00000000E+00
  0.00000000E+00  0.00000000E+00  0.00000000E+00
  0.00000000E+00  0.00000000E+00  0.00000000E+00
  0.00000000E+00  0.00000000E+00  0.00000000E+00
