Ta  N Ru                                
   1.00000000000000     
     9.0548154099999998    0.0000000000000000    0.0000000000000000
     0.0000000000000000   11.6775998899999998    0.0000000000000000
     0.0000000000000000    0.0000000000000000   23.4818170799999990
   Ta   N    Ru
    60    60     2
Selective dynamics
Direct
  0.0000000000000000  0.0000000000000000  0.2546926809530987   F   F   F
  0.6670845899906297  0.1250000003211298  0.2638822399803757   F   F   F
  0.3329153514769843  0.1250000003211298  0.2638822399803757   F   F   F
  0.4999999994478088  0.2499999997859135  0.3618861993156202   F   F   F
  0.1650707596845180  0.1250000003211298  0.3684425577811794   F   F   F
  0.8349292403154820  0.1250000003211298  0.3684425577811794   F   F   F
  0.9992266671189726  0.2501562380940860  0.4798164827603327   T   T   T
  0.6647976364513369  0.1249475372314922  0.4781015611998607   T   T   T
  0.3345045439686104  0.1249526502510391  0.4780457528044771   T   T   T
  0.4997119359236420  0.2497434881047828  0.5900746219872491   T   T   T
  0.1651538829813011  0.1249089187087267  0.5894311746034780   T   T   T
  0.8310183964184855  0.1249026921465380  0.5900181363133888   T   T   T
  0.9957237556120732  0.2468021850906766  0.7020112209950509   T   T   T
  0.6745098529422242  0.1248295656682281  0.7029698838313487   T   T   T
  0.3297670040529149  0.1248999729636789  0.6976512392485232   T   T   T
  0.0000000000000000  0.2499999997859135  0.2546926809530987   F   F   F
  0.6670845899906297  0.3750000001070433  0.2638822399803757   F   F   F
  0.3329153514769843  0.3750000001070433  0.2638822399803757   F   F   F
  0.4999999994478088  0.5000000004281731  0.3618861993156202   F   F   F
  0.1650707596845180  0.3750000001070433  0.3684425577811794   F   F   F
  0.8349292403154820  0.3750000001070433  0.3684425577811794   F   F   F
  0.9997546977070090  0.4999015218650851  0.4798666931256058   T   T   T
  0.6649140547580200  0.3750764110430070  0.4780788181252139   T   T   T
  0.3346692792768013  0.3750416535578870  0.4781796029099211   T   T   T
  0.4997701036977337  0.5002546463816246  0.5908604575763560   T   T   T
  0.1673775927657795  0.3751815689634972  0.5901910976728759   T   T   T
  0.8311003800331126  0.3752555639920591  0.5902367106460311   T   T   T
  0.0012080356598087  0.4997314505560513  0.7022312989254244   T   T   T
  0.6739294300225092  0.3766407066497322  0.7045132712622368   T   T   T
  0.3294024378086696  0.3781931751472404  0.7052737376415389   T   T   T
  0.0000000000000000  0.5000000004281731  0.2546926809530987   F   F   F
  0.6670845899906297  0.6249999998929567  0.2638822399803757   F   F   F
  0.3329153514769843  0.6249999998929567  0.2638822399803757   F   F   F
  0.4999999994478088  0.7500000002140865  0.3618861993156202   F   F   F
  0.1650707596845180  0.6249999998929567  0.3684425577811794   F   F   F
  0.8349292403154820  0.6249999998929567  0.3684425577811794   F   F   F
  0.9997530354318941  0.7499978969702406  0.4798705085370768   T   T   T
  0.6647011443743094  0.6249485223809845  0.4781751858488662   T   T   T
  0.3346016593583500  0.6249657366937793  0.4782338622531497   T   T   T
  0.4997681223760100  0.7495260644485361  0.5908700862974257   T   T   T
  0.1674859335757605  0.6248920561597021  0.5904314868442926   T   T   T
  0.8322172751116965  0.6248971032674991  0.5902074996426094   T   T   T
  0.0012258932105800  0.7500027426242993  0.7022518153003547   T   T   T
  0.6699967679979603  0.6248493051630195  0.7039730587338999   T   T   T
  0.3291984344085460  0.6248609494738816  0.7041371335214727   T   T   T
  0.0000000000000000  0.7500000002140865  0.2546926809530987   F   F   F
  0.6670845899906297  0.8750000005352163  0.2638822399803757   F   F   F
  0.3329153514769843  0.8750000005352163  0.2638822399803757   F   F   F
  0.4999999994478088  0.0000000000000000  0.3618861993156202   F   F   F
  0.1650707596845180  0.8750000005352163  0.3684425577811794   F   F   F
  0.8349292403154820  0.8750000005352163  0.3684425577811794   F   F   F
  0.9992122794870919  0.9997306958751432  0.4798151806510846   T   T   T
  0.6649104993314665  0.8748160723887305  0.4780832633457036   T   T   T
  0.3346830142360602  0.8748817555155262  0.4781815123014722   T   T   T
  0.4996851119505332  0.0000270247326471  0.5900816629698815   T   T   T
  0.1673567146004855  0.8745964120941757  0.5901922289760180   T   T   T
  0.8311390171666997  0.8745600403973216  0.5902456396865237   T   T   T
  0.9957605244086979  0.0029311530096301  0.7020201320851254   T   T   T
  0.6739722004001856  0.8730640832113108  0.7045344168917563   T   T   T
  0.3294111512518456  0.8715352733052807  0.7052855969437986   T   T   T
  0.8141011533980276  0.0000000000000000  0.3013105672926031   F   F   F
  0.4999999994478088  0.0000000000000000  0.2564174481620327   F   F   F
  0.1858988466019724  0.0000000000000000  0.3013105672926031   F   F   F
  0.3088456122590841  0.2499999997859135  0.4099867722441957   F   F   F
  0.0000000000000000  0.2499999997859135  0.3930971035158137   F   F   F
  0.6911543877409159  0.2499999997859135  0.4099867722441957   F   F   F
  0.8014414107102469  0.2501225862432230  0.5222028431621706   T   T   T
  0.4995974554765975  0.2500241977269124  0.5024124607160755   T   T   T
  0.1971618288081162  0.2503222036596356  0.5220032083301508   T   T   T
  0.3036589114765879  0.2521762219792051  0.6331101165706763   T   T   T
  0.9986383369526104  0.2504249112313616  0.6136175143650308   T   T   T
  0.6943473162632584  0.2510328066389483  0.6337291253405343   T   T   T
  0.8050550348502539  0.2499887540912132  0.7416807412359503   T   T   T
  0.4984850702134851  0.2458122329807685  0.7286896236905903   T   T   T
  0.1914689389403670  0.2527135547229093  0.7437793469566839   T   T   T
  0.8141011533980276  0.2499999997859135  0.3013105672926031   F   F   F
  0.4999999994478088  0.2499999997859135  0.2564174481620327   F   F   F
  0.1858988466019724  0.2499999997859135  0.3013105672926031   F   F   F
  0.3088456122590841  0.5000000004281731  0.4099867722441957   F   F   F
  0.0000000000000000  0.5000000004281731  0.3930971035158137   F   F   F
  0.6911543877409159  0.5000000004281731  0.4099867722441957   F   F   F
  0.8019934890290384  0.5000142261610665  0.5222114636385436   T   T   T
  0.4997690365689336  0.5000926454387681  0.5028987317595200   T   T   T
  0.1975397683813552  0.4998528117701096  0.5223161766253840   T   T   T
  0.3038463681285470  0.4995328617699125  0.6336647047623750   T   T   T
  0.9996577751530538  0.4998360765123087  0.6138609200568902   T   T   T
  0.6954487650238342  0.5003375785030925  0.6334629330999405   T   T   T
  0.8067762013802260  0.5002283011043918  0.7406227272324487   T   T   T
  0.4997864442548011  0.4986560182307451  0.7246798152999548   T   T   T
  0.1952719504688942  0.5001746354405591  0.7415221697467653   T   T   T
  0.8141011533980276  0.5000000004281731  0.3013105672926031   F   F   F
  0.4999999994478088  0.5000000004281731  0.2564174481620327   F   F   F
  0.1858988466019724  0.5000000004281731  0.3013105672926031   F   F   F
  0.3088456122590841  0.7500000002140865  0.4099867722441957   F   F   F
  0.0000000000000000  0.7500000002140865  0.3930971035158137   F   F   F
  0.6911543877409159  0.7500000002140865  0.4099867722441957   F   F   F
  0.8019894508453761  0.7498436469160813  0.5222164652446990   T   T   T
  0.4997732217964019  0.7497865217333697  0.5028998657217675   T   T   T
  0.1975307333994368  0.7499975924774107  0.5223173101695836   T   T   T
  0.3038525107461114  0.7502321042661263  0.6336670175821937   T   T   T
  0.9996725558629613  0.7499325899271839  0.6138667776835055   T   T   T
  0.6954434622780901  0.7494239731518695  0.6334723063930543   T   T   T
  0.8067865083980327  0.7494535664959096  0.7406376968398820   T   T   T
  0.4997890392910904  0.7510409281410250  0.7246957478209208   T   T   T
  0.1952844053941648  0.7495404674584518  0.7415324568467015   T   T   T
  0.8141011533980276  0.7500000002140865  0.3013105672926031   F   F   F
  0.4999999994478088  0.7500000002140865  0.2564174481620327   F   F   F
  0.1858988466019724  0.7500000002140865  0.3013105672926031   F   F   F
  0.3088456122590841  0.0000000000000000  0.4099867722441957   F   F   F
  0.0000000000000000  0.0000000000000000  0.3930971035158137   F   F   F
  0.6911543877409159  0.0000000000000000  0.4099867722441957   F   F   F
  0.8014400056792710  0.9997290585214391  0.5222085345494353   T   T   T
  0.4995989405122945  0.9998572364937240  0.5024156456917643   T   T   T
  0.1971612200215915  0.9995342452678933  0.5220034272002558   T   T   T
  0.3036603841509470  0.9975836531600755  0.6331131191002242   T   T   T
  0.9986444025708145  0.9993664108469728  0.6136146297152355   T   T   T
  0.6943408820704606  0.9987099773650555  0.6337338228674889   T   T   T
  0.8050579186193982  0.9996991001738609  0.7416862835867585   T   T   T
  0.4984742025454645  0.0038994550995854  0.7287002130991952   T   T   T
  0.1914542289105727  0.9970172840207180  0.7437915598007110   T   T   T
  0.2098531950614794  0.1249172517383507  0.7982220249902742   T   T   T
  0.4775070131803117  0.1248666530733993  0.7945426934799955   T   T   T
 
  0.00000000E+00  0.00000000E+00  0.00000000E+00
  0.00000000E+00  0.00000000E+00  0.00000000E+00
  0.00000000E+00  0.00000000E+00  0.00000000E+00
  0.00000000E+00  0.00000000E+00  0.00000000E+00
  0.00000000E+00  0.00000000E+00  0.00000000E+00
  0.00000000E+00  0.00000000E+00  0.00000000E+00
  0.00000000E+00  0.00000000E+00  0.00000000E+00
  0.00000000E+00  0.00000000E+00  0.00000000E+00
  0.00000000E+00  0.00000000E+00  0.00000000E+00
  0.00000000E+00  0.00000000E+00  0.00000000E+00
  0.00000000E+00  0.00000000E+00  0.00000000E+00
  0.00000000E+00  0.00000000E+00  0.00000000E+00
  0.00000000E+00  0.00000000E+00  0.00000000E+00
  0.00000000E+00  0.00000000E+00  0.00000000E+00
  0.00000000E+00  0.00000000E+00  0.00000000E+00
  0.00000000E+00  0.00000000E+00  0.00000000E+00
  0.00000000E+00  0.00000000E+00  0.00000000E+00
  0.00000000E+00  0.00000000E+00  0.00000000E+00
  0.00000000E+00  0.00000000E+00  0.00000000E+00
  0.00000000E+00  0.00000000E+00  0.00000000E+00
  0.00000000E+00  0.00000000E+00  0.00000000E+00
  0.00000000E+00  0.00000000E+00  0.00000000E+00
  0.00000000E+00  0.00000000E+00  0.00000000E+00
  0.00000000E+00  0.00000000E+00  0.00000000E+00
  0.00000000E+00  0.00000000E+00  0.00000000E+00
  0.00000000E+00  0.00000000E+00  0.00000000E+00
  0.00000000E+00  0.00000000E+00  0.00000000E+00
  0.00000000E+00  0.00000000E+00  0.00000000E+00
  0.00000000E+00  0.00000000E+00  0.00000000E+00
  0.00000000E+00  0.00000000E+00  0.00000000E+00
  0.00000000E+00  0.00000000E+00  0.00000000E+00
  0.00000000E+00  0.00000000E+00  0.00000000E+00
  0.00000000E+00  0.00000000E+00  0.00000000E+00
  0.00000000E+00  0.00000000E+00  0.00000000E+00
  0.00000000E+00  0.00000000E+00  0.00000000E+00
  0.00000000E+00  0.00000000E+00  0.00000000E+00
  0.00000000E+00  0.00000000E+00  0.00000000E+00
  0.00000000E+00  0.00000000E+00  0.00000000E+00
  0.00000000E+00  0.00000000E+00  0.00000000E+00
  0.00000000E+00  0.00000000E+00  0.00000000E+00
  0.00000000E+00  0.00000000E+00  0.00000000E+00
  0.00000000E+00  0.00000000E+00  0.00000000E+00
  0.00000000E+00  0.00000000E+00  0.00000000E+00
  0.00000000E+00  0.00000000E+00  0.00000000E+00
  0.00000000E+00  0.00000000E+00  0.00000000E+00
  0.00000000E+00  0.00000000E+00  0.00000000E+00
  0.00000000E+00  0.00000000E+00  0.00000000E+00
  0.00000000E+00  0.00000000E+00  0.00000000E+00
  0.00000000E+00  0.00000000E+00  0.00000000E+00
  0.00000000E+00  0.00000000E+00  0.00000000E+00
  0.00000000E+00  0.00000000E+00  0.00000000E+00
  0.00000000E+00  0.00000000E+00  0.00000000E+00
  0.00000000E+00  0.00000000E+00  0.00000000E+00
  0.00000000E+00  0.00000000E+00  0.00000000E+00
  0.00000000E+00  0.00000000E+00  0.00000000E+00
  0.00000000E+00  0.00000000E+00  0.00000000E+00
  0.00000000E+00  0.00000000E+00  0.00000000E+00
  0.00000000E+00  0.00000000E+00  0.00000000E+00
  0.00000000E+00  0.00000000E+00  0.00000000E+00
  0.00000000E+00  0.00000000E+00  0.00000000E+00
  0.00000000E+00  0.00000000E+00  0.00000000E+00
  0.00000000E+00  0.00000000E+00  0.00000000E+00
  0.00000000E+00  0.00000000E+00  0.00000000E+00
  0.00000000E+00  0.00000000E+00  0.00000000E+00
  0.00000000E+00  0.00000000E+00  0.00000000E+00
  0.00000000E+00  0.00000000E+00  0.00000000E+00
  0.00000000E+00  0.00000000E+00  0.00000000E+00
  0.00000000E+00  0.00000000E+00  0.00000000E+00
  0.00000000E+00  0.00000000E+00  0.00000000E+00
  0.00000000E+00  0.00000000E+00  0.00000000E+00
  0.00000000E+00  0.00000000E+00  0.00000000E+00
  0.00000000E+00  0.00000000E+00  0.00000000E+00
  0.00000000E+00  0.00000000E+00  0.00000000E+00
  0.00000000E+00  0.00000000E+00  0.00000000E+00
  0.00000000E+00  0.00000000E+00  0.00000000E+00
  0.00000000E+00  0.00000000E+00  0.00000000E+00
  0.00000000E+00  0.00000000E+00  0.00000000E+00
  0.00000000E+00  0.00000000E+00  0.00000000E+00
  0.00000000E+00  0.00000000E+00  0.00000000E+00
  0.00000000E+00  0.00000000E+00  0.00000000E+00
  0.00000000E+00  0.00000000E+00  0.00000000E+00
  0.00000000E+00  0.00000000E+00  0.00000000E+00
  0.00000000E+00  0.00000000E+00  0.00000000E+00
  0.00000000E+00  0.00000000E+00  0.00000000E+00
  0.00000000E+00  0.00000000E+00  0.00000000E+00
  0.00000000E+00  0.00000000E+00  0.00000000E+00
  0.00000000E+00  0.00000000E+00  0.00000000E+00
  0.00000000E+00  0.00000000E+00  0.00000000E+00
  0.00000000E+00  0.00000000E+00  0.00000000E+00
  0.00000000E+00  0.00000000E+00  0.00000000E+00
  0.00000000E+00  0.00000000E+00  0.00000000E+00
  0.00000000E+00  0.00000000E+00  0.00000000E+00
  0.00000000E+00  0.00000000E+00  0.00000000E+00
  0.00000000E+00  0.00000000E+00  0.00000000E+00
  0.00000000E+00  0.00000000E+00  0.00000000E+00
  0.00000000E+00  0.00000000E+00  0.00000000E+00
  0.00000000E+00  0.00000000E+00  0.00000000E+00
  0.00000000E+00  0.00000000E+00  0.00000000E+00
  0.00000000E+00  0.00000000E+00  0.00000000E+00
  0.00000000E+00  0.00000000E+00  0.00000000E+00
  0.00000000E+00  0.00000000E+00  0.00000000E+00
  0.00000000E+00  0.00000000E+00  0.00000000E+00
  0.00000000E+00  0.00000000E+00  0.00000000E+00
  0.00000000E+00  0.00000000E+00  0.00000000E+00
  0.00000000E+00  0.00000000E+00  0.00000000E+00
  0.00000000E+00  0.00000000E+00  0.00000000E+00
  0.00000000E+00  0.00000000E+00  0.00000000E+00
  0.00000000E+00  0.00000000E+00  0.00000000E+00
  0.00000000E+00  0.00000000E+00  0.00000000E+00
  0.00000000E+00  0.00000000E+00  0.00000000E+00
  0.00000000E+00  0.00000000E+00  0.00000000E+00
  0.00000000E+00  0.00000000E+00  0.00000000E+00
  0.00000000E+00  0.00000000E+00  0.00000000E+00
  0.00000000E+00  0.00000000E+00  0.00000000E+00
  0.00000000E+00  0.00000000E+00  0.00000000E+00
  0.00000000E+00  0.00000000E+00  0.00000000E+00
  0.00000000E+00  0.00000000E+00  0.00000000E+00
  0.00000000E+00  0.00000000E+00  0.00000000E+00
  0.00000000E+00  0.00000000E+00  0.00000000E+00
  0.00000000E+00  0.00000000E+00  0.00000000E+00
  0.00000000E+00  0.00000000E+00  0.00000000E+00
  0.00000000E+00  0.00000000E+00  0.00000000E+00
