Ru  N  H  C                             
   1.00000000000000     
     8.1450004578000001    0.0000000000000000    0.0000000000000000
     0.0000000000000000   12.8549995421999999    0.0000000000000000
     0.0000000000000000    0.0000000000000000   23.6212997436999999
   Ru   N    H    C 
    74    12    38    20
Selective dynamics
Direct
  0.0000000000000000  0.0833299949999997  0.0663599980000029   F   F   F
  0.1666699889999990  0.0833299949999997  0.1659000109999980   F   F   F
  0.0018318674884275  0.0859813227318225  0.2646982998568453   T   T   T
  0.1672486335931253  0.0763409271956299  0.3638336596496983   T   T   T
  0.0000000000000000  0.2500000000000000  0.0000000000000000   F   F   F
  0.1666699889999990  0.2500000000000000  0.0995400030000013   F   F   F
  0.0004299506942089  0.2495558171132657  0.1996342127722926   T   T   T
  0.1614988248200027  0.2534060932620946  0.2994777633915875   T   T   T
  0.3333299960000033  0.0833299949999997  0.0663599980000029   F   F   F
  0.5000000000000000  0.0833299949999997  0.1659000109999980   F   F   F
  0.3328792564686801  0.0889601120266457  0.2653252327283572   T   T   T
  0.5098374060408810  0.0809164241235325  0.3650179511717477   T   T   T
  0.3333299960000033  0.2500000000000000  0.0000000000000000   F   F   F
  0.5000000000000000  0.2500000000000000  0.0995400030000013   F   F   F
  0.3332903333985457  0.2513768020971014  0.1983690741037964   T   T   T
  0.5051489514230115  0.2541119276031988  0.2993636360642130   T   T   T
  0.6666700039999967  0.0833299949999997  0.0663599980000029   F   F   F
  0.8333299960000033  0.0833299949999997  0.1659000109999980   F   F   F
  0.6643649043029269  0.0852856759751282  0.2647588052125843   T   T   T
  0.8371143349751374  0.0754134099227192  0.3696242756552192   T   T   T
  0.6666700039999967  0.2500000000000000  0.0000000000000000   F   F   F
  0.8333299960000033  0.2500000000000000  0.0995400030000013   F   F   F
  0.6657878206350175  0.2494515970163992  0.1996568927218456   T   T   T
  0.8332467565005965  0.2481300632340274  0.2961933488901582   T   T   T
  0.0000000000000000  0.4166700050000003  0.0663599980000029   F   F   F
  0.1666699889999990  0.4166700050000003  0.1659000109999980   F   F   F
  0.9968620847812378  0.4191668207506781  0.2618479533910828   T   T   T
  0.1741116426095765  0.4264341237592934  0.3582755747876592   T   T   T
  0.0000000000000000  0.5833299580000002  0.0000000000000000   F   F   F
  0.1666699889999990  0.5833299580000002  0.0995400030000013   F   F   F
  0.0003297657702519  0.5842966105473953  0.1977245826124122   T   T   T
  0.1649052163472685  0.5856933072362237  0.2944724805872794   T   T   T
  0.3333299960000033  0.4166700050000003  0.0663599980000029   F   F   F
  0.5000000000000000  0.4166700050000003  0.1659000109999980   F   F   F
  0.3325102058054795  0.4184969490144561  0.2629069747238087   T   T   T
  0.4885912979054890  0.4272956214021426  0.3586298240379494   T   T   T
  0.3333299960000033  0.5833299580000002  0.0000000000000000   F   F   F
  0.5000000000000000  0.5833299580000002  0.0995400030000013   F   F   F
  0.3330207433172814  0.5844341988039152  0.1980821603087978   T   T   T
  0.5006635291809072  0.5855278870032929  0.2941689597403531   T   T   T
  0.6666700039999967  0.4166700050000003  0.0663599980000029   F   F   F
  0.8333299960000033  0.4166700050000003  0.1659000109999980   F   F   F
  0.6687539908217377  0.4193985583201699  0.2619299848819207   T   T   T
  0.8321229458226305  0.4157901664801541  0.3553868009014273   T   T   T
  0.6666700039999967  0.5833299580000002  0.0000000000000000   F   F   F
  0.8333299960000033  0.5833299580000002  0.0995400030000013   F   F   F
  0.6659250362297718  0.5847575633691304  0.1977565257442497   T   T   T
  0.8322716876957431  0.5846123883489955  0.2935870412426100   T   T   T
  0.0000000000000000  0.7500000000000000  0.0663599980000029   F   F   F
  0.1666699889999990  0.7500000000000000  0.1659000109999980   F   F   F
  0.9984910098844392  0.7500530672632322  0.2622533064773082   T   T   T
  0.1681444496821036  0.7337455770086604  0.3621040471019392   T   T   T
  0.0000000000000000  0.9166700050000003  0.0000000000000000   F   F   F
  0.1666699889999990  0.9166700050000003  0.0995400030000013   F   F   F
  0.0006858315149000  0.9176214620112716  0.1989627710492993   T   T   T
  0.1664494635766122  0.9120814713257469  0.2977278522914016   T   T   T
  0.3333299960000033  0.7500000000000000  0.0663599980000029   F   F   F
  0.5000000000000000  0.7500000000000000  0.1659000109999980   F   F   F
  0.3321087250387233  0.7500843725686135  0.2627050778384826   T   T   T
  0.4963988415949173  0.7329182607091169  0.3621718975460272   T   T   T
  0.3333299960000033  0.9166700050000003  0.0000000000000000   F   F   F
  0.5000000000000000  0.9166700050000003  0.0995400030000013   F   F   F
  0.3345628432690378  0.9174711548957158  0.1986492325117545   T   T   T
  0.4905732219242099  0.9129277414280197  0.3030286808109930   T   T   T
  0.6666700039999967  0.7500000000000000  0.0663599980000029   F   F   F
  0.8333299960000033  0.7500000000000000  0.1659000109999980   F   F   F
  0.6644679895726205  0.7518893813748974  0.2627855393570556   T   T   T
  0.8323862971345142  0.7315603962697871  0.3610159171692974   T   T   T
  0.6666700039999967  0.9166700050000003  0.0000000000000000   F   F   F
  0.8333299960000033  0.9166700050000003  0.0995400030000013   F   F   F
  0.6662631906081710  0.9178478368179864  0.1979097783831821   T   T   T
  0.8351421039222643  0.9108030481646232  0.2991726165317762   T   T   T
  0.2574873577844042  0.2524946177550211  0.5957399749856847   T   T   T
  0.7500436194979114  0.7445128464580179  0.5693116841893190   T   T   T
  0.3355818083189995  0.1709087686290683  0.4058751688085300   T   T   T
  0.6638826521682462  0.0960914836877833  0.4356317575369822   T   T   T
  0.0120524678325005  0.0954951934167481  0.4342898928638604   T   T   T
  0.3317114966726858  0.6897220099413525  0.4228534048120491   T   T   T
  0.3303011666621252  0.4314742270413852  0.4200626396803226   T   T   T
  0.3461589129782776  0.9619843646017604  0.3751613610179039   T   T   T
  0.0127554937780396  0.3118782759795121  0.3700747461501823   T   T   T
  0.0037206117445586  0.9521042034240116  0.3624553692144638   T   T   T
  0.6498120972715233  0.3135376144941905  0.3706069500998029   T   T   T
  0.6701450157744544  0.9518877651673174  0.3623111261836573   T   T   T
  0.6656920503652932  0.6692734349953405  0.4148517291139075   T   T   T
  0.9993620903578703  0.6706767567284402  0.4155206524757660   T   T   T
  0.3335357684360404  0.1568625384597790  0.4486480117084602   T   T   T
  0.3328078882875671  0.2495521381473835  0.3986734279472797   T   T   T
  0.6695500984600439  0.0338947243504640  0.4629257976046741   T   T   T
  0.6635150839399576  0.1619921716332799  0.4599861961847663   T   T   T
  0.9968603825689100  0.0337867529547581  0.4614259561880273   T   T   T
  0.0183765117042055  0.1612829612513376  0.4586648285997791   T   T   T
  0.3306384185247264  0.6101571696497939  0.4294915777241397   T   T   T
  0.3310974070414514  0.7260256605565300  0.4615979762835743   T   T   T
  0.3255944093551016  0.3894653902946155  0.4568006753399908   T   T   T
  0.3465612542216546  0.9142890152157459  0.4103747971754061   T   T   T
  0.0093805436505742  0.2633432943027849  0.4043479446171663   T   T   T
  0.0148802918628892  0.9018976573429731  0.3966451855217382   T   T   T
  0.6521397643079254  0.2651605277313602  0.4049682470535999   T   T   T
  0.6630349332041333  0.9048360322458204  0.3977288765426703   T   T   T
  0.6655264555270293  0.5886214878916660  0.4111066006743633   T   T   T
  0.6695012684722225  0.6891638597215493  0.4570629762548138   T   T   T
  0.0016628733777719  0.5899972707086502  0.4121538258594835   T   T   T
  0.9956156007482132  0.6908004589876290  0.4576054374370616   T   T   T
  0.0993829169573337  0.3795657022788654  0.5047905727741151   T   T   T
  0.4326231285035345  0.3997253451548381  0.5201809869187102   T   T   T
  0.4920067553149570  0.4130812857269435  0.6308490587450598   T   T   T
  0.2011432044936958  0.4004726361627655  0.6871446717008757   T   T   T
  0.9591966687731667  0.3788101211299720  0.6088562507739059   T   T   T
  0.1262080766602822  0.0765622163887150  0.5277843268530562   T   T   T
  0.4565950065921489  0.0966204952193093  0.5319808447989411   T   T   T
  0.5416770807611406  0.1393137090179250  0.6406055347233494   T   T   T
  0.2626431009475028  0.1446454908964633  0.7035651774363667   T   T   T
  0.0048781559413790  0.1064980175835486  0.6333235703185264   T   T   T
  0.5463881498658260  0.8518656454412410  0.4845359113315752   T   T   T
  0.8740450265495427  0.8477279062719062  0.4665662034809259   T   T   T
  0.0263406788876269  0.8920451454489089  0.5669484363520875   T   T   T
  0.7900584046684870  0.9215425906695603  0.6461133672087588   T   T   T
  0.4937206842248078  0.8979105258975458  0.5955963098701201   T   T   T
  0.5649853051463528  0.5677919085853750  0.5205742544005006   T   T   T
  0.8960488685154403  0.5607966095905711  0.5109817030291840   T   T   T
  0.0275336504776583  0.6188838559947247  0.6117333076550897   T   T   T
  0.7765515361905866  0.6598870210437983  0.6840871499935757   T   T   T
  0.4904785260718841  0.6281248665932655  0.6276111168003269   T   T   T
  0.0897794409431786  0.3844303279873102  0.6000999333547579   T   T   T
  0.1644215245029811  0.3833802720278099  0.5450175310692835   T   T   T
  0.3387952295602347  0.3945867674194451  0.5527808104980544   T   T   T
  0.3714785183754144  0.4028087127018755  0.6121738334764721   T   T   T
  0.2174245463068989  0.3968395021545740  0.6415430920471746   T   T   T
  0.1336108738973570  0.1099856212420081  0.6212527442530915   T   T   T
  0.1973450019510095  0.0957188773964398  0.5651599276311517   T   T   T
  0.3724136876887131  0.1068851646362526  0.5673058567043993   T   T   T
  0.4174685124234412  0.1277947763252940  0.6249475575683645   T   T   T
  0.2699493500261639  0.1296014155312721  0.6583362717019885   T   T   T
  0.6124825615204637  0.8895739223162997  0.5751394850183107   T   T   T
  0.6402312511895064  0.8652664669771444  0.5165839775582473   T   T   T
  0.8149269298996792  0.8632665669410655  0.5071161902236289   T   T   T
  0.8947291759587751  0.8865279651123067  0.5598566936226689   T   T   T
  0.7695424484245262  0.9029366672999966  0.6017516363575978   T   T   T
  0.6133166243098703  0.6196619866959411  0.6102133918682299   T   T   T
  0.6526351882067305  0.5881757728722748  0.5535093514943190   T   T   T
  0.8280689265916770  0.5852126004346052  0.5483541976094403   T   T   T
  0.8973345946738064  0.6151748415665266  0.6017325947398366   T   T   T
  0.7646808995185220  0.6360248115127441  0.6401008751302256   T   T   T
 
  0.00000000E+00  0.00000000E+00  0.00000000E+00
  0.00000000E+00  0.00000000E+00  0.00000000E+00
  0.00000000E+00  0.00000000E+00  0.00000000E+00
  0.00000000E+00  0.00000000E+00  0.00000000E+00
  0.00000000E+00  0.00000000E+00  0.00000000E+00
  0.00000000E+00  0.00000000E+00  0.00000000E+00
  0.00000000E+00  0.00000000E+00  0.00000000E+00
  0.00000000E+00  0.00000000E+00  0.00000000E+00
  0.00000000E+00  0.00000000E+00  0.00000000E+00
  0.00000000E+00  0.00000000E+00  0.00000000E+00
  0.00000000E+00  0.00000000E+00  0.00000000E+00
  0.00000000E+00  0.00000000E+00  0.00000000E+00
  0.00000000E+00  0.00000000E+00  0.00000000E+00
  0.00000000E+00  0.00000000E+00  0.00000000E+00
  0.00000000E+00  0.00000000E+00  0.00000000E+00
  0.00000000E+00  0.00000000E+00  0.00000000E+00
  0.00000000E+00  0.00000000E+00  0.00000000E+00
  0.00000000E+00  0.00000000E+00  0.00000000E+00
  0.00000000E+00  0.00000000E+00  0.00000000E+00
  0.00000000E+00  0.00000000E+00  0.00000000E+00
  0.00000000E+00  0.00000000E+00  0.00000000E+00
  0.00000000E+00  0.00000000E+00  0.00000000E+00
  0.00000000E+00  0.00000000E+00  0.00000000E+00
  0.00000000E+00  0.00000000E+00  0.00000000E+00
  0.00000000E+00  0.00000000E+00  0.00000000E+00
  0.00000000E+00  0.00000000E+00  0.00000000E+00
  0.00000000E+00  0.00000000E+00  0.00000000E+00
  0.00000000E+00  0.00000000E+00  0.00000000E+00
  0.00000000E+00  0.00000000E+00  0.00000000E+00
  0.00000000E+00  0.00000000E+00  0.00000000E+00
  0.00000000E+00  0.00000000E+00  0.00000000E+00
  0.00000000E+00  0.00000000E+00  0.00000000E+00
  0.00000000E+00  0.00000000E+00  0.00000000E+00
  0.00000000E+00  0.00000000E+00  0.00000000E+00
  0.00000000E+00  0.00000000E+00  0.00000000E+00
  0.00000000E+00  0.00000000E+00  0.00000000E+00
  0.00000000E+00  0.00000000E+00  0.00000000E+00
  0.00000000E+00  0.00000000E+00  0.00000000E+00
  0.00000000E+00  0.00000000E+00  0.00000000E+00
  0.00000000E+00  0.00000000E+00  0.00000000E+00
  0.00000000E+00  0.00000000E+00  0.00000000E+00
  0.00000000E+00  0.00000000E+00  0.00000000E+00
  0.00000000E+00  0.00000000E+00  0.00000000E+00
  0.00000000E+00  0.00000000E+00  0.00000000E+00
  0.00000000E+00  0.00000000E+00  0.00000000E+00
  0.00000000E+00  0.00000000E+00  0.00000000E+00
  0.00000000E+00  0.00000000E+00  0.00000000E+00
  0.00000000E+00  0.00000000E+00  0.00000000E+00
  0.00000000E+00  0.00000000E+00  0.00000000E+00
  0.00000000E+00  0.00000000E+00  0.00000000E+00
  0.00000000E+00  0.00000000E+00  0.00000000E+00
  0.00000000E+00  0.00000000E+00  0.00000000E+00
  0.00000000E+00  0.00000000E+00  0.00000000E+00
  0.00000000E+00  0.00000000E+00  0.00000000E+00
  0.00000000E+00  0.00000000E+00  0.00000000E+00
  0.00000000E+00  0.00000000E+00  0.00000000E+00
  0.00000000E+00  0.00000000E+00  0.00000000E+00
  0.00000000E+00  0.00000000E+00  0.00000000E+00
  0.00000000E+00  0.00000000E+00  0.00000000E+00
  0.00000000E+00  0.00000000E+00  0.00000000E+00
  0.00000000E+00  0.00000000E+00  0.00000000E+00
  0.00000000E+00  0.00000000E+00  0.00000000E+00
  0.00000000E+00  0.00000000E+00  0.00000000E+00
  0.00000000E+00  0.00000000E+00  0.00000000E+00
  0.00000000E+00  0.00000000E+00  0.00000000E+00
  0.00000000E+00  0.00000000E+00  0.00000000E+00
  0.00000000E+00  0.00000000E+00  0.00000000E+00
  0.00000000E+00  0.00000000E+00  0.00000000E+00
  0.00000000E+00  0.00000000E+00  0.00000000E+00
  0.00000000E+00  0.00000000E+00  0.00000000E+00
  0.00000000E+00  0.00000000E+00  0.00000000E+00
  0.00000000E+00  0.00000000E+00  0.00000000E+00
  0.00000000E+00  0.00000000E+00  0.00000000E+00
  0.00000000E+00  0.00000000E+00  0.00000000E+00
  0.00000000E+00  0.00000000E+00  0.00000000E+00
  0.00000000E+00  0.00000000E+00  0.00000000E+00
  0.00000000E+00  0.00000000E+00  0.00000000E+00
  0.00000000E+00  0.00000000E+00  0.00000000E+00
  0.00000000E+00  0.00000000E+00  0.00000000E+00
  0.00000000E+00  0.00000000E+00  0.00000000E+00
  0.00000000E+00  0.00000000E+00  0.00000000E+00
  0.00000000E+00  0.00000000E+00  0.00000000E+00
  0.00000000E+00  0.00000000E+00  0.00000000E+00
  0.00000000E+00  0.00000000E+00  0.00000000E+00
  0.00000000E+00  0.00000000E+00  0.00000000E+00
  0.00000000E+00  0.00000000E+00  0.00000000E+00
  0.00000000E+00  0.00000000E+00  0.00000000E+00
  0.00000000E+00  0.00000000E+00  0.00000000E+00
  0.00000000E+00  0.00000000E+00  0.00000000E+00
  0.00000000E+00  0.00000000E+00  0.00000000E+00
  0.00000000E+00  0.00000000E+00  0.00000000E+00
  0.00000000E+00  0.00000000E+00  0.00000000E+00
  0.00000000E+00  0.00000000E+00  0.00000000E+00
  0.00000000E+00  0.00000000E+00  0.00000000E+00
  0.00000000E+00  0.00000000E+00  0.00000000E+00
  0.00000000E+00  0.00000000E+00  0.00000000E+00
  0.00000000E+00  0.00000000E+00  0.00000000E+00
  0.00000000E+00  0.00000000E+00  0.00000000E+00
  0.00000000E+00  0.00000000E+00  0.00000000E+00
  0.00000000E+00  0.00000000E+00  0.00000000E+00
  0.00000000E+00  0.00000000E+00  0.00000000E+00
  0.00000000E+00  0.00000000E+00  0.00000000E+00
  0.00000000E+00  0.00000000E+00  0.00000000E+00
  0.00000000E+00  0.00000000E+00  0.00000000E+00
  0.00000000E+00  0.00000000E+00  0.00000000E+00
  0.00000000E+00  0.00000000E+00  0.00000000E+00
  0.00000000E+00  0.00000000E+00  0.00000000E+00
  0.00000000E+00  0.00000000E+00  0.00000000E+00
  0.00000000E+00  0.00000000E+00  0.00000000E+00
  0.00000000E+00  0.00000000E+00  0.00000000E+00
  0.00000000E+00  0.00000000E+00  0.00000000E+00
  0.00000000E+00  0.00000000E+00  0.00000000E+00
  0.00000000E+00  0.00000000E+00  0.00000000E+00
  0.00000000E+00  0.00000000E+00  0.00000000E+00
  0.00000000E+00  0.00000000E+00  0.00000000E+00
  0.00000000E+00  0.00000000E+00  0.00000000E+00
  0.00000000E+00  0.00000000E+00  0.00000000E+00
  0.00000000E+00  0.00000000E+00  0.00000000E+00
  0.00000000E+00  0.00000000E+00  0.00000000E+00
  0.00000000E+00  0.00000000E+00  0.00000000E+00
  0.00000000E+00  0.00000000E+00  0.00000000E+00
  0.00000000E+00  0.00000000E+00  0.00000000E+00
  0.00000000E+00  0.00000000E+00  0.00000000E+00
  0.00000000E+00  0.00000000E+00  0.00000000E+00
  0.00000000E+00  0.00000000E+00  0.00000000E+00
  0.00000000E+00  0.00000000E+00  0.00000000E+00
  0.00000000E+00  0.00000000E+00  0.00000000E+00
  0.00000000E+00  0.00000000E+00  0.00000000E+00
  0.00000000E+00  0.00000000E+00  0.00000000E+00
  0.00000000E+00  0.00000000E+00  0.00000000E+00
  0.00000000E+00  0.00000000E+00  0.00000000E+00
  0.00000000E+00  0.00000000E+00  0.00000000E+00
  0.00000000E+00  0.00000000E+00  0.00000000E+00
  0.00000000E+00  0.00000000E+00  0.00000000E+00
  0.00000000E+00  0.00000000E+00  0.00000000E+00
  0.00000000E+00  0.00000000E+00  0.00000000E+00
  0.00000000E+00  0.00000000E+00  0.00000000E+00
  0.00000000E+00  0.00000000E+00  0.00000000E+00
  0.00000000E+00  0.00000000E+00  0.00000000E+00
  0.00000000E+00  0.00000000E+00  0.00000000E+00
  0.00000000E+00  0.00000000E+00  0.00000000E+00
  0.00000000E+00  0.00000000E+00  0.00000000E+00
  0.00000000E+00  0.00000000E+00  0.00000000E+00
  0.00000000E+00  0.00000000E+00  0.00000000E+00
