Ru  N  H  C                             
   1.00000000000000     
     8.1450004578000001    0.0000000000000000    0.0000000000000000
     0.0000000000000000   12.8549995421999999    0.0000000000000000
     0.0000000000000000    0.0000000000000000   23.6212997436999999
   Ru   N    H    C 
    74    12    26    10
Selective dynamics
Direct
  0.0000000000000000  0.0833299949999997  0.0663599980000029   F   F   F
  0.1666699889999990  0.0833299949999997  0.1659000109999980   F   F   F
  0.0000385125019833  0.0855925378190333  0.2637966119612036   T   T   T
  0.1710639626874374  0.0838756919745906  0.3686019331442763   T   T   T
  0.0000000000000000  0.2500000000000000  0.0000000000000000   F   F   F
  0.1666699889999990  0.2500000000000000  0.0995400030000013   F   F   F
  0.9985015377584572  0.2491204082163101  0.1981125208089335   T   T   T
  0.1669344549722910  0.2492862213112092  0.2955482213109583   T   T   T
  0.3333299960000033  0.0833299949999997  0.0663599980000029   F   F   F
  0.5000000000000000  0.0833299949999997  0.1659000109999980   F   F   F
  0.3362848805979002  0.0858296065520006  0.2643225944835811   T   T   T
  0.5023971206147896  0.0952467029024770  0.3630149182922200   T   T   T
  0.3333299960000033  0.2500000000000000  0.0000000000000000   F   F   F
  0.5000000000000000  0.2500000000000000  0.0995400030000013   F   F   F
  0.3337121844711757  0.2502152370161411  0.1995166772476357   T   T   T
  0.5034991751815746  0.2553793395156365  0.2964854615004722   T   T   T
  0.6666700039999967  0.0833299949999997  0.0663599980000029   F   F   F
  0.8333299960000033  0.0833299949999997  0.1659000109999980   F   F   F
  0.6689160901768174  0.0880701276780925  0.2639063872742005   T   T   T
  0.8420032241543798  0.0800626884208551  0.3654065760274310   T   T   T
  0.6666700039999967  0.2500000000000000  0.0000000000000000   F   F   F
  0.8333299960000033  0.2500000000000000  0.0995400030000013   F   F   F
  0.6674245496002290  0.2507690286575866  0.1976221470233615   T   T   T
  0.8396331917059048  0.2541726060900510  0.2983704517123302   T   T   T
  0.0000000000000000  0.4166700050000003  0.0663599980000029   F   F   F
  0.1666699889999990  0.4166700050000003  0.1659000109999980   F   F   F
  0.0010353131298986  0.4185908289386824  0.2604655537131329   T   T   T
  0.1528833925487801  0.4189082447909894  0.3594528974306928   T   T   T
  0.0000000000000000  0.5833299580000002  0.0000000000000000   F   F   F
  0.1666699889999990  0.5833299580000002  0.0995400030000013   F   F   F
  0.9997594203272855  0.5848234126462698  0.1984419726192808   T   T   T
  0.1654289033517538  0.5834895293086262  0.2938835331202163   T   T   T
  0.3333299960000033  0.4166700050000003  0.0663599980000029   F   F   F
  0.5000000000000000  0.4166700050000003  0.1659000109999980   F   F   F
  0.3294054787622079  0.4175862189327311  0.2629931154238427   T   T   T
  0.4961651035333574  0.4338697569987070  0.3664933737902856   T   T   T
  0.3333299960000033  0.5833299580000002  0.0000000000000000   F   F   F
  0.5000000000000000  0.5833299580000002  0.0995400030000013   F   F   F
  0.3332772499926705  0.5842199776508992  0.1983054935062822   T   T   T
  0.4975766205092683  0.5831531463882720  0.2942350510841564   T   T   T
  0.6666700039999967  0.4166700050000003  0.0663599980000029   F   F   F
  0.8333299960000033  0.4166700050000003  0.1659000109999980   F   F   F
  0.6673968198218321  0.4180610423833003  0.2624646448848330   T   T   T
  0.8113479505969381  0.4302411776863430  0.3621260621923880   T   T   T
  0.6666700039999967  0.5833299580000002  0.0000000000000000   F   F   F
  0.8333299960000033  0.5833299580000002  0.0995400030000013   F   F   F
  0.6662467203627171  0.5840099795789492  0.1986009096888995   T   T   T
  0.8341218578574898  0.5851540417394422  0.2938771806127383   T   T   T
  0.0000000000000000  0.7500000000000000  0.0663599980000029   F   F   F
  0.1666699889999990  0.7500000000000000  0.1659000109999980   F   F   F
 -0.0000891866854745  0.7507985400482828  0.2630680330210826   T   T   T
  0.1685096900254579  0.7414363197189051  0.3626553611879373   T   T   T
  0.0000000000000000  0.9166700050000003  0.0000000000000000   F   F   F
  0.1666699889999990  0.9166700050000003  0.0995400030000013   F   F   F
  0.0001084959015827  0.9171559749571710  0.1983003715877998   T   T   T
  0.1728647698566691  0.9145810842321901  0.2996922719170071   T   T   T
  0.3333299960000033  0.7500000000000000  0.0663599980000029   F   F   F
  0.5000000000000000  0.7500000000000000  0.1659000109999980   F   F   F
  0.3340521407970095  0.7507707234294400  0.2619286578746481   T   T   T
  0.5013906954457601  0.7422217621044562  0.3636155292913583   T   T   T
  0.3333299960000033  0.9166700050000003  0.0000000000000000   F   F   F
  0.5000000000000000  0.9166700050000003  0.0995400030000013   F   F   F
  0.3338300483427255  0.9184341956191795  0.1981412778397952   T   T   T
  0.5003426728701432  0.9186424964596406  0.3026694312397281   T   T   T
  0.6666700039999967  0.7500000000000000  0.0663599980000029   F   F   F
  0.8333299960000033  0.7500000000000000  0.1659000109999980   F   F   F
  0.6668523165983600  0.7487573724402117  0.2637141149707996   T   T   T
  0.8318035773743134  0.7369535440228411  0.3615649150244402   T   T   T
  0.6666700039999967  0.9166700050000003  0.0000000000000000   F   F   F
  0.8333299960000033  0.9166700050000003  0.0995400030000013   F   F   F
  0.6663828793291865  0.9164815041524387  0.1992897582247954   T   T   T
  0.8293157555092052  0.9149072247589100  0.3002477381795533   T   T   T
  0.3340258257877324  0.2663976353324063  0.3894875626611191   T   T   T
  0.4883072533785968  0.7076633699263422  0.5866475470354737   T   T   T
  0.3383669600311696  0.1288309283751564  0.4230041967211371   T   T   T
  0.6812911766401012  0.1658687052034326  0.4134539425172850   T   T   T
  0.0009113709187616  0.0913750865078405  0.4360118425192515   T   T   T
  0.3333197352076751  0.6799717862620264  0.4196356754246244   T   T   T
  0.3134381776115461  0.4053165652190935  0.4186724338322547   T   T   T
  0.3363464579540709  0.8559574581829967  0.3646357187833311   T   T   T
  0.9675990064232204  0.3169339117713125  0.3680376433474312   T   T   T
  0.0099332771931677  0.9589150835373824  0.3610519755529568   T   T   T
  0.6691975622022651  0.4740802045283107  0.4151391046502985   T   T   T
  0.6593860654216686  0.9649640567474168  0.3695848715208133   T   T   T
  0.6684543803647247  0.6889263441708146  0.4195652569065920   T   T   T
  0.0009100545884448  0.6730561328241095  0.4141215594923872   T   T   T
  0.4439588187953895  0.9888795878249912  0.4904594313901459   T   T   T
  0.3352902840750233  0.1160931868834347  0.4658479509060634   T   T   T
  0.6818182856568551  0.1428201060993144  0.4549660254715056   T   T   T
  0.6769229364597235  0.2457313603902888  0.4111817801432346   T   T   T
  0.0078333585344659  0.0274142524486372  0.4619855500704142   T   T   T
  0.9987491029381322  0.1557290252768786  0.4615537731520886   T   T   T
  0.3328121983594713  0.6000722159104113  0.4223599799616355   T   T   T
  0.3366511942957420  0.7112089760580818  0.4596112456642805   T   T   T
  0.4338754979187618  0.9840188862780456  0.4588228234537470   T   T   T
  0.9708114293548941  0.2693569663675505  0.4028187303299926   T   T   T
  0.0086618375843531  0.9112944718911654  0.3965460101451999   T   T   T
  0.6553516308840259  0.9173351759667707  0.4047230364695851   T   T   T
  0.6678966033497640  0.6075042914159015  0.4232977416694323   T   T   T
  0.6658919113546361  0.7189607645056219  0.4598526104140997   T   T   T
  0.0024460683949532  0.5924621282944784  0.4116908661056896   T   T   T
  0.0033101572564467  0.6947605971392793  0.4559340333732774   T   T   T
  0.5467212342556118  0.8317063981145042  0.4831291477467471   T   T   T
  0.7827765364565198  0.8363633238811226  0.5652422878977367   T   T   T
  0.6278184129009073  0.8617445386325621  0.6660903383297795   T   T   T
  0.3004229399297209  0.8699607749057815  0.6464554828085128   T   T   T
  0.2520597709501182  0.8503734601387429  0.5328813466144013   T   T   T
  0.5168656029181528  0.5359065700848228  0.5020152349233106   T   T   T
  0.7504558521818357  0.5501828968331185  0.5830633013225028   T   T   T
  0.5990195855413707  0.5859163858913981  0.6838527695401695   T   T   T
  0.2712008317019550  0.5970208428984100  0.6643792217222491   T   T   T
  0.2207352791175188  0.5670783902767061  0.5516200254679556   T   T   T
  0.3691896683206994  0.8467457562873084  0.5549374502834263   T   T   T
  0.5272774521771938  0.8350577085532452  0.5285464884092119   T   T   T
  0.6506861205404810  0.8404028212825858  0.5717298404370976   T   T   T
  0.5687494828427487  0.8543336191003127  0.6250350478326899   T   T   T
  0.3952428361428242  0.8586816387785391  0.6146205072203010   T   T   T
  0.3389514825391631  0.5684355624622459  0.5730509364710235   T   T   T
  0.4954648700890439  0.5530651581328085  0.5465245457550633   T   T   T
  0.6191291301692322  0.5591894242777198  0.5896943236619274   T   T   T
  0.5391173847685802  0.5776102350438292  0.6429587326439262   T   T   T
  0.3655234467546212  0.5834896301739707  0.6326448659854198   T   T   T
 
  0.00000000E+00  0.00000000E+00  0.00000000E+00
  0.00000000E+00  0.00000000E+00  0.00000000E+00
  0.00000000E+00  0.00000000E+00  0.00000000E+00
  0.00000000E+00  0.00000000E+00  0.00000000E+00
  0.00000000E+00  0.00000000E+00  0.00000000E+00
  0.00000000E+00  0.00000000E+00  0.00000000E+00
  0.00000000E+00  0.00000000E+00  0.00000000E+00
  0.00000000E+00  0.00000000E+00  0.00000000E+00
  0.00000000E+00  0.00000000E+00  0.00000000E+00
  0.00000000E+00  0.00000000E+00  0.00000000E+00
  0.00000000E+00  0.00000000E+00  0.00000000E+00
  0.00000000E+00  0.00000000E+00  0.00000000E+00
  0.00000000E+00  0.00000000E+00  0.00000000E+00
  0.00000000E+00  0.00000000E+00  0.00000000E+00
  0.00000000E+00  0.00000000E+00  0.00000000E+00
  0.00000000E+00  0.00000000E+00  0.00000000E+00
  0.00000000E+00  0.00000000E+00  0.00000000E+00
  0.00000000E+00  0.00000000E+00  0.00000000E+00
  0.00000000E+00  0.00000000E+00  0.00000000E+00
  0.00000000E+00  0.00000000E+00  0.00000000E+00
  0.00000000E+00  0.00000000E+00  0.00000000E+00
  0.00000000E+00  0.00000000E+00  0.00000000E+00
  0.00000000E+00  0.00000000E+00  0.00000000E+00
  0.00000000E+00  0.00000000E+00  0.00000000E+00
  0.00000000E+00  0.00000000E+00  0.00000000E+00
  0.00000000E+00  0.00000000E+00  0.00000000E+00
  0.00000000E+00  0.00000000E+00  0.00000000E+00
  0.00000000E+00  0.00000000E+00  0.00000000E+00
  0.00000000E+00  0.00000000E+00  0.00000000E+00
  0.00000000E+00  0.00000000E+00  0.00000000E+00
  0.00000000E+00  0.00000000E+00  0.00000000E+00
  0.00000000E+00  0.00000000E+00  0.00000000E+00
  0.00000000E+00  0.00000000E+00  0.00000000E+00
  0.00000000E+00  0.00000000E+00  0.00000000E+00
  0.00000000E+00  0.00000000E+00  0.00000000E+00
  0.00000000E+00  0.00000000E+00  0.00000000E+00
  0.00000000E+00  0.00000000E+00  0.00000000E+00
  0.00000000E+00  0.00000000E+00  0.00000000E+00
  0.00000000E+00  0.00000000E+00  0.00000000E+00
  0.00000000E+00  0.00000000E+00  0.00000000E+00
  0.00000000E+00  0.00000000E+00  0.00000000E+00
  0.00000000E+00  0.00000000E+00  0.00000000E+00
  0.00000000E+00  0.00000000E+00  0.00000000E+00
  0.00000000E+00  0.00000000E+00  0.00000000E+00
  0.00000000E+00  0.00000000E+00  0.00000000E+00
  0.00000000E+00  0.00000000E+00  0.00000000E+00
  0.00000000E+00  0.00000000E+00  0.00000000E+00
  0.00000000E+00  0.00000000E+00  0.00000000E+00
  0.00000000E+00  0.00000000E+00  0.00000000E+00
  0.00000000E+00  0.00000000E+00  0.00000000E+00
  0.00000000E+00  0.00000000E+00  0.00000000E+00
  0.00000000E+00  0.00000000E+00  0.00000000E+00
  0.00000000E+00  0.00000000E+00  0.00000000E+00
  0.00000000E+00  0.00000000E+00  0.00000000E+00
  0.00000000E+00  0.00000000E+00  0.00000000E+00
  0.00000000E+00  0.00000000E+00  0.00000000E+00
  0.00000000E+00  0.00000000E+00  0.00000000E+00
  0.00000000E+00  0.00000000E+00  0.00000000E+00
  0.00000000E+00  0.00000000E+00  0.00000000E+00
  0.00000000E+00  0.00000000E+00  0.00000000E+00
  0.00000000E+00  0.00000000E+00  0.00000000E+00
  0.00000000E+00  0.00000000E+00  0.00000000E+00
  0.00000000E+00  0.00000000E+00  0.00000000E+00
  0.00000000E+00  0.00000000E+00  0.00000000E+00
  0.00000000E+00  0.00000000E+00  0.00000000E+00
  0.00000000E+00  0.00000000E+00  0.00000000E+00
  0.00000000E+00  0.00000000E+00  0.00000000E+00
  0.00000000E+00  0.00000000E+00  0.00000000E+00
  0.00000000E+00  0.00000000E+00  0.00000000E+00
  0.00000000E+00  0.00000000E+00  0.00000000E+00
  0.00000000E+00  0.00000000E+00  0.00000000E+00
  0.00000000E+00  0.00000000E+00  0.00000000E+00
  0.00000000E+00  0.00000000E+00  0.00000000E+00
  0.00000000E+00  0.00000000E+00  0.00000000E+00
  0.00000000E+00  0.00000000E+00  0.00000000E+00
  0.00000000E+00  0.00000000E+00  0.00000000E+00
  0.00000000E+00  0.00000000E+00  0.00000000E+00
  0.00000000E+00  0.00000000E+00  0.00000000E+00
  0.00000000E+00  0.00000000E+00  0.00000000E+00
  0.00000000E+00  0.00000000E+00  0.00000000E+00
  0.00000000E+00  0.00000000E+00  0.00000000E+00
  0.00000000E+00  0.00000000E+00  0.00000000E+00
  0.00000000E+00  0.00000000E+00  0.00000000E+00
  0.00000000E+00  0.00000000E+00  0.00000000E+00
  0.00000000E+00  0.00000000E+00  0.00000000E+00
  0.00000000E+00  0.00000000E+00  0.00000000E+00
  0.00000000E+00  0.00000000E+00  0.00000000E+00
  0.00000000E+00  0.00000000E+00  0.00000000E+00
  0.00000000E+00  0.00000000E+00  0.00000000E+00
  0.00000000E+00  0.00000000E+00  0.00000000E+00
  0.00000000E+00  0.00000000E+00  0.00000000E+00
  0.00000000E+00  0.00000000E+00  0.00000000E+00
  0.00000000E+00  0.00000000E+00  0.00000000E+00
  0.00000000E+00  0.00000000E+00  0.00000000E+00
  0.00000000E+00  0.00000000E+00  0.00000000E+00
  0.00000000E+00  0.00000000E+00  0.00000000E+00
  0.00000000E+00  0.00000000E+00  0.00000000E+00
  0.00000000E+00  0.00000000E+00  0.00000000E+00
  0.00000000E+00  0.00000000E+00  0.00000000E+00
  0.00000000E+00  0.00000000E+00  0.00000000E+00
  0.00000000E+00  0.00000000E+00  0.00000000E+00
  0.00000000E+00  0.00000000E+00  0.00000000E+00
  0.00000000E+00  0.00000000E+00  0.00000000E+00
  0.00000000E+00  0.00000000E+00  0.00000000E+00
  0.00000000E+00  0.00000000E+00  0.00000000E+00
  0.00000000E+00  0.00000000E+00  0.00000000E+00
  0.00000000E+00  0.00000000E+00  0.00000000E+00
  0.00000000E+00  0.00000000E+00  0.00000000E+00
  0.00000000E+00  0.00000000E+00  0.00000000E+00
  0.00000000E+00  0.00000000E+00  0.00000000E+00
  0.00000000E+00  0.00000000E+00  0.00000000E+00
  0.00000000E+00  0.00000000E+00  0.00000000E+00
  0.00000000E+00  0.00000000E+00  0.00000000E+00
  0.00000000E+00  0.00000000E+00  0.00000000E+00
  0.00000000E+00  0.00000000E+00  0.00000000E+00
  0.00000000E+00  0.00000000E+00  0.00000000E+00
  0.00000000E+00  0.00000000E+00  0.00000000E+00
  0.00000000E+00  0.00000000E+00  0.00000000E+00
  0.00000000E+00  0.00000000E+00  0.00000000E+00
  0.00000000E+00  0.00000000E+00  0.00000000E+00
  0.00000000E+00  0.00000000E+00  0.00000000E+00
  0.00000000E+00  0.00000000E+00  0.00000000E+00
