Ru  N  H  C                             
   1.00000000000000     
     8.1450004578000001    0.0000000000000000    0.0000000000000000
     0.0000000000000000   12.8549995421999999    0.0000000000000000
     0.0000000000000000    0.0000000000000000   23.6212997436999999
   Ru   N    H    C 
    73    12    28    10
Selective dynamics
Direct
  0.0000000000000000  0.0833299949999997  0.0663599980000029   F   F   F
  0.1666699889999990  0.0833299949999997  0.1659000109999980   F   F   F
  0.9971086176323963  0.0858188428447670  0.2644676963675544   T   T   T
  0.1657026840519863  0.0771042542347603  0.3708004481791131   T   T   T
  0.0000000000000000  0.2500000000000000  0.0000000000000000   F   F   F
  0.1666699889999990  0.2500000000000000  0.0995400030000013   F   F   F
  0.9995918532139509  0.2496812706909276  0.1995804574858900   T   T   T
  0.1659337316539872  0.2487705635195463  0.2959465957029331   T   T   T
  0.3333299960000033  0.0833299949999997  0.0663599980000029   F   F   F
  0.5000000000000000  0.0833299949999997  0.1659000109999980   F   F   F
  0.3347905529386119  0.0862997375988115  0.2644718842249776   T   T   T
  0.4932450472411338  0.0791967599935460  0.3639702121252005   T   T   T
  0.3333299960000033  0.2500000000000000  0.0000000000000000   F   F   F
  0.5000000000000000  0.2500000000000000  0.0995400030000013   F   F   F
  0.3341963694672645  0.2498162669889713  0.1993698178033283   T   T   T
  0.4938048429338024  0.2538725049521297  0.2990924459402577   T   T   T
  0.6666700039999967  0.0833299949999997  0.0663599980000029   F   F   F
  0.8333299960000033  0.0833299949999997  0.1659000109999980   F   F   F
  0.6661828741860701  0.0882784658291852  0.2655196468950756   T   T   T
  0.8383888286318257  0.0789954409267036  0.3638635288135781   T   T   T
  0.6666700039999967  0.2500000000000000  0.0000000000000000   F   F   F
  0.8333299960000033  0.2500000000000000  0.0995400030000013   F   F   F
  0.6666471764794987  0.2512880051774882  0.1984978558473755   T   T   T
  0.8378393882844927  0.2530458338193440  0.2985197137111262   T   T   T
  0.0000000000000000  0.4166700050000003  0.0663599980000029   F   F   F
  0.1666699889999990  0.4166700050000003  0.1659000109999980   F   F   F
  0.0021550708966471  0.4194775071273731  0.2621546843449720   T   T   T
  0.1698119158467356  0.4167973849297875  0.3556958160582310   T   T   T
  0.0000000000000000  0.5833299580000002  0.0000000000000000   F   F   F
  0.1666699889999990  0.5833299580000002  0.0995400030000013   F   F   F
  0.9990664943523960  0.5843879110798155  0.1980609826579950   T   T   T
  0.1668588361391069  0.5852352403135673  0.2941321345466953   T   T   T
  0.3333299960000033  0.4166700050000003  0.0663599980000029   F   F   F
  0.5000000000000000  0.4166700050000003  0.1659000109999980   F   F   F
  0.3312198017155692  0.4199302329405531  0.2619226278192021   T   T   T
  0.5113908255147011  0.4310782641373359  0.3625753264777337   T   T   T
  0.3333299960000033  0.5833299580000002  0.0000000000000000   F   F   F
  0.5000000000000000  0.5833299580000002  0.0995400030000013   F   F   F
  0.3339142858691799  0.5847418168605979  0.1979131244629313   T   T   T
  0.4972488371256387  0.5850947401739137  0.2948307356846863   T   T   T
  0.6666700039999967  0.4166700050000003  0.0663599980000029   F   F   F
  0.8333299960000033  0.4166700050000003  0.1659000109999980   F   F   F
  0.6671342447817981  0.4175615164111505  0.2637542513546854   T   T   T
  0.8300467846433918  0.4275858917851564  0.3627122042383107   T   T   T
  0.6666700039999967  0.5833299580000002  0.0000000000000000   F   F   F
  0.8333299960000033  0.5833299580000002  0.0995400030000013   F   F   F
  0.6667004481261677  0.5839301249650501  0.1985903895592004   T   T   T
  0.8351699877948444  0.5846006607773383  0.2950481980161763   T   T   T
  0.0000000000000000  0.7500000000000000  0.0663599980000029   F   F   F
  0.1666699889999990  0.7500000000000000  0.1659000109999980   F   F   F
 -0.0011508661513419  0.7506111758342543  0.2624394577318656   T   T   T
  0.1676658325861640  0.7322450984876316  0.3615258823746921   T   T   T
  0.0000000000000000  0.9166700050000003  0.0000000000000000   F   F   F
  0.1666699889999990  0.9166700050000003  0.0995400030000013   F   F   F
  0.0000676433650435  0.9176783364536691  0.1981225845447548   T   T   T
  0.1667656783723205  0.9109785797167442  0.2993134149729306   T   T   T
  0.3333299960000033  0.7500000000000000  0.0663599980000029   F   F   F
  0.5000000000000000  0.7500000000000000  0.1659000109999980   F   F   F
  0.3339818096262542  0.7507419373994084  0.2625656104357758   T   T   T
  0.5014792411330076  0.7366373499199800  0.3617657097773170   T   T   T
  0.3333299960000033  0.9166700050000003  0.0000000000000000   F   F   F
  0.5000000000000000  0.9166700050000003  0.0995400030000013   F   F   F
  0.3330484964699475  0.9176856039672513  0.1982931513352323   T   T   T
  0.5028831543324321  0.9133979438174329  0.3005674694381491   T   T   T
  0.6666700039999967  0.7500000000000000  0.0663599980000029   F   F   F
  0.8333299960000033  0.7500000000000000  0.1659000109999980   F   F   F
  0.6670448607485446  0.7493376642112736  0.2630123850391624   T   T   T
  0.8328618653372259  0.7360355036732427  0.3615869479995032   T   T   T
  0.6666700039999967  0.9166700050000003  0.0000000000000000   F   F   F
  0.8333299960000033  0.9166700050000003  0.0995400030000013   F   F   F
  0.6668347439891635  0.9171139221548610  0.1987484461919060   T   T   T
  0.8298130370411098  0.9131646874296913  0.3002940136142024   T   T   T
  0.4238123865473808  0.4287327615625293  0.5870918741096418   T   T   T
  0.3411243909012440  0.0989277596219286  0.4352017568210198   T   T   T
  0.6662924211226517  0.1709898823761232  0.4050381587356204   T   T   T
  0.9894665859764435  0.0961140870020266  0.4357693930570332   T   T   T
  0.3355620446317419  0.6764461293317402  0.4174398568817788   T   T   T
  0.3549320653403887  0.3164095079397542  0.3691890283428442   T   T   T
  0.3309115788562054  0.9531564731231837  0.3632671794811244   T   T   T
  0.9891025156449147  0.3124250316634389  0.3676406298065539   T   T   T
  0.0014117915257859  0.9531446923535007  0.3627414853553722   T   T   T
  0.6716819492555841  0.4607674596106224  0.4197001041609933   T   T   T
  0.6656771286533234  0.9579250663247237  0.3700176863062805   T   T   T
  0.6674940771946830  0.7074177448116645  0.4244207871773787   T   T   T
 -0.0010783131142740  0.6728092066382038  0.4161303009732346   T   T   T
  0.3346326614062873  0.0378870831521755  0.4631960116492980   T   T   T
  0.3445005669425457  0.1653325130752394  0.4592872383916772   T   T   T
  0.6641913741992274  0.1557946088911052  0.4477074131194245   T   T   T
  0.6669475769237059  0.2499605443871513  0.3983177115393058   T   T   T
  0.9945290708956207  0.0341162392170112  0.4631865759590352   T   T   T
  0.9844946288302482  0.1618203257239851  0.4603146746711746   T   T   T
  0.3380057494370030  0.5956889943942573  0.4166074557481311   T   T   T
  0.3362987592379034  0.7013711501630555  0.4587236876365698   T   T   T
  0.3571495577399769  0.2688237010921114  0.4038768823816219   T   T   T
  0.3395869825264247  0.9048233224029408  0.3983449420815246   T   T   T
  0.9888134219216319  0.2636902179650127  0.4018489429796970   T   T   T
  0.9932076746856372  0.9049476621519610  0.3979197331202976   T   T   T
  0.6695259330076950  0.4809425715232727  0.4618674956382215   T   T   T
  0.6652098809047965  0.9080770838014364  0.4042928940247280   T   T   T
  0.6672843969164942  0.6293867611836916  0.4343909433217617   T   T   T
  0.6678569216703328  0.7502212355446892  0.4611129369320106   T   T   T
  0.9976202327620993  0.5919477311351649  0.4135744673168764   T   T   T
 -0.0007719769529878  0.6943071821729547  0.4580101842559768   T   T   T
  0.2591069097845975  0.6106291113034154  0.5393048890615380   T   T   T
  0.5927391111916968  0.6080111192028052  0.5351417239551399   T   T   T
  0.7047088517053843  0.5409103132309049  0.6372306089157518   T   T   T
  0.4412785901908334  0.5050091820374846  0.7045707669743575   T   T   T
  0.1664480734728596  0.5489309901206446  0.6444664986919968   T   T   T
  0.2391926755298279  0.3492135984691248  0.4907761854769763   T   T   T
  0.5695468126147922  0.3351368303361891  0.4854954768407129   T   T   T
  0.6812836960661748  0.2685547032568189  0.5881077323989627   T   T   T
  0.4172144858105908  0.2390221729038206  0.6562674717367487   T   T   T
  0.1435127378651889  0.2873473388965258  0.5964656828612540   T   T   T
  0.2918783651084605  0.5548825808677172  0.6290234997602880   T   T   T
  0.3411163138150227  0.5880482048238407  0.5734917157938672   T   T   T
  0.5174653979197396  0.5854462823006373  0.5711170078798758   T   T   T
  0.5767776989795504  0.5502891598544450  0.6251241694905511   T   T   T
  0.4373677495819174  0.5314938289548392  0.6608550593376118   T   T   T
  0.2688780394747656  0.2910833268437985  0.5807865840144857   T   T   T
  0.3187885901999111  0.3227510983522893  0.5249580091291847   T   T   T
  0.4952011583125745  0.3162528673998303  0.5223271113544934   T   T   T
  0.5535761010117913  0.2811226876207132  0.5764536517474887   T   T   T
  0.4139248665468949  0.2655688113529165  0.6125524046257776   T   T   T
 
  0.00000000E+00  0.00000000E+00  0.00000000E+00
  0.00000000E+00  0.00000000E+00  0.00000000E+00
  0.00000000E+00  0.00000000E+00  0.00000000E+00
  0.00000000E+00  0.00000000E+00  0.00000000E+00
  0.00000000E+00  0.00000000E+00  0.00000000E+00
  0.00000000E+00  0.00000000E+00  0.00000000E+00
  0.00000000E+00  0.00000000E+00  0.00000000E+00
  0.00000000E+00  0.00000000E+00  0.00000000E+00
  0.00000000E+00  0.00000000E+00  0.00000000E+00
  0.00000000E+00  0.00000000E+00  0.00000000E+00
  0.00000000E+00  0.00000000E+00  0.00000000E+00
  0.00000000E+00  0.00000000E+00  0.00000000E+00
  0.00000000E+00  0.00000000E+00  0.00000000E+00
  0.00000000E+00  0.00000000E+00  0.00000000E+00
  0.00000000E+00  0.00000000E+00  0.00000000E+00
  0.00000000E+00  0.00000000E+00  0.00000000E+00
  0.00000000E+00  0.00000000E+00  0.00000000E+00
  0.00000000E+00  0.00000000E+00  0.00000000E+00
  0.00000000E+00  0.00000000E+00  0.00000000E+00
  0.00000000E+00  0.00000000E+00  0.00000000E+00
  0.00000000E+00  0.00000000E+00  0.00000000E+00
  0.00000000E+00  0.00000000E+00  0.00000000E+00
  0.00000000E+00  0.00000000E+00  0.00000000E+00
  0.00000000E+00  0.00000000E+00  0.00000000E+00
  0.00000000E+00  0.00000000E+00  0.00000000E+00
  0.00000000E+00  0.00000000E+00  0.00000000E+00
  0.00000000E+00  0.00000000E+00  0.00000000E+00
  0.00000000E+00  0.00000000E+00  0.00000000E+00
  0.00000000E+00  0.00000000E+00  0.00000000E+00
  0.00000000E+00  0.00000000E+00  0.00000000E+00
  0.00000000E+00  0.00000000E+00  0.00000000E+00
  0.00000000E+00  0.00000000E+00  0.00000000E+00
  0.00000000E+00  0.00000000E+00  0.00000000E+00
  0.00000000E+00  0.00000000E+00  0.00000000E+00
  0.00000000E+00  0.00000000E+00  0.00000000E+00
  0.00000000E+00  0.00000000E+00  0.00000000E+00
  0.00000000E+00  0.00000000E+00  0.00000000E+00
  0.00000000E+00  0.00000000E+00  0.00000000E+00
  0.00000000E+00  0.00000000E+00  0.00000000E+00
  0.00000000E+00  0.00000000E+00  0.00000000E+00
  0.00000000E+00  0.00000000E+00  0.00000000E+00
  0.00000000E+00  0.00000000E+00  0.00000000E+00
  0.00000000E+00  0.00000000E+00  0.00000000E+00
  0.00000000E+00  0.00000000E+00  0.00000000E+00
  0.00000000E+00  0.00000000E+00  0.00000000E+00
  0.00000000E+00  0.00000000E+00  0.00000000E+00
  0.00000000E+00  0.00000000E+00  0.00000000E+00
  0.00000000E+00  0.00000000E+00  0.00000000E+00
  0.00000000E+00  0.00000000E+00  0.00000000E+00
  0.00000000E+00  0.00000000E+00  0.00000000E+00
  0.00000000E+00  0.00000000E+00  0.00000000E+00
  0.00000000E+00  0.00000000E+00  0.00000000E+00
  0.00000000E+00  0.00000000E+00  0.00000000E+00
  0.00000000E+00  0.00000000E+00  0.00000000E+00
  0.00000000E+00  0.00000000E+00  0.00000000E+00
  0.00000000E+00  0.00000000E+00  0.00000000E+00
  0.00000000E+00  0.00000000E+00  0.00000000E+00
  0.00000000E+00  0.00000000E+00  0.00000000E+00
  0.00000000E+00  0.00000000E+00  0.00000000E+00
  0.00000000E+00  0.00000000E+00  0.00000000E+00
  0.00000000E+00  0.00000000E+00  0.00000000E+00
  0.00000000E+00  0.00000000E+00  0.00000000E+00
  0.00000000E+00  0.00000000E+00  0.00000000E+00
  0.00000000E+00  0.00000000E+00  0.00000000E+00
  0.00000000E+00  0.00000000E+00  0.00000000E+00
  0.00000000E+00  0.00000000E+00  0.00000000E+00
  0.00000000E+00  0.00000000E+00  0.00000000E+00
  0.00000000E+00  0.00000000E+00  0.00000000E+00
  0.00000000E+00  0.00000000E+00  0.00000000E+00
  0.00000000E+00  0.00000000E+00  0.00000000E+00
  0.00000000E+00  0.00000000E+00  0.00000000E+00
  0.00000000E+00  0.00000000E+00  0.00000000E+00
  0.00000000E+00  0.00000000E+00  0.00000000E+00
  0.00000000E+00  0.00000000E+00  0.00000000E+00
  0.00000000E+00  0.00000000E+00  0.00000000E+00
  0.00000000E+00  0.00000000E+00  0.00000000E+00
  0.00000000E+00  0.00000000E+00  0.00000000E+00
  0.00000000E+00  0.00000000E+00  0.00000000E+00
  0.00000000E+00  0.00000000E+00  0.00000000E+00
  0.00000000E+00  0.00000000E+00  0.00000000E+00
  0.00000000E+00  0.00000000E+00  0.00000000E+00
  0.00000000E+00  0.00000000E+00  0.00000000E+00
  0.00000000E+00  0.00000000E+00  0.00000000E+00
  0.00000000E+00  0.00000000E+00  0.00000000E+00
  0.00000000E+00  0.00000000E+00  0.00000000E+00
  0.00000000E+00  0.00000000E+00  0.00000000E+00
  0.00000000E+00  0.00000000E+00  0.00000000E+00
  0.00000000E+00  0.00000000E+00  0.00000000E+00
  0.00000000E+00  0.00000000E+00  0.00000000E+00
  0.00000000E+00  0.00000000E+00  0.00000000E+00
  0.00000000E+00  0.00000000E+00  0.00000000E+00
  0.00000000E+00  0.00000000E+00  0.00000000E+00
  0.00000000E+00  0.00000000E+00  0.00000000E+00
  0.00000000E+00  0.00000000E+00  0.00000000E+00
  0.00000000E+00  0.00000000E+00  0.00000000E+00
  0.00000000E+00  0.00000000E+00  0.00000000E+00
  0.00000000E+00  0.00000000E+00  0.00000000E+00
  0.00000000E+00  0.00000000E+00  0.00000000E+00
  0.00000000E+00  0.00000000E+00  0.00000000E+00
  0.00000000E+00  0.00000000E+00  0.00000000E+00
  0.00000000E+00  0.00000000E+00  0.00000000E+00
  0.00000000E+00  0.00000000E+00  0.00000000E+00
  0.00000000E+00  0.00000000E+00  0.00000000E+00
  0.00000000E+00  0.00000000E+00  0.00000000E+00
  0.00000000E+00  0.00000000E+00  0.00000000E+00
  0.00000000E+00  0.00000000E+00  0.00000000E+00
  0.00000000E+00  0.00000000E+00  0.00000000E+00
  0.00000000E+00  0.00000000E+00  0.00000000E+00
  0.00000000E+00  0.00000000E+00  0.00000000E+00
  0.00000000E+00  0.00000000E+00  0.00000000E+00
  0.00000000E+00  0.00000000E+00  0.00000000E+00
  0.00000000E+00  0.00000000E+00  0.00000000E+00
  0.00000000E+00  0.00000000E+00  0.00000000E+00
  0.00000000E+00  0.00000000E+00  0.00000000E+00
  0.00000000E+00  0.00000000E+00  0.00000000E+00
  0.00000000E+00  0.00000000E+00  0.00000000E+00
  0.00000000E+00  0.00000000E+00  0.00000000E+00
  0.00000000E+00  0.00000000E+00  0.00000000E+00
  0.00000000E+00  0.00000000E+00  0.00000000E+00
  0.00000000E+00  0.00000000E+00  0.00000000E+00
  0.00000000E+00  0.00000000E+00  0.00000000E+00
  0.00000000E+00  0.00000000E+00  0.00000000E+00
  0.00000000E+00  0.00000000E+00  0.00000000E+00
