Ru  N  H                                
   1.00000000000000     
     8.1450004578000001    0.0000000000000000    0.0000000000000000
     0.0000000000000000   12.8549995421999999    0.0000000000000000
     0.0000000000000000    0.0000000000000000   23.6212997436999999
   Ru   N    H 
    72    12    18
Selective dynamics
Direct
  0.0000000000000000  0.0833299949999997  0.0663599980000029   F   F   F
  0.1666699889999990  0.0833299949999997  0.1659000109999980   F   F   F
  0.9973302802955154  0.0858946606621991  0.2644811339724372   T   T   T
  0.1656908281221301  0.0770261464122798  0.3706012363860425   T   T   T
  0.0000000000000000  0.2500000000000000  0.0000000000000000   F   F   F
  0.1666699889999990  0.2500000000000000  0.0995400030000013   F   F   F
  0.9995821154216179  0.2496729511466660  0.1995933186705099   T   T   T
  0.1659216603944836  0.2487569968270254  0.2959452776769573   T   T   T
  0.3333299960000033  0.0833299949999997  0.0663599980000029   F   F   F
  0.5000000000000000  0.0833299949999997  0.1659000109999980   F   F   F
  0.3348924644172497  0.0862934869114068  0.2644309262885120   T   T   T
  0.4934910300776440  0.0792962927248139  0.3638466897276793   T   T   T
  0.3333299960000033  0.2500000000000000  0.0000000000000000   F   F   F
  0.5000000000000000  0.2500000000000000  0.0995400030000013   F   F   F
  0.3341022550209693  0.2498295215498945  0.1994402138825173   T   T   T
  0.4938750984556019  0.2538055930774561  0.2990517941292438   T   T   T
  0.6666700039999967  0.0833299949999997  0.0663599980000029   F   F   F
  0.8333299960000033  0.0833299949999997  0.1659000109999980   F   F   F
  0.6659948680827542  0.0882363918564486  0.2655741478731358   T   T   T
  0.8383588682054396  0.0789206968031080  0.3638201478365733   T   T   T
  0.6666700039999967  0.2500000000000000  0.0000000000000000   F   F   F
  0.8333299960000033  0.2500000000000000  0.0995400030000013   F   F   F
  0.6666649507971848  0.2512349803045763  0.1985447386183368   T   T   T
  0.8379470448651137  0.2530710187567896  0.2985242481769045   T   T   T
  0.0000000000000000  0.4166700050000003  0.0663599980000029   F   F   F
  0.1666699889999990  0.4166700050000003  0.1659000109999980   F   F   F
  0.0023111205026502  0.4194966954993585  0.2621725263970303   T   T   T
  0.1697168110863547  0.4168931936933725  0.3555833826145651   T   T   T
  0.0000000000000000  0.5833299580000002  0.0000000000000000   F   F   F
  0.1666699889999990  0.5833299580000002  0.0995400030000013   F   F   F
  0.9990937301341734  0.5844160078442459  0.1980456526891939   T   T   T
  0.1668084542035596  0.5853281695254123  0.2941157749545519   T   T   T
  0.3333299960000033  0.4166700050000003  0.0663599980000029   F   F   F
  0.5000000000000000  0.4166700050000003  0.1659000109999980   F   F   F
  0.3312091956903405  0.4198040048764310  0.2619390051662093   T   T   T
  0.5116112716142762  0.4311540889004922  0.3627140880235429   T   T   T
  0.3333299960000033  0.5833299580000002  0.0000000000000000   F   F   F
  0.5000000000000000  0.5833299580000002  0.0995400030000013   F   F   F
  0.3338540392153867  0.5847895672527533  0.1979376883078114   T   T   T
  0.4974969918049241  0.5850791822510570  0.2948120888338583   T   T   T
  0.6666700039999967  0.4166700050000003  0.0663599980000029   F   F   F
  0.8333299960000033  0.4166700050000003  0.1659000109999980   F   F   F
  0.6671073795002836  0.4174909119644777  0.2637444465460103   T   T   T
  0.8297438360698437  0.4276299079005994  0.3626715748215597   T   T   T
  0.6666700039999967  0.5833299580000002  0.0000000000000000   F   F   F
  0.8333299960000033  0.5833299580000002  0.0995400030000013   F   F   F
  0.6667512711715763  0.5839522941628531  0.1986266483072337   T   T   T
  0.8352539594719350  0.5846745822662620  0.2950410808457888   T   T   T
  0.0000000000000000  0.7500000000000000  0.0663599980000029   F   F   F
  0.1666699889999990  0.7500000000000000  0.1659000109999980   F   F   F
  0.9988139429841807  0.7505193764661924  0.2624776463817428   T   T   T
  0.1676599211849348  0.7322365910385499  0.3614789936872754   T   T   T
  0.0000000000000000  0.9166700050000003  0.0000000000000000   F   F   F
  0.1666699889999990  0.9166700050000003  0.0995400030000013   F   F   F
 -0.0000385406927507  0.9177159059866098  0.1981427544173720   T   T   T
  0.1668684181033576  0.9110160999535489  0.2993575121641467   T   T   T
  0.3333299960000033  0.7500000000000000  0.0663599980000029   F   F   F
  0.5000000000000000  0.7500000000000000  0.1659000109999980   F   F   F
  0.3339504644812132  0.7507146670570609  0.2625006519504388   T   T   T
  0.5014976598932950  0.7366355223827065  0.3617791368413747   T   T   T
  0.3333299960000033  0.9166700050000003  0.0000000000000000   F   F   F
  0.5000000000000000  0.9166700050000003  0.0995400030000013   F   F   F
  0.3331541429926341  0.9176558644851883  0.1982869474491364   T   T   T
  0.5027936200641175  0.9132845576480665  0.3005487275670109   T   T   T
  0.6666700039999967  0.7500000000000000  0.0663599980000029   F   F   F
  0.8333299960000033  0.7500000000000000  0.1659000109999980   F   F   F
  0.6670259928336876  0.7492372975079741  0.2630151526448074   T   T   T
  0.8328176495391139  0.7360658557475291  0.3615156121844972   T   T   T
  0.6666700039999967  0.9166700050000003  0.0000000000000000   F   F   F
  0.8333299960000033  0.9166700050000003  0.0995400030000013   F   F   F
  0.6667223483342426  0.9171175040753781  0.1986825000590650   T   T   T
  0.8299895265012841  0.9130464722992164  0.3003313188690043   T   T   T
  0.3412585470779822  0.0988637866986741  0.4353696627050545   T   T   T
  0.6659820842250100  0.1711242997880806  0.4050133243241082   T   T   T
  0.9894214474597938  0.0960884146165096  0.4358096311403473   T   T   T
  0.3356463276041364  0.6764925095340137  0.4174192021019981   T   T   T
  0.3546777451536179  0.3163714971989037  0.3691463444970559   T   T   T
  0.3308091609572892  0.9532128011399881  0.3632614674433890   T   T   T
  0.9890204206773314  0.3124375063290523  0.3675899844800964   T   T   T
  0.0013902472587969  0.9531483719262173  0.3627417517795845   T   T   T
  0.6713410292114772  0.4604059942519704  0.4197106824628263   T   T   T
  0.6656907010527433  0.9577737539484590  0.3699550974637938   T   T   T
  0.6674839283621287  0.7074088375185111  0.4244203815454461   T   T   T
  0.9990201558382419  0.6727660380045973  0.4161335207401557   T   T   T
  0.3346631006105598  0.0377456948166367  0.4632391235225535   T   T   T
  0.3445034625635766  0.1655038857075105  0.4592395029618542   T   T   T
  0.6645547716616236  0.1557173117741328  0.4476438449464843   T   T   T
  0.6669483407808992  0.2500977249825091  0.3984017369883828   T   T   T
  0.9945781923578629  0.0340482638722147  0.4631925229235854   T   T   T
  0.9844694760964352  0.1619215330518304  0.4602700012161991   T   T   T
  0.3379185036746894  0.5956421753333534  0.4165553307232124   T   T   T
  0.3361305056796427  0.7011927991259406  0.4587781733718405   T   T   T
  0.3570366105872434  0.2688316700138877  0.4038829115199710   T   T   T
  0.3396313922690203  0.9048233095174654  0.3983528525160699   T   T   T
  0.9887953584316792  0.2637596424532067  0.4018645766757286   T   T   T
  0.9932099593255047  0.9049200967471469  0.3979130229598082   T   T   T
  0.6697805409558046  0.4807056744628968  0.4617948415120743   T   T   T
  0.6652546907238935  0.9081643812092914  0.4043460293469645   T   T   T
  0.6672778959968060  0.6294567323108924  0.4344739094138886   T   T   T
  0.6678473294669465  0.7501663321737925  0.4611129092046770   T   T   T
  0.9975766535726215  0.5919686847201244  0.4135461651223810   T   T   T
  0.9992356703953232  0.6942813032869583  0.4580002746919733   T   T   T
 
  0.00000000E+00  0.00000000E+00  0.00000000E+00
  0.00000000E+00  0.00000000E+00  0.00000000E+00
  0.00000000E+00  0.00000000E+00  0.00000000E+00
  0.00000000E+00  0.00000000E+00  0.00000000E+00
  0.00000000E+00  0.00000000E+00  0.00000000E+00
  0.00000000E+00  0.00000000E+00  0.00000000E+00
  0.00000000E+00  0.00000000E+00  0.00000000E+00
  0.00000000E+00  0.00000000E+00  0.00000000E+00
  0.00000000E+00  0.00000000E+00  0.00000000E+00
  0.00000000E+00  0.00000000E+00  0.00000000E+00
  0.00000000E+00  0.00000000E+00  0.00000000E+00
  0.00000000E+00  0.00000000E+00  0.00000000E+00
  0.00000000E+00  0.00000000E+00  0.00000000E+00
  0.00000000E+00  0.00000000E+00  0.00000000E+00
  0.00000000E+00  0.00000000E+00  0.00000000E+00
  0.00000000E+00  0.00000000E+00  0.00000000E+00
  0.00000000E+00  0.00000000E+00  0.00000000E+00
  0.00000000E+00  0.00000000E+00  0.00000000E+00
  0.00000000E+00  0.00000000E+00  0.00000000E+00
  0.00000000E+00  0.00000000E+00  0.00000000E+00
  0.00000000E+00  0.00000000E+00  0.00000000E+00
  0.00000000E+00  0.00000000E+00  0.00000000E+00
  0.00000000E+00  0.00000000E+00  0.00000000E+00
  0.00000000E+00  0.00000000E+00  0.00000000E+00
  0.00000000E+00  0.00000000E+00  0.00000000E+00
  0.00000000E+00  0.00000000E+00  0.00000000E+00
  0.00000000E+00  0.00000000E+00  0.00000000E+00
  0.00000000E+00  0.00000000E+00  0.00000000E+00
  0.00000000E+00  0.00000000E+00  0.00000000E+00
  0.00000000E+00  0.00000000E+00  0.00000000E+00
  0.00000000E+00  0.00000000E+00  0.00000000E+00
  0.00000000E+00  0.00000000E+00  0.00000000E+00
  0.00000000E+00  0.00000000E+00  0.00000000E+00
  0.00000000E+00  0.00000000E+00  0.00000000E+00
  0.00000000E+00  0.00000000E+00  0.00000000E+00
  0.00000000E+00  0.00000000E+00  0.00000000E+00
  0.00000000E+00  0.00000000E+00  0.00000000E+00
  0.00000000E+00  0.00000000E+00  0.00000000E+00
  0.00000000E+00  0.00000000E+00  0.00000000E+00
  0.00000000E+00  0.00000000E+00  0.00000000E+00
  0.00000000E+00  0.00000000E+00  0.00000000E+00
  0.00000000E+00  0.00000000E+00  0.00000000E+00
  0.00000000E+00  0.00000000E+00  0.00000000E+00
  0.00000000E+00  0.00000000E+00  0.00000000E+00
  0.00000000E+00  0.00000000E+00  0.00000000E+00
  0.00000000E+00  0.00000000E+00  0.00000000E+00
  0.00000000E+00  0.00000000E+00  0.00000000E+00
  0.00000000E+00  0.00000000E+00  0.00000000E+00
  0.00000000E+00  0.00000000E+00  0.00000000E+00
  0.00000000E+00  0.00000000E+00  0.00000000E+00
  0.00000000E+00  0.00000000E+00  0.00000000E+00
  0.00000000E+00  0.00000000E+00  0.00000000E+00
  0.00000000E+00  0.00000000E+00  0.00000000E+00
  0.00000000E+00  0.00000000E+00  0.00000000E+00
  0.00000000E+00  0.00000000E+00  0.00000000E+00
  0.00000000E+00  0.00000000E+00  0.00000000E+00
  0.00000000E+00  0.00000000E+00  0.00000000E+00
  0.00000000E+00  0.00000000E+00  0.00000000E+00
  0.00000000E+00  0.00000000E+00  0.00000000E+00
  0.00000000E+00  0.00000000E+00  0.00000000E+00
  0.00000000E+00  0.00000000E+00  0.00000000E+00
  0.00000000E+00  0.00000000E+00  0.00000000E+00
  0.00000000E+00  0.00000000E+00  0.00000000E+00
  0.00000000E+00  0.00000000E+00  0.00000000E+00
  0.00000000E+00  0.00000000E+00  0.00000000E+00
  0.00000000E+00  0.00000000E+00  0.00000000E+00
  0.00000000E+00  0.00000000E+00  0.00000000E+00
  0.00000000E+00  0.00000000E+00  0.00000000E+00
  0.00000000E+00  0.00000000E+00  0.00000000E+00
  0.00000000E+00  0.00000000E+00  0.00000000E+00
  0.00000000E+00  0.00000000E+00  0.00000000E+00
  0.00000000E+00  0.00000000E+00  0.00000000E+00
  0.00000000E+00  0.00000000E+00  0.00000000E+00
  0.00000000E+00  0.00000000E+00  0.00000000E+00
  0.00000000E+00  0.00000000E+00  0.00000000E+00
  0.00000000E+00  0.00000000E+00  0.00000000E+00
  0.00000000E+00  0.00000000E+00  0.00000000E+00
  0.00000000E+00  0.00000000E+00  0.00000000E+00
  0.00000000E+00  0.00000000E+00  0.00000000E+00
  0.00000000E+00  0.00000000E+00  0.00000000E+00
  0.00000000E+00  0.00000000E+00  0.00000000E+00
  0.00000000E+00  0.00000000E+00  0.00000000E+00
  0.00000000E+00  0.00000000E+00  0.00000000E+00
  0.00000000E+00  0.00000000E+00  0.00000000E+00
  0.00000000E+00  0.00000000E+00  0.00000000E+00
  0.00000000E+00  0.00000000E+00  0.00000000E+00
  0.00000000E+00  0.00000000E+00  0.00000000E+00
  0.00000000E+00  0.00000000E+00  0.00000000E+00
  0.00000000E+00  0.00000000E+00  0.00000000E+00
  0.00000000E+00  0.00000000E+00  0.00000000E+00
  0.00000000E+00  0.00000000E+00  0.00000000E+00
  0.00000000E+00  0.00000000E+00  0.00000000E+00
  0.00000000E+00  0.00000000E+00  0.00000000E+00
  0.00000000E+00  0.00000000E+00  0.00000000E+00
  0.00000000E+00  0.00000000E+00  0.00000000E+00
  0.00000000E+00  0.00000000E+00  0.00000000E+00
  0.00000000E+00  0.00000000E+00  0.00000000E+00
  0.00000000E+00  0.00000000E+00  0.00000000E+00
  0.00000000E+00  0.00000000E+00  0.00000000E+00
  0.00000000E+00  0.00000000E+00  0.00000000E+00
  0.00000000E+00  0.00000000E+00  0.00000000E+00
  0.00000000E+00  0.00000000E+00  0.00000000E+00
