Ru  N  H  C                             
   1.00000000000000     
     8.1450004578000001    0.0000000000000000    0.0000000000000000
     0.0000000000000000   12.8549995421999999    0.0000000000000000
     0.0000000000000000    0.0000000000000000   23.6212997436999999
   Ru   N    H    C 
    74    12    26    10
Selective dynamics
Direct
  0.0000000000000000  0.0833299949999997  0.0663599980000029   F   F   F
  0.1666699889999990  0.0833299949999997  0.1659000109999980   F   F   F
  0.9994575691204255  0.0858427106073123  0.2641012327170636   T   T   T
  0.1831784250831747  0.0780618065302361  0.3740980115675132   T   T   T
  0.0000000000000000  0.2500000000000000  0.0000000000000000   F   F   F
  0.1666699889999990  0.2500000000000000  0.0995400030000013   F   F   F
  0.9977958427311548  0.2490049655336419  0.1977197335039182   T   T   T
  0.1648260752154587  0.2482750893216534  0.2955991547175361   T   T   T
  0.3333299960000033  0.0833299949999997  0.0663599980000029   F   F   F
  0.5000000000000000  0.0833299949999997  0.1659000109999980   F   F   F
  0.3380722011340561  0.0854490638694740  0.2647801675282952   T   T   T
  0.4981697385172352  0.0810251384714161  0.3671262201688608   T   T   T
  0.3333299960000033  0.2500000000000000  0.0000000000000000   F   F   F
  0.5000000000000000  0.2500000000000000  0.0995400030000013   F   F   F
  0.3339014491097830  0.2496464116615489  0.2000998298898198   T   T   T
  0.5057669767168348  0.2528619376413255  0.2977182665953169   T   T   T
  0.6666700039999967  0.0833299949999997  0.0663599980000029   F   F   F
  0.8333299960000033  0.0833299949999997  0.1659000109999980   F   F   F
  0.6709522826012513  0.0882972517657543  0.2658883023113826   T   T   T
  0.8488066873801962  0.0787709824496469  0.3649994818519773   T   T   T
  0.6666700039999967  0.2500000000000000  0.0000000000000000   F   F   F
  0.8333299960000033  0.2500000000000000  0.0995400030000013   F   F   F
  0.6678543907382453  0.2504247020473436  0.1976550706985669   T   T   T
  0.8399229787038839  0.2553291111745188  0.2992428092465756   T   T   T
  0.0000000000000000  0.4166700050000003  0.0663599980000029   F   F   F
  0.1666699889999990  0.4166700050000003  0.1659000109999980   F   F   F
  0.0017928958609642  0.4180532777973203  0.2607303411355400   T   T   T
  0.1565269337836823  0.4171862669106614  0.3593947908334091   T   T   T
  0.0000000000000000  0.5833299580000002  0.0000000000000000   F   F   F
  0.1666699889999990  0.5833299580000002  0.0995400030000013   F   F   F
 -0.0000452859601000  0.5846347690515620  0.1980955786650132   T   T   T
  0.1662784865520489  0.5835437575918545  0.2945099105031809   T   T   T
  0.3333299960000033  0.4166700050000003  0.0663599980000029   F   F   F
  0.5000000000000000  0.4166700050000003  0.1659000109999980   F   F   F
  0.3304473043814560  0.4185599585526051  0.2637295992761560   T   T   T
  0.4884972358951801  0.4281214798505669  0.3683596869390087   T   T   T
  0.3333299960000033  0.5833299580000002  0.0000000000000000   F   F   F
  0.5000000000000000  0.5833299580000002  0.0995400030000013   F   F   F
  0.3338870030112916  0.5841732645500861  0.1985264978953213   T   T   T
  0.4979366503108730  0.5834699586692187  0.2948868269979774   T   T   T
  0.6666700039999967  0.4166700050000003  0.0663599980000029   F   F   F
  0.8333299960000033  0.4166700050000003  0.1659000109999980   F   F   F
  0.6666485341378835  0.4174464108736007  0.2625160463619939   T   T   T
  0.8082700391151972  0.4331228796841973  0.3623475587871894   T   T   T
  0.6666700039999967  0.5833299580000002  0.0000000000000000   F   F   F
  0.8333299960000033  0.5833299580000002  0.0995400030000013   F   F   F
  0.6661788352882640  0.5839789579052085  0.1984684014408071   T   T   T
  0.8357188087072119  0.5849313651016240  0.2940235433913438   T   T   T
  0.0000000000000000  0.7500000000000000  0.0663599980000029   F   F   F
  0.1666699889999990  0.7500000000000000  0.1659000109999980   F   F   F
  0.0013840890705720  0.7504803392680454  0.2625360776701751   T   T   T
  0.1691260521773127  0.7320493834361536  0.3617541214737315   T   T   T
  0.0000000000000000  0.9166700050000003  0.0000000000000000   F   F   F
  0.1666699889999990  0.9166700050000003  0.0995400030000013   F   F   F
  0.0001726416074135  0.9174475079666944  0.1979299724405038   T   T   T
  0.1665028553574066  0.9121242263311941  0.2997172564124631   T   T   T
  0.3333299960000033  0.7500000000000000  0.0663599980000029   F   F   F
  0.5000000000000000  0.7500000000000000  0.1659000109999980   F   F   F
  0.3342604136933391  0.7510112113249205  0.2628033541471724   T   T   T
  0.5033731227404834  0.7341593405705035  0.3622658596006189   T   T   T
  0.3333299960000033  0.9166700050000003  0.0000000000000000   F   F   F
  0.5000000000000000  0.9166700050000003  0.0995400030000013   F   F   F
  0.3336537092438396  0.9177030128404189  0.1985797298238246   T   T   T
  0.5091743364870288  0.9133899723813115  0.2999938132176684   T   T   T
  0.6666700039999967  0.7500000000000000  0.0663599980000029   F   F   F
  0.8333299960000033  0.7500000000000000  0.1659000109999980   F   F   F
  0.6672268605668307  0.7492997294016478  0.2632137225300626   T   T   T
  0.8328294105470738  0.7345942059449895  0.3621095639237564   T   T   T
  0.6666700039999967  0.9166700050000003  0.0000000000000000   F   F   F
  0.8333299960000033  0.9166700050000003  0.0995400030000013   F   F   F
  0.6675657415279154  0.9168881953250623  0.1987661187561032   T   T   T
  0.8336223728563616  0.9130560907275225  0.3015829857433386   T   T   T
  0.3329297923048736  0.2612088336855116  0.3847034493818038   T   T   T
  0.4770056729907862  0.7340456249645130  0.5848212886507457   T   T   T
  0.3543133881294894  0.0691184315928178  0.4413823979715680   T   T   T
  0.6757406068633460  0.1662253332984708  0.4090954481888422   T   T   T
  0.0014611058370383  0.1043864053310593  0.4354866006929661   T   T   T
  0.3357013931178208  0.6771633371926732  0.4184090590848296   T   T   T
  0.3105190814249885  0.3899515464657208  0.4231262506617095   T   T   T
  0.3362967897412709  0.9511291095159469  0.3597245826768595   T   T   T
  0.9648970403159736  0.3200779077072109  0.3698729994542539   T   T   T
  0.0050305040187985  0.9512409658884398  0.3653171615132673   T   T   T
  0.6618738613825546  0.4739454621172065  0.4149422634139015   T   T   T
  0.6753669646109908  0.9584365227251246  0.3702124862936623   T   T   T
  0.6691141828038156  0.6954991240851900  0.4229094705756313   T   T   T
  0.0006043531485510  0.6718307198398357  0.4161691963189623   T   T   T
  0.3577763205443814  0.0000826590223503  0.4634213967288348   T   T   T
  0.3548232391818912  0.1287606940760861  0.4702160276745482   T   T   T
  0.6785024827861997  0.1474859727509137  0.4513180501729830   T   T   T
  0.6696616383436050  0.2456041831959637  0.4044883318064465   T   T   T
  0.0099997419589415  0.0456470266741234  0.4647859121214841   T   T   T
 -0.0018647579321448  0.1727796459231359  0.4577442140842073   T   T   T
  0.3356542743582022  0.5967152742094646  0.4183132615210419   T   T   T
  0.3395216367775453  0.7016774709816287  0.4598646931407697   T   T   T
  0.3424226031994990  0.9021991050765323  0.3946180708583004   T   T   T
  0.9633399070634360  0.2747539638933069  0.4054401553405440   T   T   T
  0.9932226732553826  0.9015771581242243  0.3997795679537431   T   T   T
  0.6809596212636874  0.9084772797741514  0.4044272918183444   T   T   T
  0.6698619848905838  0.6150518399600421  0.4293309934006281   T   T   T
  0.6663534659346121  0.7307022778354906  0.4619888076855310   T   T   T
  0.9989990656015961  0.5911413122631034  0.4135728741288456   T   T   T
  0.0006423153980096  0.6925763058053055  0.4581504841175223   T   T   T
  0.5147049053576478  0.8523104040136109  0.4776523456268152   T   T   T
  0.7587380361284258  0.8688069255374803  0.5564481249356550   T   T   T
  0.6156470812297097  0.8952349130548097  0.6589650776324123   T   T   T
  0.2857722516286592  0.8934851315967295  0.6445568910201079   T   T   T
  0.2232581430864723  0.8650805081645112  0.5323382033593135   T   T   T
  0.5082142757528224  0.5503917910274874  0.5066221552781429   T   T   T
  0.7504002726927035  0.5817907275847413  0.5833271533466821   T   T   T
  0.6092119240010346  0.6273106161972886  0.6844160000165272   T   T   T
  0.2788377373092588  0.6266036905954245  0.6698944657067621   T   T   T
  0.2167419600982688  0.5798576331165292  0.5594792292043124   T   T   T
  0.3438493901423690  0.8685267311030621  0.5520889423025029   T   T   T
  0.4988823966054961  0.8606292040417487  0.5232165417138133   T   T   T
  0.6272311314403588  0.8704704253444415  0.5646022259940316   T   T   T
  0.5516226330276097  0.8847803969494883  0.6189180374881676   T   T   T
  0.3767491512521496  0.8837650161573101  0.6112609046127065   T   T   T
  0.3372261923968234  0.5883880250160912  0.5788074595586769   T   T   T
  0.4914318809310879  0.5739832623265394  0.5505271758544018   T   T   T
  0.6194554806311960  0.5893737483173608  0.5913220064382670   T   T   T
  0.5448561315741982  0.6127115051721590  0.6448755160356661   T   T   T
  0.3699142414962753  0.6121855455972252  0.6371708116419306   T   T   T
 
  0.00000000E+00  0.00000000E+00  0.00000000E+00
  0.00000000E+00  0.00000000E+00  0.00000000E+00
  0.00000000E+00  0.00000000E+00  0.00000000E+00
  0.00000000E+00  0.00000000E+00  0.00000000E+00
  0.00000000E+00  0.00000000E+00  0.00000000E+00
  0.00000000E+00  0.00000000E+00  0.00000000E+00
  0.00000000E+00  0.00000000E+00  0.00000000E+00
  0.00000000E+00  0.00000000E+00  0.00000000E+00
  0.00000000E+00  0.00000000E+00  0.00000000E+00
  0.00000000E+00  0.00000000E+00  0.00000000E+00
  0.00000000E+00  0.00000000E+00  0.00000000E+00
  0.00000000E+00  0.00000000E+00  0.00000000E+00
  0.00000000E+00  0.00000000E+00  0.00000000E+00
  0.00000000E+00  0.00000000E+00  0.00000000E+00
  0.00000000E+00  0.00000000E+00  0.00000000E+00
  0.00000000E+00  0.00000000E+00  0.00000000E+00
  0.00000000E+00  0.00000000E+00  0.00000000E+00
  0.00000000E+00  0.00000000E+00  0.00000000E+00
  0.00000000E+00  0.00000000E+00  0.00000000E+00
  0.00000000E+00  0.00000000E+00  0.00000000E+00
  0.00000000E+00  0.00000000E+00  0.00000000E+00
  0.00000000E+00  0.00000000E+00  0.00000000E+00
  0.00000000E+00  0.00000000E+00  0.00000000E+00
  0.00000000E+00  0.00000000E+00  0.00000000E+00
  0.00000000E+00  0.00000000E+00  0.00000000E+00
  0.00000000E+00  0.00000000E+00  0.00000000E+00
  0.00000000E+00  0.00000000E+00  0.00000000E+00
  0.00000000E+00  0.00000000E+00  0.00000000E+00
  0.00000000E+00  0.00000000E+00  0.00000000E+00
  0.00000000E+00  0.00000000E+00  0.00000000E+00
  0.00000000E+00  0.00000000E+00  0.00000000E+00
  0.00000000E+00  0.00000000E+00  0.00000000E+00
  0.00000000E+00  0.00000000E+00  0.00000000E+00
  0.00000000E+00  0.00000000E+00  0.00000000E+00
  0.00000000E+00  0.00000000E+00  0.00000000E+00
  0.00000000E+00  0.00000000E+00  0.00000000E+00
  0.00000000E+00  0.00000000E+00  0.00000000E+00
  0.00000000E+00  0.00000000E+00  0.00000000E+00
  0.00000000E+00  0.00000000E+00  0.00000000E+00
  0.00000000E+00  0.00000000E+00  0.00000000E+00
  0.00000000E+00  0.00000000E+00  0.00000000E+00
  0.00000000E+00  0.00000000E+00  0.00000000E+00
  0.00000000E+00  0.00000000E+00  0.00000000E+00
  0.00000000E+00  0.00000000E+00  0.00000000E+00
  0.00000000E+00  0.00000000E+00  0.00000000E+00
  0.00000000E+00  0.00000000E+00  0.00000000E+00
  0.00000000E+00  0.00000000E+00  0.00000000E+00
  0.00000000E+00  0.00000000E+00  0.00000000E+00
  0.00000000E+00  0.00000000E+00  0.00000000E+00
  0.00000000E+00  0.00000000E+00  0.00000000E+00
  0.00000000E+00  0.00000000E+00  0.00000000E+00
  0.00000000E+00  0.00000000E+00  0.00000000E+00
  0.00000000E+00  0.00000000E+00  0.00000000E+00
  0.00000000E+00  0.00000000E+00  0.00000000E+00
  0.00000000E+00  0.00000000E+00  0.00000000E+00
  0.00000000E+00  0.00000000E+00  0.00000000E+00
  0.00000000E+00  0.00000000E+00  0.00000000E+00
  0.00000000E+00  0.00000000E+00  0.00000000E+00
  0.00000000E+00  0.00000000E+00  0.00000000E+00
  0.00000000E+00  0.00000000E+00  0.00000000E+00
  0.00000000E+00  0.00000000E+00  0.00000000E+00
  0.00000000E+00  0.00000000E+00  0.00000000E+00
  0.00000000E+00  0.00000000E+00  0.00000000E+00
  0.00000000E+00  0.00000000E+00  0.00000000E+00
  0.00000000E+00  0.00000000E+00  0.00000000E+00
  0.00000000E+00  0.00000000E+00  0.00000000E+00
  0.00000000E+00  0.00000000E+00  0.00000000E+00
  0.00000000E+00  0.00000000E+00  0.00000000E+00
  0.00000000E+00  0.00000000E+00  0.00000000E+00
  0.00000000E+00  0.00000000E+00  0.00000000E+00
  0.00000000E+00  0.00000000E+00  0.00000000E+00
  0.00000000E+00  0.00000000E+00  0.00000000E+00
  0.00000000E+00  0.00000000E+00  0.00000000E+00
  0.00000000E+00  0.00000000E+00  0.00000000E+00
  0.00000000E+00  0.00000000E+00  0.00000000E+00
  0.00000000E+00  0.00000000E+00  0.00000000E+00
  0.00000000E+00  0.00000000E+00  0.00000000E+00
  0.00000000E+00  0.00000000E+00  0.00000000E+00
  0.00000000E+00  0.00000000E+00  0.00000000E+00
  0.00000000E+00  0.00000000E+00  0.00000000E+00
  0.00000000E+00  0.00000000E+00  0.00000000E+00
  0.00000000E+00  0.00000000E+00  0.00000000E+00
  0.00000000E+00  0.00000000E+00  0.00000000E+00
  0.00000000E+00  0.00000000E+00  0.00000000E+00
  0.00000000E+00  0.00000000E+00  0.00000000E+00
  0.00000000E+00  0.00000000E+00  0.00000000E+00
  0.00000000E+00  0.00000000E+00  0.00000000E+00
  0.00000000E+00  0.00000000E+00  0.00000000E+00
  0.00000000E+00  0.00000000E+00  0.00000000E+00
  0.00000000E+00  0.00000000E+00  0.00000000E+00
  0.00000000E+00  0.00000000E+00  0.00000000E+00
  0.00000000E+00  0.00000000E+00  0.00000000E+00
  0.00000000E+00  0.00000000E+00  0.00000000E+00
  0.00000000E+00  0.00000000E+00  0.00000000E+00
  0.00000000E+00  0.00000000E+00  0.00000000E+00
  0.00000000E+00  0.00000000E+00  0.00000000E+00
  0.00000000E+00  0.00000000E+00  0.00000000E+00
  0.00000000E+00  0.00000000E+00  0.00000000E+00
  0.00000000E+00  0.00000000E+00  0.00000000E+00
  0.00000000E+00  0.00000000E+00  0.00000000E+00
  0.00000000E+00  0.00000000E+00  0.00000000E+00
  0.00000000E+00  0.00000000E+00  0.00000000E+00
  0.00000000E+00  0.00000000E+00  0.00000000E+00
  0.00000000E+00  0.00000000E+00  0.00000000E+00
  0.00000000E+00  0.00000000E+00  0.00000000E+00
  0.00000000E+00  0.00000000E+00  0.00000000E+00
  0.00000000E+00  0.00000000E+00  0.00000000E+00
  0.00000000E+00  0.00000000E+00  0.00000000E+00
  0.00000000E+00  0.00000000E+00  0.00000000E+00
  0.00000000E+00  0.00000000E+00  0.00000000E+00
  0.00000000E+00  0.00000000E+00  0.00000000E+00
  0.00000000E+00  0.00000000E+00  0.00000000E+00
  0.00000000E+00  0.00000000E+00  0.00000000E+00
  0.00000000E+00  0.00000000E+00  0.00000000E+00
  0.00000000E+00  0.00000000E+00  0.00000000E+00
  0.00000000E+00  0.00000000E+00  0.00000000E+00
  0.00000000E+00  0.00000000E+00  0.00000000E+00
  0.00000000E+00  0.00000000E+00  0.00000000E+00
  0.00000000E+00  0.00000000E+00  0.00000000E+00
  0.00000000E+00  0.00000000E+00  0.00000000E+00
  0.00000000E+00  0.00000000E+00  0.00000000E+00
  0.00000000E+00  0.00000000E+00  0.00000000E+00
