Ta  N Ru Cu                             
   1.00000000000000     
    18.1096308199999996    0.0000000000000000    0.0000000000000000
     0.0000000000000000   23.3551997799999995    0.0000000000000000
     0.0000000000000000    0.0000000000000000   30.4818171199999988
   Ta   N    Ru   Cu
   216   240    24    29
Selective dynamics
Direct
  0.0000000000000000  0.9999830748208893  0.1973415401966889   F   F   F
  0.3340836453085174  0.0625456427909796  0.2025671507649847   F   F   F
  0.1659163254252860  0.0625456427909796  0.2025671507649847   F   F   F
  0.2499999997239044  0.1249264343318970  0.2780286427457455   F   F   F
  0.0827651805981162  0.0624885323955127  0.2838652795942167   F   F   F
  0.4172348194018838  0.0624885323955127  0.2838652795942167   F   F   F
  0.9999576088917642  0.1315344283507690  0.3718231760588307   T   T   T
  0.3361785693545719  0.0645388156856684  0.3664645963970635   T   T   T
  0.1614231209340768  0.0595009886835421  0.3690764012983692   T   T   T
  0.2480882695572325  0.1292375710323517  0.4528661670304753   T   T   T
  0.0868264507242523  0.0649841008424800  0.4578661920470193   T   T   T
  0.4164398468992455  0.0634056738640891  0.4615992396163767   T   T   T
  0.0035928338661347  0.1335006865147067  0.5497765659406131   T   T   T
  0.0000000000000000  0.1250597901973052  0.1972695212644311   F   F   F
  0.3340101687179526  0.1875125968246536  0.2025194439736353   F   F   F
  0.1659898020158508  0.1875125968246536  0.2025194439736353   F   F   F
  0.2499999997239044  0.2501643478293474  0.2779548773134195   F   F   F
  0.0824959421597526  0.1874754613012257  0.2839355728384874   F   F   F
  0.4175040578402474  0.1874754613012257  0.2839355728384874   F   F   F
  0.0038857534812467  0.2541872135790728  0.3709109931915720   T   T   T
  0.3334791610633167  0.1889704356365670  0.3689882856638910   T   T   T
  0.1680067781732243  0.1900486020358087  0.3662158013652764   T   T   T
  0.2431457695152790  0.2500050832984145  0.4543048505237171   T   T   T
  0.0875660736658635  0.1927801853858094  0.4560356194719890   T   T   T
  0.4156894102104320  0.1875180561884756  0.4543385135858089   T   T   T
  0.3223447850605704  0.1930327047620363  0.5451988850747400   T   T   T
  0.1594017449869380  0.1899382101261328  0.5455271643302184   T   T   T
  0.0000000000000000  0.2499830750349759  0.1973415401966889   F   F   F
  0.3340836453085174  0.3125456425769002  0.2025671507649847   F   F   F
  0.1659163254252860  0.3125456425769002  0.2025671507649847   F   F   F
  0.2499999997239044  0.3749264345459835  0.2780286427457455   F   F   F
  0.0827651805981162  0.3124885321814332  0.2838652795942167   F   F   F
  0.4172348194018838  0.3124885321814332  0.2838652795942167   F   F   F
  0.0007398910015501  0.3761851321056757  0.3674182563308933   T   T   T
  0.3345149776815285  0.3086655084178069  0.3668854770519205   T   T   T
  0.1657451351171844  0.3128597221970261  0.3679066828051013   T   T   T
  0.2484536155203876  0.3793461232171007  0.4520541448434789   T   T   T
  0.0877208756919558  0.3169308462253395  0.4521363034699744   T   T   T
  0.4128664131468283  0.3138160066650130  0.4563080386276357   T   T   T
  0.0033604523553938  0.3780704852043079  0.5465347104078712   T   T   T
  0.0000000000000000  0.3750597904113917  0.1972695212644311   F   F   F
  0.3340101687179526  0.4375125970387401  0.2025194439736353   F   F   F
  0.1659898020158508  0.4375125970387401  0.2025194439736353   F   F   F
  0.2499999997239044  0.0001643476152609  0.2779548773134195   F   F   F
  0.0824959421597526  0.4374754615153122  0.2839355728384874   F   F   F
  0.4175040578402474  0.4374754615153122  0.2839355728384874   F   F   F
  0.0009977806058393  0.0036909335039475  0.3693144162265121   T   T   T
  0.3360889770149764  0.4349950666892212  0.3706475891780107   T   T   T
  0.1758170145217040  0.4375860978075820  0.3645849417910095   T   T   T
  0.2496924114314338  0.9967043794618508  0.4523851653632949   T   T   T
  0.0787114663754435  0.4407175136216470  0.4514547630324217   T   T   T
  0.4170293851411057  0.4380690203153936  0.4528249723061916   T   T   T
  0.3345376323022568  0.4429162779653115  0.5452946575518045   T   T   T
  0.1506221283496181  0.4408472507677901  0.5420920445778137   T   T   T
  0.0000000000000000  0.4999830748208893  0.1973415401966889   F   F   F
  0.3340836453085174  0.5625456427909796  0.2025671507649847   F   F   F
  0.1659163254252860  0.5625456427909796  0.2025671507649847   F   F   F
  0.2499999997239044  0.6249264343318970  0.2780286427457455   F   F   F
  0.0827651805981162  0.5624885323955127  0.2838652795942167   F   F   F
  0.4172348194018838  0.5624885323955127  0.2838652795942167   F   F   F
  0.0029983421631896  0.6261984290498663  0.3694374320025698   T   T   T
  0.3338425257987571  0.5639977594343388  0.3675471611934769   T   T   T
  0.1670695727188631  0.5646215624109483  0.3669566106441851   T   T   T
  0.2461531241637761  0.6261436356665203  0.4599687679005731   T   T   T
  0.0781211006014324  0.5633201903159160  0.4530291418121724   T   T   T
  0.4160552469284961  0.5635663951730265  0.4560754863950685   T   T   T
  0.9937370555038754  0.6273232381654223  0.5489829046535468   T   T   T
  0.0000000000000000  0.6250597901973052  0.1972695212644311   F   F   F
  0.3340101687179526  0.6875125968246536  0.2025194439736353   F   F   F
  0.1659898020158508  0.6875125968246536  0.2025194439736353   F   F   F
  0.2499999997239044  0.7501643478293474  0.2779548773134195   F   F   F
  0.0824959421597526  0.6874754613012257  0.2839355728384874   F   F   F
  0.4175040578402474  0.6874754613012257  0.2839355728384874   F   F   F
  0.0008191256242682  0.7514740012193448  0.3718307906279286   T   T   T
  0.3317836047192135  0.6891557544066615  0.3673033964366400   T   T   T
  0.1705515188721105  0.6889254943181625  0.3676645079505397   T   T   T
  0.2579617387112291  0.7509642519533138  0.4572882146404701   T   T   T
  0.0812354671189376  0.6879599265030207  0.4538413034783280   T   T   T
  0.4233631648182122  0.6874705367183667  0.4504835076965913   T   T   T
  0.3296316441509780  0.6816160984765238  0.5411739177086446   T   T   T
  0.1495874564921106  0.6826040526898983  0.5523230748200411   T   T   T
  0.0000000000000000  0.7499830750349759  0.1973415401966889   F   F   F
  0.3340836453085174  0.8125456425769002  0.2025671507649847   F   F   F
  0.1659163254252860  0.8125456425769002  0.2025671507649847   F   F   F
  0.2499999997239044  0.8749264345459835  0.2780286427457455   F   F   F
  0.0827651805981162  0.8124885321814332  0.2838652795942167   F   F   F
  0.4172348194018838  0.8124885321814332  0.2838652795942167   F   F   F
  0.9981554530697587  0.8766248150404228  0.3694238389603605   T   T   T
  0.3296889746235949  0.8128905411718416  0.3672261473758128   T   T   T
  0.1618592846287808  0.8148050872392384  0.3685895995413621   T   T   T
  0.2475106300144954  0.8732553289065631  0.4522462068640599   T   T   T
  0.0873324177200200  0.8117305917050259  0.4585249382289323   T   T   T
  0.4170314888761566  0.8169767346045882  0.4547352685531052   T   T   T
  0.0011124043323436  0.8839946137069536  0.5403475792155241   T   T   T
  0.0000000000000000  0.8750597904113917  0.1972695212644311   F   F   F
  0.3340101687179526  0.9375125970387401  0.2025194439736353   F   F   F
  0.1659898020158508  0.9375125970387401  0.2025194439736353   F   F   F
  0.2499999997239044  0.5001643476152609  0.2779548773134195   F   F   F
  0.0824959421597526  0.9374754615153122  0.2839355728384874   F   F   F
  0.4175040578402474  0.9374754615153122  0.2839355728384874   F   F   F
  0.0001961759925306  0.5039964941217402  0.3697619953177028   T   T   T
  0.3232799780917781  0.9401011879636909  0.3657967950375214   T   T   T
  0.1653926689060028  0.9390747863366611  0.3680925610481125   T   T   T
  0.2526134426817068  0.5051081211658804  0.4583498217974229   T   T   T
  0.0885986875562829  0.9416203130193198  0.4534349946806579   T   T   T
  0.4125608461850878  0.9377956110949682  0.4519483811389276   T   T   T
  0.3336083226162944  0.9164016234712747  0.5459029158880835   T   T   T
  0.1615544754958347  0.9415965644662880  0.5496033006011398   T   T   T
  0.5000000000000000  0.9999830748208893  0.1973415401966889   F   F   F
  0.8340836447563262  0.0625456427909796  0.2025671507649847   F   F   F
  0.6659163254252860  0.0625456427909796  0.2025671507649847   F   F   F
  0.7499999997239044  0.1249264343318970  0.2780286427457455   F   F   F
  0.5827651805981162  0.0624885323955127  0.2838652795942167   F   F   F
  0.9172348194018838  0.0624885323955127  0.2838652795942167   F   F   F
  0.5016623451801067  0.1261562559703211  0.3692667033836530   T   T   T
  0.8307844963868519  0.0651587115429471  0.3690666575150421   T   T   T
  0.6665093554488816  0.0591571107057175  0.3656726349795423   T   T   T
  0.7482609778426264  0.1285279652095901  0.4581169250790378   T   T   T
  0.5864110793664580  0.0660997420986173  0.4588696689575617   T   T   T
  0.9197279559939805  0.0684481417787191  0.4540707912855882   T   T   T
  0.4916671660344860  0.1264385329620947  0.5431131342618175   T   T   T
  0.5000000000000000  0.1250597901973052  0.1972695212644311   F   F   F
  0.8340101681657615  0.1875125968246536  0.2025194439736353   F   F   F
  0.6659898020158508  0.1875125968246536  0.2025194439736353   F   F   F
  0.7499999997239044  0.2501643478293474  0.2779548773134195   F   F   F
  0.5824959421597526  0.1874754613012257  0.2839355728384874   F   F   F
  0.9175040578402474  0.1874754613012257  0.2839355728384874   F   F   F
  0.5013641497396460  0.2527911238780904  0.3664977296021805   T   T   T
  0.8284124374233344  0.1923725429328328  0.3741629101287589   T   T   T
  0.6634729594059903  0.1861789778803045  0.3685456037141055   T   T   T
  0.7510301122703700  0.2482257442307382  0.4594334331926064   T   T   T
  0.5790630197040053  0.1933756278500467  0.4521425809161062   T   T   T
  0.9281995475002537  0.1914485697052316  0.4551955711056452   T   T   T
  0.8292465997462592  0.1872991413843725  0.5432581409316123   T   T   T
  0.6585585600973111  0.1871234031979431  0.5438316667359695   T   T   T
  0.5000000000000000  0.2499830750349759  0.1973415401966889   F   F   F
  0.8340836447563262  0.3125456425769002  0.2025671507649847   F   F   F
  0.6659163254252860  0.3125456425769002  0.2025671507649847   F   F   F
  0.7499999997239044  0.3749264345459835  0.2780286427457455   F   F   F
  0.5827651805981162  0.3124885321814332  0.2838652795942167   F   F   F
  0.9172348194018838  0.3124885321814332  0.2838652795942167   F   F   F
  0.4943406887431812  0.3789196778851847  0.3685313641688816   T   T   T
  0.8342283309366896  0.3126135731821363  0.3692324088029040   T   T   T
  0.6739733463071477  0.3118376849495457  0.3698731749497323   T   T   T
  0.7592335840428959  0.3804939080797123  0.4576813113627713   T   T   T
  0.5826773311073102  0.3137619053197396  0.4525950468086242   T   T   T
  0.9200246547849539  0.3151703252576972  0.4578808849223944   T   T   T
  0.5014532301633985  0.3657720658519814  0.5377602138755875   T   T   T
  0.5000000000000000  0.3750597904113917  0.1972695212644311   F   F   F
  0.8340101681657615  0.4375125970387401  0.2025194439736353   F   F   F
  0.6659898020158508  0.4375125970387401  0.2025194439736353   F   F   F
  0.7499999997239044  0.0001643476152609  0.2779548773134195   F   F   F
  0.5824959421597526  0.4374754615153122  0.2839355728384874   F   F   F
  0.9175040578402474  0.4374754615153122  0.2839355728384874   F   F   F
  0.5008885952460476  0.0058877442695848  0.3697238758585412   T   T   T
  0.8398846607503445  0.4366263111076196  0.3668304317064115   T   T   T
  0.6710153062512597  0.4393991809627551  0.3680016782756912   T   T   T
  0.7551238337440154  0.0009631311868385  0.4527105408823673   T   T   T
  0.5834234139047465  0.4383638567505980  0.4516667617841542   T   T   T
  0.9180091954162587  0.4399120500551865  0.4548659567632488   T   T   T
  0.8377848878356049  0.4328021644058111  0.5456327037738067   T   T   T
  0.6572017431271543  0.4403923071418824  0.5407864238065859   T   T   T
  0.5000000000000000  0.4999830748208893  0.1973415401966889   F   F   F
  0.8340836447563262  0.5625456427909796  0.2025671507649847   F   F   F
  0.6659163254252860  0.5625456427909796  0.2025671507649847   F   F   F
  0.7499999997239044  0.6249264343318970  0.2780286427457455   F   F   F
  0.5827651805981162  0.5624885323955127  0.2838652795942167   F   F   F
  0.9172348194018838  0.5624885323955127  0.2838652795942167   F   F   F
  0.5014959540590586  0.6218320770733411  0.3681314383286777   T   T   T
  0.8379237864527727  0.5608414439350298  0.3641048761252526   T   T   T
  0.6656665394854725  0.5605281893221293  0.3663515934394516   T   T   T
  0.7489317223440716  0.6272225115493978  0.4525773326710710   T   T   T
  0.5862909144518873  0.5603376050930772  0.4547480846958581   T   T   T
  0.9120288291545847  0.5654786239296317  0.4590460249408786   T   T   T
  0.5114086145021172  0.6097695787644452  0.5424769449442188   T   T   T
  0.5000000000000000  0.6250597901973052  0.1972695212644311   F   F   F
  0.8340101681657615  0.6875125968246536  0.2025194439736353   F   F   F
  0.6659898020158508  0.6875125968246536  0.2025194439736353   F   F   F
  0.7499999997239044  0.7501643478293474  0.2779548773134195   F   F   F
  0.5824959421597526  0.6874754613012257  0.2839355728384874   F   F   F
  0.9175040578402474  0.6874754613012257  0.2839355728384874   F   F   F
  0.4968519353611795  0.7544670280131270  0.3678344211759823   T   T   T
  0.8301938044313016  0.6870540375087100  0.3645971005207771   T   T   T
  0.6657897990520621  0.6892215275374368  0.3686243713111627   T   T   T
  0.7431833913957304  0.7506850818198981  0.4579371697646689   T   T   T
  0.5871137787728554  0.6874059654708600  0.4520997458328563   T   T   T
  0.9142817400781963  0.6867876236821960  0.4494336855123941   T   T   T
  0.8451302043036963  0.6950680714465223  0.5438791597674522   T   T   T
  0.6827293714348763  0.6409458510041407  0.5529644247191838   T   T   T
  0.5000000000000000  0.7499830750349759  0.1973415401966889   F   F   F
  0.8340836447563262  0.8125456425769002  0.2025671507649847   F   F   F
  0.6659163254252860  0.8125456425769002  0.2025671507649847   F   F   F
  0.7499999997239044  0.8749264345459835  0.2780286427457455   F   F   F
  0.5827651805981162  0.8124885321814332  0.2838652795942167   F   F   F
  0.9172348194018838  0.8124885321814332  0.2838652795942167   F   F   F
  0.4936870688064521  0.8801901278626805  0.3724211898368033   T   T   T
  0.8355188298831733  0.8118025985865925  0.3685114274349634   T   T   T
  0.6720761420188143  0.8161653469703862  0.3703482190898692   T   T   T
  0.7561396325514907  0.8770834125638685  0.4586636716001016   T   T   T
  0.5768504204939490  0.8133406694218326  0.4485284084724396   T   T   T
  0.9222054188049754  0.8133401464114997  0.4531474175703829   T   T   T
  0.5039358008815539  0.8666852821364055  0.5672991657316597   T   T   T
  0.5000000000000000  0.8750597904113917  0.1972695212644311   F   F   F
  0.8340101681657615  0.9375125970387401  0.2025194439736353   F   F   F
  0.6659898020158508  0.9375125970387401  0.2025194439736353   F   F   F
  0.7499999997239044  0.5001643476152609  0.2779548773134195   F   F   F
  0.5824959421597526  0.9374754615153122  0.2839355728384874   F   F   F
  0.9175040578402474  0.9374754615153122  0.2839355728384874   F   F   F
  0.4996378613840915  0.5042260937678129  0.3682532015355673   T   T   T
  0.8324285654043723  0.9382677403110941  0.3687233543996188   T   T   T
  0.6701932509901954  0.9406774734703867  0.3720440742130060   T   T   T
  0.7518975651209466  0.4944715567754652  0.4515212579268519   T   T   T
  0.5888506438248542  0.9427520943002576  0.4567208411759160   T   T   T
  0.9213193487255004  0.9373996119975360  0.4545797065662385   T   T   T
  0.8366976230899558  0.9326054500915626  0.5437425692084386   T   T   T
  0.6633604370182178  0.9321300467376150  0.5495226823386152   T   T   T
  0.4056069474266053  0.9999373616505167  0.2321734907340058   F   F   F
  0.2499999997239044  0.0000513587277524  0.1992858819354737   F   F   F
  0.0943930525733947  0.9999373616505167  0.2321734907340058   F   F   F
  0.1547082680068357  0.1251230653872994  0.3157550047969764   F   F   F
  0.0000000000000000  0.1248851797808541  0.3029475127512455   F   F   F
  0.3452917319931643  0.1251230653872994  0.3157550047969764   F   F   F
  0.4022205857957865  0.1280107668656379  0.4017974721966889   T   T   T
  0.2478938281259979  0.1247002464707990  0.3832077863974676   T   T   T
  0.1002643855580295  0.1252575730206525  0.4000886236973560   T   T   T
  0.1540275037221676  0.1266043838685359  0.4860954322802272   T   T   T
  0.0022269898057048  0.1363986130511377  0.4776297824427133   T   T   T
  0.3427828562227715  0.1349886218584844  0.4881034026919973   T   T   T
  0.4157729230686654  0.1670670620794891  0.5825670245302487   T   T   T
  0.2424765966023172  0.1274602756873376  0.5582692857877414   T   T   T
  0.0935146221929107  0.1322515204793629  0.5817191934518925   T   T   T
  0.4056495225775905  0.1250779796458588  0.2321437934505610   F   F   F
  0.2499999997239044  0.1250070554064280  0.1993925282839726   F   F   F
  0.0943504774224095  0.1250779796458588  0.2321437934505610   F   F   F
  0.1547523877655834  0.2498547720176418  0.3156484410005831   F   F   F
  0.0000000000000000  0.2500770228524942  0.3028264942509225   F   F   F
  0.3452476122344166  0.2498547720176418  0.3156484410005831   F   F   F
  0.4001252596838008  0.2475691374021091  0.3986782832346672   T   T   T
  0.2448756352059527  0.2549117711614199  0.3866857761518402   T   T   T
  0.1028236226509508  0.2472925888231168  0.4020277523489690   T   T   T
  0.1501699341027050  0.2571403700102985  0.4924969466178326   T   T   T
  0.0021625306114352  0.2541176718515193  0.4733846008110292   T   T   T
  0.3472757307904054  0.2500394903139881  0.4850181675595198   T   T   T
  0.3918107012306707  0.2584965550626586  0.5749350072468449   T   T   T
  0.2476926279555788  0.2359752353258107  0.5747116718944659   T   T   T
  0.0823554212434535  0.2430863354543763  0.5793261535033212   T   T   T
  0.4056069474266053  0.2499373618646032  0.2321734907340058   F   F   F
  0.2499999997239044  0.2500513589418389  0.1992858819354737   F   F   F
  0.0943930525733947  0.2499373618646032  0.2321734907340058   F   F   F
  0.1547082680068357  0.3751230656013860  0.3157550047969764   F   F   F
  0.0000000000000000  0.3748851799949406  0.3029475127512455   F   F   F
  0.3452917319931643  0.3751230656013860  0.3157550047969764   F   F   F
  0.4011642989568781  0.3711626100498234  0.4043164250341209   T   T   T
  0.2518201205344454  0.3725099066951931  0.3870028728437998   T   T   T
  0.1015050228141512  0.3803799673014553  0.3987186551260603   T   T   T
  0.1499270696416068  0.3854184853103079  0.4857056474962036   T   T   T
  0.9991657565839859  0.3739871056031912  0.4756056095513971   T   T   T
  0.3423523186152244  0.3829244491655502  0.4841039787840960   T   T   T
  0.4049124336593117  0.3836758802342727  0.5643467582695263   T   T   T
  0.2370071733715761  0.4481710298607038  0.5777168513522410   T   T   T
  0.0954491143289535  0.3751496362058613  0.5786423531209903   T   T   T
  0.4056495225775905  0.3750779798599453  0.2321437934505610   F   F   F
  0.2499999997239044  0.3750070556205145  0.1993925282839726   F   F   F
  0.0943504774224095  0.3750779798599453  0.2321437934505610   F   F   F
  0.1547523877655834  0.9998547718035553  0.3156484410005831   F   F   F
  0.0000000000000000  0.0000770226384077  0.3028264942509225   F   F   F
  0.3452476122344166  0.9998547718035553  0.3156484410005831   F   F   F
  0.4045530016229423  0.0039413377224706  0.4025641444141004   T   T   T
  0.2497379160714779  0.0063823189298214  0.3837139772766311   T   T   T
  0.1001076433777326  0.0027396196350669  0.4035388687413487   T   T   T
  0.1549471210585195  0.9983649652030248  0.4864121182239407   T   T   T
  0.9990021979396480  0.0020192489761042  0.4692913789974217   T   T   T
  0.3492589669152041  0.9991984916776208  0.4831044965918085   T   T   T
  0.4234042307207987  0.0624194375374227  0.5362979920464777   T   T   T
  0.2575033335644950  0.9795576038205067  0.5509802596073278   T   T   T
  0.0878869541501694  0.0031092407517562  0.5653878216919410   T   T   T
  0.4056069474266053  0.4999373616505167  0.2321734907340058   F   F   F
  0.2499999997239044  0.5000513587277524  0.1992858819354737   F   F   F
  0.0943930525733947  0.4999373616505167  0.2321734907340058   F   F   F
  0.1547082680068357  0.6251230653872994  0.3157550047969764   F   F   F
  0.0000000000000000  0.6248851797808541  0.3029475127512455   F   F   F
  0.3452917319931643  0.6251230653872994  0.3157550047969764   F   F   F
  0.4009323939239196  0.6268704356250272  0.4009824480699682   T   T   T
  0.2530748249809104  0.6262574634428405  0.3872849806735981   T   T   T
  0.0978362816025635  0.6288034175996973  0.4018975933946595   T   T   T
  0.1439503624813229  0.6316998287546567  0.4928328301698015   T   T   T
  0.9949290451368025  0.6242395762204996  0.4776696452362523   T   T   T
  0.3543315065036532  0.6301870388391261  0.4852357556727545   T   T   T
  0.4185062748703533  0.6228083185118962  0.5695196332710578   T   T   T
  0.2446016606930189  0.6833171571851654  0.5808534600654952   T   T   T
  0.0867930283619146  0.6210094131503363  0.5857800778995961   T   T   T
  0.4056495225775905  0.6250779796458588  0.2321437934505610   F   F   F
  0.2499999997239044  0.6250070554064280  0.1993925282839726   F   F   F
  0.0943504774224095  0.6250779796458588  0.2321437934505610   F   F   F
  0.1547523877655834  0.7498547720176418  0.3156484410005831   F   F   F
  0.0000000000000000  0.7500770228524942  0.3028264942509225   F   F   F
  0.3452476122344166  0.7498547720176418  0.3156484410005831   F   F   F
  0.3965328784032834  0.7469684813330657  0.4016881336962684   T   T   T
  0.2459538798844806  0.7533535470628113  0.3910947511835539   T   T   T
  0.0982410879899423  0.7521230670180344  0.3997338931191383   T   T   T
  0.1661091203374307  0.7508203830827668  0.4902796805577394   T   T   T
  0.0039428226958156  0.7457818633522693  0.4679734667042370   T   T   T
  0.3495681476073338  0.7461347908479049  0.4880413540871891   T   T   T
  0.3859125671999238  0.7393041853846443  0.5843218482069793   T   T   T
  0.4540913489863574  0.8525002455285039  0.6274337473158701   T   T   T
  0.0946809932930072  0.7484803333279307  0.5732335366174905   T   T   T
  0.4056069474266053  0.7499373618646032  0.2321734907340058   F   F   F
  0.2499999997239044  0.7500513589418389  0.1992858819354737   F   F   F
  0.0943930525733947  0.7499373618646032  0.2321734907340058   F   F   F
  0.1547082680068357  0.8751230656013860  0.3157550047969764   F   F   F
  0.0000000000000000  0.8748851799949406  0.3029475127512455   F   F   F
  0.3452917319931643  0.8751230656013860  0.3157550047969764   F   F   F
  0.3952434913158763  0.8719056547939349  0.4023203056229691   T   T   T
  0.2417381330167156  0.8776632402850137  0.3880269753141645   T   T   T
  0.0947872058833509  0.8765262879808269  0.3990063021121999   T   T   T
  0.1575586700555482  0.8770473116963332  0.4954951393686981   T   T   T
  0.0073353117852484  0.8771897285550255  0.4714638283260418   T   T   T
  0.3475983350261371  0.8849426538828846  0.4846353566473591   T   T   T
  0.4337377147952419  0.9352185885189269  0.5698430131767976   T   T   T
  0.2930331084508895  0.8634674722612025  0.5869957389405214   T   T   T
  0.1032424008110340  0.8782135810948249  0.5755030512138218   T   T   T
  0.4056495225775905  0.8750779798599453  0.2321437934505610   F   F   F
  0.2499999997239044  0.8750070556205145  0.1993925282839726   F   F   F
  0.0943504774224095  0.8750779798599453  0.2321437934505610   F   F   F
  0.1547523877655834  0.4998547718035553  0.3156484410005831   F   F   F
  0.0000000000000000  0.5000770226384077  0.3028264942509225   F   F   F
  0.3452476122344166  0.4998547718035553  0.3156484410005831   F   F   F
  0.3995639972677015  0.5035064728948607  0.3989208554858639   T   T   T
  0.2498157874750435  0.5000639483015956  0.3881720985176890   T   T   T
  0.0999269194568955  0.5058499054898908  0.3989178712069394   T   T   T
  0.1441445252322623  0.4980639998333024  0.4854576872904384   T   T   T
  0.0005239381111597  0.4968285238513730  0.4748680874834296   T   T   T
  0.3528329908166591  0.4988162497757752  0.4904534269273903   T   T   T
  0.4032829805933206  0.5112235760362693  0.5734664664181772   T   T   T
  0.2428079162417297  0.5651467044040807  0.5181301739832268   T   T   T
  0.0900716820293989  0.4949855179339163  0.5780629384744482   T   T   T
  0.9056069474266053  0.9999373616505167  0.2321734907340058   F   F   F
  0.7499999997239044  0.0000513587277524  0.1992858819354737   F   F   F
  0.5943930525733947  0.9999373616505167  0.2321734907340058   F   F   F
  0.6547082680068357  0.1251230653872994  0.3157550047969764   F   F   F
  0.5000000000000000  0.1248851797808541  0.3029475127512455   F   F   F
  0.8452917319931643  0.1251230653872994  0.3157550047969764   F   F   F
  0.9018476203347046  0.1289892743581157  0.4023547874173511   T   T   T
  0.7467423801660097  0.1256240526473055  0.3911542007840557   T   T   T
  0.5944017654048043  0.1307924755028452  0.4009550744626813   T   T   T
  0.6494287155599894  0.1335155706776667  0.4825654206011999   T   T   T
  0.4969637969061635  0.1316278787555131  0.4751880176614479   T   T   T
  0.8537212401562495  0.1333087937901245  0.4875914797088797   T   T   T
  0.8951383254146890  0.1217970526375560  0.5789611534267616   T   T   T
  0.7524367807597673  0.0866864783686627  0.5286135786213653   T   T   T
  0.5908156097906555  0.1280541781432828  0.5675137193246752   T   T   T
  0.9056495225775905  0.1250779796458588  0.2321437934505610   F   F   F
  0.7499999997239044  0.1250070554064280  0.1993925282839726   F   F   F
  0.5943504774224095  0.1250779796458588  0.2321437934505610   F   F   F
  0.6547523877655834  0.2498547720176418  0.3156484410005831   F   F   F
  0.5000000000000000  0.2500770228524942  0.3028264942509225   F   F   F
  0.8452476122344166  0.2498547720176418  0.3156484410005831   F   F   F
  0.9033927460961045  0.2560762988336690  0.4040601940532254   T   T   T
  0.7497448367963125  0.2550128139201952  0.3904972783894783   T   T   T
  0.6033480863270860  0.2535893669995467  0.4023600896630574   T   T   T
  0.6462417836637169  0.2509770088559114  0.4877816059684765   T   T   T
  0.5024962585531130  0.2539206637522530  0.4748123748716919   T   T   T
  0.8536941159692784  0.2427517938571513  0.4865115424749542   T   T   T
  0.9003331216898871  0.2439171297822030  0.5707660531877494   T   T   T
  0.7437696152206590  0.1962018965903216  0.5844354464188247   T   T   T
  0.5862370028928939  0.2514383080617798  0.5633775006354170   T   T   T
  0.9056069474266053  0.2499373618646032  0.2321734907340058   F   F   F
  0.7499999997239044  0.2500513589418389  0.1992858819354737   F   F   F
  0.5943930525733947  0.2499373618646032  0.2321734907340058   F   F   F
  0.6547082680068357  0.3751230656013860  0.3157550047969764   F   F   F
  0.5000000000000000  0.3748851799949406  0.3029475127512455   F   F   F
  0.8452917319931643  0.3751230656013860  0.3157550047969764   F   F   F
  0.9078492021023314  0.3795534272309025  0.4025813247751701   T   T   T
  0.7560323165465350  0.3797214783076339  0.3893403864936921   T   T   T
  0.5979335606881970  0.3769219141726050  0.3995737568754867   T   T   T
  0.6505413026726083  0.3811882334446693  0.4851049202775272   T   T   T
  0.4985997629240884  0.3749363014928254  0.4748305041806607   T   T   T
  0.8555383535794261  0.3846462158850694  0.4889816225852847   T   T   T
  0.9020161371836294  0.3716685308213830  0.5761333908023222   T   T   T
  0.7482822624844275  0.3126346542894100  0.5073584847401199   T   T   T
  0.5908341875174511  0.3712924779161011  0.5762944679361299   T   T   T
  0.9056495225775905  0.3750779798599453  0.2321437934505610   F   F   F
  0.7499999997239044  0.3750070556205145  0.1993925282839726   F   F   F
  0.5943504774224095  0.3750779798599453  0.2321437934505610   F   F   F
  0.6547523877655834  0.9998547718035553  0.3156484410005831   F   F   F
  0.5000000000000000  0.0000770226384077  0.3028264942509225   F   F   F
  0.8452476122344166  0.9998547718035553  0.3156484410005831   F   F   F
  0.8991090123981044  0.9971499012365659  0.3997388437280456   T   T   T
  0.7560764848281767  0.0002017221412872  0.3851759676523273   T   T   T
  0.5980079549848089  0.9962506282491824  0.4000481575252223   T   T   T
  0.6551377052216284  0.0026326999480357  0.4859445854456333   T   T   T
  0.5050775682961666  0.9973540604934787  0.4784614670991138   T   T   T
  0.8495721995076015  0.0000189835037410  0.4818349604180311   T   T   T
  0.8957561092608225  0.0005884664761973  0.5692852411462378   T   T   T
  0.7569427297070642  0.9191973772487448  0.5857347494341871   T   T   T
  0.5995841676019932  0.0018953306504605  0.5738526683624774   T   T   T
  0.9056069474266053  0.4999373616505167  0.2321734907340058   F   F   F
  0.7499999997239044  0.5000513587277524  0.1992858819354737   F   F   F
  0.5943930525733947  0.4999373616505167  0.2321734907340058   F   F   F
  0.6547082680068357  0.6251230653872994  0.3157550047969764   F   F   F
  0.5000000000000000  0.6248851797808541  0.3029475127512455   F   F   F
  0.8452917319931643  0.6251230653872994  0.3157550047969764   F   F   F
  0.8999034093508937  0.6220481203813502  0.4007357401108818   T   T   T
  0.7434268247262028  0.6233508818998996  0.3883248891808876   T   T   T
  0.6004946123975178  0.6267420920440860  0.4019002941191775   T   T   T
  0.6476106600516134  0.6209845788774753  0.4930874087845398   T   T   T