Ta  N Cu                                
   1.00000000000000     
     9.0548154099999998    0.0000000000000000    0.0000000000000000
     0.0000000000000000   11.6775998899999998    0.0000000000000000
     0.0000000000000000    0.0000000000000000   23.4818170799999990
   Ta   N    Cu
    60    60     1
Selective dynamics
Direct
  0.0000000000000000  0.0000000000000000  0.2546926809530987   F   F   F
  0.6670845899906297  0.1250000003211298  0.2638822399803757   F   F   F
  0.3329153514769843  0.1250000003211298  0.2638822399803757   F   F   F
  0.4999999994478088  0.2499999997859135  0.3618861993156202   F   F   F
  0.1650707596845180  0.1250000003211298  0.3684425577811794   F   F   F
  0.8349292403154820  0.1250000003211298  0.3684425577811794   F   F   F
  0.0005063369689995  0.2499989816426177  0.4799205831948385   T   T   T
  0.6654770653093758  0.1250439343771216  0.4782177712898472   T   T   T
  0.3351340991497412  0.1250781612804704  0.4781669757170694   T   T   T
  0.5006554867187293  0.2500248756151383  0.5906626911146080   T   T   T
  0.1688492935733411  0.1252054470764419  0.5905967205262832   T   T   T
  0.8328207689334611  0.1251168723618220  0.5903478239947103   T   T   T
 -0.0014958892418022  0.2500569733588355  0.7035434051347357   T   T   T
  0.6700235840711879  0.1212249890460956  0.7027204919067811   T   T   T
  0.3267206694072238  0.1236647096455563  0.7047675080815844   T   T   T
  0.0000000000000000  0.2499999997859135  0.2546926809530987   F   F   F
  0.6670845899906297  0.3750000001070433  0.2638822399803757   F   F   F
  0.3329153514769843  0.3750000001070433  0.2638822399803757   F   F   F
  0.4999999994478088  0.5000000004281731  0.3618861993156202   F   F   F
  0.1650707596845180  0.3750000001070433  0.3684425577811794   F   F   F
  0.8349292403154820  0.3750000001070433  0.3684425577811794   F   F   F
  0.0004614681006956  0.4997965966738689  0.4798097731804320   T   T   T
  0.6654610642899355  0.3749534961722120  0.4782113719546524   T   T   T
  0.3351407538172646  0.3749303745113104  0.4781671621343436   T   T   T
  0.4998910165683468  0.4998998641419815  0.5906646230701477   T   T   T
  0.1688399269911602  0.3748229645371208  0.5905845760402164   T   T   T
  0.8328322347588608  0.3749650090205131  0.5903105365531058   T   T   T
  0.9993874067047669  0.4996920316437592  0.7019540924153388   T   T   T
  0.6699997002391496  0.3790235500962573  0.7026113004860498   T   T   T
  0.3267303706462720  0.3764196662288188  0.7047377784102440   T   T   T
  0.0000000000000000  0.5000000004281731  0.2546926809530987   F   F   F
  0.6670845899906297  0.6249999998929567  0.2638822399803757   F   F   F
  0.3329153514769843  0.6249999998929567  0.2638822399803757   F   F   F
  0.4999999994478088  0.7500000002140865  0.3618861993156202   F   F   F
  0.1650707596845180  0.6249999998929567  0.3684425577811794   F   F   F
  0.8349292403154820  0.6249999998929567  0.3684425577811794   F   F   F
  0.0003373066689649  0.7500204694764561  0.4797265224182491   T   T   T
  0.6651080101755259  0.6249569832094991  0.4780928960260389   T   T   T
  0.3351853722941192  0.6249222697940785  0.4781160078202296   T   T   T
  0.5000211860807052  0.7500493533776899  0.5906315775071549   T   T   T
  0.1681623935243824  0.6249149029889296  0.5899579797537547   T   T   T
  0.8327866577661724  0.6251522142849685  0.5897643219519205   T   T   T
 -0.0001933516477752  0.7500579808540859  0.7019170121377595   T   T   T
  0.6707018155086909  0.6260726941927616  0.7038631122269267   T   T   T
  0.3289461772959246  0.6255018081571603  0.7040263347929449   T   T   T
  0.0000000000000000  0.7500000002140865  0.2546926809530987   F   F   F
  0.6670845899906297  0.8750000005352163  0.2638822399803757   F   F   F
  0.3329153514769843  0.8750000005352163  0.2638822399803757   F   F   F
  0.4999999994478088  0.0000000000000000  0.3618861993156202   F   F   F
  0.1650707596845180  0.8750000005352163  0.3684425577811794   F   F   F
  0.8349292403154820  0.8750000005352163  0.3684425577811794   F   F   F
  0.0004515122195121  0.0002202148989937  0.4798163253444577   T   T   T
  0.6651100477992863  0.8750669582863282  0.4781000703717159   T   T   T
  0.3351864563630505  0.8750918440168328  0.4781187888515518   T   T   T
  0.4999287006407087  0.0001673253350157  0.5906909748462797   T   T   T
  0.1681711219396666  0.8751393806697672  0.5899684897153468   T   T   T
  0.8327630536424215  0.8749605846329829  0.5898033460228819   T   T   T
  0.9993279518410453  0.0004154849106938  0.7019947348980090   T   T   T
  0.6707037439783174  0.8742000471052558  0.7039181011438094   T   T   T
  0.3289589750995434  0.8745902214451048  0.7040509554829664   T   T   T
  0.8141011533980276  0.0000000000000000  0.3013105672926031   F   F   F
  0.4999999994478088  0.0000000000000000  0.2564174481620327   F   F   F
  0.1858988466019724  0.0000000000000000  0.3013105672926031   F   F   F
  0.3088456122590841  0.2499999997859135  0.4099867722441957   F   F   F
  0.0000000000000000  0.2499999997859135  0.3930971035158137   F   F   F
  0.6911543877409159  0.2499999997859135  0.4099867722441957   F   F   F
  0.8028275401429553  0.2500063381577368  0.5223205871232934   T   T   T
  0.5003655745916087  0.2500020177542606  0.5027065970352502   T   T   T
  0.1982090035686982  0.2499961212050828  0.5225002359580577   T   T   T
  0.3062216355206918  0.2500130389733729  0.6343659803914646   T   T   T
  0.0006383704080305  0.2500210155083094  0.6147174629520404   T   T   T
  0.6960527254155678  0.2500455127072612  0.6342727639172882   T   T   T
  0.8045367489207224  0.2501823236333184  0.7447856528422535   T   T   T
  0.4993170708575249  0.2501522606510329  0.7297863391100605   T   T   T
  0.1913007299048510  0.2500331099893914  0.7410528382601477   T   T   T
  0.8141011533980276  0.2499999997859135  0.3013105672926031   F   F   F
  0.4999999994478088  0.2499999997859135  0.2564174481620327   F   F   F
  0.1858988466019724  0.2499999997859135  0.3013105672926031   F   F   F
  0.3088456122590841  0.5000000004281731  0.4099867722441957   F   F   F
  0.0000000000000000  0.5000000004281731  0.3930971035158137   F   F   F
  0.6911543877409159  0.5000000004281731  0.4099867722441957   F   F   F
  0.8028861164212341  0.4998390007090083  0.5220742842290118   T   T   T
  0.5001922657823387  0.4998997059044086  0.5027210958368086   T   T   T
  0.1979814557629869  0.4996622823650658  0.5222925570742718   T   T   T
  0.3043323509881492  0.5002983456467575  0.6334739218005978   T   T   T
  0.0005125773860300  0.4997991199153825  0.6136468622500745   T   T   T
  0.6963063561380511  0.5012689552945915  0.6326906949308352   T   T   T
  0.8055138709432746  0.5002975531673584  0.7403371994445149   T   T   T
  0.5000626022356905  0.4997789664966079  0.7238092445555420   T   T   T
  0.1931896354458508  0.5001509107518808  0.7406621581415896   T   T   T
  0.8141011533980276  0.5000000004281731  0.3013105672926031   F   F   F
  0.4999999994478088  0.5000000004281731  0.2564174481620327   F   F   F
  0.1858988466019724  0.5000000004281731  0.3013105672926031   F   F   F
  0.3088456122590841  0.7500000002140865  0.4099867722441957   F   F   F
  0.0000000000000000  0.7500000002140865  0.3930971035158137   F   F   F
  0.6911543877409159  0.7500000002140865  0.4099867722441957   F   F   F
  0.8026218671294267  0.7500424650131809  0.5219751921929274   T   T   T
  0.5001028081182674  0.7500134264408214  0.5027286588084839   T   T   T
  0.1979484729664924  0.7500175340696398  0.5220987842783980   T   T   T
  0.3041108252999850  0.7500328859842635  0.6331988738032163   T   T   T
  0.0004506216383699  0.7500427998521592  0.6134964031627920   T   T   T
  0.6963645459429713  0.7500768442601646  0.6329454164732249   T   T   T
  0.8062890483124002  0.7500972873423221  0.7404825006608404   T   T   T
  0.4998587609164888  0.7500784866603736  0.7238567405569490   T   T   T
  0.1932372997658626  0.7500501110797780  0.7404508891059531   T   T   T
  0.8141011533980276  0.7500000002140865  0.3013105672926031   F   F   F
  0.4999999994478088  0.7500000002140865  0.2564174481620327   F   F   F
  0.1858988466019724  0.7500000002140865  0.3013105672926031   F   F   F
  0.3088456122590841  0.0000000000000000  0.4099867722441957   F   F   F
  0.0000000000000000  0.0000000000000000  0.3930971035158137   F   F   F
  0.6911543877409159  0.0000000000000000  0.4099867722441957   F   F   F
  0.8028618481152202  0.0002068770422634  0.5221046695423859   T   T   T
  0.5001904431224754  0.0001153599270804  0.5027407627199650   T   T   T
  0.1979654715222228  0.0003529549375723  0.5222998550422637   T   T   T
  0.3043748312861215  0.9997498144613189  0.6335008305848717   T   T   T
  0.0005157370381451  0.0002631392559303  0.6136761139872350   T   T   T
  0.6962950842284793  0.9989069976179297  0.6327726697778613   T   T   T
  0.8055025819759180  0.9999409092634758  0.7404367745905361   T   T   T
  0.5000620685874804  0.0004271641849323  0.7239163574323417   T   T   T
  0.1931426678281757 -0.0000651827128393  0.7406639714010025   T   T   T
  0.6356813646774155  0.2508022284681399  0.7979481947141087   T   T   T
 
  0.00000000E+00  0.00000000E+00  0.00000000E+00
  0.00000000E+00  0.00000000E+00  0.00000000E+00
  0.00000000E+00  0.00000000E+00  0.00000000E+00
  0.00000000E+00  0.00000000E+00  0.00000000E+00
  0.00000000E+00  0.00000000E+00  0.00000000E+00
  0.00000000E+00  0.00000000E+00  0.00000000E+00
  0.00000000E+00  0.00000000E+00  0.00000000E+00
  0.00000000E+00  0.00000000E+00  0.00000000E+00
  0.00000000E+00  0.00000000E+00  0.00000000E+00
  0.00000000E+00  0.00000000E+00  0.00000000E+00
  0.00000000E+00  0.00000000E+00  0.00000000E+00
  0.00000000E+00  0.00000000E+00  0.00000000E+00
  0.00000000E+00  0.00000000E+00  0.00000000E+00
  0.00000000E+00  0.00000000E+00  0.00000000E+00
  0.00000000E+00  0.00000000E+00  0.00000000E+00
  0.00000000E+00  0.00000000E+00  0.00000000E+00
  0.00000000E+00  0.00000000E+00  0.00000000E+00
  0.00000000E+00  0.00000000E+00  0.00000000E+00
  0.00000000E+00  0.00000000E+00  0.00000000E+00
  0.00000000E+00  0.00000000E+00  0.00000000E+00
  0.00000000E+00  0.00000000E+00  0.00000000E+00
  0.00000000E+00  0.00000000E+00  0.00000000E+00
  0.00000000E+00  0.00000000E+00  0.00000000E+00
  0.00000000E+00  0.00000000E+00  0.00000000E+00
  0.00000000E+00  0.00000000E+00  0.00000000E+00
  0.00000000E+00  0.00000000E+00  0.00000000E+00
  0.00000000E+00  0.00000000E+00  0.00000000E+00
  0.00000000E+00  0.00000000E+00  0.00000000E+00
  0.00000000E+00  0.00000000E+00  0.00000000E+00
  0.00000000E+00  0.00000000E+00  0.00000000E+00
  0.00000000E+00  0.00000000E+00  0.00000000E+00
  0.00000000E+00  0.00000000E+00  0.00000000E+00
  0.00000000E+00  0.00000000E+00  0.00000000E+00
  0.00000000E+00  0.00000000E+00  0.00000000E+00
  0.00000000E+00  0.00000000E+00  0.00000000E+00
  0.00000000E+00  0.00000000E+00  0.00000000E+00
  0.00000000E+00  0.00000000E+00  0.00000000E+00
  0.00000000E+00  0.00000000E+00  0.00000000E+00
  0.00000000E+00  0.00000000E+00  0.00000000E+00
  0.00000000E+00  0.00000000E+00  0.00000000E+00
  0.00000000E+00  0.00000000E+00  0.00000000E+00
  0.00000000E+00  0.00000000E+00  0.00000000E+00
  0.00000000E+00  0.00000000E+00  0.00000000E+00
  0.00000000E+00  0.00000000E+00  0.00000000E+00
  0.00000000E+00  0.00000000E+00  0.00000000E+00
  0.00000000E+00  0.00000000E+00  0.00000000E+00
  0.00000000E+00  0.00000000E+00  0.00000000E+00
  0.00000000E+00  0.00000000E+00  0.00000000E+00
  0.00000000E+00  0.00000000E+00  0.00000000E+00
  0.00000000E+00  0.00000000E+00  0.00000000E+00
  0.00000000E+00  0.00000000E+00  0.00000000E+00
  0.00000000E+00  0.00000000E+00  0.00000000E+00
  0.00000000E+00  0.00000000E+00  0.00000000E+00
  0.00000000E+00  0.00000000E+00  0.00000000E+00
  0.00000000E+00  0.00000000E+00  0.00000000E+00
  0.00000000E+00  0.00000000E+00  0.00000000E+00
  0.00000000E+00  0.00000000E+00  0.00000000E+00
  0.00000000E+00  0.00000000E+00  0.00000000E+00
  0.00000000E+00  0.00000000E+00  0.00000000E+00
  0.00000000E+00  0.00000000E+00  0.00000000E+00
  0.00000000E+00  0.00000000E+00  0.00000000E+00
  0.00000000E+00  0.00000000E+00  0.00000000E+00
  0.00000000E+00  0.00000000E+00  0.00000000E+00
  0.00000000E+00  0.00000000E+00  0.00000000E+00
  0.00000000E+00  0.00000000E+00  0.00000000E+00
  0.00000000E+00  0.00000000E+00  0.00000000E+00
  0.00000000E+00  0.00000000E+00  0.00000000E+00
  0.00000000E+00  0.00000000E+00  0.00000000E+00
  0.00000000E+00  0.00000000E+00  0.00000000E+00
  0.00000000E+00  0.00000000E+00  0.00000000E+00
  0.00000000E+00  0.00000000E+00  0.00000000E+00
  0.00000000E+00  0.00000000E+00  0.00000000E+00
  0.00000000E+00  0.00000000E+00  0.00000000E+00
  0.00000000E+00  0.00000000E+00  0.00000000E+00
  0.00000000E+00  0.00000000E+00  0.00000000E+00
  0.00000000E+00  0.00000000E+00  0.00000000E+00
  0.00000000E+00  0.00000000E+00  0.00000000E+00
  0.00000000E+00  0.00000000E+00  0.00000000E+00
  0.00000000E+00  0.00000000E+00  0.00000000E+00
  0.00000000E+00  0.00000000E+00  0.00000000E+00
  0.00000000E+00  0.00000000E+00  0.00000000E+00
  0.00000000E+00  0.00000000E+00  0.00000000E+00
  0.00000000E+00  0.00000000E+00  0.00000000E+00
  0.00000000E+00  0.00000000E+00  0.00000000E+00
  0.00000000E+00  0.00000000E+00  0.00000000E+00
  0.00000000E+00  0.00000000E+00  0.00000000E+00
  0.00000000E+00  0.00000000E+00  0.00000000E+00
  0.00000000E+00  0.00000000E+00  0.00000000E+00
  0.00000000E+00  0.00000000E+00  0.00000000E+00
  0.00000000E+00  0.00000000E+00  0.00000000E+00
  0.00000000E+00  0.00000000E+00  0.00000000E+00
  0.00000000E+00  0.00000000E+00  0.00000000E+00
  0.00000000E+00  0.00000000E+00  0.00000000E+00
  0.00000000E+00  0.00000000E+00  0.00000000E+00
  0.00000000E+00  0.00000000E+00  0.00000000E+00
  0.00000000E+00  0.00000000E+00  0.00000000E+00
  0.00000000E+00  0.00000000E+00  0.00000000E+00
  0.00000000E+00  0.00000000E+00  0.00000000E+00
  0.00000000E+00  0.00000000E+00  0.00000000E+00
  0.00000000E+00  0.00000000E+00  0.00000000E+00
  0.00000000E+00  0.00000000E+00  0.00000000E+00
  0.00000000E+00  0.00000000E+00  0.00000000E+00
  0.00000000E+00  0.00000000E+00  0.00000000E+00
  0.00000000E+00  0.00000000E+00  0.00000000E+00
  0.00000000E+00  0.00000000E+00  0.00000000E+00
  0.00000000E+00  0.00000000E+00  0.00000000E+00
  0.00000000E+00  0.00000000E+00  0.00000000E+00
  0.00000000E+00  0.00000000E+00  0.00000000E+00
  0.00000000E+00  0.00000000E+00  0.00000000E+00
  0.00000000E+00  0.00000000E+00  0.00000000E+00
  0.00000000E+00  0.00000000E+00  0.00000000E+00
  0.00000000E+00  0.00000000E+00  0.00000000E+00
  0.00000000E+00  0.00000000E+00  0.00000000E+00
  0.00000000E+00  0.00000000E+00  0.00000000E+00
  0.00000000E+00  0.00000000E+00  0.00000000E+00
  0.00000000E+00  0.00000000E+00  0.00000000E+00
  0.00000000E+00  0.00000000E+00  0.00000000E+00
  0.00000000E+00  0.00000000E+00  0.00000000E+00
  0.00000000E+00  0.00000000E+00  0.00000000E+00
  0.00000000E+00  0.00000000E+00  0.00000000E+00
  0.00000000E+00  0.00000000E+00  0.00000000E+00
