Ta N W                                  
   1.00000000000000     
    18.1096308199999996    0.0000000000000000    0.0000000000000000
     0.0000000000000000   23.3551997799999995    0.0000000000000000
     0.0000000000000000    0.0000000000000000   30.4818171199999988
   Ta   N    W 
   216   240    24
Direct
  0.0000000000000000  0.0000000000000000  0.1978808885074912
  0.3343530711549363  0.0624211057537494  0.2032838636562246
  0.1656468995788671  0.0624211057537494  0.2032838636562246
  0.2499999997239044  0.1249802566091702  0.2783854439573048
  0.0826637343188068  0.0624607493857567  0.2846149784837166
  0.4173362656811932  0.0624607493857567  0.2846149784837166
  0.0000000000000000  0.1251244277421577  0.3703353062126808
  0.3325400281375650  0.0624534170901470  0.3689966938671105
  0.1674599425962384  0.0624534170901470  0.3689966938671105
  0.2499999997239044  0.1251857359953874  0.4553131860679756
  0.0835867461432471  0.0626173437850142  0.4552578592638383
  0.4164132538567529  0.0626173437850142  0.4552578592638383
  0.0000000000000000  0.1283918061325124  0.5415646042557256
  0.3353924040726071  0.0631728008165737  0.5427598546551096
  0.1646075666611964  0.0631728008165737  0.5427598546551096
  0.0000000000000000  0.1248600551301919  0.1977471834284330
  0.3341033135077822  0.1872770934862942  0.2030031956776739
  0.1658966572260212  0.1872770934862942  0.2030031956776739
  0.2499999997239044  0.2499380187934435  0.2780107324574317
  0.0826776075367590  0.1874050515041006  0.2842551364668608
  0.4173223924632410  0.1874050515041006  0.2842551364668608
  0.0000000000000000  0.2501374353586598  0.3697925622387714
  0.3326758720588643  0.1874295078397878  0.3685198709372912
  0.1673240986749391  0.1874295078397878  0.3685198709372912
  0.2499999997239044  0.2504797639728764  0.4542491866706300
  0.0838361241827030  0.1878298229441739  0.4547519896109762
  0.4161638758172970  0.1878298229441739  0.4547519896109762
  0.0000000000000000  0.2526462695063003  0.5409709159547091
  0.0000000000000000  0.2498493021106611  0.1974560246186812
  0.3340661579348492  0.3123100304702007  0.2026870291954879
  0.1659338127989542  0.3123100304702007  0.2026870291954879
  0.2499999997239044  0.3749642072915265  0.2777361393392042
  0.0826294709082092  0.3124197985451858  0.2838921467495226
  0.4173705290917908  0.3124197985451858  0.2838921467495226
  0.0000000000000000  0.3751060872968566  0.3694551387888083
  0.3326814207547528  0.3124809748145694  0.3680690447599275
  0.1673185499790506  0.3124809748145694  0.3680690447599275
  0.2499999997239044  0.3752442906440336  0.4537829872079513
  0.0836657866656836  0.3128533452267845  0.4542488724438769
  0.4163342133343164  0.3128533452267845  0.4542488724438769
  0.0000000000000000  0.3760153450237382  0.5408254593432531
  0.0000000000000000  0.3749455425168549  0.1971801523871406
  0.3342669616965495  0.4374022280736156  0.2025050594062208
  0.1657330090372540  0.4374022280736156  0.2025050594062208
  0.2499999997239044  0.0000000000000000  0.2786019916854556
  0.0825948880763434  0.4374830852838798  0.2837125943945082
  0.4174051119236566  0.4374830852838798  0.2837125943945082
  0.0000000000000000  0.0000000000000000  0.3705896391481787
  0.3326937614151575  0.4375146237053684  0.3678762476720081
  0.1673062093186459  0.4375146237053684  0.3678762476720081
  0.2499999997239044  0.0000000000000000  0.4559454113831904
  0.0838120373092224  0.4376730807579676  0.4541187981940595
  0.4161879626907705  0.4376730807579676  0.4541187981940595
  0.0000000000000000  0.0000000000000000  0.5414770187952200
  0.0000000000000000  0.5000000000000000  0.1970725963615578
  0.3342669616965495  0.5625977723545503  0.2025050594062208
  0.1657330090372540  0.5625977723545503  0.2025050594062208
  0.2499999997239044  0.6250357927084735  0.2777361393392042
  0.0825948880763434  0.5625169151442861  0.2837125943945082
  0.4174051119236566  0.5625169151442861  0.2837125943945082
  0.0000000000000000  0.6248939127031434  0.3694551387888083
  0.3326937614151575  0.5624853767227975  0.3678762476720081
  0.1673062093186459  0.5624853767227975  0.3678762476720081
  0.2499999997239044  0.6247557093559664  0.4537829872079513
  0.0838120373092224  0.5623269196701983  0.4541187981940595
  0.4161879626907705  0.5623269196701983  0.4541187981940595
  0.0000000000000000  0.6239846549762618  0.5408254593432531
  0.0000000000000000  0.6250544574831451  0.1971801523871406
  0.3340661579348492  0.6876899695297993  0.2026870291954879
  0.1659338127989542  0.6876899695297993  0.2026870291954879
  0.2499999997239044  0.7500619816347296  0.2780107324574317
  0.0826294709082092  0.6875802014548142  0.2838921467495226
  0.4173705290917908  0.6875802014548142  0.2838921467495226
  0.0000000000000000  0.7498625650695132  0.3697925622387714
  0.3326814207547528  0.6875190251854306  0.3680690447599275
  0.1673185499790506  0.6875190251854306  0.3680690447599275
  0.2499999997239044  0.7495202364552966  0.4542491866706300
  0.0836657866656836  0.6871466547732155  0.4542488724438769
  0.4163342133343164  0.6871466547732155  0.4542488724438769
  0.0000000000000000  0.7473537309218727  0.5409709159547091
  0.0000000000000000  0.7501506983175119  0.1974560246186812
  0.3341033135077822  0.8127229065137058  0.2030031956776739
  0.1658966572260212  0.8127229065137058  0.2030031956776739
  0.2499999997239044  0.8750197433908298  0.2783854439573048
  0.0826776075367590  0.8125949484958994  0.2842551364668608
  0.4173223924632410  0.8125949484958994  0.2842551364668608
  0.0000000000000000  0.8748755722578423  0.3703353062126808
  0.3326758720588643  0.8125704921602122  0.3685198709372912
  0.1673240986749391  0.8125704921602122  0.3685198709372912
  0.2499999997239044  0.8748142640046126  0.4553131860679756
  0.0838361241827030  0.8121701770558261  0.4547519896109762
  0.4161638758172970  0.8121701770558261  0.4547519896109762
  0.0000000000000000  0.8716081938674876  0.5415646042557256
  0.0000000000000000  0.8751399448698081  0.1977471834284330
  0.3343530711549363  0.9375788946744166  0.2032838636562246
  0.1656468995788671  0.9375788946744166  0.2032838636562246
  0.2499999997239044  0.5000000000000000  0.2777137445157436
  0.0826637343188068  0.9375392510424092  0.2846149784837166
  0.4173362656811932  0.9375392510424092  0.2846149784837166
  0.0000000000000000  0.5000000000000000  0.3693665972152758
  0.3325400281375650  0.9375465833380190  0.3689966938671105
  0.1674599425962384  0.9375465833380190  0.3689966938671105
  0.2499999997239044  0.5000000000000000  0.4537331144945256
  0.0835867461432471  0.9373826566431518  0.4552578592638383
  0.4164132538567529  0.9373826566431518  0.4552578592638383
  0.0000000000000000  0.5000000000000000  0.5410345990773706
  0.3353924040726071  0.9368271996115922  0.5427598546551096
  0.1646075666611964  0.9368271996115922  0.5427598546551096
  0.5000000000000000  0.0000000000000000  0.1978808885074912
  0.8343530711549363  0.0624211057537494  0.2032838636562246
  0.6656468995788671  0.0624211057537494  0.2032838636562246
  0.7499999997239044  0.1249802566091702  0.2783854439573048
  0.5826637343188068  0.0624607493857567  0.2846149784837166
  0.9173362656811932  0.0624607493857567  0.2846149784837166
  0.5000000000000000  0.1251244277421577  0.3703353062126808
  0.8325400281375650  0.0624534170901470  0.3689966938671105
  0.6674599425962384  0.0624534170901470  0.3689966938671105
  0.7499999997239044  0.1251857359953874  0.4553131860679756
  0.5835867461432471  0.0626173437850142  0.4552578592638383
  0.9164132538567529  0.0626173437850142  0.4552578592638383
  0.5000000000000000  0.1283918061325124  0.5415646042557256
  0.8353924040726071  0.0631728008165737  0.5427598546551096
  0.6646075666611964  0.0631728008165737  0.5427598546551096
  0.5000000000000000  0.1248600551301919  0.1977471834284330
  0.8341033135077822  0.1872770934862942  0.2030031956776739
  0.6658966572260212  0.1872770934862942  0.2030031956776739
  0.7499999997239044  0.2499380187934435  0.2780107324574317
  0.5826776075367590  0.1874050515041006  0.2842551364668608
  0.9173223924632410  0.1874050515041006  0.2842551364668608
  0.5000000000000000  0.2501374353586598  0.3697925622387714
  0.8326758720588643  0.1874295078397878  0.3685198709372912
  0.6673240986749391  0.1874295078397878  0.3685198709372912
  0.7499999997239044  0.2504797639728764  0.4542491866706300
  0.5838361241827030  0.1878298229441739  0.4547519896109762
  0.9161638758172970  0.1878298229441739  0.4547519896109762
  0.5000000000000000  0.2526462695063003  0.5409709159547091
  0.5000000000000000  0.2498493021106611  0.1974560246186812
  0.8340661579348492  0.3123100304702007  0.2026870291954879
  0.6659338127989542  0.3123100304702007  0.2026870291954879
  0.7499999997239044  0.3749642072915265  0.2777361393392042
  0.5826294709082092  0.3124197985451858  0.2838921467495226
  0.9173705290917908  0.3124197985451858  0.2838921467495226
  0.5000000000000000  0.3751060872968566  0.3694551387888083
  0.8326814207547528  0.3124809748145694  0.3680690447599275
  0.6673185499790506  0.3124809748145694  0.3680690447599275
  0.7499999997239044  0.3752442906440336  0.4537829872079513
  0.5836657866656836  0.3128533452267845  0.4542488724438769
  0.9163342133343164  0.3128533452267845  0.4542488724438769
  0.5000000000000000  0.3760153450237382  0.5408254593432531
  0.5000000000000000  0.3749455425168549  0.1971801523871406
  0.8342669616965495  0.4374022280736156  0.2025050594062208
  0.6657330090372540  0.4374022280736156  0.2025050594062208
  0.7499999997239044  0.0000000000000000  0.2786019916854556
  0.5825948880763434  0.4374830852838798  0.2837125943945082
  0.9174051119236566  0.4374830852838798  0.2837125943945082
  0.5000000000000000  0.0000000000000000  0.3705896391481787
  0.8326937614151575  0.4375146237053684  0.3678762476720081
  0.6673062093186459  0.4375146237053684  0.3678762476720081
  0.7499999997239044  0.0000000000000000  0.4559454113831904
  0.5838120373092224  0.4376730807579676  0.4541187981940595
  0.9161879626907776  0.4376730807579676  0.4541187981940595
  0.5000000000000000  0.0000000000000000  0.5414770187952200
  0.5000000000000000  0.5000000000000000  0.1970725963615578
  0.8342669616965495  0.5625977723545503  0.2025050594062208
  0.6657330090372540  0.5625977723545503  0.2025050594062208
  0.7499999997239044  0.6250357927084735  0.2777361393392042
  0.5825948880763434  0.5625169151442861  0.2837125943945082
  0.9174051119236566  0.5625169151442861  0.2837125943945082
  0.5000000000000000  0.6248939127031434  0.3694551387888083
  0.8326937614151575  0.5624853767227975  0.3678762476720081
  0.6673062093186459  0.5624853767227975  0.3678762476720081
  0.7499999997239044  0.6247557093559664  0.4537829872079513
  0.5838120373092224  0.5623269196701983  0.4541187981940595
  0.9161879626907776  0.5623269196701983  0.4541187981940595
  0.5000000000000000  0.6239846549762618  0.5408254593432531
  0.5000000000000000  0.6250544574831451  0.1971801523871406
  0.8340661579348492  0.6876899695297993  0.2026870291954879
  0.6659338127989542  0.6876899695297993  0.2026870291954879
  0.7499999997239044  0.7500619816347296  0.2780107324574317
  0.5826294709082092  0.6875802014548142  0.2838921467495226
  0.9173705290917908  0.6875802014548142  0.2838921467495226
  0.5000000000000000  0.7498625650695132  0.3697925622387714
  0.8326814207547528  0.6875190251854306  0.3680690447599275
  0.6673185499790506  0.6875190251854306  0.3680690447599275
  0.7499999997239044  0.7495202364552966  0.4542491866706300
  0.5836657866656836  0.6871466547732155  0.4542488724438769
  0.9163342133343164  0.6871466547732155  0.4542488724438769
  0.5000000000000000  0.7473537309218727  0.5409709159547091
  0.5000000000000000  0.7501506983175119  0.1974560246186812
  0.8341033135077822  0.8127229065137058  0.2030031956776739
  0.6658966572260212  0.8127229065137058  0.2030031956776739
  0.7499999997239044  0.8750197433908298  0.2783854439573048
  0.5826776075367590  0.8125949484958994  0.2842551364668608
  0.9173223924632410  0.8125949484958994  0.2842551364668608
  0.5000000000000000  0.8748755722578423  0.3703353062126808
  0.8326758720588643  0.8125704921602122  0.3685198709372912
  0.6673240986749391  0.8125704921602122  0.3685198709372912
  0.7499999997239044  0.8748142640046126  0.4553131860679756
  0.5838361241827030  0.8121701770558261  0.4547519896109762
  0.9161638758172970  0.8121701770558261  0.4547519896109762
  0.5000000000000000  0.8716081938674876  0.5415646042557256
  0.5000000000000000  0.8751399448698081  0.1977471834284330
  0.8343530711549363  0.9375788946744166  0.2032838636562246
  0.6656468995788671  0.9375788946744166  0.2032838636562246
  0.7499999997239044  0.5000000000000000  0.2777137445157436
  0.5826637343188068  0.9375392510424092  0.2846149784837166
  0.9173362656811932  0.9375392510424092  0.2846149784837166
  0.5000000000000000  0.5000000000000000  0.3693665972152758
  0.8325400281375650  0.9375465833380190  0.3689966938671105
  0.6674599425962384  0.9375465833380190  0.3689966938671105
  0.7499999997239044  0.5000000000000000  0.4537331144945256
  0.5835867461432471  0.9373826566431518  0.4552578592638383
  0.9164132538567529  0.9373826566431518  0.4552578592638383
  0.5000000000000000  0.5000000000000000  0.5410345990773706
  0.8353924040726071  0.9368271996115922  0.5427598546551096
  0.6646075666611964  0.9368271996115922  0.5427598546551096
  0.4058466022141758  0.0000000000000000  0.2329778611301663
  0.2499999997239044  0.0000000000000000  0.2006603556139908
  0.0941533977858242  0.0000000000000000  0.2329778611301663
  0.1548695913217344  0.1249011364864501  0.3162720837244350
  0.0000000000000000  0.1249898662483631  0.3036650113875723
  0.3451304086782656  0.1249011364864501  0.3162720837244350
  0.4009768051403455  0.1251023912007625  0.4028876568716910
  0.2499999997239044  0.1249860993770824  0.3877134920996639
  0.0990231948596545  0.1251023912007625  0.4028876568716910
  0.1523362308709508  0.1258210693704243  0.4882719523438439
  0.0000000000000000  0.1258639438339912  0.4738317987736878
  0.3476637691290492  0.1258210693704243  0.4882719523438439
  0.4006005537230379  0.1295433744776631  0.5699804124952763
  0.2499999997239044  0.1308103555133826  0.5581151795528783
  0.0993994462769621  0.1295433744776631  0.5699804124952763
  0.4058153535870304  0.1248796047842688  0.2327663293198086
  0.2499999997239044  0.1247581615754356  0.2000551280386844
  0.0941846464129696  0.1248796047842688  0.2327663293198086
  0.1548136219226564  0.2499122021295648  0.3158247942735315
  0.0000000000000000  0.2499811579043580  0.3032097267449814
  0.3451863780773436  0.2499122021295648  0.3158247942735315
  0.4010289721527869  0.2502043843086810  0.4024338008502610
  0.2499999997239044  0.2499932838028940  0.3869887767452269
  0.0989710278472131  0.2502043843086810  0.4024338008502610
  0.1529869383593834  0.2508180951789072  0.4874875573546049
  0.0000000000000000  0.2507540017637524  0.4734169476667418
  0.3470130616406166  0.2508180951789072  0.4874875573546049
  0.3987045701522618  0.2521473141916601  0.5688236473858339
  0.2499999997239044  0.2531610549616303  0.5577624704591884
  0.1012954298477382  0.2521473141916601  0.5688236473858339
  0.4057402253797306  0.2498231255822674  0.2323753200924727
  0.2499999997239044  0.2497943310281343  0.1994978020545730
  0.0942597746202694  0.2498231255822674  0.2323753200924727
  0.1547577006292826  0.3749645001951833  0.3155400805571844
  0.0000000000000000  0.3749834990520498  0.3029105368441378
  0.3452422993707174  0.3749645001951833  0.3155400805571844
  0.4010550589882982  0.3751449558531235  0.4021526322572768
  0.2499999997239044  0.3750201789730170  0.3865895325756554
  0.0989449410117018  0.3751449558531235  0.4021526322572768
  0.1531080281213448  0.3754044029096804  0.4870820558553319
  0.0000000000000000  0.3754617310038668  0.4731974211022418
  0.3468919718786552  0.3754044029096804  0.4870820558553319
  0.3982272456444207  0.3760117902977314  0.5685204283802321
  0.2499999997239044  0.3761411604131695  0.5573797060581356
  0.1017727543555793  0.3760117902977314  0.5685204283802321
  0.4057474327560158  0.3748942930297972  0.2321227460902477
  0.2499999997239044  0.3749331778203526  0.1995392283423811
  0.0942525672439842  0.3748942930297972  0.2321227460902477
  0.1548844368468778  0.0000000000000000  0.3165063836472015
  0.0000000000000000  0.0000000000000000  0.3038725593751508
  0.3451155631531222  0.0000000000000000  0.3165063836472015
  0.4009516900121781  0.0000000000000000  0.4031055247041593
  0.2499999997239044  0.0000000000000000  0.3881087419048725
  0.0990483099878219  0.0000000000000000  0.4031055247041593
  0.1517169920074366  0.0000000000000000  0.4885983038368664
  0.0000000000000000  0.0000000000000000  0.4736022857100650
  0.3482830079925634  0.0000000000000000  0.4885983038368664
  0.4026184444313969  0.0000000000000000  0.5707095190868898
  0.2499999997239044  0.0000000000000000  0.5584359513968522
  0.0973815555686031  0.0000000000000000  0.5707095190868898
  0.4057668935087193  0.5000000000000000  0.2320666656655419
  0.2499999997239044  0.5000000000000000  0.2002266101666663
  0.0942331064912807  0.5000000000000000  0.2320666656655419
  0.1547577006292826  0.6250354998048167  0.3155400805571844
  0.0000000000000000  0.6250165009479502  0.3029105368441378
  0.3452422993707174  0.6250354998048167  0.3155400805571844
  0.4010550589882982  0.6248550441468765  0.4021526322572768
  0.2499999997239044  0.6249798210269830  0.3865895325756554
  0.0989449410117018  0.6248550441468765  0.4021526322572768
  0.1531080281213448  0.6245955970903196  0.4870820558553319
  0.0000000000000000  0.6245382689961332  0.4731974211022418
  0.3468919718786552  0.6245955970903196  0.4870820558553319
  0.3982272456444207  0.6239882097022686  0.5685204283802321
  0.2499999997239044  0.6238588395868376  0.5573797060581356
  0.1017727543555793  0.6239882097022686  0.5685204283802321
  0.4057474327560158  0.6251057069702028  0.2321227460902477
  0.2499999997239044  0.6250668221796474  0.1995392283423811
  0.0942525672439842  0.6251057069702028  0.2321227460902477
  0.1548136219226564  0.7500877982986083  0.3158247942735315
  0.0000000000000000  0.7500188425238150  0.3032097267449814
  0.3451863780773436  0.7500877982986083  0.3158247942735315
  0.4010289721527869  0.7497956161194921  0.4024338008502610
  0.2499999997239044  0.7500067166252791  0.3869887767452269
  0.0989710278472131  0.7497956161194921  0.4024338008502610
  0.1529869383593834  0.7491819052492659  0.4874875573546049
  0.0000000000000000  0.7492459986644207  0.4734169476667418
  0.3470130616406166  0.7491819052492659  0.4874875573546049
  0.3987045701522618  0.7478526862365129  0.5688236473858339
  0.2499999997239044  0.7468389454665427  0.5577624704591884
  0.1012954298477382  0.7478526862365129  0.5688236473858339
  0.4057402253797306  0.7501768748459057  0.2323753200924727
  0.2499999997239044  0.7502056694000387  0.1994978020545730
  0.0942597746202694  0.7501768748459057  0.2323753200924727
  0.1548695913217344  0.8750988635135499  0.3162720837244350
  0.0000000000000000  0.8750101337516369  0.3036650113875723
  0.3451304086782656  0.8750988635135499  0.3162720837244350
  0.4009768051403455  0.8748976087992375  0.4028876568716910
  0.2499999997239044  0.8750139006229176  0.3877134920996639
  0.0990231948596545  0.8748976087992375  0.4028876568716910
  0.1523362308709508  0.8741789306295757  0.4882719523438439
  0.0000000000000000  0.8741360561660088  0.4738317987736878
  0.3476637691290492  0.8741789306295757  0.4882719523438439
  0.4006005537230379  0.8704566255223369  0.5699804124952763
  0.2499999997239044  0.8691896444866174  0.5581151795528783
  0.0993994462769621  0.8704566255223369  0.5699804124952763
  0.4058153535870304  0.8751203952157312  0.2327663293198086
  0.2499999997239044  0.8752418384245644  0.2000551280386844
  0.0941846464129696  0.8751203952157312  0.2327663293198086
  0.1546722267121012  0.5000000000000000  0.3154768504284249
  0.0000000000000000  0.5000000000000000  0.3028456371990487
  0.3453277732878988  0.5000000000000000  0.3154768504284249
  0.4010472877469056  0.5000000000000000  0.4021013413266203
  0.2499999997239044  0.5000000000000000  0.3865353672211853
  0.0989527122530944  0.5000000000000000  0.4021013413266203
  0.1531266488322913  0.5000000000000000  0.4870856360428562
  0.0000000000000000  0.5000000000000000  0.4733676238477145
  0.3468733511677087  0.5000000000000000  0.4870856360428562
  0.3982299855890972  0.5000000000000000  0.5686387730190532
  0.2499999997239044  0.5000000000000000  0.5574552572965672
  0.1017700144109028  0.5000000000000000  0.5686387730190532
  0.9058466022141758  0.0000000000000000  0.2329778611301663
  0.7499999997239044  0.0000000000000000  0.2006603556139908
  0.5941533972336259  0.0000000000000000  0.2329778611301663
  0.6548695913217344  0.1249011364864501  0.3162720837244350
  0.5000000000000000  0.1249898662483631  0.3036650113875723
  0.8451304086782656  0.1249011364864501  0.3162720837244350
  0.9009768051403455  0.1251023912007625  0.4028876568716910
  0.7499999997239044  0.1249860993770824  0.3877134920996639
  0.5990231948596545  0.1251023912007625  0.4028876568716910
  0.6523362308709508  0.1258210693704243  0.4882719523438439
  0.5000000000000000  0.1258639438339912  0.4738317987736878
  0.8476637691290492  0.1258210693704243  0.4882719523438439
  0.9006005537230379  0.1295433744776631  0.5699804124952763
  0.7499999997239044  0.1308103555133826  0.5581151795528783
  0.5993994462769621  0.1295433744776631  0.5699804124952763
  0.9058153535870304  0.1248796047842688  0.2327663293198086
  0.7499999997239044  0.1247581615754356  0.2000551280386844
  0.5941846458607714  0.1248796047842688  0.2327663293198086
  0.6548136219226564  0.2499122021295648  0.3158247942735315
  0.5000000000000000  0.2499811579043580  0.3032097267449814
  0.8451863780773436  0.2499122021295648  0.3158247942735315
  0.9010289721527869  0.2502043843086810  0.4024338008502610
  0.7499999997239044  0.2499932838028940  0.3869887767452269
  0.5989710278472131  0.2502043843086810  0.4024338008502610
  0.6529869383593834  0.2508180951789072  0.4874875573546049
  0.5000000000000000  0.2507540017637524  0.4734169476667418
  0.8470130616406166  0.2508180951789072  0.4874875573546049
  0.8987045701522618  0.2521473141916601  0.5688236473858339
  0.7499999997239044  0.2531610549616303  0.5577624704591884
  0.6012954298477382  0.2521473141916601  0.5688236473858339
  0.9057402253797306  0.2498231255822674  0.2323753200924727
  0.7499999997239044  0.2497943310281343  0.1994978020545730
  0.5942597740680711  0.2498231255822674  0.2323753200924727
  0.6547577006292826  0.3749645001951833  0.3155400805571844
  0.5000000000000000  0.3749834990520498  0.3029105368441378
  0.8452422993707174  0.3749645001951833  0.3155400805571844
  0.9010550589882982  0.3751449558531235  0.4021526322572768
  0.7499999997239044  0.3750201789730170  0.3865895325756554
  0.5989449410117018  0.3751449558531235  0.4021526322572768
  0.6531080281213448  0.3754044029096804  0.4870820558553319
  0.5000000000000000  0.3754617310038668  0.4731974211022418
  0.8468919718786552  0.3754044029096804  0.4870820558553319
  0.8982272456444207  0.3760117902977314  0.5685204283802321
  0.7499999997239044  0.3761411604131695  0.5573797060581356
  0.6017727543555793  0.3760117902977314  0.5685204283802321
  0.9057474327560158  0.3748942930297972  0.2321227460902477
  0.7499999997239044  0.3749331778203526  0.1995392283423811
  0.5942525666917859  0.3748942930297972  0.2321227460902477
  0.6548844368468778  0.0000000000000000  0.3165063836472015
  0.5000000000000000  0.0000000000000000  0.3038725593751508
  0.8451155631531222  0.0000000000000000  0.3165063836472015
  0.9009516900121781  0.0000000000000000  0.4031055247041593
  0.7499999997239044  0.0000000000000000  0.3881087419048725
  0.5990483099878219  0.0000000000000000  0.4031055247041593
  0.6517169920074366  0.0000000000000000  0.4885983038368664
  0.5000000000000000  0.0000000000000000  0.4736022857100650
  0.8482830079925634  0.0000000000000000  0.4885983038368664
  0.9026184444313969  0.0000000000000000  0.5707095190868898
  0.7499999997239044  0.0000000000000000  0.5584359513968522
  0.5973815555686031  0.0000000000000000  0.5707095190868898
  0.9057668935087193  0.5000000000000000  0.2320666656655419
  0.7499999997239044  0.5000000000000000  0.2002266101666663
  0.5942331059390824  0.5000000000000000  0.2320666656655419
  0.6547577006292826  0.6250354998048167  0.3155400805571844
  0.5000000000000000  0.6250165009479502  0.3029105368441378
  0.8452422993707174  0.6250354998048167  0.3155400805571844
  0.9010550589882982  0.6248550441468765  0.4021526322572768
  0.7499999997239044  0.6249798210269830  0.3865895325756554
  0.5989449410117018  0.6248550441468765  0.4021526322572768
  0.6531080281213448  0.6245955970903196  0.4870820558553319
  0.5000000000000000  0.6245382689961332  0.4731974211022418
  0.8468919718786552  0.6245955970903196  0.4870820558553319
  0.8982272456444207  0.6239882097022686  0.5685204283802321
  0.7499999997239044  0.6238588395868376  0.5573797060581356
  0.6017727543555793  0.6239882097022686  0.5685204283802321
  0.9057474327560158  0.6251057069702028  0.2321227460902477
  0.7499999997239044  0.6250668221796474  0.1995392283423811
  0.5942525666917859  0.6251057069702028  0.2321227460902477
  0.6548136219226564  0.7500877982986083  0.3158247942735315
  0.5000000000000000  0.7500188425238150  0.3032097267449814
  0.8451863780773436  0.7500877982986083  0.3158247942735315
  0.9010289721527869  0.7497956161194921  0.4024338008502610
  0.7499999997239044  0.7500067166252791  0.3869887767452269
  0.5989710278472131  0.7497956161194921  0.4024338008502610
  0.6529869383593834  0.7491819052492659  0.4874875573546049
  0.5000000000000000  0.7492459986644207  0.4734169476667418
  0.8470130616406166  0.7491819052492659  0.4874875573546049
  0.8987045701522618  0.7478526862365129  0.5688236473858339
  0.7499999997239044  0.7468389454665427  0.5577624704591884
  0.6012954298477382  0.7478526862365129  0.5688236473858339
  0.9057402253797306  0.7501768748459057  0.2323753200924727
  0.7499999997239044  0.7502056694000387  0.1994978020545730
  0.5942597740680711  0.7501768748459057  0.2323753200924727
  0.6548695913217344  0.8750988635135499  0.3162720837244350
  0.5000000000000000  0.8750101337516369  0.3036650113875723
  0.8451304086782656  0.8750988635135499  0.3162720837244350
  0.9009768051403455  0.8748976087992375  0.4028876568716910
  0.7499999997239044  0.8750139006229176  0.3877134920996639
  0.5990231948596545  0.8748976087992375  0.4028876568716910
  0.6523362308709508  0.8741789306295757  0.4882719523438439
  0.5000000000000000  0.8741360561660088  0.4738317987736878
  0.8476637691290492  0.8741789306295757  0.4882719523438439
  0.9006005537230379  0.8704566255223369  0.5699804124952763
  0.7499999997239044  0.8691896444866174  0.5581151795528783
  0.5993994462769621  0.8704566255223369  0.5699804124952763
  0.9058153535870304  0.8751203952157312  0.2327663293198086
  0.7499999997239044  0.8752418384245644  0.2000551280386844
  0.5941846458607714  0.8751203952157312  0.2327663293198086
  0.6546722267121012  0.5000000000000000  0.3154768504284249
  0.5000000000000000  0.5000000000000000  0.3028456371990487
  0.8453277732878988  0.5000000000000000  0.3154768504284249
  0.9010472877469056  0.5000000000000000  0.4021013413266203
  0.7499999997239044  0.5000000000000000  0.3865353672211853
  0.5989527122530944  0.5000000000000000  0.4021013413266203
  0.6531266488322913  0.5000000000000000  0.4870856360428562
  0.5000000000000000  0.5000000000000000  0.4733676238477145
  0.8468733511677087  0.5000000000000000  0.4870856360428562
  0.8982299855890972  0.5000000000000000  0.5686387730190532
  0.7499999997239044  0.5000000000000000  0.5574552572965672
  0.6017700144109028  0.5000000000000000  0.5686387730190532
  0.3348350838598435  0.1888447103132549  0.5402032117859932
  0.1651648868739599  0.1888447103132549  0.5402032117859932
  0.3345880816169000  0.3133692033553075  0.5394856522223819
  0.1654118891169034  0.3133692033553075  0.5394856522223819
  0.3345120013672656  0.4378627239412651  0.5392911168209622
  0.1654879693665379  0.4378627239412651  0.5392911168209622
  0.3345120013672656  0.5621372764869008  0.5392911168209622
  0.1654879693665379  0.5621372764869008  0.5392911168209622
  0.3345880816169000  0.6866307966446925  0.5394856522223819
  0.1654118891169034  0.6866307966446925  0.5394856522223819
  0.3348350838598435  0.8111552896867451  0.5402032117859932
  0.1651648868739599  0.8111552896867451  0.5402032117859932
  0.8348350838598435  0.1888447103132549  0.5402032117859932
  0.6651648868739599  0.1888447103132549  0.5402032117859932
  0.8345880816169000  0.3133692033553075  0.5394856522223819
  0.6654118891169034  0.3133692033553075  0.5394856522223819
  0.8345120013672656  0.4378627239412651  0.5392911168209622
  0.6654879693665379  0.4378627239412651  0.5392911168209622
  0.8345120013672656  0.5621372764869008  0.5392911168209622
  0.6654879693665379  0.5621372764869008  0.5392911168209622
  0.8345880816169000  0.6866307966446925  0.5394856522223819
  0.6654118891169034  0.6866307966446925  0.5394856522223819
  0.8348350838598435  0.8111552896867451  0.5402032117859932
  0.6651648868739599  0.8111552896867451  0.5402032117859932
 
  0.00000000E+00  0.00000000E+00  0.00000000E+00
  0.00000000E+00  0.00000000E+00  0.00000000E+00
  0.00000000E+00  0.00000000E+00  0.00000000E+00
  0.00000000E+00  0.00000000E+00  0.00000000E+00
  0.00000000E+00  0.00000000E+00  0.00000000E+00
  0.00000000E+00  0.00000000E+00  0.00000000E+00
  0.00000000E+00  0.00000000E+00  0.00000000E+00
  0.00000000E+00  0.00000000E+00  0.00000000E+00