Mo  S Co                                
   1.00000000000000     
    15.9215000000000000    0.0000000000000000    0.0000000000000000
    -7.9622500000000000   13.7910219999999999    0.0000000000000000
     0.0000000000000000    0.0000000000000000   13.5822000000000003
   Mo   S    Co
    25    50     3
Direct
  0.1346971220430220  0.0661785269566622  0.6805748955075117
  0.1336423254073580  0.2664514308994725  0.6789421772011295
  0.1346257686462096  0.4676485785614517  0.6805009183982662
  0.1343387772172946  0.6669615034408167  0.6795044329762518
  0.1343571101882759  0.8665570205781137  0.6795546303262725
  0.3347437255597114  0.0668568729943431  0.6805418561763830
  0.3334097942608381  0.2655276017004269  0.6806715350712977
  0.3334272818256991  0.4670698239681670  0.6805549973927612
  0.3347159976095639  0.6670582295981333  0.6802513752770665
  0.3347174519583973  0.8669493338942758  0.6797807884261005
  0.5348707632303800  0.0668736337561811  0.6800146173878190
  0.5355706187234475  0.2666066313693349  0.6803603645144278
  0.5356768370760534  0.4674999500593060  0.6794639947295451
  0.5355973054514749  0.6683457711122784  0.6797285786519183
  0.5348680294254535  0.8672474008685711  0.6797652421241835
  0.7348069692746222  0.0670118876122885  0.6801309511947125
  0.7347959683990553  0.2671070208368178  0.6797973282793137
  0.7345819561022182  0.4669079510812608  0.6795151456450057
  0.7346195310406500  0.6669083558057665  0.6793257632522653
  0.7348448005933861  0.8669388483125644  0.6795065600262902
  0.9339441710850735  0.0664241348699051  0.6801974738414884
  0.9339066563695084  0.2667167404108426  0.6802326903992153
  0.9343866049984655  0.4669132891048662  0.6797405281790745
  0.9344191891456290  0.6668006831983249  0.6792927191313183
  0.9344219719152207  0.8666858661488064  0.6796543644702737
  0.0680640689706138  0.1336969291026833  0.5659435960618069
  0.0656293909742374  0.1289417718700179  0.8015482907918710
  0.0679667986458767  0.3334899590204614  0.5658865544259442
  0.0655962245547954  0.3358697397385413  0.8014813814112003
  0.0676905171937179  0.5333821037306379  0.5645667801091108
  0.0675256253470877  0.5342280863465874  0.7949782983157263
  0.0678314020034207  0.7335187932542695  0.5642066484769543
  0.0675703419875049  0.7333577954435029  0.7945636632085495
  0.0677995028632878  0.9335485348093329  0.5645812914860784
  0.0674856768618000  0.9324481966745921  0.7949959125229995
  0.2676950208502191  0.1332106055729554  0.5654158167054959
  0.2673486962779279  0.1326396418773967  0.7960746300235257
  0.2668746027660873  0.3329724588193272  0.5661509605331148
  0.2692606145833025  0.3342093027585022  0.8011694601780519
  0.2676077322701857  0.5335402661203617  0.5652578044865777
  0.2673797395166986  0.5339305632347404  0.7958972927599319
  0.2680556730234827  0.7334748922969183  0.5647708104477260
  0.2676935911679053  0.7336410204836596  0.7947800809141654
  0.2681258154604933  0.9338898556758366  0.5648922017361642
  0.2676653181431519  0.9331122691581299  0.7949058918581784
  0.4680606530990943  0.1335452092742813  0.5651643613669037
  0.4682846376900542  0.1330488173550961  0.7953727918674645
  0.4676846545564359  0.3330553304634378  0.5659660785506446
  0.4676353281332055  0.3335537688762784  0.7946658367126886
  0.4676434633388880  0.5337311912378837  0.5656535719109357
  0.4679432646511756  0.5339571907423917  0.7940717854768025
  0.4679650718229098  0.7338737815384491  0.5647148095931840
  0.4683073156409989  0.7344302341633906  0.7949715610551422
  0.4681392475353192  0.9337860977853296  0.5647048895700095
  0.4680443734439805  0.9335563941185114  0.7948934369086160
  0.6682688261294558  0.1336393626162860  0.5648364812053472
  0.6683118372571712  0.1337046358957039  0.7950040172060326
  0.6679406339295042  0.3333673153564973  0.5645843143358107
  0.6688830785044644  0.3338733692120783  0.7952265612648901
  0.6681437007768736  0.5336201380618704  0.5640618631969119
  0.6686815644508997  0.5340674810606956  0.7949283365974935
  0.6681450625942276  0.7338842064131228  0.5641743132774479
  0.6687838632175698  0.7342279728804471  0.7948362452267688
  0.6683267509656616  0.9339860389772525  0.5646479685965460
  0.6682750464428082  0.9337008131567970  0.7948006803184526
  0.8681864456218662  0.1337062551404244  0.5651406116557283
  0.8680019371271541  0.1335848930521593  0.7954788060702072
  0.8680090858919769  0.3336235730491666  0.5645400542849544
  0.8676729708565887  0.3338035081611750  0.7950571421583916
  0.8678180998668950  0.5333801413240451  0.5643291532998944
  0.8679096314739994  0.5337487708471542  0.7945991134688626
  0.8679204801539342  0.7336454687669303  0.5642316803244682
  0.8678740449109839  0.7333809257366468  0.7944963938786671
  0.8681680780425083  0.9336973652533018  0.5643936053552139
  0.8676135957719708  0.9330292567818788  0.7949078603921649
  0.1317178038085700  0.2655095483750216  0.8663424910608413
  0.4684985513360331  0.3711032754679522  0.9508296082038896
  0.4746721713591953  0.5047108014697486  0.9507932085897721
 
  0.00000000E+00  0.00000000E+00  0.00000000E+00
  0.00000000E+00  0.00000000E+00  0.00000000E+00
  0.00000000E+00  0.00000000E+00  0.00000000E+00
  0.00000000E+00  0.00000000E+00  0.00000000E+00
  0.00000000E+00  0.00000000E+00  0.00000000E+00
  0.00000000E+00  0.00000000E+00  0.00000000E+00
  0.00000000E+00  0.00000000E+00  0.00000000E+00
  0.00000000E+00  0.00000000E+00  0.00000000E+00
  0.00000000E+00  0.00000000E+00  0.00000000E+00
  0.00000000E+00  0.00000000E+00  0.00000000E+00
  0.00000000E+00  0.00000000E+00  0.00000000E+00
  0.00000000E+00  0.00000000E+00  0.00000000E+00
  0.00000000E+00  0.00000000E+00  0.00000000E+00
  0.00000000E+00  0.00000000E+00  0.00000000E+00
  0.00000000E+00  0.00000000E+00  0.00000000E+00
  0.00000000E+00  0.00000000E+00  0.00000000E+00
  0.00000000E+00  0.00000000E+00  0.00000000E+00
  0.00000000E+00  0.00000000E+00  0.00000000E+00
  0.00000000E+00  0.00000000E+00  0.00000000E+00
  0.00000000E+00  0.00000000E+00  0.00000000E+00
  0.00000000E+00  0.00000000E+00  0.00000000E+00
  0.00000000E+00  0.00000000E+00  0.00000000E+00
  0.00000000E+00  0.00000000E+00  0.00000000E+00
  0.00000000E+00  0.00000000E+00  0.00000000E+00
  0.00000000E+00  0.00000000E+00  0.00000000E+00
  0.00000000E+00  0.00000000E+00  0.00000000E+00
  0.00000000E+00  0.00000000E+00  0.00000000E+00
  0.00000000E+00  0.00000000E+00  0.00000000E+00
  0.00000000E+00  0.00000000E+00  0.00000000E+00
  0.00000000E+00  0.00000000E+00  0.00000000E+00
  0.00000000E+00  0.00000000E+00  0.00000000E+00
  0.00000000E+00  0.00000000E+00  0.00000000E+00
  0.00000000E+00  0.00000000E+00  0.00000000E+00
  0.00000000E+00  0.00000000E+00  0.00000000E+00
  0.00000000E+00  0.00000000E+00  0.00000000E+00
  0.00000000E+00  0.00000000E+00  0.00000000E+00
  0.00000000E+00  0.00000000E+00  0.00000000E+00
  0.00000000E+00  0.00000000E+00  0.00000000E+00
  0.00000000E+00  0.00000000E+00  0.00000000E+00
  0.00000000E+00  0.00000000E+00  0.00000000E+00
  0.00000000E+00  0.00000000E+00  0.00000000E+00
  0.00000000E+00  0.00000000E+00  0.00000000E+00
  0.00000000E+00  0.00000000E+00  0.00000000E+00
  0.00000000E+00  0.00000000E+00  0.00000000E+00
  0.00000000E+00  0.00000000E+00  0.00000000E+00
  0.00000000E+00  0.00000000E+00  0.00000000E+00
  0.00000000E+00  0.00000000E+00  0.00000000E+00
  0.00000000E+00  0.00000000E+00  0.00000000E+00
  0.00000000E+00  0.00000000E+00  0.00000000E+00
  0.00000000E+00  0.00000000E+00  0.00000000E+00
  0.00000000E+00  0.00000000E+00  0.00000000E+00
  0.00000000E+00  0.00000000E+00  0.00000000E+00
  0.00000000E+00  0.00000000E+00  0.00000000E+00
  0.00000000E+00  0.00000000E+00  0.00000000E+00
  0.00000000E+00  0.00000000E+00  0.00000000E+00
  0.00000000E+00  0.00000000E+00  0.00000000E+00
  0.00000000E+00  0.00000000E+00  0.00000000E+00
  0.00000000E+00  0.00000000E+00  0.00000000E+00
  0.00000000E+00  0.00000000E+00  0.00000000E+00
  0.00000000E+00  0.00000000E+00  0.00000000E+00
  0.00000000E+00  0.00000000E+00  0.00000000E+00
  0.00000000E+00  0.00000000E+00  0.00000000E+00
  0.00000000E+00  0.00000000E+00  0.00000000E+00
  0.00000000E+00  0.00000000E+00  0.00000000E+00
  0.00000000E+00  0.00000000E+00  0.00000000E+00
  0.00000000E+00  0.00000000E+00  0.00000000E+00
  0.00000000E+00  0.00000000E+00  0.00000000E+00
  0.00000000E+00  0.00000000E+00  0.00000000E+00
  0.00000000E+00  0.00000000E+00  0.00000000E+00
  0.00000000E+00  0.00000000E+00  0.00000000E+00
  0.00000000E+00  0.00000000E+00  0.00000000E+00
  0.00000000E+00  0.00000000E+00  0.00000000E+00
  0.00000000E+00  0.00000000E+00  0.00000000E+00
  0.00000000E+00  0.00000000E+00  0.00000000E+00
  0.00000000E+00  0.00000000E+00  0.00000000E+00
  0.00000000E+00  0.00000000E+00  0.00000000E+00
  0.00000000E+00  0.00000000E+00  0.00000000E+00
  0.00000000E+00  0.00000000E+00  0.00000000E+00
