Ta  N Ru                                
   1.00000000000000     
    18.1096308199999996    0.0000000000000000    0.0000000000000000
     0.0000000000000000   23.3551997799999995    0.0000000000000000
     0.0000000000000000    0.0000000000000000   30.4818171199999988
   Ta   N    Ru
   204   240    36
Direct
  0.0013074604511214  0.0009931950548347  0.1970949865750571
  0.3348045813531393  0.0634143776862921  0.2027826727487329
  0.1667765377273827  0.0633392265680194  0.2026421323725237
  0.2508521851187250  0.1260424886986663  0.2783995691349580
  0.0836480049004654  0.0633752301831566  0.2839758639559538
  0.4178136581598831  0.0636217058228288  0.2842087847162004
  0.0003928016514576  0.1255818333134829  0.3691215904198314
  0.3331854322481328  0.0636832325149934  0.3686392546986684
  0.1683756199785271  0.0633879013932029  0.3683405359849979
  0.2491318529409231  0.1260754564268294  0.4567726918934526
  0.0856116749310716  0.0635999296286632  0.4552741382410154
  0.4169881569500459  0.0635281310149444  0.4552646664075240
  0.0014056433730858  0.1258753569838101  0.1970772591206384
  0.3348075304954801  0.1887573330712124  0.2027062279259656
  0.1668059972713455  0.1886073834217149  0.2025943135242854
  0.2507763220510343  0.2511614843695974  0.2782079551765934
  0.0836768759209516  0.1884091218741374  0.2837888280398861
  0.4178103791280749  0.1885845060818641  0.2843444798240467
  0.0004686998335802  0.2508864161790081  0.3690000252226701
  0.3324869009697956  0.1886249141354758  0.3689081573571115
  0.1685403184338682  0.1883005029353823  0.3683636030998753
  0.2471181361671330  0.2491898469397061  0.4553474594732125
  0.0813239405614417  0.1876656422577385  0.4526497381419716
  0.4147417016972271  0.1893343495193610  0.4549837163465277
  0.1529348421107620  0.1790982026073320  0.5439149108540756
  0.0010343750650326  0.2509675273226953  0.1970340394542891
  0.3346323568645168  0.3133864640173683  0.2027069427337891
  0.1668155124059934  0.3133424731750608  0.2025799106079299
  0.2507647447179767  0.3758536647010489  0.2784450114047738
  0.0835181832915825  0.3134609632213865  0.2839000862069012
  0.4178477351966461  0.3135718541182754  0.2841297237241323
  0.0017551060862369  0.3758000293554882  0.3694382410970359
  0.3329679226442558  0.3137066847400673  0.3683675929861449
  0.1684760117418594  0.3134909895341724  0.3683955110261733
  0.2519628681141350  0.3765193299100701  0.4572120800031734
  0.0849082683326643  0.3125404675790981  0.4548063528171198
  0.4156191262021850  0.3143588535491674  0.4551799240468926
  0.9908852602243033  0.3658411305273313  0.5418565494704317
  0.0016300207978019  0.3760244031801125  0.1970602374471984
  0.3346389675930615  0.4386984075181597  0.2027643161193299
  0.1668272738513754  0.4386259928976572  0.2026791526141401
  0.2507831934604609  0.0010601877537406  0.2781866420462198
  0.0836920178949890  0.4383888700040104  0.2841732147206363
  0.4178098041936407  0.4386154502428606  0.2841090661173064
  0.0019111695637413  0.0005860709113268  0.3696166051821453
  0.3327856220935937  0.4386306897041510  0.3688220984391562
  0.1691179163049731  0.4384804073876477  0.3690718491932241
  0.2532882401826864  0.9991797384829915  0.4561319264578826
  0.0861976912325696  0.4381012709547708  0.4552617649341150
  0.4199663856016014  0.4386108765185414  0.4531982210612024
  0.3504189089063308  0.4305789722550779  0.5446616202256103
  0.0013074604511214  0.5009931950548346  0.1970949865750571
  0.3348045813531393  0.5634143776862920  0.2027826727487329
  0.1667765377273827  0.5633392265680197  0.2026421323725237
  0.2508521851187250  0.6260424886986666  0.2783995691349580
  0.0836480049004654  0.5633752301831565  0.2839758639559538
  0.4178136581598831  0.5636217058228288  0.2842087847162004
  0.0003928016514576  0.6255818333134828  0.3691215904198314
  0.3331854322481328  0.5636832325149935  0.3686392546986684
  0.1683756199785271  0.5633879013932033  0.3683405359849979
  0.2491318529409231  0.6260754564268297  0.4567726918934526
  0.0856116749310716  0.5635999296286633  0.4552741382410154
  0.4169881569500459  0.5635281310149446  0.4552646664075240
  0.0014056433730858  0.6258753569838102  0.1970772591206384
  0.3348075304954801  0.6887573330712122  0.2027062279259656
  0.1668059972713455  0.6886073834217147  0.2025943135242854
  0.2507763220510343  0.7511614843695908  0.2782079551765934
  0.0836768759209516  0.6884091218741376  0.2837888280398861
  0.4178103791280749  0.6885845060818639  0.2843444798240467
  0.0004686998335802  0.7508864161790009  0.3690000252226701
  0.3324869009697956  0.6886249141354757  0.3689081573571115
  0.1685403184338682  0.6883005029353820  0.3683636030998753
  0.2471181361671330  0.7491898469397058  0.4553474594732125
  0.0813239405614417  0.6876656422577386  0.4526497381419716
  0.4147417016972271  0.6893343495193609  0.4549837163465277
  0.1529348421107620  0.6790982026073323  0.5439149108540756
  0.0010343750650326  0.7509675273226948  0.1970340394542891
  0.3346323568645168  0.8133864640173679  0.2027069427337891
  0.1668155124059934  0.8133424731750614  0.2025799106079299
  0.2507647447179767  0.8758536647010492  0.2784450114047738
  0.0835181832915825  0.8134609632213865  0.2839000862069012
  0.4178477351966461  0.8135718541182748  0.2841297237241323
  0.0017551060862369  0.8758000293554880  0.3694382410970359
  0.3329679226442558  0.8137066847400669  0.3683675929861449
  0.1684760117418594  0.8134909895341721  0.3683955110261733
  0.2519628681141350  0.8765193299100706  0.4572120800031734
  0.0849082683326643  0.8125404675790908  0.4548063528171198
  0.4156191262021850  0.8143588535491678  0.4551799240468926
  0.9908852602243033  0.8658411305273246  0.5418565494704317
  0.0016300207978019  0.8760244031801123  0.1970602374471984
  0.3346389675930615  0.9386984075181598  0.2027643161193299
  0.1668272738513754  0.9386259928976570  0.2026791526141401
  0.2507831934604609  0.5010601877537404  0.2781866420462198
  0.0836920178949890  0.9383888700040109  0.2841732147206363
  0.4178098041936407  0.9386154502428601  0.2841090661173064
  0.0019111695637413  0.5005860709113272  0.3696166051821453
  0.3327856220935937  0.9386306897041510  0.3688220984391562
  0.1691179163049731  0.9384804073876476  0.3690718491932241
  0.2532882401826864  0.4991797384829916  0.4561319264578826
  0.0861976912325696  0.9381012709547707  0.4552617649341150
  0.4199663856016014  0.9386108765185412  0.4531982210612024
  0.3504189089063308  0.9305789722550780  0.5446616202256103
  0.5001591645500869  0.0011567388753522  0.1971714404805066
  0.8345432068992009  0.0635442938943148  0.2020614200427796
  0.6662453414748422  0.0635923629281909  0.2021068355225761
  0.7504750056108905  0.1259680684222591  0.2773981497646031
  0.5830265957890912  0.0635893986436403  0.2835447359022062
  0.9184058655530357  0.0633566589675790  0.2833389506142515
  0.5002143192318032  0.1261840569578173  0.3698387422211107
  0.8328710482543766  0.0633196838445630  0.3673485696216303
  0.6687528929560324  0.0637345761692207  0.3675371029439342
  0.7502965826388983  0.1257791266291311  0.4548386632216513
  0.5865693373421684  0.0633356004371131  0.4534441459372529
  0.9174251515521764  0.0627168961515085  0.4529291486827817
  0.5124016533086905  0.1321568955409461  0.5416996729912553
  0.4996748477807043  0.1260597228353286  0.1972738271482518
  0.8344344718891210  0.1883603526868246  0.2020465355845247
  0.6663750951333040  0.1883939276837335  0.2022233081728928
  0.7501730564467874  0.2507079099262918  0.2774330468235199
  0.5829043521984728  0.1885407359765614  0.2836251511263523
  0.9181839155114743  0.1884040564946439  0.2831378588204961
  0.5000827021985343  0.2510735162438995  0.3699465260941941
  0.8323783025644870  0.1882486424314096  0.3670889935481044
  0.6681671524446314  0.1887168671508526  0.3676789085018833
  0.7476538253895043  0.2522235340818011  0.4551267015185653
  0.5844579029761604  0.1892589503721921  0.4537653720113447
  0.9145732214004152  0.1886835539363404  0.4536906627059572
  0.4999545003051123  0.2510011894357296  0.1972314646761618
  0.8345236996677469  0.3136019068081412  0.2020593033152732
  0.6663404610008723  0.3134949072053889  0.2022484367217683
  0.7505173337201576  0.3759365098341017  0.2770578194062638
  0.5828489972519441  0.3134981672551166  0.2835797008987551
  0.9183594212411970  0.3134327658286133  0.2832265146717868
  0.5008129933218907  0.3758517555679171  0.3693975040084436
  0.8323187140847661  0.3133264096193614  0.3669427108606165
  0.6681204233717218  0.3135599286478583  0.3679093926232582
  0.7514733094905925  0.3754152239839683  0.4535708789411238
  0.5845990038553952  0.3145383746794949  0.4553064704672747
  0.9168221540190911  0.3124306093373797  0.4517773183509859
  0.8261292586560448  0.3142058058954555  0.5404416308887171
  0.4997366705953823  0.3760151028024675  0.1971365317032511
  0.8344691253923331  0.4383027934133663  0.2021423464082207
  0.6663864275824779  0.4383644598996282  0.2021335333691943
  0.7507337007637485  0.0010587015584505  0.2774432068176579
  0.5829602017215352  0.4385545752626422  0.2833243809185461
  0.9185001267852289  0.4384185647729464  0.2832681566202722
  0.5008276500539515  0.0015302589024193  0.3694031950532020
  0.8333278577615154  0.4383224224904483  0.3671296702298474
  0.6687250420421383  0.4385803327506916  0.3669648457847014
  0.7537658909297739  0.0006395557138629  0.4545736023197463
  0.5856779967780771  0.4390889267444948  0.4525529366963845
  0.9178449311297785  0.4374982238394109  0.4534731886599087
  0.6757172271086044  0.4355380736867625  0.5401289769581064
  0.5001591645500869  0.5011567388753522  0.1971714404805066
  0.8345432068992009  0.5635442938943209  0.2020614200427796
  0.6662453414748422  0.5635923629281906  0.2021068355225761
  0.7504750056108905  0.6259680684222598  0.2773981497646031
  0.5830265957890912  0.5635893986436409  0.2835447359022062
  0.9184058655530357  0.5633566589675794  0.2833389506142515
  0.5002143192318032  0.6261840569578176  0.3698387422211107
  0.8328710482543766  0.5633196838445631  0.3673485696216303
  0.6687528929560324  0.5637345761692141  0.3675371029439342
  0.7502965826388983  0.6257791266291313  0.4548386632216513
  0.5865693373421684  0.5633356004371134  0.4534441459372529
  0.9174251515521764  0.5627168961515081  0.4529291486827817
  0.5124016533086905  0.6321568955409462  0.5416996729912553
  0.4996748477807043  0.6260597228353355  0.1972738271482518
  0.8344344718891210  0.6883603526868252  0.2020465355845247
  0.6663750951333040  0.6883939276837402  0.2022233081728928
  0.7501730564467874  0.7507079099262913  0.2774330468235199
  0.5829043521984728  0.6885407359765614  0.2836251511263523
  0.9181839155114743  0.6884040564946442  0.2831378588204961
  0.5000827021985343  0.7510735162438994  0.3699465260941941
  0.8323783025644870  0.6882486424314097  0.3670889935481044
  0.6681671524446314  0.6887168671508521  0.3676789085018833
  0.7476538253895043  0.7522235340818001  0.4551267015185653
  0.5844579029761604  0.6892589503721920  0.4537653720113447
  0.9145732214004152  0.6886835539363405  0.4536906627059572
  0.4999545003051123  0.7510011894357295  0.1972314646761618
  0.8345236996677469  0.8136019068081405  0.2020593033152732
  0.6663404610008723  0.8134949072053883  0.2022484367217683
  0.7505173337201576  0.8759365098341018  0.2770578194062638
  0.5828489972519441  0.8134981672551160  0.2835797008987551
  0.9183594212411970  0.8134327658286138  0.2832265146717868
  0.5008129933218907  0.8758517555679169  0.3693975040084436
  0.8323187140847661  0.8133264096193612  0.3669427108606165
  0.6681204233717218  0.8135599286478585  0.3679093926232582
  0.7514733094905925  0.8754152239839684  0.4535708789411238
  0.5845990038553952  0.8145383746794945  0.4553064704672747
  0.9168221540190911  0.8124306093373798  0.4517773183509859
  0.8261292586560448  0.8142058058954552  0.5404416308887171
  0.4997366705953823  0.8760151028024671  0.1971365317032511
  0.8344691253923331  0.9383027934133659  0.2021423464082207
  0.6663864275824779  0.9383644598996271  0.2021335333691943
  0.7507337007637485  0.5010587015584506  0.2774432068176579
  0.5829602017215352  0.9385545752626414  0.2833243809185461
  0.9185001267852289  0.9384185647729461  0.2832681566202722
  0.5008276500539515  0.5015302589024194  0.3694031950532020
  0.8333278577615154  0.9383224224904485  0.3671296702298474
  0.6687250420421383  0.9385803327506920  0.3669648457847014
  0.7537658909297739  0.5006395557138629  0.4545736023197463
  0.5856779967780771  0.9390889267444950  0.4525529366963845
  0.9178449311297785  0.9374982238394111  0.4534731886599087
  0.6757172271086044  0.9355380736867620  0.5401289769581064
  0.4061374418178406  0.0011248655540378  0.2324172293926094
  0.2507842900715688  0.0010521165314132  0.1987081863436917
  0.0953260280194451  0.0008979764802778  0.2323666741081855
  0.1556347358934072  0.1258770938824190  0.3158690852598534
  0.0007971386620165  0.1259226759062400  0.3025555019910592
  0.3458914507343347  0.1260993827724567  0.3163092197368471
  0.4013487734174216  0.1260603321838868  0.4030175351776597
  0.2504842572213639  0.1255122540569133  0.3886917827968190
  0.0994166294808284  0.1252218112042720  0.4015750617793706
  0.1482656491318126  0.1283180914098311  0.4858345961656253
  0.9984809667885245  0.1243977362409184  0.4719692153491304
  0.3476713304955343  0.1269512434647318  0.4880578704255949
  0.4171076182051393  0.1129857727209767  0.5727510974912930
  0.2094076979890535  0.1114008321880157  0.5660946340368176
  0.0695033960765264  0.1305618277106098  0.5733787327982260
  0.4059234723718717  0.1261621251929855  0.2326545520780181
  0.2507787475704275  0.1260460959452680  0.2004465918239653
  0.0953735918845197  0.1258547564865325  0.2322437073792352
  0.1554278840064804  0.2509669487030929  0.3157714679631377
  0.0007546366878308  0.2508357332067909  0.3024712727712547
  0.3457709857772756  0.2509801434041102  0.3160634932061264
  0.4008416414509728  0.2517268772860556  0.4025916190206252
  0.2501860948238384  0.2512845206796547  0.3877347603993804
  0.0995330358774686  0.2509444982966065  0.4017882851101474
  0.1484187472456018  0.2459007313695237  0.4872344064527849
  0.9984785589183551  0.2503618891754453  0.4722795252132825
  0.3452022406539303  0.2521717828471509  0.4857975119407797
  0.3887322045635805  0.2527081913279380  0.5654185119413560
  0.2218071585852676  0.2491794738776476  0.5628879021786620
  0.0798462252550930  0.2411430447829726  0.5718510583507855
  0.4060644416235659  0.2510364412267460  0.2325227388181407
  0.2506886731826199  0.2509740784096416  0.1986783637634862
  0.0952407100092695  0.2510020397665575  0.2320892092990671
  0.1555300831692986  0.3760083004545249  0.3161854070830973
  0.0009289259829688  0.3759179473731071  0.3027706836828844
  0.3458124878394687  0.3762438731947270  0.3160546331128013
  0.4020844039299513  0.3758405908749263  0.4021433411733783
  0.2509387149269217  0.3756095135043024  0.3888046647650742
  0.1003381313628040  0.3755940709374879  0.4029597616818338
  0.1535505823895829  0.3763019471181375  0.4880118963363746
  0.0000210348503370  0.3742574253195727  0.4736038882160499
  0.3530947071255046  0.3786321547775523  0.4867101411078066
  0.4356923972660650  0.3878697963989349  0.5750798736026773
  0.2890471616288198  0.3644936054714806  0.5650068665120846
  0.0873128135448102  0.3606531269039843  0.5743592701599157
  0.4059113335254281  0.3760558925853351  0.2324750130445900
  0.2507303929339949  0.3760426105313613  0.2004520155107239
  0.0955543015091354  0.3759987254296818  0.2323923500583822
  0.1557688558496053  0.0008265360424550  0.3160543218493943
  0.0009959888696961  0.0008861704622692  0.3028813086815644
  0.3458692305222995  0.0011300681852973  0.3160825483949949
  0.4018750645927621  0.0016715450626543  0.4022823290247021
  0.2511141539594675  0.0013674415633649  0.3880786312256234
  0.1007743516035622  0.0011430290634314  0.4028622871751005
  0.1549787248884140  0.0016470459202900  0.4870653263332392
  0.0022055799961529  0.0003528363771796  0.4725650770638329
  0.3523557322840978  0.9970755329837337  0.4878411258845805
  0.4254033166713043  0.9943347797308146  0.5722122621736722
  0.2820664991100240 -0.0003653322624791  0.5650620486992578
  0.1059851215446384 -0.0007231084383066  0.5674722792123834
  0.4061374418178406  0.5011248655540381  0.2324172293926094
  0.2507842900715688  0.5010521165314130  0.1987081863436917
  0.0953260280194451  0.5008979764802776  0.2323666741081855
  0.1556347358934072  0.6258770938824195  0.3158690852598534
  0.0007971386620165  0.6259226759062397  0.3025555019910592
  0.3458914507343347  0.6260993827724566  0.3163092197368471
  0.4013487734174216  0.6260603321838868  0.4030175351776597
  0.2504842572213639  0.6255122540569129  0.3886917827968190
  0.0994166294808284  0.6252218112042721  0.4015750617793706
  0.1482656491318126  0.6283180914098304  0.4858345961656253
  0.9984809667885245  0.6243977362409185  0.4719692153491304
  0.3476713304955343  0.6269512434647314  0.4880578704255949
  0.4171076182051393  0.6129857727209769  0.5727510974912930
  0.2094076979890535  0.6114008321880157  0.5660946340368176
  0.0695033960765264  0.6305618277106095  0.5733787327982260
  0.4059234723718717  0.6261621251929858  0.2326545520780181
  0.2507787475704275  0.6260460959452679  0.2004465918239653
  0.0953735918845197  0.6258547564865325  0.2322437073792352
  0.1554278840064804  0.7509669487030929  0.3157714679631377
  0.0007546366878308  0.7508357332067979  0.3024712727712547
  0.3457709857772756  0.7509801434041102  0.3160634932061264
  0.4008416414509728  0.7517268772860558  0.4025916190206252
  0.2501860948238384  0.7512845206796547  0.3877347603993804
  0.0995330358774686  0.7509444982966063  0.4017882851101474
  0.1484187472456018  0.7459007313695241  0.4872344064527849
  0.9984785589183551  0.7503618891754382  0.4722795252132825
  0.3452022406539303  0.7521717828471582  0.4857975119407797
  0.3887322045635805  0.7527081913279379  0.5654185119413560
  0.2218071585852676  0.7491794738776469  0.5628879021786620
  0.0798462252550930  0.7411430447829799  0.5718510583507855
  0.4060644416235659  0.7510364412267463  0.2325227388181407
  0.2506886731826199  0.7509740784096423  0.1986783637634862
  0.0952407100092695  0.7510020397665577  0.2320892092990671
  0.1555300831692986  0.8760083004545244  0.3161854070830973
  0.0009289259829688  0.8759179473731074  0.3027706836828844
  0.3458124878394687  0.8762438731947264  0.3160546331128013
  0.4020844039299513  0.8758405908749264  0.4021433411733783
  0.2509387149269217  0.8756095135043026  0.3888046647650742
  0.1003381313628040  0.8755940709374878  0.4029597616818338
  0.1535505823895829  0.8763019471181379  0.4880118963363746
  0.0000210348503370  0.8742574253195722  0.4736038882160499
  0.3530947071255046  0.8786321547775519  0.4867101411078066
  0.4356923972660650  0.8878697963989357  0.5750798736026773
  0.2890471616288198  0.8644936054714801  0.5650068665120846
  0.0873128135448102  0.8606531269039840  0.5743592701599157
  0.4059113335254281  0.8760558925853348  0.2324750130445900
  0.2507303929339949  0.8760426105313609  0.2004520155107239
  0.0955543015091354  0.8759987254296814  0.2323923500583822
  0.1557688558496053  0.5008265360424551  0.3160543218493943
  0.0009959888696961  0.5008861704622688  0.3028813086815644
  0.3458692305222995  0.5011300681852974  0.3160825483949949
  0.4018750645927621  0.5016715450626543  0.4022823290247021
  0.2511141539594675  0.5013674415633652  0.3880786312256234
  0.1007743516035622  0.5011430290634317  0.4028622871751005
  0.1549787248884140  0.5016470459202904  0.4870653263332392
  0.0022055799961529  0.5003528363771800  0.4725650770638329
  0.3523557322840978  0.4970755329837339  0.4878411258845805
  0.4254033166713043  0.4943347797308146  0.5722122621736722
  0.2820664991100240  0.4996346677375209  0.5650620486992578
  0.1059851215446384  0.4992768915616864  0.5674722792123834
  0.9065431194719059  0.0009511493489358  0.2315080614243065
  0.7504065851927295  0.0010474444194546  0.1995662989341992
  0.5946973194407411  0.0011281697607717  0.2317203787248292
  0.6552059758410034  0.1260466864039919  0.3150601846171376
  0.5004977597760921  0.1261199207326597  0.3031516628654419
  0.8459094355395690  0.1257770201732432  0.3148105565042116
  0.9011720823286050  0.1256826545895436  0.4011544009070321
  0.7506329869220254  0.1259736740815865  0.3868046564390567
  0.5998552134536306  0.1265052556218703  0.4015713318369530
  0.6523478413775130  0.1259404706657032  0.4853542667932160
  0.5016310418565239  0.1272325344041737  0.4740705952844615
  0.8497168898408716  0.1249117265789984  0.4846682454568857
  0.9027183308635497  0.1053850162063364  0.5672702987099928
  0.7722718100784925  0.1374867553750238  0.5571732301329688
  0.6140940526974075  0.1406146073908008  0.5675756200913559
  0.9065036120991821  0.1258452415083454  0.2314281613268790
  0.7504116176397144  0.1259067549278168  0.1982016357801862
  0.5944879251876996  0.1260651199443157  0.2317376786999791
  0.6549923806896017  0.2511371042396743  0.3152775574346719
  0.5004630585030992  0.2510598907869760  0.3031888445857551
  0.8457971858707548  0.2508865770432456  0.3147238720592407
  0.9006563165719184  0.2504505038873561  0.4005138416849616
  0.7502580072100676  0.2508561068739910  0.3869349742813936
  0.5992753712275324  0.2515217222991228  0.4023243268931743
  0.6484493766701188  0.2509130241170540  0.4874387021618724
  0.4985000398089213  0.2518968472802270  0.4735813313040736
  0.8465318011803780  0.2542120702464896  0.4847736792497392
  0.8970854762065480  0.2478851280829354  0.5669190245272905
  0.7280367539561436  0.2614467524397051  0.5569548954202053
  0.5628840625914155  0.2610488083403921  0.5810722660318015
  0.9063370118375484  0.2509661376953800  0.2314450665664317
  0.7504539896971197  0.2509563453693755  0.1993173258815764
  0.5945319924363941  0.2509793276169919  0.2318466106405357
  0.6552570786530416  0.3758846062901958  0.3149041324210703
  0.5005209431997408  0.3761149809765858  0.3028206588794816
  0.8459894802105588  0.3758569367554287  0.3146601050699094
  0.9019666551888772  0.3758826889093265  0.4008421375980286
  0.7508749014260256  0.3761711564194586  0.3859361909251685
  0.6002381719793478  0.3759623468182279  0.4012476551234565
  0.6536272511131369  0.3793547503920073  0.4846639076577091
  0.5025573823727619  0.3769463059579702  0.4728870972479368
  0.8497168824190965  0.3728046082085124  0.4851369976799856
  0.8955751251389291  0.3695888966183480  0.5714487742487453
  0.7571622408013960  0.3818114435582798  0.5559645899714156
  0.6049047486429572  0.3761166572563746  0.5689820664855788
  0.9067333028605259  0.3759844436959390  0.2313964579751173
  0.7503837755867212  0.3759246051444398  0.1980143606679763
  0.5944407184050081  0.3759335502375421  0.2316533513974350
  0.6554052259342555  0.0012023098856820  0.3149218626653165
  0.5006083603015550  0.0011215981390070  0.3028334437326269
  0.8462370860469688  0.0009253175017041  0.3148622357933313
  0.9022088370977204  0.0004998734859703  0.4012573349371293
  0.7511994215486993  0.0008630534677795  0.3866744061587193
  0.6007078287800736  0.0013733575632203  0.4009473016151792
  0.6553102887736956  0.9989614648846520  0.4859510493798862
  0.5029393915609797  0.0017828991166593  0.4726693299911701
  0.8519240816048289  0.0009617541518909  0.4859585638428530
  0.9257761926628444  0.9825777207638600  0.5694561019586174
  0.7664022617919559  0.9964879694602060  0.5567620879037853
  0.6045552290249691  0.9975102877517867  0.5690722571956991
  0.9065431194719059  0.5009511493489356  0.2315080614243065
  0.7504065851927295  0.5010474444194543  0.1995662989341992
  0.5946973194407411  0.5011281697607717  0.2317203787248292
  0.6552059758410034  0.6260466864039921  0.3150601846171376
  0.5004977597760921  0.6261199207326594  0.3031516628654419
  0.8459094355395690  0.6257770201732438  0.3148105565042116
  0.9011720823286050  0.6256826545895440  0.4011544009070321
  0.7506329869220254  0.6259736740815863  0.3868046564390567
  0.5998552134536306  0.6265052556218706  0.4015713318369530
  0.6523478413775130  0.6259404706657039  0.4853542667932160
  0.5016310418565239  0.6272325344041740  0.4740705952844615
  0.8497168898408716  0.6249117265789983  0.4846682454568857
  0.9027183308635497  0.6053850162063368  0.5672702987099928
  0.7722718100784925  0.6374867553750236  0.5571732301329688
  0.6140940526974075  0.6406146073908002  0.5675756200913559
  0.9065036120991821  0.6258452415083454  0.2314281613268790
  0.7504116176397144  0.6259067549278163  0.1982016357801862
  0.5944879251876996  0.6260651199443160  0.2317376786999791
  0.6549923806896017  0.7511371042396746  0.3152775574346719
  0.5004630585030992  0.7510598907869764  0.3031888445857551
  0.8457971858707548  0.7508865770432454  0.3147238720592407
  0.9006563165719184  0.7504505038873570  0.4005138416849616
  0.7502580072100676  0.7508561068739915  0.3869349742813936
  0.5992753712275324  0.7515217222991298  0.4023243268931743
  0.6484493766701188  0.7509130241170542  0.4874387021618724
  0.4985000398089213  0.7518968472802198  0.4735813313040736
  0.8465318011803780  0.7542120702464895  0.4847736792497392
  0.8970854762065480  0.7478851280829355  0.5669190245272905
  0.7280367539561436  0.7614467524397047  0.5569548954202053
  0.5628840625914155  0.7610488083403922  0.5810722660318015
  0.9063370118375484  0.7509661376953798  0.2314450665664317
  0.7504539896971197  0.7509563453693755  0.1993173258815764
  0.5945319924363941  0.7509793276169914  0.2318466106405357
  0.6552570786530416  0.8758846062901955  0.3149041324210703
  0.5005209431997408  0.8761149809765855  0.3028206588794816
  0.8459894802105588  0.8758569367554285  0.3146601050699094
  0.9019666551888772  0.8758826889093267  0.4008421375980286
  0.7508749014260256  0.8761711564194589  0.3859361909251685
  0.6002381719793478  0.8759623468182277  0.4012476551234565
  0.6536272511131369  0.8793547503920074  0.4846639076577091
  0.5025573823727619  0.8769463059579696  0.4728870972479368
  0.8497168824190965  0.8728046082085127  0.4851369976799856
  0.8955751251389291  0.8695888966183480  0.5714487742487453
  0.7571622408013960  0.8818114435582800  0.5559645899714156
  0.6049047486429572  0.8761166572563747  0.5689820664855788
  0.9067333028605259  0.8759844436959383  0.2313964579751173
  0.7503837755867212  0.8759246051444399  0.1980143606679763
  0.5944407184050081  0.8759335502375425  0.2316533513974350
  0.6554052259342555  0.5012023098856815  0.3149218626653165
  0.5006083603015550  0.5011215981390077  0.3028334437326269
  0.8462370860469688  0.5009253175017043  0.3148622357933313
  0.9022088370977204  0.5004998734859708  0.4012573349371293
  0.7511994215486993  0.5008630534677796  0.3866744061587193
  0.6007078287800736  0.5013733575632208  0.4009473016151792
  0.6553102887736956  0.4989614648846519  0.4859510493798862
  0.5029393915609797  0.5017828991166594  0.4726693299911701
  0.8519240816048289  0.5009617541518905  0.4859585638428530
  0.9257761926628444  0.4825777207638600  0.5694561019586174
  0.7664022617919559  0.4964879694602063  0.5567620879037853
  0.6045552290249691  0.4975102877517868  0.5690722571956991
  0.9961401501353643  0.1154217253365944  0.5394421613938631
  0.3623182991204599  0.0538862040101683  0.5418229992548095
  0.2022741695815679  0.0400140677476608  0.5431272201493784
  0.9956808947355912  0.2534922045223379  0.5393870581291459
  0.3769029616732947  0.1784578655539347  0.5420401528076609
  0.2982668571883315  0.2939711266882374  0.5411642348667904
  0.1406203250671478  0.3019297072334414  0.5415597161722500
  0.0057724203570793  0.9970903746022591  0.5404714179916318
  0.1209027645906304  0.4272227830406871  0.5434556934569653
  0.9961401501353643  0.6154217253365947  0.5394421613938631
  0.3623182991204599  0.5538862040101684  0.5418229992548095
  0.2022741695815679  0.5400140677476607  0.5431272201493784
  0.9956808947355912  0.7534922045223381  0.5393870581291459
  0.3769029616732947  0.6784578655539345  0.5420401528076609
  0.2982668571883315  0.7939711266882371  0.5411642348667904
  0.1406203250671478  0.8019297072334411  0.5415597161722500
  0.0057724203570793  0.4970903746022592  0.5404714179916318
  0.1209027645906304  0.9272227830406862  0.5434556934569653
  0.8070222487768348  0.0652559120909006  0.5373019875376247
  0.6266860236366363  0.0673580342915580  0.5395820806575543
  0.4878728476369293  0.2517229116509970  0.5417899641755988
  0.8732034686033059  0.1762301413801795  0.5420709871065950
  0.6999287653376454  0.1875261257606690  0.5382081732810174
  0.5117131213778242  0.3822805609324678  0.5403555988888027
  0.6264864880637219  0.2993856585997456  0.5467632791295616
  0.5092630736032413  0.9977824962329019  0.5399525296786278
  0.8457521736074537  0.4362519068721156  0.5364236446481243
  0.8070222487768348  0.5652559120909001  0.5373019875376247
  0.6266860236366363  0.5673580342915582  0.5395820806575543
  0.4878728476369293  0.7517229116509969  0.5417899641755988
  0.8732034686033059  0.6762301413801869  0.5420709871065950
  0.6999287653376454  0.6875261257606685  0.5382081732810174
  0.5117131213778242  0.8822805609324677  0.5403555988888027
  0.6264864880637219  0.7993856585997460  0.5467632791295616
  0.5092630736032413  0.4977824962328948  0.5399525296786278
  0.8457521736074537  0.9362519068721155  0.5364236446481243
 
  0.00000000E+00  0.00000000E+00  0.00000000E+00
  0.00000000E+00  0.00000000E+00  0.00000000E+00
  0.00000000E+00  0.00000000E+00  0.00000000E+00
  0.00000000E+00  0.00000000E+00  0.00000000E+00
  0.00000000E+00  0.00000000E+00  0.00000000E+00
  0.00000000E+00  0.00000000E+00  0.00000000E+00
  0.00000000E+00  0.00000000E+00  0.00000000E+00
  0.00000000E+00  0.00000000E+00  0.00000000E+00