Ta N Cu Ru                              
   1.00000000000000     
    18.1096308199999996    0.0000000000000000    0.0000000000000000
     0.0000000000000000   11.6775998899999998    0.0000000000000000
     0.0000000000000000    0.0000000000000000   23.4818170799999990
   Ta   N    Cu   Ru
   119   120     2     1
Direct
  0.9996350937051404  0.9997880408530663  0.2550265212204729
  0.3334475628272175  0.1249426700470227  0.2640481888007147
  0.1665838582892763  0.1249894844313356  0.2638867998758869
  0.2496732228354061  0.2499996840418467  0.3614412803718449
  0.0820416657597993  0.1249617100907819  0.3683086307378167
  0.4171751535048340  0.1249865576474173  0.3688256576285067
  0.9995593289859368  0.2500539121005734  0.4799624898934050
  0.3320295393549380  0.1249538619252845  0.4785111109769316
  0.1676396762680978  0.1249320063912295  0.4778809218877249
  0.2495046728131538  0.2499326090082458  0.5909882529082117
  0.0832622717486708  0.1248762718954158  0.5895704461391416
  0.4158851357736917  0.1258290803944963  0.5898679655251984
  0.9994983013092884  0.2499455179003127  0.7017510585830670
  0.3327924573739909  0.1236266540571429  0.7041209358336179
  0.1634223932732980  0.1249260235591480  0.7038320297056762
  0.9996023854739288  0.2499188917691031  0.2550610653230736
  0.3334264821764543  0.3749572988156875  0.2640258874090913
  0.1665987789320054  0.3748115118292925  0.2638845252831069
  0.2497512413345729  0.4998527078645699  0.3614882628507034
  0.0820156881165042  0.3749271901999862  0.3682891977691815
  0.4171601110958211  0.3750580570852277  0.3687903429260705
  0.9995534658842872  0.5000517887236611  0.4798803347770087
  0.3320889807323116  0.3751588274798882  0.4784742986755141
  0.1676449747060237  0.3750008110549440  0.4778026510598964
  0.2499406606504736  0.4994201318687949  0.5912431469693860
  0.0831654853540071  0.3750154069285341  0.5895713433557460
  0.4157826658740196  0.3744894870382237  0.5896882898279422
  0.9994927027761557  0.5001927658643986  0.7018139455724397
  0.3308613865858166  0.3742792429252727  0.7018687139667013
  0.1630105061859690  0.3748210699182623  0.7039071837065046
  0.9996472434209893  0.4999103141101338  0.2550709246588987
  0.3335901745315774  0.6250676524147976  0.2640182589063285
  0.1663322001062798  0.6249769727822702  0.2639188025621378
  0.2498584242246754  0.7499534321627062  0.3614934155950902
  0.0821241644995031  0.6249339918522396  0.3683836852010472
  0.4171509417912045  0.6250605844308980  0.3688594647137919
  0.9995468667562832  0.7500372917150609  0.4798115873012344
  0.3321423796744216  0.6250816137858047  0.4786009292110837
  0.1673801546323357  0.6249920434541857  0.4780802928592096
  0.2498063706669813  0.7501009406880004  0.5912031203616298
  0.0833977932821726  0.6250427375997930  0.5896379606928068
  0.4162726322317502  0.6252979523090624  0.5906443917879296
  0.9994851502260372  0.7499414833604683  0.7019313798806410
  0.3338602045188000  0.6269050712917308  0.7046423819696999
  0.1637175804959143  0.6246436332213753  0.7039436977984935
  0.9996020143938403  0.7500245247469340  0.2549892659228536
  0.3336001936138360  0.8748787497857823  0.2640449696933017
  0.1663083955036307  0.8748704766495138  0.2639116893333069
  0.2497582156312153  0.9999925542088122  0.3614956091750728
  0.0821127642370036  0.8749164978019480  0.3684094582012790
  0.4171404115344203  0.8749671953838123  0.3688809893554886
  0.9995525936887957  0.9999192318854012  0.4798444399398098
  0.3322070612833600  0.8750114820238420  0.4785954530422749
  0.1674049350728225  0.8749083896041817  0.4780304804991206
  0.2498477326043752  0.0003494809641060  0.5911382033752661
  0.0833436415239060  0.8749266299900613  0.5896983880111425
  0.4161379722364394  0.8753569295044817  0.5905811825695302
  0.9995232194811504  0.9999933381417074  0.7018709202819317
  0.3352291464821401  0.8750186721066489  0.7045331986438041
  0.1640694726034549  0.8749360866051474  0.7040417348698128
  0.4996077276406868  0.9998803825447617  0.2551810269366452
  0.8327973873248418  0.1249959460775107  0.2638362206070383
  0.6659477910218700  0.1248802447881731  0.2640654679717129
  0.7496059022703450  0.2501035716532919  0.3614432178110623
  0.5821038842916523  0.1250211746827536  0.3688137233467241
  0.9171390401304351  0.1250109061829681  0.3683154899481959
  0.4996013372553442  0.2501051336416491  0.4800387372080348
  0.8316408556799784  0.1250951258358842  0.4779322576757835
  0.6672620789784848  0.1250972090701622  0.4785218483261070
  0.7497385711239473  0.2501279446428287  0.5910450681231193
  0.5833041384119244  0.1258471904861038  0.5898368734699584
  0.9159280190168962  0.1250129135911867  0.5896594898127587
  0.8356762248704241  0.1254400951522694  0.7039015645875145
  0.6663676185064736  0.1237503474677659  0.7040864580396418
  0.4996539643959511  0.2499900108012969  0.2551433285116901
  0.8327934095094813  0.3749466696606110  0.2638411194610706
  0.6659842125437679  0.3750746308762498  0.2640502674446227
  0.7495131478003748  0.4999582693095453  0.3614713909426890
  0.5821188248292869  0.3750840543765564  0.3687812476313873
  0.9171562874824972  0.3749944556319747  0.3683018742632928
  0.4996117137217309  0.5003153019792248  0.4802485129265241
  0.8316330135642539  0.3751639205403625  0.4778616708083896
  0.6671867595795911  0.3753054868537882  0.4784966616221812
  0.7492889517021550  0.4995987975673368  0.5912897847943465
  0.5834094569735450  0.3745465445589065  0.5897019485536176
  0.9160029447722952  0.3751702006478521  0.5896640340901385
  0.4994731041497911  0.4996382749158882  0.7031468434764977
  0.8360417100372437  0.3753436461243824  0.7039917324971697
  0.6681744736859929  0.3744329860924209  0.7019164618013629
  0.4996171819089799  0.5000820984743659  0.2551892197628884
  0.8330313824120894  0.6249561488391870  0.2638644110273052
  0.6658089272402712  0.6250348434727346  0.2640339543543277
  0.7494277630848145  0.7500575391740623  0.3614922712664356
  0.5821385528999249  0.6250840147814478  0.3688599964237128
  0.9170554853274308  0.6249904070636525  0.3683860744444465
  0.4996220132886152  0.7501584823180595  0.4804861884980767
  0.8318616061836315  0.6251476179149817  0.4781187544387914
  0.6671550535360877  0.6252127296479653  0.4786268014020940
  0.7494716896118754  0.7503097772239243  0.5912304347343691
  0.5829517247741081  0.6253780921350163  0.5906712657747090
  0.9157434260392440  0.6252050900873101  0.5897282078775811
  0.4995134574327697  0.7499087788344899  0.7030407939882877
  0.8352549837505363  0.6251148440622318  0.7040600688105427
  0.6651865718058496  0.6270677827616528  0.7047256608757462
  0.4996645473197424  0.7499955172457778  0.2552015353243748
  0.8330465983140392  0.8749813485764091  0.2638519506060106
  0.6658110087324489  0.8749962073874963  0.2640487440174304
  0.7495091441502907  0.0000944516074193  0.3614618346003434
  0.5821280461575953  0.8750122751000908  0.3688587147649622
  0.9170690847662414  0.8749718975260492  0.3684085767328016
  0.4996035561876722  0.0000912270295954  0.4802625466657599
  0.8318331153517611  0.8750799098737400  0.4780674138664342
  0.6670673859596565  0.8751253777242918  0.4786066137096875
  0.7494352015861023  0.0005402775287906  0.5911399409820810
  0.5830845500087209  0.8754177239120058  0.5905831023098760
  0.9158147218616931  0.8750884449469560  0.5897863531380531
  0.4994608361433211  0.0122233260447856  0.7044245436732414
  0.8349460378675251  0.8754283017161699  0.7041725203455472
  0.6637477055115475  0.8751382596383689  0.7045833789447410
  0.4065681562029095  0.9999020173216808  0.3016958752340528
  0.2499780273342856  0.9998120022058183  0.2581553411277204
  0.0929668611645753  0.9999809271796818  0.3011481848244477
  0.1540816207688196  0.2499678716771681  0.4098815420469633
  0.9995853863077758  0.2499543239896886  0.3931727762649265
  0.3452677097202250  0.2500438612781774  0.4102379951766398
  0.4005795122525910  0.2500659474995471  0.5223124468771962
  0.2496126571744484  0.2500755510120786  0.5028801279622879
  0.0986481173014815  0.2499932715856696  0.5217424164720971
  0.1510212335751629  0.2497931599908643  0.6330554624128679
  0.9995869600102435  0.2499868392136715  0.6130776586401308
  0.3478638820132065  0.2493612636995009  0.6334635987587275
  0.3990436806494541  0.2454885335473774  0.7411472520550908
  0.2482440313823628  0.2502132223942211  0.7242985880055480
  0.0956726741315020  0.2496989775454021  0.7404155055388053
  0.4065705488216061  0.2499842777222550  0.3015955546296454
  0.2500651437825032  0.2499160822150016  0.2576921974914653
  0.0929270930891364  0.2499012624318545  0.3011205596156061
  0.1541157102167159  0.4999541173588151  0.4099309473423885
  0.9995904324174887  0.5000186163617171  0.3931498609755644
  0.3452349318439443  0.5000379753314490  0.4103362108380734
  0.4007957703865636  0.5002146234452682  0.5226150000041060
  0.2497192660068400  0.5001493716122352  0.5031395234400020
  0.0986526145654235  0.4998672153353327  0.5217847275044826
  0.1512658402821050  0.5001330075308651  0.6329752999861441
  0.9995811888964918  0.5002552168624054  0.6131771755671311
  0.3486221156867493  0.5000342741950090  0.6339422709731832
  0.4012451756994126  0.4992453727662566  0.7426160675314633
  0.2486774694027773  0.4993782629619373  0.7240243170563848
  0.0958932247451636  0.4999445289889654  0.7403471713517479
  0.4065493428698299  0.5000755943105559  0.3016606569874775
  0.2499782758303509  0.5000604652519841  0.2580820556876929
  0.0930112251856027  0.4998284841710481  0.3011339194608303
  0.1541996123986135  0.7499266351673972  0.4099401814178592
  0.9995847742500822  0.7499378935362656  0.3931254163822935
  0.3452486369932736  0.7499950879827157  0.4104073246821888
  0.4007137979745497  0.7501180629804967  0.5226677173806198
  0.2497078137458855  0.7500169100117727  0.5030664949062754
  0.0986410452760528  0.7500278750918599  0.5218992824025375
  0.1514763451505100  0.7500215736318432  0.6330585667822242
  0.9995796001450366  0.7499910579299681  0.6132673309610893
  0.3478998285940080  0.7499365415297732  0.6337919241445802
  0.4023671375388206  0.7502436032923704  0.7411241819899802
  0.2497746699670198  0.7491760302749703  0.7239692786633058
  0.0962800867918988  0.7501049202890908  0.7402059728588130
  0.4066273513778770  0.7499899824841447  0.3017343498101433
  0.2499271401278577  0.7499411220468198  0.2581446587987508
  0.0929413133898024  0.7499340153621074  0.3011841213101833
  0.1541179202644171  0.9999048729094556  0.4099166970147514
  0.9995890561351397  0.9999571235652146  0.3931308103982954
  0.3452417361768290  0.9999852964405932  0.4103594123618908
  0.4007628350198736  0.0002792305535960  0.5227340998331365
  0.2496687196328555  0.9997460890518667  0.5030494411977698
  0.0986378104862519  0.9999595145513906  0.5218164428689143
  0.1513654223071164  0.9997027868118692  0.6330227411645165
  0.9995904587991324  0.9999374389727910  0.6132208715941417
  0.3482982989028494  0.0006460503314191  0.6337451490171142
  0.4022199704888273  0.0016090327705167  0.7411903809705114
  0.2492500219330620  0.0003908543163666  0.7241210091290476
  0.0961530397457581  0.9998048783794922  0.7402211456299027
  0.9063156147292378  0.0000363976326581  0.3011554976673749
  0.7494286156358783  0.9998666183609413  0.2578410577651070
  0.5927163131404255  0.9999453734931674  0.3016538736225498
  0.6540310097084729  0.2501454336800716  0.4102395599272983
  0.4996495398179011  0.2500893506120029  0.3934245933235365
  0.8451311923643107  0.2500876165557305  0.4099115197628413
  0.9005227270576863  0.2501557133678292  0.5218220893418473
  0.7496508793686860  0.2502429957467376  0.5029268654647776
  0.5986324934571629  0.2501544233045823  0.5222994940339821
  0.6513142991191631  0.2495193983980703  0.6334481106323138
  0.4995705978827743  0.2503370465052979  0.6141487730323488
  0.8481707909603342  0.2501051752051041  0.6331633808261632
  0.9033719060931870  0.2501793094215681  0.7405375946857644
  0.7508023800430331  0.2505331590834022  0.7243590648736280
  0.5998090813584883  0.2454895748125522  0.7409392841295507
  0.9063238027538321  0.2499590969775144  0.3011478510040109
  0.7493255424264079  0.2499606669172498  0.2577165728806449
  0.5927851145716287  0.2500104457750681  0.3015670703345077
  0.6540583435882527  0.5001394963844412  0.4103469786458042
  0.4996457292983306  0.5001153239248018  0.3935897950034332
  0.8450955538158057  0.5000706510280809  0.4099614210081380
  0.9005066883938110  0.5000254062763060  0.5218701361350239
  0.7495386097278126  0.5003038524630256  0.5031804084061011
  0.5984351948572012  0.5003163811129097  0.5226260845796048
  0.6505848833729643  0.5001204985251061  0.6339851337179268
  0.4995883837154743  0.4989795896055514  0.6148504563182933
  0.8478966222120705  0.5004286762977224  0.6330889228296627
  0.9031390839410232  0.5004508828001955  0.7404614215987055
  0.7503351496286834  0.4997001315856955  0.7241523959300848
  0.5976904673350388  0.4991845501420696  0.7425926051280766
  0.9062931218287579  0.4998932867470020  0.3011484133092318
  0.7494199573345597  0.5001239025089779  0.2578072260940020
  0.5927475258299162  0.5000978280109459  0.3016313115671228
  0.6540467081789730  0.7500858898283931  0.4104077263488915
  0.4996501768018695  0.7500211054031545  0.3937133842004474
  0.8450230345552968  0.7500447874440512  0.4099671100067253
  0.9005095660829237  0.7501985316192072  0.5219808964352051
  0.7495424023910784  0.7501840246477393  0.5031030599059398
  0.5985299094442367  0.7502172390970356  0.5226829167411511
  0.6513077842025239  0.7500482819902770  0.6338250078561870
  0.4996076041976153  0.7509220008232849  0.6143827043217174
  0.8476859324289561  0.7503493673359185  0.6331763928324249
  0.9027516552173913  0.7505762292591948  0.7403258402577969
  0.7492425495327831  0.7495521494600818  0.7241050391433940
  0.5965987201029909  0.7503992266897374  0.7411744942842755
  0.9062962243334104  0.7499875242950028  0.3012012681889995
  0.7494736235519102  0.7499835729381321  0.2581613292752630
  0.5927399291541607  0.7500187426610632  0.3017197836543425
  0.6540489315956864  0.0000875064284476  0.4103524737089795
  0.4996386748533101  0.9999730620744963  0.3935935261579104
  0.8450991448026257  0.0000322694569062  0.4099353482549616
  0.9005230161138439  0.0001056267707112  0.5218910006161217
  0.7495805936095260  0.9999123833865405  0.5030636610876126
  0.5984588681269079  0.0003326541979959  0.5227224135772041
  0.6509438261985331  0.0007350188356498  0.6337131300151891
  0.4996027672082727  0.0021243220932665  0.6153750906070521
  0.8478276593228896  0.9999929200992430  0.6331193098686670
  0.9029410517828449  0.0002753677866723  0.7403120826458822
  0.7498212561093613  0.0007056419941923  0.7242080877541084
  0.5967521450863570  0.0018238077327172  0.7410896981549235
  0.4321489548380884  0.3671145065735815  0.7882470519639756
  0.5665237173554919  0.3668132130389592  0.7880583373267643
  0.4993288246598440  0.2460168024476664  0.7000144256441171
 
  0.00000000E+00  0.00000000E+00  0.00000000E+00
  0.00000000E+00  0.00000000E+00  0.00000000E+00
  0.00000000E+00  0.00000000E+00  0.00000000E+00
  0.00000000E+00  0.00000000E+00  0.00000000E+00
  0.00000000E+00  0.00000000E+00  0.00000000E+00
  0.00000000E+00  0.00000000E+00  0.00000000E+00
  0.00000000E+00  0.00000000E+00  0.00000000E+00
  0.00000000E+00  0.00000000E+00  0.00000000E+00
  0.00000000E+00  0.00000000E+00  0.00000000E+00
  0.00000000E+00  0.00000000E+00  0.00000000E+00
  0.00000000E+00  0.00000000E+00  0.00000000E+00
  0.00000000E+00  0.00000000E+00  0.00000000E+00
  0.00000000E+00  0.00000000E+00  0.00000000E+00
  0.00000000E+00  0.00000000E+00  0.00000000E+00
  0.00000000E+00  0.00000000E+00  0.00000000E+00
  0.00000000E+00  0.00000000E+00  0.00000000E+00
  0.00000000E+00  0.00000000E+00  0.00000000E+00
  0.00000000E+00  0.00000000E+00  0.00000000E+00
  0.00000000E+00  0.00000000E+00  0.00000000E+00
  0.00000000E+00  0.00000000E+00  0.00000000E+00
  0.00000000E+00  0.00000000E+00  0.00000000E+00
  0.00000000E+00  0.00000000E+00  0.00000000E+00
  0.00000000E+00  0.00000000E+00  0.00000000E+00
  0.00000000E+00  0.00000000E+00  0.00000000E+00
  0.00000000E+00  0.00000000E+00  0.00000000E+00
  0.00000000E+00  0.00000000E+00  0.00000000E+00
  0.00000000E+00  0.00000000E+00  0.00000000E+00
  0.00000000E+00  0.00000000E+00  0.00000000E+00
  0.00000000E+00  0.00000000E+00  0.00000000E+00
  0.00000000E+00  0.00000000E+00  0.00000000E+00
  0.00000000E+00  0.00000000E+00  0.00000000E+00
  0.00000000E+00  0.00000000E+00  0.00000000E+00
  0.00000000E+00  0.00000000E+00  0.00000000E+00
  0.00000000E+00  0.00000000E+00  0.00000000E+00
  0.00000000E+00  0.00000000E+00  0.00000000E+00
  0.00000000E+00  0.00000000E+00  0.00000000E+00
  0.00000000E+00  0.00000000E+00  0.00000000E+00
  0.00000000E+00  0.00000000E+00  0.00000000E+00
  0.00000000E+00  0.00000000E+00  0.00000000E+00
  0.00000000E+00  0.00000000E+00  0.00000000E+00
  0.00000000E+00  0.00000000E+00  0.00000000E+00
  0.00000000E+00  0.00000000E+00  0.00000000E+00
  0.00000000E+00  0.00000000E+00  0.00000000E+00
  0.00000000E+00  0.00000000E+00  0.00000000E+00
  0.00000000E+00  0.00000000E+00  0.00000000E+00
  0.00000000E+00  0.00000000E+00  0.00000000E+00
  0.00000000E+00  0.00000000E+00  0.00000000E+00
  0.00000000E+00  0.00000000E+00  0.00000000E+00
  0.00000000E+00  0.00000000E+00  0.00000000E+00
  0.00000000E+00  0.00000000E+00  0.00000000E+00
  0.00000000E+00  0.00000000E+00  0.00000000E+00
  0.00000000E+00  0.00000000E+00  0.00000000E+00
  0.00000000E+00  0.00000000E+00  0.00000000E+00
  0.00000000E+00  0.00000000E+00  0.00000000E+00
  0.00000000E+00  0.00000000E+00  0.00000000E+00
  0.00000000E+00  0.00000000E+00  0.00000000E+00
  0.00000000E+00  0.00000000E+00  0.00000000E+00
  0.00000000E+00  0.00000000E+00  0.00000000E+00
  0.00000000E+00  0.00000000E+00  0.00000000E+00
  0.00000000E+00  0.00000000E+00  0.00000000E+00
  0.00000000E+00  0.00000000E+00  0.00000000E+00
  0.00000000E+00  0.00000000E+00  0.00000000E+00
  0.00000000E+00  0.00000000E+00  0.00000000E+00
  0.00000000E+00  0.00000000E+00  0.00000000E+00
  0.00000000E+00  0.00000000E+00  0.00000000E+00
  0.00000000E+00  0.00000000E+00  0.00000000E+00
  0.00000000E+00  0.00000000E+00  0.00000000E+00
  0.00000000E+00  0.00000000E+00  0.00000000E+00
  0.00000000E+00  0.00000000E+00  0.00000000E+00
  0.00000000E+00  0.00000000E+00  0.00000000E+00
  0.00000000E+00  0.00000000E+00  0.00000000E+00
  0.00000000E+00  0.00000000E+00  0.00000000E+00
  0.00000000E+00  0.00000000E+00  0.00000000E+00
  0.00000000E+00  0.00000000E+00  0.00000000E+00
  0.00000000E+00  0.00000000E+00  0.00000000E+00
  0.00000000E+00  0.00000000E+00  0.00000000E+00
  0.00000000E+00  0.00000000E+00  0.00000000E+00
  0.00000000E+00  0.00000000E+00  0.00000000E+00
  0.00000000E+00  0.00000000E+00  0.00000000E+00
  0.00000000E+00  0.00000000E+00  0.00000000E+00
  0.00000000E+00  0.00000000E+00  0.00000000E+00
  0.00000000E+00  0.00000000E+00  0.00000000E+00
  0.00000000E+00  0.00000000E+00  0.00000000E+00
  0.00000000E+00  0.00000000E+00  0.00000000E+00
  0.00000000E+00  0.00000000E+00  0.00000000E+00
  0.00000000E+00  0.00000000E+00  0.00000000E+00
  0.00000000E+00  0.00000000E+00  0.00000000E+00
  0.00000000E+00  0.00000000E+00  0.00000000E+00
  0.00000000E+00  0.00000000E+00  0.00000000E+00
  0.00000000E+00  0.00000000E+00  0.00000000E+00
  0.00000000E+00  0.00000000E+00  0.00000000E+00
  0.00000000E+00  0.00000000E+00  0.00000000E+00
  0.00000000E+00  0.00000000E+00  0.00000000E+00
  0.00000000E+00  0.00000000E+00  0.00000000E+00
  0.00000000E+00  0.00000000E+00  0.00000000E+00
  0.00000000E+00  0.00000000E+00  0.00000000E+00
  0.00000000E+00  0.00000000E+00  0.00000000E+00
  0.00000000E+00  0.00000000E+00  0.00000000E+00
  0.00000000E+00  0.00000000E+00  0.00000000E+00
  0.00000000E+00  0.00000000E+00  0.00000000E+00
  0.00000000E+00  0.00000000E+00  0.00000000E+00
  0.00000000E+00  0.00000000E+00  0.00000000E+00
  0.00000000E+00  0.00000000E+00  0.00000000E+00
  0.00000000E+00  0.00000000E+00  0.00000000E+00
  0.00000000E+00  0.00000000E+00  0.00000000E+00
  0.00000000E+00  0.00000000E+00  0.00000000E+00
  0.00000000E+00  0.00000000E+00  0.00000000E+00
  0.00000000E+00  0.00000000E+00  0.00000000E+00
  0.00000000E+00  0.00000000E+00  0.00000000E+00
  0.00000000E+00  0.00000000E+00  0.00000000E+00
  0.00000000E+00  0.00000000E+00  0.00000000E+00
  0.00000000E+00  0.00000000E+00  0.00000000E+00
  0.00000000E+00  0.00000000E+00  0.00000000E+00
  0.00000000E+00  0.00000000E+00  0.00000000E+00
  0.00000000E+00  0.00000000E+00  0.00000000E+00
  0.00000000E+00  0.00000000E+00  0.00000000E+00
  0.00000000E+00  0.00000000E+00  0.00000000E+00
  0.00000000E+00  0.00000000E+00  0.00000000E+00
  0.00000000E+00  0.00000000E+00  0.00000000E+00
  0.00000000E+00  0.00000000E+00  0.00000000E+00
  0.00000000E+00  0.00000000E+00  0.00000000E+00
  0.00000000E+00  0.00000000E+00  0.00000000E+00
  0.00000000E+00  0.00000000E+00  0.00000000E+00
  0.00000000E+00  0.00000000E+00  0.00000000E+00
  0.00000000E+00  0.00000000E+00  0.00000000E+00
  0.00000000E+00  0.00000000E+00  0.00000000E+00
  0.00000000E+00  0.00000000E+00  0.00000000E+00
  0.00000000E+00  0.00000000E+00  0.00000000E+00
  0.00000000E+00  0.00000000E+00  0.00000000E+00
  0.00000000E+00  0.00000000E+00  0.00000000E+00
  0.00000000E+00  0.00000000E+00  0.00000000E+00
  0.00000000E+00  0.00000000E+00  0.00000000E+00
  0.00000000E+00  0.00000000E+00  0.00000000E+00
  0.00000000E+00  0.00000000E+00  0.00000000E+00
  0.00000000E+00  0.00000000E+00  0.00000000E+00
  0.00000000E+00  0.00000000E+00  0.00000000E+00
  0.00000000E+00  0.00000000E+00  0.00000000E+00
  0.00000000E+00  0.00000000E+00  0.00000000E+00
  0.00000000E+00  0.00000000E+00  0.00000000E+00
  0.00000000E+00  0.00000000E+00  0.00000000E+00
  0.00000000E+00  0.00000000E+00  0.00000000E+00
  0.00000000E+00  0.00000000E+00  0.00000000E+00
  0.00000000E+00  0.00000000E+00  0.00000000E+00
  0.00000000E+00  0.00000000E+00  0.00000000E+00
  0.00000000E+00  0.00000000E+00  0.00000000E+00
  0.00000000E+00  0.00000000E+00  0.00000000E+00
  0.00000000E+00  0.00000000E+00  0.00000000E+00
  0.00000000E+00  0.00000000E+00  0.00000000E+00
  0.00000000E+00  0.00000000E+00  0.00000000E+00
  0.00000000E+00  0.00000000E+00  0.00000000E+00
  0.00000000E+00  0.00000000E+00  0.00000000E+00
  0.00000000E+00  0.00000000E+00  0.00000000E+00
  0.00000000E+00  0.00000000E+00  0.00000000E+00
  0.00000000E+00  0.00000000E+00  0.00000000E+00
  0.00000000E+00  0.00000000E+00  0.00000000E+00
  0.00000000E+00  0.00000000E+00  0.00000000E+00
  0.00000000E+00  0.00000000E+00  0.00000000E+00
  0.00000000E+00  0.00000000E+00  0.00000000E+00
  0.00000000E+00  0.00000000E+00  0.00000000E+00
  0.00000000E+00  0.00000000E+00  0.00000000E+00
  0.00000000E+00  0.00000000E+00  0.00000000E+00
  0.00000000E+00  0.00000000E+00  0.00000000E+00
  0.00000000E+00  0.00000000E+00  0.00000000E+00
  0.00000000E+00  0.00000000E+00  0.00000000E+00
  0.00000000E+00  0.00000000E+00  0.00000000E+00
  0.00000000E+00  0.00000000E+00  0.00000000E+00
  0.00000000E+00  0.00000000E+00  0.00000000E+00
  0.00000000E+00  0.00000000E+00  0.00000000E+00
  0.00000000E+00  0.00000000E+00  0.00000000E+00
  0.00000000E+00  0.00000000E+00  0.00000000E+00
  0.00000000E+00  0.00000000E+00  0.00000000E+00
  0.00000000E+00  0.00000000E+00  0.00000000E+00
  0.00000000E+00  0.00000000E+00  0.00000000E+00
  0.00000000E+00  0.00000000E+00  0.00000000E+00
  0.00000000E+00  0.00000000E+00  0.00000000E+00
  0.00000000E+00  0.00000000E+00  0.00000000E+00
  0.00000000E+00  0.00000000E+00  0.00000000E+00
  0.00000000E+00  0.00000000E+00  0.00000000E+00
  0.00000000E+00  0.00000000E+00  0.00000000E+00
  0.00000000E+00  0.00000000E+00  0.00000000E+00
  0.00000000E+00  0.00000000E+00  0.00000000E+00
  0.00000000E+00  0.00000000E+00  0.00000000E+00
  0.00000000E+00  0.00000000E+00  0.00000000E+00
  0.00000000E+00  0.00000000E+00  0.00000000E+00
  0.00000000E+00  0.00000000E+00  0.00000000E+00
  0.00000000E+00  0.00000000E+00  0.00000000E+00
  0.00000000E+00  0.00000000E+00  0.00000000E+00
  0.00000000E+00  0.00000000E+00  0.00000000E+00
  0.00000000E+00  0.00000000E+00  0.00000000E+00
  0.00000000E+00  0.00000000E+00  0.00000000E+00
  0.00000000E+00  0.00000000E+00  0.00000000E+00
  0.00000000E+00  0.00000000E+00  0.00000000E+00
  0.00000000E+00  0.00000000E+00  0.00000000E+00
  0.00000000E+00  0.00000000E+00  0.00000000E+00
  0.00000000E+00  0.00000000E+00  0.00000000E+00
  0.00000000E+00  0.00000000E+00  0.00000000E+00
  0.00000000E+00  0.00000000E+00  0.00000000E+00
  0.00000000E+00  0.00000000E+00  0.00000000E+00
  0.00000000E+00  0.00000000E+00  0.00000000E+00
  0.00000000E+00  0.00000000E+00  0.00000000E+00
  0.00000000E+00  0.00000000E+00  0.00000000E+00
  0.00000000E+00  0.00000000E+00  0.00000000E+00
  0.00000000E+00  0.00000000E+00  0.00000000E+00
  0.00000000E+00  0.00000000E+00  0.00000000E+00
  0.00000000E+00  0.00000000E+00  0.00000000E+00
  0.00000000E+00  0.00000000E+00  0.00000000E+00
  0.00000000E+00  0.00000000E+00  0.00000000E+00
  0.00000000E+00  0.00000000E+00  0.00000000E+00
  0.00000000E+00  0.00000000E+00  0.00000000E+00
  0.00000000E+00  0.00000000E+00  0.00000000E+00
  0.00000000E+00  0.00000000E+00  0.00000000E+00
  0.00000000E+00  0.00000000E+00  0.00000000E+00
  0.00000000E+00  0.00000000E+00  0.00000000E+00
  0.00000000E+00  0.00000000E+00  0.00000000E+00
  0.00000000E+00  0.00000000E+00  0.00000000E+00
  0.00000000E+00  0.00000000E+00  0.00000000E+00
  0.00000000E+00  0.00000000E+00  0.00000000E+00
  0.00000000E+00  0.00000000E+00  0.00000000E+00
  0.00000000E+00  0.00000000E+00  0.00000000E+00
  0.00000000E+00  0.00000000E+00  0.00000000E+00
  0.00000000E+00  0.00000000E+00  0.00000000E+00
  0.00000000E+00  0.00000000E+00  0.00000000E+00
  0.00000000E+00  0.00000000E+00  0.00000000E+00
  0.00000000E+00  0.00000000E+00  0.00000000E+00
  0.00000000E+00  0.00000000E+00  0.00000000E+00
  0.00000000E+00  0.00000000E+00  0.00000000E+00
  0.00000000E+00  0.00000000E+00  0.00000000E+00
  0.00000000E+00  0.00000000E+00  0.00000000E+00
  0.00000000E+00  0.00000000E+00  0.00000000E+00
  0.00000000E+00  0.00000000E+00  0.00000000E+00
  0.00000000E+00  0.00000000E+00  0.00000000E+00
  0.00000000E+00  0.00000000E+00  0.00000000E+00
  0.00000000E+00  0.00000000E+00  0.00000000E+00
  0.00000000E+00  0.00000000E+00  0.00000000E+00
  0.00000000E+00  0.00000000E+00  0.00000000E+00
  0.00000000E+00  0.00000000E+00  0.00000000E+00
  0.00000000E+00  0.00000000E+00  0.00000000E+00
  0.00000000E+00  0.00000000E+00  0.00000000E+00
  0.00000000E+00  0.00000000E+00  0.00000000E+00
  0.00000000E+00  0.00000000E+00  0.00000000E+00
  0.00000000E+00  0.00000000E+00  0.00000000E+00
  0.00000000E+00  0.00000000E+00  0.00000000E+00
