Cu	N	Ru	Ta                              
   1.00000000000000     
    18.1096308199999996    0.0000000000000000    0.0000000000000000
     0.0000000000000000   23.3551997799999995    0.0000000000000000
     0.0000000000000000    0.0000000000000000   30.4818171199999988
   Cu   N    Ru   Ta
     3   240    48   192
Selective dynamics
Direct
  0.6010176009837631  0.4487832359031536  0.5817404420492037   T   T   T
  0.0969688763702344  0.0564331164953112  0.5851831514374951   T   T   T
  0.4101793229520757  0.4231765285168325  0.5819033764828533   T   T   T
  0.0000000000000000  0.0000000000000000  0.3032267788896164   F   F   F
  0.0000000000000000  0.5000000000000000  0.3032267788896164   F   F   F
  0.0000000000000000  0.6249999998929567  0.3032267788896164   F   F   F
  0.0000000000000000  0.7500000002140865  0.3032267788896164   F   F   F
  0.0000000000000000  0.8750000001070433  0.3032267788896164   F   F   F
  0.0000000000000000  0.1249999998929567  0.3032267788896164   F   F   F
  0.0000000000000000  0.2500000002140865  0.3032267788896164   F   F   F
  0.0000000000000000  0.3750000001070433  0.3032267788896164   F   F   F
  0.0006683960684788  0.7494031893945601  0.4717430751138204   T   T   T
  0.0006414671201860  0.9998793148394141  0.4755927754489611   T   T   T
  0.0399703986429576  0.8566128489497267  0.5887355854467202   T   T   T
  0.0497628095241473  0.6219316484703334  0.5826406758899799   T   T   T
  0.5581145894246182  0.6330179946144906  0.5810943336305412   T   T   T
  0.5719751907076217  0.3748250986113277  0.5787058364138423   T   T   T
  0.5891555910483400  0.9745557756381263  0.5644412938041109   T   T   T
  0.5941133989389655  0.0000000000000000  0.2322132027803434   F   F   F
  0.5941133989389655  0.5000000000000000  0.2322132027803434   F   F   F
  0.5941133989389655  0.6249999998929567  0.2322132027803434   F   F   F
  0.5941133989389655  0.7500000002140865  0.2322132027803434   F   F   F
  0.5941133989389655  0.8750000001070433  0.2322132027803434   F   F   F
  0.5941133989389655  0.1249999998929567  0.2322132027803434   F   F   F
  0.5941133989389655  0.2500000002140865  0.2322132027803434   F   F   F
  0.5941133989389655  0.3750000001070433  0.2322132027803434   F   F   F
  0.5987055833882523  0.3748439187212348  0.4029380727047809   T   T   T
  0.5987812939982879  0.4999093370253939  0.4029453350814938   T   T   T
  0.5991475147339873  0.8751663593371263  0.4020402448707132   T   T   T
  0.5990902814761592  0.6248949374974542  0.4036894423350538   T   T   T
  0.5994567755566377  0.7496232032394354  0.4027883394443789   T   T   T
  0.5994953584102329  0.2506002751275703  0.4019384484935202   T   T   T
  0.5997039440049367  0.1248559087393088  0.4011933314269209   T   T   T
  0.5999344100207743  0.9995558932821978  0.4017496598323028   T   T   T
  0.6008726716890748  0.1179410153099806  0.5690339968311909   T   T   T
  0.6058020524207849  0.5256102000799134  0.5661291800038483   T   T   T
  0.6125676430164121  0.2471592029071180  0.5676903865105128   T   T   T
  0.6170546826378066  0.7461869914518077  0.5684418180164386   T   T   T
  0.0619308477256615  0.2651435224818569  0.5771294399665574   T   T   T
  0.6482133834691969  0.8746811567168100  0.4864970889830762   T   T   T
  0.6493240226864112  0.6222792042902187  0.4892779857860543   T   T   T
  0.6505220372494649  0.1246377539723428  0.4838588239592764   T   T   T
  0.6513681500237329  0.9987314259575444  0.4862587070777654   T   T   T
  0.6515132588911827  0.3753832568417699  0.4866311457795476   T   T   T
  0.6521785939798037  0.2488502114362313  0.4849429833940105   T   T   T
  0.6535276246363719  0.7514664426270682  0.4846604089999522   T   T   T
  0.6545990963497701  0.0000000000000000  0.3156671842141137   F   F   F
  0.6545990963497701  0.5000000000000000  0.3156671842141137   F   F   F
  0.6545990963497701  0.6249999998929567  0.3156671842141137   F   F   F
  0.6545990963497701  0.7500000002140865  0.3156671842141137   F   F   F
  0.6545990963497701  0.8750000001070433  0.3156671842141137   F   F   F
  0.6545990963497701  0.1249999998929567  0.3156671842141137   F   F   F
  0.6545990963497701  0.2500000002140865  0.3156671842141137   F   F   F
  0.6545990963497701  0.3750000001070433  0.3156671842141137   F   F   F
  0.6544501149291515  0.4977485064671957  0.4859833438784080   T   T   T
  0.0700134048319381  0.1299539256883900  0.5744927232254039   T   T   T
  0.7030514183287497  0.8682759359905180  0.5639582473430625   T   T   T
  0.7238723450569676  0.6322090908457380  0.5623436475232877   T   T   T
  0.7436740138008867  0.2276074492429911  0.5648335066621818   T   T   T
  0.7499999997239044  0.0000000000000000  0.1996562654398630   F   F   F
  0.7499999997239044  0.5000000000000000  0.1996562654398630   F   F   F
  0.7499999997239044  0.6249999998929567  0.1996562654398630   F   F   F
  0.7499999997239044  0.7500000002140865  0.1996562654398630   F   F   F
  0.7499999997239044  0.8750000001070433  0.1996562654398630   F   F   F
  0.7499999997239044  0.1249999998929567  0.1996562654398630   F   F   F
  0.7499999997239044  0.2500000002140865  0.1996562654398630   F   F   F
  0.7499999997239044  0.3750000001070433  0.1996562654398630   F   F   F
  0.7494687270534600  0.6249229500176401  0.3871602779377724   T   T   T
  0.7499088162494034  0.4994852705383120  0.3867956540458606   T   T   T
  0.7502566418633503  0.1245300119856100  0.3867197063526482   T   T   T
  0.7499640084549043  0.3746802832352286  0.3866075074721312   T   T   T
  0.7501667052703282  0.8746990026813681  0.3875977400775718   T   T   T
  0.7501235168388282  0.7498889854091041  0.3866612159850505   T   T   T
  0.7502404778623368  0.2498733804687172  0.3861584820319210   T   T   T
  0.7504619779325674  0.9998107016441956  0.3874990377235357   T   T   T
  0.7502788566700478  0.3594286032502104  0.5549503100229279   T   T   T
  0.7525385856988599  0.1257736416535029  0.5581496170928432   T   T   T
  0.7593999078342177  0.4929910104701574  0.5563551989469686   T   T   T
  0.7611734932334125  0.9882690026239824  0.5566785921437568   T   T   T
  0.7768062941420221  0.7545474099287421  0.5597611109437590   T   T   T
  0.0809982974815215  0.3802696038736397  0.5727628406919598   T   T   T
  0.8454009036502299  0.0000000000000000  0.3156671842141137   F   F   F
  0.8454009036502299  0.5000000000000000  0.3156671842141137   F   F   F
  0.8454009036502299  0.6249999998929567  0.3156671842141137   F   F   F
  0.8454009036502299  0.7500000002140865  0.3156671842141137   F   F   F
  0.8454009036502299  0.8750000001070433  0.3156671842141137   F   F   F
  0.8454009036502299  0.1249999998929567  0.3156671842141137   F   F   F
  0.8454009036502299  0.2500000002140865  0.3156671842141137   F   F   F
  0.8454009036502299  0.3750000001070433  0.3156671842141137   F   F   F
  0.8458889527328478  0.6270468475220164  0.4837812195627577   T   T   T
  0.8469566602890214  0.8707993541803356  0.4849968179410458   T   T   T
  0.8470835640610144  0.2478610204834236  0.4845800288048108   T   T   T
  0.8480287286516217  0.1236565473347406  0.4858089509935954   T   T   T
  0.8485834745279267  0.3721299591698659  0.4839221195368186   T   T   T
  0.8494753612644855  0.4986437057886154  0.4856909566417010   T   T   T
  0.8495873328987972  0.0015941149615286  0.4877689738671229   T   T   T
  0.8500819476672650  0.7487986360653948  0.4841751895643577   T   T   T
  0.8824753089548913  0.8798466252993139  0.5690729034252547   T   T   T
  0.8866534676945543  0.6398522901165067  0.5652919712811914   T   T   T
  0.8863408146008569  0.2533794653540829  0.5652560241600514   T   T   T
  0.9003527895798602  0.4995057290029916  0.4017221290485156   T   T   T
  0.9006538502197833  0.6248293033859612  0.4010913946171613   T   T   T
  0.9008678798894708  0.3745340913953917  0.4016310883119068   T   T   T
  0.9010765923910973  0.8752988402853127  0.4019847873952058   T   T   T
  0.9011823113000580  0.2494952531499890  0.4016702581874598   T   T   T
  0.9013015506776169  0.7497897977471585  0.4006950167244428   T   T   T
  0.9002304733380713  0.3873466833555412  0.5707813930039817   T   T   T
  0.9014270211783783  0.9996918288703336  0.4031969321098460   T   T   T
  0.9014754686572275  0.1240440921712296  0.4022348943107032   T   T   T
  0.9032187289939778  0.1364840835359598  0.5706487845105935   T   T   T
  0.9058866010610345  0.0000000000000000  0.2322132027803434   F   F   F
  0.9058866010610345  0.5000000000000000  0.2322132027803434   F   F   F
  0.9058866010610345  0.6249999998929567  0.2322132027803434   F   F   F
  0.9058866010610345  0.7500000002140865  0.2322132027803434   F   F   F
  0.9058866010610345  0.8750000001070433  0.2322132027803434   F   F   F
  0.9058866010610345  0.1249999998929567  0.2322132027803434   F   F   F
  0.9058866010610345  0.2500000002140865  0.2322132027803434   F   F   F
  0.9058866010610345  0.3750000001070433  0.2322132027803434   F   F   F
  0.9173337082338671  0.5192373330868371  0.5739773508653571   T   T   T
  0.9234228921474639  0.7633692573793599  0.5709642410757654   T   T   T
  0.9331192488120009  0.9961521439545404  0.5761646410187752   T   T   T
  0.0934799992151394  0.5085466710176916  0.5665391496941412   T   T   T
  0.0941133989389655  0.0000000000000000  0.2322132027803434   F   F   F
  0.0941133989389655  0.5000000000000000  0.2322132027803434   F   F   F
  0.0941133989389655  0.6249999998929567  0.2322132027803434   F   F   F
  0.0941133989389655  0.7500000002140865  0.2322132027803434   F   F   F
  0.0941133989389655  0.8750000001070433  0.2322132027803434   F   F   F
  0.0941133989389655  0.1249999998929567  0.2322132027803434   F   F   F
  0.0941133989389655  0.2500000002140865  0.2322132027803434   F   F   F
  0.0941133989389655  0.3750000001070433  0.2322132027803434   F   F   F
  0.0940375469093974  0.7399410156429272  0.5680945660106151   T   T   T
  0.0986794105606562  0.1248510503825838  0.4030687632621367   T   T   T
  0.0988721686935011  0.8748967589445701  0.4031424176907255   T   T   T
  0.0988777705247429  0.0004341590931715  0.4028471332626692   T   T   T
  0.0992221140539885  0.2494759645256786  0.4028927429749917   T   T   T
  0.9974838598469820  0.6264331493249616  0.4728004099143562   T   T   T
  0.0993409591461046  0.3745014932334421  0.4017453449859947   T   T   T
  0.0993662519579895  0.5004622493276816  0.4014172532806649   T   T   T
  0.9988566560859476  0.2492877702812793  0.4742925984835695   T   T   T
  0.0994223236866841  0.6247930248596715  0.4025804271727073   T   T   T
  0.9990873125337263  0.8752267578366419  0.4746517870227855   T   T   T
  0.9991503826744815  0.3751029072153508  0.4724490930159208   T   T   T
  0.9994324709912640  0.1254609240872926  0.4761813582123236   T   T   T
  0.9994566682759629  0.4999646882988810  0.4713854634373918   T   T   T
  0.0999782190514608  0.7502621592727839  0.4029109237741303   T   T   T
  0.1019908904073983  0.9775409986583931  0.5742810136264886   T   T   T
  0.1471284350961094  0.6245428968071216  0.4880147376233478   T   T   T
  0.1491927212321792  0.3753297920039361  0.4867855191726872   T   T   T
  0.1500666111211932  0.2485956173180503  0.4883147802029167   T   T   T
  0.1511915646662965  0.8773508747795288  0.4865179679789748   T   T   T
  0.1515118464497991  0.4985948033912457  0.4847972360877634   T   T   T
  0.1518789173057937  0.7485432711381615  0.4864943365833755   T   T   T
  0.1520276455449384  0.1246956243833724  0.4872648662668372   T   T   T
  0.1531941208657141  0.0020610012201967  0.4864658389425351   T   T   T
  0.1545990963497701  0.0000000000000000  0.3156671842141137   F   F   F
  0.1545990963497701  0.5000000000000000  0.3156671842141137   F   F   F
  0.1545990963497701  0.6249999998929567  0.3156671842141137   F   F   F
  0.1545990963497701  0.7500000002140865  0.3156671842141137   F   F   F
  0.1545990963497701  0.8750000001070433  0.3156671842141137   F   F   F
  0.1545990963497701  0.1249999998929567  0.3156671842141137   F   F   F
  0.1545990963497701  0.2500000002140865  0.3156671842141137   F   F   F
  0.1545990963497701  0.3750000001070433  0.3156671842141137   F   F   F
  0.1951174764907680  0.8631661580359341  0.5717249140257933   T   T   T
  0.2024812377918808  0.6325893593547230  0.5725884820102690   T   T   T
  0.2426813446910082  0.1234739320058624  0.5556258285491332   T   T   T
  0.2499999997239044  0.0000000000000000  0.1996562654398630   F   F   F
  0.2499999997239044  0.5000000000000000  0.1996562654398630   F   F   F
  0.2499999997239044  0.6249999998929567  0.1996562654398630   F   F   F
  0.2499999997239044  0.7500000002140865  0.1996562654398630   F   F   F
  0.2499999997239044  0.8750000001070433  0.1996562654398630   F   F   F
  0.2499999997239044  0.1249999998929567  0.1996562654398630   F   F   F
  0.2499999997239044  0.2500000002140865  0.1996562654398630   F   F   F
  0.2499999997239044  0.3750000001070433  0.1996562654398630   F   F   F
  0.2497699527310746  0.3753175131567431  0.3879379591107587   T   T   T
  0.2495293065504378  0.8751634629984303  0.3873487203742366   T   T   T
  0.2501939966629973  0.5002111788831139  0.3877172169406314   T   T   T
  0.2501535548522003  0.6253239448631467  0.3888093926869320   T   T   T
  0.2501305091697902  0.2501409950277643  0.3884967506810732   T   T   T
  0.2498706278601964  0.0002940610676817  0.3864126951021120   T   T   T
  0.2502270908192589  0.7498702854741361  0.3879079614686970   T   T   T
  0.2502300148951985  0.1253657316032408  0.3881961067331337   T   T   T
  0.2517405704322157  0.2526686817117439  0.5542933598722438   T   T   T
  0.2525230802778095  0.9870611214792838  0.5570353525334282   T   T   T
  0.2587845500332339  0.3812157741132194  0.5579058381432516   T   T   T
  0.2667442997959571  0.5100574902342547  0.5623559114745456   T   T   T
  0.2734161236665690  0.7453432679302444  0.5614250285969445   T   T   T
  0.3454009036502299  0.0000000000000000  0.3156671842141137   F   F   F
  0.3454009036502299  0.5000000000000000  0.3156671842141137   F   F   F
  0.3454009036502299  0.6249999998929567  0.3156671842141137   F   F   F
  0.3454009036502299  0.7500000002140865  0.3156671842141137   F   F   F
  0.3454009036502299  0.8750000001070433  0.3156671842141137   F   F   F
  0.3454009036502299  0.1249999998929567  0.3156671842141137   F   F   F
  0.3454009036502299  0.2500000002140865  0.3156671842141137   F   F   F
  0.3454009036502299  0.3750000001070433  0.3156671842141137   F   F   F
  0.3471600925097391  0.3773356877621503  0.4861252975065407   T   T   T
  0.3494316958956907  0.6275897603638090  0.4835829988393525   T   T   T
  0.3493252557704050  0.0019892658997752  0.4830704870077486   T   T   T
  0.3502533973223602  0.4988433013038029  0.4859681567617623   T   T   T
  0.3503442335520773  0.8796621096979791  0.4828054216061712   T   T   T
  0.3507653644312253  0.7527987895733891  0.4844802089297198   T   T   T
  0.3514027478625131  0.2522761198226107  0.4882283096579914   T   T   T
  0.3514552689064747  0.1252114216041240  0.4866933497743032   T   T   T
  0.3592207213201218  0.8699288006239038  0.5678272588627863   T   T   T
  0.3741123602610500  0.6231732210204921  0.5684307377366180   T   T   T
  0.4007519488945154  0.8752577884986952  0.4005924046360941   T   T   T
  0.4008340082100485  0.1257202250471759  0.4014516149933243   T   T   T
  0.4011426230366189  0.2510511104148039  0.4024142835835142   T   T   T
  0.4009833072428819  0.0009082872071066  0.4000692481444816   T   T   T
  0.4015606577609688  0.3750950818616606  0.4026073155435015   T   T   T
  0.4016556206752435  0.7507287152498519  0.4011278853386476   T   T   T
  0.4018576251717053  0.6247240304065802  0.4019103435958687   T   T   T
  0.4019044546303064  0.5007312175752719  0.4030958354175121   T   T   T
  0.4058866010610345  0.0000000000000000  0.2322132027803434   F   F   F
  0.4058866010610345  0.5000000000000000  0.2322132027803434   F   F   F
  0.4058866010610345  0.6249999998929567  0.2322132027803434   F   F   F
  0.4058866010610345  0.7500000002140865  0.2322132027803434   F   F   F
  0.4058866010610345  0.8750000001070433  0.2322132027803434   F   F   F
  0.4058866010610345  0.1249999998929567  0.2322132027803434   F   F   F
  0.4058866010610345  0.2500000002140865  0.2322132027803434   F   F   F
  0.4058866010610345  0.3750000001070433  0.2322132027803434   F   F   F
  0.4063619039410576  0.9901090663551932  0.5676657626553996   T   T   T
  0.4077049019618246  0.3465586938387992  0.5649721245236210   T   T   T
  0.4210299609804099  0.1217928179825575  0.5718784721469371   T   T   T
  0.4375305611132421  0.4970066942837721  0.5760489069067060   T   T   T
  0.4423332569633366  0.2339747524166380  0.5764052362229548   T   T   T
  0.4423779963616232  0.7161774727656165  0.5610540333621206   T   T   T
  0.4980587676102610  0.8751943161603314  0.4727564423463997   T   T   T
  0.5000000000000000  0.0000000000000000  0.3032267788896164   F   F   F
  0.5000000000000000  0.5000000000000000  0.3032267788896164   F   F   F
  0.5000000000000000  0.6249999998929567  0.3032267788896164   F   F   F
  0.5000000000000000  0.7500000002140865  0.3032267788896164   F   F   F
  0.5000000000000000  0.8750000001070433  0.3032267788896164   F   F   F
  0.5000000000000000  0.1249999998929567  0.3032267788896164   F   F   F
  0.5000000000000000  0.2500000002140865  0.3032267788896164   F   F   F
  0.5000000000000000  0.3750000001070433  0.3032267788896164   F   F   F
  0.4990603979906506  0.6257638907733986  0.4757444751990447   T   T   T
  0.4998756346795197  0.3743953916424811  0.4765454850604026   T   T   T
  0.5002757841957269  0.9998031939495401  0.4714145373716453   T   T   T
  0.5011539926305716  0.1249823503475373  0.4719358872432533   T   T   T
  0.5013702256154577  0.5009993537887653  0.4773226625312530   T   T   T
  0.5017570311926489  0.7520280644173543  0.4755251581122658   T   T   T
  0.5019019719482140  0.2498572342017760  0.4731537183120583   T   T   T
  0.5104322014679874  0.8315079943281750  0.5763530955153089   T   T   T
 -0.0000868134229504  0.5081098757161034  0.5386593092054039   T   T   T
  0.0143017104412886  0.9818482502102688  0.5442355840579194   T   T   T
  0.6180664740325472  0.0458247483073255  0.5409429729105878   T   T   T
  0.6290412175757902  0.6701337237986050  0.5493407218719419   T   T   T
  0.6676155187394078  0.1779569938144143  0.5389815082672798   T   T   T
  0.6851384739077423  0.9350912585696713  0.5371842709209703   T   T   T
  0.6920418748431466  0.7971021290311616  0.5392656462967659   T   T   T
  0.6997379729326908  0.2938480500733101  0.5398717479713783   T   T   T
  0.7018851638330533  0.5584418125296063  0.5363895378457342   T   T   T
  0.7125741284165671  0.4291301897175452  0.5316252343697282   T   T   T
  0.7910147597094340  0.0599268949572909  0.5321622116895735   T   T   T
  0.7983442689515630  0.6804542833360540  0.5396859530627016   T   T   T
  0.8278579498679655  0.1847109782457702  0.5370831861586925   T   T   T
  0.8520506987701986  0.8104071170823467  0.5367424171945252   T   T   T
  0.8544149435224726  0.3237593501828536  0.5419484594737998   T   T   T
  0.8595213839023524  0.5699709329552721  0.5351991377276616   T   T   T
  0.8601140882297469  0.9538882367432845  0.5490378333610717   T   T   T
  0.8636598931531851  0.4568716722640019  0.5465763969663048   T   T   T
  0.9808259582126840  0.8726604352582411  0.5436961158399973   T   T   T
  0.9831436766941114  0.6353370338852631  0.5415072568634275   T   T   T
  0.9858609835029779  0.2538578483860592  0.5422211197266753   T   T   T
  0.9894655777391147  0.1444290570572666  0.5450748964719786   T   T   T
  0.9931605568204546  0.3813412616189278  0.5407820277963199   T   T   T
  0.9973648079342181  0.7444250405149697  0.5382869143609884   T   T   T
  0.1102064702127212  0.8177420251551429  0.5560074965553717   T   T   T
  0.1163188239846517  0.3132783185652443  0.5411282585456454   T   T   T
  0.1197942505042253  0.5842467258294342  0.5488893171507164   T   T   T
  0.1246101434182354  0.4404456150809488  0.5379888925881974   T   T   T
  0.1731718177364706  0.9335902238574970  0.5378605162782226   T   T   T
  0.1875483793414410  0.7047456468416996  0.5436909083682488   T   T   T
  0.2002741806828973  0.1901538344562393  0.5341974407329040   T   T   T
  0.2121287508834792  0.0559022640138749  0.5343772059125262   T   T   T
  0.2780468480233876  0.8248654438116636  0.5500397522835170   T   T   T
  0.2827307475483973  0.5875028709801557  0.5567054427049216   T   T   T
  0.2980102506166636  0.4468024621257287  0.5349123128098568   T   T   T
  0.3030716615395774  0.3146063260810980  0.5353460254553276   T   T   T
  0.3336202091333846  0.9380210313757067  0.5337642760212522   T   T   T
  0.3438558808990271  0.6892968460808354  0.5326472084057824   T   T   T
  0.3829375608429231  0.0600700641834582  0.5396997513560491   T   T   T
  0.3852433723130431  0.1899947143334240  0.5407232043129074   T   T   T
  0.4525516197265424  0.8644828364350693  0.5373156182862872   T   T   T
  0.4782687732563076  0.6370227594787092  0.5452641039000801   T   T   T
  0.4960329409202832  0.9834800050816465  0.5374634156496233   T   T   T
  0.5021294315681103  0.3524125940468060  0.5445613428246490   T   T   T
  0.5100355812921166  0.5236796235385196  0.5460163092915550   T   T   T
  0.5100994477222840  0.1240291144547391  0.5397213195066736   T   T   T
  0.5202772626206701  0.7626196459865396  0.5447379885520722   T   T   T
  0.5207273985787989  0.2434795222887946  0.5408197657237913   T   T   T
  0.0000000000000000  0.0000000000000000  0.1972002481458333   F   F   F
  0.0000000000000000  0.5000000000000000  0.1972002481458333   F   F   F
  0.0000000000000000  0.6249999998929567  0.1972002481458333   F   F   F
  0.0000000000000000  0.7500000002140865  0.1972002481458333   F   F   F
  0.0000000000000000  0.8750000001070433  0.1972002481458333   F   F   F
  0.0000000000000000  0.1249999998929567  0.1972002481458333   F   F   F
  0.0000000000000000  0.2500000002140865  0.1972002481458333   F   F   F
  0.0000000000000000  0.3750000001070433  0.1972002481458333   F   F   F
  0.0000132611823598  0.9998330069096902  0.3702432790225672   T   T   T
 -0.0000441224836343  0.5000202574278504  0.3697581029575341   T   T   T
  0.0001923615896807  0.3747339012720355  0.3697878645923207   T   T   T
  0.0004197528254322  0.8750782347123075  0.3701598312605915   T   T   T
  0.0002832154540341  0.1248448937019533  0.3699642277574642   T   T   T
  0.0003991229227146  0.2498702889225848  0.3698860374435483   T   T   T
  0.0004691407896760  0.6249405047623435  0.3698499786457286   T   T   T
  0.0012495452872980  0.7499989462507229  0.3698409507788994   T   T   T
  0.5825346300460907  0.4375000002676046  0.2838671249793236   F   F   F
  0.5825346300460907  0.5625000001605613  0.2838671249793236   F   F   F
  0.5825346300460907  0.0625000001605613  0.2838671249793236   F   F   F
  0.5825346300460907  0.6875000000535181  0.2838671249793236   F   F   F
  0.5825346300460907  0.8124999999464819  0.2838671249793236   F   F   F
  0.5825346300460907  0.9375000002676046  0.2838671249793236   F   F   F
  0.5825346300460907  0.1875000000535181  0.2838671249793236   F   F   F
  0.5825346300460907  0.3124999999464819  0.2838671249793236   F   F   F
  0.5831625126788392  0.9370805985500816  0.4540897677435832   T   T   T
  0.5835553823579055  0.6875743828131099  0.4572087993134751   T   T   T
  0.5840362432860018  0.8128963156894445  0.4544651964953840   T   T   T
  0.5841030735269949  0.0619882995182255  0.4539498234852142   T   T   T
  0.5840686175338580  0.3130282612257086  0.4558635987476052   T   T   T
  0.5840082269877429  0.5618623465601736  0.4552654357408741   T   T   T
  0.5844020042005262  0.1871581478184450  0.4532593921036234   T   T   T
  0.5847394967662480  0.4372535188169974  0.4556545638632309   T   T   T
  0.6657105641648826  0.4375000002676046  0.2025710526275901   F   F   F
  0.6657105641648826  0.5625000001605613  0.2025710526275901   F   F   F
  0.6657105641648826  0.0625000001605613  0.2025710526275901   F   F   F
  0.6657105641648826  0.6875000000535181  0.2025710526275901   F   F   F
  0.6657105641648826  0.8124999999464819  0.2025710526275901   F   F   F
  0.6657105641648826  0.9375000002676046  0.2025710526275901   F   F   F
  0.6657105641648826  0.1875000000535181  0.2025710526275901   F   F   F
  0.6657105641648826  0.3124999999464819  0.2025710526275901   F   F   F
  0.6670255611106058  0.6873679235783438  0.3688024480432148   T   T   T
  0.6669342212387415  0.4374007643440477  0.3686787322444363   T   T   T
  0.6672889431488893  0.5624106286183755  0.3685697763961902   T   T   T
  0.6673598238318528  0.3125365483955641  0.3681835614171606   T   T   T
  0.6674987081384002  0.8123931212676521  0.3682250100645784   T   T   T
  0.6678688214462345  0.1874541243500401  0.3678296696556970   T   T   T
  0.6681318045755976  0.0622592742895987  0.3678231013390485   T   T   T
  0.6682391846546301  0.9373617343830863  0.3683684384227900   T   T   T
  0.7466336421662062  0.6250513680479154  0.4552086897439159   T   T   T
  0.7479073780710198  0.8747755489236927  0.4557731401595415   T   T   T
  0.7499999997239044  0.0000000000000000  0.2777865629422820   F   F   F
  0.7499999997239044  0.5000000000000000  0.2777865629422820   F   F   F
  0.7499999997239044  0.6249999998929567  0.2777865629422820   F   F   F
  0.7499999997239044  0.7500000002140865  0.2777865629422820   F   F   F
  0.7499999997239044  0.8750000001070433  0.2777865629422820   F   F   F
  0.7499999997239044  0.1249999998929567  0.2777865629422820   F   F   F
  0.7499999997239044  0.2500000002140865  0.2777865629422820   F   F   F
  0.7499999997239044  0.3750000001070433  0.2777865629422820   F   F   F
  0.7493231050147149  0.3719234591712144  0.4543723555214704   T   T   T
  0.7498674258658862  0.1240808027333146  0.4543487537834468   T   T   T
  0.7498342691517130  0.2485701840555343  0.4537862160256253   T   T   T
  0.7501966818306266  0.4988487367271944  0.4544953795880398   T   T   T
  0.7504205857635780  0.9984321265647791  0.4558644318565074   T   T   T
  0.7507994752920518  0.7493089426370216  0.4541634964428596   T   T   T
  0.0825346300460907  0.4375000002676046  0.2838671249793236   F   F   F
  0.0825346300460907  0.5625000001605613  0.2838671249793236   F   F   F
  0.0825346300460907  0.0625000001605613  0.2838671249793236   F   F   F
  0.0825346300460907  0.6875000000535181  0.2838671249793236   F   F   F
  0.0825346300460907  0.8124999999464819  0.2838671249793236   F   F   F
  0.0825346300460907  0.9375000002676046  0.2838671249793236   F   F   F
  0.0825346300460907  0.1875000000535181  0.2838671249793236   F   F   F
  0.0825346300460907  0.3124999999464819  0.2838671249793236   F   F   F
  0.8319305989253907  0.5622225861254787  0.3678552220698647   T   T   T
  0.8320392683345050  0.6874205787380845  0.3677362935195727   T   T   T
  0.8322830009537340  0.8124931565377292  0.3675480492723079   T   T   T
  0.8323074188918965  0.4371549874811604  0.3680267036520431   T   T   T
  0.8326804444706358  0.9373608684749690  0.3686696276300492   T   T   T
  0.8326530875753386  0.1871449483549352  0.3680155792951014   T   T   T
  0.8326501499161922  0.3122598781391993  0.3677346213799753   T   T   T
  0.8327549989709457  0.0620836855601352  0.3683373215188033   T   T   T
  0.8342894060167296  0.4375000002676046  0.2025710526275901   F   F   F
  0.8342894060167296  0.5625000001605613  0.2025710526275901   F   F   F
  0.8342894060167296  0.0625000001605613  0.2025710526275901   F   F   F
  0.8342894060167296  0.6875000000535181  0.2025710526275901   F   F   F
  0.8342894060167296  0.8124999999464819  0.2025710526275901   F   F   F
  0.8342894060167296  0.9375000002676046  0.2025710526275901   F   F   F
  0.8342894060167296  0.1875000000535181  0.2025710526275901   F   F   F
  0.8342894060167296  0.3124999999464819  0.2025710526275901   F   F   F
  0.0837405070822575  0.5618930579037877  0.4556320366077705   T   T   T
  0.0839127116213831  0.3120861039617659  0.4550149878804379   T   T   T
  0.0841370569825472  0.9380635519008044  0.4552940102004567   T   T   T
  0.0841250646713092  0.4373726778820771  0.4532224777398200   T   T   T
  0.0844150395964123  0.6871334646645402  0.4548839765736229   T   T   T
  0.0843992675504412  0.1869515665073099  0.4557164570794291   T   T   T
  0.0843373440191506  0.0628752650330378  0.4560063101084497   T   T   T
  0.0850785459783107  0.8128755214865347  0.4573433450594171   T   T   T
  0.9151198589726178  0.9366784200490891  0.4567923831039505   T   T   T
  0.9152017088524114  0.5623266120149498  0.4533448749828443   T   T   T
  0.9153754859737949  0.1868431844808318  0.4539962629825372   T   T   T
  0.9155590435973469  0.4365320942579776  0.4548604907432321   T   T   T
  0.9158009274814497  0.6877672842130473  0.4532483014480558   T   T   T
  0.9162391928500739  0.8121745079621957  0.4528974577467754   T   T   T
  0.9164124943517941  0.3113525419243212  0.4539175323851030   T   T   T
  0.9174653699539093  0.4375000002676046  0.2838671249793236   F   F   F
  0.9174653699539093  0.5625000001605613  0.2838671249793236   F   F   F
  0.9174653699539093  0.0625000001605613  0.2838671249793236   F   F   F
  0.9174653699539093  0.6875000000535181  0.2838671249793236   F   F   F
  0.9174653699539093  0.8124999999464819  0.2838671249793236   F   F   F
  0.9174653699539093  0.9375000002676046  0.2838671249793236   F   F   F
  0.9174653699539093  0.1875000000535181  0.2838671249793236   F   F   F
  0.9174653699539093  0.3124999999464819  0.2838671249793236   F   F   F
  0.9171201681723558  0.0620845652637805  0.4550429729748302   T   T   T
  0.1657105641648826  0.4375000002676046  0.2025710526275901   F   F   F
  0.1657105641648826  0.5625000001605613  0.2025710526275901   F   F   F
  0.1657105641648826  0.0625000001605613  0.2025710526275901   F   F   F