Mo  S                                   
   1.00000000000000     
     3.1610000000000000    0.0000000000000000    0.0000000000000000
    -1.8049999999999999    2.7374999999999998    0.0000000000000000
     0.0000000000000000    0.0000000000000000   12.2949999999999999
   Mo   S 
     2     4
Direct
  0.3683652619398412  0.6689929609993204  0.2500000000000000
  0.7026578809364512  0.3310093407358377  0.7500000000000000
  0.3754841016510783  0.6681608312850710  0.6374011451281101
  0.6955390412252143  0.3318414704500869  0.1374011451281102
  0.6955390412252143  0.3318414704500869  0.3625988548718896
  0.3754841016510783  0.6681608312850710  0.8625988548718899
 
  0.00000000E+00  0.00000000E+00  0.00000000E+00
  0.00000000E+00  0.00000000E+00  0.00000000E+00
  0.00000000E+00  0.00000000E+00  0.00000000E+00
  0.00000000E+00  0.00000000E+00  0.00000000E+00
  0.00000000E+00  0.00000000E+00  0.00000000E+00
  0.00000000E+00  0.00000000E+00  0.00000000E+00
