Ru Ta  N  Cu                            
   1.00000000000000     
    18.1096308199999996    0.0000000000000000    0.0000000000000000
     0.0000000000000000   23.3551997799999995    0.0000000000000000
     0.0000000000000000    0.0000000000000000   30.4818170799999990
   Ru   Ta   N    Cu
    64   240   240     2
Selective dynamics
Direct
  0.0673960114325450  0.0106002166101349  0.5335065165452071   T   T   T
  0.2807193548352407  0.5068043641879244  0.5276950810487389   T   T   T
  0.4421517507695177  0.0626548981245349  0.5194372524937030   T   T   T
  0.0713480083513016  0.2604350492882777  0.5343105198114542   T   T   T
  0.2852173315138636  0.2484569277418407  0.5252211262491961   T   T   T
  0.4418878279869226  0.3095938628967267  0.5199163520119692   T   T   T
  0.0670058956045474  0.1221635246116561  0.5330759498116684   T   T   T
  0.2859257336118429  0.1316139157894269  0.5249840466824182   T   T   T
  0.4455138235680796  0.1854906683277509  0.5208666603575727   T   T   T
  0.0693996063956244  0.3727465814348487  0.5331132192532835   T   T   T
  0.2773284823561044  0.3866135178441882  0.5284282959374530   T   T   T
  0.4331636983542976  0.4363981832029654  0.5187096478813917   T   T   T
  0.1667964917408248  0.4369647409330263  0.5513702032353913   T   T   T
  0.1892635249431903  0.3090261353207648  0.5506215276177825   T   T   T
  0.1733732798869113  0.1821165976479587  0.5489136467851256   T   T   T
  0.1862147908309350  0.0610010241660614  0.5501784566358859   T   T   T
  0.0690851264503244  0.5137352054662375  0.5332746093973298   T   T   T
  0.2857784336020496  0.9992218924165249  0.5248220532625959   T   T   T
  0.4431136845509426  0.5629082966712987  0.5201934730219923   T   T   T
  0.0693993754618825  0.7630205880569764  0.5337145850943291   T   T   T
  0.2843765780613969  0.7501904438569725  0.5251193391884278   T   T   T
  0.4411769992029124  0.8121311571471452  0.5193704420581312   T   T   T
  0.0655465306283805  0.6259159771414301  0.5331189554277133   T   T   T
  0.2830916393633326  0.6345627297477873  0.5257514224281997   T   T   T
  0.4461053306481823  0.6885274226295572  0.5208058095544714   T   T   T
  0.0680794799344405  0.8747292670349143  0.5336091855603557   T   T   T
  0.2845374645929187  0.8821237306657699  0.5253603019138540   T   T   T
  0.4451105332398320  0.9371369832424837  0.5210720052748685   T   T   T
  0.1743551499903523  0.9385485914487510  0.5482205870469309   T   T   T
  0.1875605626509216  0.8119895728750516  0.5512831333622219   T   T   T
  0.1716362569008734  0.6875623287927948  0.5491715432679329   T   T   T
  0.1843641342965213  0.5647427926348519  0.5516160675266699   T   T   T
  0.5691281014733626  0.0047285286592387  0.5335145190493182   T   T   T
  0.7866621605217595  0.4962712412845467  0.5247464013937859   T   T   T
  0.9409368315465373  0.0603918487010313  0.5192737405908622   T   T   T
  0.5688072200021539  0.2465307733170271  0.5340767869443314   T   T   T
  0.7850703082634879  0.2463484432527156  0.5251622541532580   T   T   T
  0.9447285799720608  0.3091507737855267  0.5200262200022537   T   T   T
  0.5662558555860059  0.1158992979260490  0.5333167663081160   T   T   T
  0.7889870592937248  0.1224177585357912  0.5240235529724807   T   T   T
  0.9465959082030624  0.1872358673687189  0.5213257614034099   T   T   T
  0.5693313585020902  0.3550860029625632  0.5339482105470407   T   T   T
  0.7912839121573456  0.3763130087554643  0.5236851187547967   T   T   T
  0.9490854796142291  0.4376781885720150  0.5219644271369082   T   T   T
  0.6762328125176466  0.4300714924776183  0.5478554760436805   T   T   T
  0.6895384103301841  0.3163214178644559  0.5519697558039143   T   T   T
  0.6784750705744220  0.1860784321546287  0.5478114441990387   T   T   T
  0.6848219644541785  0.0679234963505302  0.5518215338286939   T   T   T
  0.5732708394393333  0.5207563736748430  0.5358237010491993   T   T   T
  0.7818554805811189  0.9991621199584449  0.5256728463483079   T   T   T
  0.9412515056343495  0.5605190120700105  0.5196264834532095   T   T   T
  0.5665103292702223  0.7604207397069680  0.5330501757151587   T   T   T
  0.7884138759707128  0.7540570868812562  0.5242878264812083   T   T   T
  0.9416238397710430  0.8110832797227840  0.5193285448919578   T   T   T
  0.5689243851824158  0.6297211798603990  0.5345689299048143   T   T   T
  0.7847944377270067  0.6322410934933372  0.5251754915719291   T   T   T
  0.9469826787716666  0.6880216154619015  0.5213690780317948   T   T   T
  0.5675860650146825  0.8711706117851064  0.5335989296554970   T   T   T
  0.7823293510880358  0.8762251406581039  0.5256133138330026   T   T   T
  0.9469774973686478  0.9373065987765278  0.5209315366346384   T   T   T
  0.6742672834649550  0.9373873994999125  0.5484456694244100   T   T   T
  0.6841736571086083  0.8087395386762701  0.5521068930349879   T   T   T
  0.6774867203059758  0.6915081880456815  0.5480527084113787   T   T   T
  0.6918536579223505  0.5597071720802343  0.5503470435583490   T   T   T
  0.9996246524628063  0.9999635445867767  0.1022212275957983   F   F   F
  0.3339438256838960  0.0624457813299060  0.1075563970202325   F   F   F
  0.1656734882889026  0.0624869619810369  0.1076523577670159   F   F   F
  0.2496380332605455  0.1248777014917124  0.1827535963680589   F   F   F
  0.0820753910794778  0.0624168821917976  0.1887361965005994   F   F   F
  0.4168249566545654  0.0624128089775482  0.1889653308070223   F   F   F
  0.0003369263665759  0.1249309754861581  0.2747608846434139   T   T   T
  0.3320683811859239  0.0624115837622403  0.2731693873217693   T   T   T
  0.1677340668059120  0.0624397287250017  0.2728156018540036   T   T   T
  0.2492966469913404  0.1249895457801486  0.3596096356241149   T   T   T
  0.0839717913631271  0.0625207150873534  0.3592061977959952   T   T   T
  0.4161626798892064  0.0623906252980939  0.3589571195435784   T   T   T
  0.4961927617476826  0.1248327258310441  0.4437682650725955   T   T   T
  0.3322788878031695  0.0622207996515337  0.4450697445025838   T   T   T
  0.1656247925038464  0.0626180445826105  0.4473301744886042   T   T   T
  0.9996175425524214  0.1249358288969233  0.1022184789678420   F   F   F
  0.3339435537114426  0.1874256191358299  0.1075504356733603   F   F   F
  0.1656688965935942  0.1874633245330628  0.1076544484778310   F   F   F
  0.2496428192825420  0.2499248694537357  0.1827745152021549   F   F   F
  0.0820483011947246  0.1874164370395803  0.1887315368489411   F   F   F
  0.4168235962087010  0.1874178821048673  0.1889761876915443   F   F   F
  0.0003491370317217  0.2499355426046144  0.2748083663937542   T   T   T
  0.3321087810149284  0.1874499412401363  0.2732153634891938   T   T   T
  0.1677198664055991  0.1874765551381628  0.2728740634155978   T   T   T
  0.2492567074431083  0.2500209248221171  0.3596820116651227   T   T   T
  0.0838138493550938  0.1875468110879251  0.3594804433477863   T   T   T
  0.4159904648478605  0.1874506430307161  0.3588434841174755   T   T   T
  0.4963853685352691  0.2491346855538471  0.4440219614060466   T   T   T
  0.3326283442807098  0.1870394522701721  0.4442035570069665   T   T   T
  0.1643307669136667  0.1875158826274017  0.4480097247027284   T   T   T
  0.9996247444640574  0.2499647011854407  0.1022230082490267   F   F   F
  0.3339438339619036  0.3124448417397900  0.1075557633545969   F   F   F
  0.1656741876920407  0.3124866150128511  0.1076519504247102   F   F   F
  0.2496342491082189  0.3748782083517597  0.1827543288382500   F   F   F
  0.0820773763724816  0.3124181279228466  0.1887355922833933   F   F   F
  0.4168238893201348  0.3124134579098339  0.1889644027201030   F   F   F
  0.0003187599421647  0.3749286294688831  0.2748052648808011   T   T   T
  0.3320659539556773  0.3124503632822022  0.2732118453317744   T   T   T
  0.1676334585060863  0.3124659131721510  0.2729155081324257   T   T   T
  0.2492868532596387  0.3750517479242378  0.3597207564085921   T   T   T
  0.0838439624031088  0.3125658004227024  0.3595382627663254   T   T   T
  0.4161235218803426  0.3124890690948661  0.3591070394261303   T   T   T
  0.4976185831351278  0.3746082830371249  0.4438504512424264   T   T   T
  0.3322270240612250  0.3120493930674927  0.4454212554005487   T   T   T
  0.1660141874089476  0.3126272179981402  0.4475026947466855   T   T   T
  0.9996196554118555  0.3749345235867736  0.1022175688270863   F   F   F
  0.3339389444248013  0.4374272239936090  0.1075500232538360   F   F   F
  0.1656692123176882  0.4374660331456823  0.1076535614342404   F   F   F
  0.2496367764464793  0.9999279799998888  0.1827742299965678   F   F   F
  0.0820476334098430  0.4374171254006285  0.1887298800136392   F   F   F
  0.4168193524269412  0.4374154383080295  0.1889763507298241   F   F   F
  0.5003027366837158  0.4998658739978891  0.2748516442461270   T   T   T
  0.3321687876891515  0.4374214216350161  0.2732957538198558   T   T   T
  0.1676058999090620  0.4374405825477241  0.2729713372530518   T   T   T
  0.2493663720213735  0.5000051110385839  0.3597633767646992   T   T   T
  0.0837970333992505  0.4375081681800011  0.3596975230587921   T   T   T
  0.4160926069264878  0.4374483303047349  0.3593052367280460   T   T   T
  0.4984353572565781  0.4995329537988554  0.4443850551047882   T   T   T
  0.3334303320443563  0.4370786580617299  0.4454685217734242   T   T   T
  0.1648124861976941  0.4378654739979352  0.4479965463247667   T   T   T
  0.9996246524628063  0.4999635445867767  0.1022212275957983   F   F   F
  0.3339438256838960  0.5624457813299060  0.1075563970202325   F   F   F
  0.1656734882889026  0.5624869619810369  0.1076523577670159   F   F   F
  0.2496380332605455  0.6248777014917124  0.1827535963680589   F   F   F
  0.0820753910794778  0.5624168821917976  0.1887361965005994   F   F   F
  0.4168249566545654  0.5624128089775482  0.1889653308070223   F   F   F
  0.0002416120577877  0.6248407225911949  0.2748015302618558   T   T   T
  0.3321280730699070  0.5623631979636405  0.2732387933411281   T   T   T
  0.1676888212616509  0.5623918231034279  0.2729150677158378   T   T   T
  0.2493942892229134  0.6249560452347888  0.3597554294108088   T   T   T
  0.0837932634063287  0.5624789444123607  0.3594314441028841   T   T   T
  0.4161256094145652  0.5623217149953064  0.3592856786481964   T   T   T
  0.4967531437183352  0.6251284111223312  0.4441675300405530   T   T   T
  0.3323200595171344  0.5622170826386321  0.4457926612988208   T   T   T
  0.1653438403722531  0.5628876301717356  0.4473807654270529   T   T   T
  0.9996175425524214  0.6249358288969233  0.1022184789678420   F   F   F
  0.3339435537114426  0.6874256191358228  0.1075504356733603   F   F   F
  0.1656688965935942  0.6874633245330557  0.1076544484778310   F   F   F
  0.2496428192825420  0.7499248694537357  0.1827745152021549   F   F   F
  0.0820483011947246  0.6874164370395732  0.1887315368489411   F   F   F
  0.4168235962087010  0.6874178821048602  0.1889761876915443   F   F   F
  0.0002738322516234  0.7498635615577428  0.2747725485405201   T   T   T
  0.3321644406468767  0.6873579509016658  0.2732580550778944   T   T   T
  0.1677098072313033  0.6873694177770214  0.2728977626657298   T   T   T
  0.2493284347974303  0.7500162977662439  0.3596998561145490   T   T   T
  0.0837107372162880  0.6874688500000791  0.3594681814095499   T   T   T
  0.4159815775263846  0.6873743643065096  0.3590147222761499   T   T   T
  0.4956291602724533  0.7498190090547975  0.4439651646287607   T   T   T
  0.3327925778922924  0.6871498797464322  0.4446537301015404   T   T   T
  0.1641437779684825  0.6879794939002403  0.4479532790831787   T   T   T
  0.9996247444640574  0.7499647011854407  0.1022230082490267   F   F   F
  0.3339438339619036  0.8124448417397900  0.1075557633545969   F   F   F
  0.1656741876920407  0.8124866150128511  0.1076519504247102   F   F   F
  0.2496342491082189  0.8748782083517597  0.1827543288382500   F   F   F
  0.0820773763724816  0.8124181279228466  0.1887355922833933   F   F   F
  0.4168238893201348  0.8124134579098339  0.1889644027201030   F   F   F
  0.0003164458828533  0.8748959704354289  0.2747469411690703   T   T   T
  0.3320945773395511  0.8123683025055720  0.2731890991898290   T   T   T
  0.1677455010058492  0.8123793676840767  0.2728332658659388   T   T   T
  0.2493550506749659  0.8749473178665473  0.3596703181492801   T   T   T
  0.0839072940468033  0.8124754693510381  0.3591984036332701   T   T   T
  0.4160993890819837  0.8123826176223415  0.3590567477358150   T   T   T
  0.4961357838204646  0.8751333044354354  0.4440757940368576   T   T   T
  0.3322493411956444  0.8125040987329127  0.4453178597889974   T   T   T
  0.1656416276432944  0.8128729179989732  0.4472717423652930   T   T   T
  0.9996196554118555  0.8749345235867736  0.1022175688270863   F   F   F
  0.3339389444248013  0.9374272239936019  0.1075500232538360   F   F   F
  0.1656692123176882  0.9374660331456752  0.1076535614342404   F   F   F
  0.2496367764464793  0.4999279799998888  0.1827742299965678   F   F   F
  0.0820476334098430  0.9374171254006214  0.1887298800136392   F   F   F
  0.4168193524269412  0.9374154383080224  0.1889763507298241   F   F   F
  0.5002549683114513  0.9998701796796139  0.2747357576858584   T   T   T
  0.3321505599116752  0.9373880981713640  0.2732305945994177   T   T   T
  0.1677734287218604  0.9374007541263789  0.2728182044767060   T   T   T
  0.2493417977614276  0.0000202294645582  0.3596406366689593   T   T   T
  0.0838825860976674  0.9374726794508529  0.3593088517486551   T   T   T
  0.4160395226131397  0.9373929978555083  0.3588992078426875   T   T   T
  0.4959960381800014  0.9996492097874218  0.4441354239827420   T   T   T
  0.3325475152514364  0.9373263185036540  0.4443131196580824   T   T   T
  0.1644160984562113  0.9378410800750593  0.4479238379279516   T   T   T
  0.4996261485864011  0.9999638794554073  0.1022212895025945   F   F   F
  0.8339437371848675  0.0624482785398897  0.1075580759875550   F   F   F
  0.6656689243728380  0.0624780056916450  0.1076592327669417   F   F   F
  0.7496377014008289  0.1248750966894079  0.1827574333080477   F   F   F
  0.5820735458319604  0.0624174442172745  0.1887352315057669   F   F   F
  0.9168252921289621  0.0624138005358219  0.1889639379559043   F   F   F
  0.5002719108296705  0.1248916983528367  0.2747421633940397   T   T   T
  0.8321796201994948  0.0623599771185887  0.2731709528417858   T   T   T
  0.6678034019908944  0.0623506681858687  0.2728077210548691   T   T   T
  0.7494855615984758  0.1246306999069175  0.3596187457997182   T   T   T
  0.5838423841519630  0.0622868180900026  0.3590505491848107   T   T   T
  0.9163159268803427  0.0622912047873882  0.3589822541899608   T   T   T
  0.9951861386446942  0.1246413284093616  0.4442041196181187   T   T   T
  0.8327461471448511  0.0620944086895274  0.4450227339227436   T   T   T
  0.6655973751002967  0.0621519876550293  0.4469050684700658   T   T   T
  0.4996213536236240  0.1249348955726433  0.1022183024833154   F   F   F
  0.8339388961320680  0.1874236234033546  0.1075519903559652   F   F   F
  0.6656669566206190  0.1874574838225769  0.1076541056651124   F   F   F
  0.7496375557706187  0.2499211919418656  0.1827775726101990   F   F   F
  0.5820467926301731  0.1874136002736648  0.1887331258771638   F   F   F
  0.9168211714113710  0.1874148173649246  0.1889752459503455   F   F   F
  0.5002580206684660  0.2499343702040555  0.2747776052528321   T   T   T
  0.8322716711632144  0.1873847258845451  0.2732446017957098   T   T   T
  0.6677831194150046  0.1873677640178635  0.2728310566116600   T   T   T
  0.7494580407717027  0.2497313940825679  0.3596961961083984   T   T   T
  0.5837687558764958  0.1872927735896823  0.3592578315844644   T   T   T
  0.9162833698609105  0.1873338732279373  0.3590137895170783   T   T   T
  0.9955192392960541  0.2493216335407855  0.4445938670785842   T   T   T
  0.8322131814921071  0.1870235109606710  0.4444519118703553   T   T   T
  0.6647305960132662  0.1868149266237953  0.4478706261410836   T   T   T
  0.4996265847195431  0.2499624135589542  0.1022211658925301   F   F   F
  0.8339432913754052  0.3124470264806618  0.1075580597257542   F   F   F
  0.6656786166489255  0.3124812578813660  0.1076589101753385   F   F   F
  0.7496359798815462  0.3748756411498491  0.1827578042801292   F   F   F
  0.5820751330297256  0.3124154754956550  0.1887345581865603   F   F   F
  0.9168256971425777  0.3124110138011744  0.1889624020058491   F   F   F
  0.5002753310121443  0.3749515535312717  0.2748252496378359   T   T   T
  0.8322031838633598  0.3123884941595623  0.2732733651360812   T   T   T
  0.6678046659864931  0.3123844605728378  0.2728710333229985   T   T   T
  0.7492601197258807  0.3747094121289604  0.3598212461980120   T   T   T
  0.5839564140823555  0.3122694500288321  0.3592249076257383   T   T   T
  0.9164540011027518  0.3123166747017920  0.3592429159275419   T   T   T
  0.9940186968393374  0.3745200657575711  0.4452879940159976   T   T   T
  0.8322842469506101  0.3120206039904213  0.4451807435832543   T   T   T
  0.6653426301212532  0.3118843494488958  0.4472700666629313   T   T   T
  0.4996231203952064  0.3749337364865255  0.1022171720136171   F   F   F
  0.8339311317052278  0.4374224703005467  0.1075522038351053   F   F   F
  0.6656706818776428  0.4374574332997483  0.1076540871022118   F   F   F
  0.7496383104150084  0.9999213865668750  0.1827756388646549   F   F   F
  0.5820474546648100  0.4374150382907018  0.1887310280212660   F   F   F
  0.9168210958579976  0.4374163027642837  0.1889749839040178   F   F   F
  0.0002209468220077  0.4999035999237605  0.2748163894586964   T   T   T
  0.8322684618701474  0.4373797111874143  0.2733866774864694   T   T   T
  0.6678092261756189  0.4373996032202706  0.2729557958658007   T   T   T
  0.7491215027259921  0.4998755097641047  0.3600214202855044   T   T   T
  0.5838005480171271  0.4373751914514006  0.3596886757672584   T   T   T
  0.9163557324848015  0.4373547304107019  0.3592086589670581   T   T   T
  0.9947942320534001  0.4992176074145972  0.4448481809687947   T   T   T
  0.8319674215833041  0.4370715609076395  0.4440405414626273   T   T   T
  0.6636239116962859  0.4369788669835144  0.4490320092711391   T   T   T
  0.4996261485864011  0.4999638794554073  0.1022212895025945   F   F   F
  0.8339437371848675  0.5624482785398897  0.1075580759875550   F   F   F
  0.6656689243728380  0.5624780056916450  0.1076592327669417   F   F   F
  0.7496377014008289  0.6248750966894079  0.1827574333080477   F   F   F
  0.5820735458319604  0.5624174442172745  0.1887352315057669   F   F   F
  0.9168252921289621  0.5624138005358219  0.1889639379559043   F   F   F
  0.5002764145305896  0.6248384499431943  0.2748234554864218   T   T   T
  0.8321126370559705  0.5623537078433843  0.2733060367592520   T   T   T
  0.6677554910027917  0.5623887131503340  0.2729491017886163   T   T   T
  0.7493443934697072  0.6248397521023259  0.3598963820234935   T   T   T
  0.5839433403750811  0.5623971507359047  0.3595137857956903   T   T   T
  0.9161956879600884  0.5623364337283796  0.3592924222566077   T   T   T
  0.9943533449240183  0.6246851655227704  0.4445744384527788   T   T   T
  0.8319952470189308  0.5621633992280620  0.4458070751976657   T   T   T
  0.6651680693987169  0.5623146405207651  0.4480590044097064   T   T   T
  0.4996213536236240  0.6249348955726433  0.1022183024833154   F   F   F
  0.8339388961320680  0.6874236234033475  0.1075519903559652   F   F   F
  0.6656669566206190  0.6874574838225698  0.1076541056651124   F   F   F
  0.7496375557706187  0.7499211919418656  0.1827775726101990   F   F   F
  0.5820467926301731  0.6874136002736577  0.1887331258771638   F   F   F
  0.9168211714113710  0.6874148173649175  0.1889752459503455   F   F   F
  0.5002535098983063  0.7498427459782249  0.2747719938428568   T   T   T
  0.8322304816323149  0.6873335852611547  0.2732809466095393   T   T   T
  0.6677612723902683  0.6873464722498577  0.2728656698917096   T   T   T
  0.7494664855614055  0.7499811217430393  0.3596887642997507   T   T   T
  0.5837263896397507  0.6873813196127948  0.3593836885044686   T   T   T
  0.9161499275843468  0.6873271214739832  0.3590992466412410   T   T   T
  0.9958634416861663  0.7494328656298608  0.4441908348296449   T   T   T
  0.8320278386703398  0.6872388146557918  0.4445685621211315   T   T   T
  0.6645593188077087  0.6879069016818836  0.4479688698615113   T   T   T
  0.4996265847195431  0.7499624135589542  0.1022211658925301   F   F   F
  0.8339432913754052  0.8124470264806618  0.1075580597257542   F   F   F
  0.6656786166489255  0.8124812578813660  0.1076589101753385   F   F   F
  0.7496359798815462  0.8748756411498491  0.1827578042801292   F   F   F
  0.5820751330297256  0.8124154754956550  0.1887345581865603   F   F   F
  0.9168256971425777  0.8124110138011744  0.1889624020058491   F   F   F
  0.5002341186774140  0.8748586200045393  0.2747396771460857   T   T   T
  0.8321849781359097  0.8123392851344683  0.2732032160655037   T   T   T
  0.6678004506471629  0.8123512464161438  0.2728255640912968   T   T   T
  0.7494950401329505  0.8748007215212921  0.3596421858872782   T   T   T
  0.5838064298737393  0.8124139304072795  0.3590754300108314   T   T   T
  0.9162406647707625  0.8124022463342523  0.3590496566674499   T   T   T
  0.9960536098483340  0.8747354908986615  0.4440226572333345   T   T   T
  0.8328212105060186  0.8124108114881017  0.4450875915239292   T   T   T
  0.6654665719189524  0.8126310185254867  0.4469219357458283   T   T   T
  0.4996231203952064  0.8749337364865255  0.1022171720136171   F   F   F
  0.8339311317052278  0.9374224703005396  0.1075522038351053   F   F   F
  0.6656706818776428  0.9374574332997412  0.1076540871022118   F   F   F
  0.7496383104150084  0.4999213865668750  0.1827756388646549   F   F   F
  0.5820474546648100  0.9374150382906947  0.1887310280212660   F   F   F
  0.9168210958579976  0.9374163027642766  0.1889749839040178   F   F   F
  0.0003414156152558  0.9998860092505902  0.2747486621670315   T   T   T
  0.8322034047236843  0.9373614893455419  0.2731785417168693   T   T   T
  0.6677859439283360  0.9373522616996687  0.2727976303524183   T   T   T
  0.7494951357285029  0.9998112871612239  0.3596149834818014   T   T   T
  0.5836744017560758  0.9373695170763117  0.3592246962668048   T   T   T
  0.9161928355622520  0.9373404258457766  0.3588712282278346   T   T   T
  0.9961454896034694  0.9993686963183890  0.4438097225366416   T   T   T
  0.8324596633620206  0.9372387304465031  0.4448727385994619   T   T   T
  0.6646866674882508  0.9373502450126560  0.4478135062681671   T   T   T
  0.4054220745019208  0.9999222115495812  0.1371706404740110   F   F   F
  0.2498130538845231  0.9999469596221715  0.1043552466225179   F   F   F
  0.0938777968594522  0.9999465964224399  0.1371098030237761   F   F   F
  0.1543635830516692  0.1248899271375592  0.2204647086472562   F   F   F
  0.9995670073461937  0.1248966516782701  0.2080976692853085   F   F   F
  0.3446973568903360  0.1248674306196307  0.2206598414842134   F   F   F
  0.4005468113060825  0.1248889091118687  0.3067291771888594   T   T   T
  0.2496664320613650  0.1249518362104282  0.2919627454933445   T   T   T
  0.0996276567562204  0.1250286857847552  0.3071310044071276   T   T   T
  0.1519198769792214  0.1251550493177141  0.3936758615766240   T   T   T
  0.4997807053766823  0.1248599929382902  0.3759652048132307   T   T   T
  0.3478655705319327  0.1246458104916258  0.3922393431327318   T   T   T
  0.3996591972869142  0.1257299903621475  0.4785099146163396   T   T   T
  0.2509293145937539  0.1253361656572280  0.4633018027898438   T   T   T
  0.0946653223665012  0.1245535570202786  0.4727220798096715   T   T   T
  0.4054214644049878  0.1249282036816339  0.1371697875501496   F   F   F
  0.2498118312390858  0.1249501818115135  0.1042602234590362   F   F   F
  0.0938664600244081  0.1249385922007349  0.1371069089706722   F   F   F
  0.1543560911150905  0.2498790211591952  0.2204709660202369   F   F   F
  0.9995706735895027  0.2499094862395950  0.2080999580462830   F   F   F
  0.3447055266517580  0.2498932390428195  0.2206623926809286   F   F   F
  0.4005327704472434  0.2500181478689995  0.3068208785751151   T   T   T
  0.2496406080048820  0.2499903431172844  0.2920248550414070   T   T   T
  0.0995916835028911  0.2500217904014960  0.3072445139405051   T   T   T
  0.1519292192370863  0.2501294575781506  0.3938760513354022   T   T   T
  0.4997758536914459  0.2497318053557148  0.3762073436037826   T   T   T
  0.3477100149241871  0.2504194979334002  0.3925488338597078   T   T   T
  0.3998668487206076  0.2481400768448424  0.4789351617332804   T   T   T
  0.2506884909635023  0.2495551748994240  0.4634975777561277   T   T   T
  0.0948719147192115  0.2512701901765139  0.4733783537875135   T   T   T
  0.4054229972694188  0.2499207711709062  0.1371716336629376   F   F   F
  0.2498138581555835  0.2499451823925298  0.1043557657097551   F   F   F
  0.0938776901322669  0.2499459403779412  0.1371098843944125   F   F   F
  0.1543617400249389  0.3748920346981564  0.2204674382050342   F   F   F
  0.9995672189247742  0.3748993922795947  0.2080981530608312   F   F   F
  0.3446956533108718  0.3748674624887514  0.2206599019871973   F   F   F
  0.4005312939076562  0.3749616066652384  0.3069212318340350   T   T   T
  0.2496487675763696  0.3749591325788915  0.2920435877497156   T   T   T
  0.0994746493206766  0.3750003130087467  0.3073243922582118   T   T   T
  0.1521639929212692  0.3752095510637501  0.3938364534592803   T   T   T
  0.4998542269259064  0.3747294476837817  0.3760840572664577   T   T   T
  0.3474279089997136  0.3750004392423132  0.3928112103582866   T   T   T
  0.4019525933898173  0.3727203508283733  0.4775977424758682   T   T   T
  0.2510344728965111  0.3758248252292422  0.4645433681802835   T   T   T
  0.0948494793035920  0.3746644080029322  0.4723563201927460   T   T   T
  0.4054204481464510  0.3749288137657416  0.1371674470345781   F   F   F
  0.2498106243523637  0.3749504007233213  0.1042578114000037   F   F   F
  0.0938682935435935  0.3749385903486697  0.1371059653233644   F   F   F
  0.1543531827738107  0.9998787448957458  0.2204712064644667   F   F   F
  0.9995677263797802  0.9999081653989563  0.2081008624749074   F   F   F
  0.3447067510723798  0.9998918897834912  0.2206650007889195   F   F   F
  0.4005946079824508  0.4998897846167923  0.3070043070659522   T   T   T
  0.2496795345192650  0.4999234028971921  0.2920913801511254   T   T   T
  0.0994843939624683  0.4999232065756765  0.3072698161515417   T   T   T
  0.1520560731240302  0.5001275814990160  0.3938454203454033   T   T   T
  0.4999173338867483  0.4999478148843773  0.3764747834473637   T   T   T
  0.3478739504516087  0.0002152460588529  0.3924068798474276   T   T   T
  0.4023302663024003  0.5009165102509473  0.4780702194616060   T   T   T
  0.2508706508622964  0.5002564464278606  0.4641554629834915   T   T   T
  0.0947570896592419  0.0013179975511933  0.4732182612513771   T   T   T
  0.4054220745019208  0.4999222115495883  0.1371706404740110   F   F   F
  0.2498130538845231  0.4999469596221715  0.1043552466225179   F   F   F
  0.0938777968594522  0.4999465964224399  0.1371098030237761   F   F   F
  0.1543635830516692  0.6248899271375592  0.2204647086472562   F   F   F
  0.9995670073461937  0.6248966516782701  0.2080976692853085   F   F   F
  0.3446973568903360  0.6248674306196307  0.2206598414842134   F   F   F
  0.4005781724855945  0.6247705650461510  0.3069041653425089   T   T   T
  0.2496843970882707  0.6248762205109941  0.2920790870333644   T   T   T
  0.0995171683909301  0.6249010450057583  0.3071999649216335   T   T   T
  0.1519146689686552  0.6252036088985259  0.3937573332717793   T   T   T
  0.4997470948227491  0.6249438053674338  0.3763174387677886   T   T   T
  0.3478492919153360  0.6245972019118554  0.3926995801796999   T   T   T
  0.4008643846176792  0.6260445583562491  0.4792151362497173   T   T   T
  0.2506787967057728  0.6257532653374315  0.4638495377102614   T   T   T
  0.0943223653996245  0.6249380662636920  0.4726727892811844   T   T   T
  0.4054214644049878  0.6249282036816339  0.1371697875501496   F   F   F
  0.2498118312390858  0.6249501818115135  0.1042602234590362   F   F   F
  0.0938664600244081  0.6249385922007349  0.1371069089706722   F   F   F
  0.1543560911150905  0.7498790211591952  0.2204709660202369   F   F   F
  0.9995706735895027  0.7499094862395950  0.2080999580462830   F   F   F
  0.3447055266517580  0.7498932390428195  0.2206623926809286   F   F   F
  0.4005490805614199  0.7498813854527033  0.3068207707422997   T   T   T
  0.2496849920917014  0.7498723915724754  0.2920367098950847   T   T   T
  0.0995678938255588  0.7498822606384946  0.3071243030887362   T   T   T
  0.1518658800881820  0.7501305778916503  0.3936923100380852   T   T   T
  0.4997243422422474  0.7498861626047104  0.3761669207438779   T   T   T
  0.3477900600039426  0.7502386145898722  0.3925543437298480   T   T   T
  0.3990089576260250  0.7489419547167812  0.4790085271478495   T   T   T
  0.2505085632548362  0.7499938587213991  0.4631944417148088   T   T   T
  0.0947600526062306  0.7516207497233981  0.4732938242932240   T   T   T
  0.4054229972694188  0.7499207711709062  0.1371716336629376   F   F   F
  0.2498138581555835  0.7499451823925369  0.1043557657097551   F   F   F
  0.0938776901322669  0.7499459403779412  0.1371098843944125   F   F   F
  0.1543617400249389  0.8748920346981564  0.2204674382050342   F   F   F
  0.9995672189247742  0.8748993922795947  0.2080981530608312   F   F   F
  0.3446956533108718  0.8748674624887514  0.2206599019871973   F   F   F
  0.4005535781765871  0.8748392699035789  0.3067872811938854   T   T   T
  0.2496850744348440  0.8748921760759919  0.2919961149736348   T   T   T
  0.0996329192676609  0.8749223640870664  0.3070574960819777   T   T   T
  0.1519034346873009  0.8751566344176901  0.3936503578965063   T   T   T
  0.4998044371076520  0.8749401965636869  0.3762018673769360   T   T   T
  0.3479251828329220  0.8747019918948306  0.3924190070973480   T   T   T