Ta  N Cu                                
   1.00000000000000     
    11.9754398999999996    0.0000000000000000    0.0000000000000000
    -1.7175315499999999   11.8516346499999994    0.0000000000000000
     0.0000000000000000    0.0000000000000000   22.7106327899999982
   Ta   N    Cu
    72    72     1
Selective dynamics
Direct
  0.9955339587019623  0.9955339540487174  0.2712224588739929   F   F   F
  0.2699333485827822  0.1030132974397020  0.3100259080635226   F   F   F
  0.1030132717436416  0.2699333822854797  0.3100259080635226   F   F   F
  0.3596205863249367  0.3596206399952564  0.3447007771003783   F   F   F
  0.1253409742651783  0.4593656738838163  0.3919418349552828   F   F   F
  0.4593656603424634  0.1253409739335112  0.3919418349552828   F   F   F
  0.2213937827428163  0.2213412791123686  0.4357168265731386   T   T   T
  0.4867347431572305  0.3201925064410968  0.4784440443312844   T   T   T
  0.3201990274044965  0.4866921320768546  0.4784284983913714   T   T   T
  0.0843687749264972  0.0843109464850144  0.5207943443076994   T   T   T
  0.3474928544258367  0.1813347322734292  0.5639577918800365   T   T   T
  0.1813662840893783  0.3474108928602238  0.5639381745227527   T   T   T
  0.4439023363367868  0.4438842050766650  0.6078203665765599   T   T   T
  0.2082906603228516  0.0432004316335331  0.6505085613988684   T   T   T
  0.0432597512030448  0.2082244361937908  0.6505028650801039   T   T   T
  0.3118476054848253  0.3118853367373056  0.6936567513125756   T   T   T
  0.0662035339082572  0.4039135752861665  0.7281185748502210   T   T   T
  0.4039682662874403  0.0661636392700273  0.7281619344226059   T   T   T
  0.9955339590589745  0.4955339536268326  0.2712224588739929   F   F   F
  0.2699333482257629  0.6030132978615868  0.3100259080635226   F   F   F
  0.1030132722216663  0.7699333827073573  0.3100259080635226   F   F   F
  0.3596205866819489  0.8596206395733716  0.3447007771003783   F   F   F
  0.1253409746221976  0.9593656734619316  0.3919418349552828   F   F   F
  0.4593656608204952  0.6253409743553888  0.3919418349552828   F   F   F
  0.2213361889234069  0.7212658477468666  0.4357533281699804   T   T   T
  0.4866812636665744  0.8201070546677399  0.4784762707439137   T   T   T
  0.3202203727081399  0.9866025568317619  0.4783767089820554   T   T   T
  0.0844442400535311  0.5844141395227658  0.5209318249658399   T   T   T
  0.3469872081393117  0.6814696312994833  0.5640620383740830   T   T   T
  0.1814058707662163  0.8471729570499511  0.5639432403334906   T   T   T
  0.4439440908412860  0.9438185524656731  0.6074469836025026   T   T   T
  0.2092717862873593  0.5433531754016334  0.6509849463406132   T   T   T
  0.0429824555034792  0.7076757244604519  0.6505208618103010   T   T   T
  0.3127813839603481  0.8121797142411828  0.6946732111162249   T   T   T
  0.0666367430924077  0.9043246895436997  0.7280730607478350   T   T   T
  0.4047700597207725  0.5697136187723904  0.7309155014288728   T   T   T
  0.4955339587019623  0.9955339540487174  0.2712224588739929   F   F   F
  0.7699333485827822  0.1030132974397020  0.3100259080635226   F   F   F
  0.6030132717436416  0.2699333822854797  0.3100259080635226   F   F   F
  0.8596205863249367  0.3596206399952564  0.3447007771003783   F   F   F
  0.6253409742651783  0.4593656738838163  0.3919418349552828   F   F   F
  0.9593656603424634  0.1253409739335112  0.3919418349552828   F   F   F
  0.7212825743211549  0.2213166803009730  0.4357650909534716   T   T   T
  0.9866137633677624  0.3201738172899082  0.4783879435996609   T   T   T
  0.8201243708207390  0.4866555957785214  0.4784800208496613   T   T   T
  0.5844482509927673  0.0844419263389305  0.5209544545263771   T   T   T
  0.8472062892657607  0.1814046361949760  0.5639635024509893   T   T   T
  0.6814874306288846  0.3469784195829691  0.5641093660027745   T   T   T
  0.9438129326713109  0.4439261907718189  0.6074545178725527   T   T   T
  0.7077062428050177  0.0429547319264261  0.6505642740743938   T   T   T
  0.5433930077557508  0.2093033015803713  0.6510578409322058   T   T   T
  0.8122042966171694  0.3128221013105458  0.6947256207675100   T   T   T
  0.5695762454488457  0.4048916238343322  0.7309591285419037   T   T   T
  0.9044174213173896  0.0665182682341655  0.7280906566932368   T   T   T
  0.4955339590589745  0.4955339536268326  0.2712224588739929   F   F   F
  0.7699333482257629  0.6030132978615868  0.3100259080635226   F   F   F
  0.6030132722216663  0.7699333827073573  0.3100259080635226   F   F   F
  0.8596205866819489  0.8596206395733716  0.3447007771003783   F   F   F
  0.6253409746221976  0.9593656734619316  0.3919418349552828   F   F   F
  0.9593656608204952  0.6253409743553888  0.3919418349552828   F   F   F
  0.7212859848785173  0.7212735851899856  0.4357506948728105   T   T   T
  0.9865419654643638  0.8201567469181492  0.4783844514115416   T   T   T
  0.8201610302208238  0.9865414531049257  0.4783872608046812   T   T   T
  0.5843968888677874  0.5843784744067841  0.5209511171622698   T   T   T
  0.8469717594251266  0.6814385594099039  0.5641347868797051   T   T   T
  0.6814476793489186  0.8469727379506143  0.5641403671928384   T   T   T
  0.9436838809171276  0.9436443850091130  0.6075120998301619   T   T   T
  0.7073019690816031  0.5428485071886965  0.6506631344746082   T   T   T
  0.5428068711573024  0.7073282768119713  0.6506288980229749   T   T   T
  0.8131534815512923  0.8130641801994176  0.6948488070352292   T   T   T
  0.5666123681207466  0.9050194045324712  0.7281897496660116   T   T   T
  0.9050204441987584  0.5666446236123599  0.7281711816772082   T   T   T
  0.4506180773709048  0.1400782132052782  0.2976725581183857   F   F   F
  0.2642075833142314  0.2642075209653356  0.2836189927733201   F   F   F
  0.1400781798198807  0.4506180903161052  0.2976725581183857   F   F   F
  0.3074132852265237  0.9999309000767909  0.3839488749030693   F   F   F
  0.1352939988863540  0.1352940283866033  0.3689431455789318   F   F   F
  0.9999308780646601  0.3074132624267207  0.3839488749030693   F   F   F
  0.1683645363701712  0.3643544942451316  0.4691607813537691   T   T   T
  0.4970186538694074  0.4970001353014001  0.4538365538572433   T   T   T
  0.3644217914389993  0.1683419399238117  0.4691783908867920   T   T   T
  0.0295959392487050  0.2251063031966343  0.5548614420310614   T   T   T
  0.3573340877646531  0.3572958401911243  0.5399275946417631   T   T   T
  0.2252040404899149  0.0295550601142565  0.5548674267719182   T   T   T
  0.3901690658668598  0.0877341664055856  0.6393391974383505   T   T   T
  0.2215118487235275  0.2214620349279093  0.6273160705839038   T   T   T
  0.0877227920135150  0.3900894225029669  0.6393003516490773   T   T   T
  0.2513568846904068  0.4509035365883671  0.7289645782682027   T   T   T
  0.0756002745683600  0.0755203746387035  0.7090752512316485   T   T   T
  0.4508403909692943  0.2514314732826263  0.7290132131457510   T   T   T
  0.4506180777279170  0.6400782127833935  0.2976725581183857   F   F   F
  0.2642075828362067  0.7642075205434509  0.2836189927733201   F   F   F
  0.1400781801769000  0.9506180898942276  0.2976725581183857   F   F   F
  0.3074132857045484  0.4999309004986756  0.3839488749030693   F   F   F
  0.1352939993643858  0.6352940288084810  0.3689431455789318   F   F   F
  0.9999308775866353  0.8074132620048431  0.3839488749030693   F   F   F
  0.1682498003686285  0.8642774173132647  0.4691565306252707   T   T   T
  0.4970539683743955  0.9969942454391594  0.4538026393219073   T   T   T
  0.3643457712861923  0.6682227648067819  0.4692509805882318   T   T   T
  0.0294434235588318  0.7250706190682195  0.5549690139411709   T   T   T
  0.3569587093598612  0.8569873263516372  0.5397720108342148   T   T   T
  0.2251760503460729  0.5296489603051394  0.5550781587104663   T   T   T
  0.3898399211173650  0.5876347361588967  0.6394180370815460   T   T   T
  0.2214215802133454  0.7216128032528847  0.6278977968034791   T   T   T
  0.0875386521632683  0.8898922753694485  0.6392173155258039   T   T   T
  0.2507833716168691  0.9511131242120041  0.7294798706453632   T   T   T
  0.0759968467680929  0.5756437982152716  0.7091295181129738   T   T   T
  0.4519568301970527  0.7514458652075482  0.7293195979811301   T   T   T
  0.9506180773709048  0.1400782132052782  0.2976725581183857   F   F   F
  0.7642075824791874  0.2642075209653356  0.2836189927733201   F   F   F
  0.6400781798198807  0.4506180903161052  0.2976725581183857   F   F   F
  0.8074132852265237  0.9999309000767909  0.3839488749030693   F   F   F
  0.6352939988863540  0.1352940283866033  0.3689431455789318   F   F   F
  0.4999308780646601  0.3074132624267207  0.3839488749030693   F   F   F
  0.6682473181730442  0.3643336953348881  0.4692742060194754   T   T   T
  0.9969896644271968  0.4970117985737676  0.4537952981556361   T   T   T
  0.8642782119257751  0.1682318506616666  0.4691699355185204   T   T   T
  0.5297173140529134  0.2251734791647109  0.5551271501666889   T   T   T
  0.8570061538862711  0.3569219689725825  0.5397879772421781   T   T   T
  0.7250953162457897  0.0294366056383239  0.5549970974848566   T   T   T
  0.8899203410229719  0.0874627892415392  0.6392306769054575   T   T   T
  0.7216559695357021  0.2214155911787801  0.6279654165103506   T   T   T
  0.5876279321647343  0.3898603762877832  0.6394789084228352   T   T   T
  0.7513933461268375  0.4520064875866628  0.7293560900303632   T   T   T
  0.5757368903034773  0.0760488314606857  0.7092099615922024   T   T   T
  0.9511401095371750  0.2507163319464774  0.7294647403668306   T   T   T
  0.9506180777279170  0.6400782127833935  0.2976725581183857   F   F   F
  0.7642075828362067  0.7642075205434509  0.2836189927733201   F   F   F
  0.6400781801769000  0.9506180898942276  0.2976725581183857   F   F   F
  0.8074132857045484  0.4999309004986756  0.3839488749030693   F   F   F
  0.6352939993643858  0.6352940288084810  0.3689431455789318   F   F   F
  0.4999308775866353  0.8074132620048431  0.3839488749030693   F   F   F
  0.6682481610744340  0.8642530633051489  0.4692414068868298   T   T   T
  0.9969548554786120  0.9969439452595061  0.4537387953122056   T   T   T
  0.8642559248720924  0.6682290121796614  0.4692395515919277   T   T   T
  0.5294380520518746  0.7249264921400013  0.5551135696070369   T   T   T
  0.8568707788519039  0.8568590618682308  0.5397429863421402   T   T   T
  0.7249434119703403  0.5294147485080672  0.5551362345046122   T   T   T
  0.8896573904983096  0.5875266314337382  0.6393157002005654   T   T   T
  0.7214851780470100  0.7214909406742209  0.6281486583045945   T   T   T
  0.5875266752259865  0.8896782320310839  0.6393238670234067   T   T   T
  0.7510919348502698  0.9518079046765332  0.7296765090502421   T   T   T
  0.5752768792274867  0.5753524663963776  0.7091144438843792   T   T   T
  0.9519490489866446  0.7510317314469608  0.7296897099186904   T   T   T
  0.4500748146724423  0.4508465949172893  0.8231235807499581   T   T   T
 
  0.00000000E+00  0.00000000E+00  0.00000000E+00
  0.00000000E+00  0.00000000E+00  0.00000000E+00
  0.00000000E+00  0.00000000E+00  0.00000000E+00
  0.00000000E+00  0.00000000E+00  0.00000000E+00
  0.00000000E+00  0.00000000E+00  0.00000000E+00
  0.00000000E+00  0.00000000E+00  0.00000000E+00
  0.00000000E+00  0.00000000E+00  0.00000000E+00
  0.00000000E+00  0.00000000E+00  0.00000000E+00
  0.00000000E+00  0.00000000E+00  0.00000000E+00
  0.00000000E+00  0.00000000E+00  0.00000000E+00
  0.00000000E+00  0.00000000E+00  0.00000000E+00
  0.00000000E+00  0.00000000E+00  0.00000000E+00
  0.00000000E+00  0.00000000E+00  0.00000000E+00
  0.00000000E+00  0.00000000E+00  0.00000000E+00
  0.00000000E+00  0.00000000E+00  0.00000000E+00
  0.00000000E+00  0.00000000E+00  0.00000000E+00
  0.00000000E+00  0.00000000E+00  0.00000000E+00
  0.00000000E+00  0.00000000E+00  0.00000000E+00
  0.00000000E+00  0.00000000E+00  0.00000000E+00
  0.00000000E+00  0.00000000E+00  0.00000000E+00
  0.00000000E+00  0.00000000E+00  0.00000000E+00
  0.00000000E+00  0.00000000E+00  0.00000000E+00
  0.00000000E+00  0.00000000E+00  0.00000000E+00
  0.00000000E+00  0.00000000E+00  0.00000000E+00
  0.00000000E+00  0.00000000E+00  0.00000000E+00
  0.00000000E+00  0.00000000E+00  0.00000000E+00
  0.00000000E+00  0.00000000E+00  0.00000000E+00
  0.00000000E+00  0.00000000E+00  0.00000000E+00
  0.00000000E+00  0.00000000E+00  0.00000000E+00
  0.00000000E+00  0.00000000E+00  0.00000000E+00
  0.00000000E+00  0.00000000E+00  0.00000000E+00
  0.00000000E+00  0.00000000E+00  0.00000000E+00
  0.00000000E+00  0.00000000E+00  0.00000000E+00
  0.00000000E+00  0.00000000E+00  0.00000000E+00
  0.00000000E+00  0.00000000E+00  0.00000000E+00
  0.00000000E+00  0.00000000E+00  0.00000000E+00
  0.00000000E+00  0.00000000E+00  0.00000000E+00
  0.00000000E+00  0.00000000E+00  0.00000000E+00
  0.00000000E+00  0.00000000E+00  0.00000000E+00
  0.00000000E+00  0.00000000E+00  0.00000000E+00
  0.00000000E+00  0.00000000E+00  0.00000000E+00
  0.00000000E+00  0.00000000E+00  0.00000000E+00
  0.00000000E+00  0.00000000E+00  0.00000000E+00
  0.00000000E+00  0.00000000E+00  0.00000000E+00
  0.00000000E+00  0.00000000E+00  0.00000000E+00
  0.00000000E+00  0.00000000E+00  0.00000000E+00
  0.00000000E+00  0.00000000E+00  0.00000000E+00
  0.00000000E+00  0.00000000E+00  0.00000000E+00
  0.00000000E+00  0.00000000E+00  0.00000000E+00
  0.00000000E+00  0.00000000E+00  0.00000000E+00
  0.00000000E+00  0.00000000E+00  0.00000000E+00
  0.00000000E+00  0.00000000E+00  0.00000000E+00
  0.00000000E+00  0.00000000E+00  0.00000000E+00
  0.00000000E+00  0.00000000E+00  0.00000000E+00
  0.00000000E+00  0.00000000E+00  0.00000000E+00
  0.00000000E+00  0.00000000E+00  0.00000000E+00
  0.00000000E+00  0.00000000E+00  0.00000000E+00
  0.00000000E+00  0.00000000E+00  0.00000000E+00
  0.00000000E+00  0.00000000E+00  0.00000000E+00
  0.00000000E+00  0.00000000E+00  0.00000000E+00
  0.00000000E+00  0.00000000E+00  0.00000000E+00
  0.00000000E+00  0.00000000E+00  0.00000000E+00
  0.00000000E+00  0.00000000E+00  0.00000000E+00
  0.00000000E+00  0.00000000E+00  0.00000000E+00
  0.00000000E+00  0.00000000E+00  0.00000000E+00
  0.00000000E+00  0.00000000E+00  0.00000000E+00
  0.00000000E+00  0.00000000E+00  0.00000000E+00
  0.00000000E+00  0.00000000E+00  0.00000000E+00
  0.00000000E+00  0.00000000E+00  0.00000000E+00
  0.00000000E+00  0.00000000E+00  0.00000000E+00
  0.00000000E+00  0.00000000E+00  0.00000000E+00
  0.00000000E+00  0.00000000E+00  0.00000000E+00
  0.00000000E+00  0.00000000E+00  0.00000000E+00
  0.00000000E+00  0.00000000E+00  0.00000000E+00
  0.00000000E+00  0.00000000E+00  0.00000000E+00
  0.00000000E+00  0.00000000E+00  0.00000000E+00
  0.00000000E+00  0.00000000E+00  0.00000000E+00
  0.00000000E+00  0.00000000E+00  0.00000000E+00
  0.00000000E+00  0.00000000E+00  0.00000000E+00
  0.00000000E+00  0.00000000E+00  0.00000000E+00
  0.00000000E+00  0.00000000E+00  0.00000000E+00
  0.00000000E+00  0.00000000E+00  0.00000000E+00
  0.00000000E+00  0.00000000E+00  0.00000000E+00
  0.00000000E+00  0.00000000E+00  0.00000000E+00
  0.00000000E+00  0.00000000E+00  0.00000000E+00
  0.00000000E+00  0.00000000E+00  0.00000000E+00
  0.00000000E+00  0.00000000E+00  0.00000000E+00
  0.00000000E+00  0.00000000E+00  0.00000000E+00
  0.00000000E+00  0.00000000E+00  0.00000000E+00
  0.00000000E+00  0.00000000E+00  0.00000000E+00
  0.00000000E+00  0.00000000E+00  0.00000000E+00
  0.00000000E+00  0.00000000E+00  0.00000000E+00
  0.00000000E+00  0.00000000E+00  0.00000000E+00
  0.00000000E+00  0.00000000E+00  0.00000000E+00
  0.00000000E+00  0.00000000E+00  0.00000000E+00
  0.00000000E+00  0.00000000E+00  0.00000000E+00
  0.00000000E+00  0.00000000E+00  0.00000000E+00
  0.00000000E+00  0.00000000E+00  0.00000000E+00
  0.00000000E+00  0.00000000E+00  0.00000000E+00
  0.00000000E+00  0.00000000E+00  0.00000000E+00
  0.00000000E+00  0.00000000E+00  0.00000000E+00
  0.00000000E+00  0.00000000E+00  0.00000000E+00
  0.00000000E+00  0.00000000E+00  0.00000000E+00
  0.00000000E+00  0.00000000E+00  0.00000000E+00
  0.00000000E+00  0.00000000E+00  0.00000000E+00
  0.00000000E+00  0.00000000E+00  0.00000000E+00
  0.00000000E+00  0.00000000E+00  0.00000000E+00
  0.00000000E+00  0.00000000E+00  0.00000000E+00
  0.00000000E+00  0.00000000E+00  0.00000000E+00
  0.00000000E+00  0.00000000E+00  0.00000000E+00
  0.00000000E+00  0.00000000E+00  0.00000000E+00
  0.00000000E+00  0.00000000E+00  0.00000000E+00
  0.00000000E+00  0.00000000E+00  0.00000000E+00
  0.00000000E+00  0.00000000E+00  0.00000000E+00
  0.00000000E+00  0.00000000E+00  0.00000000E+00
  0.00000000E+00  0.00000000E+00  0.00000000E+00
  0.00000000E+00  0.00000000E+00  0.00000000E+00
  0.00000000E+00  0.00000000E+00  0.00000000E+00
  0.00000000E+00  0.00000000E+00  0.00000000E+00
  0.00000000E+00  0.00000000E+00  0.00000000E+00
  0.00000000E+00  0.00000000E+00  0.00000000E+00
  0.00000000E+00  0.00000000E+00  0.00000000E+00
  0.00000000E+00  0.00000000E+00  0.00000000E+00
  0.00000000E+00  0.00000000E+00  0.00000000E+00
  0.00000000E+00  0.00000000E+00  0.00000000E+00
  0.00000000E+00  0.00000000E+00  0.00000000E+00
  0.00000000E+00  0.00000000E+00  0.00000000E+00
  0.00000000E+00  0.00000000E+00  0.00000000E+00
  0.00000000E+00  0.00000000E+00  0.00000000E+00
  0.00000000E+00  0.00000000E+00  0.00000000E+00
  0.00000000E+00  0.00000000E+00  0.00000000E+00
  0.00000000E+00  0.00000000E+00  0.00000000E+00
  0.00000000E+00  0.00000000E+00  0.00000000E+00
  0.00000000E+00  0.00000000E+00  0.00000000E+00
  0.00000000E+00  0.00000000E+00  0.00000000E+00
  0.00000000E+00  0.00000000E+00  0.00000000E+00
  0.00000000E+00  0.00000000E+00  0.00000000E+00
  0.00000000E+00  0.00000000E+00  0.00000000E+00
  0.00000000E+00  0.00000000E+00  0.00000000E+00
  0.00000000E+00  0.00000000E+00  0.00000000E+00
  0.00000000E+00  0.00000000E+00  0.00000000E+00
  0.00000000E+00  0.00000000E+00  0.00000000E+00
  0.00000000E+00  0.00000000E+00  0.00000000E+00
  0.00000000E+00  0.00000000E+00  0.00000000E+00
  0.00000000E+00  0.00000000E+00  0.00000000E+00
