Ru Ta  N  Cu                            
   1.00000000000000     
    18.1096308199999996    0.0000000000000000    0.0000000000000000
     0.0000000000000000   23.3551997799999995    0.0000000000000000
     0.0000000000000000    0.0000000000000000   32.4818170799999990
   Ru   Ta   N    Cu
   128   240   240     3
Selective dynamics
Direct
  0.0421124585057867  0.0087552856324776  0.4486079825893922   T   T   T
  0.2805996751987360  0.4998792985159756  0.4395427667189628   T   T   T
  0.4235496816404257  0.0646736026496156  0.4319450877312571   T   T   T
  0.0532369467844281  0.2477047792856268  0.4486908672029931   T   T   T
  0.2811938919647025  0.2424616067941757  0.4331470665756755   T   T   T
  0.4155318262271989  0.3133426498691954  0.4303133396917678   T   T   T
  0.0502724446231924  0.1265959009825972  0.4487331087049380   T   T   T
  0.2808543685141532  0.1259054805901560  0.4333824866663716   T   T   T
  0.4231054600911406  0.1839464942683587  0.4314293106714696   T   T   T
  0.0529336175498816  0.3674851091238627  0.4487212745770315   T   T   T
  0.2759204791728168  0.3805192970518474  0.4409040490766896   T   T   T
  0.4181213817388980  0.4363058553977351  0.4337070570415081   T   T   T
  0.1567304339716987  0.4442837328903332  0.4488196387683751   T   T   T
  0.1760779163630882  0.3050397537585429  0.4603582734890921   T   T   T
  0.1746611057328476  0.1876133241366683  0.4624668334757932   T   T   T
  0.1741404653952314  0.0679167071130691  0.4628429411157616   T   T   T
  0.0693379142781405  0.4385742611621573  0.5079295323402054   T   T   T
  0.3315942676397162  0.4433637874494549  0.5008055021766539   T   T   T
  0.4428644963037085  0.0103954758776562  0.5001045468610633   T   T   T
  0.0666011751324405  0.1859318149496380  0.5128887894641628   T   T   T
  0.3141564834107585  0.1822963874715725  0.4977344036503458   T   T   T
  0.4339475261079261  0.2509305521268121  0.4998820592379086   T   T   T
  0.0644559793641229  0.0665764187015684  0.5132590391413874   T   T   T
  0.3113097616882443  0.0665864826395361  0.4973084996806337   T   T   T
  0.4414480431979398  0.1212429306902182  0.4994645737341943   T   T   T
  0.0742304717346429  0.3056067686994206  0.5128659675233231   T   T   T
  0.3057988268399956  0.3009270013474118  0.4966366980418440   T   T   T
  0.4303674319406544  0.3591989478097916  0.5016880279201937   T   T   T
  0.2055930064122645  0.3873499680003182  0.5089694673316579   T   T   T
  0.1959299122420416  0.2435936664585563  0.5270774107802109   T   T   T
  0.1967443504752611  0.1303531974908867  0.5274135548898485   T   T   T
  0.2065273166927293  0.5004870191713262  0.5072935581399074   T   T   T
  0.0328854256023573  0.5010606380289510  0.4476453187472647   T   T   T
  0.2793427028223973  0.0039489880228045  0.4358060872664604   T   T   T
  0.4258280478060985  0.5634976163522710  0.4321749031909384   T   T   T
  0.0497072675776223  0.7542641125544647  0.4467872051637428   T   T   T
  0.2757356504074330  0.7355108833607980  0.4389348590536277   T   T   T
  0.4055933714861110  0.8150173647538012  0.4347757572767104   T   T   T
  0.0334844290862598  0.6208384119022003  0.4483611477282032   T   T   T
  0.2790061431848633  0.6207074362387204  0.4396068847599666   T   T   T
  0.4189265192449699  0.6872417030148333  0.4328586698351484   T   T   T
  0.0549188437712478  0.8711228017712090  0.4482546257726288   T   T   T
  0.2722864097043071  0.8887438929300873  0.4393348244156611   T   T   T
  0.4147577483583299  0.9371794768233854  0.4324021505303799   T   T   T
  0.1583852794572888  0.9532350010798963  0.4509912673552212   T   T   T
  0.1769145953286247  0.8095173035948868  0.4566297646307790   T   T   T
  0.1551104277258656  0.6766253471962085  0.4485385274632432   T   T   T
  0.1557034000465468  0.5597114373315941  0.4489865103842985   T   T   T
  0.0685148646340798  0.9413199398353791  0.5086791223264705   T   T   T
  0.3255037799587763  0.9467353624205224  0.4998248480639643   T   T   T
  0.4525848159229959  0.5102422787782031  0.5020635027732133   T   T   T
  0.0674547715048768  0.6884208326481246  0.5075816126486388   T   T   T
  0.3304340548148084  0.6796778028654947  0.4999813276173801   T   T   T
  0.4357255682635230  0.7590433381984057  0.5017676727664632   T   T   T
  0.0665750058867169  0.5585453696467542  0.5092767137308775   T   T   T
  0.3258886484590450  0.5602246128214260  0.4991120821152507   T   T   T
  0.4518914779278307  0.6183278551281258  0.5008941161002000   T   T   T
  0.0804691877212446  0.8075131463245515  0.5115738640975016   T   T   T
  0.3079032515258038  0.8123411328556415  0.4936871149695757   T   T   T
  0.4342839836298075  0.8698004895237846  0.5016722359190685   T   T   T
  0.2011759795815161  0.8882569295361069  0.5082347798027116   T   T   T
  0.2037523898278683  0.7313182953913530  0.5091568854301289   T   T   T
  0.2073398148093893  0.6200706833006400  0.5065578361944564   T   T   T
  0.2009434182860975  0.9942849227842603  0.5188445953584383   T   T   T
  0.5454752273272686  0.0044826846386474  0.4476905831600539   T   T   T
  0.7753571095315558  0.4869791727796382  0.4403475913110027   T   T   T
  0.9181851326355511  0.0670311092234192  0.4334298627945606   T   T   T
  0.5333998969621843  0.2530821167280374  0.4474814865849143   T   T   T
  0.7796844175819786  0.2508322802274828  0.4397288798808897   T   T   T
  0.9245922476234947  0.3119186018331052  0.4339125714773385   T   T   T
  0.5485267973756781  0.1195551363876185  0.4483919035211210   T   T   T
  0.7730146276694219  0.1344926441185924  0.4390521703955965   T   T   T
  0.9195687418757892  0.1871511024812806  0.4326278789619915   T   T   T
  0.5338606839208135  0.3699248237933555  0.4514912130560418   T   T   T
  0.7796643421469419  0.3710140050682402  0.4397814935349282   T   T   T
  0.9163731260032091  0.4357020941017802  0.4335158266410502   T   T   T
  0.6545252279360980  0.4261646258824998  0.4486175887691464   T   T   T
  0.6555924624305937  0.3109275439245737  0.4512290214955521   T   T   T
  0.6548923466867546  0.1958392883768843  0.4486521430805736   T   T   T
  0.6726472950698837  0.0598178339693829  0.4586723990419644   T   T   T
  0.5701210023775993  0.4439047326452130  0.5088397423116412   T   T   T
  0.8302487193825233  0.4292335743540515  0.5004908682759642   T   T   T
  0.9402944179299321  0.0092135735904557  0.5005068414680293   T   T   T
  0.5669893047394130  0.1882532985374646  0.5079261946290903   T   T   T
  0.8277888649586177  0.1878941138633952  0.4997204582457353   T   T   T
  0.9493732829146894  0.2542144193840540  0.5004411133979730   T   T   T
  0.5714369715290399  0.0598991096293012  0.5120279723102928   T   T   T
  0.8137547220508146  0.0637860474758396  0.4950948859899134   T   T   T
  0.9419007309299013  0.1198086391324283  0.5001722233940787   T   T   T
  0.5626351805373792  0.3043956882713106  0.5120590679827312   T   T   T
  0.8262787066732852  0.3118931077946113  0.4997607702635278   T   T   T
  0.9515228611578281  0.3658831156567506  0.5013218137665534   T   T   T
  0.7082043656204665  0.3713390801971783  0.5081745185879559   T   T   T
  0.7066805535210011  0.2502677846990246  0.5080991614376903   T   T   T
  0.7007232645986295  0.1394290300851282  0.5087614418171703   T   T   T
  0.7028658532546156  0.4828607486191112  0.5094336766523608   T   T   T
  0.5514832309583414  0.5070921016569438  0.4470339400187192   T   T   T
  0.7762813669915885  0.9908950909067455  0.4388135104384380   T   T   T
  0.9054979729232684  0.5634541903974072  0.4354065808540739   T   T   T
  0.5323836340306948  0.7559133916648459  0.4477383128399636   T   T   T
  0.7793166660389885  0.7548837699735257  0.4394588187659609   T   T   T
  0.9261138553838955  0.8150372273568459  0.4337695937148401   T   T   T
  0.5521499523502760  0.6205292757554202  0.4473894264701843   T   T   T
  0.7730179793474714  0.6393678202510384  0.4393694737112993   T   T   T
  0.9170701577532420  0.6870894495694345  0.4335452642547956   T   T   T
  0.5335027922427374  0.8741938290362793  0.4485681232470412   T   T   T
  0.7794678160140825  0.8755898603237129  0.4396479297296148   T   T   T
  0.9240207320677105  0.9377756884087651  0.4336943380565784   T   T   T
  0.6557344299606676  0.9331825116799439  0.4498722009378074   T   T   T
  0.6556671626134386  0.8159816522167791  0.4498070846938036   T   T   T
  0.6539358311003313  0.7009626933421955  0.4480485259931345   T   T   T
  0.6780381757310815  0.5629253155586554  0.4579069822857822   T   T   T
  0.5662027110533022  0.9416083952871555  0.5085891680299820   T   T   T
  0.8320990002752657  0.9351075854027731  0.4999076375239861   T   T   T
  0.9356996180423330  0.5067642145372715  0.5018753163522325   T   T   T
  0.5667728855697493  0.6892739153117423  0.5074147967549135   T   T   T
  0.8290958192458472  0.6932044235149017  0.4998645839813267   T   T   T
  0.9508545369348230  0.7590232209652543  0.5011994027785407   T   T   T
  0.5806910660822455  0.5635587877487924  0.5119560842926936   T   T   T
  0.8083961275968183  0.5647019214301454  0.4947974760273938   T   T   T
  0.9376834716819022  0.6168153236423911  0.5027608315481948   T   T   T
  0.5637942385061155  0.8132754976384656  0.5095752069797304   T   T   T
  0.8266138310315224  0.8141318694367899  0.4992973671783005   T   T   T
  0.9522838862852124  0.8702645645743585  0.5008469753825221   T   T   T
  0.7091331527277966  0.8761734776655171  0.5070864992172427   T   T   T
  0.7076977281089303  0.7552563562920284  0.5068137244481222   T   T   T
  0.7007107660330758  0.6443107103104614  0.5086811334519452   T   T   T
  0.7020049083172922  0.9845366763712684  0.5122202950837462   T   T   T
  0.0002112439569970  0.0001379294448540  0.0373463921698374   F   F   F
  0.3342257926207992  0.0625994154237475  0.0423987318545187   F   F   F
  0.1660626269271432  0.0626581163633873  0.0424061668450690   F   F   F
  0.2502202084754828  0.1252178855354416  0.1130358333669221   F   F   F
  0.0828588434925734  0.0627073156657261  0.1186643004524512   F   F   F
  0.4176999472490408  0.0627059576615423  0.1186271515872050   F   F   F
  0.0008309224300441  0.1251995361589290  0.1991839445487995   T   T   T
  0.3328031441182299  0.0627277582923818  0.1975641070099202   T   T   T
  0.1679242726825347  0.0627054960603238  0.1976787758725548   T   T   T
  0.2488565242281933  0.1250746632152549  0.2783283565445036   T   T   T
  0.0839240880283532  0.0626214130961517  0.2789886662369120   T   T   T
  0.4180097342895666  0.0625695489449032  0.2775582433658196   T   T   T
  0.0028017128317419  0.1253217180816654  0.3593698567515511   T   T   T
  0.3327120704397858  0.0625666538676251  0.3565678891469514   T   T   T
  0.1654128075860855  0.0624936560131731  0.3614756063296924   T   T   T
  0.0001993579241457  0.1251124241418680  0.0373673238785415   F   F   F
  0.3342248374093941  0.1876083518869578  0.0424180467130881   F   F   F
  0.1660568042752573  0.1876606967942038  0.0424146876443743   F   F   F
  0.2502332970886698  0.2502158349488468  0.1130222857832806   F   F   F
  0.0828712378028129  0.1877169521294775  0.1186661494224168   F   F   F
  0.4176644359050954  0.1877065482458207  0.1186607550294028   F   F   F
  0.0008633310874981  0.2502853471131784  0.1991827668921654   T   T   T
  0.3329000288299787  0.1877837777062210  0.1976247156528863   T   T   T
  0.1679656276395349  0.1877268955183934  0.1976628376466494   T   T   T
  0.2490085842090985  0.2502512443207877  0.2784702236925339   T   T   T
  0.0838841574516739  0.1877248913123710  0.2788027245692493   T   T   T
  0.4180302970794568  0.1878066873316797  0.2775812946171944   T   T   T
  0.0020280357468004  0.2504709466114598  0.3595860198779963   T   T   T
  0.3331294426517440  0.1875631076431597  0.3560060876690154   T   T   T
  0.1649123285422781  0.1875607815750700  0.3609076179005049   T   T   T
  0.0002122078768210  0.2501392066830732  0.0373456541597363   F   F   F
  0.3342232035055162  0.3125992309382539  0.0423967923009556   F   F   F
  0.1660586660861370  0.3126582257413517  0.0424062846115874   F   F   F
  0.2502173161139041  0.3752178897059935  0.1130360339591618   F   F   F
  0.0828568376004242  0.3127060748111887  0.1186645141734175   F   F   F
  0.4176984722473520  0.3127078846600213  0.1186298408889357   F   F   F
  0.0010267211549537  0.3752549781133863  0.1992049530770084   T   T   T
  0.3329608460363861  0.3128192585493856  0.1976606280734950   T   T   T
  0.1680932940705903  0.3127715083103117  0.1976655816522089   T   T   T
  0.2493013608258082  0.3752842334632591  0.2786744374710088   T   T   T
  0.0841964313334826  0.3127075156191002  0.2789729208158909   T   T   T
  0.4178946095651657  0.3128931357322772  0.2781189557217474   T   T   T
  0.0028422776497565  0.3756042932585223  0.3597804013009778   T   T   T
  0.3329129770607267  0.3127819723388544  0.3572126755155727   T   T   T
  0.1655878895514435  0.3128198995002378  0.3617633461344372   T   T   T
  0.0001993469486266  0.3751125453592721  0.0373668329409540   F   F   F
  0.3342265491584655  0.4376091382735581  0.0424193945147948   F   F   F
  0.1660559599480962  0.4376604044393986  0.0424156771225839   F   F   F
  0.2502327017382058  0.0002164962773534  0.1130220722767348   F   F   F
  0.0828707196508915  0.4377156099338606  0.1186668391713255   F   F   F
  0.4176643738564039  0.4377089816271393  0.1186614737223408   F   F   F
  0.0008996235647046  0.0002099099025573  0.1991872413556670   T   T   T
  0.3330667984329140  0.4377508319444056  0.1977561065067820   T   T   T
  0.1681545355551892  0.4377673565374977  0.1977446473188583   T   T   T
  0.2491154150909357  0.0000897083663031  0.2785070310847413   T   T   T
  0.0842628704881633  0.4377095618720460  0.2789634234490734   T   T   T
  0.4176432727546977  0.4377435259257150  0.2783778797314449   T   T   T
  0.0029842938852209  0.9999393519527617  0.3602320287013955   T   T   T
  0.3333101094813258  0.4377990800841107  0.3581477750225183   T   T   T
  0.1665599467398211  0.4374897851977032  0.3604764054640979   T   T   T
  0.0002112439569970  0.5001379294448540  0.0373463921698374   F   F   F
  0.3342257926207992  0.5625994154237475  0.0423987318545187   F   F   F
  0.1660626269271432  0.5626581163633873  0.0424061668450690   F   F   F
  0.2502202084754828  0.6252178855354416  0.1130358333669221   F   F   F
  0.0828588434925734  0.5627073156657261  0.1186643004524512   F   F   F
  0.4176999472490408  0.5627059576615423  0.1186271515872050   F   F   F
  0.0010634827715124  0.6252433225372495  0.1991792348535428   T   T   T
  0.3330418671153915  0.5627411238544479  0.1977579435200471   T   T   T
  0.1682034548481897  0.5627276467968931  0.1977665884334488   T   T   T
  0.2498341557489966  0.6251517466873410  0.2787646292183573   T   T   T
  0.0843532983991476  0.5627273853270818  0.2789528940300736   T   T   T
  0.4176595167920915  0.5626392383391476  0.2783545523433325   T   T   T
  0.0040598799851664  0.6252581639796009  0.3598007950476273   T   T   T
  0.3339989080762674  0.5625903449133974  0.3585944317276702   T   T   T
  0.1666313980028677  0.5625459999123505  0.3607516608259344   T   T   T
  0.0001993579241457  0.6251124241418680  0.0373673238785415   F   F   F
  0.3342248374093941  0.6876083518869507  0.0424180467130881   F   F   F
  0.1660568042752573  0.6876606967941967  0.0424146876443743   F   F   F
  0.2502332970886698  0.7502158349488468  0.1130222857832806   F   F   F
  0.0828712378028129  0.6877169521294704  0.1186661494224168   F   F   F
  0.4176644359050954  0.6877065482458136  0.1186607550294028   F   F   F
  0.0010870703570981  0.7502602366005571  0.1991850880741817   T   T   T
  0.3329987410687936  0.6877200722245238  0.1977163517094773   T   T   T
  0.1682483127016620  0.6877122035648419  0.1976992267235849   T   T   T
  0.2498436028244403  0.7500680764044344  0.2787387632696048   T   T   T
  0.0844679927463525  0.6877387561953788  0.2789203902582537   T   T   T
  0.4176321939155526  0.6876468645512228  0.2781927824824580   T   T   T
  0.0017675879488213  0.7500310827654157  0.3594357444700226   T   T   T
  0.3343317375516748  0.6877907473798011  0.3579332761988103   T   T   T
  0.1670809425520472  0.6877211782529786  0.3604609761559577   T   T   T
  0.0002122078768210  0.7501392066830732  0.0373456541597363   F   F   F
  0.3342232035055162  0.8125992309382539  0.0423967923009556   F   F   F
  0.1660586660861370  0.8126582257413517  0.0424062846115874   F   F   F
  0.2502173161139041  0.8752178897059935  0.1130360339591618   F   F   F
  0.0828568376004242  0.8127060748111887  0.1186645141734175   F   F   F
  0.4176984722473520  0.8127078846600213  0.1186298408889357   F   F   F
  0.0010400815926517  0.8752200641387564  0.1992118566573769   T   T   T
  0.3329307195369255  0.8126938632912263  0.1976997697058305   T   T   T
  0.1682185800446765  0.8127094837742908  0.1976644709176529   T   T   T
  0.2494975992227178  0.8752084512730728  0.2786496842504129   T   T   T
  0.0847581345575069  0.8126578157679047  0.2789189062901186   T   T   T
  0.4176292700796068  0.8125996941982110  0.2781367189717384   T   T   T
  0.0023025891575933  0.8754169462342561  0.3595162982701492   T   T   T
  0.3334899421101354  0.8127225110541627  0.3580793805468072   T   T   T
  0.1664158506419582  0.8125186289766442  0.3618187665192348   T   T   T
  0.0001993469486266  0.8751125453592721  0.0373668329409540   F   F   F
  0.3342265491584655  0.9376091382735510  0.0424193945147948   F   F   F
  0.1660559599480962  0.9376604044393915  0.0424156771225839   F   F   F
  0.2502327017382058  0.5002164962773534  0.1130220722767348   F   F   F
  0.0828707196508915  0.9377156099338535  0.1186668391713255   F   F   F
  0.4176643738564039  0.9377089816271322  0.1186614737223408   F   F   F
  0.0010086243195890  0.5002277572050191  0.1991860445627948   T   T   T
  0.3328645916142001  0.9376870745147518  0.1976219333925153   T   T   T
  0.1680297151371961  0.9377113401723500  0.1976953133390541   T   T   T
  0.2497054013354654  0.5002438192039637  0.2787642167801608   T   T   T
  0.0841865470084988  0.9376816848254113  0.2790361218822769   T   T   T
  0.4177999770666502  0.9374796524711962  0.2778836369270410   T   T   T
  0.0036478961672849  0.5002817971588518  0.3597484545049965   T   T   T
  0.3336538641843846  0.9377888879492471  0.3571623278114012   T   T   T
  0.1661661981777044  0.9372892633104051  0.3605731460821074   T   T   T
  0.5002112439569970  0.0001379294448540  0.0373463921698374   F   F   F
  0.8342257926207992  0.0625994154237475  0.0423987318545187   F   F   F
  0.6660626269271432  0.0626581163633873  0.0424061668450690   F   F   F
  0.7502202084754828  0.1252178855354416  0.1130358333669221   F   F   F
  0.5828588434925734  0.0627073156657261  0.1186643004524512   F   F   F
  0.9176999472490408  0.0627059576615423  0.1186271515872050   F   F   F
  0.5014586101753423  0.1251532895898945  0.1990586720939177   T   T   T
  0.8329722217771284  0.0627252906144463  0.1977928393635163   T   T   T
  0.6683003450670588  0.0627197388156140  0.1977293399678248   T   T   T
  0.7493461512016893  0.1252055753051516  0.2787792291459797   T   T   T
  0.5847320870612638  0.0626043327579559  0.2790210858004663   T   T   T
  0.9171856222190513  0.0627227876226337  0.2783928234409672   T   T   T
  0.5024358050946605  0.1252722644670760  0.3591138269377028   T   T   T
  0.8334809456522473  0.0628779966254772  0.3585902278130171   T   T   T
  0.6657967128594917  0.0627505687581134  0.3622541680599570   T   T   T
  0.5001993579241457  0.1251124241418680  0.0373673238785415   F   F   F
  0.8342248374093941  0.1876083518869578  0.0424180467130881   F   F   F
  0.6660568042752573  0.1876606967942038  0.0424146876443743   F   F   F
  0.7502332970886698  0.2502158349488468  0.1130222857832806   F   F   F
  0.5828712378028129  0.1877169521294775  0.1186661494224168   F   F   F
  0.9176644359050954  0.1877065482458207  0.1186607550294028   F   F   F
  0.5013932880901146  0.2503564150175268  0.1990913901770810   T   T   T
  0.8329030175091059  0.1877505989957871  0.1976914771024833   T   T   T
  0.6682424361967417  0.1877824939730630  0.1977216010888741   T   T   T
  0.7495475599681570  0.2503148768119395  0.2787819419212137   T   T   T
  0.5844958504021032  0.1877497917108841  0.2789710333138585   T   T   T
  0.9172013069263369  0.1877272023014868  0.2782475672466891   T   T   T
  0.5025868644966844  0.2499348083198098  0.3598419425340176   T   T   T
  0.8330863012319791  0.1879999699067974  0.3578993766855212   T   T   T
  0.6661219480908996  0.1876542458045711  0.3604126595638134   T   T   T
  0.5002122078768210  0.2501392066830732  0.0373456541597363   F   F   F
  0.8342232035055162  0.3125992309382539  0.0423967923009556   F   F   F
  0.6660586660861370  0.3126582257413517  0.0424062846115874   F   F   F
  0.7502173161139041  0.3752178897059935  0.1130360339591618   F   F   F
  0.5828568376004242  0.3127060748111887  0.1186645141734175   F   F   F
  0.9176984722473520  0.3127078846600213  0.1186298408889357   F   F   F
  0.5012874246179330  0.3752843925733922  0.1991750569590117   T   T   T
  0.8329805324364226  0.3127979083074581  0.1978042664746234   T   T   T
  0.6682520815635374  0.3127902509910347  0.1978379316287588   T   T   T
  0.7496569596896109  0.3752342271901947  0.2789420307399736   T   T   T
  0.5845194779042324  0.3128257126574774  0.2792141990561720   T   T   T
  0.9173210557899881  0.3128026953342936  0.2783878886515682   T   T   T
  0.5043786622999205  0.3751350675337300  0.3604159898361876   T   T   T
  0.8337733122630809  0.3126529914629294  0.3587509955526213   T   T   T
  0.6663351563636321  0.3127628474460883  0.3613921416046468   T   T   T
  0.5001993469486266  0.3751125453592721  0.0373668329409540   F   F   F
  0.8342265491584655  0.4376091382735581  0.0424193945147948   F   F   F
  0.6660559599480962  0.4376604044393986  0.0424156771225839   F   F   F
  0.7502327017382058  0.0002164962773534  0.1130220722767348   F   F   F
  0.5828707196508915  0.4377156099338606  0.1186668391713255   F   F   F
  0.9176643738564039  0.4377089816271393  0.1186614737223408   F   F   F
  0.5013781982567378  0.0001401894292370  0.1990772079531282   T   T   T
  0.8329515392531989  0.4377788312108482  0.1977717630592342   T   T   T
  0.6682562339929151  0.4377511316416756  0.1977819978553536   T   T   T
  0.7496277752330885  0.0002327877298684  0.2788939954207868   T   T   T
  0.5846744137593263  0.4377807934004770  0.2791831984616906   T   T   T
  0.9174011764393318  0.4377771644856716  0.2783766747097006   T   T   T
  0.5018398901159650  0.9998670627520856  0.3593504911642617   T   T   T
  0.8342603014168335  0.4377646810089613  0.3584343489946636   T   T   T
  0.6667222338560449  0.4378899100442566  0.3608186957085012   T   T   T
  0.5002112439569970  0.5001379294448540  0.0373463921698374   F   F   F
  0.8342257926207992  0.5625994154237475  0.0423987318545187   F   F   F
  0.6660626269271432  0.5626581163633873  0.0424061668450690   F   F   F
  0.7502202084754828  0.6252178855354416  0.1130358333669221   F   F   F
  0.5828588434925734  0.5627073156657261  0.1186643004524512   F   F   F
  0.9176999472490408  0.5627059576615423  0.1186271515872050   F   F   F
  0.5012404532463576  0.6251348226408296  0.1991683366015130   T   T   T
  0.8330095305686293  0.5627507551974991  0.1977891331012490   T   T   T
  0.6683473589538723  0.5627259769784806  0.1977064820612957   T   T   T
  0.7499363057132465  0.6253075065177829  0.2788403855582591   T   T   T
  0.5850382607193114  0.5626770525971106  0.2790206407230308   T   T   T
  0.9173983775298520  0.5627465880107800  0.2783484741779346   T   T   T
  0.5024296507552876  0.6253957351648667  0.3591632252351336   T   T   T
  0.8337273469883649  0.5627324382988703  0.3584521813527421   T   T   T
  0.6666906730963903  0.5627063703666190  0.3621872117303379   T   T   T
  0.5001993579241457  0.6251124241418680  0.0373673238785415   F   F   F
  0.8342248374093941  0.6876083518869507  0.0424180467130881   F   F   F
  0.6660568042752573  0.6876606967941967  0.0424146876443743   F   F   F
  0.7502332970886698  0.7502158349488468  0.1130222857832806   F   F   F
  0.5828712378028129  0.6877169521294704  0.1186661494224168   F   F   F
  0.9176644359050954  0.6877065482458136  0.1186607550294028   F   F   F
  0.5012127944216147  0.7501829769264100  0.1991542992597758   T   T   T
  0.8330588186777511  0.6877642341357723  0.1977850792101863   T   T   T
  0.6683667060719598  0.6877648726474064  0.1977256263679022   T   T   T
  0.7499831198384185  0.7502906494491173  0.2788584453758363   T   T   T
  0.5846634662577774  0.6876678694594073  0.2789198801507863   T   T   T
  0.9174629385001474  0.6877600867515281  0.2783389060158291   T   T   T
  0.5037114601690716  0.7500816265507844  0.3596813847339402   T   T   T
  0.8343499884238217  0.6879568723203925  0.3582213337048683   T   T   T
  0.6671760319521681  0.6876195395805712  0.3604246018413558   T   T   T
  0.5002122078768210  0.7501392066830732  0.0373456541597363   F   F   F
  0.8342232035055162  0.8125992309382539  0.0423967923009556   F   F   F
  0.6660586660861370  0.8126582257413517  0.0424062846115874   F   F   F
  0.7502173161139041  0.8752178897059935  0.1130360339591618   F   F   F
  0.5828568376004242  0.8127060748111887  0.1186645141734175   F   F   F
  0.9176984722473520  0.8127078846600213  0.1186298408889357   F   F   F
  0.5012859316043636  0.8751387926374502  0.1991442553638725   T   T   T
  0.8330041285221597  0.8127740985517274  0.1977720514807737   T   T   T
  0.6683394856214122  0.8127515545200282  0.1977524990769091   T   T   T
  0.7498693984432852  0.8753632664450391  0.2789275390273596   T   T   T
  0.5846610845758418  0.8126680178138009  0.2790130603939779   T   T   T
  0.9175314280390149  0.8128190002326567  0.2783838078329532   T   T   T
  0.5041287442889767  0.8751473815251852  0.3596819277038030   T   T   T
  0.8340514021975828  0.8131549167086861  0.3588953658845581   T   T   T
  0.6665092818104246  0.8128726342118630  0.3609706118171844   T   T   T
  0.5001993469486266  0.8751125453592721  0.0373668329409540   F   F   F
  0.8342265491584655  0.9376091382735510  0.0424193945147948   F   F   F
  0.6660559599480962  0.9376604044393915  0.0424156771225839   F   F   F
  0.7502327017382058  0.5002164962773534  0.1130220722767348   F   F   F
  0.5828707196508915  0.9377156099338535  0.1186668391713255   F   F   F
  0.9176643738564039  0.9377089816271322  0.1186614737223408   F   F   F
  0.5012323507234857  0.5002524050393776  0.1991955863207750   T   T   T
  0.8330626943682952  0.9377444720366629  0.1977882126856303   T   T   T
  0.6683134984607585  0.9377162262448115  0.1977268943520594   T   T   T
  0.7498766738819183  0.5001759666290234  0.2789174133144660   T   T   T
  0.5845758717922248  0.9376576430857421  0.2790031010081555   T   T   T
  0.9174575068090802  0.9378262794917537  0.2784582321226060   T   T   T
  0.5019069147759105  0.4999311562648479  0.3594899592614562   T   T   T
  0.8341151345102547  0.9381712542089903  0.3584867982154559   T   T   T
  0.6666471616351940  0.9379174077597089  0.3608051856741267   T   T   T
  0.4059663601692378  0.0001462046730154  0.0700885167279779   F   F   F
  0.2501335306342440  0.0001313415364734  0.0393543396202674   F   F   F
  0.0944334762619548  0.0001738881651363  0.0701382961740649   F   F   F
  0.1549947328934422  0.1252546000618224  0.1485264565477067   F   F   F
  0.0003044512358912  0.1252329358346600  0.1366467142038701   F   F   F
  0.3454752489896649  0.1252525403775380  0.1484231789215542   F   F   F
  0.4020683948129671  0.1252299319703559  0.2288455461552090   T   T   T
  0.2502628722080197  0.1252259488423275  0.2151573772417476   T   T   T
  0.0999011591490433  0.1251432006470942  0.2298349295579084   T   T   T
  0.1509303824536403  0.1250785207160413  0.3110182167739468   T   T   T
  0.0005879525937746  0.1252262546652916  0.2953842844531074   T   T   T
  0.3485717936766823  0.1248827276486020  0.3074736395712184   T   T   T
  0.4015547706480518  0.1248367444537824  0.3845667306436107   T   T   T
  0.2507926729054431  0.1251465741515813  0.3727949638262718   T   T   T
  0.0994244725116669  0.1252165971406226  0.3905864990602313   T   T   T
  0.4059504510021199  0.1251528418496832  0.0701137697057277   F   F   F
  0.2501484584581348  0.1251294756807368  0.0393952583647277   F   F   F
  0.0944439778587522  0.1251741239827453  0.0701534912843229   F   F   F
  0.1549877250862224  0.2502614546838657  0.1485179043880294   F   F   F
  0.0002974674814880  0.2502100279361912  0.1366324893501272   F   F   F
  0.3454803331882346  0.2503006024972620  0.1484139149937889   F   F   F
  0.4020746097812046  0.2504504385753074  0.2290355693835318   T   T   T
  0.2503230766434560  0.2502614152338467  0.2152531475607736   T   T   T
  0.0999475948446115  0.2502995294062909  0.2298214928979591   T   T   T
  0.1511368100705228  0.2502481448205972  0.3109571101040900   T   T   T
  0.0005742023724377  0.2502587487373568  0.2955158838923438   T   T   T
  0.3485512408931001  0.2505813168929138  0.3078872850358715   T   T   T
  0.4014115513623874  0.2494828926392910  0.3857765310432112   T   T   T
  0.2510458824272769  0.2498537386641544  0.3731031776134536   T   T   T
  0.0995080258636256  0.2498387154619620  0.3899875492904237   T   T   T
  0.4059628358367533  0.2501443164155361  0.0700852243531500   F   F   F
  0.2501309939231433  0.2501318371526651  0.0393519425499136   F   F   F
  0.0944333317481849  0.2501740935465691  0.0701386596889861   F   F   F
  0.1549942609652177  0.3752545226085218  0.1485264414225469   F   F   F
  0.0003019335461047  0.3752315664304433  0.1366474736751755   F   F   F
  0.3454762333887373  0.3752493953370220  0.1484229723695165   F   F   F
  0.4019638016498600  0.3753193103958753  0.2293341566836562   T   T   T
  0.2504287191537070  0.3752576859185175  0.2153718256116143   T   T   T