Ta  N Ru Cu                             
   1.00000000000000     
    18.1096308199999996    0.0000000000000000    0.0000000000000000
     0.0000000000000000   23.3551997799999995    0.0000000000000000
     0.0000000000000000    0.0000000000000000   30.4818171199999988
   Ta   N    Ru   Cu
   216   240    24    29
Selective dynamics
Direct
  0.0000000000000000  0.0001540493432017  0.1952048772750459   F   F   F
  0.3335911226994313  0.0626178990550343  0.2011666574477005   F   F   F
  0.1661313464181191  0.0626435039054911  0.2013756225831216   F   F   F
  0.2497136469180603  0.1249913080150051  0.2769716716429613   F   F   F
  0.0824132892486986  0.0625280043020950  0.2823539174859135   F   F   F
  0.4173080235982880  0.0622158469098082  0.2818060632728887   F   F   F
  0.9953217261368176  0.1239622638593891  0.3671716912505772   T   T   T
  0.3317260882103642  0.0624912180273211  0.3689577484527867   T   T   T
  0.1673735084055586  0.0626816933119999  0.3657959601617512   T   T   T
  0.2485302826405625  0.1233068380802596  0.4569366359287432   T   T   T
  0.0867989976189559  0.0655050979537719  0.4508394123803551   T   T   T
  0.4274499773903151  0.0613207820982903  0.4482573945835026   T   T   T
  0.0080324169780347  0.1244106442282576  0.5447866775355720   T   T   T
  0.0000000000000000  0.1252934673573236  0.1957184605568116   F   F   F
  0.3338815497781340  0.1878831457175423  0.2019461464240635   F   F   F
  0.1661948949258303  0.1878540692822313  0.2019564242544476   F   F   F
  0.2502115669416796  0.2500369944875231  0.2777639619025223   F   F   F
  0.0824374490347353  0.1875904829007098  0.2829684025212984   F   F   F
  0.4174192825879786  0.1874333417367495  0.2829715540753668   F   F   F
  0.0031722995081726  0.2540701721621505  0.3693521414552526   T   T   T
  0.3302018751293289  0.1835630500155224  0.3678283614838837   T   T   T
  0.1586594556955720  0.1897744742103757  0.3690275549263205   T   T   T
  0.2458899286468988  0.2539605828881756  0.4555300610503880   T   T   T
  0.0902558570812874  0.1892855734817444  0.4589993823354163   T   T   T
  0.4191376659403792  0.1868631035818940  0.4505282801546281   T   T   T
  0.0000000000000000  0.2502681216697269  0.1962263215238949   F   F   F
  0.3344987696923738  0.3125187466315609  0.2026668881404063   F   F   F
  0.1661942511615422  0.3125671912316150  0.2024404242882341   F   F   F
  0.2506210431627167  0.3749227899199923  0.2783919089997156   F   F   F
  0.0823618586752204  0.3124866975306020  0.2834913249867341   F   F   F
  0.4175905476312707  0.3123986209820302  0.2843182411077976   F   F   F
  0.0016653804483847  0.3708142009809703  0.3696752182448361   T   T   T
  0.3282808172498124  0.3123151640360107  0.3671217442838424   T   T   T
  0.1683706354019293  0.3124810470284159  0.3658160773970209   T   T   T
  0.2524496200435204  0.3731806728884406  0.4554775613971193   T   T   T
  0.0864020969960811  0.3142035591944253  0.4556335713762751   T   T   T
  0.4147981827799036  0.3077612575940824  0.4542940652338651   T   T   T
  0.0778180337385482  0.3925372766623966  0.5445363625514585   T   T   T
  0.0000000000000000  0.3748427101281635  0.1963807855582331   F   F   F
  0.3345163880268487  0.4372854327724411  0.2027504300156835   F   F   F
  0.1664683163950542  0.4373113135708522  0.2024835848108779   F   F   F
  0.2496514720479368  0.0000136476026498  0.2762899058119643   F   F   F
  0.0825727467587427  0.4373792291061918  0.2832358711618497   F   F   F
  0.4174986217674430  0.4370699171736305  0.2843873273286093   F   F   F
  0.9937358006992310  0.9967988410256274  0.3699368717096689   T   T   T
  0.3277706543841317  0.4373471638411655  0.3677287076702870   T   T   T
  0.1628366050190691  0.4363578692595529  0.3693810402442769   T   T   T
  0.2537361272873659  0.9973910517000326  0.4537225345469620   T   T   T
  0.0889708913318969  0.4415858414873500  0.4576324343690574   T   T   T
  0.4171538205620329  0.4347792065906921  0.4531105130802235   T   T   T
  0.0000000000000000  0.4996600384981846  0.1960122970312383   F   F   F
  0.3340351755459352  0.5619131390770420  0.2021890025370681   F   F   F
  0.1665722925482243  0.5620352928756773  0.2019996637769879   F   F   F
  0.2501429157372073  0.6247388243367382  0.2770555720987531   F   F   F
  0.0823139344992256  0.5624071479513688  0.2827242320219199   F   F   F
  0.4177054922446999  0.5620703723524798  0.2835027055422685   F   F   F
  0.0022988634624965  0.6250973614747506  0.3690054700605415   T   T   T
  0.3315041447190485  0.5599426605115432  0.3665599755405232   T   T   T
  0.1705513862677114  0.5681541407572782  0.3672224830717985   T   T   T
  0.2551641155128003  0.6291162728098886  0.4549913449720734   T   T   T
  0.0861071530616059  0.5601615184735720  0.4588948149022742   T   T   T
  0.4140486552823652  0.5633701846283403  0.4565858413164865   T   T   T
  0.0195230536974390  0.6146789489135712  0.5453838756241554   T   T   T
  0.0000000000000000  0.6245357501514945  0.1955793289240901   F   F   F
  0.3339923607873985  0.6869740216822109  0.2015918950363513   F   F   F
  0.1663048432324175  0.6871515664123251  0.2015456485425915   F   F   F
  0.2499896679286877  0.7496463705244523  0.2766638540929520   F   F   F
  0.0824660912763733  0.6874672270731992  0.2824343777610991   F   F   F
  0.4174829552423418  0.6871308384112780  0.2826795856657682   F   F   F
  0.9963787922131773  0.7527652098996505  0.3699755081797951   T   T   T
  0.3315475599229592  0.6886666660514759  0.3685404774373683   T   T   T
  0.1638401573746897  0.6927355519113049  0.3685226897559515   T   T   T
  0.2495229477561191  0.7557550416717286  0.4554799772343954   T   T   T
  0.0905310663841225  0.6852011613641400  0.4517212763840083   T   T   T
  0.4177038992988967  0.6911402100043244  0.4611371062421225   T   T   T
  0.0000000000000000  0.7496781775342214  0.1953645300692344   F   F   F
  0.3337937128121951  0.8120159814150867  0.2012723865559281   F   F   F
  0.1661863262123759  0.8121765886067962  0.2013174620412883   F   F   F
  0.2497655804100987  0.8747514740683400  0.2763088131779128   F   F   F
  0.0825580188978989  0.8124898946519963  0.2823318451015737   F   F   F
  0.4173866347344344  0.8121155721843465  0.2822419416884330   F   F   F
  0.9978094087048625  0.8697201263577152  0.3663220533274618   T   T   T
  0.3303634326251261  0.8108168867321915  0.3674796748450594   T   T   T
  0.1639441089843553  0.8155195998937679  0.3652493794380173   T   T   T
  0.2493548919732243  0.8805567778615171  0.4529336567638092   T   T   T
  0.0793634834940797  0.8165232658512698  0.4521112936226236   T   T   T
  0.4016909462680775  0.8211748595253873  0.4589605600902836   T   T   T
  0.9320356935172242  0.8847040331200100  0.5427228708804248   T   T   T
  0.0000000000000000  0.8749709405038288  0.1952216004293277   F   F   F
  0.3336027360284533  0.9373254077095297  0.2010339935283412   F   F   F
  0.1660935290752192  0.9375055884914048  0.2011735569652160   F   F   F
  0.2504830212189049  0.4996808151450338  0.2776753851277860   F   F   F
  0.0824372547392471  0.9374188030533617  0.2822023922818460   F   F   F
  0.4174708236543907  0.9370820673138667  0.2818462101306238   F   F   F
  0.0013411087975081  0.5015965997823484  0.3675314627232206   T   T   T
  0.3271556663860458  0.9375000076396806  0.3666519633887191   T   T   T
  0.1672275008022554  0.9398752139583679  0.3692404827739530   T   T   T
  0.2531635870774376  0.5023424973438254  0.4533625913748348   T   T   T
  0.0757210151603709  0.9377638821940295  0.4497319427638728   T   T   T
  0.4181699517090379  0.9408713317338410  0.4529062425431052   T   T   T
  0.3428893574101728  0.9393720904610073  0.5418532895352566   T   T   T
  0.1693338978414083  0.9375695198171429  0.5394819322372728   T   T   T
  0.5000000000000000  0.9999198696006601  0.1948903532541308   F   F   F
  0.8338686237634931  0.0626435039054911  0.2013756225831216   F   F   F
  0.6664088480343722  0.0626178990550343  0.2011666574477005   F   F   F
  0.7502863525297556  0.1249913080150051  0.2769716716429613   F   F   F
  0.5826919764017120  0.0622158469098082  0.2818060632728887   F   F   F
  0.9175867107513014  0.0625280043020950  0.2823539174859135   F   F   F
  0.5052747174312542  0.1251641380658882  0.3699684139279473   T   T   T
  0.8380384697592878  0.0599557982974429  0.3689898153572874   T   T   T
  0.6671443988780821  0.0598279800227954  0.3660759844615299   T   T   T
  0.7485702385046304  0.1246593830183949  0.4481836995245196   T   T   T
  0.5906356794735355  0.0563614027693458  0.4526637734235863   T   T   T
  0.9166498497777402  0.0627087326002715  0.4570362688474390   T   T   T
  0.4955704172244734  0.1244126799739849  0.5359864866748637   T   T   T
  0.5000000000000000  0.1254990580004929  0.1954646149468999   F   F   F
  0.8338050752557820  0.1878540692822313  0.2019564242544476   F   F   F
  0.6661184209556694  0.1878831457175423  0.2019461464240635   F   F   F
  0.7497884325061293  0.2500369944875231  0.2777639619025223   F   F   F
  0.5825807174120214  0.1874333417367495  0.2829715540753668   F   F   F
  0.9175625509652647  0.1875904829007098  0.2829684025212984   F   F   F
  0.5006337442335221  0.2493972148480980  0.3730958434631236   T   T   T
  0.8334129416863327  0.1876805898700457  0.3638769901910351   T   T   T
  0.6640734067316862  0.1858074259577416  0.3707980773985347   T   T   T
  0.7561950517340048  0.2474982025201654  0.4561733767513541   T   T   T
  0.5935399698569563  0.1798070522529933  0.4554041533004337   T   T   T
  0.9120493220725862  0.1898503171213001  0.4504018133107662   T   T   T
  0.5000000000000000  0.2505013661093045  0.1964427338884676   F   F   F
  0.8338057190200701  0.3125671912316150  0.2024404242882341   F   F   F
  0.6655012010414296  0.3125187466315609  0.2026668881404063   F   F   F
  0.7493789562850921  0.3749227899199923  0.2783919089997156   F   F   F
  0.5824094523687293  0.3123986209820302  0.2843182411077976   F   F   F
  0.9176381413247796  0.3124866975306020  0.2834913249867341   F   F   F
  0.5011193711398683  0.3727801820385678  0.3732371268623130   T   T   T
  0.8357687323808259  0.3150481085152124  0.3626409923194454   T   T   T
  0.6686552676941416  0.3104701655737699  0.3696926263330053   T   T   T
  0.7594209296021118  0.3802174724934931  0.4577005990261261   T   T   T
  0.5975232593646634  0.3093477697700028  0.4618535023197840   T   T   T
  0.9202173752211221  0.3166771027953706  0.4541476908805802   T   T   T
  0.4910599543034975  0.3830466403484256  0.5444085410098546   T   T   T
  0.5000000000000000  0.3748991137487110  0.1971899805056978   F   F   F
  0.8335316537865580  0.4373113135708522  0.2024835848108779   F   F   F
  0.6654835827069547  0.4372854327724411  0.2027504300156835   F   F   F
  0.7503485273998720  0.0000136476026498  0.2762899058119643   F   F   F
  0.5825013782325570  0.4370699171736305  0.2843873273286093   F   F   F
  0.9174272532412573  0.4373792291061918  0.2832358711618497   F   F   F
  0.5033338515846647  0.9948823656763904  0.3667568834149828   T   T   T
  0.8319461975021553  0.4396570675073612  0.3676631687688827   T   T   T
  0.6697654218050491  0.4361870191746617  0.3667067292160287   T   T   T
  0.7538402941990991  0.9979342768987637  0.4517516292132412   T   T   T
  0.5901898357070731  0.4393668727682415  0.4545028704333400   T   T   T
  0.9152758467149867  0.4398662700669533  0.4563551063873918   T   T   T
  0.5000000000000000  0.4994643024967829  0.1967282283003158   F   F   F
  0.8334276776333880  0.5620352928756773  0.2019996637769879   F   F   F
  0.6659647951878682  0.5619131390770420  0.2021890025370681   F   F   F
  0.7498570837106016  0.6247388243367382  0.2770555720987531   F   F   F
  0.5822945077553001  0.5620703723524798  0.2835027055422685   F   F   F
  0.9176860655007744  0.5624071479513688  0.2827242320219199   F   F   F
  0.4987315589456949  0.6210224579130574  0.3699359879029574   T   T   T
  0.8337310685045042  0.5611846240651452  0.3679097322577151   T   T   T
  0.6665761382523384  0.5601102547317164  0.3668539795181928   T   T   T
  0.7531547493362627  0.6261232852623948  0.4593052039346151   T   T   T
  0.5858395221673323  0.5603823551792498  0.4534444859877566   T   T   T
  0.9153106601933960  0.5632297639616484  0.4537736851117433   T   T   T
  0.5192052602489520  0.6057037766111978  0.5453407824342541   T   T   T
  0.5000000000000000  0.6241464195896782  0.1959625473447417   F   F   F
  0.8336951269491948  0.6871515664123251  0.2015456485425915   F   F   F
  0.6660076099464050  0.6869740216822109  0.2015918950363513   F   F   F
  0.7500103315191211  0.7496463705244523  0.2766638540929520   F   F   F
  0.5825170447576582  0.6871308384112780  0.2826795856657682   F   F   F
  0.9175339087236267  0.6874672270731992  0.2824343777610991   F   F   F
  0.4978888367719898  0.7520838818314405  0.3719676355410339   T   T   T
  0.8315165628269666  0.6868750709724577  0.3668704936911739   T   T   T
  0.6661612067944659  0.6861700746164923  0.3656986840656324   T   T   T
  0.7587288579201593  0.7510610986407478  0.4565678843922206   T   T   T
  0.5877129130834646  0.6851800214900273  0.4527354898755777   T   T   T
  0.9114029492191269  0.6807732439402721  0.4552342632158966   T   T   T
  0.5000000000000000  0.7492608262324936  0.1954491219570258   F   F   F
  0.8338136439692363  0.8121765886067962  0.2013174620412883   F   F   F
  0.6662062579216084  0.8120159814150867  0.2012723865559281   F   F   F
  0.7502344190377102  0.8747514740683400  0.2763088131779128   F   F   F
  0.5826133652655656  0.8121155721843465  0.2822419416884330   F   F   F
  0.9174419811021011  0.8124898946519963  0.2823318451015737   F   F   F
  0.4947874868054163  0.8725722684483481  0.3714415087722773   T   T   T
  0.8305197785945133  0.8088544341524980  0.3668134164626530   T   T   T
  0.6654175528828655  0.8158176537964685  0.3666820836417620   T   T   T
  0.7560182816950207  0.8768142979963848  0.4571048364427857   T   T   T
  0.5820220482008787  0.8151154579080957  0.4543102739535440   T   T   T
  0.9173027182595551  0.8059898327401965  0.4515580429558229   T   T   T
  0.5051881901932089  0.8779223140628700  0.5454403824517861   T   T   T
  0.5000000000000000  0.8746701782158013  0.1950268913488955   F   F   F
  0.8339064411064001  0.9375055884914048  0.2011735569652160   F   F   F
  0.6663972347053502  0.9373254077095297  0.2010339935283412   F   F   F
  0.7495169782289040  0.4996808151450338  0.2776753851277860   F   F   F
  0.5825291763456093  0.9370820673138667  0.2818462101306238   F   F   F
  0.9175627452607529  0.9374188030533617  0.2822023922818460   F   F   F
  0.4975976052440861  0.4983017919827963  0.3709721205017135   T   T   T
  0.8387930274604851  0.9367751522761467  0.3663215554140860   T   T   T
  0.6690990591188738  0.9363114498234441  0.3681090573152799   T   T   T
  0.7545774584712635  0.5030866498807138  0.4567250187281409   T   T   T
  0.5873774883709943  0.9339391295710849  0.4573381589111016   T   T   T
  0.9155051386506694  0.9362940140089635  0.4550916756641365   T   T   T
  0.8460805131727769  0.0053706609231772  0.5535726159061797   T   T   T
  0.6625861973819684  0.9327636800217382  0.5457792887918570   T   T   T
  0.3429144797832508  0.0616123722253602  0.5385970197652840   T   T   T
  0.1671537105285121  0.0668325192914948  0.5439621977852495   T   T   T
  0.0026911558187669  0.2617083425721612  0.5458996181040385   T   T   T
  0.0157806406601579  0.9906537792377025  0.5495677294317299   T   T   T
  0.9660774333633165  0.7495617246582358  0.5335909503157976   T   T   T
  0.1788381251313984  0.5148273232201308  0.5567285571552449   T   T   T
  0.8326475979845838  0.1392742134509889  0.5511787930083761   T   T   T
  0.6607599002613658  0.0592053051895253  0.5424126146216427   T   T   T
  0.4930838359678258  0.2558860931334395  0.5373005222222061   T   T   T
  0.5078438963144626  0.9969858875995684  0.5382385778547817   T   T   T
  0.5174451107914354  0.7421835665857059  0.5480678655760890   T   T   T
  0.5924506260720334  0.4836937964944592  0.6130080963749470   T   T   T
  0.4061289664388497  0.9997402073788066  0.2299469413761983   F   F   F
  0.2499243442227694  0.0000438992941199  0.1972592478097255   F   F   F
  0.0937634807389713  0.0000060933876753  0.2303819593707956   F   F   F
  0.1543157078586574  0.1250764905392501  0.3144006291067782   F   F   F
  0.0000000000000000  0.1251032437903064  0.3017457848904002   F   F   F
  0.3452685446959336  0.1247294648472135  0.3139779832144782   F   F   F
  0.3982436322257693  0.1268347901024943  0.3991493183319796   T   T   T
  0.2488592884986880  0.1287828729610979  0.3867213384228346   T   T   T
  0.0965836953165894  0.1264867223015013  0.4019310732750062   T   T   T
  0.1617790105991434  0.1273242935463148  0.4897714197749719   T   T   T
  0.9960118541959242  0.1207973025409170  0.4775939172134470   T   T   T
  0.3521352119485053  0.1216633175277618  0.4841019877338849   T   T   T
  0.3971595367707807  0.1220818528989803  0.5736086130138943   T   T   T
  0.2590735141919612  0.1150633261421032  0.5566407917626827   T   T   T
  0.1084612833649607  0.1287877245297785  0.5789395596310942   T   T   T
  0.4060922726490972  0.1252483525494625  0.2305072749907424   F   F   F
  0.2499853373031016  0.1253680865118554  0.1980301026484881   F   F   F
  0.0938705441988859  0.1252872407861290  0.2308075844758477   F   F   F
  0.1545811603609692  0.2502172040039952  0.3150875426512627   F   F   F
  0.0000000000000000  0.2500118363359647  0.3026576964998000   F   F   F
  0.3454213900442511  0.2501666210715499  0.3155411423685734   F   F   F
  0.3995949834243658  0.2461127403958960  0.4019169309020602   T   T   T
  0.2442067210485458  0.2480768953206116  0.3877332186402734   T   T   T
  0.0964647049312376  0.2472990924166570  0.4057514535700185   T   T   T
  0.1526744615758531  0.2524526006450342  0.4858808319364711   T   T   T
  0.9961027100618534  0.2478016641710238  0.4775368236496250   T   T   T
  0.3460526381046740  0.2399445508687239  0.4854492666894569   T   T   T
  0.4211010548631891  0.3139919825930662  0.5313826428163444   T   T   T
  0.2700178138783819  0.2344886724105501  0.5587471595139339   T   T   T
  0.1056738595514461  0.2650855256634532  0.5712300300783847   T   T   T
  0.4063537820413998  0.2503554436372752  0.2318217329215244   F   F   F
  0.2501513892027489  0.2503837172861623  0.1987743679215939   F   F   F
  0.0937459477286708  0.2502472980689348  0.2314396456129870   F   F   F
  0.1547329312016998  0.3748240360379640  0.3152648351295895   F   F   F
  0.0000000000000000  0.3750074687728571  0.3026805859104442   F   F   F
  0.3457516654221564  0.3744942564091502  0.3165611258293524   F   F   F
  0.4006022500445979  0.3674278383105832  0.3959846524411557   T   T   T
  0.2518494381124779  0.3744654284373238  0.3862849093119172   T   T   T
  0.0998425765744318  0.3700241474855584  0.4033824775576318   T   T   T
  0.1534708714041817  0.3749724077155510  0.4886527009015837   T   T   T
  0.0091140444347017  0.3808974876442380  0.4799012527597011   T   T   T
  0.3540162468240194  0.3719424691743498  0.4807636991281350   T   T   T
  0.4236717271576830  0.4261172107732494  0.5793753143889142   T   T   T
  0.2973561338307800  0.3485784196182737  0.5841673160423151   T   T   T
  0.1478887095181193  0.3719667441855132  0.5961267798143843   T   T   T
  0.4063450296950606  0.3748105982353493  0.2326129276751985   F   F   F
  0.2503815799939773  0.3748833278233974  0.1999379082155102   F   F   F
  0.0937603312984550  0.3748447341583656  0.2316121428621187   F   F   F
  0.1544387718848412  0.9996829985042694  0.3140614921184621   F   F   F
  0.0000000000000000  0.9999586470014989  0.3011413469010975   F   F   F
  0.3452207830953640  0.9993250578202932  0.3135800436600817   F   F   F
  0.3988502299534411  0.9976213342039962  0.4007507641010573   T   T   T
  0.2461942116733711  0.9983064995387119  0.3872081536258352   T   T   T
  0.0957106354424282  0.9986277681824052  0.3995630868925908   T   T   T
  0.1500301752296595  0.9957736283851324  0.4846368038573923   T   T   T
  0.0065785119302094  0.9986091055723259  0.4752514707004177   T   T   T
  0.3556017293471667  0.0030299921557652  0.4871422474578649   T   T   T
  0.4161612557978920  0.0015253945321642  0.5706546267160861   T   T   T
  0.2567022923278126  0.0006260787418557  0.5474626706539202   T   T   T
  0.1130181761348107  0.0005882832517645  0.5719418973198471   T   T   T
  0.4063919750489262  0.4994383192689185  0.2320699339374244   F   F   F
  0.2503562457577360  0.4994733889603751  0.1984713927521753   F   F   F
  0.0937692161019683  0.4997186735604657  0.2311634630953918   F   F   F
  0.1544189180639535  0.6249313455917331  0.3142752564094309   F   F   F
  0.0000000000000000  0.6250871852705728  0.3016444522084001   F   F   F
  0.3455048527126365  0.6246178489899563  0.3146330939141251   F   F   F
  0.3983281741135482  0.6251859427021131  0.3991199488008084   T   T   T
  0.2542218846075788  0.6251476919265527  0.3842209227140887   T   T   T
  0.1020251818011216  0.6265230842984573  0.4027212385256193   T   T   T
  0.1578366828243245  0.6212842241708700  0.4855146199366165   T   T   T
  0.0025067976774289  0.6254546977041355  0.4809887063186615   T   T   T
  0.3553732402961222  0.6298053944235330  0.4838530068209223   T   T   T
  0.4391135255678373  0.6659845605212487  0.5515909790200411   T   T   T
  0.1885598212659257  0.6983426209296072  0.5878248020550284   T   T   T
  0.0309876400577787  0.6962452443198001  0.5627282010608563   T   T   T
  0.4062813521908808  0.6243967556400136  0.2312165259231449   F   F   F
  0.2502036679887922  0.6245155546987675  0.1983452378000550   F   F   F
  0.0937766661575239  0.6247540281504627  0.2307495947632816   F   F   F
  0.1546033435283221  0.7500785159681627  0.3141978718615590   F   F   F
  0.0000000000000000  0.7500305717557652  0.3016383232735009   F   F   F
  0.3453015051544455  0.7497428282577090  0.3142525964722225   F   F   F
  0.4037398188589059  0.7455779428138507  0.4084237262055841   T   T   T
  0.2477824413419844  0.7540614285491314  0.3901965259213049   T   T   T
  0.1001118974125343  0.7541815547088788  0.4045362147144977   T   T   T
  0.1501809279409854  0.7589295237881927  0.4813704539635978   T   T   T
  0.9991446768525618  0.7487783661326464  0.4673161287553014   T   T   T
  0.3436792838528180  0.7507450456210273  0.4904565099578080   T   T   T
  0.3140448766762234  0.7873279797771828  0.6019648652289216   T   T   T
  0.1359185909937770  0.8278469926041845  0.6169659544849307   T   T   T
  0.0604490455751065  0.8085765404529122  0.5253801829177921   T   T   T
  0.4062711913523245  0.7494715794673255  0.2306001329891103   F   F   F
  0.2500741286340968  0.7495298625147910  0.1975175958228235   F   F   F
  0.0937118033124449  0.7498015672246723  0.2305201988047330   F   F   F
  0.1546291005700482  0.8749761849418931  0.3141837548196165   F   F   F
  0.0000000000000000  0.8748932220635766  0.3014812161455396   F   F   F
  0.3451245848043172  0.8746053037018058  0.3138810939481544   F   F   F
  0.3951468356307635  0.8765804139206551  0.4005929778038165   T   T   T
  0.2459339294802809  0.8761668799143413  0.3832759329373384   T   T   T
  0.0954587582153855  0.8741528921787800  0.3996365509564450   T   T   T
  0.1521736537098256  0.8869234751017634  0.4845924530252247   T   T   T
  0.9870865520788517  0.8756291891221444  0.4741813940870127   T   T   T
  0.3510874390386903  0.8883706389096265  0.4887668538668424   T   T   T
  0.4120340287772027  0.8859742047569796  0.5804270414712140   T   T   T
  0.2505954050327761  0.8996123655785405  0.5729068285070511   T   T   T
  0.0472367813468158  0.9144295253918669  0.5511796079214298   T   T   T
  0.4061874568895689  0.8745829884845264  0.2301668008934286   F   F   F
  0.2499290053865906  0.8746976559329411  0.1974476691903959   F   F   F
  0.0937950848089244  0.8748753778232796  0.2304039901560628   F   F   F
  0.1546720275628246  0.4999270048239595  0.3147507493888071   F   F   F
  0.0000000000000000  0.4998372765106751  0.3021481560570436   F   F   F
  0.3456001409594549  0.4994987117009870  0.3156404985996346   F   F   F
  0.3949769293257152  0.4949857473532052  0.4024998630653771   T   T   T
  0.2507984160663349  0.4977282291491046  0.3837194488318586   T   T   T
  0.1039990694255239  0.5079795871551032  0.4037857851162674   T   T   T
  0.1583504661404890  0.4986784650721900  0.4884828101247533   T   T   T
  0.9971886742670139  0.5037096110730728  0.4742186409800382   T   T   T
  0.3576357645408493  0.4918353606655881  0.4875267525766589   T   T   T
  0.5235603351590328  0.5373274454541688  0.5883815942270199   T   T   T
  0.2663672805243075  0.5596411860632644  0.5272669913974939   T   T   T
  0.2288893212608969  0.4850002579234981  0.6110590067819682   T   T   T
  0.9062365192610287  0.0000060933876753  0.2303819593707956   F   F   F
  0.7500756552250394  0.0000438992941199  0.1972592478097255   F   F   F
  0.5938710335611503  0.9997402073788066  0.2299469413761983   F   F   F
  0.6547314553040664  0.1247294648472135  0.3139779832144782   F   F   F
  0.5000000000000000  0.1246461532123107  0.3009409192362540   F   F   F
  0.8456842921413426  0.1250764905392501  0.3144006291067782   F   F   F
  0.8964330155522224  0.1228537346132015  0.4015602254246178   T   T   T
  0.7525984117650789  0.1162001691517010  0.3865339685540313   T   T   T
  0.6006166969476766  0.1221570510283458  0.4023316859796958   T   T   T
  0.6636903326664831  0.1151041885735394  0.4856401899062392   T   T   T
  0.5097216326210221  0.1217432324288573  0.4684790220109379   T   T   T
  0.8480944993801222  0.1298087807469705  0.4834974431567871   T   T   T
  0.9370571205036903  0.1924328762024980  0.5605971345354299   T   T   T
  0.7569063297498207  0.1999462709783842  0.5535076070645857   T   T   T
  0.5855939716207715  0.1156541619517596  0.5723357161125080   T   T   T
  0.9061294558011141  0.1252872407861290  0.2308075844758477   F   F   F
  0.7500146621447072  0.1253680865118554  0.1980301026484881   F   F   F
  0.5939077273509028  0.1252483525494625  0.2305072749907424   F   F   F
  0.6545786099557489  0.2501666210715499  0.3155411423685734   F   F   F
  0.5000000000000000  0.2498087327690257  0.3027998836310033   F   F   F
  0.8454188396390308  0.2502172040039952  0.3150875426512627   F   F   F
  0.8989094184267885  0.2499516532171743  0.3989724169358896   T   T   T
  0.7514181252175671  0.2485907761768104  0.3835854140655842   T   T   T
  0.6056553078807292  0.2516839884606874  0.4067450843307120   T   T   T
  0.6551223221585943  0.2393648226733231  0.4883951785572181   T   T   T
  0.5070597164279523  0.2466547034784924  0.4679259625739731   T   T   T
  0.8495170982857000  0.2524510501056555  0.4843229622994638   T   T   T
  0.0047157331863245  0.3423171680816015  0.5709102134106121   T   T   T
  0.6973616186893208  0.3283561367669961  0.5942433230556237   T   T   T
  0.5825005352982702  0.3044193924952681  0.5306803219937455   T   T   T
  0.9062540522713292  0.2502472980689348  0.2314396456129870   F   F   F
  0.7498486102450599  0.2503837172861623  0.1987743679215939   F   F   F
  0.5936462179585931  0.2503554436372752  0.2318217329215244   F   F   F
  0.6542483345778436  0.3744942564091502  0.3165611258293524   F   F   F
  0.5000000000000000  0.3746674438902389  0.3043243890304694   F   F   F
  0.8452670687983002  0.3748240360379640  0.3152648351295895   F   F   F
  0.9085875546780063  0.3762279312572552  0.4044005226449230   T   T   T
  0.7472764912295469  0.3718392681866555  0.3881980177884450   T   T   T
  0.6007687555570056  0.3678915613388152  0.4061518538882860   T   T   T
  0.6624055869638085  0.3833936906671703  0.4874282783331720   T   T   T
  0.5000347402804775  0.3687529942975223  0.4683772330686464   T   T   T
  0.8566561149455180  0.3724014362341554  0.4878475118468958   T   T   T
  0.0302574688276915  0.4682886173707341  0.5548918555844723   T   T   T
  0.8453791522098340  0.4005316107717560  0.5842402211630098   T   T   T
  0.5842817253524287  0.4142241358851474  0.5741070513338966   T   T   T
  0.9062396687015450  0.3748447341583656  0.2316121428621187   F   F   F
  0.7496184194538316  0.3748833278233974  0.1999379082155102   F   F   F
  0.5936549703049394  0.3748105982353493  0.2326129276751985   F   F   F
  0.6547792169046360  0.9993250578202932  0.3135800436600817   F   F   F
  0.5000000000000000  0.9995461887499104  0.3005273028076445   F   F   F
  0.8455612281151588  0.9996829985042694  0.3140614921184621   F   F   F
  0.9005783714549953  0.0060986415110498  0.4049162074104050   T   T   T
  0.7444141610164967  0.0007156219514441  0.3845770784308605   T   T   T
  0.5982525844224251  0.9960290854253484  0.4004722691388500   T   T   T
  0.6570316368565801  0.9944905418067398  0.4876512030917354   T   T   T
  0.5091673866587322  0.9996059609168626  0.4712860561236707   T   T   T
  0.8538288714920971  0.9937764859540117  0.4859110276722999   T   T   T
  0.9219583165353950  0.0694607484262813  0.5517032845584103   T   T   T
  0.7667920726164371  0.0770267548169921  0.5597202269411572   T   T   T
  0.6054027986252971  0.9983475465155656  0.5704874543953008   T   T   T
  0.9062307838980246  0.4997186735604657  0.2311634630953918   F   F   F
  0.7496437536900729  0.4994733889603751  0.1984713927521753   F   F   F
  0.5936080249510738  0.4994383192689185  0.2320699339374244   F   F   F
  0.6544951472873635  0.6246178489899563  0.3146330939141251   F   F   F
  0.5000000000000000  0.6248457726619137  0.3021681632881084   F   F   F
  0.8455810819360465  0.6249313455917331  0.3142752564094309   F   F   F
  0.9067332551021106  0.6219738485160421  0.4031726959307066   T   T   T
  0.7470659202998682  0.6243801706102513  0.3927956255314660   T   T   T
  0.6018266111499417  0.6204701747882828  0.3981118120748234   T   T   T
  0.6534091032108457  0.6226419638929079  0.4870569773140003   T   T   T