Mo  S Cu                                
   1.00000000000000     
    15.9214998300000001    0.0000000000000000    0.0000000000000000
    -7.9622501300000001   13.7910221699999997    0.0000000000000000
     0.0000000000000000    0.0000000000000000   13.5821998300000004
   Mo   S    Co
    25    50     4
Direct
  0.1325722188205845  0.0657416700327289  0.6785432095126325
  0.1307082512163973  0.2646013197504828  0.6781615244288091
  0.1328387734402980  0.4657095028759812  0.6807856364325318
  0.1330197938187538  0.6657536226954335  0.6795685082819176
  0.1328977887167682  0.8657745350806749  0.6785296250586796
  0.3328881974300657  0.0657405727461509  0.6788894093686793
  0.3336971839579022  0.2656307363562149  0.6793187254071356
  0.3330259158696833  0.4660321175746631  0.6808196178463248
  0.3331846075505283  0.6660921271556717  0.6803602194644043
  0.3329349675588702  0.8659682534816255  0.6788081376660315
  0.5328599716532807  0.0659778443886481  0.6781826419669983
  0.5331003568883403  0.2657615105933289  0.6792007548084626
  0.5334590106382535  0.4653629915034898  0.6787418887945336
  0.5344848507275870  0.6685168942135249  0.6770220301718410
  0.5330256303612089  0.8665843437811276  0.6777780478655799
  0.7328097386887933  0.0660676599096561  0.6775278600677623
  0.7328620367512784  0.2659135387659717  0.6782966349074329
  0.7331083379988712  0.4659147825621730  0.6787386926278671
  0.7331692625763822  0.6663316587940855  0.6779852785289293
  0.7333476655964901  0.8664555448265503  0.6773921575022541
  0.9325377252790048  0.0656289798185838  0.6778516363522940
  0.9323593774444205  0.2658022651996959  0.6783583825970467
  0.9328600694584210  0.4658074160720744  0.6790357024729943
  0.9330286990630299  0.6658728525710416  0.6784709178875232
  0.9329622828167388  0.8659261964687559  0.6779807910136597
  0.0659111618249923  0.1321440752022056  0.5628616896619647
  0.0649529622564700  0.1315060737438500  0.7935557969802147
  0.0663083675070482  0.3335748481044689  0.5639714880117310
  0.0645698335416824  0.3310487232693120  0.7946238001948274
  0.0668308724427007  0.5322258220393152  0.5648118225142014
  0.0656695654511097  0.5326431586931335  0.7950661392615643
  0.0666108269357366  0.7321905190283999  0.5637240109237922
  0.0660659581846872  0.7326823919818963  0.7938949187196940
  0.0665132902866645  0.9326232763415518  0.5632356674928189
  0.0659669616238290  0.9323140234570957  0.7934230550488053
  0.2664145493548062  0.1327104892535615  0.5638486992581520
  0.2658826996579648  0.1319090161420817  0.7940747397337944
  0.2663258614392845  0.3325559646086660  0.5656286137872897
  0.2628725897421447  0.3294427997952027  0.7956977306958919
  0.2663780029146707  0.5322640932191618  0.5661995620531144
  0.2670194164614230  0.5323241783452417  0.7987524924156091
  0.2663780074278606  0.7319708782475800  0.5645760186529643
  0.2663017695830803  0.7331863056018761  0.7948323042354346
  0.2663124523756366  0.9325469041201089  0.5635742208917023
  0.2660592681764555  0.9324059171396399  0.7937984050096745
  0.4661277355678735  0.1329489138333173  0.5636707647881920
  0.4663271467276928  0.1320877182806797  0.7940653612944573
  0.4663312732588381  0.3322906360681159  0.5642182660053336
  0.4660731273221259  0.3334516830395486  0.7972985485745880
  0.4661727616186653  0.5324604554565155  0.5649697156675799
  0.4703036111438479  0.5369874294772998  0.7946191849395063
  0.4651137579157734  0.7327629122007622  0.5631584119982378
  0.4680230070013067  0.7343776554319916  0.7938643643739240
  0.4657764456230282  0.9327501790867956  0.5630063962055232
  0.4665956943182366  0.9329639396462852  0.7933732480495266
  0.6660093905350237  0.1328896436525184  0.5627849863242247
  0.6662592401367675  0.1324333909185498  0.7930191095511532
  0.6659029252721922  0.3325733746496482  0.5636621342563615
  0.6667477168112868  0.3325381189785546  0.7940518048329679
  0.6663590681452405  0.5324033531486378  0.5633570290046919
  0.6669656146162453  0.5331315200834155  0.7936867761159334
  0.6671613012554971  0.7332934010297762  0.5620419579661302
  0.6672737650504175  0.7339447943136150  0.7927980812543041
  0.6661295765640958  0.9328277264873819  0.5623399881829556
  0.6665793932331212  0.9330892825887531  0.7925940822151674
  0.8663434262565559  0.1329206679007058  0.5627078093597930
  0.8655719706131393  0.1321108780317175  0.7929765838395468
  0.8662565756896043  0.3329231672046546  0.5633362763211380
  0.8657524041546125  0.3321991804802735  0.7936993418531486
  0.8663975455445012  0.5323833787838339  0.5635954996610053
  0.8663136776122755  0.5327495126219404  0.7938084030273487
  0.8665155938751568  0.7324886897484859  0.5630260294395342
  0.8663258819167652  0.7327586162091748  0.7932042864518039
  0.8665955702920130  0.9327234035476692  0.5624866283407854
  0.8660965358179809  0.9325493543281667  0.7929295001821615
  0.2930167870218980  0.3585590713054501  0.9502374805111913
  0.4375182869460943  0.3694240965622626  0.9482540882548207
  0.4438026614153259  0.5117944953309035  0.9494352310776932
  0.2993766341556210  0.5009277686306461  0.9490723272813995
 
  0.00000000E+00  0.00000000E+00  0.00000000E+00
  0.00000000E+00  0.00000000E+00  0.00000000E+00
  0.00000000E+00  0.00000000E+00  0.00000000E+00
  0.00000000E+00  0.00000000E+00  0.00000000E+00
  0.00000000E+00  0.00000000E+00  0.00000000E+00
  0.00000000E+00  0.00000000E+00  0.00000000E+00
  0.00000000E+00  0.00000000E+00  0.00000000E+00
  0.00000000E+00  0.00000000E+00  0.00000000E+00
  0.00000000E+00  0.00000000E+00  0.00000000E+00
  0.00000000E+00  0.00000000E+00  0.00000000E+00
  0.00000000E+00  0.00000000E+00  0.00000000E+00
  0.00000000E+00  0.00000000E+00  0.00000000E+00
  0.00000000E+00  0.00000000E+00  0.00000000E+00
  0.00000000E+00  0.00000000E+00  0.00000000E+00
  0.00000000E+00  0.00000000E+00  0.00000000E+00
  0.00000000E+00  0.00000000E+00  0.00000000E+00
  0.00000000E+00  0.00000000E+00  0.00000000E+00
  0.00000000E+00  0.00000000E+00  0.00000000E+00
  0.00000000E+00  0.00000000E+00  0.00000000E+00
  0.00000000E+00  0.00000000E+00  0.00000000E+00
  0.00000000E+00  0.00000000E+00  0.00000000E+00
  0.00000000E+00  0.00000000E+00  0.00000000E+00
  0.00000000E+00  0.00000000E+00  0.00000000E+00
  0.00000000E+00  0.00000000E+00  0.00000000E+00
  0.00000000E+00  0.00000000E+00  0.00000000E+00
  0.00000000E+00  0.00000000E+00  0.00000000E+00
  0.00000000E+00  0.00000000E+00  0.00000000E+00
  0.00000000E+00  0.00000000E+00  0.00000000E+00
  0.00000000E+00  0.00000000E+00  0.00000000E+00
  0.00000000E+00  0.00000000E+00  0.00000000E+00
  0.00000000E+00  0.00000000E+00  0.00000000E+00
  0.00000000E+00  0.00000000E+00  0.00000000E+00
  0.00000000E+00  0.00000000E+00  0.00000000E+00
  0.00000000E+00  0.00000000E+00  0.00000000E+00
  0.00000000E+00  0.00000000E+00  0.00000000E+00
  0.00000000E+00  0.00000000E+00  0.00000000E+00
  0.00000000E+00  0.00000000E+00  0.00000000E+00
  0.00000000E+00  0.00000000E+00  0.00000000E+00
  0.00000000E+00  0.00000000E+00  0.00000000E+00
  0.00000000E+00  0.00000000E+00  0.00000000E+00
  0.00000000E+00  0.00000000E+00  0.00000000E+00
  0.00000000E+00  0.00000000E+00  0.00000000E+00
  0.00000000E+00  0.00000000E+00  0.00000000E+00
  0.00000000E+00  0.00000000E+00  0.00000000E+00
  0.00000000E+00  0.00000000E+00  0.00000000E+00
  0.00000000E+00  0.00000000E+00  0.00000000E+00
  0.00000000E+00  0.00000000E+00  0.00000000E+00
  0.00000000E+00  0.00000000E+00  0.00000000E+00
  0.00000000E+00  0.00000000E+00  0.00000000E+00
  0.00000000E+00  0.00000000E+00  0.00000000E+00
  0.00000000E+00  0.00000000E+00  0.00000000E+00
  0.00000000E+00  0.00000000E+00  0.00000000E+00
  0.00000000E+00  0.00000000E+00  0.00000000E+00
  0.00000000E+00  0.00000000E+00  0.00000000E+00
  0.00000000E+00  0.00000000E+00  0.00000000E+00
  0.00000000E+00  0.00000000E+00  0.00000000E+00
  0.00000000E+00  0.00000000E+00  0.00000000E+00
  0.00000000E+00  0.00000000E+00  0.00000000E+00
  0.00000000E+00  0.00000000E+00  0.00000000E+00
  0.00000000E+00  0.00000000E+00  0.00000000E+00
  0.00000000E+00  0.00000000E+00  0.00000000E+00
  0.00000000E+00  0.00000000E+00  0.00000000E+00
  0.00000000E+00  0.00000000E+00  0.00000000E+00
  0.00000000E+00  0.00000000E+00  0.00000000E+00
  0.00000000E+00  0.00000000E+00  0.00000000E+00
  0.00000000E+00  0.00000000E+00  0.00000000E+00
  0.00000000E+00  0.00000000E+00  0.00000000E+00
  0.00000000E+00  0.00000000E+00  0.00000000E+00
  0.00000000E+00  0.00000000E+00  0.00000000E+00
  0.00000000E+00  0.00000000E+00  0.00000000E+00
  0.00000000E+00  0.00000000E+00  0.00000000E+00
  0.00000000E+00  0.00000000E+00  0.00000000E+00
  0.00000000E+00  0.00000000E+00  0.00000000E+00
  0.00000000E+00  0.00000000E+00  0.00000000E+00
  0.00000000E+00  0.00000000E+00  0.00000000E+00
  0.00000000E+00  0.00000000E+00  0.00000000E+00
  0.00000000E+00  0.00000000E+00  0.00000000E+00
  0.00000000E+00  0.00000000E+00  0.00000000E+00
  0.00000000E+00  0.00000000E+00  0.00000000E+00
