Mo  S Cu                                
   1.00000000000000     
    15.9214998300000001    0.0000000000000000    0.0000000000000000
    -7.9622501300000001   13.7910221699999997    0.0000000000000000
     0.0000000000000000    0.0000000000000000   13.5821998300000004
   Mo   S    Ru
    25    50     4
Direct
  0.1327390713419732  0.0656492914548252  0.6782828243850005
  0.1300296915259764  0.2647574749014439  0.6766134090199145
  0.1325028255906062  0.4652425149377706  0.6807195972010689
  0.1331760326850215  0.6659557410583261  0.6800727957064225
  0.1330056478792088  0.8658549603466739  0.6788242398101332
  0.3329520473389209  0.0657248760821574  0.6791797874722221
  0.3328346762939773  0.2648809515481076  0.6783603620440104
  0.3338835728123399  0.4665755671951928  0.6772522376580383
  0.3337526172806875  0.6670306340401808  0.6800851953280187
  0.3329847105326280  0.8660869421840758  0.6791773586374035
  0.5329754738356058  0.0661317067908058  0.6786806234806448
  0.5338436700058793  0.2659965911977125  0.6797877077543362
  0.5342631942321887  0.4667951948227795  0.6785027092809486
  0.5344515783109074  0.6687737968071588  0.6753971261253398
  0.5333122987257326  0.8668993041019348  0.6777383357270708
  0.7329638420589077  0.0662001970825372  0.6777547587071240
  0.7330716727714801  0.2661122201002186  0.6789406786580443
  0.7334526463185398  0.4660259364266892  0.6790270370151603
  0.7334176369209970  0.6663246812519716  0.6776800716328850
  0.7335249633493035  0.8665698914739437  0.6771724905370320
  0.9326632341106063  0.0656169532638700  0.6777345781458735
  0.9324154308295078  0.2659109765353378  0.6785755146554635
  0.9331005660035103  0.4660762277549182  0.6795130075639548
  0.9331830788328901  0.6660156475826682  0.6787780404392976
  0.9330248648658852  0.8659935461965773  0.6779864350110998
  0.0656137436826256  0.1315320820448562  0.5622146358634765
  0.0654330630392295  0.1320942028965391  0.7930126973963851
  0.0655632984739043  0.3337733324619450  0.5633240909391475
  0.0646876649229995  0.3310521974710170  0.7944032729664201
  0.0668200500951670  0.5325330370253667  0.5651561869684087
  0.0660695771566395  0.5325914347846208  0.7952692616765447
  0.0667655819288413  0.7322604883719777  0.5641066237973220
  0.0661414703707450  0.7328454359359284  0.7943218245489589
  0.0665619965072750  0.9324084724825212  0.5632333453767657
  0.0659794329300567  0.9324845691464034  0.7934414428886001
  0.2663078889261783  0.1318540127995931  0.5634065901895795
  0.2655665600965875  0.1318203197159207  0.7939355880186767
  0.2656807507896843  0.3320245624263123  0.5636973509968612
  0.2639080370568507  0.3307990599247930  0.7907622459706616
  0.2658714332143575  0.5331669213502721  0.5660278081044936
  0.2682431399833689  0.5329470833748928  0.8001094331926311
  0.2661740412854243  0.7324146200117383  0.5646990118992079
  0.2666373223304674  0.7332820497043144  0.7949974540771620
  0.2664724359958939  0.9326206877457182  0.5638880011547442
  0.2661272288800234  0.9325094458805907  0.7941768413523675
  0.4663889322004380  0.1331062681741102  0.5641788717163152
  0.4665098063259805  0.1322657406789389  0.7944965993389985
  0.4670827992164135  0.3324942988235762  0.5651942476774963
  0.4654959954899809  0.3334893365929261  0.7991272515317434
  0.4673542360203342  0.5332348686575443  0.5623240105674157
  0.4688865424565662  0.5358364497344610  0.7902053123070232
  0.4653733080966092  0.7336294840052631  0.5623875943940533
  0.4683706578416533  0.7345835996684400  0.7932378645433289
  0.4658417171134133  0.9330649216418934  0.5632780474119699
  0.4668188279402727  0.9329605049011036  0.7936441249927455
  0.6661328931786343  0.1331556389990212  0.5632486868963440
  0.6664607659431780  0.1324457534344319  0.7934661764436157
  0.6662818419361969  0.3326240736959392  0.5641369606373274
  0.6670203075740346  0.3327818201103625  0.7946856659499133
  0.6671066163695087  0.5325012032459426  0.5631265717848706
  0.6674789769737401  0.5336680559946529  0.7937202176369667
  0.6677923891095858  0.7336790908802229  0.5613406608307443
  0.6667763377616396  0.7336483830791849  0.7920625887997801
  0.6663740154130124  0.9331724312535670  0.5623192757940174
  0.6667407217902763  0.9330510869031485  0.7925730602866068
  0.8664023526114732  0.1330640098313438  0.5628515475031577
  0.8658037887787486  0.1321156119060802  0.7930713353164833
  0.8663128463107057  0.3331481289861387  0.5638021530820865
  0.8660763425932672  0.3323578941142031  0.7941577199537946
  0.8666949223111473  0.5324971924095507  0.5639276361095042
  0.8665224605625070  0.5329974073734576  0.7942396040658366
  0.8668845613428928  0.7325912467123885  0.5630018471146272
  0.8662577617364633  0.7328947739016556  0.7932229259268198
  0.8667608777581961  0.9327996553200393  0.5623810137497571
  0.8661280632311801  0.9325617984030501  0.7928859309208534
  0.2826164852631052  0.3515707751177928  0.9467304089829867
  0.4503392323778499  0.3653083936815023  0.9561749237077706
  0.4342213935637815  0.4997958668591664  0.9500310043308104
  0.2957446956267376  0.5126451988264193  0.9565964340970368
 
  0.00000000E+00  0.00000000E+00  0.00000000E+00
  0.00000000E+00  0.00000000E+00  0.00000000E+00
  0.00000000E+00  0.00000000E+00  0.00000000E+00
  0.00000000E+00  0.00000000E+00  0.00000000E+00
  0.00000000E+00  0.00000000E+00  0.00000000E+00
  0.00000000E+00  0.00000000E+00  0.00000000E+00
  0.00000000E+00  0.00000000E+00  0.00000000E+00
  0.00000000E+00  0.00000000E+00  0.00000000E+00
  0.00000000E+00  0.00000000E+00  0.00000000E+00
  0.00000000E+00  0.00000000E+00  0.00000000E+00
  0.00000000E+00  0.00000000E+00  0.00000000E+00
  0.00000000E+00  0.00000000E+00  0.00000000E+00
  0.00000000E+00  0.00000000E+00  0.00000000E+00
  0.00000000E+00  0.00000000E+00  0.00000000E+00
  0.00000000E+00  0.00000000E+00  0.00000000E+00
  0.00000000E+00  0.00000000E+00  0.00000000E+00
  0.00000000E+00  0.00000000E+00  0.00000000E+00
  0.00000000E+00  0.00000000E+00  0.00000000E+00
  0.00000000E+00  0.00000000E+00  0.00000000E+00
  0.00000000E+00  0.00000000E+00  0.00000000E+00
  0.00000000E+00  0.00000000E+00  0.00000000E+00
  0.00000000E+00  0.00000000E+00  0.00000000E+00
  0.00000000E+00  0.00000000E+00  0.00000000E+00
  0.00000000E+00  0.00000000E+00  0.00000000E+00
  0.00000000E+00  0.00000000E+00  0.00000000E+00
  0.00000000E+00  0.00000000E+00  0.00000000E+00
  0.00000000E+00  0.00000000E+00  0.00000000E+00
  0.00000000E+00  0.00000000E+00  0.00000000E+00
  0.00000000E+00  0.00000000E+00  0.00000000E+00
  0.00000000E+00  0.00000000E+00  0.00000000E+00
  0.00000000E+00  0.00000000E+00  0.00000000E+00
  0.00000000E+00  0.00000000E+00  0.00000000E+00
  0.00000000E+00  0.00000000E+00  0.00000000E+00
  0.00000000E+00  0.00000000E+00  0.00000000E+00
  0.00000000E+00  0.00000000E+00  0.00000000E+00
  0.00000000E+00  0.00000000E+00  0.00000000E+00
  0.00000000E+00  0.00000000E+00  0.00000000E+00
  0.00000000E+00  0.00000000E+00  0.00000000E+00
  0.00000000E+00  0.00000000E+00  0.00000000E+00
  0.00000000E+00  0.00000000E+00  0.00000000E+00
  0.00000000E+00  0.00000000E+00  0.00000000E+00
  0.00000000E+00  0.00000000E+00  0.00000000E+00
  0.00000000E+00  0.00000000E+00  0.00000000E+00
  0.00000000E+00  0.00000000E+00  0.00000000E+00
  0.00000000E+00  0.00000000E+00  0.00000000E+00
  0.00000000E+00  0.00000000E+00  0.00000000E+00
  0.00000000E+00  0.00000000E+00  0.00000000E+00
  0.00000000E+00  0.00000000E+00  0.00000000E+00
  0.00000000E+00  0.00000000E+00  0.00000000E+00
  0.00000000E+00  0.00000000E+00  0.00000000E+00
  0.00000000E+00  0.00000000E+00  0.00000000E+00
  0.00000000E+00  0.00000000E+00  0.00000000E+00
  0.00000000E+00  0.00000000E+00  0.00000000E+00
  0.00000000E+00  0.00000000E+00  0.00000000E+00
  0.00000000E+00  0.00000000E+00  0.00000000E+00
  0.00000000E+00  0.00000000E+00  0.00000000E+00
  0.00000000E+00  0.00000000E+00  0.00000000E+00
  0.00000000E+00  0.00000000E+00  0.00000000E+00
  0.00000000E+00  0.00000000E+00  0.00000000E+00
  0.00000000E+00  0.00000000E+00  0.00000000E+00
  0.00000000E+00  0.00000000E+00  0.00000000E+00
  0.00000000E+00  0.00000000E+00  0.00000000E+00
  0.00000000E+00  0.00000000E+00  0.00000000E+00
  0.00000000E+00  0.00000000E+00  0.00000000E+00
  0.00000000E+00  0.00000000E+00  0.00000000E+00
  0.00000000E+00  0.00000000E+00  0.00000000E+00
  0.00000000E+00  0.00000000E+00  0.00000000E+00
  0.00000000E+00  0.00000000E+00  0.00000000E+00
  0.00000000E+00  0.00000000E+00  0.00000000E+00
  0.00000000E+00  0.00000000E+00  0.00000000E+00
  0.00000000E+00  0.00000000E+00  0.00000000E+00
  0.00000000E+00  0.00000000E+00  0.00000000E+00
  0.00000000E+00  0.00000000E+00  0.00000000E+00
  0.00000000E+00  0.00000000E+00  0.00000000E+00
  0.00000000E+00  0.00000000E+00  0.00000000E+00
  0.00000000E+00  0.00000000E+00  0.00000000E+00
  0.00000000E+00  0.00000000E+00  0.00000000E+00
  0.00000000E+00  0.00000000E+00  0.00000000E+00
  0.00000000E+00  0.00000000E+00  0.00000000E+00
