Ru Ta  N  Cu                            
   1.00000000000000     
    18.1096308199999996    0.0000000000000000    0.0000000000000000
     0.0000000000000000   23.3551997799999995    0.0000000000000000
     0.0000000000000000    0.0000000000000000   32.4818170799999990
   Ru   Ta   N    Cu
   128   240   240     2
Selective dynamics
Direct
  0.0301757131429117  0.0069530496702935  0.4475362076898875   T   T   T
  0.2794145781169495  0.5008955797811024  0.4393496315042338   T   T   T
  0.4252921110407563  0.0641664489956815  0.4334997006193395   T   T   T
  0.0452872285919469  0.2553330405762392  0.4477680448706545   T   T   T
  0.2743809169463265  0.2404737689308973  0.4392965936606646   T   T   T
  0.4153827039056596  0.3170180521797437  0.4340162310898268   T   T   T
  0.0318218181739979  0.1232832332608075  0.4488805709470941   T   T   T
  0.2780598955230160  0.1249708289800781  0.4396140024736476   T   T   T
  0.4225713168674613  0.1880725710381778  0.4333418151999168   T   T   T
  0.0478456008903866  0.3699497079681066  0.4479848354715282   T   T   T
  0.2722037400590898  0.3849530806979957  0.4388127961135007   T   T   T
  0.4184725948720726  0.4368532957028477  0.4327464264832700   T   T   T
  0.1534665614410234  0.4463476645324500  0.4480136100758894   T   T   T
  0.1723856418784093  0.3111515711487239  0.4590927877581790   T   T   T
  0.1540336246307981  0.1818218334688905  0.4496042498860212   T   T   T
  0.1540719774638484  0.0653222482862657  0.4494481222050939   T   T   T
  0.0648263845630343  0.4378554169666836  0.5074570013040568   T   T   T
  0.3267318389839613  0.4378079196616946  0.4996047849925598   T   T   T
  0.4501095119778725  0.0084422224246603  0.5013021245347647   T   T   T
  0.0648010094623639  0.1919061679275573  0.5083909968311108   T   T   T
  0.3304317262380702  0.1839354267467748  0.4999388684554113   T   T   T
  0.4391110093643464  0.2584614680394494  0.5004478360297321   T   T   T
  0.0625902644074640  0.0618072062158195  0.5098508514106792   T   T   T
  0.3254149484700891  0.0635832569335632  0.4991144970357853   T   T   T
  0.4511362648015848  0.1190964391558772  0.5007535825399489   T   T   T
  0.0709127757385832  0.3124345863054936  0.5119985538445585   T   T   T
  0.3124446741601734  0.3141821353610099  0.4951497219031560   T   T   T
  0.4415334754148958  0.3696954033598758  0.5004822768976824   T   T   T
  0.1985627557579439  0.3910444625558528  0.5093631238069671   T   T   T
  0.2013737031793287  0.2340660838193846  0.5113506105356864   T   T   T
  0.2074252134627345  0.1249086876951566  0.5068802715295957   T   T   T
  0.2070404407030597  0.5010414317243569  0.5065971007645085   T   T   T
  0.0327398823491815  0.5046222878318065  0.4482742318702462   T   T   T
  0.2778833624717766  0.0043013937402023  0.4393919352918083   T   T   T
  0.4247689775178619  0.5612560103144890  0.4336544609425199   T   T   T
  0.0494461738058885  0.7539260522770963  0.4472742629161736   T   T   T
  0.2755236380357543  0.7369998167607625  0.4398979790985484   T   T   T
  0.4053147920387951  0.8142507317821217  0.4355620568632727   T   T   T
  0.0340383360163448  0.6217976301810283  0.4487737357269458   T   T   T
  0.2795447577936009  0.6216280554321160  0.4399620623884493   T   T   T
  0.4179726479302402  0.6858622370706071  0.4333980267625771   T   T   T
  0.0514216559178814  0.8684661273831823  0.4481637208586676   T   T   T
  0.2713635055211484  0.8886772266380216  0.4394905235764550   T   T   T
  0.4158169772270108  0.9374716729957316  0.4337312518323180   T   T   T
  0.1518810542939634  0.9503287397207461  0.4475831421801616   T   T   T
  0.1765345376719979  0.8112009975739096  0.4579809405793502   T   T   T
  0.1555085927719630  0.6777808948405396  0.4490088598216410   T   T   T
  0.1554869082686489  0.5616790715359693  0.4495050422507323   T   T   T
  0.0653541988431623  0.9405064067762642  0.5072271204372802   T   T   T
  0.3262969355826309  0.9427374657114416  0.4998959252929136   T   T   T
  0.4483171343549643  0.5041369308771793  0.5007397278646114   T   T   T
  0.0684791290702793  0.6880190190356310  0.5085203228669096   T   T   T
  0.3301345239112727  0.6804737286491438  0.5004830407008550   T   T   T
  0.4354057299508000  0.7578705101754868  0.5021588613228489   T   T   T
  0.0639458041377545  0.5614206496701265  0.5100936494868362   T   T   T
  0.3258148071006258  0.5613182178496831  0.4993592089050318   T   T   T
  0.4500652396927225  0.6159679668360766  0.5009686438654810   T   T   T
  0.0791504305216431  0.8058335401600127  0.5120888695944268   T   T   T
  0.3078003012911986  0.8143520831877242  0.4947552557733862   T   T   T
  0.4364481114190977  0.8679032517522447  0.5028580402824286   T   T   T
  0.1979757262980879  0.8932336383753590  0.5080404663295549   T   T   T
  0.2024990662732617  0.7322696646506071  0.5100615313797309   T   T   T
  0.2080872361493912  0.6218150507924062  0.5070600864543235   T   T   T
  0.2047107072504480  0.0048119192372607  0.5066406654942036   T   T   T
  0.5490455165725707  0.0046311938312816  0.4471441634566054   T   T   T
  0.7792561453876470  0.4949993371186198  0.4331282592538213   T   T   T
  0.9042258143573171  0.0653283920398179  0.4347693570227772   T   T   T
  0.5408718099948748  0.2589464262706155  0.4486976346965983   T   T   T
  0.7787708630757127  0.2553118039984213  0.4361584361849736   T   T   T
  0.9231968707351795  0.3157221113616966  0.4314005888930116   T   T   T
  0.5539923871940466  0.1218839624866668  0.4480920000249824   T   T   T
  0.7716022189378869  0.1404305562296921  0.4395481706096417   T   T   T
  0.9148368316178500  0.1873930493654686  0.4324725443301725   T   T   T
  0.5488140011517888  0.3751938268025254  0.4483476916192080   T   T   T
  0.7802576183558297  0.3775899648684878  0.4336672454835564   T   T   T
  0.9222308780668507  0.4363218250432608  0.4317173755165774   T   T   T
  0.6741555399424720  0.4372177897809852  0.4635636790814473   T   T   T
  0.6725105388487159  0.3183270894041485  0.4616469855645212   T   T   T
  0.6574689938285725  0.2035503903375885  0.4515713819281861   T   T   T
  0.6766308926279903  0.0605508669399876  0.4569986028854578   T   T   T
  0.5633788937667171  0.4339732447504366  0.5123863310649394   T   T   T
  0.8117675641597132  0.4368585963406196  0.4976568110656143   T   T   T
  0.9334921008332837  0.0094330957122535  0.5015975281254863   T   T   T
  0.5670363642823690  0.1910148616081246  0.5085334132600858   T   T   T
  0.8242724651973308  0.1995778650321602  0.4999600454436451   T   T   T
  0.9416478765503271  0.2622734860581613  0.4999816058655142   T   T   T
  0.5789025956099846  0.0600308198256097  0.5113606005163421   T   T   T
  0.8064927315461591  0.0633503104387784  0.4935046142803386   T   T   T
  0.9328783339104987  0.1205819849180527  0.5016332990154880   T   T   T
  0.5663372632456742  0.3160122682112408  0.5133863108518570   T   T   T
  0.8103631794903458  0.3191671505563569  0.4974772234455700   T   T   T
  0.9417900479770349  0.3723685047190339  0.4994046335083225   T   T   T
  0.6930812980092478  0.3789430766714949  0.5271427696840778   T   T   T
  0.6963097832618919  0.2470949377483526  0.5182080890689913   T   T   T
  0.7017504581302434  0.1397222570488452  0.5089454922808728   T   T   T
  0.7015846390064896  0.4934808146477457  0.5288300644026060   T   T   T
  0.5519559868620753  0.4981363303809317  0.4485692207648132   T   T   T
  0.7759513180614226  0.9857511361572070  0.4393779598048461   T   T   T
  0.9112920812832453  0.5627145856130502  0.4332587593450289   T   T   T
  0.5320760755264584  0.7529494576518955  0.4476363536175076   T   T   T
  0.7788142553889823  0.7498375192130555  0.4391302701252500   T   T   T
  0.9248595498147435  0.8123945844647603  0.4335465733926402   T   T   T
  0.5527225809479528  0.6170918109557731  0.4488891241776853   T   T   T
  0.7728116825158371  0.6301558883454537  0.4394075652157265   T   T   T
  0.9172663764184050  0.6875399386437790  0.4334651649068909   T   T   T
  0.5329557933288227  0.8715616861234504  0.4487256526436263   T   T   T
  0.7788788243774011  0.8709367462603788  0.4395715501098688   T   T   T
  0.9187065433550941  0.9369641203424761  0.4330965977142418   T   T   T
  0.6552433220044011  0.9280987760139040  0.4487867630423776   T   T   T
  0.6551070393057060  0.8115091786565232  0.4489167769082623   T   T   T
  0.6542305207423050  0.6962648709560091  0.4479913472726035   T   T   T
  0.6750376762352800  0.5543624026124446  0.4614774314007027   T   T   T
  0.5678879259723114  0.9391125405726648  0.5079208379430663   T   T   T
  0.8309332207395568  0.9280097785001589  0.5002639585072060   T   T   T
  0.9347887888346119  0.5043850907254344  0.5013416967847310   T   T   T
  0.5683406408753220  0.6889292220698340  0.5077380242816916   T   T   T
  0.8264316061722209  0.6906011392653794  0.4993285142124427   T   T   T
  0.9509479216397813  0.7565320887413138  0.5017296640311516   T   T   T
  0.5701549327822774  0.5563618012670226  0.5139225314910424   T   T   T
  0.8075812535390439  0.5557077554752575  0.4965392211263617   T   T   T
  0.9348600733641379  0.6157936036176352  0.5014749070635279   T   T   T
  0.5660174257044239  0.8092300620592844  0.5096391131818776   T   T   T
  0.8258639676728229  0.8099261041505083  0.4988103277341740   T   T   T
  0.9517109559782685  0.8662773814510657  0.5018249389103985   T   T   T
  0.7071706428950314  0.8711326902909421  0.5065233487819620   T   T   T
  0.7035754135033172  0.7525096519362817  0.5073657284531076   T   T   T
  0.7041131443096498  0.6396959602716736  0.5081262043009612   T   T   T
  0.7044662075256273  0.9820201868888890  0.5095974367912228   T   T   T
  0.0002112439569970  0.0001379294448540  0.0373463921698374   F   F   F
  0.3342257926207992  0.0625994154237475  0.0423987318545187   F   F   F
  0.1660626269271432  0.0626581163633873  0.0424061668450690   F   F   F
  0.2502202084754828  0.1252178855354416  0.1130358333669221   F   F   F
  0.0828588434925734  0.0627073156657261  0.1186643004524512   F   F   F
  0.4176999472490408  0.0627059576615423  0.1186271515872050   F   F   F
  0.0011711763328852  0.1251956157509078  0.1991827209014709   T   T   T
  0.3329480944187979  0.0627752104994998  0.1977936687043673   T   T   T
  0.1682423775648914  0.0627696553879904  0.1977938361631916   T   T   T
  0.2496306635165240  0.1253818794805023  0.2789753146035269   T   T   T
  0.0844345399918002  0.0627148712808235  0.2790666623035075   T   T   T
  0.4174488849987552  0.0628047168078934  0.2784449411775388   T   T   T
  0.0037828292982542  0.1252552691587950  0.3598491019115286   T   T   T
  0.3337398367352186  0.0630558130984392  0.3588756192747709   T   T   T
  0.1662154900134105  0.0629209146322657  0.3609551782603426   T   T   T
  0.0001993579241457  0.1251124241418680  0.0373673238785415   F   F   F
  0.3342248374093941  0.1876083518869578  0.0424180467130881   F   F   F
  0.1660568042752573  0.1876606967942038  0.0424146876443743   F   F   F
  0.2502332970886698  0.2502158349488468  0.1130222857832806   F   F   F
  0.0828712378028129  0.1877169521294775  0.1186661494224168   F   F   F
  0.4176644359050954  0.1877065482458207  0.1186607550294028   F   F   F
  0.0012829819626879  0.2501601784831922  0.1991181982524818   T   T   T
  0.3329701662433112  0.1877338787807342  0.1977906991377669   T   T   T
  0.1682184918492044  0.1877222692379264  0.1977607427720979   T   T   T
  0.2494172967840921  0.2502162102113628  0.2789343878746661   T   T   T
  0.0843497371862303  0.1877460882190208  0.2790916370410830   T   T   T
  0.4172876430259381  0.1878040216196436  0.2784808776297713   T   T   T
  0.0012916312906865  0.2501803823532512  0.3595312595147080   T   T   T
  0.3339119963857397  0.1881424926322179  0.3585555485719096   T   T   T
  0.1663401684798612  0.1880476209066613  0.3609214455021761   T   T   T
  0.0002122078768210  0.2501392066830732  0.0373456541597363   F   F   F
  0.3342232035055162  0.3125992309382539  0.0423967923009556   F   F   F
  0.1660586660861370  0.3126582257413517  0.0424062846115874   F   F   F
  0.2502173161139041  0.3752178897059935  0.1130360339591618   F   F   F
  0.0828568376004242  0.3127060748111887  0.1186645141734175   F   F   F
  0.4176984722473520  0.3127078846600213  0.1186298408889357   F   F   F
  0.0014029315951346  0.3751357675634040  0.1990507996681364   T   T   T
  0.3328864098702195  0.3127023650735070  0.1977642606336419   T   T   T
  0.1682462746489566  0.3127059976090136  0.1977312233610160   T   T   T
  0.2492513656749939  0.3752057603539950  0.2787432741015559   T   T   T
  0.0845869620224822  0.3126890978985247  0.2790343903721688   T   T   T
  0.4170399396760611  0.3126911479234675  0.2783119474356138   T   T   T
  0.0020607996080888  0.3757648961498642  0.3590655334315666   T   T   T
  0.3332726879921013  0.3128538038772136  0.3585505720790836   T   T   T
  0.1655912629425912  0.3128312161315115  0.3623363140664584   T   T   T
  0.0001993469486266  0.3751125453592721  0.0373668329409540   F   F   F
  0.3342265491584655  0.4376091382735581  0.0424193945147948   F   F   F
  0.1660559599480962  0.4376604044393986  0.0424156771225839   F   F   F
  0.2502327017382058  0.0002164962773534  0.1130220722767348   F   F   F
  0.0828707196508915  0.4377156099338606  0.1186668391713255   F   F   F
  0.4176643738564039  0.4377089816271393  0.1186614737223408   F   F   F
  0.0011083860412684  0.0002219401096356  0.1991761414974442   T   T   T
  0.3328734227393400  0.4377587355912460  0.1976783535590620   T   T   T
  0.1682714268461914  0.4377799011673346  0.1976851647102273   T   T   T
  0.2497419036703485  0.0003153364373891  0.2788769665884579   T   T   T
  0.0843982522585999  0.4377901731296722  0.2788724324927231   T   T   T
  0.4171172680597310  0.4377321506029308  0.2781394357450576   T   T   T
  0.0033403189406017  0.0001211270412337  0.3597332910352035   T   T   T
  0.3330693811717717  0.4379183459023285  0.3577342729519818   T   T   T
  0.1662261516335354  0.4377243818463109  0.3602934474664562   T   T   T
  0.0002112439569970  0.5001379294448540  0.0373463921698374   F   F   F
  0.3342257926207992  0.5625994154237475  0.0423987318545187   F   F   F
  0.1660626269271432  0.5626581163633873  0.0424061668450690   F   F   F
  0.2502202084754828  0.6252178855354416  0.1130358333669221   F   F   F
  0.0828588434925734  0.5627073156657261  0.1186643004524512   F   F   F
  0.4176999472490408  0.5627059576615423  0.1186271515872050   F   F   F
  0.0012865694998697  0.6253290603279993  0.1991273678563388   T   T   T
  0.3329812516358613  0.5628247042903394  0.1977652775659547   T   T   T
  0.1682981499528167  0.5628157673718193  0.1977586441729518   T   T   T
  0.2497890059890414  0.6252538487809682  0.2788500376094790   T   T   T
  0.0844938456728653  0.5628521684405950  0.2789830762046939   T   T   T
  0.4172504762231588  0.5628030932569705  0.2783411730340707   T   T   T
  0.0033846178589896  0.6251096188938838  0.3599210492767240   T   T   T
  0.3338135349225374  0.5626405113688804  0.3586751187508154   T   T   T
  0.1664171777394465  0.5627665595707612  0.3608608063304852   T   T   T
  0.0001993579241457  0.6251124241418680  0.0373673238785415   F   F   F
  0.3342248374093941  0.6876083518869507  0.0424180467130881   F   F   F
  0.1660568042752573  0.6876606967941967  0.0424146876443743   F   F   F
  0.2502332970886698  0.7502158349488468  0.1130222857832806   F   F   F
  0.0828712378028129  0.6877169521294704  0.1186661494224168   F   F   F
  0.4176644359050954  0.6877065482458136  0.1186607550294028   F   F   F
  0.0012160240713903  0.7503094325259274  0.1991694819776239   T   T   T
  0.3329569731568873  0.6878159879777668  0.1977576745788158   T   T   T
  0.1682720467408257  0.6877944428953537  0.1977315172999562   T   T   T
  0.2498211513735031  0.7502392935268584  0.2789092601022298   T   T   T
  0.0846727509023823  0.6878259301580940  0.2790513805664047   T   T   T
  0.4173631636520072  0.6878144016290378  0.2783847964816989   T   T   T
  0.0021052806063778  0.7498982725959877  0.3593760519110077   T   T   T
  0.3343948750361561  0.6877449948107461  0.3584747935237196   T   T   T
  0.1668385078409250  0.6878048337204374  0.3606643131782546   T   T   T
  0.0002122078768210  0.7501392066830732  0.0373456541597363   F   F   F
  0.3342232035055162  0.8125992309382539  0.0423967923009556   F   F   F
  0.1660586660861370  0.8126582257413517  0.0424062846115874   F   F   F
  0.2502173161139041  0.8752178897059935  0.1130360339591618   F   F   F
  0.0828568376004242  0.8127060748111887  0.1186645141734175   F   F   F
  0.4176984722473520  0.8127078846600213  0.1186298408889357   F   F   F
  0.0012109039632797  0.8751963892754367  0.1991902356621163   T   T   T
  0.3329835140311215  0.8127846060862187  0.1977953328283131   T   T   T
  0.1683201170719476  0.8127672157693310  0.1977316186119674   T   T   T
  0.2497261165911044  0.8753396554645058  0.2788925464295725   T   T   T
  0.0849519295968866  0.8127100998073480  0.2790451346112033   T   T   T
  0.4173301674834003  0.8128075455479057  0.2784008240696084   T   T   T
  0.0024024518172937  0.8753346758431408  0.3595211990390111   T   T   T
  0.3335650315367612  0.8127673619020687  0.3584528352479654   T   T   T
  0.1664272513701667  0.8126429390890857  0.3622847485320623   T   T   T
  0.0001993469486266  0.8751125453592721  0.0373668329409540   F   F   F
  0.3342265491584655  0.9376091382735510  0.0424193945147948   F   F   F
  0.1660559599480962  0.9376604044393915  0.0424156771225839   F   F   F
  0.2502327017382058  0.5002164962773534  0.1130220722767348   F   F   F
  0.0828707196508915  0.9377156099338535  0.1186668391713255   F   F   F
  0.4176643738564039  0.9377089816271322  0.1186614737223408   F   F   F
  0.0013938893627893  0.5003459456685417  0.1990480403689803   T   T   T
  0.3329986946221618  0.9377765705342157  0.1977851455861080   T   T   T
  0.1682944384581231  0.9377937499134359  0.1977556497741724   T   T   T
  0.2495606961885476  0.5002854807470462  0.2786986601563646   T   T   T
  0.0844649788100257  0.9376793140990620  0.2789584124555192   T   T   T
  0.4174006619599239  0.9377523454938775  0.2783645282897354   T   T   T
  0.0030110687885839  0.5002332653154743  0.3597383309850770   T   T   T
  0.3339071305935658  0.9379414140903937  0.3581465265169589   T   T   T
  0.1667677779760900  0.9375805633708691  0.3604903874345561   T   T   T
  0.5002112439569970  0.0001379294448540  0.0373463921698374   F   F   F
  0.8342257926207992  0.0625994154237475  0.0423987318545187   F   F   F
  0.6660626269271432  0.0626581163633873  0.0424061668450690   F   F   F
  0.7502202084754828  0.1252178855354416  0.1130358333669221   F   F   F
  0.5828588434925734  0.0627073156657261  0.1186643004524512   F   F   F
  0.9176999472490408  0.0627059576615423  0.1186271515872050   F   F   F
  0.5009812350122460  0.1251988810554499  0.1992315959265610   T   T   T
  0.8329007847919258  0.0627282324472205  0.1977310617016132   T   T   T
  0.6681801576771809  0.0627366172340559  0.1977166953511385   T   T   T
  0.7493815470868030  0.1252797229971092  0.2787414695694364   T   T   T
  0.5846987781779428  0.0626809402649784  0.2790151043849027   T   T   T
  0.9174167106104884  0.0626800472253666  0.2782491250991908   T   T   T
  0.5019929849685776  0.1254194468274783  0.3596398941879704   T   T   T
  0.8331238407736560  0.0627969865718107  0.3582008218768918   T   T   T
  0.6662361013083693  0.0626339548971734  0.3619798637458007   T   T   T
  0.5001993579241457  0.1251124241418680  0.0373673238785415   F   F   F
  0.8342248374093941  0.1876083518869578  0.0424180467130881   F   F   F
  0.6660568042752573  0.1876606967942038  0.0424146876443743   F   F   F
  0.7502332970886698  0.2502158349488468  0.1130222857832806   F   F   F
  0.5828712378028129  0.1877169521294775  0.1186661494224168   F   F   F
  0.9176644359050954  0.1877065482458207  0.1186607550294028   F   F   F
  0.5008447117109854  0.2501792110521262  0.1991927036637884   T   T   T
  0.8328727947255761  0.1877104063745102  0.1976575575408485   T   T   T
  0.6680272702526947  0.1877198394038089  0.1977114533820762   T   T   T
  0.7490368584053156  0.2502101991136980  0.2785992080785782   T   T   T
  0.5840616965988285  0.1877137167670499  0.2790453401246429   T   T   T
  0.9176078319390878  0.1876032491226424  0.2780326690208656   T   T   T
  0.5027237823414492  0.2500399653044847  0.3600737432233387   T   T   T
  0.8333583407129106  0.1880219214347146  0.3573833693839641   T   T   T
  0.6660694314578786  0.1874995102651530  0.3606659395700119   T   T   T
  0.5002122078768210  0.2501392066830732  0.0373456541597363   F   F   F
  0.8342232035055162  0.3125992309382539  0.0423967923009556   F   F   F
  0.6660586660861370  0.3126582257413517  0.0424062846115874   F   F   F
  0.7502173161139041  0.3752178897059935  0.1130360339591618   F   F   F
  0.5828568376004242  0.3127060748111887  0.1186645141734175   F   F   F
  0.9176984722473520  0.3127078846600213  0.1186298408889357   F   F   F
  0.5008108376965982  0.3751929624029525  0.1991666283174672   T   T   T
  0.8327871396840559  0.3127397857091451  0.1976116737207358   T   T   T
  0.6679221090707355  0.3126981082917123  0.1976824010108874   T   T   T
  0.7487831636180281  0.3752007784487941  0.2783769228665328   T   T   T
  0.5838129658357948  0.3126680992299018  0.2789383676925361   T   T   T
  0.9178244745452480  0.3126871242508359  0.2777070794592067   T   T   T
  0.5025983902926381  0.3753480262224986  0.3591905930649951   T   T   T
  0.8327207896661648  0.3129808419365387  0.3569016942124706   T   T   T
  0.6651323257832871  0.3126983478427869  0.3614988212012512   T   T   T
  0.5001993469486266  0.3751125453592721  0.0373668329409540   F   F   F
  0.8342265491584655  0.4376091382735581  0.0424193945147948   F   F   F
  0.6660559599480962  0.4376604044393986  0.0424156771225839   F   F   F
  0.7502327017382058  0.0002164962773534  0.1130220722767348   F   F   F
  0.5828707196508915  0.4377156099338606  0.1186668391713255   F   F   F
  0.9176643738564039  0.4377089816271393  0.1186614737223408   F   F   F
  0.5010553206313176  0.0002758296811725  0.1991986457775655   T   T   T
  0.8328773059034428  0.4377911637211459  0.1975984216635749   T   T   T
  0.6679645988466434  0.4377427543887386  0.1976309591819584   T   T   T
  0.7497149344325617  0.0001037969457830  0.2788377354591489   T   T   T
  0.5837807294424874  0.4377596955569025  0.2787482088606004   T   T   T
  0.9179648658959606  0.4378952481375796  0.2775072005343934   T   T   T
  0.5019186631536495  0.9999603100497819  0.3595409391295219   T   T   T
  0.8329797364752402  0.4379252574752033  0.3559700523827911   T   T   T
  0.6647846618416051  0.4377096295423644  0.3609332317830788   T   T   T
  0.5002112439569970  0.5001379294448540  0.0373463921698374   F   F   F
  0.8342257926207992  0.5625994154237475  0.0423987318545187   F   F   F
  0.6660626269271432  0.5626581163633873  0.0424061668450690   F   F   F
  0.7502202084754828  0.6252178855354416  0.1130358333669221   F   F   F
  0.5828588434925734  0.5627073156657261  0.1186643004524512   F   F   F
  0.9176999472490408  0.5627059576615423  0.1186271515872050   F   F   F
  0.5009614071846719  0.6252747252279317  0.1991750677042135   T   T   T
  0.8328988868955337  0.5628344284351228  0.1976138632247625   T   T   T
  0.6681047839913544  0.5627905782594789  0.1976291100482570   T   T   T
  0.7492651345216922  0.6252958209917632  0.2786176253147373   T   T   T
  0.5840322901144570  0.5627068646594542  0.2788665159106873   T   T   T
  0.9178648417272497  0.5629493590734179  0.2778607133529519   T   T   T
  0.5026014044054070  0.6254351599567923  0.3597640070275952   T   T   T
  0.8331751088419016  0.5628043767565175  0.3571261719087787   T   T   T
  0.6654638648755118  0.5628357642946126  0.3616362040422234   T   T   T
  0.5001993579241457  0.6251124241418680  0.0373673238785415   F   F   F
  0.8342248374093941  0.6876083518869507  0.0424180467130881   F   F   F
  0.6660568042752573  0.6876606967941967  0.0424146876443743   F   F   F
  0.7502332970886698  0.7502158349488468  0.1130222857832806   F   F   F
  0.5828712378028129  0.6877169521294704  0.1186661494224168   F   F   F
  0.9176644359050954  0.6877065482458136  0.1186607550294028   F   F   F
  0.5009604377748069  0.7502392238090299  0.1991655880899654   T   T   T
  0.8330046510796625  0.6878068004135174  0.1977005208336873   T   T   T
  0.6681329737005678  0.6877980494907112  0.1977116820369750   T   T   T
  0.7495792888855571  0.7502415328927723  0.2787334578379813   T   T   T
  0.5841079488581535  0.6877244402754648  0.2788788746684573   T   T   T
  0.9175517099618513  0.6877867104179757  0.2782351210181313   T   T   T
  0.5031792042330269  0.7501840495266380  0.3598202187671045   T   T   T
  0.8334934976812196  0.6877229409908010  0.3579953545772259   T   T   T
  0.6661911031794944  0.6874493463041248  0.3602358881035974   T   T   T
  0.5002122078768210  0.7501392066830732  0.0373456541597363   F   F   F
  0.8342232035055162  0.8125992309382539  0.0423967923009556   F   F   F
  0.6660586660861370  0.8126582257413517  0.0424062846115874   F   F   F
  0.7502173161139041  0.8752178897059935  0.1130360339591618   F   F   F
  0.5828568376004242  0.8127060748111887  0.1186645141734175   F   F   F
  0.9176984722473520  0.8127078846600213  0.1186298408889357   F   F   F
  0.5010185699939710  0.8752891258866881  0.1991834969744402   T   T   T
  0.8330137168045900  0.8127868263317400  0.1977548694233891   T   T   T
  0.6681517957085223  0.8127584923910016  0.1977893630264030   T   T   T
  0.7497593306084684  0.8751586108110948  0.2788362590030026   T   T   T
  0.5842793727601029  0.8127613077963544  0.2789606448459743   T   T   T
  0.9175860969030294  0.8126997707166013  0.2783367616087155   T   T   T
  0.5038673941147865  0.8752045015762898  0.3599437057415971   T   T   T
  0.8338213044986352  0.8125460106914613  0.3585697958309887   T   T   T
  0.6663917426807983  0.8125204569193168  0.3607908739258726   T   T   T
  0.5001993469486266  0.8751125453592721  0.0373668329409540   F   F   F
  0.8342265491584655  0.9376091382735510  0.0424193945147948   F   F   F
  0.6660559599480962  0.9376604044393915  0.0424156771225839   F   F   F
  0.7502327017382058  0.5002164962773534  0.1130220722767348   F   F   F
  0.5828707196508915  0.9377156099338535  0.1186668391713255   F   F   F
  0.9176643738564039  0.9377089816271322  0.1186614737223408   F   F   F
  0.5008489657490444  0.5002918420334515  0.1991516224271105   T   T   T
  0.8329456958583564  0.9377447277824820  0.1977441050426303   T   T   T
  0.6682233792657041  0.9377362102706257  0.1977243353604373   T   T   T
  0.7489852500813767  0.5003196600683454  0.2784136949329625   T   T   T
  0.5844105151940522  0.9377621613384527  0.2789942910593985   T   T   T
  0.9175054073642654  0.9376908486630479  0.2782900421820803   T   T   T
  0.5020035596435973  0.5003552951234688  0.3595346658499385   T   T   T
  0.8342356521752818  0.9377460765138679  0.3581730588415799   T   T   T
  0.6669166389256568  0.9377238870370936  0.3606090224159776   T   T   T
  0.4059663601692378  0.0001462046730154  0.0700885167279779   F   F   F
  0.2501335306342440  0.0001313415364734  0.0393543396202674   F   F   F
  0.0944334762619548  0.0001738881651363  0.0701382961740649   F   F   F
  0.1549947328934422  0.1252546000618224  0.1485264565477067   F   F   F
  0.0003044512358912  0.1252329358346600  0.1366467142038701   F   F   F
  0.3454752489896649  0.1252525403775380  0.1484231789215542   F   F   F
  0.4016594176393277  0.1252903038860916  0.2294877169883169   T   T   T
  0.2504823238000568  0.1252860924816806  0.2155510558503355   T   T   T
  0.1002020680868477  0.1252188949275414  0.2299821927648133   T   T   T
  0.1517561366792498  0.1253762759385538  0.3113052562783379   T   T   T
  0.0010307508238833  0.1251811408973640  0.2956837790421302   T   T   T
  0.3485378763801360  0.1253207876937462  0.3093578054187314   T   T   T
  0.4027773385154520  0.1259166876794637  0.3871338775286865   T   T   T
  0.2520994126157814  0.1253781156392327  0.3765331378328801   T   T   T
  0.1016036869037052  0.1256958719023731  0.3925216978409369   T   T   T
  0.4059504510021199  0.1251528418496832  0.0701137697057277   F   F   F
  0.2501484584581348  0.1251294756807368  0.0393952583647277   F   F   F
  0.0944439778587522  0.1251741239827453  0.0701534912843229   F   F   F
  0.1549877250862224  0.2502614546838657  0.1485179043880294   F   F   F
  0.0002974674814880  0.2502100279361912  0.1366324893501272   F   F   F
  0.3454803331882346  0.2503006024972620  0.1484139149937889   F   F   F
  0.4015589246597308  0.2501938316339125  0.2294481910906170   T   T   T
  0.2504189663838560  0.2501737502951925  0.2155078216992232   T   T   T
  0.1003077426551011  0.2502018955977330  0.2299602771241313   T   T   T
  0.1518275261018796  0.2505630665993827  0.3114074837569448   T   T   T
  0.0008836543390410  0.2501937740472793  0.2954405125567994   T   T   T
  0.3481629812445878  0.2504711213219653  0.3094045552860554   T   T   T
  0.4032100029443553  0.2510774258455040  0.3872230093492995   T   T   T
  0.2520142801352284  0.2501177699540523  0.3768542421050629   T   T   T
  0.0985814632540239  0.2501122063644640  0.3904890574151820   T   T   T
  0.4059628358367533  0.2501443164155361  0.0700852243531500   F   F   F
  0.2501309939231433  0.2501318371526651  0.0393519425499136   F   F   F
  0.0944333317481849  0.2501740935465691  0.0701386596889861   F   F   F
  0.1549942609652177  0.3752545226085218  0.1485264414225469   F   F   F
  0.0003019335461047  0.3752315664304433  0.1366474736751755   F   F   F
  0.3454762333887373  0.3752493953370220  0.1484229723695165   F   F   F
  0.4014836215327322  0.3751621234334031  0.2293203756101718   T   T   T
  0.2504186574782866  0.3752351704311732  0.2153936413956064   T   T   T