POSCAR                                  
   1.00000000000000     
     5.1353159664621915    0.0000000000000000    0.0000000000000000
    -2.5676579832310957    4.4621189430485364    0.0000000000000000
     0.0000000000000000    0.0000000000000000   27.2904474485952626
   B    N    Al
    28    32     4
Direct
  0.1692051301784976  0.3304032979764447 -0.0000845479392794
  0.6681815927131589  0.3299392828239837  0.0003157610388620
  0.1692051301784976  0.8304032979764450  0.0000845479392794
  0.6681815927131589  0.8299392828239834 -0.0003157610388620
  0.1617571991108233  0.3299392828239837  0.2496842389611379
  0.6611976767979458  0.3304032979764447  0.2500845479392795
  0.1611976617979478  0.8304032979764450  0.2499154520607209
  0.6617572141108211  0.8299392828239834  0.2503157610388618
  0.1681815777131609  0.3299392828239837  0.5003157610388623
  0.6692051451784962  0.3304032979764447  0.4999154520607201
  0.1681815777131609  0.8299392828239834  0.4996842389611382
  0.6692051451784962  0.8304032979764450  0.5000845479392793
  0.1611976617979478  0.3304032979764447  0.7500845479392798
  0.1617571991108233  0.8299392828239834  0.7503157610388623
  0.3372738685120112  0.1745492120240200  0.1250000000000000
  0.8278567766855093  0.6653486786576834  0.1207569325238222
  0.3374903819721766  0.6653486786576834  0.1292430674761777
  0.8374903519721735  0.1653486636576862  0.3707569325238224
  0.3278568066855118  0.1653486636576862  0.3792430674761776
  0.8372738385120087  0.6745492270240178  0.3750000000000000
  0.8374903519721736  0.6653486786576834  0.6292430674761779
  0.3278568066855118  0.6653486786576834  0.6207569325238221
  0.8278567766855093  0.1653486636576862  0.8792430674761779
  0.3374903819721766  0.1653486636576862  0.8707569325238221
  0.3372738685120112  0.6745492270240178  0.8750000000000000
  0.6617572141108211  0.3299392828239837  0.7496842389611377
  0.8372738385120087  0.1745492120240200  0.6250000000000000
  0.6611976767979458  0.8304032979764450  0.7499154520607202
  0.3350378276419755  0.1631409874495864 -0.0003353894512996
  0.8355994083855083  0.1634397930039349  0.0008964191451703
  0.3350378276419755  0.6631410024495844  0.0003353894512996
  0.8355994083855083  0.6634398080039332 -0.0008964191451703
  0.3281036508076124  0.1631409874495864  0.2503353894512993
  0.8278408756184282  0.1634397930039349  0.2491035808548299
  0.3278408756184287  0.6634398080039332  0.2508964191451703
  0.8281036508076123  0.6631410024495844  0.2496646105487003
  0.3355994083855078  0.1634397930039349  0.5008964191451702
  0.8350378276419754  0.1631409874495864  0.4996646105487007
  0.3355994083855078  0.6634398080039332  0.4991035808548297
  0.8350378276419754  0.6631410024495844  0.5003353894512993
  0.3278408756184287  0.1634397930039349  0.7491035808548298
  0.8281036508076123  0.1631409874495864  0.7503353894512993
  0.3281036508076124  0.6631410024495844  0.7496646105487007
  0.8278408756184282  0.6634398080039332  0.7508964191451702
  0.2075746637686702  0.3522453166030058  0.1405372499788617
  0.6446701618343333  0.3522453166030058  0.1094627500211384
  0.1661466706121303  0.8322938472242601  0.1250000000000000
  0.6519499974418451  0.8039004708836934  0.1250000000000000
  0.1519499824418473  0.3039004708836939  0.3750000000000000
  0.6661466856121280  0.3322938472242599  0.3750000000000000
  0.1446701468343360  0.8522453166030051  0.3905372499788617
  0.7075746787686681  0.8522453166030051  0.3594627500211383
  0.1446701468343360  0.3522453166030058  0.6094627500211387
  0.7075746787686681  0.3522453166030057  0.6405372499788613
  0.1519499824418473  0.8039004708836934  0.6250000000000000
  0.6661466856121280  0.8322938472242601  0.6250000000000000
  0.1661466706121303  0.3322938472242599  0.8750000000000000
  0.6519499974418451  0.3039004708836939  0.8750000000000000
  0.2075746637686702  0.8522453166030051  0.8594627500211387
  0.6446701618343333  0.8522453166030051  0.8905372499788613
  0.8401100659193793  0.1802216668387622  0.1250000000000000
  0.3401100959193827  0.6802216818387609  0.3750000000000000
  0.3401100959193827  0.1802216668387622  0.6250000000000000
  0.8401100659193794  0.6802216818387609  0.8750000000000000
 
  0.00000000E+00  0.00000000E+00  0.00000000E+00
  0.00000000E+00  0.00000000E+00  0.00000000E+00
  0.00000000E+00  0.00000000E+00  0.00000000E+00
  0.00000000E+00  0.00000000E+00  0.00000000E+00
  0.00000000E+00  0.00000000E+00  0.00000000E+00
  0.00000000E+00  0.00000000E+00  0.00000000E+00
  0.00000000E+00  0.00000000E+00  0.00000000E+00
  0.00000000E+00  0.00000000E+00  0.00000000E+00
  0.00000000E+00  0.00000000E+00  0.00000000E+00
  0.00000000E+00  0.00000000E+00  0.00000000E+00
  0.00000000E+00  0.00000000E+00  0.00000000E+00
  0.00000000E+00  0.00000000E+00  0.00000000E+00
  0.00000000E+00  0.00000000E+00  0.00000000E+00
  0.00000000E+00  0.00000000E+00  0.00000000E+00
  0.00000000E+00  0.00000000E+00  0.00000000E+00
  0.00000000E+00  0.00000000E+00  0.00000000E+00
  0.00000000E+00  0.00000000E+00  0.00000000E+00
  0.00000000E+00  0.00000000E+00  0.00000000E+00
  0.00000000E+00  0.00000000E+00  0.00000000E+00
  0.00000000E+00  0.00000000E+00  0.00000000E+00
  0.00000000E+00  0.00000000E+00  0.00000000E+00
  0.00000000E+00  0.00000000E+00  0.00000000E+00
  0.00000000E+00  0.00000000E+00  0.00000000E+00
  0.00000000E+00  0.00000000E+00  0.00000000E+00
  0.00000000E+00  0.00000000E+00  0.00000000E+00
  0.00000000E+00  0.00000000E+00  0.00000000E+00
  0.00000000E+00  0.00000000E+00  0.00000000E+00
  0.00000000E+00  0.00000000E+00  0.00000000E+00
  0.00000000E+00  0.00000000E+00  0.00000000E+00
  0.00000000E+00  0.00000000E+00  0.00000000E+00
  0.00000000E+00  0.00000000E+00  0.00000000E+00
  0.00000000E+00  0.00000000E+00  0.00000000E+00
  0.00000000E+00  0.00000000E+00  0.00000000E+00
  0.00000000E+00  0.00000000E+00  0.00000000E+00
  0.00000000E+00  0.00000000E+00  0.00000000E+00
  0.00000000E+00  0.00000000E+00  0.00000000E+00
  0.00000000E+00  0.00000000E+00  0.00000000E+00
  0.00000000E+00  0.00000000E+00  0.00000000E+00
  0.00000000E+00  0.00000000E+00  0.00000000E+00
  0.00000000E+00  0.00000000E+00  0.00000000E+00
  0.00000000E+00  0.00000000E+00  0.00000000E+00
  0.00000000E+00  0.00000000E+00  0.00000000E+00
  0.00000000E+00  0.00000000E+00  0.00000000E+00
  0.00000000E+00  0.00000000E+00  0.00000000E+00
  0.00000000E+00  0.00000000E+00  0.00000000E+00
  0.00000000E+00  0.00000000E+00  0.00000000E+00
  0.00000000E+00  0.00000000E+00  0.00000000E+00
  0.00000000E+00  0.00000000E+00  0.00000000E+00
  0.00000000E+00  0.00000000E+00  0.00000000E+00
  0.00000000E+00  0.00000000E+00  0.00000000E+00
  0.00000000E+00  0.00000000E+00  0.00000000E+00
  0.00000000E+00  0.00000000E+00  0.00000000E+00
  0.00000000E+00  0.00000000E+00  0.00000000E+00
  0.00000000E+00  0.00000000E+00  0.00000000E+00
  0.00000000E+00  0.00000000E+00  0.00000000E+00
  0.00000000E+00  0.00000000E+00  0.00000000E+00
  0.00000000E+00  0.00000000E+00  0.00000000E+00
  0.00000000E+00  0.00000000E+00  0.00000000E+00
  0.00000000E+00  0.00000000E+00  0.00000000E+00
  0.00000000E+00  0.00000000E+00  0.00000000E+00
  0.00000000E+00  0.00000000E+00  0.00000000E+00
  0.00000000E+00  0.00000000E+00  0.00000000E+00
  0.00000000E+00  0.00000000E+00  0.00000000E+00
  0.00000000E+00  0.00000000E+00  0.00000000E+00
