POSCAR
1.00000000
5.1437629883019431      0.00000000000000000000         0.0000000000000000
       -2.5718814941509716      4.45462941891564103665         0.0000000000000000
        0.0000000000000000      0.00000000000000000000        27.6254949907992469
    B    N   Al
   28   32    4
Direct
     0.166666493         0.333333492         0.000000000
     0.666666508         0.333333492         0.000000000
     0.166666493         0.833333492         0.000000000
     0.666666508         0.833333492         0.000000000
     0.166666493         0.333333492         0.250000000
     0.666666508         0.333333492         0.250000000
     0.166666493         0.833333492         0.250000000
     0.666666508         0.833333492         0.250000000
     0.166666493         0.333333492         0.500000000
     0.666666508         0.333333492         0.500000000
     0.166666493         0.833333492         0.500000000
     0.666666508         0.833333492         0.500000000
     0.166666493         0.333333492         0.750000000
     0.166666493         0.833333492         0.750000000
     0.333332509         0.166666493         0.125000000
     0.833332479         0.666666508         0.125000000
     0.333332509         0.666666508         0.125000000
     0.833332479         0.166666493         0.375000000
     0.333332509         0.166666493         0.375000000
     0.833332479         0.666666508         0.375000000
     0.833332479         0.666666508         0.625000000
     0.333332509         0.666666508         0.625000000
     0.833332479         0.166666493         0.875000000
     0.333332509         0.166666493         0.875000000
     0.333332509         0.666666508         0.875000000
     0.666666508         0.333333492         0.750000000
     0.833332479         0.166666493         0.625000000
     0.666666508         0.833333492         0.750000000
     0.333333492         0.166666493         0.000000000
     0.833333492         0.166666493         0.000000000
     0.333333492         0.666666508         0.000000000
     0.833333492         0.666666508         0.000000000
     0.333333492         0.166666493         0.250000000
     0.833333492         0.166666493         0.250000000
     0.333333492         0.666666508         0.250000000
     0.833333492         0.666666508         0.250000000
     0.333333492         0.166666493         0.500000000
     0.833333492         0.166666493         0.500000000
     0.333333492         0.666666508         0.500000000
     0.833333492         0.666666508         0.500000000
     0.333333492         0.166666493         0.750000000
     0.833333492         0.166666493         0.750000000
     0.333333492         0.666666508         0.750000000
     0.833333492         0.666666508         0.750000000
     0.166666493         0.333333492         0.125000000
     0.666666508         0.333333492         0.125000000
     0.166666493         0.833333492         0.125000000
     0.666666508         0.833333492         0.125000000
     0.166666493         0.333333492         0.375000000
     0.666666508         0.333333492         0.375000000
     0.166666493         0.833333492         0.375000000
     0.666666508         0.833333492         0.375000000
     0.166666493         0.333333492         0.625000000
     0.666666508         0.333333492         0.625000000
     0.166666493         0.833333492         0.625000000
     0.666666508         0.833333492         0.625000000
     0.166666493         0.333333492         0.875000000
     0.666666508         0.333333492         0.875000000
     0.166666493         0.833333492         0.875000000
     0.666666508         0.833333492         0.875000000
     0.833332479         0.166666493         0.125000000
     0.333332509         0.666666508         0.375000000
     0.333332509         0.166666493         0.625000000
     0.833332479         0.666666508         0.875000000
