Ta  N Ru                                
   1.00000000000000     
     9.0548154099999998    0.0000000000000000    0.0000000000000000
     0.0000000000000000   11.6775998899999998    0.0000000000000000
     0.0000000000000000    0.0000000000000000   23.4818170799999990
   Ta   N    Ru
    60    60    16
Selective dynamics
Direct
  0.0000000000000000  0.0000000000000000  0.2546926809530987   F   F   F
  0.6670845899906297  0.1250000003211298  0.2638822399803757   F   F   F
  0.3329153514769843  0.1250000003211298  0.2638822399803757   F   F   F
  0.4999999994478088  0.2499999997859135  0.3618861993156202   F   F   F
  0.1650707596845180  0.1250000003211298  0.3684425577811794   F   F   F
  0.8349292403154820  0.1250000003211298  0.3684425577811794   F   F   F
  0.0000402102698714  0.2499888410890283  0.4799201107786733   T   T   T
  0.6639224786891494  0.1249438688468405  0.4780191579306635   T   T   T
  0.3348965476028389  0.1249409074267443  0.4779885392601384   T   T   T
  0.4975641278415237  0.2498531838900725  0.5903808107032469   T   T   T
  0.1675411371830540  0.1249237056693829  0.5901229679297610   T   T   T
  0.8315242522204485  0.1248228461180951  0.5896031642871946   T   T   T
  0.9913596402923269  0.2498868001013212  0.7000435773823732   T   T   T
  0.6635227187475435  0.1245945990325470  0.7013881958948187   T   T   T
  0.3301641188313802  0.1249026690695180  0.7046133964056421   T   T   T
  0.0000000000000000  0.2499999997859135  0.2546926809530987   F   F   F
  0.6670845899906297  0.3750000001070433  0.2638822399803757   F   F   F
  0.3329153514769843  0.3750000001070433  0.2638822399803757   F   F   F
  0.4999999994478088  0.5000000004281731  0.3618861993156202   F   F   F
  0.1650707596845180  0.3750000001070433  0.3684425577811794   F   F   F
  0.8349292403154820  0.3750000001070433  0.3684425577811794   F   F   F
  0.0000254811863650  0.4998984502775179  0.4799391168685040   T   T   T
  0.6639903110982580  0.3749393316356765  0.4780501503353993   T   T   T
  0.3349089818710198  0.3749609743632262  0.4780207681947687   T   T   T
  0.4975938984634971  0.4998509178974576  0.5903977504955703   T   T   T
  0.1673951687694452  0.3749462327278641  0.5903447275074780   T   T   T
  0.8315245921357457  0.3748290543060904  0.5894272520506211   T   T   T
  0.9912948500360224  0.4990615042387228  0.6999898172582407   T   T   T
  0.6635449565852394  0.3744017011296335  0.7003193859079514   T   T   T
  0.3273616851117248  0.3750081308793379  0.7055152347622061   T   T   T
  0.0000000000000000  0.5000000004281731  0.2546926809530987   F   F   F
  0.6670845899906297  0.6249999998929567  0.2638822399803757   F   F   F
  0.3329153514769843  0.6249999998929567  0.2638822399803757   F   F   F
  0.4999999994478088  0.7500000002140865  0.3618861993156202   F   F   F
  0.1650707596845180  0.6249999998929567  0.3684425577811794   F   F   F
  0.8349292403154820  0.6249999998929567  0.3684425577811794   F   F   F
  0.0000404199958524  0.7499822860888848  0.4799205078804309   T   T   T
  0.6639239538546405  0.6249423030124049  0.4780208364853547   T   T   T
  0.3349024014190746  0.6249426160435441  0.4779918293766928   T   T   T
  0.4975419281501210  0.7498392315366557  0.5903804359335062   T   T   T
  0.1675660614336544  0.6249154882786072  0.5901216256629255   T   T   T
  0.8315258016357057  0.6248310901584685  0.5896058294219004   T   T   T
  0.9911866435059622  0.7499120186865621  0.7000430602618631   T   T   T
  0.6635130559340963  0.6245930154678131  0.7013815446716207   T   T   T
  0.3301890657255226  0.6249052030257226  0.7046302680187885   T   T   T
  0.0000000000000000  0.7500000002140865  0.2546926809530987   F   F   F
  0.6670845899906297  0.8750000005352163  0.2638822399803757   F   F   F
  0.3329153514769843  0.8750000005352163  0.2638822399803757   F   F   F
  0.4999999994478088  0.0000000000000000  0.3618861993156202   F   F   F
  0.1650707596845180  0.8750000005352163  0.3684425577811794   F   F   F
  0.8349292403154820  0.8750000005352163  0.3684425577811794   F   F   F
  0.0000341137210878  0.9999036378982696  0.4799329116594656   T   T   T
  0.6639854977770948  0.8749319057352828  0.4780478806537323   T   T   T
  0.3348895047414775  0.8749436999253106  0.4780174931720665   T   T   T
  0.4975984438738156  0.9998480085892407  0.5903933227073908   T   T   T
  0.1673857385027863  0.8749288316964494  0.5903496527163988   T   T   T
  0.8315058544476276  0.8748303393543237  0.5894239201249423   T   T   T
  0.9913134075086225  0.9990601589438075  0.7000064546396554   T   T   T
  0.6634814853079293  0.8744256551464583  0.7002851826869506   T   T   T
  0.3273521943394621  0.8750042188649592  0.7055208237255454   T   T   T
  0.8141011533980276  0.0000000000000000  0.3013105672926031   F   F   F
  0.4999999994478088  0.0000000000000000  0.2564174481620327   F   F   F
  0.1858988466019724  0.0000000000000000  0.3013105672926031   F   F   F
  0.3088456122590841  0.2499999997859135  0.4099867722441957   F   F   F
  0.0000000000000000  0.2499999997859135  0.3930971035158137   F   F   F
  0.6911543877409159  0.2499999997859135  0.4099867722441957   F   F   F
  0.8010345760431998  0.2498297708212816  0.5217447695613380   T   T   T
  0.4991551171380784  0.2499194079510467  0.5027174786633283   T   T   T
  0.1982808158074025  0.2500113448445824  0.5223121681208910   T   T   T
  0.3027954943150094  0.2501048619052701  0.6349742470553755   T   T   T
  0.9987599044534249  0.2498756687673663  0.6120595103628393   T   T   T
  0.6945468555436386  0.2493018995110755  0.6329603192703194   T   T   T
  0.7987678018428482  0.2524006324372464  0.7458409196464117   T   T   T
  0.5004214320260073  0.2502557347938301  0.7251318047217497   T   T   T
  0.1890734382867477  0.2485535758515641  0.7381948016251970   T   T   T
  0.8141011533980276  0.2499999997859135  0.3013105672926031   F   F   F
  0.4999999994478088  0.2499999997859135  0.2564174481620327   F   F   F
  0.1858988466019724  0.2499999997859135  0.3013105672926031   F   F   F
  0.3088456122590841  0.5000000004281731  0.4099867722441957   F   F   F
  0.0000000000000000  0.5000000004281731  0.3930971035158137   F   F   F
  0.6911543877409159  0.5000000004281731  0.4099867722441957   F   F   F
  0.8010253827273199  0.4999458665352355  0.5217444820449185   T   T   T
  0.4991545834722944  0.4999260371048966  0.5027237678163218   T   T   T
  0.1983113309152403  0.4998758889644705  0.5223208630509901   T   T   T
  0.3028527551733453  0.4998253742969399  0.6350094868265094   T   T   T
  0.9987516083501081  0.4998034176531547  0.6119987154105313   T   T   T
  0.6944718501136887  0.5002532282578752  0.6329842257501685   T   T   T
  0.7984179472100299  0.4968329230304895  0.7455783683721979   T   T   T
  0.5004836016221038  0.4992415107928681  0.7250099083332756   T   T   T
  0.1885301413701558  0.5019412020951706  0.7383099520051901   T   T   T
  0.8141011533980276  0.5000000004281731  0.3013105672926031   F   F   F
  0.4999999994478088  0.5000000004281731  0.2564174481620327   F   F   F
  0.1858988466019724  0.5000000004281731  0.3013105672926031   F   F   F
  0.3088456122590841  0.7500000002140865  0.4099867722441957   F   F   F
  0.0000000000000000  0.7500000002140865  0.3930971035158137   F   F   F
  0.6911543877409159  0.7500000002140865  0.4099867722441957   F   F   F
  0.8010338405541430  0.7498279131694077  0.5217439306039188   T   T   T
  0.4991554891581400  0.7499233436499854  0.5027174644046296   T   T   T
  0.1982830202776817  0.7500048167766419  0.5223164805140246   T   T   T
  0.3028012485979564  0.7500907741907412  0.6349826239607260   T   T   T
  0.9987558334919380  0.7498694686223591  0.6120431949441661   T   T   T
  0.6945259116006876  0.7492937050318283  0.6329597824717474   T   T   T
  0.7985886697775689  0.7524263594063429  0.7458553119920466   T   T   T
  0.5004168836085340  0.7502847582993543  0.7251201519082567   T   T   T
  0.1889632435143766  0.7485486118848033  0.7381188450448950   T   T   T
  0.8141011533980276  0.7500000002140865  0.3013105672926031   F   F   F
  0.4999999994478088  0.7500000002140865  0.2564174481620327   F   F   F
  0.1858988466019724  0.7500000002140865  0.3013105672926031   F   F   F
  0.3088456122590841  0.0000000000000000  0.4099867722441957   F   F   F
  0.0000000000000000  0.0000000000000000  0.3930971035158137   F   F   F
  0.6911543877409159  0.0000000000000000  0.4099867722441957   F   F   F
  0.8010305829138912  0.9999433914616269  0.5217358631647528   T   T   T
  0.4991524332506621  0.9999250411490546  0.5027198088085252   T   T   T
  0.1982964383700207  0.9998712888863125  0.5223194058278106   T   T   T
  0.3028283790733928  0.9998240458292266  0.6350036884391939   T   T   T
  0.9987493006168304  0.9997977779404515  0.6120155973881704   T   T   T
  0.6944678446001651  0.0002836637737253  0.6329746913381269   T   T   T
  0.7983941353818187  0.9968137228272276  0.7455711428723747   T   T   T
  0.5004723422883527  0.9993122471160081  0.7249887289853281   T   T   T
  0.1885343936237165  0.0019565957562620  0.7383543737682756   T   T   T
  0.1331654441809888  0.0187384259654477  0.8165378867661811   T   T   T
  0.5687582972044002  0.9959789086411873  0.8051906017767803   T   T   T
  0.8778375228266493  0.1234256720454781  0.7978671256207190   T   T   T
  0.1333176338993589  0.5187413571141831  0.8165126370551794   T   T   T
  0.5685550329092465  0.4955646009765934  0.8052250163433711   T   T   T
  0.8778770661899883  0.6234587752575345  0.7978637473714152   T   T   T
  0.1330116792648949  0.2419373719001060  0.8166611458330586   T   T   T
  0.5658535156750376  0.2585078873868088  0.8056473604466124   T   T   T
  0.8877293303012123  0.3746350620194576  0.8001623523543975   T   T   T
  0.1328966312232721  0.7418749507967473  0.8165753956917124   T   T   T
  0.5663226000944326  0.7586882684755217  0.8055666629815003   T   T   T
  0.8878119587584756  0.8746334401079454  0.8001738385077367   T   T   T
  0.3474284855345287  0.8735292358338427  0.8357942762441583   T   T   T
  0.3702207831122766  0.6207708077525351  0.8383926691081381   T   T   T
  0.3470940946723872  0.3739152677239079  0.8358452926623000   T   T   T
  0.3701159004478110  0.1203302377720985  0.8385669674662545   T   T   T
 
  0.00000000E+00  0.00000000E+00  0.00000000E+00
  0.00000000E+00  0.00000000E+00  0.00000000E+00
  0.00000000E+00  0.00000000E+00  0.00000000E+00
  0.00000000E+00  0.00000000E+00  0.00000000E+00
  0.00000000E+00  0.00000000E+00  0.00000000E+00
  0.00000000E+00  0.00000000E+00  0.00000000E+00
  0.00000000E+00  0.00000000E+00  0.00000000E+00
  0.00000000E+00  0.00000000E+00  0.00000000E+00
  0.00000000E+00  0.00000000E+00  0.00000000E+00
  0.00000000E+00  0.00000000E+00  0.00000000E+00
  0.00000000E+00  0.00000000E+00  0.00000000E+00
  0.00000000E+00  0.00000000E+00  0.00000000E+00
  0.00000000E+00  0.00000000E+00  0.00000000E+00
  0.00000000E+00  0.00000000E+00  0.00000000E+00
  0.00000000E+00  0.00000000E+00  0.00000000E+00
  0.00000000E+00  0.00000000E+00  0.00000000E+00
  0.00000000E+00  0.00000000E+00  0.00000000E+00
  0.00000000E+00  0.00000000E+00  0.00000000E+00
  0.00000000E+00  0.00000000E+00  0.00000000E+00
  0.00000000E+00  0.00000000E+00  0.00000000E+00
  0.00000000E+00  0.00000000E+00  0.00000000E+00
  0.00000000E+00  0.00000000E+00  0.00000000E+00
  0.00000000E+00  0.00000000E+00  0.00000000E+00
  0.00000000E+00  0.00000000E+00  0.00000000E+00
  0.00000000E+00  0.00000000E+00  0.00000000E+00
  0.00000000E+00  0.00000000E+00  0.00000000E+00
  0.00000000E+00  0.00000000E+00  0.00000000E+00
  0.00000000E+00  0.00000000E+00  0.00000000E+00
  0.00000000E+00  0.00000000E+00  0.00000000E+00
  0.00000000E+00  0.00000000E+00  0.00000000E+00
  0.00000000E+00  0.00000000E+00  0.00000000E+00
  0.00000000E+00  0.00000000E+00  0.00000000E+00
  0.00000000E+00  0.00000000E+00  0.00000000E+00
  0.00000000E+00  0.00000000E+00  0.00000000E+00
  0.00000000E+00  0.00000000E+00  0.00000000E+00
  0.00000000E+00  0.00000000E+00  0.00000000E+00
  0.00000000E+00  0.00000000E+00  0.00000000E+00
  0.00000000E+00  0.00000000E+00  0.00000000E+00
  0.00000000E+00  0.00000000E+00  0.00000000E+00
  0.00000000E+00  0.00000000E+00  0.00000000E+00
  0.00000000E+00  0.00000000E+00  0.00000000E+00
  0.00000000E+00  0.00000000E+00  0.00000000E+00
  0.00000000E+00  0.00000000E+00  0.00000000E+00
  0.00000000E+00  0.00000000E+00  0.00000000E+00
  0.00000000E+00  0.00000000E+00  0.00000000E+00
  0.00000000E+00  0.00000000E+00  0.00000000E+00
  0.00000000E+00  0.00000000E+00  0.00000000E+00
  0.00000000E+00  0.00000000E+00  0.00000000E+00
  0.00000000E+00  0.00000000E+00  0.00000000E+00
  0.00000000E+00  0.00000000E+00  0.00000000E+00
  0.00000000E+00  0.00000000E+00  0.00000000E+00
  0.00000000E+00  0.00000000E+00  0.00000000E+00
  0.00000000E+00  0.00000000E+00  0.00000000E+00
  0.00000000E+00  0.00000000E+00  0.00000000E+00
  0.00000000E+00  0.00000000E+00  0.00000000E+00
  0.00000000E+00  0.00000000E+00  0.00000000E+00
  0.00000000E+00  0.00000000E+00  0.00000000E+00
  0.00000000E+00  0.00000000E+00  0.00000000E+00
  0.00000000E+00  0.00000000E+00  0.00000000E+00
  0.00000000E+00  0.00000000E+00  0.00000000E+00
  0.00000000E+00  0.00000000E+00  0.00000000E+00
  0.00000000E+00  0.00000000E+00  0.00000000E+00
  0.00000000E+00  0.00000000E+00  0.00000000E+00
  0.00000000E+00  0.00000000E+00  0.00000000E+00
  0.00000000E+00  0.00000000E+00  0.00000000E+00
  0.00000000E+00  0.00000000E+00  0.00000000E+00
  0.00000000E+00  0.00000000E+00  0.00000000E+00
  0.00000000E+00  0.00000000E+00  0.00000000E+00
  0.00000000E+00  0.00000000E+00  0.00000000E+00
  0.00000000E+00  0.00000000E+00  0.00000000E+00
  0.00000000E+00  0.00000000E+00  0.00000000E+00
  0.00000000E+00  0.00000000E+00  0.00000000E+00
  0.00000000E+00  0.00000000E+00  0.00000000E+00
  0.00000000E+00  0.00000000E+00  0.00000000E+00
  0.00000000E+00  0.00000000E+00  0.00000000E+00
  0.00000000E+00  0.00000000E+00  0.00000000E+00
  0.00000000E+00  0.00000000E+00  0.00000000E+00
  0.00000000E+00  0.00000000E+00  0.00000000E+00
  0.00000000E+00  0.00000000E+00  0.00000000E+00
  0.00000000E+00  0.00000000E+00  0.00000000E+00
  0.00000000E+00  0.00000000E+00  0.00000000E+00
  0.00000000E+00  0.00000000E+00  0.00000000E+00
  0.00000000E+00  0.00000000E+00  0.00000000E+00
  0.00000000E+00  0.00000000E+00  0.00000000E+00
  0.00000000E+00  0.00000000E+00  0.00000000E+00
  0.00000000E+00  0.00000000E+00  0.00000000E+00
  0.00000000E+00  0.00000000E+00  0.00000000E+00
  0.00000000E+00  0.00000000E+00  0.00000000E+00
  0.00000000E+00  0.00000000E+00  0.00000000E+00
  0.00000000E+00  0.00000000E+00  0.00000000E+00
  0.00000000E+00  0.00000000E+00  0.00000000E+00
  0.00000000E+00  0.00000000E+00  0.00000000E+00
  0.00000000E+00  0.00000000E+00  0.00000000E+00
  0.00000000E+00  0.00000000E+00  0.00000000E+00
  0.00000000E+00  0.00000000E+00  0.00000000E+00
  0.00000000E+00  0.00000000E+00  0.00000000E+00
  0.00000000E+00  0.00000000E+00  0.00000000E+00
  0.00000000E+00  0.00000000E+00  0.00000000E+00
  0.00000000E+00  0.00000000E+00  0.00000000E+00
  0.00000000E+00  0.00000000E+00  0.00000000E+00
  0.00000000E+00  0.00000000E+00  0.00000000E+00
  0.00000000E+00  0.00000000E+00  0.00000000E+00
  0.00000000E+00  0.00000000E+00  0.00000000E+00
  0.00000000E+00  0.00000000E+00  0.00000000E+00
  0.00000000E+00  0.00000000E+00  0.00000000E+00
  0.00000000E+00  0.00000000E+00  0.00000000E+00
  0.00000000E+00  0.00000000E+00  0.00000000E+00
  0.00000000E+00  0.00000000E+00  0.00000000E+00
  0.00000000E+00  0.00000000E+00  0.00000000E+00
  0.00000000E+00  0.00000000E+00  0.00000000E+00
  0.00000000E+00  0.00000000E+00  0.00000000E+00
  0.00000000E+00  0.00000000E+00  0.00000000E+00
  0.00000000E+00  0.00000000E+00  0.00000000E+00
  0.00000000E+00  0.00000000E+00  0.00000000E+00
  0.00000000E+00  0.00000000E+00  0.00000000E+00
  0.00000000E+00  0.00000000E+00  0.00000000E+00
  0.00000000E+00  0.00000000E+00  0.00000000E+00
  0.00000000E+00  0.00000000E+00  0.00000000E+00
  0.00000000E+00  0.00000000E+00  0.00000000E+00
  0.00000000E+00  0.00000000E+00  0.00000000E+00
  0.00000000E+00  0.00000000E+00  0.00000000E+00
  0.00000000E+00  0.00000000E+00  0.00000000E+00
  0.00000000E+00  0.00000000E+00  0.00000000E+00
  0.00000000E+00  0.00000000E+00  0.00000000E+00
  0.00000000E+00  0.00000000E+00  0.00000000E+00
  0.00000000E+00  0.00000000E+00  0.00000000E+00
  0.00000000E+00  0.00000000E+00  0.00000000E+00
  0.00000000E+00  0.00000000E+00  0.00000000E+00
  0.00000000E+00  0.00000000E+00  0.00000000E+00
  0.00000000E+00  0.00000000E+00  0.00000000E+00
  0.00000000E+00  0.00000000E+00  0.00000000E+00
  0.00000000E+00  0.00000000E+00  0.00000000E+00
  0.00000000E+00  0.00000000E+00  0.00000000E+00
  0.00000000E+00  0.00000000E+00  0.00000000E+00
  0.00000000E+00  0.00000000E+00  0.00000000E+00
  0.00000000E+00  0.00000000E+00  0.00000000E+00
