Ta  N Co Cu                             
   1.00000000000000     
    18.1096308199999996    0.0000000000000000    0.0000000000000000
     0.0000000000000000   23.3551997799999995    0.0000000000000000
     0.0000000000000000    0.0000000000000000   30.4818171199999988
   Ta   N    Co   Cu
   192   240    48     4
Direct
  0.9948234514394133  0.9982766443063643  0.1943572603335737
  0.3349349394973506  0.0614961987638736  0.2045858323104123
  0.1674735572869755  0.0625044608423959  0.2021817563860527
  0.2497722690625280  0.1271507438040812  0.2802836475352747
  0.0802224214925523  0.0616754786591230  0.2811050667509219
  0.4186590602938235  0.0626124065406892  0.2860559080844942
  0.9996891276012224  0.1233447112216958  0.3677189245056081
  0.3328206242029563  0.0616552440810582  0.3708944187491121
  0.1662702386767873  0.0623591046752461  0.3679858495502310
  0.2494539827543200  0.1266658562719115  0.4597421394103934
  0.0851214267465517  0.0618769170776254  0.4544504038859607
  0.4113780834802366  0.0614716473781556  0.4616257882351186
  0.9953776788377882  0.1227155038578391  0.1928513310995542
  0.3276511814914845  0.1932387812048875  0.2037126242313350
  0.1674084675010715  0.1910500461951493  0.2015510704869526
  0.2482419087076639  0.2504208822876272  0.2818897029012002
  0.0807241027036422  0.1864552936609133  0.2821315684886732
  0.4168496660123646  0.1881762157430259  0.2848102422649941
  0.9991924846313678  0.2488130155411844  0.3688203452898653
  0.3312099288307690  0.1859666399436482  0.3705618664785702
  0.1648715467195943  0.1856483694441006  0.3694735127980779
  0.2467429100462215  0.2476334876974871  0.4581434036098933
  0.0835253153944846  0.1871960247734939  0.4576489302762135
  0.4139605508874200  0.1861127037285945  0.4558975853658916
  0.9951662415717891  0.2498779876091296  0.1910049886218363
  0.3271896123544915  0.3104186571082903  0.2010070443594962
  0.1635013608092600  0.3094577386097792  0.1986617845511323
  0.2466637549345781  0.3748055626664901  0.2773346616976632
  0.0807567505510986  0.3124027468163481  0.2821705416980224
  0.4162754887587073  0.3138541939692758  0.2822052834923369
  0.9986816873990403  0.3739446316756381  0.3686028270248081
  0.3303014161756661  0.3114968789382195  0.3680980933047866
  0.1636729765173322  0.3102926861031767  0.3689476270756502
  0.2479294603995624  0.3730133229766569  0.4548137744638007
  0.0835524528556222  0.3120224642230427  0.4574242261107739
  0.4122413971004171  0.3101174430804952  0.4568649151173344
  0.0020110335823105  0.3770146115274506  0.1912736515833873
  0.3249731924657411  0.4392759361464387  0.1966902833791423
  0.1638167756639788  0.4397381394848811  0.1961434666145176
  0.2508809688949535  0.0001965197023572  0.2783435386009284
  0.0807462461995048  0.4369695302201907  0.2817298215595280
  0.4131496745307104  0.4377428779258220  0.2794236102352011
  0.0006218866474655  0.9996423028393626  0.3677270738334916
  0.3314784058547827  0.4367050764565788  0.3659184916949311
  0.1658232499471624  0.4360934958698243  0.3671673862715087
  0.2515869695868698  0.9999488410937534  0.4560607897676262
  0.0831386862842887  0.4358363439290885  0.4527073204225742
  0.4120222282606124  0.4338172387077982  0.4573508375571899
  0.9990486663424503  0.4999410038887084  0.1919679393152732
  0.3279911741104859  0.5586905992281727  0.1950142377231721
  0.1650410092099913  0.5601579805679855  0.1959874827984524
  0.2465172425973812  0.6230139373063442  0.2768214103802119
  0.0803906481143727  0.5615982194164360  0.2807282825475556
  0.4129776754447665  0.5617104255362719  0.2792841427317511
  0.9988218863406997  0.6240176801735717  0.3683706864795218
  0.3294884774492340  0.5613499650546023  0.3651076721179846
  0.1640147082624015  0.5614381709398091  0.3688391805078017
  0.2416145616184931  0.6172035737853133  0.4577032535949423
  0.0829203581728113  0.5593880786435538  0.4569595044391446
  0.4130903569934067  0.5607986959021196  0.4543732409527192
  0.0004522132738062  0.6244777549945428  0.1928198849714239
  0.3306414060373313  0.6881192611579583  0.1995947854630095
  0.1655313638903448  0.6883597417962020  0.1994681254990064
  0.2473345652969182  0.7490167368047914  0.2821742520269983
  0.0811792435028703  0.6859764440155037  0.2840235125563952
  0.4159728968448330  0.6853293212556772  0.2811305489493100
  0.9999511239776908  0.7497744008267837  0.3692346147322578
  0.3294979338013427  0.6871046451933329  0.3672940184759540
  0.1642088177805267  0.6877534033017132  0.3709246580903671
  0.2399661526425818  0.7542114060125001  0.4643696264950376
  0.0781046650654908  0.6855588551041498  0.4621436733577320
  0.4100264362404892  0.6845845246446771  0.4531544839406837
  0.9956160275514585  0.7488361123339706  0.1929881888601599
  0.3306968803320229  0.8082756501596242  0.2038386992011904
  0.1728800269524082  0.8082537131159815  0.2037615835193540
  0.2497739011004875  0.8733165885569204  0.2805141646366159
  0.0807399541853562  0.8122504386604843  0.2817893211079535
  0.4174276445849452  0.8106437689375104  0.2847546034210652
  0.0009889168921326  0.8744414987141275  0.3693804705268992
  0.3301628510308716  0.8130791426910819  0.3701960210649894
  0.1646692495203717  0.8144437121040412  0.3706484328857634
  0.2489434988800181  0.8786981932400912  0.4570322411152634
  0.0816918972298986  0.8127067428800225  0.4589804647543925
  0.4108440743173757  0.8113744086521922  0.4593280007478971
  0.9979216996766067  0.8759290439371472  0.1942634588162373
  0.3361495201998923  0.9388344878421355  0.2038801505335462
  0.1652456584956987  0.9384275045621876  0.2007196200340965
  0.2463571505140727  0.4995863316797247  0.2749054664448042
  0.0810413471369461  0.9372197124377074  0.2819606908096490
  0.4182789698927157  0.9364356243392082  0.2852587057999767
  0.9983071350734880  0.4989372895831402  0.3672045370590070
  0.3339597098088322  0.9381108198581537  0.3709459202873554
  0.1653473897339390  0.9383571868438593  0.3695630676878421
  0.2482545260500037  0.4951523424486718  0.4537515742465553
  0.0874342992725348  0.9386803910870970  0.4593793371987847
  0.4140772379037506  0.9365205588859339  0.4582474011709834
  0.5020803672700895  0.9991082132243619  0.1974264530302921
  0.8195617911272897  0.0656765499579524  0.2005275639046634
  0.6626166799317903  0.0675588115936713  0.1961426105249710
  0.7491958381507891  0.1249899294919263  0.2790890451633712
  0.5824836975042973  0.0626313425180790  0.2845823632512848
  0.9133190521957310  0.0619840237206598  0.2809912888845172
  0.4982520416700726  0.1250655986121646  0.3716743549741264
  0.8314707572987681  0.0615058173139038  0.3677153629212486
  0.6651122937900050  0.0613225702991889  0.3696108140776042
  0.7499808934321034  0.1273929210355452  0.4553829660619726
  0.5802868450645341  0.0618438302544782  0.4545102134730303
  0.9179839018638938  0.0613740242709018  0.4533218515335259
  0.4994822755744450  0.1266708018342536  0.1975094597480906
  0.8306014253830450  0.1846912616045320  0.1976873922257567
  0.6704097843356001  0.1876298389994993  0.2004443838914049
  0.7497753791834725  0.2501610800796514  0.2782410703027755
  0.5846383185923386  0.1884666340494462  0.2835819383085361
  0.9152221391637327  0.1875292597428136  0.2820019745147926
  0.4977933381087863  0.2496526907769659  0.3700223515912622
  0.8304240523198647  0.1875299930503754  0.3669644605851371
  0.6658491967565249  0.1872133771317590  0.3685478522476264
  0.7504592812460237  0.2468053113334617  0.4542187487886647
  0.5822532377712426  0.1873462037419540  0.4552934947762800
  0.9152107125516050  0.1861970706645263  0.4532310200307212
  0.5006391672928544  0.2522389662371952  0.1954017468482715
  0.8334979238644901  0.3159598815103856  0.1973481020565025
  0.6726628422167068  0.3148507278330194  0.2008363735487583
  0.7479257817137808  0.3749581207716527  0.2784691525383876
  0.5817155844294652  0.3138706959417139  0.2824860864862084
  0.9156055517112202  0.3122918605319353  0.2819161806169619
  0.4975372843564658  0.3747319841338055  0.3693223452523219
  0.8302842262376492  0.3119498929190799  0.3668310774103532
  0.6650321700170371  0.3130023895037884  0.3677435865934073
  0.7495114944570777  0.3749484813198995  0.4534657746500173
  0.5788682000848330  0.3132423836020505  0.4547411606828296
  0.9153919238664691  0.3133089975191194  0.4540769264668239
  0.5012526212291223  0.3759181185124413  0.1940361528901663
  0.8301314970616118  0.4353601800712316  0.1972982226201604
  0.6699402453384981  0.4313816768061868  0.1974913047012444
  0.7448746312936685  0.0000263165057850  0.2755934973043999
  0.5797655815229120  0.4382589024561604  0.2831588184591820
  0.9148916056645059  0.4375258764206422  0.2804497767230142
  0.4982907693433958  0.9992994991720201  0.3722139660642119
  0.8315013517827232  0.4369472977514229  0.3656106619993130
  0.6643609671796089  0.4383194407858708  0.3692764436722374
  0.7475600407485187  0.9962777071698167  0.4595108994631290
  0.5832386313006742  0.4368200247610025  0.4567567989581637
  0.9145634091415775  0.4380690213952128  0.4545594381172267
  0.5050508344613079  0.4989668064460620  0.1941039744608950
  0.8287375940235899  0.5626538442770528  0.1971983362650682
  0.6691404649712798  0.5644743853172625  0.1969818737047507
  0.7449913745538491  0.6233059739120311  0.2782510061108243
  0.5800945794329931  0.5612018710978884  0.2843607199831834
  0.9130218562800182  0.5611780150065606  0.2800628351704226
  0.4966516792091600  0.6240178813156132  0.3688513508547770
  0.8309755301389475  0.5613915955184736  0.3670433639038916
  0.6638170379930263  0.5612974662933108  0.3702248984556396
  0.7472078457367745  0.6251203948652475  0.4550359839434941
  0.5806040031322922  0.5604831955501753  0.4549746532566669
  0.9115790103312090  0.5617288483313585  0.4539285602283656
  0.5048040267755979  0.6226193868004263  0.1954408588442255
  0.8295571897389337  0.6812079267186834  0.1958319343055865
  0.6698978080779924  0.6816523280125037  0.1991989181478526
  0.7476946796817181  0.7468642331504587  0.2769956940215775
  0.5820136608654716  0.6849333058561563  0.2846352465420822
  0.9140724350177778  0.6850950242543578  0.2806221572323874
  0.4965095074128442  0.7485032129794308  0.3712643897205314
  0.8298340691019302  0.6863151649608235  0.3672364241557117
  0.6647727536130732  0.6850907839218229  0.3703429143501515
  0.7455136547533299  0.7483552113365108  0.4569287389291682
  0.5787876665953250  0.6851110436904077  0.4565405919628071
  0.9094041778999390  0.6847893986308731  0.4544713460102565
  0.5083603175075768  0.7456041583848763  0.1952586848828993
  0.8324791496604442  0.8141696060404704  0.2003948957396490
  0.6660839838797158  0.8089672461005987  0.2021772496985595
  0.7474376638601995  0.8738546008880287  0.2766887377775515
  0.5823594605153442  0.8094695656977658  0.2850254227470360
  0.9151132768469645  0.8110569760519923  0.2826621644632833
  0.4983607120592829  0.8738555230340375  0.3722696844008935
  0.8293322767411929  0.8111027732458366  0.3668067915867326
  0.6651922405362853  0.8107470194314427  0.3703208110890643
  0.7497586295905191  0.8722999020053421  0.4553471473123338
  0.5803129410827329  0.8130362194254811  0.4569128236384784
  0.9136474606451673  0.8106910739780013  0.4527527490620731
  0.5008775950905706  0.8743552504001570  0.1969282434276549
  0.8271214607125803  0.9365827991864650  0.2007025566681619
  0.6598762666009881  0.9357237426040113  0.1999486912026731
  0.7439743019885489  0.4994853746054471  0.2755397028874103
  0.5825378072998303  0.9362851306554938  0.2847278533112889
  0.9140636076217872  0.9372725185747154  0.2813626198081571
  0.4962118454465956  0.4991390506627479  0.3684094858322160
  0.8319507053238044  0.9370872937847219  0.3671058970784991
  0.6654173372838705  0.9374284013764397  0.3705608092991058
  0.7489459735666154  0.5008535487766125  0.4545029635204365
  0.5816171666792100  0.9369837392396333  0.4589192894507108
  0.9183107229750122  0.9367160686770776  0.4520082024879373
  0.4082845893793684  0.0000563678104391  0.2339184976783878
  0.2506335478708529  0.9998556508865539  0.1927729077364487
  0.0908722189387651  0.9995124304808078  0.2292542825377770
  0.1517224667979246  0.1241941702201984  0.3154180077495815
  0.9976675842792194  0.1237820966823322  0.3002991973772453
  0.3456981930019258  0.1245062358347800  0.3177390612768330
  0.3996899127766367  0.1229181316641182  0.4053084572171168
  0.2484833462990894  0.1238126612695695  0.3904124642947639
  0.0980941930369224  0.1239747299151777  0.4022735431922080
  0.1499608801458035  0.1243793484933268  0.4901939150592891
  0.9995681961276409  0.1245857257275308  0.4730214978869667
  0.3464825467985729  0.1270501195805558  0.4899661523238638
  0.4676246449819823  0.1929153181526615  0.5574138147701346
  0.3156415113068882  0.1388592805057003  0.5748627148406267
  0.0736928186859765  0.1314387610722221  0.5655681809014231
  0.4055504172912192  0.1258906959925306  0.2336495806566319
  0.2502451228139320  0.1259755474826828  0.2085861646524906
  0.0892268751514874  0.1245123548023836  0.2296461802758688
  0.1495272400103572  0.2486818037192753  0.3163466606120420
  0.9983703316318416  0.2495212672116859  0.3010872946156964
  0.3455254462251283  0.2497505867025799  0.3168279565950202
  0.3984135293433598  0.2494652550894846  0.4021682360764302
  0.2472460043420209  0.2481131100688966  0.3894676595143312
  0.0976767489225917  0.2481367122481941  0.4036106526062757
  0.1489227159010747  0.2504181401571584  0.4920169366846375
  0.9985894798206385  0.2497909288376747  0.4728972624815441
  0.3462419069984695  0.2462627754086986  0.4854740543306820
  0.4943101579106788  0.2472610391294357  0.5542389648559757
  0.3159243257765592  0.2530261297399676  0.5689622324971993
  0.0694598718045927  0.2558402351402697  0.5665084657775047
  0.4059024711539679  0.2515212945727097  0.2320552871694467
  0.2460440726745581  0.2506643924867778  0.1766379754277700
  0.0880370559144415  0.2496951792801577  0.2301308309262869
  0.1512089397643872  0.3743500974974985  0.3149192947186260
  0.9980467297923944  0.3750335041638999  0.3008293028930178
  0.3437812522588817  0.3751606800942725  0.3139101022242780
  0.3993790398717778  0.3744263488257362  0.4017948938558257
  0.2477932692847993  0.3736348103046094  0.3865537118777804
  0.0980251993069126  0.3732117358453654  0.4018302602614635
  0.1512746019606800  0.3752859828210771  0.4896918960698718
  0.9977203923070095  0.3761735162359124  0.4740454538914098
  0.3440139513435707  0.3725615747891300  0.4843890024596654
  0.4550695010095403  0.2975642456438561  0.5597397865100660
  0.3420202902144897  0.3868350684049621  0.5756819239879331
  0.0713793312601258  0.3815416099055065  0.5590701252177014
  0.4034980644587632  0.3757252818876242  0.2278996643562936
  0.2442775396345127  0.3749361143126262  0.2072457807148262
  0.0914782910775274  0.3754140948832875  0.2300110885108300
  0.1536570061695887  0.9997605319562786  0.3150620102108034
  0.9976326549719082  0.9995509712105133  0.3001881607008491
  0.3454196401393086  0.9997604403148123  0.3174431583678263
  0.4003756839737314  0.0002257949750427  0.4059579801642221
  0.2491416165638796  0.0002627984931800  0.3881754627737604
  0.0988322560404574  0.9998028314994845  0.4022644966742273
  0.1549853217002021  0.0036584655907520  0.4878795737964285
  0.0018079399137880  0.9998652504255970  0.4735253802002474
  0.3476822334019848  0.9991194525852379  0.4905783830644361
  0.6058932515729234  0.9659488763788726  0.8578168457756969
  0.3067509427067968  0.1977637141100263  0.4751167789109964
  0.0907508751756658  0.0074576495859545  0.5666270661510679
  0.4035400619324118  0.4995766191551702  0.2263228681532590
  0.2446156132023151  0.4996354074794007  0.1717846978043436
  0.0920070908777708  0.4995971166223817  0.2292612617587070
  0.1508670537501817  0.6233597206698986  0.3157440103244195
  0.9972117715962137  0.6232774429730701  0.3004659918406404
  0.3432435977774386  0.6237449216286970  0.3131442131154225
  0.3979909011830844  0.6222624716885097  0.4002386806853526
  0.2485689686722636  0.6217910455317062  0.3869395423483027
  0.0947405652395203  0.6221537691205469  0.4033591275302516
  0.1440349229906968  0.6165932668834807  0.4946460864989953
  0.9950648005604960  0.6233039062966090  0.4750209106132370
  0.3436247399718914  0.6211778246644389  0.4826530616601001
  0.4595157369422374  0.6313891625637090  0.6037202110138671
  0.2771976021070590  0.6212321666589155  0.5533480548141028
  0.0767299175375592  0.6419894508868306  0.5702555768800253
  0.4049626435373865  0.6230833514101308  0.2274291478811084
  0.2476546901265506  0.6236484227771859  0.2069681502676715
  0.0926629087588101  0.6243057590692999  0.2303767618632925
  0.1497723156472594  0.7504603729765670  0.3175534933558241
  0.9978440448896954  0.7483047068272061  0.3012156134592416
  0.3454525808060035  0.7488583229504374  0.3162432927851446
  0.3969310530656195  0.7495354651654665  0.4029001480638835
  0.2485575395972990  0.7534627228310228  0.3906063954422073
  0.0952838533237556  0.7531939809340870  0.4044712277861042
  0.1850806820887090  0.6881906426575737  0.4386913649686317
  0.9959133263053841  0.7495331697118465  0.4736580020554890
  0.3459840309276209  0.7456585323470145  0.4903335831221848
  0.0860513761855429  0.7553889076935140  0.9390230797589093
  0.3712686718140078  0.9436335702319203  0.6274074675851364
  0.1445855759202984  0.7566861398868570  0.5024609811310020
  0.4096344679570993  0.7475152038199036  0.2304125841324524
  0.2500022583174953  0.7476615599932864  0.1791803516100561
  0.0902965865786503  0.7478789849536355  0.2308039965849197
  0.1520583211461840  0.8756527251996417  0.3164152006092486
  0.9981302742799082  0.8748870433680535  0.3013569720347815
  0.3459201873081463  0.8749902943172386  0.3173462105960027
  0.3998127895104814  0.8746434677859674  0.4049398724666191
  0.2484235454003014  0.8766420486825903  0.3888391201280522
  0.0984281501130536  0.8765589456355901  0.4046152843378818
  0.1517320292531223  0.8763648793005022  0.4903441913789031
  0.9999503391888896  0.8769045522411517  0.4738021967356731
  0.3453752120685975  0.8769913926631497  0.4884082251171600
  0.4094848930209069  0.8583520627476114  0.5668326270127099
  0.2398840310647540  0.9319233606047123  0.5607677698759634
  0.0828132166784070  0.8812535953380958  0.5705163542383361
  0.4069977882559179  0.8736092262847747  0.2331618749731161
  0.2511534242021668  0.8753402658117466  0.2089286346464239
  0.0932636995702981  0.8748022080372508  0.2301419927693767
  0.1519052724543308  0.4996221276461921  0.3141836634994816
  0.9974629550368158  0.4995656055702127  0.2998046147885908
  0.3423330165740745  0.4994801492141551  0.3121321830778707
  0.3985028403127411  0.4989923601634374  0.4011167426558724
  0.2478901548016229  0.4987718697459386  0.3852815651056051
  0.0972598673792985  0.4990412897289410  0.4007323450395444
  0.1511898341718846  0.4927673932546635  0.4847714430931117
  0.9990856181018244  0.4997555144121500  0.4711685689693457
  0.3455836749764628  0.4990526327610109  0.4854113883363500
  0.4450320466186028  0.4864286042774852  0.5678243306351795
  0.2792966571185861  0.5005506732420104  0.5677284505907414
  0.0993729161326534  0.5063324336557128  0.5646033127252671
  0.8996294683824614  0.0000770013213478  0.2294255198900786
  0.7415178992671082  0.0002043050291023  0.2017582477031593
  0.5949013604194796  0.0000534007152686  0.2331467155024865
  0.6538565506397672  0.1241805983638335  0.3163993501310566
  0.5004588276406796  0.1254720647485620  0.3040376582275117
  0.8444846082088389  0.1240717408518598  0.3151599239786609
  0.9007321302788878  0.1238435754684838  0.4000743737583421
  0.7490294251034050  0.1237222999475277  0.3878878349653270
  0.5982781383781504  0.1247412401300659  0.4019549673508686
  0.6510714020187033  0.1230539071405465  0.4834148800199223
  0.4988404480203521  0.1237675493463529  0.4772055444428290
  0.8503479207271928  0.1212278190442601  0.4826718711036974
  0.9038816060269531  0.1599272867360394  0.5582151768776825
  0.7719432310160655  0.0878149169321283  0.5556863565664435
  0.6209224077073804  0.0676607648318230  0.5594505258522026
  0.9017262045802104  0.1244644551013451  0.2300770172422581
  0.7446894971540839  0.1267270893667996  0.1734848439096842
  0.5958492418871201  0.1258709824353990  0.2326176629951110
  0.6538101477016574  0.2510019174522189  0.3151809987704138
  0.4996990206659983  0.2508513437880910  0.3020578230628752
  0.8451506572559326  0.2498609454828086  0.3146177198732633
  0.8999706528469872  0.2495540580296524  0.4001525440816773
  0.7480866784681585  0.2502127113781239  0.3858426964415774
  0.5980010458217758  0.2497697434818336  0.3997246714410381
  0.6513949323552752  0.2506609960818346  0.4776443227585330
  0.4980650765382506  0.2484675967886606  0.4679353393051354
  0.8513312947946946  0.2495515977762513  0.4808100164852231
  0.9027009001201813  0.2874654800160734  0.5539344203546789
  0.7544896060664151  0.1954680599953996  0.5206174942706917
  0.6112023564737517  0.1743251955009011  0.5595688426699011
  0.9050014897498930  0.2499093919239358  0.2297087097525817
  0.7536134781565128  0.2507189814072647  0.2082286197816320
  0.5952337076663923  0.2517649895238774  0.2313086414302932
  0.6521981633829230  0.3763864204001313  0.3158404051107023
  0.4977802231599927  0.3762145498783391  0.3010705780222808
  0.8447995580140117  0.3750501066280837  0.3139280608144962
  0.8995379510119484  0.3752784379754195  0.4005606372488277
  0.7482024153775592  0.3756212335394750  0.3861211656122326
  0.5967021189320533  0.3756426507766387  0.4021963577669173
  0.6535836395521810  0.3751687685879865  0.4838949584836384
  0.4973910932817308  0.3720603412876380  0.4774383102229058
  0.8461752513262788  0.3748107029602514  0.4838394837904273
  0.8980064337315792  0.4181136910831765  0.5595112787799307
  0.7495781047637642  0.3385064739213238  0.5529251654543135
  0.1899852174389014  0.2001506071896992  0.6893601041253601
  0.9069699253891280  0.3756254794146597  0.2286401996728934
  0.7523151051035124  0.3742413683090721  0.1739135655836036
  0.5949213549263533  0.3759578666097604  0.2314724535764309
  0.6538145433678294  0.9992795204780748  0.3166526619157542
  0.5003991194722625  0.9994905636955197  0.3050071222952270
  0.8416014952067141  0.9995478642213225  0.3138372737167895
  0.9016389675790626  0.9993410377530252  0.3999392273275176
  0.7489286385307228  0.9993033370719943  0.3901912779195537
  0.5979407002985878  0.9989104236007228  0.4039304928086262
  0.6459324367405544  0.0000881547931519  0.4891939603218586
  0.4998573083185759  0.0001363003466273  0.4781837132290934
  0.8518605150951730  0.9981116233047969  0.4826762677148702
  0.9240060557627071  0.0316862079624878  0.5593352012011434
  0.7717791270353589  0.9697706712306368  0.5507728848467613
  0.9452758723893718  0.5369967538792585  0.6738030429515210
  0.9039191610304513  0.4993324498642762  0.2277606932419624
  0.7469964248653072  0.4986528171819605  0.2046478080387598
  0.5967522736631625  0.4994662652394439  0.2314239480250562
  0.6513873598382250  0.6230248820587971  0.3172527993920979
  0.4972100666935023  0.6230933313023758  0.3010944269353052
  0.8429741078679841  0.6234186288169612  0.3138985416748615
  0.8995229997723190  0.6234593791546149  0.4003408071272753
  0.7479553936358336  0.6234716280938704  0.3874345380025997
  0.5954360196064246  0.6235126533927990  0.4030652840044456
  0.6502691178800939  0.6233317318129797  0.4869252722196545
  0.4967391100282688  0.6231146807697259  0.4754498570093265
  0.8449580697553548  0.6216161811336333  0.4847726349161467
  0.9140361612151171  0.6562730615418232  0.5771348368819579
  0.7845758354404365  0.6593112597134243  0.5583032280825907
  0.5975785460472613  0.6637562827283142  0.5632281874694790
  0.9033585597302636  0.6231985952817352  0.2281945830200317
  0.7493414986294743  0.6225365637758750  0.1718621661442295
  0.5974442378882971  0.6225103258786111  0.2329987031719453
  0.6540873620081598  0.7472730332111229  0.3169271331778815
  0.4991124700489570  0.7472598764563489  0.3033176774981212
  0.8431296884815236  0.7476223854626122  0.3143958740845701
  0.8993446397735784  0.7480450762888610  0.4002497724492062
  0.7474565012300461  0.7480352202202383  0.3887229867892673
  0.5959395560748021  0.7482323001701389  0.4037416510330953
  0.6436923130154767  0.7512010199075801  0.4870008550614245
  0.4922803492828334  0.7466244819324400  0.4732127774222376
  0.8449366356448826  0.7466221973696079  0.4845860187444931
  0.9135388739204952  0.7781050184794006  0.5581620868314126
  0.6875075177928457  0.7493846928966621  0.5640457240542857
  0.5084489230171469  0.7699686126266350  0.5682992817729808
  0.9032687757057852  0.7484093288120326  0.2299696544423590
  0.7512439253324275  0.7468119402649207  0.2022497752314507
  0.5973933719709332  0.7460025935890584  0.2336789962040093
  0.6546841551380328  0.8740071031847586  0.3169228382604071
  0.5001761539625063  0.8734987828555767  0.3046112161399172
  0.8423671107879838  0.8745512287080615  0.3143368264627652
  0.9005934241527899  0.8737714644379098  0.3996824198374104
  0.7486794772372336  0.8747796378334178  0.3877471347659069
  0.5976787474821811  0.8749600907795920  0.4046310466941994
  0.6509822245854350  0.8748586666412842  0.4895782421016310
  0.4978753666085278  0.8725327746909401  0.4809150499901595
  0.8515481610290770  0.8734870320644330  0.4824039464695523
  0.9164126580730847  0.9059635895356611  0.5640720646964404
  0.7681430809575300  0.8537256337059900  0.5488318158817487
  0.7393736067549033  0.4647851251643535  0.7131079802955215
  0.9037154605146606  0.8752542388918824  0.2304564815829180
  0.7444640119849423  0.8740909211614936  0.1925041790560526
  0.5946653570356902  0.8725360678012957  0.2331988253751729
  0.6509249363410413  0.4997087739382587  0.3161513237904299
  0.4957331862872718  0.4997126274441379  0.3004518258218996
  0.8419467709387858  0.4995660715337670  0.3125459803986598
  0.8997390871113534  0.4992777634661320  0.4003941341493337
  0.7482926839572063  0.4996407832441224  0.3866768584460425
  0.5951925549424883  0.4988875356966108  0.4023665914833954
  0.6516229549279098  0.5004990984495932  0.4856717262713404
  0.4986282719474168  0.4977103593664633  0.4752451465758751
  0.8463593036028206  0.4991950147214549  0.4859219031408682
  0.9519821008766191  0.5565702693121658  0.5536059947672828
  0.8106960968682048  0.5329365939984918  0.5692779996785255
  0.5770365553573045  0.4119264756494825  0.5494216448130873
  0.9908484846167187  0.1375205361890231  0.5358576219697566
  0.4046410329844841  0.1416944540932284  0.5848348665240464
  0.1168870766307476  0.0717280915224720  0.5378950346559426
  0.9858433283000329  0.2558716271841882  0.5364556113314941
  0.3232538551925532  0.1913248171028467  0.5357473198273706
  0.1095617286772977  0.1950463336951636  0.5413615298230303
  0.9853115064342226  0.4044284792973811  0.5357088634363326
  0.3575717184307167  0.3148832497419662  0.5778473010914127
  0.1083595450333827  0.3160430500510034  0.5395110966389731
  0.0073253209397312  0.0036883248512381  0.5374880185716255
  0.3557677004178883  0.4576098135555481  0.5630216586932871
  0.1218727555248937  0.4404627911610919  0.5338243300836174
  0.9884690379723223  0.6346052066602698  0.5442478135599234
  0.3061802621177124  0.5505747456191348  0.5310292526522248
  0.1187515203161672  0.5795745504588846  0.5486743328658196
  0.9979418992885579  0.7634813134469806  0.5348466947171848
  0.3095915619003094  0.6780968179417115  0.5221588029251883
  0.1305718849454265  0.6843571435836969  0.5342218006144969
  0.0015666817532569  0.8906537172783711  0.5378427280307222
  0.3470034969448326  0.9016682315229477  0.5895741862897993
  0.1202030939447959  0.8273592268805859  0.5378314791456179
  0.0177259804125369  0.5095388235961344  0.5343936392302632
  0.3053576007708129  0.9383680537168224  0.5232012237702101
  0.1353603506518122  0.9408117426824788  0.5505920566824873
  0.5356253570070276  0.1327528161264168  0.5421940409222961
  0.8689464183593935  0.0917032938835524  0.5407217057434092
  0.7144041025651985  0.0309555994008849  0.5440442751480787
  0.6072938300516446  0.2343841846291013  0.5288147765574547
  0.8535890602507953  0.2219118001966458  0.5385085787467858
  0.6880551171190115  0.1289807416473979  0.5429106200920336
  0.5241040187948256  0.3502121805969670  0.5392461355927026
  0.8502181440992017  0.3514806314592726  0.5455824491608969
  0.7271901952397616  0.2675098408903790  0.5397583418219414
  0.5681226963969149  0.0225321531610172  0.5295717950286856
  0.8821185051494800  0.4928524596315766  0.5479272991532791
  0.6583307190969895  0.3667819689211637  0.5445685729802153
  0.5183257147879782  0.6393569217573485  0.5387409895027951
  0.8443752343330337  0.6001594573622352  0.5591118187554207
  0.6938300583293597  0.6745616450405958  0.5435158266654273
  0.4454170461583603  0.7365063068458508  0.5305466794180967
  0.8747526020660880  0.7093621207060461  0.5440678351775713
  0.5933276201552259  0.7408912471147162  0.5437500119895676
  0.4839508374996116  0.8328820840245181  0.5393533759776560
  0.8690408963823983  0.8453028624719721  0.5411309502118770
  0.6955883356458442  0.8095965337805714  0.5289663385315128
  0.5240049070019092  0.4770307183659823  0.5375477289363354
  0.8734241154703215  0.9697065130317482  0.5416724723475128
  0.7153098937939752  0.9144056272000747  0.5331560604293528
  0.4719115400765057  0.5579008463795604  0.5858457012349645
  0.6287906398779084  0.5597284051062652  0.5391287824815396
  0.3620680746697145  0.6327139377517067  0.5869535258813275
  0.4940845078419430  0.7043545919135077  0.6031725681819932
 
             NaN             NaN             NaN
             NaN             NaN             NaN
             NaN             NaN             NaN