Cu	N	Ru	Ta                              
   1.00000000000000     
    18.1096308199999996    0.0000000000000000    0.0000000000000000
     0.0000000000000000   23.3551997799999995    0.0000000000000000
     0.0000000000000000    0.0000000000000000   30.4818171199999988
   Cu   N    Ru   Ta
     3   240    24   216
Selective dynamics
Direct
  0.5704543983826207  0.4622076305317567  0.6078405161173349   T   T   T
  0.2560549785287785  0.3437233617137797  0.5778787388923794   T   T   T
  0.4357648136383241  0.4483214440585256  0.6099739520063691   T   T   T
  0.0000000000000000  0.0000770226766207  0.3028264943543491   F   F   F
  0.0000000000000000  0.5000770226766207  0.3028264943543491   F   F   F
  0.0000000000000000  0.6248851796377153  0.3029475127301708   F   F   F
  0.0000000000000000  0.7500770228907001  0.3028264943543491   F   F   F
  0.0000000000000000  0.8748851798518018  0.3029475127301708   F   F   F
  0.0000000000000000  0.1248851796377153  0.3029475127301708   F   F   F
  0.0000000000000000  0.2500770228907001  0.3028264943543491   F   F   F
  0.0000000000000000  0.3748851798518018  0.3029475127301708   F   F   F
  0.0003497424768879  0.8731419775029898  0.4742284859219473   T   T   T
  0.0005921511916098  0.4983272107979068  0.4715800604929110   T   T   T
  0.0008755870506321  0.3739908608802465  0.4729022681360792   T   T   T
  0.5932210054809800  0.8980662734158080  0.5664245709276861   T   T   T
  0.5953317655599549  0.6389156340912975  0.5717148118903316   T   T   T
  0.5762379558556002  0.7816595541102203  0.5624727517725621   T   T   T
  0.6000039326405414  0.2657320810301353  0.5630671834866438   T   T   T
  0.5927152918127887  0.1413538871192604  0.5736241701417014   T   T   T
  0.5943504772119894  0.6250779795299195  0.2321437935324795   F   F   F
  0.5943504772119894  0.8750779797440060  0.2321437935324795   F   F   F
  0.5943504772119894  0.1250779795299195  0.2321437935324795   F   F   F
  0.5943504772119894  0.3750779797440060  0.2321437935324795   F   F   F
  0.5943930523482663  0.9999373617004466  0.2321734905809336   F   F   F
  0.5943930523482663  0.4999373617004466  0.2321734905809336   F   F   F
  0.5943930523482663  0.7499373619145331  0.2321734905809336   F   F   F
  0.5943930523482663  0.2499373619145331  0.2321734905809336   F   F   F
  0.5987445850521298  0.0178495563929097  0.5715984723330245   T   T   T
  0.5995589467085103  0.7511398741124360  0.4021629833794272   T   T   T
  0.5984820645461479  0.6256267301356333  0.4028642051448130   T   T   T
  0.5981586702565583  0.8754852932267039  0.4013414831796091   T   T   T
  0.5996869272911672  0.2509538511812467  0.4013374118745074   T   T   T
  0.5998699379708573  0.1250868522577382  0.4024089156603304   T   T   T
  0.5981269833909307  0.0013602766586758  0.4009317120619110   T   T   T
  0.5992698315053117  0.3755795830873145  0.4019934016896556   T   T   T
  0.5995503991445061  0.5011664205847006  0.4026040825853275   T   T   T
  0.5934058014509055  0.3927293721924939  0.5793285218251985   T   T   T
  0.5774147471965589  0.5245137519370953  0.5700020374660144   T   T   T
  0.6531135030781632  0.7517444724720239  0.4877067848188684   T   T   T
  0.6529497864374723  0.2488061080837423  0.4843169619941897   T   T   T
  0.6513997546916134  0.8822233570234049  0.4837049924617922   T   T   T
  0.6482269413056916  0.9974842148706479  0.4811004963373497   T   T   T
  0.6463657571711259  0.6308953403022137  0.4879476464361365   T   T   T
  0.6511128126716765  0.1271856306911973  0.4887243574789038   T   T   T
  0.6490278589941580  0.3770080273373054  0.4862592069143934   T   T   T
  0.6528643542762745  0.4973072247463460  0.4896530904999939   T   T   T
  0.6547082680948861  0.6251230654212776  0.3157550047659328   F   F   F
  0.6547082680948861  0.8751230656353641  0.3157550047659328   F   F   F
  0.6547082680948861  0.1251230654212776  0.3157550047659328   F   F   F
  0.6547082680948861  0.3751230656353641  0.3157550047659328   F   F   F
  0.6547523877132235  0.9998547719551993  0.3156484409089586   F   F   F
  0.6547523877132235  0.4998547719551993  0.3156484409089586   F   F   F
  0.6547523877132235  0.7498547721692859  0.3156484409089586   F   F   F
  0.6547523877132235  0.2498547721692859  0.3156484409089586   F   F   F
  0.7516110675014538  0.2461270499802062  0.5577271681128324   T   T   T
  0.7411107173663879  0.7100724816539489  0.5716585835661935   T   T   T
  0.7534444946902513  0.5928622022606964  0.5270949133982057   T   T   T
  0.7426146854951902  0.1338895104844253  0.5602395544397482   T   T   T
  0.7500826982358328  0.7497215285924846  0.3881854746418679   T   T   T
  0.7499068045897613  0.8750723573249630  0.3875946649896101   T   T   T
  0.7499380803571267  0.6245207258395630  0.3890463369160704   T   T   T
  0.7502534301715268  0.1247806976920660  0.3875623666010942   T   T   T
  0.7498494545880704  0.0001402483748258  0.3877676706048296   T   T   T
  0.7524753263691661  0.0138339097821651  0.5462067716669196   T   T   T
  0.7506994163376571  0.2501784812162905  0.3872894200585723   T   T   T
  0.7498549203958655  0.5002393287659248  0.3877884391045792   T   T   T
  0.7499999997239044  0.0000513585844359  0.1992858820091215   F   F   F
  0.7499999997239044  0.5000513585844431  0.1992858820091215   F   F   F
  0.7499999997239044  0.6250070552811167  0.1993925282102751   F   F   F
  0.7499999997239044  0.7500513587985225  0.1992858820091215   F   F   F
  0.7499999997239044  0.8750070554952032  0.1993925282102751   F   F   F
  0.7499999997239044  0.1250070552811167  0.1993925282102751   F   F   F
  0.7499999997239044  0.2500513587985225  0.1992858820091215   F   F   F
  0.7499999997239044  0.3750070554952032  0.1993925282102751   F   F   F
  0.7503713448074852  0.3746663319800662  0.3881084008028154   T   T   T
  0.7394428462521005  0.8906612115368145  0.5553246856473405   T   T   T
  0.7515104920951847  0.4713849764028107  0.5712517923419663   T   T   T
  0.7538820640850518  0.3675754915139870  0.5459307603632579   T   T   T
  0.8452476122867765  0.9998547719551993  0.3156484409089586   F   F   F
  0.8452476122867765  0.4998547719551993  0.3156484409089586   F   F   F
  0.8452476122867765  0.7498547721692859  0.3156484409089586   F   F   F
  0.8452476122867765  0.2498547721692859  0.3156484409089586   F   F   F
  0.8452917319051139  0.6251230654212776  0.3157550047659328   F   F   F
  0.8452917319051139  0.8751230656353641  0.3157550047659328   F   F   F
  0.8452917319051139  0.1251230654212776  0.3157550047659328   F   F   F
  0.8452917319051139  0.3751230656353641  0.3157550047659328   F   F   F
  0.8511580714235261  0.2474443086804825  0.4884116321826396   T   T   T
  0.8545190890343816  0.6264945185850133  0.4859012005258185   T   T   T
  0.8474827060920916  0.7458853358395999  0.4894776289734097   T   T   T
  0.8469177837708154  0.1269860108409090  0.4863518798777628   T   T   T
  0.8509971151683609 -0.0042040720781636  0.4866540986487111   T   T   T
  0.8499614255722775  0.8754260006097642  0.4877354901906778   T   T   T
  0.8469272406386211  0.4948791589361479  0.4870692933814654   T   T   T
  0.8528275835681920  0.3759671979633900  0.4860612100030469   T   T   T
  0.0889024284733658  0.6200038076214054  0.5759756650788738   T   T   T
  0.0974723110770046  0.1200788246069612  0.5750218080550873   T   T   T
  0.8990020804611427  0.6248367343803498  0.5740664727843953   T   T   T
  0.9004853868261304  0.7494453562096038  0.4021965717971134   T   T   T
  0.9016068878101025  0.6239595088254047  0.4017694035458302   T   T   T
  0.9010871520653330  0.2494032619667147  0.4019444408124886   T   T   T
  0.9011490684950502  0.1241853284965132  0.4020370644417088   T   T   T
  0.9004141711354365  0.8738985823336289  0.4023578615860138   T   T   T
  0.9038682737589172  0.1156979263100773  0.5680736491255914   T   T   T
  0.9008365422817795 -0.0007498350439875  0.4018727224740041   T   T   T
  0.9008702201517549  0.4994235561372162  0.4014651956470910   T   T   T
  0.9013301432088909  0.3742247641508485  0.4016844443949699   T   T   T
  0.9043718225506622 -0.0088288084957150  0.5715261201379737   T   T   T
  0.9090008996489669  0.4995203677089442  0.5686142741522419   T   T   T
  0.9082291419545119  0.7380745895781754  0.5693789275340199   T   T   T
  0.9056069476517337  0.9999373617004466  0.2321734905809336   F   F   F
  0.9056069476517337  0.4999373617004466  0.2321734905809336   F   F   F
  0.9056069476517337  0.7499373619145331  0.2321734905809336   F   F   F
  0.9056069476517337  0.2499373619145331  0.2321734905809336   F   F   F
  0.9056495227880106  0.6250779795299195  0.2321437935324795   F   F   F
  0.9056495227880106  0.8750779797440060  0.2321437935324795   F   F   F
  0.9056495227880106  0.1250779795299195  0.2321437935324795   F   F   F
  0.9056495227880106  0.3750779797440060  0.2321437935324795   F   F   F
  0.9123131469571643  0.2369217944926682  0.5700157487988801   T   T   T
  0.9033522377386667  0.8764296018844326  0.5724771689299403   T   T   T
  0.9057750878151416  0.3761493888998518  0.5739308463361394   T   T   T
  0.0872682040311508  0.4886792631380348  0.5710662909634932   T   T   T
  0.0867672771751803 -0.0196435582979985  0.5687202926651425   T   T   T
  0.0943504772119894  0.6250779795299195  0.2321437935324795   F   F   F
  0.0943504772119894  0.8750779797440060  0.2321437935324795   F   F   F
  0.0943504772119894  0.1250779795299195  0.2321437935324795   F   F   F
  0.0943504772119894  0.3750779797440060  0.2321437935324795   F   F   F
  0.0943930523482663  0.9999373617004466  0.2321734905809336   F   F   F
  0.0943930523482663  0.4999373617004466  0.2321734905809336   F   F   F
  0.0943930523482663  0.7499373619145331  0.2321734905809336   F   F   F
  0.0943930523482663  0.2499373619145331  0.2321734905809336   F   F   F
  0.0881508493049730  0.7349196097497614  0.5725114378150131   T   T   T
  0.1005873336354667  0.8605691134977344  0.5697353239630334   T   T   T
  0.0995348100185461  0.6244675373249138  0.4022476661092724   T   T   T
  0.0993282615159231  0.1240393224236958  0.4020567474167444   T   T   T
  0.0994064696059307  0.7495205995489539  0.4023656078508564   T   T   T
  0.0982660392828971  0.8740099038714542  0.4009230211158063   T   T   T
  0.0996469566398933  0.2491349703360217  0.4014778586633325   T   T   T
  0.0996309779544581  0.0003960150200007  0.4014750221928217   T   T   T
  0.1002093929381168  0.4995418091936137  0.4016811629104022   T   T   T
  0.0996970431790202  0.3740529050206613  0.4017501763703419   T   T   T
  0.0001038038263349  0.6233941737081650  0.4738031921742550   T   T   T
  0.9993499938930447  0.1229432799748596  0.4741293975577853   T   T   T
 -0.0001892858272258  0.7487923271127463  0.4730286106788197   T   T   T
 -0.0002137642465014 -0.0012102621266921  0.4726947544185824   T   T   T
  0.0004888771612980  0.2481446420825073  0.4720714690959096   T   T   T
  0.0950394451753055  0.2416998288874370  0.5679830255323984   T   T   T
  0.0946343364384833  0.3690989683060874  0.5733159835987163   T   T   T
  0.1489034808748499  0.6248361706163083  0.4867485647460463   T   T   T
  0.1494200551012010  0.1250940736537668  0.4862410384263509   T   T   T
  0.1499587967007291  0.7467641672176678  0.4885060815448748   T   T   T
  0.1517822781848024  0.2431388695769048  0.4852485246871520   T   T   T
  0.1523231900051777 -0.0037804313183585  0.4894374791771047   T   T   T
  0.1465113625717577  0.8791118631477373  0.4818258146069560   T   T   T
  0.1521175417349734  0.4961079569452708  0.4888346802949833   T   T   T
  0.1477066575968306  0.3756507668425423  0.4874636548965223   T   T   T
  0.1547082680948861  0.6251230654212776  0.3157550047659328   F   F   F
  0.1547082680948861  0.8751230656353641  0.3157550047659328   F   F   F
  0.1547082680948861  0.1251230654212776  0.3157550047659328   F   F   F
  0.1547082680948861  0.3751230656353641  0.3157550047659328   F   F   F
  0.1547523877132235  0.9998547719551993  0.3156484409089586   F   F   F
  0.1547523877132235  0.4998547719551993  0.3156484409089586   F   F   F
  0.1547523877132235  0.7498547721692859  0.3156484409089586   F   F   F
  0.1547523877132235  0.2498547721692859  0.3156484409089586   F   F   F
  0.2537763872285588  0.6201708251825573  0.5546458127783900   T   T   T
  0.2594461868854951  0.1165162612716883  0.5496627282273732   T   T   T
  0.2337457950289304  0.7344262142178107  0.5646166923955515   T   T   T
  0.2498978837145562  0.7504165341150275  0.3879734813346666   T   T   T
  0.2500208518699910  0.8749482584198192  0.3878593797112658   T   T   T
  0.2500908023969771  0.6251043069979275  0.3881967521771305   T   T   T
  0.2505197541590929  0.1249674213215864  0.3886091845476873   T   T   T
  0.2500503550340107  0.0003537031040265  0.3879578115609025   T   T   T
  0.2507044797199642  0.2499446563540613  0.3884260043698675   T   T   T
  0.2499999997239044  0.0000513585844359  0.1992858820091215   F   F   F
  0.2499999997239044  0.5000513585844431  0.1992858820091215   F   F   F
  0.2499999997239044  0.6250070552811167  0.1993925282102751   F   F   F
  0.2499999997239044  0.7500513587985225  0.1992858820091215   F   F   F
  0.2499999997239044  0.8750070554952032  0.1993925282102751   F   F   F
  0.2499999997239044  0.1250070552811167  0.1993925282102751   F   F   F
  0.2499999997239044  0.2500513587985225  0.1992858820091215   F   F   F
  0.2499999997239044  0.3750070554952032  0.1993925282102751   F   F   F
  0.2505014926266005  0.3746313720340800  0.3882953454745875   T   T   T
  0.2501167797268022  0.5003206986531263  0.3875761110181943   T   T   T
  0.2481755594270269  0.8323248088181935  0.5209623458704833   T   T   T
  0.2489799567562958  0.2301429789507228  0.5694387597169379   T   T   T
  0.2520088712114681  0.3139277288372114  0.5088930915552009   T   T   T
  0.2524491913861495 -0.0584376770191821  0.5737854708026174   T   T   T
  0.2502567727117274  0.4288456954864978  0.5779945262470826   T   T   T
  0.3452476122867765  0.9998547719551993  0.3156484409089586   F   F   F
  0.3452476122867765  0.4998547719551993  0.3156484409089586   F   F   F
  0.3452476122867765  0.7498547721692859  0.3156484409089586   F   F   F
  0.3452476122867765  0.2498547721692859  0.3156484409089586   F   F   F
  0.3452917319051139  0.6251230654212776  0.3157550047659328   F   F   F
  0.3452917319051139  0.8751230656353641  0.3157550047659328   F   F   F
  0.3452917319051139  0.1251230654212776  0.3157550047659328   F   F   F
  0.3452917319051139  0.3751230656353641  0.3157550047659328   F   F   F
  0.3523780206150418  0.8819885166142178  0.4871399050079462   T   T   T
  0.3448760887045982  0.7499878204999810  0.4868537970149112   T   T   T
  0.3539312815710367  0.3801893694252992  0.4860704789159769   T   T   T
  0.3486101163140117  0.6307958704430420  0.4861698260016931   T   T   T
  0.3524397289703378  0.1302871521514928  0.4858795590452479   T   T   T
  0.3546019217005522  0.2467874720938779  0.4870623415591394   T   T   T
  0.3472517820723911 -0.0007786531183774  0.4873928096946222   T   T   T
  0.3461826979655719  0.4988828855214089  0.4868963919337855   T   T   T
  0.4007978247802281  0.6259390455233642  0.4022901579833814   T   T   T
  0.4007688849865438  0.7512156600614163  0.4020417121969723   T   T   T
  0.4148468204802160  0.2522955534317505  0.5696180252388618   T   T   T
  0.4019660719763052  0.2509954865881047  0.4015594397592700   T   T   T
  0.4019841322999396  0.1252684414897462  0.4016155433626586   T   T   T
  0.4012022035230943  0.8757782120883442  0.4024566862766197   T   T   T
  0.4005919513661694  0.0012685578155386  0.4019561615748550   T   T   T
  0.4018092825523491  0.3760317540015417  0.4016845304908899   T   T   T
  0.4007969344028792  0.5017860359696693  0.4017844735588747   T   T   T
  0.3955100656334122  0.7543622649278127  0.5707774657515315   T   T   T
  0.3917896799239838  0.5053250989671040  0.5716866065639884   T   T   T
  0.3998186927275605  0.6346588144515746  0.5742634051074249   T   T   T
  0.4120529571624046  0.8791172521362545  0.5695751737673370   T   T   T
  0.4056069476517337  0.9999373617004466  0.2321734905809336   F   F   F
  0.4056069476517337  0.4999373617004466  0.2321734905809336   F   F   F
  0.4056069476517337  0.7499373619145331  0.2321734905809336   F   F   F
  0.4056069476517337  0.2499373619145331  0.2321734905809336   F   F   F
  0.4056495227880106  0.6250779795299195  0.2321437935324795   F   F   F
  0.4056495227880106  0.8750779797440060  0.2321437935324795   F   F   F
  0.4056495227880106  0.1250779795299195  0.2321437935324795   F   F   F
  0.4056495227880106  0.3750779797440060  0.2321437935324795   F   F   F
  0.4097755495734001  0.3802522938881787  0.5740451557650570   T   T   T
  0.4095722166082688  0.0071316189453929  0.5671857690570380   T   T   T
  0.4063487821444518  0.1337602146049033  0.5733993011798831   T   T   T
  0.4999837445489748  0.7518378609401063  0.4719962451644218   T   T   T
  0.5012200187116430  0.8749036945700154  0.4786832409991155   T   T   T
  0.4988183215511983  0.6265635375901023  0.4739166607535563   T   T   T
  0.5027235611604441  0.2514586194929879  0.4732138510188257   T   T   T
  0.5024269684044371  0.3770298114786514  0.4741342686807677   T   T   T
  0.5000000000000000  0.0000770226766207  0.3028264943543491   F   F   F
  0.5000000000000000  0.5000770226766207  0.3028264943543491   F   F   F
  0.5000000000000000  0.6248851796377153  0.3029475127301708   F   F   F
  0.5000000000000000  0.7500770228907001  0.3028264943543491   F   F   F
  0.5000000000000000  0.8748851798518018  0.3029475127301708   F   F   F
  0.5000000000000000  0.1248851796377153  0.3029475127301708   F   F   F
  0.5000000000000000  0.2500770228907001  0.3028264943543491   F   F   F
  0.5000000000000000  0.3748851798518018  0.3029475127301708   F   F   F
  0.5011122447782965  0.1271983110269931  0.4747660243366760   T   T   T
  0.4990035922505158  0.5021777087831409  0.4734371181643622   T   T   T
  0.4997687042071950  0.0020661279680467  0.4745820207109286   T   T   T
  0.0038085059721160  0.7375976952051119  0.5401451120802052   T   T   T
  0.0063103578513726  0.2377464054111170  0.5390510299783982   T   T   T
  0.6571626002009363  0.8331370164650236  0.5367287183578923   T   T   T
  0.6430419334663530  0.5716232666638074  0.5378901394745664   T   T   T
  0.6629283618843732  0.0775617991541882  0.5477865110498996   T   T   T
  0.6875154473325549  0.3094205104046104  0.5310908065847018   T   T   T
  0.8586834560059728  0.5601546981772346  0.5367441901906722   T   T   T
  0.8551478146711025  0.0537345050106914  0.5390565722600210   T   T   T
  0.8835225344968611  0.8055068043514124  0.5412689450796516   T   T   T
  0.8842660703554467  0.3041210829260631  0.5421180621722391   T   T   T
 -0.0035542726539647  0.4909784941091807  0.5384427976755262   T   T   T
 -0.0079794709676655 -0.0124208314085027  0.5396141070278563   T   T   T
  0.1198897509982318  0.5538903575157021  0.5398754890791246   T   T   T
  0.1161071324204005  0.0493774608775746  0.5429189020401086   T   T   T
  0.1559695030838775  0.7955502401012337  0.5454304143454998   T   T   T
  0.1413557514518816  0.3028889149091575  0.5350718228886698   T   T   T
  0.3576491685193089  0.5709308702822059  0.5393423247350271   T   T   T
  0.3701505834672187  0.3112511104487975  0.5339620676527480   T   T   T
  0.3535350936583848  0.8139242958186123  0.5359040933023111   T   T   T
  0.3577361933413160  0.0695894335426948  0.5375762329081281   T   T   T
  0.5071466692836267  0.2614248811641102  0.5399480850713841   T   T   T
  0.4818313632492260  0.7417424800398059  0.5383997517930970   T   T   T
  0.5063917133033324  0.0166529014272899  0.5418353381697154   T   T   T
  0.4904140739735331  0.5089471991434930  0.5400360097514804   T   T   T
  0.0000000000000000  0.9999830748611132  0.1973415402473861   F   F   F
  0.0000000000000000  0.4999830748611132  0.1973415402473861   F   F   F
  0.0000000000000000  0.6250597900044994  0.1972695212469660   F   F   F
  0.0000000000000000  0.7499830750751997  0.1973415402473861   F   F   F
  0.0000000000000000  0.8750597902185859  0.1972695212469660   F   F   F
  0.0000000000000000  0.1250597900044994  0.1972695212469660   F   F   F
  0.0000000000000000  0.2499830750751997  0.1973415402473861   F   F   F
  0.0000000000000000  0.3750597902185859  0.1972695212469660   F   F   F
  0.0000009257383411 -0.0002973902246046  0.3693584289736405   T   T   T
  0.0005852341166887  0.4994562199468535  0.3694684996586630   T   T   T
  0.0004141834575605  0.3742904231623429  0.3694543558831831   T   T   T
  0.0003159780045469  0.8755947422669458  0.5428228291426994   T   T   T
  0.0003630279745955  0.3757123215104348  0.5420751513662850   T   T   T
  0.5824959423441172  0.4374754614066489  0.2839355729984092   F   F   F
  0.5824959423441172  0.6874754611925624  0.2839355729984092   F   F   F
  0.5824959423441172  0.9374754614066489  0.2839355729984092   F   F   F
  0.5824959423441172  0.1874754611925624  0.2839355729984092   F   F   F
  0.5821506066437925  0.6897079066245374  0.4541985478120966   T   T   T
  0.5827651808530874  0.5624885324787385  0.2838652796168972   F   F   F
  0.5827651808530874  0.0624885324787385  0.2838652796168972   F   F   F
  0.5827651808530874  0.8124885322646520  0.2838652796168972   F   F   F
  0.5827651808530874  0.3124885322646520  0.2838652796168972   F   F   F
  0.5845338235507230  0.1882662325055022  0.4527799124323984   T   T   T
  0.5807719010779553  0.9386947168526395  0.4518717487725252   T   T   T
  0.5830413479382236  0.4390298774249504  0.4539391323720460   T   T   T
  0.5864849925083301  0.8147782216945719  0.4542136767228834   T   T   T
  0.5853093688268832  0.3134200669477340  0.4538084455577038   T   T   T
  0.5843661777465550  0.5637874862164913  0.4557730156862660   T   T   T
  0.5844938334932442  0.0635830465743967  0.4551933651651908   T   T   T
  0.6643630139468103  0.1939521242566355  0.5418620379135300   T   T   T
  0.6425020642500727  0.7102708849069266  0.5498284710113754   T   T   T
  0.6659163253997278  0.5625456426731574  0.2025671506292426   F   F   F
  0.6659163253997278  0.0625456426731503  0.2025671506292426   F   F   F
  0.6659163253997278  0.8125456424590709  0.2025671506292426   F   F   F
  0.6659163253997278  0.3125456424590709  0.2025671506292426   F   F   F
  0.6659898017733283  0.4375125970341855  0.2025194438276969   F   F   F
  0.6659898017733283  0.6875125968200990  0.2025194438276969   F   F   F
  0.6659898017733283  0.9375125970341855  0.2025194438276969   F   F   F
  0.6659898017733283  0.1875125968200990  0.2025194438276969   F   F   F
  0.6680241602668746  0.6872809728260452  0.3687082577259750   T   T   T
  0.6678453716901261  0.8126210358489093  0.3680490851314774   T   T   T
  0.6670943352529006  0.9569308081194452  0.5407975987491165   T   T   T
  0.6675970747099506  0.5629988003377477  0.3685289857563742   T   T   T
  0.6674556949482459  0.9378031833506264  0.3680080467879525   T   T   T
  0.6683360017786021  0.1877368796761561  0.3682297008289786   T   T   T
  0.6679577399823576  0.0627347688597836  0.3679571577596815   T   T   T
  0.6685931857091740  0.3128334160736982  0.3679376916608132   T   T   T
  0.6681318909111105  0.4377370836652247  0.3686404614114396   T   T   T
  0.6720163811778425  0.4326137445316814  0.5419926178689377   T   T   T
  0.7502421304653566  0.7490009098369163  0.4561761158617094   T   T   T
  0.7492630459259174  0.6266571441919142  0.4599919411425971   T   T   T
  0.7525938599924059  0.2487462870752560  0.4552295907292733   T   T   T
  0.7494338698269650  0.1275689022827998  0.4554671716355786   T   T   T
  0.7511511860112786  0.8767708482064001  0.4553911713357227   T   T   T
  0.7509531551298404 -0.0012357184287632  0.4557399658105408   T   T   T
  0.7499999997239044  0.0001643475558382  0.2779548773829816   F   F   F
  0.7499999997239044  0.5001643475558382  0.2779548773829816   F   F   F
  0.7499999997239044  0.6249264342623420  0.2780286426703711   F   F   F
  0.7499999997239044  0.7501643477699247  0.2779548773829816   F   F   F
  0.7499999997239044  0.8749264344764285  0.2780286426703711   F   F   F
  0.7499999997239044  0.1249264342623420  0.2780286426703711   F   F   F
  0.7499999997239044  0.2501643477699247  0.2779548773829816   F   F   F
  0.7499999997239044  0.3749264344764285  0.2780286426703711   F   F   F
  0.7493542580379341  0.4979053086713040  0.4555927434437613   T   T   T
  0.7509919165430297  0.3762195795888345  0.4565828280129970   T   T   T
  0.0828202870743544  0.6866056701500008  0.4543639584990667   T   T   T
  0.0834101476691093  0.1857105721210465  0.4537054068067798   T   T   T
  0.0824959423441172  0.4374754614066489  0.2839355729984092   F   F   F
  0.0824959423441172  0.6874754611925624  0.2839355729984092   F   F   F
  0.0824959423441172  0.9374754614066489  0.2839355729984092   F   F   F
  0.0824959423441172  0.1874754611925624  0.2839355729984092   F   F   F
  0.0827651808530874  0.5624885324787385  0.2838652796168972   F   F   F
  0.0827651808530874  0.0624885324787385  0.2838652796168972   F   F   F
  0.0827651808530874  0.8124885322646520  0.2838652796168972   F   F   F
  0.0827651808530874  0.3124885322646520  0.2838652796168972   F   F   F
  0.8281554367663524  0.1843205610857204  0.5415085139197079   T   T   T
  0.8286689938266528  0.6797091321830621  0.5429055598308281   T   T   T
  0.8319149967490933  0.6867883725148886  0.3686477894992776   T   T   T
  0.8319951957968530  0.8120796432836936  0.3682103100457053   T   T   T
  0.8321518432852848  0.9372830205027640  0.3685205768154519   T   T   T
  0.8322092498107855  0.5623410666136248  0.3683358306141894   T   T   T
  0.8324585380241039  0.1873016054804296  0.3682835719238884   T   T   T
  0.8324508256092001  0.0622367968913772  0.3681098608580556   T   T   T
  0.8321686402099980  0.4372494426715828  0.3684101412746106   T   T   T
  0.8325667439623797  0.3123237002679258  0.3679492916844235   T   T   T
  0.8314930041743077  0.9331304752825942  0.5409326547636292   T   T   T
  0.8340101684082839  0.4375125970341855  0.2025194438276969   F   F   F
  0.8340101684082839  0.6875125968200990  0.2025194438276969   F   F   F
  0.8340101684082839  0.9375125970341855  0.2025194438276969   F   F   F
  0.8340101684082839  0.1875125968200990  0.2025194438276969   F   F   F
  0.8340836447818845  0.5625456426731574  0.2025671506292426   F   F   F
  0.8340836447818845  0.0625456426731503  0.2025671506292426   F   F   F
  0.8340836447818845  0.8125456424590709  0.2025671506292426   F   F   F
  0.8340836447818845  0.3125456424590709  0.2025671506292426   F   F   F
  0.0828040740076017  0.9377126511253930  0.4514445458343882   T   T   T
  0.8364445627539095  0.4330087061718270  0.5430837227782344   T   T   T
  0.0853273423457135  0.8117112673801227  0.4551845314116590   T   T   T
  0.0840339548696193  0.4363279207771059  0.4530489309069166   T   T   T
  0.0848077983835359  0.0608360012577026  0.4550653092470502   T   T   T
  0.0848313971593851  0.5607135128098069  0.4544615072238645   T   T   T
  0.0848831997167156  0.3104810720833487  0.4536968257178183   T   T   T
  0.9154388506381459  0.8105635926739975  0.4550747180296261   T   T   T
  0.9150755795302580  0.0613900528817044  0.4545180929342625   T   T   T
  0.9160097425965209  0.5606879536683895  0.4540528170071990   T   T   T
  0.9164959832209026  0.3111421091908260  0.4546374748842278   T   T   T
  0.9168094122001463  0.1867508230411703  0.4533434214111744   T   T   T
  0.9181158520494829  0.6866415215013110  0.4530684501271715   T   T   T
  0.9172348191469126  0.5624885324787385  0.2838652796168972   F   F   F
  0.9172348191469126  0.0624885324787385  0.2838652796168972   F   F   F
  0.9172348191469126  0.8124885322646520  0.2838652796168972   F   F   F
  0.9172348191469126  0.3124885322646520  0.2838652796168972   F   F   F
  0.9179394199324264  0.9362499297544513  0.4534813882130461   T   T   T
  0.9175040576558828  0.4374754614066489  0.2839355729984092   F   F   F
  0.9175040576558828  0.6874754611925624  0.2839355729984092   F   F   F
  0.9175040576558828  0.9374754614066489  0.2839355729984092   F   F   F
  0.9175040576558828  0.1874754611925624  0.2839355729984092   F   F   F
  0.9176738211773555  0.4363878234499032  0.4529514851116890   T   T   T
  0.9953771641627405  0.6264945618652317  0.5437899116162307   T   T   T
  0.0021102169258445  0.1270680771048392  0.5428786362952037   T   T   T
  0.0000433035469082  0.7494059676618052  0.3696807814889562   T   T   T
  0.0007243401820193  0.6245204324240315  0.3695365612124983   T   T   T
 -0.0007317592330826  0.8742599021154749  0.3693968250641365   T   T   T
  0.0003475527080324  0.2494023582645242  0.3694053920779470   T   T   T
  0.0003567297865757  0.1243974551695715  0.3695657232865970   T   T   T
  0.1641599792072254  0.6720851816038793  0.5460189692401788   T   T   T
  0.1776012517895418  0.1722573894291028  0.5464027759888868   T   T   T
  0.1659163253997278  0.5625456426731574  0.2025671506292426   F   F   F
  0.1659163253997278  0.0625456426731503  0.2025671506292426   F   F   F
  0.1659163253997278  0.8125456424590709  0.2025671506292426   F   F   F
  0.1659163253997278  0.3125456424590709  0.2025671506292426   F   F   F
  0.1659898017733283  0.4375125970341855  0.2025194438276969   F   F   F
  0.1659898017733283  0.6875125968200990  0.2025194438276969   F   F   F
  0.1659898017733283  0.9375125970341855  0.2025194438276969   F   F   F
  0.1659898017733283  0.1875125968200990  0.2025194438276969   F   F   F
  0.1574739066922093  0.4286035777023217  0.5449976412802094   T   T   T
  0.1683205900139557  0.0625804268361145  0.3681531051521568   T   T   T
  0.1675306107987797  0.8123798829434150  0.3682460248140441   T   T   T
  0.1677727770840262  0.6874049509503880  0.3686299911788408   T   T   T
  0.1680915945186163  0.5624509997192505  0.3680256832106411   T   T   T