Cu	N	Ru	Ta                              
   1.00000000000000     
    18.1096308199999996    0.0000000000000000    0.0000000000000000
     0.0000000000000000   23.3551997799999995    0.0000000000000000
     0.0000000000000000    0.0000000000000000   30.4818171199999988
   Cu   N    Ru   Ta
     2   240    48   192
Selective dynamics
Direct
  0.5813134601083290  0.4366731328442373  0.5703523914851107   T   T   T
  0.4178330140202917  0.4398080779628002  0.5711293928142236   T   T   T
  0.0000000000000000  0.0000000000000000  0.3032267788896164   F   F   F
  0.0000000000000000  0.5000000000000000  0.3032267788896164   F   F   F
  0.0000000000000000  0.6249999998929567  0.3032267788896164   F   F   F
  0.0000000000000000  0.7500000002140865  0.3032267788896164   F   F   F
  0.0000000000000000  0.8750000001070433  0.3032267788896164   F   F   F
  0.0000000000000000  0.1249999998929567  0.3032267788896164   F   F   F
  0.0000000000000000  0.2500000002140865  0.3032267788896164   F   F   F
  0.0000000000000000  0.3750000001070433  0.3032267788896164   F   F   F
  0.0001552176174050  0.5004447837113988  0.4726027237003755   T   T   T
  0.0000422511833536  0.3744452585015233  0.4725289546532714   T   T   T
  0.0002746578551910  0.6256909340474645  0.4722686264458099   T   T   T
  0.9998929410573515  0.2492319109697553  0.4720943972545385   T   T   T
  0.0006130749175403  0.1250759968260980  0.4739575353866989   T   T   T
  0.0012033310891718  0.9992615656699381  0.4733435641161529   T   T   T
  0.5778951575306097  0.8868975230358780  0.5712800534932224   T   T   T
  0.5781096353611437  0.2300362241481927  0.5783841578742911   T   T   T
  0.5816492044476010  0.6425943722144684  0.5779705037560093   T   T   T
  0.5842722387076014  0.5183502492577234  0.5725891473776721   T   T   T
  0.5867151652937141  0.3548435404542086  0.5705847604134009   T   T   T
  0.5941133989389655  0.0000000000000000  0.2322132027803434   F   F   F
  0.5941133989389655  0.5000000000000000  0.2322132027803434   F   F   F
  0.5941133989389655  0.6249999998929567  0.2322132027803434   F   F   F
  0.5941133989389655  0.7500000002140865  0.2322132027803434   F   F   F
  0.5941133989389655  0.8750000001070433  0.2322132027803434   F   F   F
  0.5941133989389655  0.1249999998929567  0.2322132027803434   F   F   F
  0.5941133989389655  0.2500000002140865  0.2322132027803434   F   F   F
  0.5941133989389655  0.3750000001070433  0.2322132027803434   F   F   F
  0.5955337272034877  0.9949221760228607  0.5717178024561863   T   T   T
  0.5984961480563890  0.8746716314302913  0.4018129909750862   T   T   T
  0.5987309272182795  0.7499541693029813  0.4020094941967172   T   T   T
  0.5987980238643128  0.6247728710247009  0.4022236086275111   T   T   T
  0.5987715603413348  0.4996408436407134  0.4024478212143993   T   T   T
  0.5988374167638497  0.3754044306559245  0.4023017132526034   T   T   T
  0.5989944251839310  0.0005240770583722  0.4021091621902027   T   T   T
  0.5989923371208917  0.2501972776129167  0.4021905828265111   T   T   T
  0.5994258330063490  0.1250422752477805  0.4023926620404233   T   T   T
  0.6004597324595277  0.1121266747823056  0.5639031134489565   T   T   T
  0.6022028978442979  0.7614395256673738  0.5615832030947575   T   T   T
  0.6468264623627904  0.8747863960758039  0.4854492457511689   T   T   T
  0.6498081671842796  0.6231709506731585  0.4851313410875213   T   T   T
  0.6501733621433124  0.2524603515774865  0.4847323596064632   T   T   T
  0.6507555386439933  0.9996147435002890  0.4866684946464613   T   T   T
  0.6526471008587454  0.4982322299398909  0.4857855638000035   T   T   T
  0.6530260921925414  0.3765046432736390  0.4855267541225347   T   T   T
  0.6532698000635530  0.7504930689117748  0.4844899328895016   T   T   T
  0.6539590000789031  0.1242227251476237  0.4858598901653333   T   T   T
  0.6545990963497701  0.0000000000000000  0.3156671842141137   F   F   F
  0.6545990963497701  0.5000000000000000  0.3156671842141137   F   F   F
  0.6545990963497701  0.6249999998929567  0.3156671842141137   F   F   F
  0.6545990963497701  0.7500000002140865  0.3156671842141137   F   F   F
  0.6545990963497701  0.8750000001070433  0.3156671842141137   F   F   F
  0.6545990963497701  0.1249999998929567  0.3156671842141137   F   F   F
  0.6545990963497701  0.2500000002140865  0.3156671842141137   F   F   F
  0.6545990963497701  0.3750000001070433  0.3156671842141137   F   F   F
  0.7268891101529444  0.2396692041246590  0.5565328015904044   T   T   T
  0.7267831150080806  0.8736658374603089  0.5563023321179312   T   T   T
  0.7278590789549456  0.6368574313930857  0.5567190781018584   T   T   T
  0.7351327146199469  0.3709384240569821  0.5593746858835095   T   T   T
  0.7355487955773591  0.5036029522680485  0.5593367187871138   T   T   T
  0.7398073328149148  0.9886910041921620  0.5563176898134715   T   T   T
  0.7493570563319366  0.8750663238460425  0.3871026772806017   T   T   T
  0.7499342399345797  0.7498794307747421  0.3872642605995377   T   T   T
  0.7499642699094115  0.9999533311554318  0.3881105183671018   T   T   T
  0.7499097772801343  0.6249463821045950  0.3871816404126563   T   T   T
  0.7499999997239044  0.0000000000000000  0.1996562654398630   F   F   F
  0.7499999997239044  0.5000000000000000  0.1996562654398630   F   F   F
  0.7499999997239044  0.6249999998929567  0.1996562654398630   F   F   F
  0.7499999997239044  0.7500000002140865  0.1996562654398630   F   F   F
  0.7499999997239044  0.8750000001070433  0.1996562654398630   F   F   F
  0.7499999997239044  0.1249999998929567  0.1996562654398630   F   F   F
  0.7499999997239044  0.2500000002140865  0.1996562654398630   F   F   F
  0.7499999997239044  0.3750000001070433  0.1996562654398630   F   F   F
  0.7500002606197249  0.2499929492717946  0.3871498056995577   T   T   T
  0.7501544781175682  0.1248627447592045  0.3877596258901346   T   T   T
  0.7501592265475341  0.5000135421527947  0.3872489955680202   T   T   T
  0.7502235052674719  0.3750343309910599  0.3871116665873070   T   T   T
  0.7732771360050512  0.1145000360228398  0.5574447657640933   T   T   T
  0.0777499835612492  0.8701178080299382  0.5697126707165028   T   T   T
  0.7791546605036918  0.7606592306240383  0.5610643184735830   T   T   T
  0.0779624754220301  0.1118418080492555  0.5790303243612739   T   T   T
  0.8452619225161255  0.8750993988569223  0.4843712004928283   T   T   T
  0.8454009036502299  0.0000000000000000  0.3156671842141137   F   F   F
  0.8454009036502299  0.5000000000000000  0.3156671842141137   F   F   F
  0.8454009036502299  0.6249999998929567  0.3156671842141137   F   F   F
  0.8454009036502299  0.7500000002140865  0.3156671842141137   F   F   F
  0.8454009036502299  0.8750000001070433  0.3156671842141137   F   F   F
  0.8454009036502299  0.1249999998929567  0.3156671842141137   F   F   F
  0.8454009036502299  0.2500000002140865  0.3156671842141137   F   F   F
  0.8454009036502299  0.3750000001070433  0.3156671842141137   F   F   F
  0.8471423941778734  0.2503855320162183  0.4863119464106463   T   T   T
  0.8475370832363838  0.6238336279433572  0.4857457567168209   T   T   T
  0.8495141561001004  0.9985727227522168  0.4878365030063019   T   T   T
  0.8494697331844460  0.4995336423123102  0.4863991424772658   T   T   T
  0.8495000697116557  0.3755631114270880  0.4864597266389711   T   T   T
  0.8508930060530882  0.7487259446371497  0.4881034508189319   T   T   T
  0.8517184146285183  0.1257576025244436  0.4872934290291064   T   T   T
  0.0870981332587522  0.7641381674583608  0.5736539399078378   T   T   T
  0.8947253864787074  0.8823005967684843  0.5635564083448360   T   T   T
  0.9000887812194330  0.8750608724395641  0.4021352894578190   T   T   T
  0.9004332095151013  0.7498871136195877  0.4027565979403201   T   T   T
  0.9006718040692319  0.6255605599678949  0.4018572647199017   T   T   T
  0.9007006256686129  0.9998714344193931  0.4023162065716029   T   T   T
  0.9005331383376934  0.4998829304402943  0.4015855531470071   T   T   T
  0.9004775841235838  0.3750486607764200  0.4016162384449779   T   T   T
  0.9005485424725018  0.2494785683817912  0.4019707299502359   T   T   T
  0.9010730994924380  0.1251184977962854  0.4024069171934995   T   T   T
  0.9026000486217486  0.2305591764461746  0.5631442504933708   T   T   T
  0.9030017554907582  0.6458707267865712  0.5620782500280017   T   T   T
  0.0905502161343488  0.3704065981356434  0.5708036410078736   T   T   T
  0.9058866010610345  0.0000000000000000  0.2322132027803434   F   F   F
  0.9058866010610345  0.5000000000000000  0.2322132027803434   F   F   F
  0.9058866010610345  0.6249999998929567  0.2322132027803434   F   F   F
  0.9058866010610345  0.7500000002140865  0.2322132027803434   F   F   F
  0.9058866010610345  0.8750000001070433  0.2322132027803434   F   F   F
  0.9058866010610345  0.1249999998929567  0.2322132027803434   F   F   F
  0.9058866010610345  0.2500000002140865  0.2322132027803434   F   F   F
  0.9058866010610345  0.3750000001070433  0.2322132027803434   F   F   F
  0.9094574855129051  0.3710234128068768  0.5707767534289250   T   T   T
  0.9094565901753110  0.5043096681312574  0.5705846581732340   T   T   T
  0.0911784108195573  0.5034148028193669  0.5706188919335212   T   T   T
  0.9197592094753969  0.1134480497491934  0.5766385229778608   T   T   T
  0.9211346730393728  0.0053431214738968  0.5699109104283813   T   T   T
  0.9275631474522630  0.7604149708274072  0.5806684363712529   T   T   T
  0.0941133989389655  0.0000000000000000  0.2322132027803434   F   F   F
  0.0941133989389655  0.5000000000000000  0.2322132027803434   F   F   F
  0.0941133989389655  0.6249999998929567  0.2322132027803434   F   F   F
  0.0941133989389655  0.7500000002140865  0.2322132027803434   F   F   F
  0.0941133989389655  0.8750000001070433  0.2322132027803434   F   F   F
  0.0941133989389655  0.1249999998929567  0.2322132027803434   F   F   F
  0.0941133989389655  0.2500000002140865  0.2322132027803434   F   F   F
  0.0941133989389655  0.3750000001070433  0.2322132027803434   F   F   F
  0.0982094432976065  0.2294372576452818  0.5622835649048491   T   T   T
  0.0986598896111501  0.8753867553801196  0.4017674938529248   T   T   T
  0.0986483104077216  0.7497427611769599  0.4022381848999336   T   T   T
  0.0993429778196592  0.0001290851582501  0.4020016309768472   T   T   T
  0.0993934743701188  0.6256071849351452  0.4020065090646525   T   T   T
  0.0994386382412363  0.1251670079903837  0.4023261382779887   T   T   T
  0.0993915912603333  0.2496164615548526  0.4016771857714096   T   T   T
  0.0994813469075053  0.3751407183668096  0.4015193243374367   T   T   T
  0.0995431464445021  0.4998949170673092  0.4015511002682425   T   T   T
  0.0994255281496570  0.6441310736771259  0.5630031738781636   T   T   T
  0.9980549975065034  0.8762974065302793  0.4727775241577407   T   T   T
  0.9993353385252786  0.7500014983526356  0.4739674735083201   T   T   T
  0.1062137106586463  0.9912679758614271  0.5643277411696846   T   T   T
  0.1479906090447150  0.8757682491640019  0.4856759732631365   T   T   T
  0.1480833523459608  0.7505343542507397  0.4870597823158094   T   T   T
  0.1494889617849132  0.1269541431729398  0.4866898421575018   T   T   T
  0.1506564047058324  0.3753830177203378  0.4862406233550645   T   T   T
  0.1507789583641118  0.4995510407462601  0.4862162531176869   T   T   T
  0.1527351729040871  0.2508941069641411  0.4856082225732240   T   T   T
  0.1529329000558399  0.6243441809134866  0.4861951293290506   T   T   T
  0.1541485688795618  0.9994213604420923  0.4847111656456140   T   T   T
  0.1545990963497701  0.0000000000000000  0.3156671842141137   F   F   F
  0.1545990963497701  0.5000000000000000  0.3156671842141137   F   F   F
  0.1545990963497701  0.6249999998929567  0.3156671842141137   F   F   F
  0.1545990963497701  0.7500000002140865  0.3156671842141137   F   F   F
  0.1545990963497701  0.8750000001070433  0.3156671842141137   F   F   F
  0.1545990963497701  0.1249999998929567  0.3156671842141137   F   F   F
  0.1545990963497701  0.2500000002140865  0.3156671842141137   F   F   F
  0.1545990963497701  0.3750000001070433  0.3156671842141137   F   F   F
  0.2245971946504048  0.1138934968568687  0.5578491252514138   T   T   T
  0.2321368894600133  0.7569542905453739  0.5559635680799168   T   T   T
  0.2370635593058282  0.8740775910548313  0.5528208730497072   T   T   T
  0.2496583257798395  0.7500223494359575  0.3876388253312591   T   T   T
  0.2498401079304821  0.4999237878963308  0.3869950880683910   T   T   T
  0.2498439615651246  0.8750117025024574  0.3878943494542653   T   T   T
  0.2499376446456709  0.3750420886745888  0.3871979046442903   T   T   T
  0.2499843652356948  0.6249939605589306  0.3870269045460361   T   T   T
  0.2501945062568450  0.2501152905962583  0.3870260636500354   T   T   T
  0.2502011792793334  0.1250447088539839  0.3871712271377788   T   T   T
  0.2499999997239044  0.0000000000000000  0.1996562654398630   F   F   F
  0.2499999997239044  0.5000000000000000  0.1996562654398630   F   F   F
  0.2499999997239044  0.6249999998929567  0.1996562654398630   F   F   F
  0.2499999997239044  0.7500000002140865  0.1996562654398630   F   F   F
  0.2499999997239044  0.8750000001070433  0.1996562654398630   F   F   F
  0.2499999997239044  0.1249999998929567  0.1996562654398630   F   F   F
  0.2499999997239044  0.2500000002140865  0.1996562654398630   F   F   F
  0.2499999997239044  0.3750000001070433  0.1996562654398630   F   F   F
  0.2504142788347423  0.9999144409551557  0.3878019161767315   T   T   T
  0.2631168336959781  0.3719478248153491  0.5586829548662494   T   T   T
  0.2665660705617304  0.5048426590236186  0.5591703842727506   T   T   T
  0.2721169965641786  0.2385188903997347  0.5564967595904541   T   T   T
  0.2773970515351183  0.9917803588834476  0.5588118384245049   T   T   T
  0.2782135719131444  0.6368849105899954  0.5566088599382506   T   T   T
  0.3454009036502299  0.0000000000000000  0.3156671842141137   F   F   F
  0.3454009036502299  0.5000000000000000  0.3156671842141137   F   F   F
  0.3454009036502299  0.6249999998929567  0.3156671842141137   F   F   F
  0.3454009036502299  0.7500000002140865  0.3156671842141137   F   F   F
  0.3454009036502299  0.8750000001070433  0.3156671842141137   F   F   F
  0.3454009036502299  0.1249999998929567  0.3156671842141137   F   F   F
  0.3454009036502299  0.2500000002140865  0.3156671842141137   F   F   F
  0.3454009036502299  0.3750000001070433  0.3156671842141137   F   F   F
  0.3458736679451399  0.7497292785700516  0.4851303466103524   T   T   T
  0.3467351642458834  0.1252828981194426  0.4846443553556534   T   T   T
  0.3473583629634358  0.4986680679951641  0.4854012829829754   T   T   T
  0.3475873072384445  0.3766014817623550  0.4857760578550266   T   T   T
  0.3482200831682445  0.8723603979207528  0.4857458963495207   T   T   T
  0.3500642590985186  0.2520770758177822  0.4851467418100305   T   T   T
  0.3502115423684619  0.6226076273354623  0.4841295420826243   T   T   T
  0.3536063009272412  0.0012562862122565  0.4889650513412634   T   T   T
  0.4003375959207287  0.8750781765172189  0.4022675350433221   T   T   T
  0.3996158211970819  0.1140667038661920  0.5608774801083148   T   T   T
  0.4004966572380887  0.7495177431348191  0.4020271456896163   T   T   T
  0.4008382797108191  0.9999599788857015  0.4031566179288175   T   T   T
  0.4013952060290623  0.7682159177020464  0.5611495191033804   T   T   T
  0.4012323797084374  0.6248616911167619  0.4020254987839742   T   T   T
  0.4012297996305719  0.1250226100035006  0.4021320814907364   T   T   T
  0.4014412434970643  0.4995159497109761  0.4022794090449276   T   T   T
  0.4014124615301064  0.2502868290870441  0.4021710446725978   T   T   T
  0.4014807035606042  0.3754429813144166  0.4024139169816555   T   T   T
  0.4058866010610345  0.0000000000000000  0.2322132027803434   F   F   F
  0.4058866010610345  0.5000000000000000  0.2322132027803434   F   F   F
  0.4058866010610345  0.6249999998929567  0.2322132027803434   F   F   F
  0.4058866010610345  0.7500000002140865  0.2322132027803434   F   F   F
  0.4058866010610345  0.8750000001070433  0.2322132027803434   F   F   F
  0.4058866010610345  0.1249999998929567  0.2322132027803434   F   F   F
  0.4058866010610345  0.2500000002140865  0.2322132027803434   F   F   F
  0.4058866010610345  0.3750000001070433  0.2322132027803434   F   F   F
  0.4071760025681116  0.8851197052346517  0.5691887314358741   T   T   T
  0.4123435532416020  0.5218341722358198  0.5718203045862486   T   T   T
  0.4152513484814822  0.3582025068829917  0.5736305401725194   T   T   T
  0.4206488460794320  0.2300394729435050  0.5792437282611055   T   T   T
  0.4257051670901897  0.6501678128502935  0.5807730499689244   T   T   T
  0.4345342530400226  0.0056363346839623  0.5811513423738790   T   T   T
  0.4985303403871439  0.8744321002614377  0.4724925575541535   T   T   T
  0.4994732725250171  0.7503046784825274  0.4731780973488272   T   T   T
  0.5001368008828500  0.6251164008490071  0.4748437946373661   T   T   T
  0.5000822883326219  0.3746415395841970  0.4751096467130761   T   T   T
  0.5001882446405960  0.2501566039789575  0.4748051802236474   T   T   T
  0.5000000000000000  0.0000000000000000  0.3032267788896164   F   F   F
  0.5000000000000000  0.5000000000000000  0.3032267788896164   F   F   F
  0.5000000000000000  0.6249999998929567  0.3032267788896164   F   F   F
  0.5000000000000000  0.7500000002140865  0.3032267788896164   F   F   F
  0.5000000000000000  0.8750000001070433  0.3032267788896164   F   F   F
  0.5000000000000000  0.1249999998929567  0.3032267788896164   F   F   F
  0.5000000000000000  0.2500000002140865  0.3032267788896164   F   F   F
  0.5000000000000000  0.3750000001070433  0.3032267788896164   F   F   F
  0.5002283766586784  0.5002511638173003  0.4753215665839176   T   T   T
  0.5007686739316909  0.0011793898578760  0.4737197466945022   T   T   T
  0.5006192135462652  0.1250862861735261  0.4732205240155358   T   T   T
  0.0000281753505615  0.3714644450314846  0.5413313180355305   T   T   T
  0.0002837630751222  0.5031629567008375  0.5413953289424565   T   T   T
  0.0016016502361420  0.6418794880561922  0.5380983932968723   T   T   T
  0.0032768150774152  0.9943141407119894  0.5407051150332551   T   T   T
  0.0051131117873498  0.7546093669179615  0.5445366776877258   T   T   T
  0.6350943720279756  0.1814686959443222  0.5419867540043907   T   T   T
  0.6386047184824474  0.6895937370572583  0.5395807094513783   T   T   T
  0.6480210703228543  0.9351230356624379  0.5379598011404825   T   T   T
  0.6879823845184309  0.3075195470502306  0.5361386517147719   T   T   T
  0.6907604513456523  0.5672040017359604  0.5361888764407031   T   T   T
  0.6975599766347528  0.8014502094314216  0.5381633860619063   T   T   T
  0.7042650517860614  0.0611265338900523  0.5381318801671745   T   T   T
  0.7071089807067606  0.4372314726018250  0.5335790328699499   T   T   T
  0.7994729876885333  0.9271941495035607  0.5359226768394887   T   T   T
  0.7997245918467797  0.1881777388436001  0.5370595165833053   T   T   T
  0.8023019000357184  0.6870286189301587  0.5371162409446456   T   T   T
  0.8629343488503949  0.0633585597783020  0.5398507061702363   T   T   T
  0.8712204392773981  0.8084453636415130  0.5459398892442295   T   T   T
  0.8757683431685503  0.4376010496321568  0.5397168655760112   T   T   T
  0.8806578795816815  0.3019426144060008  0.5399575666433990   T   T   T
  0.8815245876151445  0.5736457384493374  0.5397930396226998   T   T   T
  0.9974536631387747  0.8812712643416056  0.5399836044228367   T   T   T
  0.9998059975087240  0.2331934095992811  0.5379191378737549   T   T   T
  0.9998511985429176  0.1207420976970778  0.5451740468404699   T   T   T
  0.1193365957727672  0.3014506524430146  0.5398137135078377   T   T   T
  0.1199987508351171  0.5723389805749148  0.5395874008545959   T   T   T
  0.1246525298822060  0.4369180981735544  0.5397977208419105   T   T   T
  0.1338446146713101  0.0626689043225039  0.5430626859666652   T   T   T
  0.1462486070488901  0.8148676007472989  0.5384377196998826   T   T   T
  0.1985166742796985  0.1871248847536774  0.5367859966097923   T   T   T
  0.2000930523249214  0.9455544151665948  0.5365311475344730   T   T   T
  0.2006151744649291  0.6846578625879169  0.5374418587067330   T   T   T
  0.2932898695600601  0.4383311967353569  0.5333880813887387   T   T   T
  0.3007749605832363  0.8129940547968728  0.5354007917663891   T   T   T
  0.3009540621684390  0.0669543571001532  0.5369727554321004   T   T   T
  0.3078490923062855  0.3080242023447526  0.5353891880266266   T   T   T
  0.3157552446867571  0.5679167325306065  0.5361396355733485   T   T   T
  0.3620498652027481  0.1854680504918377  0.5400148163431010   T   T   T
  0.3685378013428341  0.6954203688127896  0.5432297084806543   T   T   T
  0.3771677017178188  0.9560338009437445  0.5508548396643610   T   T   T
  0.4978230776000342  0.8781609496093263  0.5405246109026518   T   T   T
  0.4988877565281530  0.2415617781407429  0.5461756185773603   T   T   T
  0.4985287867190345  0.3540015574185403  0.5435128696227784   T   T   T
  0.5008648985658221  0.1166903908218400  0.5399711728472046   T   T   T
  0.5016636250619749  0.7630447312630632  0.5392627016695001   T   T   T
  0.5011159807622000  0.6341241301917550  0.5462022413134622   T   T   T
  0.4999733216342899  0.5223967168880423  0.5433436420344068   T   T   T
  0.5129070880812081  0.0052715540035647  0.5433461273607164   T   T   T
  0.0000000000000000  0.0000000000000000  0.1972002481458333   F   F   F
  0.0000000000000000  0.5000000000000000  0.1972002481458333   F   F   F
  0.0000000000000000  0.6249999998929567  0.1972002481458333   F   F   F
  0.0000000000000000  0.7500000002140865  0.1972002481458333   F   F   F
  0.0000000000000000  0.8750000001070433  0.1972002481458333   F   F   F
  0.0000000000000000  0.1249999998929567  0.1972002481458333   F   F   F
  0.0000000000000000  0.2500000002140865  0.1972002481458333   F   F   F
  0.0000000000000000  0.3750000001070433  0.1972002481458333   F   F   F
  0.0002345355316060  0.1248495167126913  0.3699083594454924   T   T   T
  0.9999690091133745  0.3752525898506451  0.3697676393589409   T   T   T
  0.9999222967268151  0.2497041771513601  0.3698045006642903   T   T   T
  0.0000266350508983  0.4997989629103334  0.3697539032891743   T   T   T
  0.0000056852611863  0.6253528489933446  0.3698603638526913   T   T   T
  0.0000296142355841  0.0001768511018606  0.3698766951282544   T   T   T
  0.5825649636030105  0.8122991553033658  0.4545245760628603   T   T   T
  0.5825346300460907  0.4375000002676046  0.2838671249793236   F   F   F
  0.5825346300460907  0.5625000001605613  0.2838671249793236   F   F   F
  0.5825346300460907  0.0625000001605613  0.2838671249793236   F   F   F
  0.5825346300460907  0.6875000000535181  0.2838671249793236   F   F   F
  0.5825346300460907  0.8124999999464819  0.2838671249793236   F   F   F
  0.5825346300460907  0.9375000002676046  0.2838671249793236   F   F   F
  0.5825346300460907  0.1875000000535181  0.2838671249793236   F   F   F
  0.5825346300460907  0.3124999999464819  0.2838671249793236   F   F   F
  0.5829578043938354  0.9376968231354149  0.4537999066860768   T   T   T
  0.5834035881261259  0.6871720110894430  0.4544764236779437   T   T   T
  0.5835357507303361  0.5617604531646687  0.4547366657939175   T   T   T
  0.5840282941841664  0.3130634389699543  0.4544319305895790   T   T   T
  0.5842138366473413  0.4374611892376059  0.4549828360007359   T   T   T
  0.5847849652291210  0.0628102110583422  0.4550236490812959   T   T   T
  0.5846902767597253  0.1877266251025353  0.4550249256621929   T   T   T
  0.6657105641648826  0.4375000002676046  0.2025710526275901   F   F   F
  0.6657105641648826  0.5625000001605613  0.2025710526275901   F   F   F
  0.6657105641648826  0.0625000001605613  0.2025710526275901   F   F   F
  0.6657105641648826  0.6875000000535181  0.2025710526275901   F   F   F
  0.6657105641648826  0.8124999999464819  0.2025710526275901   F   F   F
  0.6657105641648826  0.9375000002676046  0.2025710526275901   F   F   F
  0.6657105641648826  0.1875000000535181  0.2025710526275901   F   F   F
  0.6657105641648826  0.3124999999464819  0.2025710526275901   F   F   F
  0.6674162556636376  0.8124030035599639  0.3682363715091197   T   T   T
  0.6673966977726281  0.9375736151862325  0.3682041486179914   T   T   T
  0.6675995337307777  0.6874271334995790  0.3681704621789461   T   T   T
  0.6676000437589756  0.5624360117262029  0.3683867721869228   T   T   T
  0.6677017120345463  0.0624964892813222  0.3685359741995548   T   T   T
  0.6677089166884774  0.1875370667173576  0.3683058820539951   T   T   T
  0.6677020959295084  0.3125721907679717  0.3682540738782457   T   T   T
  0.6677428038570986  0.4375126366806931  0.3684300842323091   T   T   T
  0.7470470319274499  0.8736524367764847  0.4549673461703069   T   T   T
  0.7495569535125595  0.6244614659884742  0.4550834132724671   T   T   T
  0.7495950362664581  0.2504303983588423  0.4550314277754403   T   T   T
  0.7499999997239044  0.0000000000000000  0.2777865629422820   F   F   F
  0.7499999997239044  0.5000000000000000  0.2777865629422820   F   F   F
  0.7499999997239044  0.6249999998929567  0.2777865629422820   F   F   F
  0.7499999997239044  0.7500000002140865  0.2777865629422820   F   F   F
  0.7499999997239044  0.8750000001070433  0.2777865629422820   F   F   F
  0.7499999997239044  0.1249999998929567  0.2777865629422820   F   F   F
  0.7499999997239044  0.2500000002140865  0.2777865629422820   F   F   F
  0.7499999997239044  0.3750000001070433  0.2777865629422820   F   F   F
  0.7508548581363685  0.9992077762608828  0.4564468816923560   T   T   T
  0.7512775692019329  0.5004845294080282  0.4553656204202282   T   T   T
  0.7516061256573489  0.3746492747416604  0.4551395093669217   T   T   T
  0.7521605497234214  0.7499701406493980  0.4554824812544722   T   T   T
  0.7520964466377252  0.1247099050630973  0.4558886726645350   T   T   T
  0.0826548327413492  0.8126610683928753  0.4539437170870229   T   T   T
  0.0825346300460907  0.4375000002676046  0.2838671249793236   F   F   F
  0.0825346300460907  0.5625000001605613  0.2838671249793236   F   F   F
  0.0825346300460907  0.0625000001605613  0.2838671249793236   F   F   F
  0.0825346300460907  0.6875000000535181  0.2838671249793236   F   F   F
  0.0825346300460907  0.8124999999464819  0.2838671249793236   F   F   F
  0.0825346300460907  0.9375000002676046  0.2838671249793236   F   F   F
  0.0825346300460907  0.1875000000535181  0.2838671249793236   F   F   F
  0.0825346300460907  0.3124999999464819  0.2838671249793236   F   F   F
  0.0834698886412084  0.6873482206357379  0.4551869815817321   T   T   T
  0.8319593328347002  0.9375580377596031  0.3682135380681369   T   T   T
  0.8320265030466137  0.8124896253354500  0.3684865738644812   T   T   T
  0.8322114820631302  0.6875409546063843  0.3682001694288871   T   T   T
  0.8321846776211507  0.5625312728473091  0.3680416626914224   T   T   T
  0.8322048353416802  0.4375017743009916  0.3677806343484464   T   T   T
  0.8324859599190872  0.0624681304084457  0.3685212249126022   T   T   T
  0.8322572850253839  0.3124697837096409  0.3679916139340329   T   T   T
  0.8324165714829450  0.1873782881703736  0.3683403899682261   T   T   T
  0.8342894060167296  0.4375000002676046  0.2025710526275901   F   F   F
  0.8342894060167296  0.5625000001605613  0.2025710526275901   F   F   F
  0.8342894060167296  0.0625000001605613  0.2025710526275901   F   F   F
  0.8342894060167296  0.6875000000535181  0.2025710526275901   F   F   F
  0.8342894060167296  0.8124999999464819  0.2025710526275901   F   F   F
  0.8342894060167296  0.9375000002676046  0.2025710526275901   F   F   F
  0.8342894060167296  0.1875000000535181  0.2025710526275901   F   F   F
  0.8342894060167296  0.3124999999464819  0.2025710526275901   F   F   F
  0.0838683828786996  0.9377223718008191  0.4540591655171236   T   T   T
  0.0839122880811790  0.1879369616850194  0.4545960769367661   T   T   T
  0.0839308497305574  0.3128543864947656  0.4538354227501962   T   T   T
  0.0839966669307423  0.4375163252496835  0.4539795040607601   T   T   T
  0.0840830544438149  0.5621848640724770  0.4539941622045877   T   T   T
  0.0845888076057434  0.0627100865641292  0.4550442216916612   T   T   T
  0.9144603669543172  0.9378161581526852  0.4545552160425249   T   T   T
  0.9150696995250528  0.8124977783657857  0.4555079484176887   T   T   T
  0.9159354305299444  0.3127455843777925  0.4540526832934342   T   T   T
  0.9162522475303366  0.6871529349080704  0.4549923374906058   T   T   T
  0.9161806237945895  0.4374890441464777  0.4539356667375278   T   T   T
  0.9162668530189014  0.5621381703407430  0.4538279681522353   T   T   T
  0.9164326554881684  0.0623109810832859  0.4547015162393943   T   T   T
  0.9165124670560111  0.1877062829190944  0.4549319698529622   T   T   T
  0.9174653699539093  0.4375000002676046  0.2838671249793236   F   F   F
  0.9174653699539093  0.5625000001605613  0.2838671249793236   F   F   F
  0.9174653699539093  0.0625000001605613  0.2838671249793236   F   F   F
  0.9174653699539093  0.6875000000535181  0.2838671249793236   F   F   F
  0.9174653699539093  0.8124999999464819  0.2838671249793236   F   F   F
  0.9174653699539093  0.9375000002676046  0.2838671249793236   F   F   F
  0.9174653699539093  0.1875000000535181  0.2838671249793236   F   F   F
  0.9174653699539093  0.3124999999464819  0.2838671249793236   F   F   F
  0.9992642118850915  0.8751013256894216  0.3698385920735659   T   T   T
  0.9994172827320725  0.7500600114197955  0.3699426899653014   T   T   T
  0.1657105641648826  0.4375000002676046  0.2025710526275901   F   F   F
  0.1657105641648826  0.5625000001605613  0.2025710526275901   F   F   F
  0.1657105641648826  0.0625000001605613  0.2025710526275901   F   F   F
  0.1657105641648826  0.6875000000535181  0.2025710526275901   F   F   F