Ta Ru N Cu                              
   1.00000000000000     
    18.1096308199999996    0.0000000000000000    0.0000000000000000
     0.0000000000000000   23.3551997799999995    0.0000000000000000
     0.0000000000000000    0.0000000000000000   28.4818170799999990
   Ta   Ru   N    Cu
   240    64   240    29
Direct
  0.9933176488488414  0.0037458283050344  0.2128005870414968
  0.3252324313679173  0.0605885053983864  0.2176521853625297
  0.1662527412888288  0.0623451553530523  0.2183709061609904
  0.2455405173029432  0.1297465972623560  0.2983896831682941
  0.0824271218152162  0.0621496138921995  0.3057685248368813
  0.4124198617970152  0.0611520817074468  0.3066751045484001
  0.0002761213040316  0.1258073987624545  0.3971027994393849
  0.3330672340473120  0.0626715873350244  0.3949665553164677
  0.1652071720679098  0.0631485989497019  0.3952273665793891
  0.2490685122885564  0.1275745976868947  0.4870078865347956
  0.0827295208657400  0.0663674625079296  0.4866123347934858
  0.4145424014136096  0.0647903214605386  0.4893039069581090
  0.5000947923088173  0.1234459124463387  0.5779618235598666
  0.3362653085759106  0.0688375145682444  0.5798638699761537
  0.1584337635598095  0.0632854418169042  0.5807323789684528
  0.9981616686310445  0.1284186177479183  0.2157023808581854
  0.3244985679919433  0.1943918166535612  0.2168821101780269
  0.1632099621617832  0.1936546535649652  0.2159162446890096
  0.2496080376859338  0.2558886427768119  0.3000381670068706
  0.0799471862725365  0.1933824275032051  0.3033666327118857
  0.4108962814471798  0.1864293867533448  0.3070599780747863
  0.9996787914277768  0.2523472325515513  0.3999923395162840
  0.3321408625568227  0.1894946904192144  0.3980200436388199
  0.1701582005027686  0.1917231201058789  0.3960814688002713
  0.2502660660816962  0.2507307043006944  0.4875304116815302
  0.0836433451820071  0.1885023307109530  0.4876272555223200
  0.4206677163874121  0.1848871601025208  0.4872991667989416
  0.5045263345713749  0.2432098001392675  0.5779384348912104
  0.3343429525067774  0.1943289730067292  0.5771930095527450
  0.1635055386088735  0.1880892835503067  0.5822589745360787
  0.9924332894999348  0.2541252185108187  0.2129237493477653
  0.3251878242879709  0.3085906309030285  0.2153133766773262
  0.1643336651428332  0.3132614342825398  0.2121525282051491
  0.2520614698670195  0.3741069622845374  0.3022493711741028
  0.0798086854586342  0.3175817084635917  0.3070287725467096
  0.4101920940120878  0.3122306296210463  0.3051716655511263
  0.0035595774473470  0.3766437648271385  0.3998705769571297
  0.3382880861351382  0.3135685068264164  0.3954338871274969
  0.1655538808546359  0.3159801000744857  0.3983167909485985
  0.2465507493037740  0.3740408837996600  0.4917967434444828
  0.0825402533231760  0.3125458222571947  0.4856529304288350
  0.4202951715452954  0.3151696212374113  0.4905503581425699
  0.5063186666013614  0.3733898559181965  0.5809892093291078
  0.3303722826358000  0.3154760199762102  0.5808782117415893
  0.1639689362425282  0.3150712073344392  0.5817181472843673
  0.9982495891581842  0.3737088463728105  0.2119814087762399
  0.3292298735495147  0.4381708294224769  0.2183083561422360
  0.1683806795945159  0.4412424085062054  0.2187256895465905
  0.2450432360732517  0.0040337224440266  0.2999347487295797
  0.0780813050595327  0.4380156099157498  0.3077079271891690
  0.4228516461377024  0.4332902977457594  0.3035287100321912
  0.5017746441210913  0.4997413671782942  0.3948878079620223
  0.3361924659403491  0.4405943143431366  0.3947984471739138
  0.1701338615134059  0.4375569221634535  0.3990803919146841
  0.2466501158264144  0.4990156371194876  0.4901524153430367
  0.0879862134845434  0.4361658526003717  0.4917495972399508
  0.4251225262867462  0.4380310031148449  0.4899360825675704
  0.5003373820127371  0.4984358245388807  0.5778104408257738
  0.3338727008389443  0.4381886066116301  0.5812223602411750
  0.1639236547338286  0.4371639232030947  0.5859789592907945
  0.9935816297352748  0.5019656785747935  0.2131214763887047
  0.3275478058623268  0.5570363160150962  0.2148920826242007
  0.1635804400192630  0.5536873434666972  0.2186288839279712
  0.2456681619929712  0.6235097969034870  0.2969572104976215
  0.0812553153639271  0.5622312455934092  0.3078269352506601
  0.4112867007656710  0.5606827745899615  0.3004339720127579
  0.9998895954560462  0.6249187165576627  0.3951021952484380
  0.3375596688128009  0.5607279288270950  0.3966645895227460
  0.1674802803308275  0.5586251272884892  0.3950154479930734
  0.2497590694640168  0.6291164967032666  0.4878192492969331
  0.0830538601475167  0.5620250906093338  0.4917673284168850
  0.4211807284859443  0.5652059159190794  0.4881473684392981
  0.5028833306063498  0.6227237321477442  0.5776361653412815
  0.3293529519682800  0.5651139169091144  0.5789653952599397
  0.1748498639072223  0.5649807450885174  0.5865021451107123
  0.0005794221979480  0.6244091592209179  0.2136754032065126
  0.3221209403296825  0.6955858940514541  0.2167214443194630
  0.1675450237429882  0.6881911881331400  0.2187500091971166
  0.2523229432663759  0.7452707021330881  0.2988556721980007
  0.0796663660949372  0.6877452391347776  0.3033208268669853
  0.4093459526807299  0.6879208902285499  0.2997069638302292
  0.0011452768760892  0.7482592203236522  0.3943117822563403
  0.3308754693666523  0.6859934179222521  0.3940956453517039
  0.1705274799993130  0.6869698669796424  0.3963259755684160
  0.2459549780265114  0.7516752727524303  0.4825028888575639
  0.0790916601455743  0.6887873267298525  0.4845210276352500
  0.4170993110057709  0.6867645361440644  0.4850400064774530
  0.4981215827172780  0.7552847862438840  0.5747212975928520
  0.3366130050318601  0.6890688059385341  0.5780840017323389
  0.1689130096051066  0.6882146494024118  0.5786444498695853
  0.9957905021005471  0.7499012192819667  0.2038234232628075
  0.3255238157618224  0.8104284421022330  0.2158381514420542
  0.1639649591893984  0.8089397016892836  0.2165367353261069
  0.2508754418905960  0.8718997209306355  0.2949028765492390
  0.0815551820471320  0.8139494745454240  0.2973321751346585
  0.4179620980030215  0.8141483407798583  0.3025154498184734
  0.0042094225718455  0.8793463675471089  0.3933768195941864
  0.3323962387286429  0.8117134810417931  0.3933071433634872
  0.1685178913326169  0.8134507180973581  0.3922918635170671
  0.2563219269756838  0.8771865167382763  0.4863362228667644
  0.0827243677286284  0.8106122455972912  0.4875095479120077
  0.4144313481964303  0.8136902815665656  0.4859960632215801
  0.5016611299717665  0.8748604178271896  0.5778065119516227
  0.3359772146833634  0.8140263914257193  0.5785180224727142
  0.1637613060354530  0.8133626007782239  0.5799139553214079
  0.9949647003539024  0.8834629740480141  0.2001623000410375
  0.3230577003023928  0.9426708148497849  0.2148491014424565
  0.1600547690685954  0.9434928379284842  0.2150653002567518
  0.2449822965377466  0.4957960021694801  0.2968034856230423
  0.0785911466029159  0.9387825838636582  0.3023079150289259
  0.4123395047637505  0.9360707174830841  0.3051574638397517
  0.5011175125759139  0.9977300514237087  0.3945152593279305
  0.3283546749493945  0.9388503120164611  0.3981483881639966
  0.1665951003797113  0.9374672659758507  0.3927860186108709
  0.2520714626031417  0.9998736139246641  0.4892177679808341
  0.0805953016341774  0.9365277306500408  0.4891433430346553
  0.4200470348502012  0.9408168766124554  0.4858269626127285
  0.4969747437485306  0.9996359436508819  0.5761570003672268
  0.3344534706873449  0.9368407070716869  0.5824934163658427
  0.1633131494946513  0.9375412825128987  0.5826461759386552
  0.4949193569994509  0.9972417131610496  0.2130949764717360
  0.8290983222859788  0.0566172483649719  0.2203296590968581
  0.6710541600413571  0.0596081884029913  0.2169263008588979
  0.7457771515961285  0.1276908047496859  0.3029620297033054
  0.5801467234671420  0.0605165008971702  0.2978137190299832
  0.9214499666642785  0.0636238744454615  0.3068055043878156
  0.5015396596326294  0.1258376817383419  0.3929220079877358
  0.8332533454836838  0.0605433781977233  0.3926844636797327
  0.6644927581503494  0.0603873183326799  0.3895888542832598
  0.7500305477333554  0.1198658758418264  0.4834687531471275
  0.5853578820490756  0.0632126271777621  0.4858921532415687
  0.9160147516583544  0.0621381709832046  0.4940555817085674
  0.9904462428928854  0.1247855818577649  0.5821762576712328
  0.8353007298329954  0.0615987630659519  0.5797465366759023
  0.6642835256297626  0.0599450904556815  0.5767767379836357
  0.4915883192125515  0.1227833920824905  0.2106952221048744
  0.8335089197471963  0.1881426650613550  0.2197773729085043
  0.6642016950526385  0.1862130023520738  0.2145573443039122
  0.7558817605752388  0.2555495384328755  0.3031529369144817
  0.5781226954244569  0.1863713129012704  0.3001063182599062
  0.9201912403217889  0.1851818588107291  0.3083264162762914
  0.5008530656968462  0.2521301145250034  0.3948746427012640
  0.8379981351641440  0.1852985412458489  0.3935714224024415
  0.6666503346075328  0.1837207925153581  0.3971376498317647
  0.7511377263404944  0.2476351688218204  0.4882157265732309
  0.5833107528133039  0.1846594390003961  0.4831692344666711
  0.9173630801955421  0.1906788730357844  0.4911775016915539
  0.9932583928595211  0.2487713835578846  0.5786831279043536
  0.8281049825439003  0.1867875944459156  0.5795135507515000
  0.6669903080291649  0.1844115910642587  0.5747993677361959
  0.4997805310575917  0.2514759997653139  0.2111556256662489
  0.8257584041511387  0.3065321388940282  0.2183479358053967
  0.6765644581563662  0.3142251889385293  0.2187960022784812
  0.7533914257508437  0.3802164919920801  0.3017973481610801
  0.5821049351967320  0.3098176549907605  0.3039557270422797
  0.9150259183191356  0.3126646665431125  0.3073676896237017
  0.5006393095811489  0.3741390058719387  0.3963187857854717
  0.8361860481622466  0.3153540603628189  0.3976830037565496
  0.6685271635228002  0.3098481579672947  0.3923676906075026
  0.7444967129045831  0.3786384679837350  0.4883557064951396
  0.5862609312024559  0.3144480580324004  0.4848055613869570
  0.9140712541846453  0.3201113392884284  0.4949826603238734
  0.9988535193128874  0.3751585911551676  0.5864457165778374
  0.8312931405338776  0.3115904582495753  0.5802616273282588
  0.6673756282714741  0.3105275701846307  0.5851790034600841
  0.5020375829849697  0.3752511553135966  0.2138516024772478
  0.8329909760159209  0.4409610173386768  0.2151787223653452
  0.6745237137068694  0.4411121731469092  0.2194327743553058
  0.7561139218616014  0.0034431857141596  0.3006034601284297
  0.5859563623026441  0.4349740725018967  0.3065540639479946
  0.9179420539606014  0.4399724647059206  0.3055852278665144
  0.9960064264418672  0.5013721678847147  0.3997692807937556
  0.8346190207258970  0.4370229896975990  0.3979522823305083
  0.6740872324168872  0.4369121514857737  0.3911446151496094
  0.7500132698967407  0.5030379755700539  0.4864751054995270
  0.5943226689047522  0.4369259782163293  0.4863450932177493
  0.9202525672096556  0.4406858413920641  0.4905448460313871
  0.0019587886814303  0.5024871623609661  0.5801170560147554
  0.8339066352173945  0.4371348700933103  0.5818619611586302
  0.6672682551134480  0.4400510311460276  0.5808279792879173
  0.5047298921167875  0.5035564741769222  0.2098560213901060
  0.8247221880649025  0.5634792069959468  0.2174810519042956
  0.6680852255303958  0.5618733912017555  0.2193022275171239
  0.7459810953490352  0.6263051962158099  0.3020845454109409
  0.5784901656377813  0.5600955639500670  0.3036782627787902
  0.9202307783754284  0.5631119405435756  0.3032808866345733
  0.5013870078141425  0.6232381294048220  0.3912307069724572
  0.8353781138351379  0.5644383779242648  0.3941716125980830
  0.6706285282546560  0.5660060036233245  0.3953216652617962
  0.7481398459108326  0.6237916798672115  0.4842491280814892
  0.5883327590481955  0.5634348563350936  0.4851006326851814
  0.9155180881622140  0.5621280087864986  0.4846228299956424
  0.0016556226143156  0.6265371300448819  0.5779063091852762
  0.8292711131899331  0.5635949750243392  0.5765171023376539
  0.6606837130040915  0.5626012629299876  0.5860113855609982
  0.4959626475377902  0.6270743141166638  0.2070670277365455
  0.8283395739183811  0.6977049895019801  0.2136836393337813
  0.6657270185060715  0.6933598999648847  0.2155656178901780
  0.7492804877749675  0.7475960609215231  0.2992851084351418
  0.5736539602503031  0.6866228965717899  0.2996460437670894
  0.9132169524070457  0.6886177284113280  0.3023317516781083
  0.5034056197375752  0.7481485925750353  0.3966447009596790
  0.8312198903568010  0.6899274447669740  0.3913439307028698
  0.6690571384307938  0.6884274689505135  0.3938844000732636
  0.7504859541200840  0.7470454948994759  0.4820446190001781
  0.5838481951987428  0.6879240298511905  0.4833902875426339
  0.9140015434707246  0.6866756913979687  0.4861231851650152
  0.0037123248950668  0.7488786305394725  0.5714759324919203
  0.8320367118795015  0.6916699971377696  0.5778686017025160
  0.6635661565882883  0.6876993579035036  0.5819554226941124
  0.4930248436187731  0.7528250912281057  0.2091105550098046
  0.8339776844211692  0.8082414126382484  0.2106335821064085
  0.6735557956517423  0.8103971421821036  0.2176020834268833
  0.7518903683112623  0.8787978602503392  0.2960600952276846
  0.5797112195707361  0.8128839701407661  0.2996190372088526
  0.9118872299957527  0.8143643672390271  0.3007618721257144
  0.5006556241363218  0.8768289247902011  0.3956056062534709
  0.8325406182554812  0.8149984667781196  0.3917348082404678
  0.6674482468619132  0.8119538390891015  0.3921383116843754
  0.7508990588274339  0.8739623776982653  0.4846470450161344
  0.5854415537031779  0.8116882435403402  0.4852197781627992
  0.9154343457140780  0.8136668852336699  0.4823498584233230
  0.0003782398424207  0.8699894605025023  0.5742027154009808
  0.8386234452310358  0.8136959311644598  0.5762961045994096
  0.6685329643306878  0.8132302355096072  0.5826303653020686
  0.4915742038429708  0.8706359549102506  0.2110367005936226
  0.8305113953059379  0.9377796817141151  0.2171677173510877
  0.6631831636479718  0.9379309682277884  0.2158424647296217
  0.7517858282513684  0.5027612719838075  0.2988441234832377
  0.5760569400684193  0.9344384544553979  0.3005803181910628
  0.9168470590330445  0.9403836598221462  0.3018037798696498
  0.9992067700593018  0.0002124248981099  0.4011965091503364
  0.8349456525220986  0.9395684204416052  0.3924013757940891
  0.6657458716339324  0.9351044351409908  0.3934099960518084
  0.7499848618280425  0.0003429117234810  0.4851553936482369
  0.5862504139400753  0.9369623233562659  0.4858470809926470
  0.9154562588642803  0.9358226550467277  0.4837766800758836
  0.9990015350535674  0.9933575042415563  0.5785992071167492
  0.8342671365385824  0.9383066062265935  0.5820159195640769
  0.6640772925062467  0.9370228297872117  0.5850108453359174
  0.0612269094472485  0.0008162601449396  0.6800545713875349
  0.2806188937361166  0.5131048745320607  0.6710433390787371
  0.4365967872961784  0.0667641773724950  0.6520922770611828
  0.0600017356104851  0.2347590777516538  0.6790370389978778
  0.2721065756686045  0.2542167370739919  0.6692770274636272
  0.4122262947484976  0.3143743616151296  0.6613582044914407
  0.0865993321822063  0.1165774283349114  0.6775618984421796
  0.2335102473790652  0.1061731948927641  0.6688959215793771
  0.4261412922123702  0.1942391014121341  0.6634505620829729
  0.0228117571275329  0.3314091037009432  0.7213766516875698
  0.2697133932062606  0.3719796524623327  0.6675058409952423
  0.4116592772917005  0.4409138948086892  0.6647508367485980
  0.1162506548327071  0.3927261261254989  0.6857636696999031
  0.1738732161198098  0.3027962063182388  0.7073677711390203
  0.1763306683197252  0.1908514780834139  0.7079189996967371
  0.1860489244982598  0.0337777092268644  0.7147688886922099
  0.0666082721993528  0.5258505071589750  0.6811783710769722
  0.2775543662539188  0.9827061768864165  0.6689315645744591
  0.4337641769990956  0.5637458504241775  0.6608073318081362
  0.0620188361508394  0.7632775339232806  0.6746213597600441
  0.2772153226354404  0.7529900944251352  0.6641617547910234
  0.4334456558775641  0.8167599607447299  0.6633769785124264
  0.0530666194906578  0.6343787036271729  0.6784808871507599
  0.2812597205273368  0.6382681039682283  0.6670069033915069
  0.4342063199905430  0.6859707944133938  0.6630803850056164
  0.0571528416761377  0.8632083717572655  0.6761349687508265
  0.2710983183581924  0.8738231209194420  0.6700993252730131
  0.4477742879651508  0.9338791684599538  0.6668850771048341
  0.1675318111676516  0.9280193877377865  0.6924956630781667
  0.1918307544723003  0.8030330604795282  0.7123570220657371
  0.1621021490113584  0.6957773405468280  0.6951805155891265
  0.1748734131048484  0.5800150283364723  0.6994210609891067
  0.5767090242697670  0.9847289523889117  0.6757986622904890
  0.7815670007308035  0.5135561925400774  0.6673500052577740
  0.9475108091680735  0.0576116260352215  0.6634349428703398
  0.5455700589775541  0.2682891121972220  0.6771992031894676
  0.7167003606163477  0.2459745552008298  0.6656980921141524
  0.9287315201069274  0.3060674049191109  0.6626683456197354
  0.5828754672909574  0.1031477817991103  0.6721444422734987
  0.7837258647648868  0.1043794914942699  0.6650108465451107
  0.9543397965188133  0.1816280885515339  0.6657241168136131
  0.5520415055876191  0.3750708942779736  0.6784412044005188
  0.7840381153566840  0.3972293894147387  0.6702871486760049
  0.9324614098874736  0.4401348495044088  0.6556331196145887
  0.6759100789617147  0.4517553875349507  0.7018481872733718
  0.6701028012097744  0.3376970580857815  0.7098067005884202
  0.6724123783571676  0.1630375250075683  0.7013326690167363
  0.6834284584196414  0.0499769310586575  0.6942536361491454
  0.5725172969594013  0.5199842103966321  0.6807563317826274
  0.7907873274256804  0.9905626076941502  0.6704659152939424
  0.9345003117749870  0.5683768918152714  0.6576390786861628
  0.5905253728778116  0.7479288392148611  0.6744096172296127
  0.7895637703960527  0.7521411416172986  0.6719205581513629
  0.9328193265520970  0.8114682520103458  0.6602802037315437
  0.5796041245691007  0.6300486088515197  0.6806285516200442
  0.7906536146441878  0.6299879535351895  0.6663838308142384
  0.9423694753102838  0.6964026191690781  0.6573859593682145
  0.5717787488731932  0.8729276749473028  0.6781201165985506
  0.7910607956958843  0.8580443572975099  0.6666443886494978
  0.9398504196545848  0.9321573858252329  0.6628871703875446
  0.6885305152160972  0.9340179681831354  0.6976546874011368
  0.6785155925816126  0.8148764622698473  0.7065874706697934
  0.6932841413446270  0.6833563096057029  0.7064323698685067
  0.6894416721552926  0.5723610178393501  0.7026554191080777
  0.4010786711184179  0.9984102706526080  0.2508212862762101
  0.2452516102272737  0.0017957917532760  0.1886513204863880
  0.0868307602777215  0.0028574856355433  0.2500239133951254
  0.1517305445427649  0.1274695313876128  0.3410391765937269
  0.0034214974707816  0.1238312054166336  0.3271404095870013
  0.3397957451694149  0.1232372035612670  0.3410530382807589
  0.3996138809833835  0.1236317425257679  0.4320624601101242
  0.2446462583086276  0.1260029974321085  0.4172588439940758
  0.1010959089249949  0.1285204113339041  0.4293355771237274
  0.1532169642969043  0.1284615526654125  0.5255987260000614
  0.5012473091684245  0.1234942940484218  0.5048420560797056
  0.3468159095220725  0.1298750986613154  0.5213538307915981
  0.4031401047278044  0.1348953670421956  0.6106628131119786
  0.2508648835962749  0.1268569389289147  0.5972494627907057
  0.0925479012214019  0.1266509863130594  0.6092516727575223
  0.3961496046321775  0.1269220907884802  0.2512469793400360
  0.2506173253240641  0.1276795664431579  0.2222850300632226
  0.0934456697784462  0.1304528863139968  0.2507607531742305
  0.1496311309189821  0.2506349519982101  0.3406595496871369
  0.9995879322107722  0.2540254057260574  0.3269925640857844
  0.3448584555055514  0.2509691477029838  0.3414137390144357
  0.4018616294575473  0.2515280349408952  0.4314136710355355
  0.2528595149039880  0.2551615113374216  0.4146909822337175
  0.0994037072806628  0.2491951640974576  0.4364588490730594
  0.1519582683449251  0.2515513654079461  0.5252871275092468
  0.5033103250707029  0.2491353383431573  0.5057788430290510
  0.3504837719603211  0.2511019406805607  0.5234748760757129
  0.4080294186598199  0.2532598951506665  0.6117790011152273
  0.2480980228972965  0.2515023850716536  0.5986580508501711
  0.0962703657194707  0.2490930257929092  0.6149284091592931
  0.4027458443164339  0.2490599838730800  0.2489091243417166
  0.2469050648315974  0.2518265767948784  0.1882328318209847
  0.0916322827228644  0.2572951791780238  0.2496978037780028
  0.1532607221320748  0.3790402511752667  0.3398480171529181
  0.9976049785931655  0.3760133087769805  0.3293529728083309
  0.3447363649855635  0.3783369015168003  0.3413852947135133
  0.4004494219917584  0.3772707252199999  0.4302690814404584
  0.2515210511899783  0.3762556764772128  0.4192604498678982
  0.1035655277048151  0.3774628462214354  0.4350934446484849
  0.1469400246811607  0.3738797102773355  0.5276677935571702
  0.5086723997165489  0.3765886032934074  0.5070234969653880
  0.3491266133683111  0.3761480863012572  0.5277134207114531
  0.4063885283915871  0.3781410986401736  0.6136734078111519
  0.2456871914921984  0.3778768098636359  0.5995576501560625
  0.0985272872300308  0.3766578689753305  0.6160606584431139
  0.4041136830560677  0.3763538893451852  0.2503238995157736
  0.2455505554078497  0.3758961702883165  0.2226239841483560
  0.0927864932156366  0.3766002198853723  0.2479913745495792
  0.1542931143920778  0.0010079212958254  0.3408090465367773
  0.0009215616879538  0.0003591800158050  0.3290512422512262
  0.3407495341949038  0.9993818553955698  0.3419058449125074
  0.4037630998887276  0.4973522041282054  0.4320239849202174
  0.2521585605433783  0.5004829353914193  0.4177730069907119
  0.0978629947393605  0.4955721706056702  0.4350896960857502
  0.1508101721670663  0.5002551987881766  0.5293903854470248
  0.5041921809430254  0.5028614145984472  0.5040572194307914
  0.3517581388751886  0.0042310618474452  0.5255584477978075
  0.4042969113121243  0.5017801678368884  0.6138296971510636
  0.2550769995678004  0.5014738035255467  0.6023304398991489
  0.0965884363276388  0.9981623313775141  0.6146074604446836
  0.4064781663908363  0.5002994737345414  0.2446532478598548
  0.2442178659441175  0.4987394392535249  0.1937502451719584
  0.0884052840852120  0.4968223114955760  0.2509649994604061
  0.1537992080981958  0.6219345744887040  0.3401474266555693
  0.9992212987631068  0.6259908221163096  0.3235236289626651
  0.3406928516739700  0.6224522228358245  0.3372531068672825
  0.4041230553541198  0.6227816310752228  0.4296672308439438
  0.2547638289994525  0.6242825572454240  0.4179363998041726
  0.1003437724930719  0.6247212881256898  0.4318578343404475
  0.1512203954907258  0.6260561885166230  0.5269667729084268
  0.4974697999228409  0.6273168582704817  0.5080953982780045
  0.3457236866095537  0.6271990591457420  0.5234346587429861
  0.4033221443167838  0.6295722940669326  0.6128419426171208
  0.2524248880064832  0.6307522637095808  0.5977503258966680
  0.0989484882721464  0.6319112691055829  0.6133326338815035
  0.3993367385053064  0.6237977849101051  0.2404280490794414
  0.2482402828033608  0.6206737130897849  0.2210550119293525
  0.0922521916590185  0.6226479912815589  0.2512851937486016
  0.1522455186692531  0.7485982330776946  0.3372091809791422
  0.9968833411967627  0.7529274992219214  0.3229336469825796
  0.3485689952739356  0.7470987777210042  0.3380477213056670
  0.3997627398042227  0.7478399209048153  0.4284450751679877
  0.2475042409175830  0.7474933602161340  0.4151640743343120
  0.0960401079508821  0.7493369007807644  0.4266414740170869
  0.1493216898716554  0.7475998561152538  0.5188492851446860
  0.5006785744115894  0.7529973518200148  0.5034942716594836
  0.3530205359712967  0.7525185431758541  0.5200909279700493
  0.4039191294772501  0.7538958552390266  0.6155656314584907
  0.2497050886494231  0.7526825413955602  0.5952166101307439
  0.1008678836871296  0.7491554781059367  0.6104181466729236
  0.4042451704976029  0.7549255694511247  0.2480030343130973
  0.2416797923948148  0.7517216393569442  0.1914962059414992
  0.0922759416884154  0.7458051883434474  0.2481585469076041
  0.1528406232095053  0.8744801091192871  0.3317331494661352
  0.9977801320446194  0.8768694285524666  0.3182014727228981
  0.3425743370846995  0.8749544442381847  0.3372059844626296
  0.4014379220324233  0.8758050471343152  0.4309489741220170
  0.2498860235624987  0.8751817416326311  0.4138923326945151
  0.0984321733801723  0.8750507054710425  0.4291513014140673
  0.1513809556764023  0.8783880965589512  0.5223913864571696
  0.4994291693680654  0.8757178879487233  0.5053641786474422
  0.3486696832383042  0.8770575739103452  0.5242460251818422
  0.4061827121798001  0.8755135730870071  0.6169719476680217
  0.2553519984813438  0.8734933793427384  0.6011371469200452
  0.0969264518733345  0.8709922413429805  0.6101992460454199
  0.3986902081775758  0.8756062597553593  0.2481101287187357
  0.2415310044104168  0.8758616420981608  0.2206616359271975
  0.0838467587921382  0.8750999443781148  0.2406516539359678
  0.1536258766720913  0.5019730753455430  0.3386545655809599
  0.9995190211049644  0.5021170728927039  0.3265953891023619
  0.3430872067492133  0.4981564610273902  0.3378837815591691
  0.4016509856016607  0.9989487462845292  0.4306528426743246
  0.2460341781240912  0.0006976674860467  0.4150980453702925
  0.0998684692620368  0.9998455028066401  0.4314451969198124
  0.1529577002762168  0.0051640310762960  0.5236613709161860
  0.5005028579654069  0.0016971812858526  0.5042510996757785
  0.3498449280440928  0.5007146201705602  0.5246364083294115
  0.4065098939043367  0.9920795843567393  0.6192211796666408
  0.2538926533931417  0.0006986756034680  0.6011108005075616
  0.0953433709761628  0.5021178993306880  0.6194844373406561
  0.9019634708167706  0.0026204562395209  0.2495916294458312
  0.7428434679057018  0.9975783768071433  0.2018916578104150
  0.5896749649670694  0.9985072902980203  0.2469197795787946
  0.6470420853022932  0.1270736282205517  0.3370104870793058
  0.4933235126739031  0.1226942330855264  0.3234402727082710
  0.8452729958289369  0.1264445098946079  0.3418052617204150
  0.8994476624624391  0.1228836986023004  0.4347306910705042
  0.7480798269550386  0.1221866940301557  0.4096387658851500
  0.5986955119772488  0.1201720027031871  0.4281398707606154
  0.6522994565724959  0.1231512812840438  0.5195239037392438
  0.9999663917467075  0.1291147989312563  0.5109270462200028
  0.8512734736211638  0.1243707681478819  0.5232912911863467
  0.8910998968878805  0.1209351579523430  0.6167067125388059
  0.7507789945929113  0.1243170336148364  0.5980883262163946
  0.6001128865047760  0.1249093576273658  0.6091023897295892
  0.9010920023403324  0.1255641793466645  0.2528936894922240
  0.7475342863157106  0.1239210900853291  0.2262160335926572
  0.5911903393184372  0.1222742772685655  0.2413200217291132
  0.6544439508066479  0.2484676823227610  0.3379382467462819
  0.4953862519347793  0.2507540246332188  0.3237342877587104
  0.8514978217529494  0.2464516678207453  0.3403056358193379
  0.9001711876145653  0.2544600486361102  0.4344098076032903
  0.7569556776303124  0.2514819805118169  0.4133633370231223
  0.6016979902522780  0.2492829549451279  0.4313761487845559
  0.6538152393404258  0.2481028431232931  0.5221279462725189
  0.0012285439041105  0.2526392670621849  0.5078009893227000
  0.8477582872479137  0.2481063838543282  0.5253092903183710
  0.9018502142176135  0.2463357124430571  0.6131894788010457
  0.7476523964827563  0.2462498822142804  0.5996577265529027
  0.6024340558137168  0.2468344519340270  0.6147469756282188
  0.9046382546219974  0.2470175818585090  0.2525566891728824
  0.7501326864748534  0.2450258433043136  0.1993255488551937
  0.5919448382603474  0.2499110684640123  0.2469746001027953
  0.6546209097078934  0.3726659180605376  0.3373125012496700
  0.4988867065766615  0.3700899207393117  0.3256971854310284
  0.8489685722808694  0.3781998227599112  0.3401558271877378
  0.9041066929362325  0.3775022333737116  0.4343942249897295
  0.7517267653708560  0.3746712739054921  0.4147561945677073
  0.6025998333480936  0.3774496764155868  0.4300102205431288
  0.6502288400698926  0.3728056758815410  0.5267462106590665
  0.0049228823294676  0.3756582355948628  0.5116765559409545
  0.8399953744824519  0.3810648458798037  0.5258067068022226
  0.8997763769105637  0.3693506007003092  0.6162988881979466
  0.7507709145992779  0.3769419448783640  0.6042111983349107
  0.6047270697611778  0.3796763265959874  0.6157466923870621
  0.9031008566772130  0.3751830898439471  0.2515933394603233
  0.7568849301034901  0.3803897933263526  0.2234670999547635
  0.5977306856026122  0.3744050777008283  0.2515509097716928
  0.6508821683424363  0.0006859255001879  0.3341761321914052
  0.4935043754662443  0.9995093575970283  0.3217145604980143
  0.8464273930997875  0.0015489142324078  0.3360078526941673
  0.8985555234799717  0.5045259598524934  0.4325811765615974
  0.7493439208002604  0.4976921521059487  0.4128726029028484
  0.6021790820256112  0.5009963226454864  0.4308044293887596
  0.6576859635125006  0.5021571369196287  0.5258342225985781
  0.0011094117977106  0.5016529642201846  0.5068382290817056
  0.8487337751456643  0.9936913753301293  0.5228174370728841
  0.9040740150586275  0.5046917740939643  0.6102879699088049
  0.7510835688875179  0.5017477342572375  0.5993942104896338
  0.5916331182120065  0.9982002077675209  0.6099688194290738
  0.9009715412923655  0.5025159666549824  0.2493444813326221
  0.7471273359140115  0.4992384383463435  0.1933772561670108