Ta  N Cu                                
   1.00000000000000     
    18.1096308199999996    0.0000000000000000    0.0000000000000000
     0.0000000000000000   23.3551997799999995    0.0000000000000000
     0.0000000000000000    0.0000000000000000   30.4818170799999990
   Ta   N    Cu
   240   240     2
Selective dynamics
Direct
  0.0000000000000000  0.0000000000000000  0.1962037549895328   F   F   F
  0.3335422814544131  0.0625000001605613  0.2032829710819826   F   F   F
  0.1664576892793903  0.0625000001605613  0.2032829710819826   F   F   F
  0.2499999997239044  0.1249999998929567  0.2787808134173062   F   F   F
  0.0825353920715628  0.0625000001605613  0.2838315333135668   F   F   F
  0.4174646079284372  0.0625000001605613  0.2838315333135668   F   F   F
 -0.0000055798599276  0.1250593381767177  0.3695767646911537   T   T   T
  0.3321990670121384  0.0624971857135533  0.3683714233107879   T   T   T
  0.1676073152376553  0.0624999218523810  0.3684737245288040   T   T   T
  0.2495957153397064  0.1251367832329635  0.4557997861345692   T   T   T
  0.0834902259661595  0.0624903349738983  0.4545429406504937   T   T   T
  0.4160668721664971  0.0624840060487533  0.4543480897001542   T   T   T
  0.9994079331985218  0.1248206366886713  0.5402431081242349   T   T   T
  0.3365001139821236  0.0625221824686050  0.5425458412444356   T   T   T
  0.1688718810704755  0.0625011646257048  0.5409474953232134   T   T   T
  0.0000000000000000  0.1249999998929567  0.1962037549895328   F   F   F
  0.3335422814544131  0.1875000000535181  0.2032829710819826   F   F   F
  0.1664576892793903  0.1875000000535181  0.2032829710819826   F   F   F
  0.2499999997239044  0.2500000002140865  0.2787808134173062   F   F   F
  0.0825353920715628  0.1875000000535181  0.2838315333135668   F   F   F
  0.4174646079284372  0.1875000000535181  0.2838315333135668   F   F   F
  0.9999660180594778  0.2500125653109866  0.3695617896521844   T   T   T
  0.3321740383638844  0.1874855170056382  0.3683954915293672   T   T   T
  0.1677028187364869  0.1875060982450195  0.3685030257704988   T   T   T
  0.2497777021031889  0.2500083864143486  0.4556379316519344   T   T   T
  0.0836580768096539  0.1876177013373012  0.4544583537252854   T   T   T
  0.4160867353748472  0.1874638409817035  0.4542533935103581   T   T   T
  0.0001954470282752  0.2499091477381631  0.5406243630609679   T   T   T
  0.3356854525509446  0.1876714869098197  0.5423220770677867   T   T   T
  0.1655785555767431  0.1885543525891901  0.5429199262917523   T   T   T
  0.0000000000000000  0.2500000002140865  0.1962037549895328   F   F   F
  0.3335422814544131  0.3124999999464819  0.2032829710819826   F   F   F
  0.1664576892793903  0.3124999999464819  0.2032829710819826   F   F   F
  0.2499999997239044  0.3750000001070433  0.2787808134173062   F   F   F
  0.0825353920715628  0.3124999999464819  0.2838315333135668   F   F   F
  0.4174646079284372  0.3124999999464819  0.2838315333135668   F   F   F
  0.9999611227463424  0.3750297812358182  0.3695695063088243   T   T   T
  0.3321602691912372  0.3124956895364372  0.3683510635969111   T   T   T
  0.1676849944904575  0.3125143945378060  0.3683989872692744   T   T   T
  0.2497944038276117  0.3749408638403156  0.4555844061286725   T   T   T
  0.0837109971364764  0.3125723541246969  0.4543578909813217   T   T   T
  0.4160055167818295  0.3124549808215095  0.4542069659344284   T   T   T
  0.0003683039571154  0.3750011664370229  0.5406516499005640   T   T   T
  0.3352169167875719  0.3126741255670878  0.5421795001838011   T   T   T
  0.1647836789448441  0.3127998813589052  0.5424994281858518   T   T   T
  0.0000000000000000  0.3750000001070433  0.1962037549895328   F   F   F
  0.3335422814544131  0.4375000002676046  0.2032829710819826   F   F   F
  0.1664576892793903  0.4375000002676046  0.2032829710819826   F   F   F
  0.2499999997239044  0.0000000000000000  0.2787808134173062   F   F   F
  0.0825353920715628  0.4375000002676046  0.2838315333135668   F   F   F
  0.4174646079284372  0.4375000002676046  0.2838315333135668   F   F   F
 -0.0000009813661166  0.9999571691465361  0.3695782128380409   T   T   T
  0.3322024757810007  0.4375038501979148  0.3683596752853649   T   T   T
  0.1676329496846452  0.4375122318787026  0.3683596735806640   T   T   T
  0.2496216572742390  0.9998834884768515  0.4558108132624048   T   T   T
  0.0836192785614765  0.4375625530297778  0.4543794163969804   T   T   T
  0.4159911959716664  0.4375099780614619  0.4542229088692306   T   T   T
  0.9994224326752940  0.0002266476440008  0.5402578012534436   T   T   T
  0.3346461620093767  0.4375433730171916  0.5420386354861353   T   T   T
  0.1648741110927567  0.4376765826754146  0.5425480228834735   T   T   T
  0.0000000000000000  0.5000000000000000  0.1962037549895328   F   F   F
  0.3335422814544131  0.5625000001605613  0.2032829710819826   F   F   F
  0.1664576892793903  0.5625000001605613  0.2032829710819826   F   F   F
  0.2499999997239044  0.6249999998929567  0.2787808134173062   F   F   F
  0.0825353920715628  0.5625000001605613  0.2838315333135668   F   F   F
  0.4174646079284372  0.5625000001605613  0.2838315333135668   F   F   F
  0.9999465610463134  0.6250054005078990  0.3695638595954714   T   T   T
  0.3321641253772069  0.5625166518084297  0.3683689665789474   T   T   T
  0.1677277540506515  0.5625110068214308  0.3683861885485774   T   T   T
  0.2498842161440180  0.6249860148684643  0.4556462929017168   T   T   T
  0.0836970325670964  0.5625233355458825  0.4543166359444000   T   T   T
  0.4159989774969201  0.5625593743114002  0.4542030619076780   T   T   T
  0.0000141344965530  0.6250427930295120  0.5406961990075101   T   T   T
  0.3351072002194366  0.5625009755949523  0.5422946576426138   T   T   T
  0.1650710736566952  0.5627056373317127  0.5425397292173391   T   T   T
  0.0000000000000000  0.6249999998929567  0.1962037549895328   F   F   F
  0.3335422814544131  0.6875000000535181  0.2032829710819826   F   F   F
  0.1664576892793903  0.6875000000535181  0.2032829710819826   F   F   F
  0.2499999997239044  0.7500000002140865  0.2787808134173062   F   F   F
  0.0825353920715628  0.6875000000535181  0.2838315333135668   F   F   F
  0.4174646079284372  0.6875000000535181  0.2838315333135668   F   F   F
  0.9999519455446340  0.7499980994411987  0.3695715098827160   T   T   T
  0.3321911494494668  0.6875147729606187  0.3683861517436055   T   T   T
  0.1677046236639233  0.6875017882196698  0.3684111586539753   T   T   T
  0.2499283757165076  0.7499970686176777  0.4556756830458801   T   T   T
  0.0837341172277222  0.6874651685609526  0.4543475477727602   T   T   T
  0.4160917970816536  0.6875390143759019  0.4543149211540742   T   T   T
  0.9999585995523466  0.7500331757329195  0.5406596083839754   T   T   T
  0.3351324515689825  0.6873882771288068  0.5425390818299891   T   T   T
  0.1649001075843603  0.6874539142694739  0.5425020197321443   T   T   T
  0.0000000000000000  0.7500000002140865  0.1962037549895328   F   F   F
  0.3335422814544131  0.8124999999464819  0.2032829710819826   F   F   F
  0.1664576892793903  0.8124999999464819  0.2032829710819826   F   F   F
  0.2499999997239044  0.8750000001070433  0.2787808134173062   F   F   F
  0.0825353920715628  0.8124999999464819  0.2838315333135668   F   F   F
  0.4174646079284372  0.8124999999464819  0.2838315333135668   F   F   F
 -0.0000145334527525  0.8749826017005136  0.3695650114227518   T   T   T
  0.3321981357649936  0.8125020328127635  0.3683853827572489   T   T   T
  0.1677100336141109  0.8124871763439705  0.3684118442040134   T   T   T
  0.2498656763368234  0.8750127085116995  0.4556835348811314   T   T   T
  0.0837857837273060  0.8124355392100171  0.4543654741198997   T   T   T
  0.4161223005302365  0.8125184421456215  0.4543487539046588   T   T   T
  0.0001391300824683  0.8750629894060524  0.5406237385707665   T   T   T
  0.3352164474108080  0.8123311064641692  0.5424941901910796   T   T   T
  0.1646489956750730  0.8120640428609650  0.5425204209788763   T   T   T
  0.0000000000000000  0.8750000001070433  0.1962037549895328   F   F   F
  0.3335422814544131  0.9375000002676046  0.2032829710819826   F   F   F
  0.1664576892793903  0.9375000002676046  0.2032829710819826   F   F   F
  0.2499999997239044  0.5000000000000000  0.2787808134173062   F   F   F
  0.0825353920715628  0.9375000002676046  0.2838315333135668   F   F   F
  0.4174646079284372  0.9375000002676046  0.2838315333135668   F   F   F
  0.9999442741990829  0.4999842793795140  0.3695735273985766   T   T   T
  0.3321915545184954  0.9375058536254907  0.3684164711493007   T   T   T
  0.1677261344490392  0.9374929911510089  0.3685024286637834   T   T   T
  0.2498155161678069  0.5000716387055429  0.4556005802384800   T   T   T
  0.0837039241822100  0.9373841294053042  0.4544458684530064   T   T   T
  0.4160832940015681  0.9375068466119105  0.4542966309035828   T   T   T
  0.0004358870223180  0.4999833426208184  0.5406808650186886   T   T   T
  0.3356547335151103  0.9374398885882620  0.5423704604165946   T   T   T
  0.1655709389125091  0.9363654697003564  0.5429982191362056   T   T   T
  0.5000000000000000  0.0000000000000000  0.1962037549895328   F   F   F
  0.8335422809022219  0.0625000001605613  0.2032829710819826   F   F   F
  0.6664576892793903  0.0625000001605613  0.2032829710819826   F   F   F
  0.7499999997239044  0.1249999998929567  0.2787808134173062   F   F   F
  0.5825353920715628  0.0625000001605613  0.2838315333135668   F   F   F
  0.9174646079284372  0.0625000001605613  0.2838315333135668   F   F   F
  0.4999487200971298  0.1249742512465036  0.3695685398767229   T   T   T
  0.8321954536990980  0.0625002676105807  0.3683568818512708   T   T   T
  0.6676261950983198  0.0624911444663953  0.3683602741941194   T   T   T
  0.7497870153953858  0.1250631040215423  0.4555811591785384   T   T   T
  0.5836095567612276  0.0624442406479483  0.4543843478332666   T   T   T
  0.9159782595158558  0.0624942944053651  0.4542187878773332   T   T   T
  0.5003276279662341  0.1250106390496346  0.5406549480654564   T   T   T
  0.8346452788998254  0.0624682733823984  0.5420352553827904   T   T   T
  0.6648551037339611  0.0623342559283588  0.5425485195279656   T   T   T
  0.5000000000000000  0.1249999998929567  0.1962037549895328   F   F   F
  0.8335422809022219  0.1875000000535181  0.2032829710819826   F   F   F
  0.6664576892793903  0.1875000000535181  0.2032829710819826   F   F   F
  0.7499999997239044  0.2500000002140865  0.2787808134173062   F   F   F
  0.5825353920715628  0.1875000000535181  0.2838315333135668   F   F   F
  0.9174646079284372  0.1875000000535181  0.2838315333135668   F   F   F
  0.4999611135085270  0.2499905997460919  0.3695640931777883   T   T   T
  0.8321578541733264  0.1875108586127650  0.3683486092235184   T   T   T
  0.6676828806349839  0.1874891863612256  0.3683984937429152   T   T   T
  0.7497793952395995  0.2499924718582765  0.4556392720571869   T   T   T
  0.5837024211776608  0.1874358735446856  0.4543547263561447   T   T   T
  0.9160044647743584  0.1875563449635939  0.4542017110782402   T   T   T
  0.5002075627281700  0.2501024630264295  0.5406208117359147   T   T   T
  0.8352176525214389  0.1873257939519541  0.5421773006679385   T   T   T
  0.6647732651354062  0.1872039764851253  0.5424928736690600   T   T   T
  0.5000000000000000  0.2500000002140865  0.1962037549895328   F   F   F
  0.8335422809022219  0.3124999999464819  0.2032829710819826   F   F   F
  0.6664576892793903  0.3124999999464819  0.2032829710819826   F   F   F
  0.7499999997239044  0.3750000001070433  0.2787808134173062   F   F   F
  0.5825353920715628  0.3124999999464819  0.2838315333135668   F   F   F
  0.9174646079284372  0.3124999999464819  0.2838315333135668   F   F   F
  0.4999981562270428  0.3749455355640915  0.3695772851124404   T   T   T
  0.8321750811590231  0.3125210232040903  0.3683947843301770   T   T   T
  0.6677024632175373  0.3124999577838918  0.3685047406681760   T   T   T
  0.7496051248109452  0.3748708370942885  0.4558030138327702   T   T   T
  0.5836601261205134  0.3123914910848979  0.4544629382206367   T   T   T
  0.9160964481072504  0.3125482169885758  0.4542476842427313   T   T   T
  0.4994343172096470  0.3751885300642769  0.5402759275296729   T   T   T
  0.8357112660359443  0.3123384061345246  0.5423153876601347   T   T   T
  0.6656015755150101  0.3114532364644980  0.5429221492717017   T   T   T
  0.5000000000000000  0.3750000001070433  0.1962037549895328   F   F   F
  0.8335422809022219  0.4375000002676046  0.2032829710819826   F   F   F
  0.6664576892793903  0.4375000002676046  0.2032829710819826   F   F   F
  0.7499999997239044  0.0000000000000000  0.2787808134173062   F   F   F
  0.5825353920715628  0.4375000002676046  0.2838315333135668   F   F   F
  0.9174646079284372  0.4375000002676046  0.2838315333135668   F   F   F
  0.4999456165521107  0.0000181596288846  0.3695772255925018   T   T   T
  0.8322008800583373  0.4375074651406022  0.3683721566278774   T   T   T
  0.6676108133584566  0.4375027565331851  0.3684776905714761   T   T   T
  0.7498065574872631  0.9999332475695352  0.4556006132712361   T   T   T
  0.5834963491316874  0.4375187537911077  0.4545483877450129   T   T   T
  0.9160786962245187  0.4375280369756302  0.4543429903132175   T   T   T
  0.5003977691398781  0.0000291964673825  0.5406811400157994   T   T   T
  0.8365390016924418  0.4374827304618973  0.5425383060219156   T   T   T
  0.6689032149678350  0.4375122887561450  0.5409435842872247   T   T   T
  0.5000000000000000  0.5000000000000000  0.1962037549895328   F   F   F
  0.8335422809022219  0.5625000001605613  0.2032829710819826   F   F   F
  0.6664576892793903  0.5625000001605613  0.2032829710819826   F   F   F
  0.7499999997239044  0.6249999998929567  0.2787808134173062   F   F   F
  0.5825353920715628  0.5625000001605613  0.2838315333135668   F   F   F
  0.9174646079284372  0.5625000001605613  0.2838315333135668   F   F   F
  0.4999893343565425  0.6250209332591815  0.3695662332242409   T   T   T
  0.8321944262919716  0.5624988872873441  0.3684149563663985   T   T   T
  0.6677301622751552  0.5625086925779069  0.3685061740442777   T   T   T
  0.7498765476491704  0.6249886884384702  0.4556829833090852   T   T   T
  0.5837083590616373  0.5626240420878127  0.4544498454053786   T   T   T
  0.9160890987118062  0.5625050560342862  0.4542914697274542   T   T   T
  0.5001668106769200  0.6249497122872458  0.5406315356515791   T   T   T
  0.8356756070904281  0.5625759439987024  0.5423668829826401   T   T   T
  0.6656022542837371  0.5636529990770732  0.5429888387463886   T   T   T
  0.5000000000000000  0.6249999998929567  0.1962037549895328   F   F   F
  0.8335422809022219  0.6875000000535181  0.2032829710819826   F   F   F
  0.6664576892793903  0.6875000000535181  0.2032829710819826   F   F   F
  0.7499999997239044  0.7500000002140865  0.2787808134173062   F   F   F
  0.5825353920715628  0.6875000000535181  0.2838315333135668   F   F   F
  0.9174646079284372  0.6875000000535181  0.2838315333135668   F   F   F
  0.4999641613865771  0.7500069342032448  0.3695709863874139   T   T   T
  0.8321995305031319  0.6875028991756215  0.3683852645872748   T   T   T
  0.6677066471329066  0.6875156972532459  0.3684115279244842   T   T   T
  0.7499262929699334  0.7500104557503388  0.4556739743465837   T   T   T
  0.5837858461550748  0.6875647486012416  0.4543682478997556   T   T   T
  0.9161262270502862  0.6874904795226855  0.4543480221610873   T   T   T
  0.4999574884746238  0.7499821270302738  0.5406601883471563   T   T   T
  0.8352231584692352  0.6876724731185627  0.5424927656194849   T   T   T
  0.6646630752832332  0.6879619052104003  0.5425192040114665   T   T   T
  0.5000000000000000  0.7500000002140865  0.1962037549895328   F   F   F
  0.8335422809022219  0.8124999999464819  0.2032829710819826   F   F   F
  0.6664576892793903  0.8124999999464819  0.2032829710819826   F   F   F
  0.7499999997239044  0.8750000001070433  0.2787808134173062   F   F   F
  0.5825353920715628  0.8124999999464819  0.2838315333135668   F   F   F
  0.9174646079284372  0.8124999999464819  0.2838315333135668   F   F   F
  0.4999317349275160  0.8749980064408578  0.3695629411279978   T   T   T
  0.8321886818821960  0.8124885347958604  0.3683840774802327   T   T   T
  0.6677010235730872  0.8125006500723824  0.3684103186212470   T   T   T
  0.7498757012616251  0.8750205353434308  0.4556499196230397   T   T   T
  0.5837318079571563  0.8125408440912365  0.4543453165178970   T   T   T
  0.9160941051589523  0.8124661726156619  0.4543140231577364   T   T   T
  0.5000201117366458  0.8749698894439353  0.5406952564195446   T   T   T
  0.8351338609509552  0.8126166531908210  0.5425350449455010   T   T   T
  0.6648975576447227  0.8125660603834843  0.5425056010932223   T   T   T
  0.5000000000000000  0.8750000001070433  0.1962037549895328   F   F   F
  0.8335422809022219  0.9375000002676046  0.2032829710819826   F   F   F
  0.6664576892793903  0.9375000002676046  0.2032829710819826   F   F   F
  0.7499999997239044  0.5000000000000000  0.2787808134173062   F   F   F
  0.5825353920715628  0.9375000002676046  0.2838315333135668   F   F   F
  0.9174646079284372  0.9375000002676046  0.2838315333135668   F   F   F
  0.5000070274256398  0.5000451960075520  0.3695803537889802   T   T   T
  0.8321561150046154  0.9374869678203169  0.3683665038596308   T   T   T
  0.6677226174821911  0.9374943950379709  0.3683859148694710   T   T   T
  0.7496358844107684  0.5001215676965352  0.4558110888008441   T   T   T
  0.5836897408453449  0.9374855857095989  0.4543139743608873   T   T   T
  0.9159844801384530  0.9374468785475916  0.4541996729625207   T   T   T
  0.4994337479129252  0.4997830712142816  0.5402691060050250   T   T   T
  0.8350952933653543  0.9375071887089845  0.5422922632419833   T   T   T
  0.6650506925677138  0.9373102936544938  0.5425412719578989   T   T   T
  0.4070505905542277  0.0000000000000000  0.2321160648471405   F   F   F
  0.2499999997239044  0.0000000000000000  0.1975324349659786   F   F   F
  0.0929494094457723  0.0000000000000000  0.2321160648471405   F   F   F
  0.1544227962345630  0.1249999998929567  0.3158353176496362   F   F   F
  0.0000000000000000  0.1249999998929567  0.3028242704748862   F   F   F
  0.3455772037654370  0.1249999998929567  0.3158353176496362   F   F   F
  0.4009128017475146  0.1249744273180484  0.4020436411447084   T   T   T
  0.2498845761130105  0.1249259125455604  0.3876916625375244   T   T   T
  0.0989405408074224  0.1250295350809642  0.4021900843953546   T   T   T
  0.1508471316046605  0.1253485125661695  0.4883497872193433   T   T   T
  0.9996888157924190  0.1251046836100423  0.4722394380371369   T   T   T
  0.3485129308515467  0.1250884623546442  0.4876207692624074   T   T   T
  0.4033833198051979  0.1252746696633260  0.5702470970098792   T   T   T
  0.2505220501934570  0.1248011880378722  0.5577578102185003   T   T   T
  0.0971656116515965  0.1258362049592610  0.5724877577805328   T   T   T
  0.4070505905542277  0.1249999998929567  0.2321160648471405   F   F   F
  0.2499999997239044  0.1249999998929567  0.1975324349659786   F   F   F
  0.0929494094457723  0.1249999998929567  0.2321160648471405   F   F   F
  0.1544227962345630  0.2500000002140865  0.3158353176496362   F   F   F
  0.0000000000000000  0.2500000002140865  0.3028242704748862   F   F   F
  0.3455772037654370  0.2500000002140865  0.3158353176496362   F   F   F
  0.4009170222013940  0.2499607417846465  0.4020179298969991   T   T   T
  0.2499480012232054  0.2500150077261968  0.3875622017136440   T   T   T
  0.0989415117751191  0.2500309543482660  0.4021556763597838   T   T   T
  0.1512859861833365  0.2500985474121790  0.4878828370959959   T   T   T
  0.9998707319862931  0.2500125875346813  0.4724552849353656   T   T   T
  0.3484857523540728  0.2499786201481342  0.4876183486360725   T   T   T
  0.4031197067878857  0.2502986759094143  0.5700759279616134   T   T   T
  0.2498367355973251  0.2495842571477031  0.5575828759266598   T   T   T
  0.0970886516046372  0.2500996263571957  0.5704669692971746   T   T   T
  0.4070505905542277  0.2500000002140865  0.2321160648471405   F   F   F
  0.2499999997239044  0.2500000002140865  0.1975324349659786   F   F   F
  0.0929494094457723  0.2500000002140865  0.2321160648471405   F   F   F
  0.1544227962345630  0.3750000001070433  0.3158353176496362   F   F   F
  0.0000000000000000  0.3750000001070433  0.3028242704748862   F   F   F
  0.3455772037654370  0.3750000001070433  0.3158353176496362   F   F   F
  0.4008877887944649  0.3749744036268892  0.4019917435429265   T   T   T
  0.2499011263435391  0.3750411933271551  0.3875399258233480   T   T   T
  0.0989402296685862  0.3750169841520584  0.4021011256009411   T   T   T
  0.1512651207264250  0.3751299854474773  0.4877186836714610   T   T   T
  0.9998996315577866  0.3750009619565263  0.4724207428479270   T   T   T
  0.3483821751358318  0.3749535528500452  0.4875876804724846   T   T   T
  0.4032875836117731  0.3752617264618831  0.5699219453480298   T   T   T
  0.2500577273990152  0.3749275281696338  0.5576946394176507   T   T   T
  0.0971223778056152  0.3751255139555295  0.5703030869892782   T   T   T
  0.4070505905542277  0.3750000001070433  0.2321160648471405   F   F   F
  0.2499999997239044  0.3750000001070433  0.1975324349659786   F   F   F
  0.0929494094457723  0.3750000001070433  0.2321160648471405   F   F   F
  0.1544227962345630  0.0000000000000000  0.3158353176496362   F   F   F
  0.0000000000000000  0.0000000000000000  0.3028242704748862   F   F   F
  0.3455772037654370  0.0000000000000000  0.3158353176496362   F   F   F
  0.4009078553820941  0.0000083793623551  0.4020470179367748   T   T   T
  0.2498870789703547  0.0000672772701091  0.3877026515752962   T   T   T
  0.0989540143217026 -0.0000285430367685  0.4021824678778626   T   T   T
  0.1508564023444819  0.9996312263232303  0.4883486021603883   T   T   T
  0.9996936697347910  0.9998843780968057  0.4722384593740174   T   T   T
  0.3485263953909327  0.9999367545637964  0.4876402500677372   T   T   T
  0.4034021719934793  0.9998658120204189  0.5702539818448621   T   T   T
  0.2505090681047044  0.0002864947375404  0.5577596381713398   T   T   T
  0.0972006274786426  0.9992149664528976  0.5725131828657967   T   T   T
  0.4070505905542277  0.5000000000000000  0.2321160648471405   F   F   F
  0.2499999997239044  0.5000000000000000  0.1975324349659786   F   F   F
  0.0929494094457723  0.5000000000000000  0.2321160648471405   F   F   F
  0.1544227962345630  0.6249999998929567  0.3158353176496362   F   F   F
  0.0000000000000000  0.6249999998929567  0.3028242704748862   F   F   F
  0.3455772037654370  0.6249999998929567  0.3158353176496362   F   F   F
  0.4009395436211399  0.6250446570721742  0.4020376355616944   T   T   T
  0.2499488152137629  0.6250223538961805  0.3875746844618230   T   T   T
  0.0989306278236059  0.6249865618408940  0.4020955005794082   T   T   T
  0.1513449155988343  0.6249523526904396  0.4877275787366744   T   T   T
  0.9999168441186140  0.6249935718397790  0.4724962639216839   T   T   T
  0.3485330095129904  0.6250153098057653  0.4876574985295288   T   T   T
  0.4032070296880692  0.6248745344650434  0.5701160333566690   T   T   T
  0.2500230398149106  0.6249356608642016  0.5576997966302186   T   T   T
  0.0968956278108290  0.6250065082062596  0.5701850505898435   T   T   T
  0.4070505905542277  0.6249999998929567  0.2321160648471405   F   F   F
  0.2499999997239044  0.6249999998929567  0.1975324349659786   F   F   F
  0.0929494094457723  0.6249999998929567  0.2321160648471405   F   F   F
  0.1544227962345630  0.7500000002140865  0.3158353176496362   F   F   F
  0.0000000000000000  0.7500000002140865  0.3028242704748862   F   F   F
  0.3455772037654370  0.7500000002140865  0.3158353176496362   F   F   F
  0.4009525018210039  0.7500256939105394  0.4020899805193714   T   T   T
  0.2499557613581551  0.7500046049704919  0.3876016049075887   T   T   T
  0.0989262974716097  0.7499717605818900  0.4021014835264863   T   T   T
  0.1513329714655325  0.7499146398049510  0.4877302900635620   T   T   T
  0.9999110826927242  0.7500164697160099  0.4724690321122818   T   T   T
  0.3485335823922108  0.7499725614259493  0.4877234765622313   T   T   T
  0.4029708936163043  0.7499474114844500  0.5701788408489720   T   T   T
  0.2499552769767079  0.7500788591773911  0.5577743513376701   T   T   T
  0.0968442195349796  0.7498487704215087  0.5702412133483296   T   T   T
  0.4070505905542277  0.7500000002140865  0.2321160648471405   F   F   F
  0.2499999997239044  0.7500000002140865  0.1975324349659786   F   F   F
  0.0929494094457723  0.7500000002140865  0.2321160648471405   F   F   F
  0.1544227962345630  0.8750000001070433  0.3158353176496362   F   F   F
  0.0000000000000000  0.8750000001070433  0.3028242704748862   F   F   F
  0.3455772037654370  0.8750000001070433  0.3158353176496362   F   F   F
  0.4009341959651591  0.8750095738506390  0.4020772529438455   T   T   T
  0.2499698273731814  0.8749775110163263  0.3876080151332268   T   T   T
  0.0989612999078067  0.8749799995968537  0.4021467023837749   T   T   T
  0.1513095758055033  0.8749318260483165  0.4878658764381114   T   T   T
  0.9998889916922481  0.8750083909111450  0.4724621765079920   T   T   T
  0.3485153028894233  0.8749916918412208  0.4877097525490455   T   T   T
  0.4029178545007633  0.8748631840139720  0.5702033350673750   T   T   T
  0.2497675944071882  0.8755030846336841  0.5576245852718955   T   T   T
  0.0970834748856062  0.8748748764349900  0.5704864024953500   T   T   T
  0.4070505905542277  0.8750000001070433  0.2321160648471405   F   F   F
  0.2499999997239044  0.8750000001070433  0.1975324349659786   F   F   F
  0.0929494094457723  0.8750000001070433  0.2321160648471405   F   F   F
  0.1544227962345630  0.5000000000000000  0.3158353176496362   F   F   F
  0.0000000000000000  0.5000000000000000  0.3028242704748862   F   F   F
  0.3455772037654370  0.5000000000000000  0.3158353176496362   F   F   F
  0.4008973063561818  0.5000281505225830  0.4019905239361052   T   T   T
  0.2499165533753189  0.4999720339907688  0.3875462001855009   T   T   T
  0.0989351612926787  0.5000427763916110  0.4020824988436748   T   T   T
  0.1512884643968392  0.5000591505393720  0.4876997050188387   T   T   T
  0.9999227849275157  0.5000284803660469  0.4724443277971972   T   T   T
  0.3484134178112764  0.5000979692053299  0.4875924978520598   T   T   T
  0.4033603006743013  0.4997147446788504  0.5699420817543364   T   T   T
  0.2500997243576875  0.4999611047829486  0.5576573277095630   T   T   T
  0.0971801659785730  0.5000879916670508  0.5702741148614301   T   T   T
  0.9070505905542277  0.0000000000000000  0.2321160648471405   F   F   F
  0.7499999997239044  0.0000000000000000  0.1975324349659786   F   F   F
  0.5929494094457723  0.0000000000000000  0.2321160648471405   F   F   F
  0.6544227962345630  0.1249999998929567  0.3158353176496362   F   F   F
  0.5000000000000000  0.1249999998929567  0.3028242704748862   F   F   F
  0.8455772037654370  0.1249999998929567  0.3158353176496362   F   F   F
  0.9008788557311981  0.1250347060063403  0.4019882188515782   T   T   T
  0.7498975030453559  0.1249636545903068  0.3875372762813585   T   T   T
  0.5989324950976237  0.1249868500919521  0.4021020704913055   T   T   T
  0.6512595424368628  0.1248760002365985  0.4877151632214530   T   T   T
  0.4998854259290492  0.1250103202967891  0.4724272845416118   T   T   T
  0.8483795038427446  0.1250517923921650  0.4875869080821230   T   T   T
  0.9032830430699452  0.1247357136668526  0.5699174143808726   T   T   T
  0.7500448809399168  0.1250766514457867  0.5576946300199934   T   T   T
  0.5970984806971583  0.1248841405293136  0.5702959781926742   T   T   T
  0.9070505905542277  0.1249999998929567  0.2321160648471405   F   F   F
  0.7499999997239044  0.1249999998929567  0.1975324349659786   F   F   F
  0.5929494094457723  0.1249999998929567  0.2321160648471405   F   F   F
  0.6544227962345630  0.2500000002140865  0.3158353176496362   F   F   F
  0.5000000000000000  0.2500000002140865  0.3028242704748862   F   F   F
  0.8455772037654370  0.2500000002140865  0.3158353176496362   F   F   F
  0.9009191388030403  0.2500456556550559  0.4020167798235697   T   T   T
  0.7499460052689114  0.2499902139707622  0.3875631143368294   T   T   T
  0.5989350788768641  0.2499719947265681  0.4021530635539430   T   T   T
  0.6512810371452892  0.2499006401514258  0.4878779514710282   T   T   T
  0.4998691134403364  0.2499950302771534  0.4724576576437083   T   T   T
  0.8484886705004021  0.2500301463713538  0.4876151304369485   T   T   T
  0.9031240954827161  0.2497062234576032  0.5700742890766592   T   T   T
  0.7498427122953830  0.2504206886986419  0.5575736322923597   T   T   T
  0.5970957757054161  0.2499036245988761  0.5704618212204686   T   T   T
  0.9070505905542277  0.2500000002140865  0.2321160648471405   F   F   F
  0.7499999997239044  0.2500000002140865  0.1975324349659786   F   F   F
  0.5929494094457723  0.2500000002140865  0.2321160648471405   F   F   F
  0.6544227962345630  0.3750000001070433  0.3158353176496362   F   F   F
  0.5000000000000000  0.3750000001070433  0.3028242704748862   F   F   F
  0.8455772037654370  0.3750000001070433  0.3158353176496362   F   F   F
  0.9009207561171657  0.3750356944673565  0.4020399426964786   T   T   T
  0.7498869396882751  0.3750763526687643  0.3876961149130683   T   T   T
  0.5989406867145937  0.3749750996588260  0.4021939813685326   T   T   T
  0.6508528945856960  0.3746538048467312  0.4883515417988779   T   T   T
  0.4996942166252545  0.3749028032045555  0.4722551512947000   T   T   T
  0.8485300586055116  0.3749214774685461  0.4876139920267311   T   T   T
  0.9034177492468395  0.3747313870782669  0.5702342522086535   T   T   T
  0.7505523189631904  0.3752043112874979  0.5577451190034943   T   T   T
  0.5971948956561318  0.3741726508506882  0.5725099223182614   T   T   T
  0.9070505905542277  0.3750000001070433  0.2321160648471405   F   F   F