Ta  N Cu                                
   1.00000000000000     
     9.0548154099999998    0.0000000000000000    0.0000000000000000
     0.0000000000000000   11.6775998899999998    0.0000000000000000
     0.0000000000000000    0.0000000000000000   23.4818170799999990
   Ta   N    Cu
    60    60     1
Selective dynamics
Direct
  0.0000000000000000  0.0000000000000000  0.2546926809530987   F   F   F
  0.6670845899906297  0.1250000003211298  0.2638822399803757   F   F   F
  0.3329153514769843  0.1250000003211298  0.2638822399803757   F   F   F
  0.4999999994478088  0.2499999997859135  0.3618861993156202   F   F   F
  0.1650707596845180  0.1250000003211298  0.3684425577811794   F   F   F
  0.8349292403154820  0.1250000003211298  0.3684425577811794   F   F   F
  0.0000588390683955  0.2500437150033735  0.4798297597461481   T   T   T
  0.6650832109845025  0.1250014054351374  0.4780723557260376   T   T   T
  0.3349846224608612  0.1250022402987872  0.4780776369535633   T   T   T
  0.5000504435082223  0.2499585204972548  0.5904913848670568   T   T   T
  0.1681032673948056  0.1249679787489407  0.5900294667005748   T   T   T
  0.8320188921003768  0.1249671532034194  0.5900108523852553   T   T   T
  0.0001511744486952  0.2499011603966445  0.7018202144448594   T   T   T
  0.6767895086021438  0.1248504301011248  0.7027769327380283   T   T   T
  0.3234233880222530  0.1248596450259582  0.7027974643765615   T   T   T
  0.0000000000000000  0.2499999997859135  0.2546926809530987   F   F   F
  0.6670845899906297  0.3750000001070433  0.2638822399803757   F   F   F
  0.3329153514769843  0.3750000001070433  0.2638822399803757   F   F   F
  0.4999999994478088  0.5000000004281731  0.3618861993156202   F   F   F
  0.1650707596845180  0.3750000001070433  0.3684425577811794   F   F   F
  0.8349292403154820  0.3750000001070433  0.3684425577811794   F   F   F
  0.0000402879924528  0.4999537244640456  0.4798144459995054   T   T   T
  0.6650058118349585  0.3750169775034967  0.4780954286475527   T   T   T
  0.3350460207376670  0.3750175519136186  0.4780977501281659   T   T   T
  0.5000337984873334  0.4997649808866322  0.5908333460796864   T   T   T
  0.1683199685441610  0.3751258592137887  0.5901548501004632   T   T   T
  0.8317999657912151  0.3751159193777008  0.5901365429651492   T   T   T
  0.0000718275811942  0.4998588596877301  0.7018882079399599   T   T   T
  0.6724281349160693  0.3762674403423138  0.7048545334251352   T   T   T
  0.3277269559011263  0.3762733793203588  0.7048772716656474   T   T   T
  0.0000000000000000  0.5000000004281731  0.2546926809530987   F   F   F
  0.6670845899906297  0.6249999998929567  0.2638822399803757   F   F   F
  0.3329153514769843  0.6249999998929567  0.2638822399803757   F   F   F
  0.4999999994478088  0.7500000002140865  0.3618861993156202   F   F   F
  0.1650707596845180  0.6249999998929567  0.3684425577811794   F   F   F
  0.8349292403154820  0.6249999998929567  0.3684425577811794   F   F   F
  0.0000403126799052  0.7500225735005037  0.4798080750516205   T   T   T
  0.6649437334265486  0.6249964133518329  0.4781251472925270   T   T   T
  0.3350857587287654  0.6249975939891269  0.4781276882345383   T   T   T
  0.5000284395115649  0.7501202203609965  0.5908265584010987   T   T   T
  0.1679465388151179  0.6249492470850704  0.5900722478450018   T   T   T
  0.8321250415291570  0.6249438382740820  0.5900609872784626   T   T   T
  0.0000738354466246  0.7498543110626800  0.7018959037434487   T   T   T
  0.6700729684756435  0.6248153309543354  0.7042697892509380   T   T   T
  0.3300159536135214  0.6248188087116873  0.7042823190673454   T   T   T
  0.0000000000000000  0.7500000002140865  0.2546926809530987   F   F   F
  0.6670845899906297  0.8750000005352163  0.2638822399803757   F   F   F
  0.3329153514769843  0.8750000005352163  0.2638822399803757   F   F   F
  0.4999999994478088  0.0000000000000000  0.3618861993156202   F   F   F
  0.1650707596845180  0.8750000005352163  0.3684425577811794   F   F   F
  0.8349292403154820  0.8750000005352163  0.3684425577811794   F   F   F
  0.0000603738487295  0.9999586262568964  0.4798216387479089   T   T   T
  0.6650170006335134  0.8749783452085894  0.4780933295137535   T   T   T
  0.3350386085484111  0.8749771704827811  0.4780959883906472   T   T   T
  0.5000525249865325  0.9999545040383330  0.5904714482222864   T   T   T
  0.1682764371924216  0.8747947195112874  0.5901286398952234   T   T   T
  0.8318403362472014  0.8748054323987111  0.5901135647997946   T   T   T
  0.0001762313908936  0.9998158247623793  0.7018256403026331   T   T   T
  0.6724901909273217  0.8733509326806810  0.7047687396228077   T   T   T
  0.3277084756015687  0.8733414957811945  0.7047904210843574   T   T   T
  0.8141011533980276  0.0000000000000000  0.3013105672926031   F   F   F
  0.4999999994478088  0.0000000000000000  0.2564174481620327   F   F   F
  0.1858988466019724  0.0000000000000000  0.3013105672926031   F   F   F
  0.3088456122590841  0.2499999997859135  0.4099867722441957   F   F   F
  0.0000000000000000  0.2499999997859135  0.3930971035158137   F   F   F
  0.6911543877409159  0.2499999997859135  0.4099867722441957   F   F   F
  0.8021733956771743  0.2500792462272672  0.5221295661551497   T   T   T
  0.5000342967279386  0.2500181704980223  0.5025770671024186   T   T   T
  0.1979345829178920  0.2500777864481605  0.5221464196045279   T   T   T
  0.3049226286604166  0.2509313250292980  0.6336092343902513   T   T   T
  0.0000629894879069  0.2501208461602173  0.6134097420243432   T   T   T
  0.6952010382240051  0.2509267235583597  0.6335842178615035   T   T   T
  0.8075452797399250  0.2502509558079139  0.7408773197875317   T   T   T
  0.5001139677497222  0.2469027268792246  0.7289157970329048   T   T   T
  0.1926951483098547  0.2502485806392986  0.7409286348974424   T   T   T
  0.8141011533980276  0.2499999997859135  0.3013105672926031   F   F   F
  0.4999999994478088  0.2499999997859135  0.2564174481620327   F   F   F
  0.1858988466019724  0.2499999997859135  0.3013105672926031   F   F   F
  0.3088456122590841  0.5000000004281731  0.4099867722441957   F   F   F
  0.0000000000000000  0.5000000004281731  0.3930971035158137   F   F   F
  0.6911543877409159  0.5000000004281731  0.4099867722441957   F   F   F
  0.8022838202299366  0.4999814208841438  0.5221733471550378   T   T   T
  0.5000256755627188  0.5000489886124116  0.5028341574280886   T   T   T
  0.1977841203541144  0.4999804798119725  0.5221842127964560   T   T   T
  0.3044082531180732  0.4999984685690905  0.6335049100131521   T   T   T
  0.0000412557222060  0.4999359031569318  0.6135261734715500   T   T   T
  0.6956743801385411  0.4999914843551266  0.6334902301485061   T   T   T
  0.8065610150654000  0.4999900537091256  0.7406241094126972   T   T   T
  0.5000640684623501  0.4992171328179238  0.7247225937146704   T   T   T
  0.1935564162745263  0.4999953009005051  0.7406451198531127   T   T   T
  0.8141011533980276  0.5000000004281731  0.3013105672926031   F   F   F
  0.4999999994478088  0.5000000004281731  0.2564174481620327   F   F   F
  0.1858988466019724  0.5000000004281731  0.3013105672926031   F   F   F
  0.3088456122590841  0.7500000002140865  0.4099867722441957   F   F   F
  0.0000000000000000  0.7500000002140865  0.3930971035158137   F   F   F
  0.6911543877409159  0.7500000002140865  0.4099867722441957   F   F   F
  0.8022966531959163  0.7499762379557369  0.5221660971067532   T   T   T
  0.5000258458732063  0.7499452370790011  0.5028302136266252   T   T   T
  0.1977763224482187  0.7499769671520978  0.5221753599475767   T   T   T
  0.3043765708428685  0.7498351983581885  0.6334700054781393   T   T   T
  0.0000406028358228  0.7499516080497352  0.6135180892233677   T   T   T
  0.6957159402161682  0.7498414657874983  0.6334563808345582   T   T   T
  0.8065623030332963  0.7496293049874388  0.7406102498153461   T   T   T
  0.5000709146431359  0.7503709628606302  0.7246266421140050   T   T   T
  0.1935793543829527  0.7496336117268434  0.7406304353699690   T   T   T
  0.8141011533980276  0.7500000002140865  0.3013105672926031   F   F   F
  0.4999999994478088  0.7500000002140865  0.2564174481620327   F   F   F
  0.1858988466019724  0.7500000002140865  0.3013105672926031   F   F   F
  0.3088456122590841  0.0000000000000000  0.4099867722441957   F   F   F
  0.0000000000000000  0.0000000000000000  0.3930971035158137   F   F   F
  0.6911543877409159  0.0000000000000000  0.4099867722441957   F   F   F
  0.8021888249412898  0.9999129334729729  0.5221239242618589   T   T   T
  0.5000366266720684  0.9999798511580866  0.5025719479090215   T   T   T
  0.1979229312374585  0.9999133634113528  0.5221392641681324   T   T   T
  0.3048799135543261  0.9989391475467011  0.6335651838196608   T   T   T
  0.0000647481890491  0.9998140005863700  0.6134163607427777   T   T   T
  0.6952525541367208  0.9989460230391457  0.6335404184367088   T   T   T
  0.8075116406194123  0.9994126166902311  0.7408541887841099   T   T   T
  0.5001307244497083  0.0021704267957672  0.7287032806710947   T   T   T
  0.1927803031964996  0.9994103739705111  0.7409115977227200   T   T   T
  0.5000669529173264  0.1232924528875641  0.7922311607111963   T   T   T
 
  0.00000000E+00  0.00000000E+00  0.00000000E+00
  0.00000000E+00  0.00000000E+00  0.00000000E+00
  0.00000000E+00  0.00000000E+00  0.00000000E+00
  0.00000000E+00  0.00000000E+00  0.00000000E+00
  0.00000000E+00  0.00000000E+00  0.00000000E+00
  0.00000000E+00  0.00000000E+00  0.00000000E+00
  0.00000000E+00  0.00000000E+00  0.00000000E+00
  0.00000000E+00  0.00000000E+00  0.00000000E+00
  0.00000000E+00  0.00000000E+00  0.00000000E+00
  0.00000000E+00  0.00000000E+00  0.00000000E+00
  0.00000000E+00  0.00000000E+00  0.00000000E+00
  0.00000000E+00  0.00000000E+00  0.00000000E+00
  0.00000000E+00  0.00000000E+00  0.00000000E+00
  0.00000000E+00  0.00000000E+00  0.00000000E+00
  0.00000000E+00  0.00000000E+00  0.00000000E+00
  0.00000000E+00  0.00000000E+00  0.00000000E+00
  0.00000000E+00  0.00000000E+00  0.00000000E+00
  0.00000000E+00  0.00000000E+00  0.00000000E+00
  0.00000000E+00  0.00000000E+00  0.00000000E+00
  0.00000000E+00  0.00000000E+00  0.00000000E+00
  0.00000000E+00  0.00000000E+00  0.00000000E+00
  0.00000000E+00  0.00000000E+00  0.00000000E+00
  0.00000000E+00  0.00000000E+00  0.00000000E+00
  0.00000000E+00  0.00000000E+00  0.00000000E+00
  0.00000000E+00  0.00000000E+00  0.00000000E+00
  0.00000000E+00  0.00000000E+00  0.00000000E+00
  0.00000000E+00  0.00000000E+00  0.00000000E+00
  0.00000000E+00  0.00000000E+00  0.00000000E+00
  0.00000000E+00  0.00000000E+00  0.00000000E+00
  0.00000000E+00  0.00000000E+00  0.00000000E+00
  0.00000000E+00  0.00000000E+00  0.00000000E+00
  0.00000000E+00  0.00000000E+00  0.00000000E+00
  0.00000000E+00  0.00000000E+00  0.00000000E+00
  0.00000000E+00  0.00000000E+00  0.00000000E+00
  0.00000000E+00  0.00000000E+00  0.00000000E+00
  0.00000000E+00  0.00000000E+00  0.00000000E+00
  0.00000000E+00  0.00000000E+00  0.00000000E+00
  0.00000000E+00  0.00000000E+00  0.00000000E+00
  0.00000000E+00  0.00000000E+00  0.00000000E+00
  0.00000000E+00  0.00000000E+00  0.00000000E+00
  0.00000000E+00  0.00000000E+00  0.00000000E+00
  0.00000000E+00  0.00000000E+00  0.00000000E+00
  0.00000000E+00  0.00000000E+00  0.00000000E+00
  0.00000000E+00  0.00000000E+00  0.00000000E+00
  0.00000000E+00  0.00000000E+00  0.00000000E+00
  0.00000000E+00  0.00000000E+00  0.00000000E+00
  0.00000000E+00  0.00000000E+00  0.00000000E+00
  0.00000000E+00  0.00000000E+00  0.00000000E+00
  0.00000000E+00  0.00000000E+00  0.00000000E+00
  0.00000000E+00  0.00000000E+00  0.00000000E+00
  0.00000000E+00  0.00000000E+00  0.00000000E+00
  0.00000000E+00  0.00000000E+00  0.00000000E+00
  0.00000000E+00  0.00000000E+00  0.00000000E+00
  0.00000000E+00  0.00000000E+00  0.00000000E+00
  0.00000000E+00  0.00000000E+00  0.00000000E+00
  0.00000000E+00  0.00000000E+00  0.00000000E+00
  0.00000000E+00  0.00000000E+00  0.00000000E+00
  0.00000000E+00  0.00000000E+00  0.00000000E+00
  0.00000000E+00  0.00000000E+00  0.00000000E+00
  0.00000000E+00  0.00000000E+00  0.00000000E+00
  0.00000000E+00  0.00000000E+00  0.00000000E+00
  0.00000000E+00  0.00000000E+00  0.00000000E+00
  0.00000000E+00  0.00000000E+00  0.00000000E+00
  0.00000000E+00  0.00000000E+00  0.00000000E+00
  0.00000000E+00  0.00000000E+00  0.00000000E+00
  0.00000000E+00  0.00000000E+00  0.00000000E+00
  0.00000000E+00  0.00000000E+00  0.00000000E+00
  0.00000000E+00  0.00000000E+00  0.00000000E+00
  0.00000000E+00  0.00000000E+00  0.00000000E+00
  0.00000000E+00  0.00000000E+00  0.00000000E+00
  0.00000000E+00  0.00000000E+00  0.00000000E+00
  0.00000000E+00  0.00000000E+00  0.00000000E+00
  0.00000000E+00  0.00000000E+00  0.00000000E+00
  0.00000000E+00  0.00000000E+00  0.00000000E+00
  0.00000000E+00  0.00000000E+00  0.00000000E+00
  0.00000000E+00  0.00000000E+00  0.00000000E+00
  0.00000000E+00  0.00000000E+00  0.00000000E+00
  0.00000000E+00  0.00000000E+00  0.00000000E+00
  0.00000000E+00  0.00000000E+00  0.00000000E+00
  0.00000000E+00  0.00000000E+00  0.00000000E+00
  0.00000000E+00  0.00000000E+00  0.00000000E+00
  0.00000000E+00  0.00000000E+00  0.00000000E+00
  0.00000000E+00  0.00000000E+00  0.00000000E+00
  0.00000000E+00  0.00000000E+00  0.00000000E+00
  0.00000000E+00  0.00000000E+00  0.00000000E+00
  0.00000000E+00  0.00000000E+00  0.00000000E+00
  0.00000000E+00  0.00000000E+00  0.00000000E+00
  0.00000000E+00  0.00000000E+00  0.00000000E+00
  0.00000000E+00  0.00000000E+00  0.00000000E+00
  0.00000000E+00  0.00000000E+00  0.00000000E+00
  0.00000000E+00  0.00000000E+00  0.00000000E+00
  0.00000000E+00  0.00000000E+00  0.00000000E+00
  0.00000000E+00  0.00000000E+00  0.00000000E+00
  0.00000000E+00  0.00000000E+00  0.00000000E+00
  0.00000000E+00  0.00000000E+00  0.00000000E+00
  0.00000000E+00  0.00000000E+00  0.00000000E+00
  0.00000000E+00  0.00000000E+00  0.00000000E+00
  0.00000000E+00  0.00000000E+00  0.00000000E+00
  0.00000000E+00  0.00000000E+00  0.00000000E+00
  0.00000000E+00  0.00000000E+00  0.00000000E+00
  0.00000000E+00  0.00000000E+00  0.00000000E+00
  0.00000000E+00  0.00000000E+00  0.00000000E+00
  0.00000000E+00  0.00000000E+00  0.00000000E+00
  0.00000000E+00  0.00000000E+00  0.00000000E+00
  0.00000000E+00  0.00000000E+00  0.00000000E+00
  0.00000000E+00  0.00000000E+00  0.00000000E+00
  0.00000000E+00  0.00000000E+00  0.00000000E+00
  0.00000000E+00  0.00000000E+00  0.00000000E+00
  0.00000000E+00  0.00000000E+00  0.00000000E+00
  0.00000000E+00  0.00000000E+00  0.00000000E+00
  0.00000000E+00  0.00000000E+00  0.00000000E+00
  0.00000000E+00  0.00000000E+00  0.00000000E+00
  0.00000000E+00  0.00000000E+00  0.00000000E+00
  0.00000000E+00  0.00000000E+00  0.00000000E+00
  0.00000000E+00  0.00000000E+00  0.00000000E+00
  0.00000000E+00  0.00000000E+00  0.00000000E+00
  0.00000000E+00  0.00000000E+00  0.00000000E+00
  0.00000000E+00  0.00000000E+00  0.00000000E+00
  0.00000000E+00  0.00000000E+00  0.00000000E+00
  0.00000000E+00  0.00000000E+00  0.00000000E+00
  0.00000000E+00  0.00000000E+00  0.00000000E+00
