Ta  N Co Cu                             
   1.00000000000000     
    18.1096308199999996    0.0000000000000000    0.0000000000000000
     0.0000000000000000   23.3551997799999995    0.0000000000000000
     0.0000000000000000    0.0000000000000000   30.4818171199999988
   Ta   N    Co   Cu
   192   240    48     2
Direct
  0.9998037612103516  0.9999540953881620  0.1964079498614950
  0.3340841322659500  0.0624693047651377  0.2024979239467015
  0.1653729399739419  0.0624826844022124  0.2020694784530477
  0.2492521816296502  0.1250686781528429  0.2777929033922035
  0.0819607738489978  0.0625652805673553  0.2832555464892863
  0.4160298045433777  0.0625178332243479  0.2844883600738157
  0.9988904920502151  0.1251446483401395  0.3688190319356508
  0.3309956535768208  0.0626003627833001  0.3692848851734212
  0.1663023916583981  0.0627784493949335  0.3682537212874806
  0.2458590416675861  0.1262627690954261  0.4567711520378381
  0.0817826953579939  0.0635083478108527  0.4537832815730170
  0.4120372493831965  0.0623236057154060  0.4568528533449552
  0.9998572606033633  0.1251133838064433  0.1964049333879245
  0.3341817204188970  0.1875237378487000  0.2024622500427782
  0.1653822500040718  0.1875108392832345  0.2019659756525130
  0.2494050178739826  0.2498639558856084  0.2775653725792395
  0.0818558721734490  0.1875102451020467  0.2832062066403651
  0.4161374820644639  0.1874305632121249  0.2843251047107245
  0.9990775273042587  0.2500381172656461  0.3687220597794720
  0.3310199670339458  0.1873448749351212  0.3683872711770420
  0.1665470860981131  0.1875934669313466  0.3678219335770834
  0.2474817448586961  0.2486688702334447  0.4561946313928331
  0.0812389492108636  0.1884748242014069  0.4537670908662221
  0.4141972678058536  0.1877022691148795  0.4536609167954637
  0.9996345150693600  0.2499943687042858  0.1964398319390526
  0.3341805136629219  0.3125399896029322  0.2025977904475553
  0.1656745924192577  0.3125308627662733  0.2019791117086740
  0.2497954231961614  0.3750315552287731  0.2775456126578959
  0.0818609606670293  0.3124935058462697  0.2830261331724770
  0.4165049996833616  0.3124204031125117  0.2843493129712868
  0.9990013447495159  0.3750571379637648  0.3687239728541698
  0.3312820087990573  0.3122906474750238  0.3685358817849078
  0.1667947635424198  0.3124908999986431  0.3673529799400868
  0.2484924883271091  0.3737242766070850  0.4546143614778799
  0.0825874433776406  0.3129377793280810  0.4528573521850490
  0.4133233552039215  0.3104114143578087  0.4554620132722889
  0.9996262135107159  0.3751604000715147  0.1964771978022526
  0.3343615135135920  0.4375052036344158  0.2027480265020642
  0.1655987994332619  0.4374984557588562  0.2020439267892655
  0.2491463616808502  0.0001386032700736  0.2777844603790101
  0.0819002112017060  0.4375014198822385  0.2830796091614118
  0.4166755627804832  0.4374087893937286  0.2845801985427485
  0.9989585591805081  0.0000254038702465  0.3687423275684552
  0.3322063154348882  0.4372485865866551  0.3689810285730530
  0.1671056770711488  0.4375407571141565  0.3671134946894696
  0.2454602187523491  0.0003560078804057  0.4566556506370247
  0.0826970765935187  0.4373886069165565  0.4529059866518779
  0.4157525535997166  0.4356527856770285  0.4565169939794558
  0.9995212270842515  0.5001060781349054  0.1966223613632820
  0.3344139293688499  0.5624312445235375  0.2028151691694546
  0.1654186794642953  0.5624730807760301  0.2020722033601672
  0.2495749430888878  0.6248719071412694  0.2778692900596837
  0.0820431527321759  0.5625136553384564  0.2832743038474348
  0.4166440846306543  0.5623197267977957  0.2848372918696640
  0.9995560814702884  0.6249243210650874  0.3689057313004369
  0.3322609894444000  0.5619896278219372  0.3691201798800918
  0.1667031047546246  0.5624328328655395  0.3676816406651895
  0.2482917728910792  0.6247840589245612  0.4553375446268504
  0.0835675731099101  0.5630079720738692  0.4544738227861771
  0.4155593228159233  0.5612300722080903  0.4579243023505555
  0.9997940756220132  0.6248431624413655  0.1966082341892275
  0.3341174791163795  0.6873496578940390  0.2027171564503618
  0.1653785186192209  0.6875047598179123  0.2020577020309062
  0.2491095538790375  0.7500008532441100  0.2776880178550414
  0.0822943548727721  0.6874890514248122  0.2832963362785179
  0.4158961099411300  0.6872964461197100  0.2846731244399692
  0.9994452890190217  0.7499929917989263  0.3686262227670625
  0.3307640564536669  0.6873036789464493  0.3688685105260632
  0.1667368692648878  0.6875607735778502  0.3682501872343664
  0.2507998009411523  0.7492705233923331  0.4564742958781025
  0.0829784378234351  0.6883337082389502  0.4534989589406209
  0.4132002532993582  0.6876314548631299  0.4546587210217297
  0.9996977701146577  0.7498702402389554  0.1965450812790692
  0.3339460823260083  0.8123304385168097  0.2024748991568401
  0.1654135360872715  0.8124299784441646  0.2020441529733716
  0.2489507050828479  0.8751413645858221  0.2776902394282104
  0.0820583649948645  0.8125314553198280  0.2832336863321316
  0.4156976494836897  0.8124567608867821  0.2843107355151275
  0.9990400399460952  0.8750371370943526  0.3688273765596648
  0.3303128745051609  0.8128592673969308  0.3686094288135564
  0.1659998676296865  0.8126777744951141  0.3682485099829123
  0.2445011589743658  0.8764677683147184  0.4555154681626377
  0.0820003980785700  0.8130876797171780  0.4544661045531981
  0.4113344591696659  0.8134388551153151  0.4550929304339988
  0.9999187598129993  0.8748485650362667  0.1964407393269170
  0.3339328837669200  0.9375824386475244  0.2025237617417091
  0.1654120805761039  0.9375398228991685  0.2020998225612018
  0.2499868046971585  0.5000133845335810  0.2777722429967184
  0.0818447298720173  0.9375510372931188  0.2832968046440243
  0.4157406265966870  0.9375929494827417  0.2843209616513604
  0.9988960950699450  0.5002001837884507  0.3688542957529251
  0.3308387055812432  0.9379895829122447  0.3686895872215104
  0.1660444844070454  0.9379099536034161  0.3681563283779923
  0.2493537022447256  0.4967974094779208  0.4547375659998067
  0.0810768274734102  0.9382929486078169  0.4544986318891944
  0.4132598414568776  0.9382205187903807  0.4552912004548162
  0.4982338292845228  0.9999296363973826  0.1972175979920507
  0.8325325114411868  0.0624594895329764  0.2013643275828301
  0.6636974510945564  0.0624379344845494  0.2019237986347804
  0.7482147731082094  0.1248613925155411  0.2766303833563200
  0.5812980824474181  0.0623682911584851  0.2836010693182089
  0.9163831893329686  0.0624267245624850  0.2821493248362898
  0.4995444848310200  0.1246213051499794  0.3703654035288579
  0.8310949174852951  0.0621233478167937  0.3658508670415088
  0.6648389350665767  0.0620784659406297  0.3681095383915292
  0.7495604827694109  0.1230254292533317  0.4519721149865106
  0.5843844428691227  0.0617495665742283  0.4587387036281640
  0.9124140297243031  0.0617242632196593  0.4530047209165460
  0.4984312980826004  0.1249389120916149  0.1972164647372523
  0.8326623600582721  0.1874327165906706  0.2013736357360969
  0.6637545624704160  0.1874465202272901  0.2019080399449322
  0.7484138971121368  0.2500355590570038  0.2769406461174029
  0.5814221644080391  0.1873935931092063  0.2837242613873414
  0.9162477287438406  0.1874951276822046  0.2823798359005707
  0.4996065945612074  0.2497034534719234  0.3702902878190102
  0.8313348398849740  0.1874754821747331  0.3666952786954809
  0.6660909193876350  0.1872265302503919  0.3681532376957719
  0.7476697545704596  0.2485335709317198  0.4551038147537483
  0.5827101334276392  0.1879083274103195  0.4550278005820161
  0.9130864270622894  0.1868869883990598  0.4529752979846080
  0.4988195713732111  0.2499009488579560  0.1972570388955930
  0.8325904267194346  0.3125926291111014  0.2015287402970927
  0.6639896200394730  0.3126640362408040  0.2021206324315372
  0.7484872686632897  0.3749620563783864  0.2770302260478985
  0.5815966868869893  0.3124402358407892  0.2838197809265495
  0.9163092432195654  0.3124908982894752  0.2824680264595401
  0.4997427073385836  0.3750632763884667  0.3706726535694713
  0.8315085663615207  0.3123245452409762  0.3668102587739455
  0.6663891663225456  0.3123709223510716  0.3678963995453515
  0.7525712247400804  0.3730270863780589  0.4522382959445892
  0.5829955295145908  0.3117453842199893  0.4545921504872581
  0.9137247035262632  0.3120586283108224  0.4534603704146534
  0.4987953341054592  0.3751003132450208  0.1973866752505913
  0.8326472435216061  0.4374871260271576  0.2016741349020919
  0.6639273021810865  0.4374839906058767  0.2023688041936182
  0.7479293161621854  0.9998271506500700  0.2766724200584818
  0.5816457477195698  0.4375357039023768  0.2841830568904271
  0.9162971359790930  0.4375315461145135  0.2826434939982434
  0.4992042342750622  0.0000385631768367  0.3706957970154292
  0.8316567106579242  0.4376399806309976  0.3670518300819907
  0.6657132971443218  0.4377790478876165  0.3686911013729102
  0.7493978158810251  0.9979460647795051  0.4516448586370529
  0.5878524990774991  0.4385971502579267  0.4586806330979911
  0.9146325910740813  0.4379118336458347  0.4539178995639261
  0.4988853362147054  0.5000698944134996  0.1976191424798941
  0.8326845908144591  0.5625859919974729  0.2017230571609403
  0.6636558400923818  0.5625179931256952  0.2024654680370404
  0.7481641072858736  0.6249354226789450  0.2773350205563290
  0.5815346330230753  0.5624602454401781  0.2844824354774360
  0.9163563631877949  0.5624535007907667  0.2828019330503579
  0.4991129899156377  0.6244713866392715  0.3713012189488794
  0.8315117492437523  0.5625327437833931  0.3671687199881433
  0.6658357013019511  0.5626333686082674  0.3690190232253698
  0.7505617808312977  0.6258463020819249  0.4549227670184237
  0.5887218743983595  0.5629622826737801  0.4580934348272834
  0.9133086438990006  0.5629566925553817  0.4539014401907124
  0.4985073584551074  0.6248752614805682  0.1976364246372171
  0.8324901202992123  0.6872180103857488  0.2016635627232759
  0.6635609539814595  0.6871454970030371  0.2022774697009027
  0.7480276923343325  0.7497293307799779  0.2771528510228265
  0.5812272261498990  0.6873068468861305  0.2841924184341735
  0.9164359617088422  0.6873715408203580  0.2825297198490304
  0.4975906337811153  0.7498249674797179  0.3701112375761753
  0.8312962189299213  0.6872580897937866  0.3667073687317099
  0.6657500441025093  0.6873258489874488  0.3689083956541310
  0.7478745862781722  0.7487975477570075  0.4546572016366852
  0.5833763842394930  0.6875636100781719  0.4567420880719553
  0.9134560385386692  0.6878779327887585  0.4532715454065439
  0.4983731551932351  0.7498610838670956  0.1974191190841807
  0.8324996962132758  0.8124109878548111  0.2014258588994622
  0.6635048193374828  0.8123190732665506  0.2019839007729658
  0.7479182559227624  0.8746456621591605  0.2766201040025251
  0.5810888825353473  0.8123024739808216  0.2837385494709608
  0.9164659807473612  0.8123347857320624  0.2822873007684166
  0.4977779669442839  0.8752766030322618  0.3698345230267890
  0.8310323361641281  0.8120612339143065  0.3660872720250197
  0.6653578806575098  0.8120498637572595  0.3679361236181862
  0.7459613828378195  0.8721413410690388  0.4529960057921798
  0.5799872958729111  0.8140506209501552  0.4534996204842230
  0.9125524578119908  0.8110391145033518  0.4527326511215719
  0.4980128134455555  0.8748099077877995  0.1972032094310663
  0.8323767033492047  0.9372038820954174  0.2013166685456866
  0.6636647246880614  0.9372482819765722  0.2018339958597366
  0.7482883602019541  0.5000511034183717  0.2773834962080528
  0.5808920965574202  0.9373546652607843  0.2836281717301858
  0.9164752139033610  0.9373352969533570  0.2821726718921553
  0.4995199148860721  0.4998558226189687  0.3714406450939549
  0.8308778408173438  0.9370535989964353  0.3658598229205197
  0.6651115169369746  0.9372157522831372  0.3680337808308778
  0.7513236856618306  0.5000301882272140  0.4541469945114684
  0.5854687977226689  0.9369436390245980  0.4564587790323955
  0.9133172742905984  0.9368384837568726  0.4521124279351767
  0.4045840638265901  0.0001381486924714  0.2327405521659500
  0.2496631967042262  0.0000921781834649  0.1991382610044994
  0.0939537570299294  0.0000072428138509  0.2315864211407543
  0.1538438981978629  0.1250639743220674  0.3152851527842486
  0.9988806316301719  0.1249645087465225  0.3020037539357219
  0.3438058567012021  0.1248135301842410  0.3160523236844881
  0.4003074892060567  0.1243699278236718  0.4021011947800375
  0.2483089201371058  0.1253757406136771  0.3883814820230924
  0.0981582500212994  0.1256374405015848  0.4014439355496862
  0.1462590577988294  0.1268491882746048  0.4885985514882449
  0.9962023376116704  0.1256732341576026  0.4707517600713302
  0.3462275284713527  0.1271816089357287  0.4836722740696757
  0.4439740979261018  0.1407758978382461  0.5648844379558824
  0.2821037391297452  0.1270411214904783  0.5603523093242373
  0.0698246600484325  0.1338926343902074  0.5611704273090865
  0.4047119982292600  0.1249226557071808  0.2326657808992962
  0.2497499536225263  0.1250122550279613  0.1996490479162674
  0.0939654893141082  0.1250520720436938  0.2315395472259354
  0.1539438413933567  0.2499552478044293  0.3150003160499040
  0.9989423155472608  0.2499696232280826  0.3019386147852217
  0.3439335375156816  0.2499173403662382  0.3158042244941015
  0.3995804905125766  0.2498567553088975  0.4012652950258939
  0.2485439993584251  0.2495699831354017  0.3879298594365892
  0.0984294910403563  0.2500948125851679  0.4010654365206037
  0.1483594495981180  0.2512535704689540  0.4880179372863225
  0.9972842082390372  0.2512916349734979  0.4712554082042359
  0.3469957207333536  0.2469445765482234  0.4845757408891629
  0.4954303665637596  0.2501839227587297  0.5846458689099592
  0.3039948652722515  0.2397091559952003  0.5677147960121758
  0.0758072041160744  0.2603371331252831  0.5610209299475102
  0.4049340918796247  0.2499609304080863  0.2325660729188286
  0.2498541286509095  0.2499624109115857  0.1991293762936337
  0.0939872364845371  0.2499783592854499  0.2313919877803059
  0.1541452692168832  0.3749905105130011  0.3147006779042698
  0.9989851252070849  0.3750217326690262  0.3019592537937967
  0.3444266789670252  0.3749592136903743  0.3160077464830664
  0.4004587509811657  0.3745122578762690  0.4024827276482839
  0.2489748139784851  0.3748548668250749  0.3867138433801074
  0.0986173505618169  0.3754121898053029  0.4005658233656177
  0.1502942547949715  0.3744329225263456  0.4860203858049061
  0.9981542269191692  0.3761857351740119  0.4708258771566776
  0.3478867516735988  0.3728686085025643  0.4843744248496833
  0.4389876247910180  0.2704745766467553  0.5919968387670167
  0.3252962274150448  0.3650526020791958  0.5707791442137236
  0.0840951505339262  0.3860715271872124  0.5604849165231798
  0.4051102254083574  0.3750256672250742  0.2327661484751999
  0.2499145844679376  0.3750827388309403  0.1991586183627732
  0.0939375165702714  0.3750475958307504  0.2313211555765022
  0.1538211290489002  0.0001581898439653  0.3154024116599530
  0.9989085718256163  0.0000227443515186  0.3019483988796594
  0.3436692396479870  0.0003001027239975  0.3162109204737220
  0.4001352531545663  0.0004398375085728  0.4028514464538446
  0.2482209745546271  0.0002930426037722  0.3882919646194551
  0.0981005457871973  0.0002146794168993  0.4017182031418400
  0.1467496081234145  0.0015774961881192  0.4888620730108997
  0.9964171433829065  0.0010424783387109  0.4706638635381566
  0.3450671142560680  0.0003930875300284  0.4867156303127445
  0.4435242279955744  0.0062478692879111  0.5775343062451839
  0.3970471523241983  0.0374680291006513  0.5888668767096306
  0.0686784393161233  0.0090352176026940  0.5612370676210290
  0.4051559156364064  0.5000164920856491  0.2330221266320223
  0.2499065827751608  0.5000493593254021  0.1996477019040057
  0.0939311822847628  0.5000436984282786  0.2314794260309370
  0.1541648929736112  0.6250255326717351  0.3152940259027730
  0.9991883059503266  0.6249917226542152  0.3021096341077865
  0.3440820053824467  0.6245982207512739  0.3163735220225945
  0.3998663566259211  0.6233964558046452  0.4031338130368596
  0.2489019220807265  0.6243368366286717  0.3877574721480741
  0.0987489472975085  0.6248287823109067  0.4015767995369472
  0.1508521822640319  0.6278641301984678  0.4871437855267757
  0.9994818605526135  0.6249492501514240  0.4717651020643032
  0.3459466315677631  0.6251964620426733  0.4850092228838534
  0.4161659228001255  0.6223710509268798  0.5752142486052279
  0.2447395713786520  0.5821675101698602  0.5527993077269500
  0.0922166329165890  0.6375309102405851  0.5650638498085954
  0.4048643192130257  0.6247721173092486  0.2331031914781363
  0.2497430756893664  0.6248782133423134  0.1999832469016738
  0.0940748514986893  0.6249048775484667  0.2316216678565794
  0.1539990354775469  0.7501178559409780  0.3154124998808285
  0.9991942219098462  0.7499368568040623  0.3019012832967505
  0.3433346145572571  0.7500524899307166  0.3160170316347504
  0.3980820422066955  0.7503841098082091  0.4017229888149885
  0.2486697331298444  0.7501569844510030  0.3882812716548045
  0.0983065772131795  0.7503259091372385  0.4014527546998536
  0.1520403966578741  0.7512430658624112  0.4864933878906328
  0.9975649219183396  0.7500973449408477  0.4723152792342162
  0.3496567510869255  0.7493584058166221  0.4872871666931289
  0.3866227474001462  0.7639063294301991  0.5774973052274888
  0.3548802533880391  0.7991737131900649  0.5962863553009683
  0.0756700119841582  0.7591559962075252  0.5585698570251196
  0.4045221651945852  0.7497973019191377  0.2327869701854937
  0.2497177197192642  0.7498618796792726  0.1990504556043504
  0.0940565737532424  0.7499739541629680  0.2315623562028080
  0.1536971941972496  0.8751988175423620  0.3154198677604825
  0.9989769144674696  0.8749481026070498  0.3019734205108620
  0.3434351961784685  0.8752517108139273  0.3159617648313073
  0.3991045062069603  0.8760515439603154  0.4017959001600886
  0.2477804332291598  0.8755779516425761  0.3876109640178100
  0.0980751752218580  0.8754149047481619  0.4019329565398522
  0.1461588536417295  0.8757851193215345  0.4889405583751127
  0.9960975703746371  0.8754159786540257  0.4718681031510954
  0.3433611404568637  0.8762634123320296  0.4839133243700786
  0.4297650676794191  0.8871164446330297  0.5686360322197004
  0.2747612680592511  0.9115022612760910  0.5665455881312127
  0.0635251888734842  0.8847932702063943  0.5601336215093724
  0.4043778646106446  0.8749559412033108  0.2326714483295547
  0.2497287058059925  0.8749766829450110  0.1995272570184881
  0.0940519735592176  0.8750229687252471  0.2316004532564833
  0.1542439514198293  0.5000319293236899  0.3148760849422132
  0.9990019308451252  0.4999948585661258  0.3020935955728490
  0.3447010898640741  0.4997697434172110  0.3163815050829513
  0.4006435264075137  0.4996629886737196  0.4040922001511902
  0.2493180408111257  0.4998980734048928  0.3869465290668259
  0.0982956193101714  0.5003487811819056  0.4006887071936660
  0.1494940617909180  0.4977730734240922  0.4833703140548238
  0.9993736301294618  0.5016994251309157  0.4717407411341554
  0.3479006204958566  0.4973798611298790  0.4876342483496430
  0.4595567766385713  0.4710793771315309  0.5860624611943663
  0.2331927913469443  0.4590344267958457  0.5486380937922135
  0.0994553699044403  0.5137716302455715  0.5622920308874129
  0.9046925700152357  0.9998293189839131  0.2303725424891852
  0.7481589905766839  0.9998418476943840  0.1987954924663811
  0.5926981277071874  0.9997970687031099  0.2319067841595412
  0.6534109509201400  0.1248013340916145  0.3152251319551311
  0.4989375910661380  0.1248847959410995  0.3034463019978091
  0.8437620525304652  0.1250322398609711  0.3137382997069977
  0.8989520398139774  0.1245044696695103  0.3998823224602148
  0.7488850473576179  0.1243592704506682  0.3849823464469253
  0.5984953043498109  0.1242718919670764  0.4027749554550581
  0.6550234908827335  0.1273476920151069  0.4838289496469912
  0.4986389520136143  0.1256374461323659  0.4740577490391544
  0.8453869659666111  0.1231533120265311  0.4833927600011023
  0.9026812024038762  0.1535961743233258  0.5628809500029206
  0.7488319826684062  0.0869367306916331  0.5522520179182777
  0.5720432949029473  0.0671258268658264  0.5330390560400673
  0.9047552045338136  0.1250161021685017  0.2304738982915495
  0.7482179164088549  0.1249527165859874  0.1982516901491920
  0.5928513244748288  0.1249651592155345  0.2319497886070536
  0.6538033400882313  0.2498086206364647  0.3153466220648440
  0.4991278785951465  0.2498867799145401  0.3034406632174225
  0.8439085578794518  0.2499319943983664  0.3141566152055830
  0.8995702202478100  0.2499409085359190  0.4002999084470318
  0.7488665355496948  0.2498221165377146  0.3868108655317641
  0.5993414078968939  0.2497484191034758  0.4021189588412284
  0.6480721695463529  0.2496007073805444  0.4884551806652340
  0.4984252547226546  0.2499205300028748  0.4713272183657651
  0.8474169300850534  0.2475005540292372  0.4835301004205377
  0.9098738714133887  0.2849802312779204  0.5648677248423510
  0.7738741702527392  0.2280014258921739  0.5565352091665474
  0.6051314725963977  0.1754065753913281  0.5602496895662554
  0.9046592314871447  0.2500121871646144  0.2306709000405363
  0.7483043840260279  0.2499716054511438  0.1991961480805813
  0.5930673116774159  0.2499533652809092  0.2321207011431952
  0.6537273503506782  0.3750958249131031  0.3154782469396480
  0.4992542976697010  0.3749443110299140  0.3037067570493406
  0.8441226224525735  0.3750164050251925  0.3142371491774867
  0.8995395829198998  0.3750483252733758  0.4006459234604733
  0.7493571094997407  0.3748014850697388  0.3853193719797687
  0.5989560029482988  0.3756817804252321  0.4026107874075109
  0.6571942857898634  0.3719932596465583  0.4824155333266376
  0.4994490681995600  0.3718907287396434  0.4734941079252977
  0.8481298967985467  0.3742844272877832  0.4841941111727124
  0.9120370377280693  0.4075218723348399  0.5598248586792351
  0.7580485922762037  0.3423122369692493  0.5526202487256882
  0.6016007497395677  0.3168348761712068  0.5575695246769996
  0.9046997331287372  0.3750550280994958  0.2307608986260874
  0.7483690181732570  0.3751078199724134  0.1983131330508101
  0.5930392659683577  0.3750849398441858  0.2322456577020162
  0.6529223986177470  0.9997051784186368  0.3151792692782251
  0.4987170281543740  0.0000586863062324  0.3036446475231998
  0.8438448333095536  0.9996817568361251  0.3134019022306447
  0.8989595175327310  0.9997772340188575  0.3995243416975285
  0.7486496516603935  0.9995966036795139  0.3842050354853015
  0.5981185533111528  0.9998397259516238  0.4034170131599240
  0.6559952630646677  0.9971630518283447  0.4860054019856861
  0.4980111328141987  0.9987556880913928  0.4762228691589598
  0.8463723233198692  0.9964852590962749  0.4829511996686975
  0.9018522190924898  0.0316432024032096  0.5625041898209844
  0.7627004337233245  0.9677819990854104  0.5696605639403600
  0.5880950491058812  0.9483356716930231  0.5694318329506061
  0.9046187221014108  0.5000671294694783  0.2309803634802918
  0.7482965253117655  0.5000780238729874  0.1995852240296401
  0.5930135777107211  0.5000647597125081  0.2326779940527715
  0.6534480120623911  0.6249889651834550  0.3160443745946964
  0.4989149389376450  0.6249139871715030  0.3042571607811553
  0.8439127386288945  0.6248257008287865  0.3142931247222336
  0.9002552428725465  0.6246111577158686  0.4003395755408832
  0.7492046869854008  0.6250707979076680  0.3866937537563686
  0.5982991698384339  0.6248652214129393  0.4038926355129178
  0.6545584523830641  0.6268889335332801  0.4881772222963434
  0.4989016097279304  0.6256269510694139  0.4764056670989660
  0.8496784597765483  0.6252902562284675  0.4837737057327089
  0.9317502163095384  0.6207014398678581  0.5672143373664227
  0.7868148860406521  0.6348982052821412  0.5601600033114877
  0.5626342315324280  0.6674183330437486  0.5623411520165931
  0.9047817049578128  0.6248687270084332  0.2308622014175015
  0.7481704563243952  0.6248582199143300  0.1986330308559729
  0.5927658234850099  0.6248425544246743  0.2325963765363923
  0.6531492808466766  0.7496290630862674  0.3155586235461527
  0.4984401587939686  0.7498136826060247  0.3034345761681863
  0.8439312629680273  0.7497288497168526  0.3139441645882073
  0.8999513669843893  0.7497333945474054  0.3994631085992282
  0.7487688032613420  0.7497443914778543  0.3865656545454996
  0.5966141019018991  0.7496688374676737  0.4021196280523327
  0.6462560466456821  0.7547462066011548  0.4841727982261972
  0.4941358337976993  0.7505646402056030  0.4707257672653142
  0.8462087216128680  0.7503169386349740  0.4817611047902730
  0.9109018111022067  0.7348412146047707  0.5642004720924447
  0.6962779513574233  0.7371261142912289  0.5555713607677006
  0.5281541554640938  0.7855672876665309  0.5480591407120130
  0.9046060038323773  0.7498042707930992  0.2306393293476603
  0.7481014077359589  0.7497408877908356  0.1996545220972692
  0.5927584052918533  0.7497135505058381  0.2322379644234047
  0.6530325388680680  0.8747406589998263  0.3151385899645405
  0.4984538094940945  0.8749097187721162  0.3031042317544035
  0.8436097776596156  0.8746379616988449  0.3135448825056457
  0.8991908668325337  0.8745141352676526  0.3993882214802937
  0.7483285847160275  0.8741341450450832  0.3855413715778582
  0.5968786690815548  0.8754789862531354  0.4018282120465457
  0.6496355765708799  0.8716288248177548  0.4852698093535395
  0.4976760738318617  0.8754726324347217  0.4748063755317915
  0.8457151185545158  0.8733764616025184  0.4808826178056052
  0.8943952714729946  0.9017389473057307  0.5651708648870652
  0.7418702207255166  0.8568990323031116  0.5617880087608924
  0.5815079791073714  0.8968155672946807  0.5704476634092259
  0.9047438605906564  0.8748313885734760  0.2304513905709129
  0.7480212363783281  0.8747138835892585  0.1980686018653159
  0.5926096056749159  0.8748377009835906  0.2318841173883257
  0.6536970173361993  0.5001595591136621  0.3160575374601535
  0.4992214070146304  0.4999115240377208  0.3043296196174907
  0.8440042877690459  0.5000386629218667  0.3144734935333631
  0.8997216206432199  0.5001024501282600  0.4011331608468822
  0.7492170580318032  0.5000915922698042  0.3864503832974862
  0.5983557496660339  0.5002142619852847  0.4035196604701738
  0.6571758689157363  0.5027696784906226  0.4846831842629271
  0.5008191444747965  0.5000622304878917  0.4767901445692289
  0.8485517835745071  0.4987852035431644  0.4862512935178600
  0.9433308493784054  0.5208799106759230  0.5731332414298791
  0.8078671886400883  0.5124621109574008  0.5762464300140380
  0.5844347048481069  0.4292161792453442  0.5351377262719339
  0.9839821083906202  0.1360975002552181  0.5342130554198405
  0.3659230102761200  0.1107472958853961  0.5823519157498822
  0.1080496607270405  0.0709089285748661  0.5367575332559866
  0.9900949358879387  0.2680951042980624  0.5346467275910385
  0.3152765896599448  0.1848884330038416  0.5306712847487844
  0.1096212681509243  0.1957104400046461  0.5363093597867845
  0.9973305355105992  0.3898984131080638  0.5339850612885257
  0.3475936221272633  0.2970709253124966  0.5852798978484373
  0.1157137303535265  0.3213773724797235  0.5349000603952234
  0.9833805737216608  0.0125099274293063  0.5336748285776238
  0.3086031160254308  0.4168289956630602  0.5311604767133957
  0.1327516231587680  0.4483375174908915  0.5374582211379249
  0.0092055877331418  0.6311007404075184  0.5362374986493279
  0.2864846269121699  0.5192400124945920  0.5369522228102142
  0.1420455057717831  0.5792549472243635  0.5419443595751972
  0.9899649974536189  0.7391643786971898  0.5359238116782166
  0.3369634465723408  0.6136108046137281  0.5448212267632258
  0.1219044710077952  0.6984593640833481  0.5345536166779397
  0.9770609107896462  0.8905394996718741  0.5343988049268376
  0.3474063106274698  0.8780012730703390  0.5918414446794174
  0.1099562985142200  0.8245953606780461  0.5380214981305471
  0.0138606353287827  0.5115766835077054  0.5359668644349753
  0.3091319086229234  0.9351515101892716  0.5202607593972530
  0.1074120655449704  0.9460214431690375  0.5374406711111064
  0.5248818291700346  0.1367756965991873  0.5374952519115368
  0.8510182260905736  0.0934834685424661  0.5433605235901737
  0.7201521542268665  0.0184328110261660  0.5369406890914945
  0.5777483562895256  0.2443036890928170  0.5408177723951653
  0.8662658493065862  0.2207958478688639  0.5446681208689981
  0.6552368498696737  0.1135937266058420  0.5452506620940980
  0.5345475984765500  0.3624987232156585  0.5338644489656232
  0.8608819582806788  0.3464509032861258  0.5432767578202018
  0.7139643976913703  0.2771250650374029  0.5402226571028521
  0.5233864881838528  0.0019462166289017  0.5401859519262899
  0.8777636375724356  0.4777338032679666  0.5473704056469160
  0.6665299103754023  0.3728226698227388  0.5448364044868157
  0.4828392035906219  0.6457924305174600  0.5392311239380376
  0.8489809662248433  0.5781464152695150  0.5757665214609915
  0.7074388543505563  0.6647175037599311  0.5382185991320156
  0.4451357689183126  0.7530104837636173  0.5277860083629591
  0.8737615235126057  0.6726318889802059  0.5427938376722921
  0.5986009582121810  0.7297982540338808  0.5436557515916220
  0.4984937836457348  0.8553198238495270  0.5402684362998471
  0.8309159750953441  0.8572698156536944  0.5398273933226321
  0.6955536863670275  0.8057799666362513  0.5285521441017309
  0.5067099833104649  0.4715293187277467  0.5375330060687062
  0.8548479316312694  0.9683683773264562  0.5459566863950229
  0.6911532553691586  0.9200635662089667  0.5732348737814590
  0.4286095706666231  0.5448096844386683  0.5805852465138841
  0.4132860640421683  0.4024959708680811  0.5843652235414680
 
  0.00000000E+00  0.00000000E+00  0.00000000E+00
  0.00000000E+00  0.00000000E+00  0.00000000E+00
  0.00000000E+00  0.00000000E+00  0.00000000E+00
  0.00000000E+00  0.00000000E+00  0.00000000E+00
  0.00000000E+00  0.00000000E+00  0.00000000E+00