generated by phonopy                    
   1.00000000000000     
     7.7482358616075171    0.0000000000000000    0.0000000000000000
    -3.8741179308037585    6.7101690906657216    0.0000000000000000
     0.0000000000000000   -0.0000000000000000    8.5217738349830636
   B    N    Al
    34    36     2
Direct
  0.1127466338630854  0.2261796958631700 -0.0196180961307180
  0.4467663953334206  0.2261796958631700 -0.0196180961307180
  0.7777777777777786  0.2222222222222214 -0.0194700454016219
  0.1127466338630854  0.5532336046665798 -0.0196180961307179
  0.4444444444444429  0.5555555555555571 -0.0158870401556906
  0.7738203041368298  0.5532336046665798 -0.0196180961307180
  0.4467663953334206  0.8872533661369149 -0.0196180961307180
  0.7738203041368298  0.8872533661369149 -0.0196180961307180
  0.1058002293099803  0.2205081234249049  0.4803432724029613
  0.4480412274482602  0.2205081234249049  0.4803432724029612
  0.7777777777777786  0.2222222222222214  0.4805315968736831
  0.1058002293099803  0.5519587725517394  0.4803432724029612
  0.7794918765750951  0.5519587725517394  0.4803432724029612
  0.1111111111111143  0.8888888888888857  0.4835485018973288
  0.4480412274482602  0.8941997706900198  0.4803432724029612
  0.7794918765750951  0.8941997706900198  0.4803432724029612
  0.2225571006114844  0.1117808678896404  0.2363548975221783
  0.5551644873547248  0.1109155770106982  0.2303949033474221
  0.8890844229893017  0.1109155770106982  0.2303949033474221
  0.2157251044386314  0.4411958855526477  0.2293660827739619
  0.5588041144473518  0.4411958855526477  0.2293660827739619
  0.8890844229893017  0.4448355126452750  0.2303949033474221
  0.2225571006114844  0.7774428993885152  0.2363548975221783
  0.5588041144473518  0.7842748955613689  0.2293660827739619
  0.8882191321103599  0.7774428993885152  0.2363548975221783
  0.2254901029163764  0.1176468724994240  0.7286806153123642
  0.5560435381060055  0.1113551023863385  0.7309185185174483
  0.8886448976136612  0.1113551023863385  0.7309185185174483
  0.2206952144156684  0.4436809405411665  0.7365290118229977
  0.5563190594588336  0.4436809405411665  0.7365290118229977
  0.8886448976136612  0.4439564618939943  0.7309185185174483
  0.2254901029163764  0.7745098970836242  0.7286806153123642
  0.5563190594588336  0.7793047855843314  0.7365290118229977
  0.8823531275005757  0.7745098970836242  0.7286806153123642
  0.2353626743926990  0.1373920154520692  0.9103441632400684
  0.5554734725340902  0.1110700696003807  0.9177544611291663
  0.8889299303996194  0.1110700696003807  0.9177544611291663
  0.2195638173727435  0.4431152420197038  0.9225769618495052
  0.5568847579802960  0.4431152420197038  0.9225769618495052
  0.8889299303996194  0.4445265274659099  0.9177544611291663
  0.2353626743926989  0.7646373256073011  0.9103441632400684
  0.5568847579802960  0.7804361826272567  0.9225769618495052
  0.8626079845479309  0.7646373256073011  0.9103441632400684
  0.2233750326507902  0.1134167319682519  0.4216894685636126
  0.5549777576876807  0.1108222121771760  0.4183101611271313
  0.8891777878228242  0.1108222121771760  0.4183101611271313
  0.1961934301923969  0.4314300484295308  0.4106833944009362
  0.5685699515704693  0.4314300484295308  0.4106833944009362
  0.8891777878228242  0.4450222423123195  0.4183101611271313
  0.2233750326507902  0.7766249673492093  0.4216894685636126
  0.5685699515704693  0.8038065698076028  0.4106833944009362
  0.8865832680317480  0.7766249673492093  0.4216894685636126
  0.1103537201292722  0.2204685207842114  0.1675636437836699
  0.4434481339882748  0.2204685207842114  0.1675636437836699
  0.7777777777777786  0.2222222222222214  0.1681330909053245
  0.1103537201292722  0.5565518660117249  0.1675636437836699
  0.4444444444444429  0.5555555555555571  0.1716274267180418
  0.7795314792157884  0.5565518660117249  0.1675636437836699
  0.1111111111111143  0.8888888888888857  0.1885757709227477
  0.4434481339882748  0.8896462798707279  0.1675636437836699
  0.7795314792157884  0.8896462798707279  0.1675636437836699
  0.1105178935688554  0.2236702003985640  0.6675428731682151
  0.4464856401630444  0.2236702003985640  0.6675428731682151
  0.7777777777777786  0.2222222222222214  0.6680697117349252
  0.1105178935688554  0.5535143598369555  0.6675428731682151
  0.4444444444444429  0.5555555555555571  0.6894024786486495
  0.7763297996014358  0.5535143598369555  0.6675428731682151
  0.1111111111111143  0.8888888888888857  0.6710461987271220
  0.4464856401630444  0.8894821064311446  0.6675428731682151
  0.7763297996014358  0.8894821064311446  0.6675428731682151
  0.1111111111111143  0.8888888888888857 -0.0211162295430694
  0.4444444444444429  0.5555555555555571  0.4797404605073604
 
  0.00000000E+00  0.00000000E+00  0.00000000E+00
  0.00000000E+00  0.00000000E+00  0.00000000E+00
  0.00000000E+00  0.00000000E+00  0.00000000E+00
  0.00000000E+00  0.00000000E+00  0.00000000E+00
  0.00000000E+00  0.00000000E+00  0.00000000E+00
  0.00000000E+00  0.00000000E+00  0.00000000E+00
  0.00000000E+00  0.00000000E+00  0.00000000E+00
  0.00000000E+00  0.00000000E+00  0.00000000E+00
  0.00000000E+00  0.00000000E+00  0.00000000E+00
  0.00000000E+00  0.00000000E+00  0.00000000E+00
  0.00000000E+00  0.00000000E+00  0.00000000E+00
  0.00000000E+00  0.00000000E+00  0.00000000E+00
  0.00000000E+00  0.00000000E+00  0.00000000E+00
  0.00000000E+00  0.00000000E+00  0.00000000E+00
  0.00000000E+00  0.00000000E+00  0.00000000E+00
  0.00000000E+00  0.00000000E+00  0.00000000E+00
  0.00000000E+00  0.00000000E+00  0.00000000E+00
  0.00000000E+00  0.00000000E+00  0.00000000E+00
  0.00000000E+00  0.00000000E+00  0.00000000E+00
  0.00000000E+00  0.00000000E+00  0.00000000E+00
  0.00000000E+00  0.00000000E+00  0.00000000E+00
  0.00000000E+00  0.00000000E+00  0.00000000E+00
  0.00000000E+00  0.00000000E+00  0.00000000E+00
  0.00000000E+00  0.00000000E+00  0.00000000E+00
  0.00000000E+00  0.00000000E+00  0.00000000E+00
  0.00000000E+00  0.00000000E+00  0.00000000E+00
  0.00000000E+00  0.00000000E+00  0.00000000E+00
  0.00000000E+00  0.00000000E+00  0.00000000E+00
  0.00000000E+00  0.00000000E+00  0.00000000E+00
  0.00000000E+00  0.00000000E+00  0.00000000E+00
  0.00000000E+00  0.00000000E+00  0.00000000E+00
  0.00000000E+00  0.00000000E+00  0.00000000E+00
  0.00000000E+00  0.00000000E+00  0.00000000E+00
  0.00000000E+00  0.00000000E+00  0.00000000E+00
  0.00000000E+00  0.00000000E+00  0.00000000E+00
  0.00000000E+00  0.00000000E+00  0.00000000E+00
  0.00000000E+00  0.00000000E+00  0.00000000E+00
  0.00000000E+00  0.00000000E+00  0.00000000E+00
  0.00000000E+00  0.00000000E+00  0.00000000E+00
  0.00000000E+00  0.00000000E+00  0.00000000E+00
  0.00000000E+00  0.00000000E+00  0.00000000E+00
  0.00000000E+00  0.00000000E+00  0.00000000E+00
  0.00000000E+00  0.00000000E+00  0.00000000E+00
  0.00000000E+00  0.00000000E+00  0.00000000E+00
  0.00000000E+00  0.00000000E+00  0.00000000E+00
  0.00000000E+00  0.00000000E+00  0.00000000E+00
  0.00000000E+00  0.00000000E+00  0.00000000E+00
  0.00000000E+00  0.00000000E+00  0.00000000E+00
  0.00000000E+00  0.00000000E+00  0.00000000E+00
  0.00000000E+00  0.00000000E+00  0.00000000E+00
  0.00000000E+00  0.00000000E+00  0.00000000E+00
  0.00000000E+00  0.00000000E+00  0.00000000E+00
  0.00000000E+00  0.00000000E+00  0.00000000E+00
  0.00000000E+00  0.00000000E+00  0.00000000E+00
  0.00000000E+00  0.00000000E+00  0.00000000E+00
  0.00000000E+00  0.00000000E+00  0.00000000E+00
  0.00000000E+00  0.00000000E+00  0.00000000E+00
  0.00000000E+00  0.00000000E+00  0.00000000E+00
  0.00000000E+00  0.00000000E+00  0.00000000E+00
  0.00000000E+00  0.00000000E+00  0.00000000E+00
  0.00000000E+00  0.00000000E+00  0.00000000E+00
  0.00000000E+00  0.00000000E+00  0.00000000E+00
  0.00000000E+00  0.00000000E+00  0.00000000E+00
  0.00000000E+00  0.00000000E+00  0.00000000E+00
  0.00000000E+00  0.00000000E+00  0.00000000E+00
  0.00000000E+00  0.00000000E+00  0.00000000E+00
  0.00000000E+00  0.00000000E+00  0.00000000E+00
  0.00000000E+00  0.00000000E+00  0.00000000E+00
  0.00000000E+00  0.00000000E+00  0.00000000E+00
  0.00000000E+00  0.00000000E+00  0.00000000E+00
  0.00000000E+00  0.00000000E+00  0.00000000E+00
  0.00000000E+00  0.00000000E+00  0.00000000E+00
