generated by phonopy
   1.0000000
     7.5362538629962028    0.0000000000000000    0.0000000000000000
    -3.7681269314981014    6.5265872947233232    0.0000000000000000
     0.0000000000000000    0.0000000000000000   12.9682112483147005
B    N       Al
 34   36     2
Direct
  0.1111111111111119  0.2222222222222214  0.0000000000000000
  0.4444444444444452  0.2222222222222214  0.0000000000000000
  0.7777777777777786  0.2222222222222214  0.0000000000000000
  0.1111111111111119  0.5555555555555547  0.0000000000000000
  0.4444444444444452  0.5555555555555547  0.0000000000000000
  0.7777777777777786  0.5555555555555547  0.0000000000000000
  0.4444444444444452  0.8888888888888881  0.0000000000000000
  0.7777777777777786  0.8888888888888881  0.0000000000000000
  0.1111111111111119  0.2222222222222214  0.5000000000000000
  0.4444444444444452  0.2222222222222214  0.5000000000000000
  0.7777777777777786  0.2222222222222214  0.5000000000000000
  0.1111111111111119  0.5555555555555547  0.5000000000000000
  0.7777777777777786  0.5555555555555547  0.5000000000000000
  0.1111111111111119  0.8888888888888881  0.5000000000000000
  0.4444444444444452  0.8888888888888881  0.5000000000000000
  0.7777777777777786  0.8888888888888881  0.5000000000000000
  0.2222222222222214  0.1111111111111119  0.2500000000000000
  0.5555555555555547  0.1111111111111119  0.2500000000000000
  0.8888888888888881  0.1111111111111119  0.2500000000000000
  0.2222222222222214  0.4444444444444452  0.2500000000000000
  0.5555555555555547  0.4444444444444452  0.2500000000000000
  0.8888888888888881  0.4444444444444452  0.2500000000000000
  0.2222222222222214  0.7777777777777786  0.2500000000000000
  0.5555555555555547  0.7777777777777786  0.2500000000000000
  0.8888888888888881  0.7777777777777786  0.2500000000000000
  0.2222222222222214  0.1111111111111119  0.7500000000000000
  0.5555555555555547  0.1111111111111119  0.7500000000000000
  0.8888888888888881  0.1111111111111119  0.7500000000000000
  0.2222222222222214  0.4444444444444452  0.7500000000000000
  0.5555555555555547  0.4444444444444452  0.7500000000000000
  0.8888888888888881  0.4444444444444452  0.7500000000000000
  0.2222222222222214  0.7777777777777786  0.7500000000000000
  0.5555555555555547  0.7777777777777786  0.7500000000000000
  0.8888888888888881  0.7777777777777786  0.7500000000000000
  0.2222222222222214  0.1111111111111119  -0.1000000000000000
  0.5555555555555547  0.1111111111111119  -0.1000000000000000
  0.8888888888888881  0.1111111111111119  -0.1000000000000000
  0.2222222222222214  0.4444444444444452  -0.1000000000000000
  0.5555555555555547  0.4444444444444452  -0.1000000000000000
  0.8888888888888881  0.4444444444444452  -0.1000000000000000
  0.2222222222222214  0.7777777777777786  -0.1000000000000000
  0.5555555555555547  0.7777777777777786  -0.1000000000000000
  0.8888888888888881  0.7777777777777786  -0.1000000000000000
  0.2222222222222214  0.1111111111111119  0.4000000000000000
  0.5555555555555547  0.1111111111111119  0.4000000000000000
  0.8888888888888881  0.1111111111111119  0.4000000000000000
  0.2222222222222214  0.4444444444444452  0.4000000000000000
  0.5555555555555547  0.4444444444444452  0.4000000000000000
  0.8888888888888881  0.4444444444444452  0.4000000000000000
  0.2222222222222214  0.7777777777777786  0.4000000000000000
  0.5555555555555547  0.7777777777777786  0.4000000000000000
  0.8888888888888881  0.7777777777777786  0.4000000000000000
  0.1111111111111119  0.2222222222222214  0.1500000000000000
  0.4444444444444452  0.2222222222222214  0.1500000000000000
  0.7777777777777786  0.2222222222222214  0.1500000000000000
  0.1111111111111119  0.5555555555555547  0.1500000000000000
  0.4444444444444452  0.5555555555555547  0.1500000000000000
  0.7777777777777786  0.5555555555555547  0.1500000000000000
  0.1111111111111119  0.8888888888888881  0.1500000000000000
  0.4444444444444452  0.8888888888888881  0.1500000000000000
  0.7777777777777786  0.8888888888888881  0.1500000000000000
  0.1111111111111119  0.2222222222222214  0.6500000000000000
  0.4444444444444452  0.2222222222222214  0.6500000000000000
  0.7777777777777786  0.2222222222222214  0.6500000000000000
  0.1111111111111119  0.5555555555555547  0.6500000000000000
  0.4444444444444452  0.5555555555555547  0.6500000000000000
  0.7777777777777786  0.5555555555555547  0.6500000000000000
  0.1111111111111119  0.8888888888888881  0.6500000000000000
  0.4444444444444452  0.8888888888888881  0.6500000000000000
  0.7777777777777786  0.8888888888888881  0.6500000000000000
  0.1111111111111119  0.8888888888888881  0.0000000000000000
  0.4444444444444452  0.5555555555555547  0.5000000000000000
