 H                                      
   1.00000000000000     
    15.9215000000000000    0.0000000000000000    0.0000000000000000
    -7.9622500000000000   13.7910219999999999    0.0000000000000000
     0.0000000000000000    0.0000000000000000   13.5822000000000003
   H 
     2
Direct
  0.0276871073239775  0.0580011402889511  0.1228429858012703
  0.0276871073239775  0.0580011402889511  0.0685685678130170
 
  0.00000000E+00  0.00000000E+00  0.00000000E+00
  0.00000000E+00  0.00000000E+00  0.00000000E+00
