Mo  S Cu                                
   1.00000000000000     
    15.9214998300000001    0.0000000000000000    0.0000000000000000
    -7.9622501300000001   13.7910221699999997    0.0000000000000000
     0.0000000000000000    0.0000000000000000   13.5821998300000004
   Mo   S    Co
    25    50     4
Direct
  0.1340348073386650  0.0605894232804260  0.6808564913912036
  0.1336647293004489  0.2610405086437382  0.6822742260635195
  0.1335308368323282  0.4600029465428790  0.6830918474965770
  0.1341184232127404  0.6607615073702320  0.6825426977213738
  0.1343267663438041  0.8608885365907994  0.6811039931351317
  0.3339747739314092  0.0605289988469906  0.6815984940698314
  0.3324364634353785  0.2601603566250503  0.6827814043434088
  0.3345446175131030  0.4611575919412374  0.6804303391796438
  0.3350843325353026  0.6616230016170874  0.6828105308618575
  0.3341914714274310  0.8610390453737367  0.6813556986965494
  0.5342022183898294  0.0607684369870540  0.6816708408825747
  0.5341046926216890  0.2598217252210944  0.6826487198869629
  0.5344517884737812  0.4619817037294212  0.6809639572479966
  0.5359532700118734  0.6638807648578009  0.6814831282703508
  0.5344499185157474  0.8616208741611473  0.6809358683332434
  0.7344085386588119  0.0608870652361801  0.6806405754529479
  0.7355425003131302  0.2603321040547826  0.6825907938878117
  0.7348230439185315  0.4608495684150142  0.6810124829277697
  0.7354285086744241  0.6634219009683306  0.6814799699048919
  0.7350048616787177  0.8620988097424700  0.6799011709234293
  0.9345647408147641  0.0611513942713557  0.6803499814611058
  0.9343445436883613  0.2608569845539961  0.6825796481287441
  0.9340374953577637  0.4604084564860926  0.6836603550624787
  0.9343481554138364  0.6616640560795091  0.6823471342408496
  0.9347837956844387  0.8614832410510473  0.6805204875275805
  0.0683830566719479  0.1284931934899944  0.5658424280616643
  0.0669215369410310  0.1267583577847660  0.7961368798473316
  0.0675389125330312  0.3280866647915133  0.5673741080321193
  0.0671359033553784  0.3269699329468168  0.7980268839236899
  0.0671329457694299  0.5270378062722472  0.5680428903918084
  0.0677814951645885  0.5276967421369534  0.7980567859529302
  0.0674082488051724  0.7269148187084014  0.5667534314053384
  0.0679687136948246  0.7283665875761329  0.7969801742288141
  0.0679938500472232  0.9275424114300748  0.5654307020519198
  0.0675458923117134  0.9275600787051985  0.7959362136817134
  0.2676146213239932  0.1276679696225216  0.5661205829533884
  0.2660970165825702  0.1258407751406310  0.7965916268210620
  0.2677894893714310  0.3280155224302490  0.5676259360786915
  0.2650650220195061  0.3239061386284661  0.8031627037627445
  0.2673109929396702  0.5276011179986355  0.5680430388668896
  0.2679614544201243  0.5276151733266516  0.8006410358449969
  0.2672549257683983  0.7269874591144259  0.5671386583048914
  0.2678508401849626  0.7283504679255302  0.7970024973664849
  0.2676622072950465  0.9276445922035137  0.5660580917519411
  0.2672653074174391  0.9272652958504679  0.7964731464392543
  0.4676582235298596  0.1278121877872067  0.5667843362579106
  0.4666731230343828  0.1259589989834424  0.7972798395950633
  0.4669417276643060  0.3274585730983759  0.5689306642620053
  0.4653761136756813  0.3261199914903301  0.8000802710577801
  0.4679584033892539  0.5285550960031529  0.5673959496410390
  0.4727398396253690  0.5359010390553607  0.8037794597818149
  0.4669441104879297  0.7280006582769261  0.5661534505876276
  0.4686775247951260  0.7295623463965200  0.7968868971780552
  0.4674219570291100  0.9279301174387484  0.5660321560870756
  0.4675574116700076  0.9275449778037270  0.7964266098639570
  0.6675792181341365  0.1278762103080737  0.5662948090839208
  0.6677851491970017  0.1263260393269547  0.7966155624684959
  0.6679351607160200  0.3273643246201061  0.5684610815417557
  0.6677433028171933  0.3249691788611671  0.8014791295178370
  0.6680048502791109  0.5276185045852344  0.5677755141844472
  0.6694882334288934  0.5337896456774089  0.8031988539869488
  0.6681491618948243  0.7283979956337916  0.5649611735455693
  0.6693868354821930  0.7308834021500488  0.7960862236967827
  0.6674619562251536  0.9280789269352212  0.5650699131057308
  0.6681121026361510  0.9280232487438909  0.7954955620305171
  0.8681357899344633  0.1285768697673006  0.5659197530607329
  0.8674410403350521  0.1266871321481844  0.7961352656887613
  0.8681227235980629  0.3280806330835588  0.5676213234689840
  0.8679645025931109  0.3270134009047752  0.7984443036938629
  0.8678185943924817  0.5273587197061431  0.5680783299749095
  0.8684497361170003  0.5288704795823165  0.8018287277837146
  0.8682074348709392  0.7276280482658137  0.5659895750905335
  0.8685196850065111  0.7294367000928546  0.7965163613153337
  0.8683750684911189  0.9281556786758287  0.5648302007326009
  0.8680445890011868  0.9282188818325281  0.7952372259691316
  0.3410737292269133  0.4595931350691345  0.8730252922707749
  0.5314706902566044  0.4586524623276773  0.8789824927942433
  0.5712167463924871  0.3433036563775076  0.9203630420541060
  0.7275637863152298  0.4586271953514895  0.8751436323332626
 
  0.00000000E+00  0.00000000E+00  0.00000000E+00
  0.00000000E+00  0.00000000E+00  0.00000000E+00
  0.00000000E+00  0.00000000E+00  0.00000000E+00
  0.00000000E+00  0.00000000E+00  0.00000000E+00
  0.00000000E+00  0.00000000E+00  0.00000000E+00
  0.00000000E+00  0.00000000E+00  0.00000000E+00
  0.00000000E+00  0.00000000E+00  0.00000000E+00
  0.00000000E+00  0.00000000E+00  0.00000000E+00
  0.00000000E+00  0.00000000E+00  0.00000000E+00
  0.00000000E+00  0.00000000E+00  0.00000000E+00
  0.00000000E+00  0.00000000E+00  0.00000000E+00
  0.00000000E+00  0.00000000E+00  0.00000000E+00
  0.00000000E+00  0.00000000E+00  0.00000000E+00
  0.00000000E+00  0.00000000E+00  0.00000000E+00
  0.00000000E+00  0.00000000E+00  0.00000000E+00
  0.00000000E+00  0.00000000E+00  0.00000000E+00
  0.00000000E+00  0.00000000E+00  0.00000000E+00
  0.00000000E+00  0.00000000E+00  0.00000000E+00
  0.00000000E+00  0.00000000E+00  0.00000000E+00
  0.00000000E+00  0.00000000E+00  0.00000000E+00
  0.00000000E+00  0.00000000E+00  0.00000000E+00
  0.00000000E+00  0.00000000E+00  0.00000000E+00
  0.00000000E+00  0.00000000E+00  0.00000000E+00
  0.00000000E+00  0.00000000E+00  0.00000000E+00
  0.00000000E+00  0.00000000E+00  0.00000000E+00
  0.00000000E+00  0.00000000E+00  0.00000000E+00
  0.00000000E+00  0.00000000E+00  0.00000000E+00
  0.00000000E+00  0.00000000E+00  0.00000000E+00
  0.00000000E+00  0.00000000E+00  0.00000000E+00
  0.00000000E+00  0.00000000E+00  0.00000000E+00
  0.00000000E+00  0.00000000E+00  0.00000000E+00
  0.00000000E+00  0.00000000E+00  0.00000000E+00
  0.00000000E+00  0.00000000E+00  0.00000000E+00
  0.00000000E+00  0.00000000E+00  0.00000000E+00
  0.00000000E+00  0.00000000E+00  0.00000000E+00
  0.00000000E+00  0.00000000E+00  0.00000000E+00
  0.00000000E+00  0.00000000E+00  0.00000000E+00
  0.00000000E+00  0.00000000E+00  0.00000000E+00
  0.00000000E+00  0.00000000E+00  0.00000000E+00
  0.00000000E+00  0.00000000E+00  0.00000000E+00
  0.00000000E+00  0.00000000E+00  0.00000000E+00
  0.00000000E+00  0.00000000E+00  0.00000000E+00
  0.00000000E+00  0.00000000E+00  0.00000000E+00
  0.00000000E+00  0.00000000E+00  0.00000000E+00
  0.00000000E+00  0.00000000E+00  0.00000000E+00
  0.00000000E+00  0.00000000E+00  0.00000000E+00
  0.00000000E+00  0.00000000E+00  0.00000000E+00
  0.00000000E+00  0.00000000E+00  0.00000000E+00
  0.00000000E+00  0.00000000E+00  0.00000000E+00
  0.00000000E+00  0.00000000E+00  0.00000000E+00
  0.00000000E+00  0.00000000E+00  0.00000000E+00
  0.00000000E+00  0.00000000E+00  0.00000000E+00
  0.00000000E+00  0.00000000E+00  0.00000000E+00
  0.00000000E+00  0.00000000E+00  0.00000000E+00
  0.00000000E+00  0.00000000E+00  0.00000000E+00
  0.00000000E+00  0.00000000E+00  0.00000000E+00
  0.00000000E+00  0.00000000E+00  0.00000000E+00
  0.00000000E+00  0.00000000E+00  0.00000000E+00
  0.00000000E+00  0.00000000E+00  0.00000000E+00
  0.00000000E+00  0.00000000E+00  0.00000000E+00
  0.00000000E+00  0.00000000E+00  0.00000000E+00
  0.00000000E+00  0.00000000E+00  0.00000000E+00
  0.00000000E+00  0.00000000E+00  0.00000000E+00
  0.00000000E+00  0.00000000E+00  0.00000000E+00
  0.00000000E+00  0.00000000E+00  0.00000000E+00
  0.00000000E+00  0.00000000E+00  0.00000000E+00
  0.00000000E+00  0.00000000E+00  0.00000000E+00
  0.00000000E+00  0.00000000E+00  0.00000000E+00
  0.00000000E+00  0.00000000E+00  0.00000000E+00
  0.00000000E+00  0.00000000E+00  0.00000000E+00
  0.00000000E+00  0.00000000E+00  0.00000000E+00
  0.00000000E+00  0.00000000E+00  0.00000000E+00
  0.00000000E+00  0.00000000E+00  0.00000000E+00
  0.00000000E+00  0.00000000E+00  0.00000000E+00
  0.00000000E+00  0.00000000E+00  0.00000000E+00
  0.00000000E+00  0.00000000E+00  0.00000000E+00
  0.00000000E+00  0.00000000E+00  0.00000000E+00
  0.00000000E+00  0.00000000E+00  0.00000000E+00
  0.00000000E+00  0.00000000E+00  0.00000000E+00
