Ta  N  W Cu                             
   1.00000000000000     
    18.1096308199999996    0.0000000000000000    0.0000000000000000
     0.0000000000000000   23.3551997799999995    0.0000000000000000
     0.0000000000000000    0.0000000000000000   30.4818171199999988
   Ta   N    W    Cu
   216   240    24     1
Direct
  0.0001210684721684  0.0000211058342714  0.1977322725617938
  0.3343157624581679  0.0624736940595341  0.2031851453788107
  0.1656761877690940  0.0624703468523506  0.2031644399125625
  0.2499738913671408  0.1249152396864375  0.2782565356017415
  0.0828602364521132  0.0624717243054178  0.2844478402762434
  0.4171568824405369  0.0624592073548271  0.2844212227120977
  0.0000690910271857  0.1251387185323978  0.3700894997599846
  0.3324395844169175  0.0624271947270074  0.3687319754940859
  0.1674235202765431  0.0624355959563516  0.3687658976273980
  0.2498868425792722  0.1252197761659914  0.4555752865041853
  0.0839727833316033  0.0625321464339805  0.4548018055599101
  0.4160908096878728  0.0624730579631461  0.4546780415115279
  0.3360582440270790  0.0619089838822973  0.5418514707005855
  0.1635439117628508  0.0621208233432213  0.5420670131924368
  0.0000468005471603  0.1248751861754087  0.1976644931162568
  0.3341410833865410  0.1872955941876455  0.2028906159608255
  0.1658885026536652  0.1872851227169079  0.2028970417894556
  0.2500339287658875  0.2501863928759960  0.2781925587512930
  0.0825538177338032  0.1874376195406739  0.2842389352227457
  0.4174476709227051  0.1874301791181736  0.2841461332873223
  0.0001017686744191  0.2500221483687071  0.3698109959279492
  0.3324686155929868  0.1874019257418524  0.3687928350616190
  0.1674326824692827  0.1874517289213244  0.3688594186775518
  0.2500058098208271  0.2502337753903987  0.4548404530226335
  0.0837434841820581  0.1876426873396611  0.4547583975912772
  0.4161567466189453  0.1876009385078845  0.4546880598515628
  0.3356309983661703  0.1861989120236771  0.5416483155475262
  0.1644133630144538  0.1870146293937154  0.5417855693289297
  0.0001263783661400  0.2500110894011272  0.1974758215327554
  0.3342824482990707  0.3124001728779433  0.2026736307422183
  0.1657562820885303  0.3123720740275573  0.2027130632006759
  0.2501013748665031  0.3747341690880859  0.2778523190089928
  0.0828941558978187  0.3124469103352183  0.2840206441581046
  0.4171219688590639  0.3124241317878358  0.2839026073515853
  0.0000075775003481  0.3751208209615626  0.3694679820496347
  0.3324842645025470  0.3124688271093419  0.3681367035694336
  0.1675283209663547  0.3125085434538022  0.3681872376291295
  0.2502971373836118  0.3753825509676219  0.4544035500079175
  0.0839826006349185  0.3128093516768615  0.4542205082350037
  0.4156634126026546  0.3126161549064150  0.4543100195385819
  0.3381988072524678  0.3134514629822220  0.5408663898877606
  0.9999975141777782  0.3747534618100588  0.1972497954659787
  0.3340894398363190  0.4373922490145503  0.2024488877256729
  0.1659296663749075  0.4373868254522293  0.2024773325528528
  0.2499610619828090  0.0000794003925932  0.2784422726069664
  0.0825412145008215  0.4374500600650535  0.2837598671757959
  0.4175536658717505  0.4374577514571740  0.2836486303623147
  0.9999818536020655  0.9999255091692376  0.3702117065292114
  0.3326306480860310  0.4374787218799412  0.3682262930963560
  0.1674802966858806  0.4375011537280500  0.3682681960706518
  0.2498361935876474  0.9999223954855339  0.4557677526151735
  0.0834933255553594  0.4377287942536228  0.4537970247381367
  0.4159484780345934  0.4376156683515546  0.4542423690131230
  0.3342371010754945  0.4381518599859859  0.5409276226738271
  0.0001363293827623  0.5001084901700281  0.1971240782354684
  0.3343037998079836  0.5625106816462448  0.2024852082368014
  0.1657265616497128  0.5625266090834700  0.2025198247964752
  0.2500771205879886  0.6247598650803496  0.2778264754718052
  0.0828822870916923  0.5624987977791704  0.2837809126316699
  0.4171628196231723  0.5624835505527201  0.2836674044575744
  0.9999689967110612  0.6249961589854038  0.3694463570432660
  0.3325196652886007  0.5624829897431312  0.3678277759023274
  0.1675487920684589  0.5624758773849265  0.3678896483733567
  0.2503890836686864  0.6247965333653411  0.4543734998302966
  0.0837252290831074  0.5623800590637487  0.4538799683384411
  0.4156617460721890  0.5624200636902117  0.4539760046182195
  0.3360433332852537  0.5626605945259655  0.5406950356722433
  0.9999908093767047  0.6248891730358750  0.1972292721256821
  0.3340565571590801  0.6876400713507991  0.2026041918623349
  0.1659106977654616  0.6876126442614705  0.2025963637542958
  0.2499961321132602  0.7501442245348784  0.2780260210140568
  0.0825505914908149  0.6875238088491713  0.2839334855889462
  0.4174862751665600  0.6875263693589204  0.2837964343156045
  0.9999496199010096  0.7497539403099083  0.3697226777151741
  0.3325047843170807  0.6874894165523528  0.3684104443486689
  0.1674304715120130  0.6874537463203225  0.3684392846816991
  0.2502114372991571  0.7496221138742953  0.4549688459651762
  0.0838017505007329  0.6872775290111051  0.4541120928528386
  0.4163322542588617  0.6872769380693882  0.4543325449099669
  0.3333721204796447  0.6873606782177575  0.5411055160472884
  0.0001423544381112  0.7501436848566243  0.1973898647394492
  0.3342050805181671  0.8126127317785503  0.2029726983207425
  0.1657547505959940  0.8126169763491760  0.2029288270893304
  0.2499395744254329  0.8748260549206179  0.2783288787207638
  0.0828927249398816  0.8125089419364215  0.2842249823591203
  0.4171213702397054  0.8125303099565571  0.2841588469551581
  0.9999383367265366  0.8749365645666742  0.3700705401196416
  0.3323586942482279  0.8124712365242530  0.3684484725804751
  0.1673939864126197  0.8124530286190392  0.3685558253168466
  0.2498089578063301  0.8745539088685632  0.4556006193681910
  0.0839216969056622  0.8120868312392986  0.4545244629650682
  0.4160113327301502  0.8122158355152180  0.4543909185027317
  0.3360595533489246  0.8123602280632340  0.5413471580467899
  0.1634663672503720  0.8110059437917769  0.5417962316755904
  0.0000186079442557  0.8750363690561045  0.1976509188730589
  0.3343238317484847  0.9375286860831409  0.2030782751517464
  0.1656688897379937  0.9375357058151081  0.2030502211656398
  0.2500967811339549  0.5001921244130045  0.2777608661762656
  0.0825947472815045  0.9374869852030727  0.2844025226420825
  0.4174159616445436  0.9375049550827157  0.2843847230251839
  0.9999735749873651  0.4998921534657512  0.3693618951698028
  0.3324067303056140  0.9374609385140786  0.3690303732858240
  0.1674554073584034  0.9374622794928626  0.3690879746242501
  0.2503430376558669  0.4999400280723023  0.4542212567075907
  0.0835681608849228  0.9372841544724864  0.4549194250197672
  0.4166261090056409  0.9373016631237974  0.4548410792691371
  0.3337132537349561  0.9370540153271634  0.5419056381477318
  0.1656488354400594  0.9367854306433898  0.5420640410959336
  0.5000285830683282  0.0000280645838870  0.1977332534426637
  0.8343058520032542  0.0624099412580250  0.2031901776812575
  0.6656947268876507  0.0624032851774814  0.2031670325598185
  0.7499829720543545  0.1248713418337957  0.2783328948030288
  0.5828684033424381  0.0624679343946397  0.2844443217268449
  0.9171406623799001  0.0624760567609570  0.2844158996148991
  0.4999788726017727  0.1251306394850644  0.3700994673326221
  0.8324407546628692  0.0624716091243585  0.3687436605733154
  0.6674198634264386  0.0624701209249778  0.3687740425189645
  0.7498941206234235  0.1253032523529711  0.4555839864829778
  0.5839896349955538  0.0626142108856556  0.4548204007209691
  0.9160828565201768  0.0625673082869369  0.4546863707268187
  0.8361000900236988  0.0624992807825393  0.5417674881826713
  0.6633979066484699  0.0628370473192703  0.5420179113146517
  0.5001475165924916  0.1248516467091463  0.1976701579697036
  0.8341408648099815  0.1873559895272336  0.2028923407220589
  0.6658885277033733  0.1873411058140846  0.2028957519632897
  0.7500316623223924  0.2501613757617349  0.2781125185038178
  0.5825662829211922  0.1874316977937625  0.2842524771738439
  0.9174253880800762  0.1874239340854871  0.2841502742865174
  0.4998557610491758  0.2500100688308038  0.3698239274239086
  0.8324630335155447  0.1874429695012765  0.3688487401113250
  0.6674284492307621  0.1874770405779316  0.3688964325451565
  0.7501194045144501  0.2501977754888074  0.4549640894784233
  0.5835043094649990  0.1876832433617892  0.4546856192365425
  0.9164780124517264  0.1877086410488928  0.4545849327937432
  0.8337927020292994  0.1874804869114826  0.5414730097214928
  0.6658351513918888  0.1887455760492358  0.5418155381117842
  0.5000275316355740  0.2499882730356120  0.1974901653280412
  0.8342641684362420  0.3123305178290394  0.2026812567708660
  0.6658091998829860  0.3123077845748270  0.2027375717991120
  0.7500890154943463  0.3747328338505511  0.2778802572447177
  0.5829137435282234  0.3124366074559859  0.2839998948395603
  0.9170908667079729  0.3124526535028735  0.2838825010401749
  0.4999272755455237  0.3751234613232626  0.3694952270558076
  0.8324672682323069  0.3124735932352536  0.3681161345762476
  0.6674562742147856  0.3124948091167425  0.3681575325083983
  0.7503825796757866  0.3753448685629266  0.4543822206490304
  0.5839086800153268  0.3127876373728213  0.4541994468355028
  0.9158883714360613  0.3126411142932994  0.4542073862739642
  0.8358186907945466  0.3126194781962468  0.5409709858040728
  0.5001163607182164  0.3747525922770905  0.1972471143461050
  0.8340427322071022  0.4375136336847305  0.2024324396372279
  0.6659395201699496  0.4375029843585594  0.2024591473565067
  0.7499576185519743  0.0000853399203677  0.2783854428542725
  0.5825599631055738  0.4374601949459418  0.2837476488712269
  0.9175056935332364  0.4374493695609232  0.2836398328829617
  0.4999999455224753  0.9999184338600813  0.3702125978469155
  0.8326604767866073  0.4374773943294983  0.3682583862105844
  0.6674039302579899  0.4374874883557567  0.3682931819258854
  0.7498350089171453  0.0000437152904169  0.4557954457123401
  0.5836118381715494  0.4376022672012709  0.4538444610712560
  0.9159640157002329  0.4375513813664753  0.4542118020711285
  0.8340159583923068  0.4375796608071312  0.5406914018378970
  0.4999683570201370  0.5001145485413403  0.1971111111907078
  0.8343025003895832  0.5624679526667222  0.2024768319284362
  0.6657126040068277  0.5624593988042221  0.2025006725361820
  0.7500633674035200  0.6247592748803257  0.2778875852997373
  0.5829079767290537  0.5624969670240745  0.2837596065878856
  0.9171310617372441  0.5625066017725473  0.2836484288950416
  0.4999232776876994  0.6249848533800133  0.3694795761481160
  0.8325024501070644  0.5624751523636817  0.3678105413410364
  0.6675184275820101  0.5624578571496386  0.3678694638875371
  0.7503934845190869  0.6247591162737152  0.4543632330834626
  0.5838000631676792  0.5622992355889664  0.4538943802120485
  0.9156681429337397  0.5624242692429391  0.4539574493933145
  0.8359655418828709  0.5624046331993995  0.5406116600768911
  0.5001071332087719  0.6248972345700281  0.1972264987601022
  0.8340475613253773  0.6877506740747918  0.2025893849432308
  0.6659248705724181  0.6877407189631910  0.2025874036776756
  0.7499926009737621  0.7501388725988676  0.2779483647088412
  0.5825517222318624  0.6875335486450140  0.2839169269038493
  0.9174736274171593  0.6875246353647739  0.2837934565311926
  0.4999885273771270  0.7497441061570314  0.3697248286276817
  0.8325106219974785  0.6875010931698355  0.3684208526376125
  0.6674089546415374  0.6874545172909023  0.3684498085773882
  0.7502024152571281  0.7496439764507770  0.4549770291560264
  0.5838669193883206  0.6872492393136227  0.4541248358436292
  0.9162712271091067  0.6872746636456242  0.4543289388387990
  0.8333166280689284  0.6872688233220856  0.5410957210349991
  0.5000012336867883  0.7501444246195703  0.1973713951958800
  0.8342191822831992  0.8125328888683256  0.2029717899607917
  0.6657351486181895  0.8125422827111279  0.2029265944587735
  0.7499375984423438  0.8748250203388181  0.2783796122694042
  0.5829002241102899  0.8125172534287231  0.2842221771191618
  0.9171089521239892  0.8125421364401362  0.2841657146545415
  0.4999732641210741  0.8749371492859623  0.3700735683181406
  0.8323264976804481  0.8124910597286146  0.3684609861483423
  0.6673975960855074  0.8124702469718059  0.3685591586066224
  0.7498013212484977  0.8746088879032570  0.4556236162538454
  0.5839439818494014  0.8121018482408289  0.4545456820629639
  0.9159811366180293  0.8122276921521987  0.4544084238935753
  0.8359759356489533  0.8124480257620093  0.5413346960630250
  0.6635114341577264  0.8111035003768947  0.5417962230954529
  0.5001052607733669  0.8750447717916572  0.1976411468689321
  0.8342998719322736  0.9375902795228015  0.2030840638869833
  0.6656847664126815  0.9376033905910717  0.2030525365979088
  0.7500880572032003  0.5002364063127445  0.2776705725309156
  0.5825985670299971  0.9374840273611795  0.2844016083286789
  0.9174029356035192  0.9375042394676214  0.2843844919759846
  0.4999738761179700  0.4998860352201220  0.3693446347469660
  0.8324128714995567  0.9374896744689210  0.3690498873252679
  0.6674550041757570  0.9374852231843462  0.3690994520707065
  0.7503892118779021  0.4998748083439608  0.4541829794831642
  0.5836160611975885  0.9373664646507081  0.4549375491736356
  0.9165830726539426  0.9373711998527057  0.4548499200892877
  0.8336305338161836  0.9374048203925653  0.5419078471031682
  0.6657078723859513  0.9371588588077060  0.5420897976686874
  0.4058180807677019  0.9999439913942680  0.2327711200888700
  0.2499952906793013  0.9999683773367849  0.2004173530627824
  0.0942506142970814  0.9999327638027609  0.2328036918685470
  0.1549460584306885  0.1250423369509264  0.3162348521108456
  0.9999985905091222  0.1248892680673421  0.3034432455988636
  0.3450869032012207  0.1250224046757538  0.3162006430780053
  0.4010816706711680  0.1250017627129196  0.4026850973326148
  0.2499385819790589  0.1249000486616083  0.3877995082885874
  0.0989153944313657  0.1250683178368774  0.4027619208576638
  0.1516547605683698  0.1253690190479730  0.4882992344451011
  0.0000535074297972  0.1253024087464496  0.4740055232067562
  0.3481278375092884  0.1249936972877563  0.4881546366645466
  0.4062818194364226  0.1257813068167266  0.5694453704837272
  0.2499209310939534  0.1259649382526220  0.5585921638314062
  0.0945941450778136  0.1264085661127083  0.5700177815902805
  0.4058307903715033  0.1249541779414614  0.2326188908713291
  0.2500038974631593  0.1248503095945992  0.1996124673935640
  0.0942199332507911  0.1249756931440444  0.2326764427428500
  0.1547876725445647  0.2498353757492922  0.3159556416413452
  0.9999735907962304  0.2501001198881170  0.3031823094028780
  0.3452439204618472  0.2497978088266493  0.3159340350701285
  0.4009325037661284  0.2500790182521371  0.4024431584305930
  0.2500025882958354  0.2500827502820187  0.3873134475860880
  0.0990122892619851  0.2501718128945427  0.4025142027428714
  0.1524667330902929  0.2508518824129524  0.4881563442487433
  0.0001279621225692  0.2506508685218520  0.4736497800407307
  0.3474520837015191  0.2498867322722518  0.4882263591689195
  0.4061464998188313  0.2500100115265411  0.5694224083337573
  0.2490781939420117  0.2526110560174217  0.5595905867697226
  0.0960316980087157  0.2530230868296144  0.5694131662334385
  0.4057016545668617  0.2498229620322832  0.2323725540281742
  0.2500253157453969  0.2498898983329383  0.2000314166818384
  0.0943455751373321  0.2498148848926647  0.2324352220592232
  0.1548080629056940  0.3751126887300842  0.3156498806290386
  0.9999696268975669  0.3748312826512006  0.3028918253062614
  0.3452934588934085  0.3750932678243259  0.3156381372377695
  0.4010655441027069  0.3750738802338773  0.4021653208185185
  0.2500463841715188  0.3749611744441097  0.3869522842369904
  0.0989033809726791  0.3750920964950595  0.4021407933627756
  0.1526473592094106  0.3762902105055943  0.4871652609150274
  0.0000538783264403  0.3753743997991705  0.4734187104193452
  0.3477418164370221  0.3755808132088063  0.4876429530122692
  0.4062831835782248  0.3762265200238772  0.5687616142246412
  0.2473384826943672  0.3757045108988919  0.5585271124292177
  0.0982750287800442  0.3775821725438249  0.5687654634885817
  0.4057883194283107  0.3749547265566378  0.2321085259826461
  0.2500036353540409  0.3748311820913059  0.1993566053790943
  0.0942961084550689  0.3749274487795375  0.2321749182634960
  0.1549166945922238  0.9998934935318218  0.3163747187552914
  0.0000037248782974  0.0000789256601621  0.3035459335176256
  0.3450883842642014  0.9998958223068044  0.3163297924890287
  0.4011196742694878  0.9999503247395083  0.4027733165759813
  0.2499475203528974  0.0000034814650434  0.3879523721379314
  0.0988269865335951  0.9999594409678565  0.4028411767708064
  0.1515902711020445  0.9996495939809193  0.4884013508978668
  0.9999946674359492  0.0001601431289018  0.4740471821749068
  0.3482096136594421  0.9996132175336641  0.4882220009260081
  0.4056889727172006  0.9992116997578080  0.5697139949120924
  0.2498135864550406  0.0000247982111858  0.5583240353534435
  0.0940303762690533  0.9992341731847389  0.5699201624699270
  0.4057298516666208  0.4999034039357113  0.2320124261143661
  0.2499832209571977  0.5000226439085651  0.1995847852640296
  0.0943575499435312  0.4999124044173158  0.2320695963445090
  0.1548039700909385  0.6251079157916450  0.3156039169230382
  0.9999636233077567  0.6248558014399208  0.3028708297970795
  0.3452917843992438  0.6251637931625211  0.3155971248685745
  0.4011050640997240  0.6249062124853637  0.4020728631989599
  0.2500391387130847  0.6248634179798245  0.3869178209546789
  0.0988602530271336  0.6248081391079410  0.4020890965228077
  0.1526926721237416  0.6245004308205040  0.4870918579207810
  0.0000650584269692  0.6245776435083599  0.4733809979536758
  0.3477828662766029  0.6250147804975796  0.4875238047042600
  0.4060706955734190  0.6247509460167890  0.5685423253652218
  0.2472414012020039  0.6235192308612412  0.5575762014628793
  0.0982984172118790  0.6241918131596194  0.5683148297950922
  0.4057518992930298  0.6251129201913983  0.2320858394828633
  0.2499960149012992  0.6250110790156000  0.1994837263807199
  0.0942827063449698  0.6251213838455740  0.2321545219928751
  0.1548660492542382  0.7498979211567374  0.3158934371942550
  0.9999781237694165  0.7501020497780928  0.3031064965629255
  0.3451812927835860  0.7499021199416092  0.3158865690014636
  0.4011352836822297  0.7498366624077875  0.4023850122391863
  0.2499628408916408  0.7499758053595116  0.3873122530715776
  0.0988316365003854  0.7497745704235399  0.4023773464029574
  0.1521446301373928  0.7487227927747639  0.4877547623319245
  0.0000191100035849  0.7493881045596424  0.4738764650562430
  0.3479518900601803  0.7494857454192640  0.4878166106443658
  0.4061839119373047  0.7487834553101820  0.5687181530023864
  0.2483887139164480  0.7468238609123858  0.5580665253931727
  0.0969357471637551  0.7453509658809807  0.5693053376609285
  0.4057423305136680  0.7500373361049668  0.2323226530276798
  0.2499631723816407  0.7501607339083876  0.1995254809351010
  0.0942830054379442  0.7500325297456811  0.2323763451818195
  0.1548721600643361  0.8750706159293884  0.3162348522355600
  0.9999842786415201  0.8748740826057428  0.3034162118306654
  0.3450936563109437  0.8750746471277466  0.3161885401939060
  0.4011005454138044  0.8748060325189257  0.4026150034731018
  0.2499283722225130  0.8748743092711209  0.3878085035793788
  0.0987604264100170  0.8748491762064248  0.4027003444042023
  0.1515180024536349  0.8743776121471782  0.4882379109421464
  0.9999298812440713  0.8743756012669905  0.4738812188625730
  0.3480913075219405  0.8748895235203022  0.4880439992269814
  0.4059189597565620  0.8745905365931534  0.5693171087906563
  0.2497067324176356  0.8733500795613054  0.5581725219035008
  0.0941474318658280  0.8739225587759023  0.5697486237325933
  0.4058058879803355  0.8751164450492865  0.2326211471496009
  0.2499877909915824  0.8751324601458208  0.1999900319063457
  0.0942250972232799  0.8751089806165169  0.2326532466718447
  0.1547697628053442  0.4998306968079262  0.3155263691295076
  0.9999722216023059  0.5001099968844969  0.3027582824468382
  0.3453363070399718  0.4998170448595829  0.3155030539586505
  0.4011043507996703  0.4999613935460516  0.4020123164177605
  0.2500441451080491  0.5000507738227427  0.3867891284643363
  0.0988732081718382  0.5000442833844403  0.4020031482058570
  0.1527251054121876  0.5000747805688732  0.4870465162610174
  0.0000082026176500  0.4999761555849886  0.4734261247230904
  0.3476401575336965  0.4999344339957545  0.4874549270535198
  0.4060848215084434  0.4998165908911574  0.5683804442862765
  0.2473348034447653  0.4999057458517413  0.5575878724715935
  0.0987879621890499  0.4998515580598379  0.5684557487103703
  0.9058616467802665  0.9999469930202736  0.2327486766456559
  0.7499987430160218  0.9999594166476911  0.1999460231984926
  0.5942176179885053  0.9999337616442148  0.2327794423945164
  0.6549321318094954  0.1250463264750934  0.3162570447587640
  0.5000028267449323  0.1248840351623173  0.3034488378625326
  0.8451088777739955  0.1250421905905625  0.3162254009478076
  0.9011890618252778  0.1250512783735260  0.4026778837893872
  0.7499437682553989  0.1249325492088005  0.3877823340556006
  0.5988239261938801  0.1250860504867504  0.4027634942862832
  0.6516585770290533  0.1257972173058164  0.4882936644021498
  0.4999721552375433  0.1252843767187244  0.4739982223849708
  0.8481606225366036  0.1254033427045229  0.4881203331408130
  0.9060256255330117  0.1261873168782728  0.5692956383149408
  0.7498691711011460  0.1261082273459664  0.5582940696503584
  0.5947515740684324  0.1268844689472459  0.5699644851708427
  0.9057821899250484  0.1249676867865688  0.2326425304959017
  0.7500056594480569  0.1248429414982652  0.2000734204873709
  0.5942786786799346  0.1249734559361571  0.2327022078213474
  0.6548320652946344  0.2498220454804851  0.3159331363061355
  0.4999793583984626  0.2500991252419951  0.3031969314733729
  0.8451994342391842  0.2497998215110684  0.3159200188693632
  0.9011816817677101  0.2501155218466593  0.4023521564798216
  0.7499911225183311  0.2501127304803887  0.3873955723453548
  0.5987790173628440  0.2501716868032133  0.4024330192440075
  0.6520973040736706  0.2509418700192256  0.4876769498373150
  0.4998469449802059  0.2506320964283901  0.4736223429485662
  0.8479753000200745  0.2500184199208064  0.4878136367321702
  0.9057390342025826  0.2502882853573709  0.5691074972707710
  0.7484253499926297  0.2533721861681713  0.5577334482706462
  0.5961557347151896  0.2536391326895640  0.5689826382288103
  0.9057586592488249  0.2498176532419336  0.2323428157549117
  0.7500248572077339  0.2498670994706416  0.1994797496593677
  0.5942944327380033  0.2498003472914334  0.2324181842534543
  0.6548087107297249  0.3751192460719892  0.3156529906406718
  0.4999911399844024  0.3748281563809428  0.3029055229695317
  0.8452837951263632  0.3750962763032746  0.3156363379121885
  0.9011339813687158  0.3750482797675048  0.4021192468690629
  0.7500172473142115  0.3749612474547561  0.3869280240722404
  0.5988315492288194  0.3750670827321301  0.4021451723643352
  0.6527444443054407  0.3757042098048018  0.4871520600714803
  0.5000441371532602  0.3753441057376889  0.4734617954372169
  0.8477987527030990  0.3752532762697385  0.4875461032697643
  0.9060966579535119  0.3758639848068484  0.5685212137220716
  0.7473469176780725  0.3764475253442328  0.5575380722829308
  0.5986361838844019  0.3768569802543738  0.5684143648208959
  0.9057164671016409  0.3749684824670965  0.2321160090260790
  0.7499946030155513  0.3748464231932118  0.1998364736270872
  0.5943456513721657  0.3749451645875936  0.2321826377785001
  0.6549450151778942  0.9999057967472282  0.3163678452064218
  0.5000065704487398  0.0000745328919081  0.3035468156158601
  0.8450590710870500  0.9999125779088089  0.3163230796910810
  0.9011119849274323  0.0000018627187544  0.4027741435800252
  0.7499438546462898  0.0000391434590767  0.3879610878429958
  0.5988413598089792  0.9999974421285387  0.4028400843744819
  0.6516103569881153  0.9998296419267092  0.4884301136480858
  0.4999917890508385  0.0001489597083193  0.4740457073795099
  0.8482165313116425  0.9997759901220249  0.4882206698279248
  0.9057616806186033  0.9994684249454764  0.5696374892433766
  0.7498227437236267  0.0002765215771348  0.5583098680430396
  0.5939490144230533  0.9995123328806201  0.5698755444098822
  0.9057818311579382  0.4999108789697218  0.2319644122254374
  0.7499778360151126  0.5000551617497422  0.1989308068868212
  0.5942683022041706  0.4999268666919932  0.2320219308754758
  0.6547742155523437  0.6251180729647459  0.3156091267675976
  0.4999897636919073  0.6248571444984350  0.3028607216759625
  0.8452998932101607  0.6251720880491547  0.3156036984201123
  0.9010755164850650  0.6249081367000358  0.4020696124159358
  0.7500222765005375  0.6248536400335070  0.3869141050867171
  0.5988678219092378  0.6247788924487381  0.4020922549797632
  0.6527332411189946  0.6244317779836734  0.4870930944407519
  0.5001003943000555  0.6245468477975962  0.4733865875188883
  0.8477729394517226  0.6249708755445482  0.4875130541247117
  0.9060546025338141  0.6246762913849579  0.5685125320019964
  0.7472448566473489  0.6234532392442631  0.5575444160797005
  0.5983058461150108  0.6240316098950771  0.5682610331541937
  0.9056904863809052  0.6251273732307325  0.2321026619845625
  0.7499974259714079  0.6250315840521594  0.2000655886927802
  0.5943525384067314  0.6251405769397422  0.2321612944349667
  0.6548908033984944  0.7499064160935802  0.3158785003371136
  0.4999912964252431  0.7500978402183307  0.3031040972975845
  0.8451361603678365  0.7499192523639167  0.3158780251491606
  0.9011060008590377  0.7498592111702749  0.4023853309088921
  0.7499542684278566  0.7499840610652342  0.3873173336231304
  0.5988457922845640  0.7497847802351529  0.4023864784309623
  0.6521646731826323  0.7487374423124820  0.4877695712825130
  0.5000517510295097  0.7493718982024831  0.4738818775877860
  0.8479344753716731  0.7495079830845626  0.4878265298880109
  0.9061384726035726  0.7488240179585617  0.5686979336626123
  0.7483842701387644  0.7468307370661975  0.5580539804925095
  0.5969924756314811  0.7453472370216048  0.5693034973775326
  0.9058126320208970  0.7500442949037023  0.2323018943182191
  0.7499770222910129  0.7501731530717990  0.1989725654145929
  0.5941993355987378  0.7500375247718196  0.2323375756642321
  0.6548612169194143  0.8750738640494546  0.3162523576216998
  0.5000028510463181  0.8748697802193348  0.3034158804618059
  0.8451008131346143  0.8750818376936422  0.3162111595026502
  0.9010803855952290  0.8748349574579990  0.4026339853917662
  0.7499207222408728  0.8749049639094153  0.3878260768515034
  0.5987723558758802  0.8748712923363726  0.4027224333115953
  0.6515359793161153  0.8744723921695154  0.4882633747856175
  0.4999788196378532  0.8743777760994860  0.4738841620773613
  0.8480643055302366  0.8749801860923796  0.4880686437864199
  0.9058295558284470  0.8747182432563037  0.5693163671436778
  0.7496912741716315  0.8734698878238873  0.5581697224998763
  0.5942107833142813  0.8740592434019732  0.5697542214609612
  0.9057620948008207  0.8751184084694259  0.2326465911487787
  0.7499899725128145  0.8751150674329224  0.2004680294864016
  0.5942588787543031  0.8751104182732519  0.2326670810250207
  0.6548102154964823  0.4998185313542152  0.3155007524040343
  0.5000022161902038  0.5001136229749292  0.3027720440548336
  0.8452831151824114  0.4998104179073550  0.3154759581075837
  0.9011316339178777  0.4999787433939247  0.4019764367630003
  0.7500286098665114  0.5000383709882144  0.3867499187674852
  0.5988334039860064  0.5000133546690861  0.4020064573264506
  0.6527549626620015  0.4998757493774661  0.4869897808374262
  0.5000263162522245  0.4999336691188248  0.4734373606616842
  0.8477055097738599  0.4998629309689022  0.4873817942114158
  0.9061928926158700  0.4997232854030784  0.5682480416543214
  0.7474053808747527  0.4998485674870849  0.5573991634265170
  0.5988550841176092  0.4994963609409737  0.5682976447621400
  0.0000940448676801  0.1330910129284035  0.5408383162542947
  0.9999103497875765  0.2452236779531276  0.5405045125568293
  0.0004549443554538  0.3825512659845245  0.5400634192487672
  0.1610480588029759  0.3149466121957687  0.5393437022429239
  0.9999562735491097  0.9929365028413457  0.5410347984846524
  0.1653219381277324  0.4387434218337063  0.5394680112648587
  0.0004291705016328  0.6305112579285890  0.5400974116037318
  0.1636966917588509  0.5623472502449260  0.5393796486145348
  0.0004569416429661  0.7409877058924295  0.5406538665977862
  0.1649311625022207  0.6864777311171295  0.5397437837308274
  0.9999730114525605  0.8810570389993018  0.5408343958564501
  0.0008382202108166  0.4931781475176891  0.5400354839070545
  0.5008552475635568  0.1331048612904411  0.5408400937127027
  0.5004221192323755  0.2451193702701246  0.5404630227153859
  0.5012027819809290  0.3826988932551956  0.5400613430431918
  0.6632606892627280  0.3137656940890210  0.5395698070483945
  0.5000033206316630  0.9929493679034067  0.5410425814843549
  0.6655632527944562  0.4379754451384841  0.5393628683129705
  0.5005365449040369  0.6305370962560772  0.5400944464509436
  0.6637070372801972  0.5620315788611805  0.5393118736954605
  0.5005429015161482  0.7409482883681520  0.5406485718653968
  0.6649548774293521  0.6864213796816756  0.5397449811093864
  0.5000691330815457  0.8810724296804437  0.5408312071025279
  0.5008450637328892  0.4930287562078490  0.5400386504212094
  0.2355128755059468  0.2839214712848346  0.6153784938048190
 
  0.00000000E+00  0.00000000E+00  0.00000000E+00
  0.00000000E+00  0.00000000E+00  0.00000000E+00
  0.00000000E+00  0.00000000E+00  0.00000000E+00
  0.00000000E+00  0.00000000E+00  0.00000000E+00
  0.00000000E+00  0.00000000E+00  0.00000000E+00
  0.00000000E+00  0.00000000E+00  0.00000000E+00