Ta  N Cu                                
   1.00000000000000     
    18.1096308199999996    0.0000000000000000    0.0000000000000000
     0.0000000000000000   23.3551997799999995    0.0000000000000000
     0.0000000000000000    0.0000000000000000   30.4818170799999990
   Ta   N    Cu
   240   240     4
Selective dynamics
Direct
  0.0000000000000000  0.0000000000000000  0.1962037549895328   F   F   F
  0.3335422814544131  0.0625000001605613  0.2032829710819826   F   F   F
  0.1664576892793903  0.0625000001605613  0.2032829710819826   F   F   F
  0.2499999997239044  0.1249999998929567  0.2787808134173062   F   F   F
  0.0825353920715628  0.0625000001605613  0.2838315333135668   F   F   F
  0.4174646079284372  0.0625000001605613  0.2838315333135668   F   F   F
  0.9999861254209961  0.1249888976626395  0.3695468706718504   T   T   T
  0.3322889982728311  0.0625049279118716  0.3684173542762120   T   T   T
  0.1678056983812387  0.0624860682445627  0.3684034044360617   T   T   T
  0.2500639759794940  0.1251186728490639  0.4557571434620807   T   T   T
  0.0838466444381727  0.0624722746056204  0.4543327439162854   T   T   T
  0.4161160991798652  0.0625449770028595  0.4544486297309090   T   T   T
 -0.0000093299084524  0.1250409010947980  0.5406296500723733   T   T   T
  0.3352789223152397  0.0624687884774022  0.5426812662107368   T   T   T
  0.1648860895167131  0.0624471324243207  0.5425484953871408   T   T   T
  0.0000000000000000  0.1249999998929567  0.1962037549895328   F   F   F
  0.3335422814544131  0.1875000000535181  0.2032829710819826   F   F   F
  0.1664576892793903  0.1875000000535181  0.2032829710819826   F   F   F
  0.2499999997239044  0.2500000002140865  0.2787808134173062   F   F   F
  0.0825353920715628  0.1875000000535181  0.2838315333135668   F   F   F
  0.4174646079284372  0.1875000000535181  0.2838315333135668   F   F   F
  0.9999837889429464  0.2499652932092300  0.3695522137166443   T   T   T
  0.3322424129400638  0.1874919020983631  0.3684616269665635   T   T   T
  0.1678233114273954  0.1874654965265248  0.3683990391946861   T   T   T
  0.2500173393180851  0.2498663928761311  0.4557161408739242   T   T   T
  0.0838353610012159  0.1874148482920273  0.4542681714046993   T   T   T
  0.4161212980248462  0.1875031205369000  0.4544130068806954   T   T   T
  0.9999682524623539  0.2500193843578277  0.5405622283955460   T   T   T
  0.3353833065619613  0.1871862705002376  0.5428098591268578   T   T   T
  0.1647139284354487  0.1874627805403309  0.5424873505063481   T   T   T
  0.0000000000000000  0.2500000002140865  0.1962037549895328   F   F   F
  0.3335422814544131  0.3124999999464819  0.2032829710819826   F   F   F
  0.1664576892793903  0.3124999999464819  0.2032829710819826   F   F   F
  0.2499999997239044  0.3750000001070433  0.2787808134173062   F   F   F
  0.0825353920715628  0.3124999999464819  0.2838315333135668   F   F   F
  0.4174646079284372  0.3124999999464819  0.2838315333135668   F   F   F
  0.9999861113147871  0.3749898480818589  0.3695700004710982   T   T   T
  0.3323410114704471  0.3124778020587236  0.3684608900258141   T   T   T
  0.1677404485008998  0.3124612052116713  0.3683308699990133   T   T   T
  0.2500059794049082  0.3751487474628337  0.4556000665024678   T   T   T
  0.0836988450985575  0.3124005028828202  0.4542443029788188   T   T   T
  0.4162579796381427  0.3123697253548338  0.4544643553305802   T   T   T
  0.0000006787054637  0.3749493668186020  0.5403932265917428   T   T   T
  0.3329309233488357  0.3114427688535396  0.5421547458063086   T   T   T
  0.1636520751872878  0.3126645805262103  0.5423318625036962   T   T   T
  0.0000000000000000  0.3750000001070433  0.1962037549895328   F   F   F
  0.3335422814544131  0.4375000002676046  0.2032829710819826   F   F   F
  0.1664576892793903  0.4375000002676046  0.2032829710819826   F   F   F
  0.2499999997239044  0.0000000000000000  0.2787808134173062   F   F   F
  0.0825353920715628  0.4375000002676046  0.2838315333135668   F   F   F
  0.4174646079284372  0.4375000002676046  0.2838315333135668   F   F   F
  0.9999828264974512 -0.0000011783168255  0.3695669762537062   T   T   T
  0.3323275350515147  0.4375007859263336  0.3684807578843907   T   T   T
  0.1677635715892372  0.4374997823599300  0.3683259824586760   T   T   T
  0.2500773086862989  0.0000174562049936  0.4557656201448008   T   T   T
  0.0836060380986732  0.4374995646577606  0.4541793000071334   T   T   T
  0.4161751705075613  0.4375038967086086  0.4541191135099708   T   T   T
 -0.0000302044675803  0.0000156905803761  0.5406947392564369   T   T   T
  0.3310085915728653  0.4374953186381245  0.5408512885240246   T   T   T
  0.1633498414176837  0.4375027119209768  0.5421489440725290   T   T   T
  0.0000000000000000  0.5000000000000000  0.1962037549895328   F   F   F
  0.3335422814544131  0.5625000001605613  0.2032829710819826   F   F   F
  0.1664576892793903  0.5625000001605613  0.2032829710819826   F   F   F
  0.2499999997239044  0.6249999998929567  0.2787808134173062   F   F   F
  0.0825353920715628  0.5625000001605613  0.2838315333135668   F   F   F
  0.4174646079284372  0.5625000001605613  0.2838315333135668   F   F   F
  0.9999834683263894  0.6250350064685851  0.3695553115600518   T   T   T
  0.3323395528181237  0.5625223661055364  0.3684606376939824   T   T   T
  0.1677411184648958  0.5625377847287326  0.3683330826926779   T   T   T
  0.2500092022678775  0.6251311994056143  0.4557140898665888   T   T   T
  0.0836906928834207  0.5625980545611650  0.4542463301137518   T   T   T
  0.4162490465833327  0.5626341095658925  0.4544609411610173   T   T   T
  0.9999831321233862  0.6249813647706272  0.5405644277400072   T   T   T
  0.3329311674566896  0.5635597364752615  0.5421460849747988   T   T   T
  0.1636539372989057  0.5623383191875407  0.5423247388756988   T   T   T
  0.0000000000000000  0.6249999998929567  0.1962037549895328   F   F   F
  0.3335422814544131  0.6875000000535181  0.2032829710819826   F   F   F
  0.1664576892793903  0.6875000000535181  0.2032829710819826   F   F   F
  0.2499999997239044  0.7500000002140865  0.2787808134173062   F   F   F
  0.0825353920715628  0.6875000000535181  0.2838315333135668   F   F   F
  0.4174646079284372  0.6875000000535181  0.2838315333135668   F   F   F
  0.9999835460048897  0.7500107826257539  0.3695520615677843   T   T   T
  0.3322454563196572  0.6875107609487645  0.3684602343292305   T   T   T
  0.1678209938617546  0.6875347579566561  0.3684018235582140   T   T   T
  0.2500618200526534  0.7498891147147397  0.4557560984423895   T   T   T
  0.0838319967751481  0.6875873710144460  0.4542678311507885   T   T   T
  0.4161174135352281  0.6875053007042197  0.4544122293523969   T   T   T
  0.0000060059096081  0.7499594562830728  0.5406313504750889   T   T   T
  0.3353768345435820  0.6878247336289621  0.5427995361644186   T   T   T
  0.1647079798931670  0.6875284629634101  0.5424874293286757   T   T   T
  0.0000000000000000  0.7500000002140865  0.1962037549895328   F   F   F
  0.3335422814544131  0.8124999999464819  0.2032829710819826   F   F   F
  0.1664576892793903  0.8124999999464819  0.2032829710819826   F   F   F
  0.2499999997239044  0.8750000001070433  0.2787808134173062   F   F   F
  0.0825353920715628  0.8124999999464819  0.2838315333135668   F   F   F
  0.4174646079284372  0.8124999999464819  0.2838315333135668   F   F   F
  0.9999824519437405  0.8750075462709024  0.3695671875716036   T   T   T
  0.3322872475416193  0.8124997367910510  0.3684165222613059   T   T   T
  0.1678037378209498  0.8125158140601957  0.3684044287093827   T   T   T
  0.2500708989820898  0.8749886406427658  0.4557653316656436   T   T   T
  0.0838447871821150  0.8125303367197131  0.4543332844444140   T   T   T
  0.4161154004491006  0.8124637541515674  0.4544458828964030   T   T   T
 -0.0000184457059279  0.8749907182490082  0.5406946019952040   T   T   T
  0.3352698235498714  0.8125459698019071  0.5426771762553676   T   T   T
  0.1648874005109114  0.8125491892280006  0.5425517619831911   T   T   T
  0.0000000000000000  0.8750000001070433  0.1962037549895328   F   F   F
  0.3335422814544131  0.9375000002676046  0.2032829710819826   F   F   F
  0.1664576892793903  0.9375000002676046  0.2032829710819826   F   F   F
  0.2499999997239044  0.5000000000000000  0.2787808134173062   F   F   F
  0.0825353920715628  0.9375000002676046  0.2838315333135668   F   F   F
  0.4174646079284372  0.9375000002676046  0.2838315333135668   F   F   F
 -0.0000138854347734  0.5000037675279562  0.3695634881558408   T   T   T
  0.3322548355587265  0.9375019733027081  0.3684215295473569   T   T   T
  0.1678254532372570  0.9375012446415860  0.3684110323309436   T   T   T
  0.2499920684269342  0.4998476236413162  0.4555986160808968   T   T   T
  0.0838544114358485  0.9375033672221194  0.4543410516341415   T   T   T
  0.4161722163280602  0.9375071941151338  0.4543973901505761   T   T   T
  0.9999879695849929  0.5000484057344505  0.5403992948278160   T   T   T
  0.3351646133512447  0.9375078236024773  0.5426451555910473   T   T   T
  0.1649214820697784  0.9374971819654891  0.5425465289572529   T   T   T
  0.5000000000000000  0.0000000000000000  0.1962037549895328   F   F   F
  0.8335422809022219  0.0625000001605613  0.2032829710819826   F   F   F
  0.6664576892793903  0.0625000001605613  0.2032829710819826   F   F   F
  0.7499999997239044  0.1249999998929567  0.2787808134173062   F   F   F
  0.5825353920715628  0.0625000001605613  0.2838315333135668   F   F   F
  0.9174646079284372  0.0625000001605613  0.2838315333135668   F   F   F
  0.4999870634482371  0.1250517757939806  0.3695983305989196   T   T   T
  0.8321656187806880  0.0624876399110974  0.3684016489537910   T   T   T
  0.6676896147377560  0.0625043683275303  0.3684187658168671   T   T   T
  0.7498973422115965  0.1251223394898642  0.4557546716975897   T   T   T
  0.5838406001742747  0.0625509100762436  0.4544456120649841   T   T   T
  0.9161144495075381  0.0624744460817458  0.4543298996835865   T   T   T
  0.4999813188026466  0.1255132290366482  0.5408501702870501   T   T   T
  0.8350539263914907  0.0624594380405674  0.5425500825454893   T   T   T
  0.6646944868547195  0.0624954053484225  0.5426806058441703   T   T   T
  0.5000000000000000  0.1249999998929567  0.1962037549895328   F   F   F
  0.8335422809022219  0.1875000000535181  0.2032829710819826   F   F   F
  0.6664576892793903  0.1875000000535181  0.2032829710819826   F   F   F
  0.7499999997239044  0.2500000002140865  0.2787808134173062   F   F   F
  0.5825353920715628  0.1875000000535181  0.2838315333135668   F   F   F
  0.9174646079284372  0.1875000000535181  0.2838315333135668   F   F   F
  0.4999813832452321  0.2498820899374316  0.3695877413013756   T   T   T
  0.8321467140613520  0.1874663685050285  0.3683983597348315   T   T   T
  0.6677353459015162  0.1874900849983510  0.3684593001964622   T   T   T
  0.7499462243786571  0.2498886861301447  0.4557076253183087   T   T   T
  0.5838538774471275  0.1875092449132157  0.4543958266364614   T   T   T
  0.9161309455605631  0.1874164643850240  0.4542625832370742   T   T   T
  0.4999718897520399  0.2522139314340770  0.5414135804674668   T   T   T
  0.8352206890600962  0.1874860377713984  0.5424781692724325   T   T   T
  0.6645725827387364  0.1872544496204071  0.5427653425880716   T   T   T
  0.5000000000000000  0.2500000002140865  0.1962037549895328   F   F   F
  0.8335422809022219  0.3124999999464819  0.2032829710819826   F   F   F
  0.6664576892793903  0.3124999999464819  0.2032829710819826   F   F   F
  0.7499999997239044  0.3750000001070433  0.2787808134173062   F   F   F
  0.5825353920715628  0.3124999999464819  0.2838315333135668   F   F   F
  0.9174646079284372  0.3124999999464819  0.2838315333135668   F   F   F
  0.4999781692064995  0.3750094737289223  0.3695524151260370   T   T   T
  0.8322302103194541  0.3124637374328234  0.3683258573774011   T   T   T
  0.6676493796721970  0.3124748528623620  0.3684531942868944   T   T   T
  0.7500195938903684  0.3751408244237197  0.4555712430349893   T   T   T
  0.5837310318479275  0.3123686898683175  0.4544420422359838   T   T   T
  0.9162801205132219  0.3124049557067797  0.4542382071007507   T   T   T
  0.5000898323829794  0.3756526533675239  0.5397777470945297   T   T   T
  0.8362406429854303  0.3126405142090892  0.5423105383686087   T   T   T
  0.6668570461502767  0.3115483051378389  0.5422057639167189   T   T   T
  0.5000000000000000  0.3750000001070433  0.1962037549895328   F   F   F
  0.8335422809022219  0.4375000002676046  0.2032829710819826   F   F   F
  0.6664576892793903  0.4375000002676046  0.2032829710819826   F   F   F
  0.7499999997239044  0.0000000000000000  0.2787808134173062   F   F   F
  0.5825353920715628  0.4375000002676046  0.2838315333135668   F   F   F
  0.9174646079284372  0.4375000002676046  0.2838315333135668   F   F   F
  0.4999861340589383  0.0000093893384156  0.3695815222624521   T   T   T
  0.8322172795629135  0.4375021375455235  0.3683146767133603   T   T   T
  0.6676631429946753  0.4375037073965621  0.3684663880651684   T   T   T
  0.7498816550270802  0.0000229840243838  0.4557691050912701   T   T   T
  0.5838103911139135  0.4375038608398885  0.4540811502645493   T   T   T
  0.9163726275401789  0.4374999896204594  0.4541832268342010   T   T   T
  0.4999996829022695  0.0001446739713786  0.5407790811818418   T   T   T
  0.8365690929501414  0.4374999630014594  0.5421828625927244   T   T   T
  0.6689166918797288  0.4375042221072830  0.5407857407280090   T   T   T
  0.5000000000000000  0.5000000000000000  0.1962037549895328   F   F   F
  0.8335422809022219  0.5625000001605613  0.2032829710819826   F   F   F
  0.6664576892793903  0.5625000001605613  0.2032829710819826   F   F   F
  0.7499999997239044  0.6249999998929567  0.2787808134173062   F   F   F
  0.5825353920715628  0.5625000001605613  0.2838315333135668   F   F   F
  0.9174646079284372  0.5625000001605613  0.2838315333135668   F   F   F
  0.4999819268651244  0.6251174766409747  0.3695893274327791   T   T   T
  0.8322312950495871  0.5625374625660011  0.3683267134982640   T   T   T
  0.6676505793876252  0.5625261653847697  0.3684531295371833   T   T   T
  0.7499349946439331  0.6251141857767644  0.4557150278212951   T   T   T
  0.5837285201334697  0.5626363249427495  0.4544568781092235   T   T   T
  0.9162719696607950  0.5625954141505569  0.4542412918072695   T   T   T
  0.4999594891854123  0.6228060705315976  0.5414138236503167   T   T   T
  0.8362255800835544  0.5623646056751584  0.5423157943992504   T   T   T
  0.6668397884692624  0.5634509313017476  0.5422244640002167   T   T   T
  0.5000000000000000  0.6249999998929567  0.1962037549895328   F   F   F
  0.8335422809022219  0.6875000000535181  0.2032829710819826   F   F   F
  0.6664576892793903  0.6875000000535181  0.2032829710819826   F   F   F
  0.7499999997239044  0.7500000002140865  0.2787808134173062   F   F   F
  0.5825353920715628  0.6875000000535181  0.2838315333135668   F   F   F
  0.9174646079284372  0.6875000000535181  0.2838315333135668   F   F   F
  0.4999865765613934  0.7499538938884990  0.3695986085434876   T   T   T
  0.8321443876920318  0.6875372441979684  0.3683991118160790   T   T   T
  0.6677311234353270  0.6875122383715635  0.3684623596324696   T   T   T
  0.7498905666353484  0.7498836686251081  0.4557569042324922   T   T   T
  0.5838509906115233  0.6874996387871456  0.4543988698917468   T   T   T
  0.9161250498772795  0.6875845975091157  0.4542668511159848   T   T   T
  0.4999648292566978  0.7495060583914480  0.5408502393544200   T   T   T
  0.8352157844586393  0.6875194212809425  0.5424770327113652   T   T   T
  0.6645746350873206  0.6877461463452696  0.5427775417577114   T   T   T
  0.5000000000000000  0.7500000002140865  0.1962037549895328   F   F   F
  0.8335422809022219  0.8124999999464819  0.2032829710819826   F   F   F
  0.6664576892793903  0.8124999999464819  0.2032829710819826   F   F   F
  0.7499999997239044  0.8750000001070433  0.2787808134173062   F   F   F
  0.5825353920715628  0.8124999999464819  0.2838315333135668   F   F   F
  0.9174646079284372  0.8124999999464819  0.2838315333135668   F   F   F
  0.4999860405105490  0.8750007884563812  0.3695816494149635   T   T   T
  0.8321649931833255  0.8125158009592666  0.3684028091460941   T   T   T
  0.6676892879290527  0.8124993805543723  0.3684178803330287   T   T   T
  0.7498775968013927  0.8749874185922023  0.4557710740354973   T   T   T
  0.5838425693735491  0.8124571884429068  0.4544430558132462   T   T   T
  0.9161108859744130  0.8125327878459698  0.4543323503396930   T   T   T
  0.4999966887449920  0.8748716709320981  0.5407794640424213   T   T   T
  0.8350565477684602  0.8125507137698426  0.5425462607802185   T   T   T
  0.6646865745560105  0.8125235528878788  0.5426829543206355   T   T   T
  0.5000000000000000  0.8750000001070433  0.1962037549895328   F   F   F
  0.8335422809022219  0.9375000002676046  0.2032829710819826   F   F   F
  0.6664576892793903  0.9375000002676046  0.2032829710819826   F   F   F
  0.7499999997239044  0.5000000000000000  0.2787808134173062   F   F   F
  0.5825353920715628  0.9375000002676046  0.2838315333135668   F   F   F
  0.9174646079284372  0.9375000002676046  0.2838315333135668   F   F   F
  0.4999770206265780  0.4999864669195378  0.3695558631683936   T   T   T
  0.8321515855578735  0.9375013479539770  0.3684094533501825   T   T   T
  0.6677289563965206  0.9375024067511833  0.3684264644139345   T   T   T
  0.7500097818874917  0.4998609960994435  0.4555759500969125   T   T   T
  0.5837860757136454  0.9375057702016053  0.4543995972005538   T   T   T
  0.9160967546299690  0.9375051079542590  0.4543415853095113   T   T   T
  0.5000706254011653  0.4993221778367760  0.5397847968527217   T   T   T
  0.8350496260531868  0.9375064681757576  0.5425516405543832   T   T   T
  0.6648119531796199  0.9375074509860295  0.5426426100522489   T   T   T
  0.4070505905542277  0.0000000000000000  0.2321160648471405   F   F   F
  0.2499999997239044  0.0000000000000000  0.1975324349659786   F   F   F
  0.0929494094457723  0.0000000000000000  0.2321160648471405   F   F   F
  0.1544227962345630  0.1249999998929567  0.3158353176496362   F   F   F
  0.0000000000000000  0.1249999998929567  0.3028242704748862   F   F   F
  0.3455772037654370  0.1249999998929567  0.3158353176496362   F   F   F
  0.4010461124321102  0.1250138241112331  0.4021831370175714   T   T   T
  0.2500398601851364  0.1249664920900652  0.3876463657505231   T   T   T
  0.0989953660640167  0.1249814236319623  0.4020675237206429   T   T   T
  0.1514610194840555  0.1250071732054622  0.4877224577830079   T   T   T
  0.9999797781346877  0.1249200821884476  0.4724428849694896   T   T   T
  0.3486513057549802  0.1250311646478614  0.4878960531154483   T   T   T
  0.4031572131304790  0.1252951263291055  0.5705281799868981   T   T   T
  0.2500948863233841  0.1252885954648429  0.5577893885519167   T   T   T
  0.0969374557218422  0.1249784189867424  0.5701393720201204   T   T   T
  0.4070505905542277  0.1249999998929567  0.2321160648471405   F   F   F
  0.2499999997239044  0.1249999998929567  0.1975324349659786   F   F   F
  0.0929494094457723  0.1249999998929567  0.2321160648471405   F   F   F
  0.1544227962345630  0.2500000002140865  0.3158353176496362   F   F   F
  0.0000000000000000  0.2500000002140865  0.3028242704748862   F   F   F
  0.3455772037654370  0.2500000002140865  0.3158353176496362   F   F   F
  0.4010167015197014  0.2499573237577360  0.4021813304846684   T   T   T
  0.2500373655518183  0.2500192273086432  0.3876197804722190   T   T   T
  0.0990216941934497  0.2499001400650570  0.4020150686812760   T   T   T
  0.1513375903483261  0.2498458598182557  0.4876486699106740   T   T   T
  0.9999852160850846  0.2498817633240089  0.4723088058984520   T   T   T
  0.3486709307226859  0.2497727892948778  0.4880203651855683   T   T   T
  0.4025811045776471  0.2512414189511917  0.5711443589838918   T   T   T
  0.2496701935505052  0.2504674160213528  0.5576900314033690   T   T   T
  0.0967216021327072  0.2498937754835707  0.5702308357456116   T   T   T
  0.4070505905542277  0.2500000002140865  0.2321160648471405   F   F   F
  0.2499999997239044  0.2500000002140865  0.1975324349659786   F   F   F
  0.0929494094457723  0.2500000002140865  0.2321160648471405   F   F   F
  0.1544227962345630  0.3750000001070433  0.3158353176496362   F   F   F
  0.0000000000000000  0.3750000001070433  0.3028242704748862   F   F   F
  0.3455772037654370  0.3750000001070433  0.3158353176496362   F   F   F
  0.4009129281061378  0.3749194843253525  0.4020280903763481   T   T   T
  0.2499984548983225  0.3749567842723552  0.3876083430339556   T   T   T
  0.0990445397252286  0.3749921702521449  0.4019478683892640   T   T   T
  0.1511550189056012  0.3749418464392788  0.4875569176273172   T   T   T
  0.9999864168312786  0.3749128681358275  0.4721398909778493   T   T   T
  0.3489034011632259  0.3749595976493023  0.4879165238119083   T   T   T
  0.3999384234618841  0.3746128885173152  0.5713506219617075   T   T   T
  0.2486406441199755  0.3751371713750624  0.5577036256145318   T   T   T
  0.0962921037405251  0.3749521582456127  0.5703186200021116   T   T   T
  0.4070505905542277  0.3750000001070433  0.2321160648471405   F   F   F
  0.2499999997239044  0.3750000001070433  0.1975324349659786   F   F   F
  0.0929494094457723  0.3750000001070433  0.2321160648471405   F   F   F
  0.1544227962345630  0.0000000000000000  0.3158353176496362   F   F   F
  0.0000000000000000  0.0000000000000000  0.3028242704748862   F   F   F
  0.3455772037654370  0.0000000000000000  0.3158353176496362   F   F   F
  0.4010546998733573  0.0000327217889483  0.4021475094886800   T   T   T
  0.2500517624837899  0.0000033658169212  0.3876627206259913   T   T   T
  0.0989935101643833  0.9999823313597455  0.4020847074196706   T   T   T
  0.1514629421310413  0.9999946592442920  0.4877365134864479   T   T   T
  0.9999787238253817  0.9999867760273585  0.4725204219551090   T   T   T
  0.3486367102597039  0.0000321058545652  0.4878139079635039   T   T   T
  0.4030848541440210  0.0000284504072305  0.5703486712523761   T   T   T
  0.2500809857435797  0.0001042581153671  0.5577693574582706   T   T   T
  0.0969522790940845  0.0000121833791401  0.5701851345698147   T   T   T
  0.4070505905542277  0.5000000000000000  0.2321160648471405   F   F   F
  0.2499999997239044  0.5000000000000000  0.1975324349659786   F   F   F
  0.0929494094457723  0.5000000000000000  0.2321160648471405   F   F   F
  0.1544227962345630  0.6249999998929567  0.3158353176496362   F   F   F
  0.0000000000000000  0.6249999998929567  0.3028242704748862   F   F   F
  0.3455772037654370  0.6249999998929567  0.3158353176496362   F   F   F
  0.4010179634097960  0.6250456521471899  0.4021807518357660   T   T   T
  0.2500366058663394  0.6249828829319050  0.3876185220930359   T   T   T
  0.0990184102182361  0.6250995860668032  0.4020178399776887   T   T   T
  0.1513338529778182  0.6251535358135469  0.4876517022314146   T   T   T
  0.9999761845235892  0.6251185090016564  0.4723133547571849   T   T   T
  0.3486551864976713  0.6252328765810526  0.4880109456769401   T   T   T
  0.4025628596093315  0.6237817302587680  0.5711190879966813   T   T   T
  0.2496636743545040  0.6245334078641203  0.5576955390811896   T   T   T
  0.0967137159291688  0.6251050448093028  0.5702317528453564   T   T   T
  0.4070505905542277  0.6249999998929567  0.2321160648471405   F   F   F
  0.2499999997239044  0.6249999998929567  0.1975324349659786   F   F   F
  0.0929494094457723  0.6249999998929567  0.2321160648471405   F   F   F
  0.1544227962345630  0.7500000002140865  0.3158353176496362   F   F   F
  0.0000000000000000  0.7500000002140865  0.3028242704748862   F   F   F
  0.3455772037654370  0.7500000002140865  0.3158353176496362   F   F   F
  0.4010467353599306  0.7499936032038985  0.4021813624937864   T   T   T
  0.2500390190079057  0.7500356035876624  0.3876454960705346   T   T   T
  0.0989965498724518  0.7500190337765416  0.4020695129830922   T   T   T
  0.1514596715404765  0.7499947888189740  0.4877227264874296   T   T   T
  0.9999765106628795  0.7500836358063757  0.4724465443801488   T   T   T
  0.3486477361345440  0.7499777598043438  0.4878924615791927   T   T   T
  0.4031502096647486  0.7497172142649178  0.5705235860339780   T   T   T
  0.2500863349580823  0.7497262532107977  0.5577881302006361   T   T   T
  0.0969306838531386  0.7500161235701678  0.5701439643100368   T   T   T
  0.4070505905542277  0.7500000002140865  0.2321160648471405   F   F   F
  0.2499999997239044  0.7500000002140865  0.1975324349659786   F   F   F
  0.0929494094457723  0.7500000002140865  0.2321160648471405   F   F   F
  0.1544227962345630  0.8750000001070433  0.3158353176496362   F   F   F
  0.0000000000000000  0.8750000001070433  0.3028242704748862   F   F   F
  0.3455772037654370  0.8750000001070433  0.3158353176496362   F   F   F
  0.4010554064881286  0.8749778153486794  0.4021461433286990   T   T   T
  0.2500506716139070  0.8750026558080473  0.3876633437103212   T   T   T
  0.0989906230791317  0.8750220338171080  0.4020849464308816   T   T   T
  0.1514612542651712  0.8750079747718749  0.4877365649408015   T   T   T
  0.9999783639803110  0.8750198942400420  0.4725193357464761   T   T   T
  0.3486359413086955  0.8749810976236096  0.4878128317362622   T   T   T
  0.4030806133034658  0.8749851580267736  0.5703518723676398   T   T   T
  0.2500768201539675  0.8749070604025670  0.5577696372478371   T   T   T
  0.0969548396384909  0.8749889538836870  0.5701898759783663   T   T   T
  0.4070505905542277  0.8750000001070433  0.2321160648471405   F   F   F
  0.2499999997239044  0.8750000001070433  0.1975324349659786   F   F   F
  0.0929494094457723  0.8750000001070433  0.2321160648471405   F   F   F
  0.1544227962345630  0.5000000000000000  0.3158353176496362   F   F   F
  0.0000000000000000  0.5000000000000000  0.3028242704748862   F   F   F
  0.3455772037654370  0.5000000000000000  0.3158353176496362   F   F   F
  0.4009184120148314  0.5000810993072012  0.4020268983650717   T   T   T
  0.2499959330806499  0.5000391844630375  0.3876075831864720   T   T   T
  0.0990411890678825  0.5000075724184969  0.4019482213917147   T   T   T
  0.1511453520271099  0.5000547769463072  0.4875578146883340   T   T   T
  0.9999821061609496  0.5000839315578050  0.4721403104799753   T   T   T
  0.3488870525647068  0.5000435972812207  0.4878970319598906   T   T   T
  0.3998729903822264  0.5003544580345910  0.5712619329303646   T   T   T
  0.2486296338845629  0.4998516847538899  0.5576848871472325   T   T   T
  0.0962892848631539  0.5000496846858842  0.5703162774846910   T   T   T
  0.9070505905542277  0.0000000000000000  0.2321160648471405   F   F   F
  0.7499999997239044  0.0000000000000000  0.1975324349659786   F   F   F
  0.5929494094457723  0.0000000000000000  0.2321160648471405   F   F   F
  0.6544227962345630  0.1249999998929567  0.3158353176496362   F   F   F
  0.5000000000000000  0.1249999998929567  0.3028242704748862   F   F   F
  0.8455772037654370  0.1249999998929567  0.3158353176496362   F   F   F
  0.9009735280906512  0.1249805777526884  0.4020672112492441   T   T   T
  0.7499338734678970  0.1249660273571807  0.3876440958605594   T   T   T
  0.5989242549192079  0.1250110520395650  0.4021765055442804   T   T   T
  0.6513099705652365  0.1250405940255928  0.4878828536654812   T   T   T
  0.4999845505429247  0.1252942568505907  0.4728191451695340   T   T   T
  0.8484990753028266  0.1250082911264310  0.4877176601781263   T   T   T
  0.9030435144782171  0.1249893566160335  0.5701253963793589   T   T   T
  0.7498719990751519  0.1252820450001459  0.5577859665805360   T   T   T
  0.5968020877447099  0.1253178439416056  0.5705034160610560   T   T   T
  0.9070505905542277  0.1249999998929567  0.2321160648471405   F   F   F
  0.7499999997239044  0.1249999998929567  0.1975324349659786   F   F   F
  0.5929494094457723  0.1249999998929567  0.2321160648471405   F   F   F
  0.6544227962345630  0.2500000002140865  0.3158353176496362   F   F   F
  0.5000000000000000  0.2500000002140865  0.3028242704748862   F   F   F
  0.8455772037654370  0.2500000002140865  0.3158353176496362   F   F   F
  0.9009493989225358  0.2499007481186982  0.4020148751435835   T   T   T
  0.7499436610183375  0.2500177347664356  0.3876157595676554   T   T   T
  0.5989559760855326  0.2499635629988927  0.4021750487210078   T   T   T
  0.6513077704882629  0.2498145188183797  0.4879921952440838   T   T   T
  0.4999877798340303  0.2500328163662712  0.4729305196021319   T   T   T
  0.8486254817094604  0.2498591889886559  0.4876451053725803   T   T   T
  0.9032411836548051  0.2499009395394358  0.5702116347999999   T   T   T
  0.7502614175735433  0.2504823257726952  0.5576733710048556   T   T   T
  0.5973963481755566  0.2512128683741244  0.5710436996481765   T   T   T
  0.9070505905542277  0.2500000002140865  0.2321160648471405   F   F   F
  0.7499999997239044  0.2500000002140865  0.1975324349659786   F   F   F
  0.5929494094457723  0.2500000002140865  0.2321160648471405   F   F   F
  0.6544227962345630  0.3750000001070433  0.3158353176496362   F   F   F
  0.5000000000000000  0.3750000001070433  0.3028242704748862   F   F   F
  0.8455772037654370  0.3750000001070433  0.3158353176496362   F   F   F
  0.9009251162496914  0.3749961868932774  0.4019502807776278   T   T   T
  0.7499882232932689  0.3749645685740949  0.3875837832353229   T   T   T
  0.5990621461488601  0.3749158740847085  0.4020095962824023   T   T   T
  0.6511505669612233  0.3749458893637435  0.4878337401180061   T   T   T
  0.5000080608334496  0.3750605551868657  0.4717973987112648   T   T   T
  0.8488339372514279  0.3749475528978848  0.4875582762948321   T   T   T
  0.9036661262136643  0.3749507057391658  0.5702996009400261   T   T   T
  0.7513021117812697  0.3751165492159648  0.5577004177294470   T   T   T
  0.5999509113331202  0.3749995008598930  0.5710488393842391   T   T   T
  0.9070505905542277  0.3750000001070433  0.2321160648471405   F   F   F