Ta N Cu Ru                              
   1.00000000000000     
    18.1096308199999996    0.0000000000000000    0.0000000000000000
     0.0000000000000000   11.6775998899999998    0.0000000000000000
     0.0000000000000000    0.0000000000000000   23.4818170799999990
   Ta   N    Cu   Ru
   119   120     1     1
Direct
  0.9999095324686144  0.0001025080160354  0.2548150499330037
  0.3336557915442376  0.1250098197647619  0.2635387244518404
  0.1665220520004709  0.1249499365819206  0.2636329951879889
  0.2500879838734349  0.2499718096024828  0.3610284943514680
  0.0823602695995705  0.1250017922019390  0.3683065771836009
  0.4176590665905982  0.1250053561051826  0.3682699723860959
  0.9998691012354916  0.2501032318025085  0.4797492358120090
  0.3322070362965069  0.1249198218419917  0.4776647750375959
  0.1674568030921513  0.1249894347884903  0.4776065177356096
  0.2504211542827240  0.2526027607953123  0.5907709285884685
  0.0855208759662658  0.1250580549110655  0.5891270259665017
  0.4158113710665061  0.1248627585014668  0.5898861586137313
  0.0001975211976225  0.2490461643620647  0.7023721335595088
  0.3333364573648588  0.1250025348530256  0.7060051617203561
  0.9999381824549677  0.2498870932294135  0.2548392694982046
  0.3336380871867981  0.3750653803863677  0.2636399199922311
  0.1665144271451653  0.3750428993533694  0.2636518793713707
  0.2499970479377814  0.4999269361540633  0.3610261861462769
  0.0824216076200171  0.3750194868979836  0.3682924711099778
  0.4175940580222544  0.3749574529057918  0.3684452062644197
  0.9999034969686482  0.5000411521564494  0.4798488644616726
  0.3318906133736259  0.3750827218748919  0.4778759615593507
  0.1677589560297669  0.3750354567452422  0.4778395839515724
  0.2505133412917292  0.4994376993651673  0.5914770072852481
  0.0832432163134323  0.3762996295395968  0.5891631786755555
  0.4157932218678744  0.3744701004735169  0.5892329312694573
  0.0001080841420457  0.4989820962160595  0.7029582609544212
  0.3364425387226087  0.3751392049841423  0.7044348317827661
  0.1665438989005103  0.3720240538373426  0.7050050886457762
  0.9999420318123627  0.4999650109099861  0.2548199263857049
  0.3336858440478912  0.6250009464632892  0.2636683943125578
  0.1662798606767276  0.6249303905853747  0.2635755218053146
  0.2500432748279462  0.7500467406088810  0.3610525901405808
  0.0825631681934064  0.6249735970256898  0.3682697763080345
  0.4173843787874100  0.6250071217816616  0.3684932910691319
  0.9999089387721771  0.7499123361106678  0.4798139438137719
  0.3322761246970831  0.6250629266822837  0.4779788974647286
  0.1676116430489890  0.6249849204369097  0.4779506734594489
  0.2499454541230666  0.7505841483506914  0.5911569675140887
  0.0834711695084089  0.6249596590875395  0.5900226144330935
  0.4158772332901525  0.6253717709388998  0.5894217843390785
  0.0000611887626262  0.7509464773547195  0.7028195061003868
  0.3359477949791969  0.6261628813785476  0.7046226284895112
  0.1653492516080559  0.6250099468940936  0.7047207258593123
  0.9999870366031740  0.7500522238354599  0.2547672497782461
  0.3335939107610188  0.8749551917075064  0.2636504722475131
  0.1664907862235720  0.8750013814078270  0.2636409695417955
  0.2501278693859937  0.0000177071946286  0.3610271565793841
  0.0824231344688190  0.8749325112406562  0.3682772052368353
  0.4176142746120223  0.8750349637908902  0.3684183886804768
  0.9998712953883387  0.9999194725747379  0.4796872606809020
  0.3321288417521025  0.8749402167368744  0.4780412800775528
  0.1677420446255017  0.8749411270057575  0.4777961385585682
  0.2502978876431733  0.9973670506307655  0.5906588841076442
  0.0831323738200117  0.8737054700943639  0.5890939426471183
  0.4162123693974607  0.8752209826711268  0.5897651978934152
  0.0002834233035306  0.0011204117273577  0.7022504026131986
  0.3363103620532900  0.8738525667283092  0.7039625882677327
  0.1661356780036256  0.8783314080090924  0.7048478659325753
  0.4998990160816692  0.9996708920212201  0.2548327407831525
  0.8335691517559823  0.1250211797760460  0.2637315990190539
  0.6665543056405135  0.1250360871352071  0.2637874283047636
  0.7501105840231367  0.2499944891384901  0.3612037505658021
  0.5827970772426828  0.1250064768616703  0.3683072271207673
  0.9173570922600870  0.1250131130871472  0.3684755607128510
  0.4997452157963291  0.2499059816036991  0.4798611055092348
  0.8326834410417048  0.1249947194242686  0.4782773469062018
  0.6677830391949114  0.1249001342007938  0.4781225700343215
  0.7498810332042418  0.2500859050552475  0.5911633319623220
  0.5838824218028061  0.1248368442167427  0.5898043093389682
  0.9167280631642881  0.1250744060389980  0.5904067246846078
  0.4994514360312858  0.2507006028378230  0.7014880915620499
  0.8349497621185796  0.1249752396714569  0.7040708586168676
  0.6638151287774466  0.1248718905155138  0.7041963954790182
  0.4998770217763708  0.2503186752938261  0.2548603251561958
  0.8335290263688729  0.3750332393600332  0.2637222837899446
  0.6664597887204364  0.3749710174896338  0.2637488883425898
  0.7502011067354595  0.4998999330693102  0.3611542668292402
  0.5826326128288987  0.3749692014577267  0.3684162707642246
  0.9174030057770478  0.3750510213246175  0.3684688783743492
  0.4999875312493033  0.4998835574784346  0.4798400766536293
  0.8325330228783074  0.3749779223484439  0.4783083545430726
  0.6679381295474570  0.3748588471556175  0.4779499250102198
  0.7490797703753842  0.4999040207921078  0.5912993552045877
  0.5840595979364291  0.3744434658679182  0.5892154870009614
  0.9160484832183778  0.3750501942213884  0.5900868184897355
  0.8347470396624270  0.3743977647277748  0.7042497496536796
  0.6640132835373680  0.3734767506568915  0.7048499322973426
  0.4999127890573965  0.4999423838355123  0.2548706914224542
  0.8336711619766561  0.6250289044743379  0.2636866356064863
  0.6664032268175354  0.6249938436777713  0.2637635449637747
  0.7501536181329750  0.7501055713767437  0.3611783345483333
  0.5827163757985098  0.6249897999038463  0.3683838032338563
  0.9173925950519245  0.6249823440366937  0.3684156468526841
  0.4999993109098318  0.7502530279337623  0.4797379581765271
  0.8324124117376654  0.6249768060629359  0.4781944798217509
  0.6678117156848514  0.6250592699868025  0.4779563358729315
  0.7497207272777605  0.7500643168566500  0.5909482162821516
  0.5839023510819576  0.6253901937178187  0.5893178985353067
  0.9162662708245468  0.6249311899840245  0.5901293870068559
  0.5001381539043037  0.7486187146067012  0.7014801505619971
  0.8343152545670069  0.6249052378726582  0.7044478890559875
  0.6642999623018536  0.6263205535284846  0.7045990963045171
  0.4998981019472343  0.7500320373255166  0.2548062401056556
  0.8335175666115119  0.8748991745565678  0.2637365379058954
  0.6664804434553566  0.8750238130817943  0.2637252212440042
  0.7500769902878301  0.9999831910853553  0.3612141858959207
  0.5826317281572158  0.8750208784138057  0.3683756836097438
  0.9174261688631091  0.8749127914624428  0.3684505999157068
  0.4997603997743918  0.9998981027420794  0.4798889444030279
  0.8325859956390567  0.8750086782999770  0.4782455060335799
  0.6676967682566644  0.8750997762130069  0.4780538902061673
  0.7499556072184400  0.9999699640953940  0.5910542172585035
  0.5836946741450358  0.8751774974808293  0.5897624612368140
  0.9161737401417438  0.8750129823039168  0.5900300629152878
  0.4994696995643576  0.9998686264694193  0.7021634363997301
  0.8350324899020773  0.8758680574944663  0.7040096569012192
  0.6640898988442576  0.8752872093300261  0.7044173213634554
  0.5001397540321774  0.4997310986248905  0.6956413290328379
  0.4067715004651211 -0.0000013051969691  0.3011847748540581
  0.2500681596622606  0.0000246563476278  0.2577815658723163
  0.0931447043321636  0.0000348856992911  0.3010659273653439
  0.1545674391723603  0.2501402677262042  0.4096702680189300
  0.9999608046991464  0.2500914253427814  0.3931244416533173
  0.3454831082164291  0.2500315811536387  0.4098132004762527
  0.4005613364241666  0.2497466610576536  0.5218287316254893
  0.2498567269725310  0.2498509369320702  0.5027562787125008
  0.0989485578982132  0.2500661349528202  0.5217735100684294
  0.1524912913659775  0.2541525888975634  0.6315549937195644
  0.0010864140825912  0.2499512808128263  0.6139650615483456
  0.3480068917039740  0.2497987430578543  0.6338080588827177
  0.4028796809243430  0.2498936127277075  0.7410899100325316
  0.2507344312760215  0.2507080047909544  0.7257436929749171
  0.0986589868825731  0.2476744063563817  0.7393179421524240
  0.4067529196332799  0.2499951860743723  0.3012010392636468
  0.2500657822638445  0.2499756936807388  0.2578554915961474
  0.0931917203078457  0.2499612988431504  0.3010799746959015
  0.1545346449593876  0.4999150745028924  0.4098353477496569
  0.9999870362429290  0.5000826936577744  0.3931350448694310
  0.3452757581826355  0.4998681846961815  0.4098470146654861
  0.4003070373911732  0.4996260083639497  0.5214711290304924
  0.2498082357160459  0.5002813435466070  0.5031067850819858
  0.0990369880091394  0.5003102518368241  0.5218925218870044
  0.1519351942617752  0.4997311987240470  0.6332717696770976
  0.9999529732116678  0.5001193332188809  0.6141013909175880
  0.3495849151776173  0.5000131410100047  0.6343358837957216
  0.4080219920991133  0.5005536187581623  0.7436439021561139
  0.2512909871725442  0.4992476960243573  0.7247384521446616
  0.0981760481748802  0.4983146819662898  0.7403875239441814
  0.4067303510774127  0.4999528464389457  0.3012281839986307
  0.2500477703677286  0.5000759232776503  0.2578051623772415
  0.0931810116530824  0.4999521517134097  0.3011053409471056
  0.1545411650190736  0.7500272094966222  0.4097977230938831
  0.9999978160635055  0.7498894929251917  0.3931020786187790
  0.3453864591707358  0.7501769851289272  0.4098745807936041
  0.4007343196925882  0.7506420954670967  0.5218039262415870
  0.2497916093155804  0.7497285678772206  0.5029096453166065
  0.0990280538444193  0.7496113587645348  0.5218667241511239
  0.1515483311016736  0.7503075723928033  0.6331754219398524
  0.9999447672288394  0.7497122567527165  0.6139622982063192
  0.3485111704363097  0.7499164099591595  0.6334668601378296
  0.4036944234696603  0.7495112556433160  0.7410831921760345
  0.2506774882866645  0.7502100592421490  0.7237240406878844
  0.0980567581891516  0.7515881305797411  0.7402507808804809
  0.4067571780977156  0.7500659425010910  0.3011992038844617
  0.2500028188166942  0.7499023779058807  0.2579317314478805
  0.0931928126264746  0.7499896798288959  0.3011086486416183
  0.1545777024809301  0.9998477586804279  0.4096468570962813
  0.9999610012610075  0.9999092870893622  0.3930933162125472
  0.3455237767468454  0.9999242794424406  0.4098467320791218
  0.4007155991484750  0.9999083325211331  0.5219740191994349
  0.2498853910965742  0.0000978330798054  0.5026993726299593
  0.0989538039681357  0.0000198936204324  0.5217202129625594
  0.1523031641969873  0.9960031205375199  0.6314407495571599
  0.0010902959168916  0.0002784802519697  0.6138231241746003
  0.3478966761853089  0.0002291784606878  0.6335772911469425
  0.4023665223171670  0.0004438982433153  0.7407577733897510
  0.2498541793844760  0.0007828625709293  0.7255574129527645
  0.0984184878823192  0.0020617804406573  0.7395528269332343
  0.9067248182885725  0.9999531696264917  0.3012237814706108
  0.7500472792637208  0.0000050444536436  0.2576937912238241
  0.5931242587605521  0.9999832809091798  0.3011287559594665
  0.6546495667516034  0.2499390378081258  0.4098909837550428
  0.5000775160410106  0.2499770873699414  0.3931996834184370
  0.8455300394275597  0.2499859153939464  0.4100348719268157
  0.9011792737675819  0.2500527633284969  0.5223818597187695
  0.7502359958974473  0.2499675896430298  0.5029900996122610
  0.5991478722894352  0.2496438210671671  0.5217547191307667
  0.6515565476295705  0.2502200655457374  0.6335308295452696
  0.4996673429822064  0.2491512308043891  0.6128959205526480
  0.8481585786609162  0.2503779762672613  0.6336234756235900
  0.9033859764171013  0.2499121755772737  0.7405188572440791
  0.7489690043115674  0.2506174619179606  0.7241626357034666
  0.5958257303237164  0.2503718978957665  0.7408453551263535
  0.9067396802419558  0.2500610882508331  0.3012322983990814
  0.7500321307645570  0.2500054048723866  0.2576178381910098
  0.5931273185967931  0.2500078938193745  0.3011525337918853
  0.6547620436662784  0.4999375595224049  0.4097773427113552
  0.5000404975660379  0.5000374599567646  0.3932313292818685
  0.8455061297074952  0.4999272526597852  0.4100386709553361
  0.9010249642065684  0.5000788154308955  0.5222520739017860
  0.7500601386027297  0.5000156399489000  0.5030514786086034
  0.5996734517109291  0.4997798605089998  0.5214856035728548
  0.6502555588133948  0.4997889348060466  0.6344660782775441
  0.4999475203860738  0.4995135381462846  0.6082427296801225
  0.8474094254932685  0.5002509885665432  0.6332629358893603
  0.9029366138100641  0.5000637329044546  0.7401875924576881
  0.7487918945247523  0.5000292495665827  0.7248473806859320
  0.5919495791435945  0.5005641757836919  0.7436468296071606
  0.9067988708340072  0.5000002989627911  0.3012258329997344
  0.7499846196357414  0.5000599693224915  0.2578185351915823
  0.5931857945307233  0.4999162933516967  0.3011733198610093
  0.6546478411186176  0.7500873469774605  0.4097998187424554
  0.5000400571127476  0.7499493793622382  0.3931138658807373
  0.8455110006865212  0.7500253867194387  0.4099969050411853
  0.9010419417572142  0.7498485875715842  0.5222208015666256
  0.7501044801455136  0.7500262153914605  0.5028338496407569
  0.5992836631563273  0.7504990401068572  0.5218113426606223
  0.6514052171715403  0.7501139384349697  0.6335513582315081
  0.4999578919970953  0.7508464307001387  0.6125756907852834
  0.8478488460369884  0.7496941766354871  0.6331469688898054
  0.9029009782436114  0.7498703108960342  0.7400727247397005
  0.7493494016887683  0.7493390444037459  0.7238193320378716
  0.5963634980985628  0.7493713050591174  0.7410602439235355
  0.9068610969126284  0.7499662465177305  0.3012133997203525
  0.7499620569883764  0.7499312317379010  0.2578009750617087
  0.5931633117098494  0.7500953509271703  0.3011374715369799
  0.6546163999669997  0.0000178631666275  0.4099092193295483
  0.5000895869135673  0.0000138960370178  0.3931791023802495
  0.8455469457595816  0.0000167885134481  0.4100031818595475
  0.9011763600219809  0.0000396325248418  0.5223504625630359
  0.7502247680884995  0.9999592860904564  0.5029304321881790
  0.5990248933088969  0.9999680856841946  0.5219109687243438
  0.6516788214896103  0.9997638910118920  0.6333115373830259
  0.4997008402453880  0.0002932159455030  0.6135105516011256
  0.8482741849693047  0.9997393384469780  0.6335624212535916
  0.9035684830652601  0.0001746109572645  0.7404378565044487
  0.7494179350658308  0.0001350104317087  0.7242499805166256
  0.5961135288726692  0.9999017512698971  0.7405551800754692
  0.5003362510497303  0.5070782311806602  0.7986883376448793
  0.1614592438749282  0.1249449916365458  0.6963982547865407
 
  0.00000000E+00  0.00000000E+00  0.00000000E+00
  0.00000000E+00  0.00000000E+00  0.00000000E+00
  0.00000000E+00  0.00000000E+00  0.00000000E+00
  0.00000000E+00  0.00000000E+00  0.00000000E+00
  0.00000000E+00  0.00000000E+00  0.00000000E+00
  0.00000000E+00  0.00000000E+00  0.00000000E+00
  0.00000000E+00  0.00000000E+00  0.00000000E+00
  0.00000000E+00  0.00000000E+00  0.00000000E+00
  0.00000000E+00  0.00000000E+00  0.00000000E+00
  0.00000000E+00  0.00000000E+00  0.00000000E+00
  0.00000000E+00  0.00000000E+00  0.00000000E+00
  0.00000000E+00  0.00000000E+00  0.00000000E+00
  0.00000000E+00  0.00000000E+00  0.00000000E+00
  0.00000000E+00  0.00000000E+00  0.00000000E+00
  0.00000000E+00  0.00000000E+00  0.00000000E+00
  0.00000000E+00  0.00000000E+00  0.00000000E+00
  0.00000000E+00  0.00000000E+00  0.00000000E+00
  0.00000000E+00  0.00000000E+00  0.00000000E+00
  0.00000000E+00  0.00000000E+00  0.00000000E+00
  0.00000000E+00  0.00000000E+00  0.00000000E+00
  0.00000000E+00  0.00000000E+00  0.00000000E+00
  0.00000000E+00  0.00000000E+00  0.00000000E+00
  0.00000000E+00  0.00000000E+00  0.00000000E+00
  0.00000000E+00  0.00000000E+00  0.00000000E+00
  0.00000000E+00  0.00000000E+00  0.00000000E+00
  0.00000000E+00  0.00000000E+00  0.00000000E+00
  0.00000000E+00  0.00000000E+00  0.00000000E+00
  0.00000000E+00  0.00000000E+00  0.00000000E+00
  0.00000000E+00  0.00000000E+00  0.00000000E+00
  0.00000000E+00  0.00000000E+00  0.00000000E+00
  0.00000000E+00  0.00000000E+00  0.00000000E+00
  0.00000000E+00  0.00000000E+00  0.00000000E+00
  0.00000000E+00  0.00000000E+00  0.00000000E+00
  0.00000000E+00  0.00000000E+00  0.00000000E+00
  0.00000000E+00  0.00000000E+00  0.00000000E+00
  0.00000000E+00  0.00000000E+00  0.00000000E+00
  0.00000000E+00  0.00000000E+00  0.00000000E+00
  0.00000000E+00  0.00000000E+00  0.00000000E+00
  0.00000000E+00  0.00000000E+00  0.00000000E+00
  0.00000000E+00  0.00000000E+00  0.00000000E+00
  0.00000000E+00  0.00000000E+00  0.00000000E+00
  0.00000000E+00  0.00000000E+00  0.00000000E+00
  0.00000000E+00  0.00000000E+00  0.00000000E+00
  0.00000000E+00  0.00000000E+00  0.00000000E+00
  0.00000000E+00  0.00000000E+00  0.00000000E+00
  0.00000000E+00  0.00000000E+00  0.00000000E+00
  0.00000000E+00  0.00000000E+00  0.00000000E+00
  0.00000000E+00  0.00000000E+00  0.00000000E+00
  0.00000000E+00  0.00000000E+00  0.00000000E+00
  0.00000000E+00  0.00000000E+00  0.00000000E+00
  0.00000000E+00  0.00000000E+00  0.00000000E+00
  0.00000000E+00  0.00000000E+00  0.00000000E+00
  0.00000000E+00  0.00000000E+00  0.00000000E+00
  0.00000000E+00  0.00000000E+00  0.00000000E+00
  0.00000000E+00  0.00000000E+00  0.00000000E+00
  0.00000000E+00  0.00000000E+00  0.00000000E+00
  0.00000000E+00  0.00000000E+00  0.00000000E+00
  0.00000000E+00  0.00000000E+00  0.00000000E+00
  0.00000000E+00  0.00000000E+00  0.00000000E+00
  0.00000000E+00  0.00000000E+00  0.00000000E+00
  0.00000000E+00  0.00000000E+00  0.00000000E+00
  0.00000000E+00  0.00000000E+00  0.00000000E+00
  0.00000000E+00  0.00000000E+00  0.00000000E+00
  0.00000000E+00  0.00000000E+00  0.00000000E+00
  0.00000000E+00  0.00000000E+00  0.00000000E+00
  0.00000000E+00  0.00000000E+00  0.00000000E+00
  0.00000000E+00  0.00000000E+00  0.00000000E+00
  0.00000000E+00  0.00000000E+00  0.00000000E+00
  0.00000000E+00  0.00000000E+00  0.00000000E+00
  0.00000000E+00  0.00000000E+00  0.00000000E+00
  0.00000000E+00  0.00000000E+00  0.00000000E+00
  0.00000000E+00  0.00000000E+00  0.00000000E+00
  0.00000000E+00  0.00000000E+00  0.00000000E+00
  0.00000000E+00  0.00000000E+00  0.00000000E+00
  0.00000000E+00  0.00000000E+00  0.00000000E+00
  0.00000000E+00  0.00000000E+00  0.00000000E+00
  0.00000000E+00  0.00000000E+00  0.00000000E+00
  0.00000000E+00  0.00000000E+00  0.00000000E+00
  0.00000000E+00  0.00000000E+00  0.00000000E+00
  0.00000000E+00  0.00000000E+00  0.00000000E+00
  0.00000000E+00  0.00000000E+00  0.00000000E+00
  0.00000000E+00  0.00000000E+00  0.00000000E+00
  0.00000000E+00  0.00000000E+00  0.00000000E+00
  0.00000000E+00  0.00000000E+00  0.00000000E+00
  0.00000000E+00  0.00000000E+00  0.00000000E+00
  0.00000000E+00  0.00000000E+00  0.00000000E+00
  0.00000000E+00  0.00000000E+00  0.00000000E+00
  0.00000000E+00  0.00000000E+00  0.00000000E+00
  0.00000000E+00  0.00000000E+00  0.00000000E+00
  0.00000000E+00  0.00000000E+00  0.00000000E+00
  0.00000000E+00  0.00000000E+00  0.00000000E+00
  0.00000000E+00  0.00000000E+00  0.00000000E+00
  0.00000000E+00  0.00000000E+00  0.00000000E+00
  0.00000000E+00  0.00000000E+00  0.00000000E+00
  0.00000000E+00  0.00000000E+00  0.00000000E+00
  0.00000000E+00  0.00000000E+00  0.00000000E+00
  0.00000000E+00  0.00000000E+00  0.00000000E+00
  0.00000000E+00  0.00000000E+00  0.00000000E+00
  0.00000000E+00  0.00000000E+00  0.00000000E+00
  0.00000000E+00  0.00000000E+00  0.00000000E+00
  0.00000000E+00  0.00000000E+00  0.00000000E+00
  0.00000000E+00  0.00000000E+00  0.00000000E+00
  0.00000000E+00  0.00000000E+00  0.00000000E+00
  0.00000000E+00  0.00000000E+00  0.00000000E+00
  0.00000000E+00  0.00000000E+00  0.00000000E+00
  0.00000000E+00  0.00000000E+00  0.00000000E+00
  0.00000000E+00  0.00000000E+00  0.00000000E+00
  0.00000000E+00  0.00000000E+00  0.00000000E+00
  0.00000000E+00  0.00000000E+00  0.00000000E+00
  0.00000000E+00  0.00000000E+00  0.00000000E+00
  0.00000000E+00  0.00000000E+00  0.00000000E+00
  0.00000000E+00  0.00000000E+00  0.00000000E+00
  0.00000000E+00  0.00000000E+00  0.00000000E+00
  0.00000000E+00  0.00000000E+00  0.00000000E+00
  0.00000000E+00  0.00000000E+00  0.00000000E+00
  0.00000000E+00  0.00000000E+00  0.00000000E+00
  0.00000000E+00  0.00000000E+00  0.00000000E+00
  0.00000000E+00  0.00000000E+00  0.00000000E+00
  0.00000000E+00  0.00000000E+00  0.00000000E+00
  0.00000000E+00  0.00000000E+00  0.00000000E+00
  0.00000000E+00  0.00000000E+00  0.00000000E+00
  0.00000000E+00  0.00000000E+00  0.00000000E+00
  0.00000000E+00  0.00000000E+00  0.00000000E+00
  0.00000000E+00  0.00000000E+00  0.00000000E+00
  0.00000000E+00  0.00000000E+00  0.00000000E+00
  0.00000000E+00  0.00000000E+00  0.00000000E+00
  0.00000000E+00  0.00000000E+00  0.00000000E+00
  0.00000000E+00  0.00000000E+00  0.00000000E+00
  0.00000000E+00  0.00000000E+00  0.00000000E+00
  0.00000000E+00  0.00000000E+00  0.00000000E+00
  0.00000000E+00  0.00000000E+00  0.00000000E+00
  0.00000000E+00  0.00000000E+00  0.00000000E+00
  0.00000000E+00  0.00000000E+00  0.00000000E+00
  0.00000000E+00  0.00000000E+00  0.00000000E+00
  0.00000000E+00  0.00000000E+00  0.00000000E+00
  0.00000000E+00  0.00000000E+00  0.00000000E+00
  0.00000000E+00  0.00000000E+00  0.00000000E+00
  0.00000000E+00  0.00000000E+00  0.00000000E+00
  0.00000000E+00  0.00000000E+00  0.00000000E+00
  0.00000000E+00  0.00000000E+00  0.00000000E+00
  0.00000000E+00  0.00000000E+00  0.00000000E+00
  0.00000000E+00  0.00000000E+00  0.00000000E+00
  0.00000000E+00  0.00000000E+00  0.00000000E+00
  0.00000000E+00  0.00000000E+00  0.00000000E+00
  0.00000000E+00  0.00000000E+00  0.00000000E+00
  0.00000000E+00  0.00000000E+00  0.00000000E+00
  0.00000000E+00  0.00000000E+00  0.00000000E+00
  0.00000000E+00  0.00000000E+00  0.00000000E+00
  0.00000000E+00  0.00000000E+00  0.00000000E+00
  0.00000000E+00  0.00000000E+00  0.00000000E+00
  0.00000000E+00  0.00000000E+00  0.00000000E+00
  0.00000000E+00  0.00000000E+00  0.00000000E+00
  0.00000000E+00  0.00000000E+00  0.00000000E+00
  0.00000000E+00  0.00000000E+00  0.00000000E+00
  0.00000000E+00  0.00000000E+00  0.00000000E+00
  0.00000000E+00  0.00000000E+00  0.00000000E+00
  0.00000000E+00  0.00000000E+00  0.00000000E+00
  0.00000000E+00  0.00000000E+00  0.00000000E+00
  0.00000000E+00  0.00000000E+00  0.00000000E+00
  0.00000000E+00  0.00000000E+00  0.00000000E+00
  0.00000000E+00  0.00000000E+00  0.00000000E+00
  0.00000000E+00  0.00000000E+00  0.00000000E+00
  0.00000000E+00  0.00000000E+00  0.00000000E+00
  0.00000000E+00  0.00000000E+00  0.00000000E+00
  0.00000000E+00  0.00000000E+00  0.00000000E+00
  0.00000000E+00  0.00000000E+00  0.00000000E+00
  0.00000000E+00  0.00000000E+00  0.00000000E+00
  0.00000000E+00  0.00000000E+00  0.00000000E+00
  0.00000000E+00  0.00000000E+00  0.00000000E+00
  0.00000000E+00  0.00000000E+00  0.00000000E+00
  0.00000000E+00  0.00000000E+00  0.00000000E+00
  0.00000000E+00  0.00000000E+00  0.00000000E+00
  0.00000000E+00  0.00000000E+00  0.00000000E+00
  0.00000000E+00  0.00000000E+00  0.00000000E+00
  0.00000000E+00  0.00000000E+00  0.00000000E+00
  0.00000000E+00  0.00000000E+00  0.00000000E+00
  0.00000000E+00  0.00000000E+00  0.00000000E+00
  0.00000000E+00  0.00000000E+00  0.00000000E+00
  0.00000000E+00  0.00000000E+00  0.00000000E+00
  0.00000000E+00  0.00000000E+00  0.00000000E+00
  0.00000000E+00  0.00000000E+00  0.00000000E+00
  0.00000000E+00  0.00000000E+00  0.00000000E+00
  0.00000000E+00  0.00000000E+00  0.00000000E+00
  0.00000000E+00  0.00000000E+00  0.00000000E+00
  0.00000000E+00  0.00000000E+00  0.00000000E+00
  0.00000000E+00  0.00000000E+00  0.00000000E+00
  0.00000000E+00  0.00000000E+00  0.00000000E+00
  0.00000000E+00  0.00000000E+00  0.00000000E+00
  0.00000000E+00  0.00000000E+00  0.00000000E+00
  0.00000000E+00  0.00000000E+00  0.00000000E+00
  0.00000000E+00  0.00000000E+00  0.00000000E+00
  0.00000000E+00  0.00000000E+00  0.00000000E+00
  0.00000000E+00  0.00000000E+00  0.00000000E+00
  0.00000000E+00  0.00000000E+00  0.00000000E+00
  0.00000000E+00  0.00000000E+00  0.00000000E+00
  0.00000000E+00  0.00000000E+00  0.00000000E+00
  0.00000000E+00  0.00000000E+00  0.00000000E+00
  0.00000000E+00  0.00000000E+00  0.00000000E+00
  0.00000000E+00  0.00000000E+00  0.00000000E+00
  0.00000000E+00  0.00000000E+00  0.00000000E+00
  0.00000000E+00  0.00000000E+00  0.00000000E+00
  0.00000000E+00  0.00000000E+00  0.00000000E+00
  0.00000000E+00  0.00000000E+00  0.00000000E+00
  0.00000000E+00  0.00000000E+00  0.00000000E+00
  0.00000000E+00  0.00000000E+00  0.00000000E+00
  0.00000000E+00  0.00000000E+00  0.00000000E+00
  0.00000000E+00  0.00000000E+00  0.00000000E+00
  0.00000000E+00  0.00000000E+00  0.00000000E+00
  0.00000000E+00  0.00000000E+00  0.00000000E+00
  0.00000000E+00  0.00000000E+00  0.00000000E+00
  0.00000000E+00  0.00000000E+00  0.00000000E+00
  0.00000000E+00  0.00000000E+00  0.00000000E+00
  0.00000000E+00  0.00000000E+00  0.00000000E+00
  0.00000000E+00  0.00000000E+00  0.00000000E+00
  0.00000000E+00  0.00000000E+00  0.00000000E+00
  0.00000000E+00  0.00000000E+00  0.00000000E+00
  0.00000000E+00  0.00000000E+00  0.00000000E+00
  0.00000000E+00  0.00000000E+00  0.00000000E+00
  0.00000000E+00  0.00000000E+00  0.00000000E+00
  0.00000000E+00  0.00000000E+00  0.00000000E+00
  0.00000000E+00  0.00000000E+00  0.00000000E+00
  0.00000000E+00  0.00000000E+00  0.00000000E+00
  0.00000000E+00  0.00000000E+00  0.00000000E+00
  0.00000000E+00  0.00000000E+00  0.00000000E+00
  0.00000000E+00  0.00000000E+00  0.00000000E+00
  0.00000000E+00  0.00000000E+00  0.00000000E+00
  0.00000000E+00  0.00000000E+00  0.00000000E+00
  0.00000000E+00  0.00000000E+00  0.00000000E+00
  0.00000000E+00  0.00000000E+00  0.00000000E+00
  0.00000000E+00  0.00000000E+00  0.00000000E+00
  0.00000000E+00  0.00000000E+00  0.00000000E+00
  0.00000000E+00  0.00000000E+00  0.00000000E+00
  0.00000000E+00  0.00000000E+00  0.00000000E+00
  0.00000000E+00  0.00000000E+00  0.00000000E+00
  0.00000000E+00  0.00000000E+00  0.00000000E+00
  0.00000000E+00  0.00000000E+00  0.00000000E+00
  0.00000000E+00  0.00000000E+00  0.00000000E+00
  0.00000000E+00  0.00000000E+00  0.00000000E+00
  0.00000000E+00  0.00000000E+00  0.00000000E+00
  0.00000000E+00  0.00000000E+00  0.00000000E+00
  0.00000000E+00  0.00000000E+00  0.00000000E+00
