Ta  N Ru Cu                             
   1.00000000000000     
    18.1096308199999996    0.0000000000000000    0.0000000000000000
     0.0000000000000000   23.3551997799999995    0.0000000000000000
     0.0000000000000000    0.0000000000000000   30.4818171199999988
   Ta   N    Ru   Cu
   228   240    12    29
Selective dynamics
Direct
  0.0000000000000000  0.0000718856546769  0.1971343718284118   F   F   F
  0.3342926847814240  0.0624132518977021  0.2026937805440667   F   F   F
  0.1663206548061567  0.0625684459108768  0.2026879703893130   F   F   F
  0.2502067873593177  0.1250918040142253  0.2779408447657588   F   F   F
  0.0826029581595549  0.0626929404336494  0.2836274496812337   F   F   F
  0.4173382514782702  0.0622475047871944  0.2840383744896471   F   F   F
  0.0025590481262917  0.1234314366412221  0.3696353486616153   T   T   T
  0.3372783416350630  0.0609864924454565  0.3682144281388021   T   T   T
  0.1716900363805354  0.0646317263017219  0.3671147336190854   T   T   T
  0.2550367464296406  0.1268420649077691  0.4541441766113337   T   T   T
  0.0917859430479058  0.0623944937705690  0.4596410487396160   T   T   T
  0.4115339891467746  0.0619845530105349  0.4556479367423087   T   T   T
  0.9949144928873166  0.1271950264339705  0.5488488389043614   T   T   T
  0.3336338087207554  0.0605762992604646  0.5465693165763554   T   T   T
  0.0000000000000000  0.1251997475754436  0.1971274192404451   F   F   F
  0.3343369412500081  0.1874555756944787  0.2027209845130571   F   F   F
  0.1662604173406379  0.1876312578509030  0.2027221982441247   F   F   F
  0.2501999816055047  0.2498887646067161  0.2779024730234809   F   F   F
  0.0825727650861410  0.1876830281330939  0.2837096283809757   F   F   F
  0.4172972896996328  0.1872504991250779  0.2840867748275429   F   F   F
  0.0020409653329401  0.2475068270845009  0.3695568716703236   T   T   T
  0.3322685666833538  0.1872938404863594  0.3643223705062619   T   T   T
  0.1689266542530329  0.1880786138698272  0.3713365086638842   T   T   T
  0.2483971810039785  0.2489367044055198  0.4561117556553954   T   T   T
  0.0816434282862077  0.1878679516599286  0.4554160265743897   T   T   T
  0.4181616015021197  0.1919923869181140  0.4590922787082514   T   T   T
  0.9712612778493160  0.2479013538246591  0.5449086113078495   T   T   T
  0.3416853766266320  0.1894244952445023  0.5410647056829202   T   T   T
  0.1798508075776960  0.1932695442575905  0.5389639068662727   T   T   T
  0.0000000000000000  0.2500718858687634  0.1971343718284118   F   F   F
  0.3342926847814240  0.3124132516836227  0.2026937805440667   F   F   F
  0.1663206548061567  0.3125684456967974  0.2026879703893130   F   F   F
  0.2502067873593177  0.3750918042283047  0.2779408447657588   F   F   F
  0.0826029581595549  0.3126929402195699  0.2836274496812337   F   F   F
  0.4173382514782702  0.3122475045731150  0.2840383744896471   F   F   F
  0.9991612846271337  0.3720687974488382  0.3709662263436288   T   T   T
  0.3294772416636516  0.3127692271664873  0.3689955526514712   T   T   T
  0.1729766274311131  0.3122913976993274  0.3664430213275187   T   T   T
  0.2550516750519040  0.3730838592899117  0.4520988221366811   T   T   T
  0.0940120746158484  0.3156039796420421  0.4548622091446146   T   T   T
  0.4136037617047445  0.3121041481055220  0.4578669218583813   T   T   T
  0.0080918163208751  0.3763221561233237  0.5516921357985244   T   T   T
  0.3350692655281989  0.3175306167342627  0.5507436827409167   T   T   T
  0.0000000000000000  0.3751997477895301  0.1971274192404451   F   F   F
  0.3343369412500081  0.4374555759085652  0.2027209845130571   F   F   F
  0.1662604173406379  0.4376312580649895  0.2027221982441247   F   F   F
  0.2501999816055047  0.9998887643926295  0.2779024730234809   F   F   F
  0.0825727650861410  0.4376830283471804  0.2837096283809757   F   F   F
  0.4172972896996328  0.4372504993391644  0.2840867748275429   F   F   F
  0.9998328852860988  0.0047975854337546  0.3701082292223384   T   T   T
  0.3370629856141230  0.4372073817713752  0.3698414591550427   T   T   T
  0.1654007083257168  0.4383681977125320  0.3654710576029452   T   T   T
  0.2415891423786260  0.9983331033025666  0.4535434188384323   T   T   T
  0.0783532401678930  0.4402424886987939  0.4542178127531761   T   T   T
  0.4151449867784230  0.4400503015372917  0.4539064777391684   T   T   T
  0.0000706571299587  0.0009439499805246  0.5498877520038966   T   T   T
  0.3411287567999208  0.4430793271206473  0.5413307532211217   T   T   T
  0.1668044877950629  0.4490833253286340  0.5404591385877396   T   T   T
  0.0000000000000000  0.5000718856546769  0.1971343718284118   F   F   F
  0.3342926847814240  0.5624132518977021  0.2026937805440667   F   F   F
  0.1663206548061567  0.5625684459108768  0.2026879703893130   F   F   F
  0.2502067873593177  0.6250918040142253  0.2779408447657588   F   F   F
  0.0826029581595549  0.5626929404336494  0.2836274496812337   F   F   F
  0.4173382514782702  0.5622475047871944  0.2840383744896471   F   F   F
  0.0039720929349586  0.6202066445238252  0.3708878503766427   T   T   T
  0.3368988609560608  0.5642025540345417  0.3660446021088029   T   T   T
  0.1714962345932379  0.5618619361829896  0.3673483693054828   T   T   T
  0.2453287081499885  0.6233760836293761  0.4541504058359230   T   T   T
  0.0811281203460731  0.5619056083835299  0.4550857020909856   T   T   T
  0.4200793314046833  0.5618840836018377  0.4568438071063018   T   T   T
  0.9958593948379528  0.6341526800323551  0.5460713942587778   T   T   T
  0.3212127013027641  0.5636463728704666  0.5412632749440029   T   T   T
  0.0000000000000000  0.6251997475754436  0.1971274192404451   F   F   F
  0.3343369412500081  0.6874555756944787  0.2027209845130571   F   F   F
  0.1662604173406379  0.6876312578509030  0.2027221982441247   F   F   F
  0.2501999816055047  0.7498887646067161  0.2779024730234809   F   F   F
  0.0825727650861410  0.6876830281330939  0.2837096283809757   F   F   F
  0.4172972896996328  0.6872504991250779  0.2840867748275429   F   F   F
  0.0035305395100204  0.7527800177849527  0.3708718652998902   T   T   T
  0.3371681619887292  0.6889721959371279  0.3704293043892564   T   T   T
  0.1700262912833908  0.6852610707068292  0.3676743985849572   T   T   T
  0.2575624877686119  0.7523121147319728  0.4568355908722028   T   T   T
  0.0838097624454357  0.6923792850399071  0.4530263745687104   T   T   T
  0.4294158478135297  0.6890158387920889  0.4533785286891586   T   T   T
  0.0071119174381416  0.7640372076069930  0.5812453598300422   T   T   T
  0.3364409739181921  0.6839076661300080  0.5388573201644393   T   T   T
  0.1669856838859889  0.6820141397151075  0.5433132356718711   T   T   T
  0.0000000000000000  0.7500718858687634  0.1971343718284118   F   F   F
  0.3342926847814240  0.8124132516836227  0.2026937805440667   F   F   F
  0.1663206548061567  0.8125684456967974  0.2026879703893130   F   F   F
  0.2502067873593177  0.8750918042283118  0.2779408447657588   F   F   F
  0.0826029581595549  0.8126929402195699  0.2836274496812337   F   F   F
  0.4173382514782702  0.8122475045731150  0.2840383744896471   F   F   F
  0.9989355021578644  0.8766065503164334  0.3705577038016080   T   T   T
  0.3282675102734979  0.8165175978380148  0.3669442316246401   T   T   T
  0.1699752471118181  0.8118805623273387  0.3688119312376605   T   T   T
  0.2535266567989715  0.8832640605703852  0.4587484445701744   T   T   T
  0.0880412803371054  0.8181220211044098  0.4556309580326108   T   T   T
  0.4260195032351637  0.8141494375813458  0.4547773606151491   T   T   T
  0.9886414993015198  0.8791733871768443  0.5896071728886335   T   T   T
  0.3425852749442033  0.8118076597973864  0.5409939275469434   T   T   T
  0.0000000000000000  0.8751997477895301  0.1971274192404451   F   F   F
  0.3343369412500081  0.9374555759085652  0.2027209845130571   F   F   F
  0.1662604173406379  0.9376312580649895  0.2027221982441247   F   F   F
  0.2501999816055047  0.4998887643926295  0.2779024730234809   F   F   F
  0.0825727650861410  0.9376830283471804  0.2837096283809757   F   F   F
  0.4172972896996328  0.9372504993391644  0.2840867748275429   F   F   F
  0.9963446448196246  0.5029181170456997  0.3688902636380023   T   T   T
  0.3362462782142727  0.9395591943062280  0.3668951698792682   T   T   T
  0.1632964133114911  0.9382227524757771  0.3677157987112574   T   T   T
  0.2481607960241257  0.5009792877775413  0.4516758917453162   T   T   T
  0.0754960565559529  0.9374003298873440  0.4555375781877469   T   T   T
  0.4120247014712444  0.9407326870001499  0.4570439841987103   T   T   T
  0.9818469911976890  0.5119556006118489  0.5580680335634247   T   T   T
  0.3396845825979964  0.9393675068090008  0.5486127504402526   T   T   T
  0.1735506360116598  0.9404486270110729  0.5423390038749907   T   T   T
  0.5000000000000000  0.9997488470195677  0.1972621268646009   F   F   F
  0.8336793153754556  0.0625684459108768  0.2026879703893130   F   F   F
  0.6657072859523794  0.0624132518977021  0.2026937805440667   F   F   F
  0.7497932120884911  0.1250918040142253  0.2779408447657588   F   F   F
  0.5826617485217298  0.0622475047871944  0.2840383744896471   F   F   F
  0.9173970418404451  0.0626929404336494  0.2836274496812337   F   F   F
  0.5003234065688298  0.1284258835730906  0.3709175577893157   T   T   T
  0.8325946213467869  0.0614641924705942  0.3697666747495139   T   T   T
  0.6667615815653459  0.0615848406610538  0.3690861872274888   T   T   T
  0.7491930834184787  0.1291156124329375  0.4572400896928749   T   T   T
  0.5794945161791284  0.0654214379326659  0.4569085865841517   T   T   T
  0.9096172552683153  0.0625716390609647  0.4591871037026741   T   T   T
  0.4963852352080564  0.1274761250001651  0.5457852638706966   T   T   T
  0.6522495838646588  0.0613206591634034  0.5503704406722745   T   T   T
  0.5000000000000000  0.1249314217885598  0.1972730821371940   F   F   F
  0.8337395528409743  0.1876312578509030  0.2027221982441247   F   F   F
  0.6656630294837953  0.1874555756944787  0.2027209845130571   F   F   F
  0.7498000178423041  0.2498887646067161  0.2779024730234809   F   F   F
  0.5827027103003743  0.1872504991250779  0.2840867748275429   F   F   F
  0.9174272349138590  0.1876830281330939  0.2837096283809757   F   F   F
  0.4966659097691986  0.2497640841613892  0.3700308997024940   T   T   T
  0.8364060584065207  0.1847089238781680  0.3683682159873858   T   T   T
  0.6724998266851182  0.1895743795249935  0.3661864194213964   T   T   T
  0.7496926946869045  0.2438277765086155  0.4560367788982552   T   T   T
  0.5849783186481806  0.1880594551893723  0.4524902462413741   T   T   T
  0.9268015940513514  0.1925466116340486  0.4556748359811485   T   T   T
  0.8207485320323548  0.1828751268889751  0.5418503782306671   T   T   T
  0.6554500280526092  0.1904416828556965  0.5464440292887481   T   T   T
  0.5000000000000000  0.2497488472336542  0.1972621268646009   F   F   F
  0.8336793153754556  0.3125684456967974  0.2026879703893130   F   F   F
  0.6657072859523794  0.3124132516836227  0.2026937805440667   F   F   F
  0.7497932120884911  0.3750918042283047  0.2779408447657588   F   F   F
  0.5826617485217298  0.3122475045731150  0.2840383744896471   F   F   F
  0.9173970418404451  0.3126929402195699  0.2836274496812337   F   F   F
  0.4983396492850189  0.3750857710628119  0.3707026903932321   T   T   T
  0.8358820394536706  0.3083302049246996  0.3676803040071646   T   T   T
  0.6715604118156655  0.3124210918193432  0.3654866336013980   T   T   T
  0.7447828062403641  0.3757551002327215  0.4571636146334747   T   T   T
  0.5853463083339827  0.3126522951844749  0.4517340419498997   T   T   T
  0.9204800839778878  0.3090321085623895  0.4545097110649705   T   T   T
  0.5029237428430029  0.3778591410077554  0.5402160229707849   T   T   T
  0.6609550777675985  0.3108192616924484  0.5442034844834168   T   T   T
  0.5000000000000000  0.3749314220026463  0.1972730821371940   F   F   F
  0.8337395528409743  0.4376312580649895  0.2027221982441247   F   F   F
  0.6656630294837953  0.4374555759085652  0.2027209845130571   F   F   F
  0.7498000178423041  0.9998887643926295  0.2779024730234809   F   F   F
  0.5827027103003743  0.4372504993391644  0.2840867748275429   F   F   F
  0.9174272349138590  0.4376830283471804  0.2837096283809757   F   F   F
  0.4998027641776067  0.9955032282226002  0.3703982615092370   T   T   T
  0.8301968671753205  0.4356495914745511  0.3676427107906843   T   T   T
  0.6660577727353005  0.4355842257673667  0.3685032116055672   T   T   T
  0.7480226845566804  0.9968303452464611  0.4556542506489575   T   T   T
  0.5792390225603622  0.4361060422813927  0.4542096225085326   T   T   T
  0.9205976393700658  0.4378168580348177  0.4559113930661168   T   T   T
  0.8286072680768145  0.4339409530209565  0.5452384629539152   T   T   T
  0.6639993496909353  0.4357459054805725  0.5397107070772185   T   T   T
  0.5000000000000000  0.4997488470195677  0.1972621268646009   F   F   F
  0.8336793153754556  0.5625684459108768  0.2026879703893130   F   F   F
  0.6657072859523794  0.5624132518977021  0.2026937805440667   F   F   F
  0.7497932120884911  0.6250918040142253  0.2779408447657588   F   F   F
  0.5826617485217298  0.5622475047871944  0.2840383744896471   F   F   F
  0.9173970418404451  0.5626929404336494  0.2836274496812337   F   F   F
  0.5098068697150450  0.6297465663715235  0.3703143411602456   T   T   T
  0.8368361008112316  0.5638496762313432  0.3690634693996941   T   T   T
  0.6740198238546818  0.5628848545183028  0.3663966044958091   T   T   T
  0.7574130227457079  0.6194240072999854  0.4575580937564994   T   T   T
  0.5847101457883713  0.5613635785751512  0.4519280404919263   T   T   T
  0.9128999189917431  0.5682681987666581  0.4614026623498189   T   T   T
  0.5100630855952122  0.6307868705607323  0.5423802895102144   T   T   T
  0.6701037319555133  0.5602625880307655  0.5456252644445561   T   T   T
  0.5000000000000000  0.6249314217885598  0.1972730821371940   F   F   F
  0.8337395528409743  0.6876312578509030  0.2027221982441247   F   F   F
  0.6656630294837953  0.6874555756944787  0.2027209845130571   F   F   F
  0.7498000178423041  0.7498887646067161  0.2779024730234809   F   F   F
  0.5827027103003743  0.6872504991250779  0.2840867748275429   F   F   F
  0.9174272349138590  0.6876830281330939  0.2837096283809757   F   F   F
  0.5060220927287784  0.7465717012255724  0.3711814805124279   T   T   T
  0.8323931521188619  0.6902117652453381  0.3681710939427470   T   T   T
  0.6727961307363182  0.6872451859126795  0.3696740520486296   T   T   T
  0.7554221918673423  0.7501976457753091  0.4563893810878953   T   T   T
  0.5941129570153105  0.6833644042976530  0.4594119474175374   T   T   T
  0.9189267177050667  0.6926529105610635  0.4527880432636683   T   T   T
  0.8339191311887786  0.6922095513732616  0.5440675840245024   T   T   T
  0.6701488684301544  0.6872839660506713  0.5438264752946402   T   T   T
  0.5000000000000000  0.7497488472336542  0.1972621268646009   F   F   F
  0.8336793153754556  0.8125684456967974  0.2026879703893130   F   F   F
  0.6657072859523794  0.8124132516836227  0.2026937805440667   F   F   F
  0.7497932120884911  0.8750918042283118  0.2779408447657588   F   F   F
  0.5826617485217298  0.8122475045731150  0.2840383744896471   F   F   F
  0.9173970418404451  0.8126929402195699  0.2836274496812337   F   F   F
  0.5060533244312736  0.8773511254034199  0.3709295679012663   T   T   T
  0.8365194755643593  0.8157014281238124  0.3674904098472164   T   T   T
  0.6682576061047847  0.8137724833415975  0.3699466028758335   T   T   T
  0.7563559814975660  0.8737599803616258  0.4588882965701003   T   T   T
  0.5872246127302830  0.8109599202233672  0.4555704759385574   T   T   T
  0.9141728925895026  0.8134071423899881  0.4634666415197566   T   T   T
  0.5004060064901374  0.8761248685668356  0.5429769405548839   T   T   T
  0.6686838673107470  0.8133640398421969  0.5468340468162952   T   T   T
  0.5000000000000000  0.8749314220026463  0.1972730821371940   F   F   F
  0.8337395528409743  0.9376312580649895  0.2027221982441247   F   F   F
  0.6656630294837953  0.9374555759085652  0.2027209845130571   F   F   F
  0.7498000178423041  0.4998887643926295  0.2779024730234809   F   F   F
  0.5827027103003743  0.9372504993391644  0.2840867748275429   F   F   F
  0.9174272349138590  0.9376830283471804  0.2837096283809757   F   F   F
  0.5050934396376758  0.5015753530396894  0.3720533356838370   T   T   T
  0.8358923218983942  0.9393337561678464  0.3675828303167877   T   T   T
  0.6720541501882558  0.9389842996001774  0.3698775017113178   T   T   T
  0.7535375173620295  0.4978835260249037  0.4595056685881974   T   T   T
  0.5945985233907616  0.9428866326677643  0.4573072362352884   T   T   T
  0.9118845638378292  0.9399134254526367  0.4560635557136908   T   T   T
  0.8213772103137231  0.9414901370573148  0.5509108663233903   T   T   T
  0.6512031298316335  0.9359705197573811  0.5480812953100416   T   T   T
  0.4059506995368949  0.9998103569988004  0.2323399901924574   F   F   F
  0.2502818136972422  0.0000100120603932  0.1992701427820052   F   F   F
  0.0942451913851556  0.0001403620404119  0.2320193079771755   F   F   F
  0.1548500728727760  0.1251896284821186  0.3155471504414038   F   F   F
  0.0000000000000000  0.1252068311979144  0.3027729437307727   F   F   F
  0.3452374976173260  0.1246790180981137  0.3159667219502040   F   F   F
  0.4021507828014984  0.1289758410838305  0.4041722256610811   T   T   T
  0.2548223572755112  0.1269169751718996  0.3850775507592910   T   T   T
  0.0971522614407373  0.1263576414130494  0.4056490694500365   T   T   T
  0.1525690735162001  0.1305201224581843  0.4865974675942196   T   T   T
  0.0049998743947009  0.1231563248908110  0.4785041797861578   T   T   T
  0.3523876934418096  0.1251220305217005  0.4912218866371463   T   T   T
  0.4024421088395228  0.1231075199762180  0.5753344309547277   T   T   T
  0.2550601472235423  0.1291235419386117  0.5621390665020164   T   T   T
  0.0691633496261423  0.0662279988926658  0.5626711409352319   T   T   T
  0.4058965650769153  0.1248444725173243  0.2323487498080610   F   F   F
  0.2502659080337395  0.1250292587474817  0.1993221158785232   F   F   F
  0.0942835749489959  0.1251516263229604  0.2320045250220701   F   F   F
  0.1548192101321320  0.2501939211492825  0.3155011134344150   F   F   F
  0.0000000000000000  0.2502658028626925  0.3027806051347781   F   F   F
  0.3452603591557377  0.2497083480957656  0.3159103143480522   F   F   F
  0.3917789500095112  0.2507158714605393  0.4054844930977110   T   T   T
  0.2474179171963973  0.2488812109479377  0.3913947315704824   T   T   T
  0.0974022055228828  0.2457970983582600  0.4045029471174025   T   T   T
  0.1545870548390438  0.2489504172442418  0.4854751335818358   T   T   T
  0.0079834791295900  0.2535718504438401  0.4795588053229279   T   T   T
  0.3529145111794671  0.2562853648159009  0.4953863996338768   T   T   T
  0.4113664678959625  0.2487798546981050  0.5735075454104339   T   T   T
  0.2501556806578598  0.2553809907582074  0.5622590304529843   T   T   T
  0.0668617821031545  0.2041093298769561  0.5528970960883146   T   T   T
  0.4059506995368949  0.2498103572128869  0.2323399901924574   F   F   F
  0.2502818136972422  0.2500100122744797  0.1992701427820052   F   F   F
  0.0942451913851556  0.2501403622544984  0.2320193079771755   F   F   F
  0.1548500728727760  0.3751896286962122  0.3155471504414038   F   F   F
  0.0000000000000000  0.3752068314120010  0.3027729437307727   F   F   F
  0.3452374976173260  0.3746790183122002  0.3159667219502040   F   F   F
  0.3946817994935531  0.3753456606266592  0.4054625620619149   T   T   T
  0.2534288222173099  0.3767164061994810  0.3811268018752412   T   T   T
  0.1014971093795543  0.3757564744128665  0.4044142627476844   T   T   T
  0.1604385905796918  0.3888263668155207  0.4832989338469141   T   T   T
  0.9987516116559075  0.3768787440859955  0.4818928783818480   T   T   T
  0.3526720062890479  0.3767089962547536  0.4860774211063143   T   T   T
  0.4105091158358552  0.3789803391760337  0.5777823488011348   T   T   T
  0.2502050646260325  0.3888712523535863  0.5611542649307635   T   T   T
  0.1052728613614678  0.3784474222663268  0.5728994168200957   T   T   T
  0.4058965650769153  0.3748444727314109  0.2323487498080610   F   F   F
  0.2502659080337395  0.3750292589615682  0.1993221158785232   F   F   F
  0.0942835749489959  0.3751516265370469  0.2320045250220701   F   F   F
  0.1548192101321320  0.0001939209351960  0.3155011134344150   F   F   F
  0.0000000000000000  0.0002658026486060  0.3027806051347781   F   F   F
  0.3452603591557377  0.9997083478816791  0.3159103143480522   F   F   F
  0.4003887633965721  0.0003483949542408  0.4033271516692866   T   T   T
  0.2555269907191004  0.9984194527353004  0.3875650923635648   T   T   T
  0.1004755092063920  0.0011565114457477  0.4040295945610258   T   T   T
  0.1466406820641210  0.9926773450426187  0.4931915816026759   T   T   T
  0.9960479109627698  0.9998030326928173  0.4765618944263476   T   T   T
  0.3431913714969998  0.0007164230227676  0.4925231226820120   T   T   T
  0.4009664530730673  0.9980560858800215  0.5773578960759739   T   T   T
  0.2468094517545638  0.0077890720732884  0.5676600875127087   T   T   T
  0.0798895887892133  0.9271609876880734  0.5684573703593968   T   T   T
  0.4059506995368949  0.4998103569988004  0.2323399901924574   F   F   F
  0.2502818136972422  0.5000100120603932  0.1992701427820052   F   F   F
  0.0942451913851556  0.5001403620404119  0.2320193079771755   F   F   F
  0.1548500728727760  0.6251896284821186  0.3155471504414038   F   F   F
  0.0000000000000000  0.6252068311979144  0.3027729437307727   F   F   F
  0.3452374976173260  0.6246790180981137  0.3159667219502040   F   F   F
  0.4058696403931830  0.6239442591075659  0.4048449302135458   T   T   T
  0.2476619306284751  0.6253518123375749  0.3860223734607397   T   T   T
  0.0975213732317644  0.6220522871812371  0.4061024390668493   T   T   T
  0.1521038767569533  0.6205056933687999  0.4877678246542503   T   T   T
  0.0054099267079849  0.6316855396091572  0.4755240094696730   T   T   T
  0.3536806679706949  0.6312132385820683  0.4833904631497269   T   T   T
  0.4139504024695583  0.6365768651938700  0.5722983966332585   T   T   T
  0.2485625660122690  0.6254742063254127  0.5516167966222481   T   T   T
  0.0891496214659693  0.6419232248591037  0.5791674802147327   T   T   T
  0.4058965650769153  0.6248444725173243  0.2323487498080610   F   F   F
  0.2502659080337395  0.6250292587474817  0.1993221158785232   F   F   F
  0.0942835749489959  0.6251516263229604  0.2320045250220701   F   F   F
  0.1548192101321320  0.7501939211492825  0.3155011134344150   F   F   F
  0.0000000000000000  0.7502658028626925  0.3027806051347781   F   F   F
  0.3452603591557377  0.7497083480957656  0.3159103143480522   F   F   F
  0.3990931149023764  0.7592671551035017  0.3990308012954542   T   T   T
  0.2487991375071576  0.7502933854841207  0.3888387372652800   T   T   T
  0.1031145709347593  0.7537471540781253  0.4010324490938453   T   T   T
  0.1547181545563914  0.7468009241742347  0.4842987937624462   T   T   T
  0.9945059987594588  0.7514498046192333  0.4839452426318067   T   T   T
  0.3520439222846321  0.7547144875078867  0.4847238310325887   T   T   T
  0.4072442006685904  0.7447364085608761  0.5666869346993719   T   T   T
  0.2590365436045016  0.7531720304188415  0.5577184127960385   T   T   T
  0.1090724212518487  0.7572658601733367  0.5652271003501759   T   T   T
  0.4059506995368949  0.7498103572128869  0.2323399901924574   F   F   F
  0.2502818136972422  0.7500100122744797  0.1992701427820052   F   F   F
  0.0942451913851556  0.7501403622544984  0.2320193079771755   F   F   F
  0.1548500728727760  0.8751896286962051  0.3155471504414038   F   F   F
  0.0000000000000000  0.8752068314120010  0.3027729437307727   F   F   F
  0.3452374976173260  0.8746790183122002  0.3159667219502040   F   F   F
  0.4095479590244348  0.8800749065247460  0.4022463439756886   T   T   T
  0.2500450026329331  0.8786156052921000  0.3904037102211824   T   T   T
  0.0985786992404075  0.8734333118077543  0.4007511224349592   T   T   T
  0.1525100023167907  0.8798062031160624  0.4906557565968708   T   T   T
  0.0003063968696249  0.8764334526202411  0.4730685283044337   T   T   T
  0.3537777020516352  0.8778483638051061  0.4916193222951998   T   T   T
  0.4083517838113979  0.8727384233253231  0.5789833026291152   T   T   T
  0.2485654054324686  0.8825118180333079  0.5625981309943593   T   T   T
  0.9528359360012513  0.8247987722911984  0.5457693891830041   T   T   T
  0.4058965650769153  0.8748444727314109  0.2323487498080610   F   F   F
  0.2502659080337395  0.8750292589615682  0.1993221158785232   F   F   F
  0.0942835749489959  0.8751516265370469  0.2320045250220701   F   F   F
  0.1548192101321320  0.5001939209351960  0.3155011134344150   F   F   F
  0.0000000000000000  0.5002658026486060  0.3027806051347781   F   F   F
  0.3452603591557377  0.4997083478816791  0.3159103143480522   F   F   F
  0.4037185716578800  0.5071235496811914  0.4035445823715551   T   T   T
  0.2449289908991243  0.5016846937654843  0.3850358095112723   T   T   T
  0.0995001405477260  0.4989820368564560  0.4026582466213983   T   T   T
  0.1513200724904056  0.5074001279801075  0.4884673625420112   T   T   T
  0.0011542862214461  0.4999557768342791  0.4828732757247230   T   T   T
  0.3499293791888687  0.5012711611117528  0.4885601207065183   T   T   T
  0.4020736127331105  0.5068744580827683  0.5699590765348921   T   T   T
  0.2489957938419881  0.4991312441547425  0.5649583744693547   T   T   T
  0.0845946970503923  0.5006470060925883  0.5785249934659841   T   T   T
  0.9057548086148444  0.0001403620404119  0.2320193079771755   F   F   F
  0.7497181857505666  0.0000100120603932  0.1992701427820052   F   F   F
  0.5940493004631051  0.9998103569988004  0.2323399901924574   F   F   F
  0.6547625023826740  0.1246790180981137  0.3159667219502040   F   F   F
  0.5000000000000000  0.1247350155864240  0.3031143998011601   F   F   F
  0.8451499271272240  0.1251896284821186  0.3155471504414038   F   F   F
  0.9021460957962534  0.1241489287097873  0.4063786995025228   T   T   T
  0.7563486313176513  0.1256718729709178  0.3889927581000168   T   T   T
  0.5971382097305785  0.1243448985659680  0.4051576808089901   T   T   T
  0.6484824588073966  0.1260423697067536  0.4897650044636314   T   T   T
  0.5039321001371346  0.1276413922254258  0.4732715176087975   T   T   T
  0.8445738547136770  0.1266253013899037  0.4880902158493262   T   T   T
  0.9144772310974766  0.0629150370458255  0.5483675255519942   T   T   T
  0.7349732762862846  0.1307267779973107  0.5600413562845115   T   T   T
  0.5897781141574001  0.1261294940186430  0.5794890306667784   T   T   T
  0.9057164250510041  0.1251516263229604  0.2320045250220701   F   F   F
  0.7497340914140693  0.1250292587474817  0.1993221158785232   F   F   F
  0.5941034349230847  0.1248444725173243  0.2323487498080610   F   F   F
  0.6547396408442623  0.2497083480957656  0.3159103143480522   F   F   F
  0.5000000000000000  0.2496370424515106  0.3031199056982175   F   F   F
  0.8451807898678680  0.2501939211492825  0.3155011134344150   F   F   F
  0.9061836839276186  0.2468531282832934  0.4009731986347820   T   T   T
  0.7483550167800681  0.2485771509174514  0.3858667692968983   T   T   T
  0.6010793461343904  0.2528773654243945  0.3993868743965038   T   T   T
  0.6447192769411764  0.2469344489922202  0.4947747132410569   T   T   T
  0.5018856297161703  0.2475247562481941  0.4722505965244521   T   T   T
  0.8561849533015302  0.2475886132911984  0.4902372030161897   T   T   T
  0.9170608398751847  0.1832566739997966  0.5761227819580290   T   T   T
  0.7438791038382833  0.2475001620395748  0.5575205620415048   T   T   T
  0.5931862740610092  0.2477952712648422  0.5774135727201561   T   T   T
  0.9057548086148444  0.2501403622544984  0.2320193079771755   F   F   F
  0.7497181857505666  0.2500100122744797  0.1992701427820052   F   F   F
  0.5940493004631051  0.2498103572128869  0.2323399901924574   F   F   F
  0.6547625023826740  0.3746790183122002  0.3159667219502040   F   F   F
  0.5000000000000000  0.3747350158005176  0.3031143998011601   F   F   F
  0.8451499271272240  0.3751896286962122  0.3155471504414038   F   F   F
  0.9017955835204365  0.3655397646576400  0.4035571734585641   T   T   T
  0.7498794020203936  0.3724636877681999  0.3897396984134508   T   T   T
  0.5969216173712111  0.3760543575694189  0.4030151730286335   T   T   T
  0.6456191397667559  0.3754502194452057  0.4852107170501938   T   T   T
  0.4951278252243045  0.3782119564305614  0.4722666872015978   T   T   T
  0.8447114825772891  0.3726368160474300  0.4833575577548764   T   T   T
  0.9834928568685990  0.3126198442828525  0.5855373882241250   T   T   T
  0.7471381972496772  0.3730107216827016  0.5514171397005972   T   T   T
  0.5984794564056218  0.3727326413219530  0.5735474872549546   T   T   T
  0.9057164250510041  0.3751516265370469  0.2320045250220701   F   F   F
  0.7497340914140693  0.3750292589615682  0.1993221158785232   F   F   F
  0.5941034349230847  0.3748444727314109  0.2323487498080610   F   F   F
  0.6547396408442623  0.9997083478816791  0.3159103143480522   F   F   F
  0.5000000000000000  0.9996370422374241  0.3031199056982175   F   F   F
  0.8451807898678680  0.0001939209351960  0.3155011134344150   F   F   F
  0.8952966529971218  0.0035280878842865  0.4023312330291646   T   T   T
  0.7482065525241695  0.9980524455813234  0.3886339817779978   T   T   T
  0.5947334713271691  0.0008318898809049  0.4028827071387117   T   T   T
  0.6525910169106931  0.0068076211294303  0.4923204337715483   T   T   T
  0.4932448477845836  0.9997367713335029  0.4768512885891869   T   T   T
  0.8439574101753969  0.9984576339057740  0.4922033276821977   T   T   T
  0.9185605047350073  0.9433322115975505  0.5822313888873000   T   T   T