Mo  S Co                                
   1.00000000000000     
    15.9214998300000001    0.0000000000000000    0.0000000000000000
    -7.9622501300000001   13.7910221699999997    0.0000000000000000
     0.0000000000000000    0.0000000000000000   13.5821998300000004
   Mo   S    Co
    25    49     4
Direct
  0.1327100599089519  0.0659392565117614  0.6790227792657575
  0.1306638551347348  0.2638973338878543  0.6714396387261559
  0.1334357642714394  0.4662789539319547  0.6796770675319905
  0.1326395773091065  0.6655421483769999  0.6808588434113503
  0.1327375872975267  0.8655584196203776  0.6805064555590619
  0.3325865173623228  0.0662128807534828  0.6805805023258955
  0.3324912038660912  0.2623371700822332  0.6715053992322666
  0.3290394370121348  0.4588384814068718  0.6836379875156169
  0.3322959552311175  0.6636330386439155  0.6830924836284638
  0.3322466724888713  0.8644128344427031  0.6819599767070699
  0.5314581811670820  0.0642511598426410  0.6826033527908919
  0.5318452129548277  0.2655645828042594  0.6770412872714999
  0.5327013340093529  0.4666100325439260  0.6801358523840264
  0.5306729157178935  0.6640027734638423  0.6829721320258528
  0.5320015460653025  0.8646917073436242  0.6827426147999986
  0.7330138110286626  0.0652134888377418  0.6822197997546837
  0.7327958437507434  0.2650475926581066  0.6785038274350583
  0.7333781669226838  0.4686179103398658  0.6788539515758671
  0.7322055851127374  0.6660669745698158  0.6805441745173795
  0.7318194906076769  0.8649689073594757  0.6820033245806556
  0.9329423627007216  0.0662004543235284  0.6811070832592847
  0.9329295283956967  0.2645911192975703  0.6809675724695552
  0.9326609331142706  0.4662140742490450  0.6809122294747425
  0.9331051442133429  0.6664407545938431  0.6798879694334161
  0.9322708658324999  0.8657419215114146  0.6805744317958187
  0.0634639324777382  0.1287018212066400  0.5611851223160045
  0.0721734235388283  0.1368914542953732  0.7961762323796293
  0.0645454326227650  0.3333049664623502  0.5616200408842360
  0.0712880067122441  0.3349306305316162  0.7943541991159435
  0.0659691448244644  0.5328050558061079  0.5652208051359295
  0.0661945050592578  0.5325673521475522  0.7952782238988050
  0.0667233443535054  0.7326678323044646  0.5651551253048694
  0.0659107918851305  0.7325340580722042  0.7955345987082438
  0.0652918101339566  0.9311985572589450  0.5650278007597862
  0.0659901951819037  0.9326420753565259  0.7946335547470582
  0.2644545031842540  0.1282284116012349  0.5608495667599982
  0.2639660918844697  0.1352494329251428  0.7965099260477686
  0.2656494656898047  0.3307625487778978  0.5626367175055478
  0.2680122523541186  0.5301789777019223  0.5677674742979164
  0.2640866392954280  0.5270841800259021  0.7973965881944451
  0.2666824911659162  0.7309237861399822  0.5669823517809576
  0.2650439649452352  0.7308350562589538  0.7970578634733130
  0.2667179675929745  0.9318256843404882  0.5662074380917801
  0.2656186296198157  0.9324690411095986  0.7958433836830778
  0.4659091883532938  0.1311959573727748  0.5663057188175031
  0.4645665964184360  0.1301092391695775  0.8009246132506860
  0.4678977738695806  0.3335869798286097  0.5613478621850305
  0.4648343535559007  0.3357944489049984  0.7992637009415731
  0.4615004586511802  0.5303128501681229  0.5679015364084776
  0.4624581025041437  0.5276422233287477  0.7970908927513989
  0.4650640352841506  0.7311158936065993  0.5679735441492326
  0.4652161311569998  0.7312476510187551  0.7983497671342477
  0.4654292753082387  0.9310487337516165  0.5669753709867038
  0.4647188818816659  0.9306389754808677  0.7974352182976929
  0.6647765485564889  0.1306539813732286  0.5670245259532933
  0.6646611065003256  0.1302780851955561  0.7994073869007678
  0.6665705369034356  0.3327895615516638  0.5652707659019853
  0.6686025645866209  0.3407330073727763  0.7993082969673821
  0.6653790927470311  0.5338630214843718  0.5638695639413669
  0.6661404217632168  0.5336219009453629  0.7950403061737106
  0.6636004757102896  0.7315917202427897  0.5668287220889709
  0.6652103295268574  0.7313477339838812  0.7968843308601805
  0.6651675219112434  0.9316719831137874  0.5672663714067241
  0.6658287759952444  0.9316764428371656  0.7973387407951051
  0.8656827072520556  0.1320194570795294  0.5663311916304679
  0.8667066106562160  0.1323838530848676  0.7971728559897073
  0.8666103211150684  0.3322284750888187  0.5662702801301123
  0.8655515373513012  0.3320588817835457  0.7983105017098424
  0.8673076629993659  0.5332389361704415  0.5644556507325262
  0.8662819892995586  0.5336944365698955  0.7947040593380734
  0.8655592469177620  0.7327759294944514  0.5651732348609215
  0.8659822649045879  0.7325529742611749  0.7952794218661268
  0.8648122136373075  0.9322814071234689  0.5664657245600608
  0.8663875419779075  0.9327041725943772  0.7961913189304894
  0.3125730994023144  0.2861882262321487  0.8428074183104073
  0.5368647594382239  0.2669198164126101  0.8710580421884515
  0.7237140979165062  0.2657421290941571  0.8731080614564348
  0.1780323193997475  0.2885563676137295  0.8424760922125429
 
  0.00000000E+00  0.00000000E+00  0.00000000E+00
  0.00000000E+00  0.00000000E+00  0.00000000E+00
  0.00000000E+00  0.00000000E+00  0.00000000E+00
  0.00000000E+00  0.00000000E+00  0.00000000E+00
  0.00000000E+00  0.00000000E+00  0.00000000E+00
  0.00000000E+00  0.00000000E+00  0.00000000E+00
  0.00000000E+00  0.00000000E+00  0.00000000E+00
  0.00000000E+00  0.00000000E+00  0.00000000E+00
  0.00000000E+00  0.00000000E+00  0.00000000E+00
  0.00000000E+00  0.00000000E+00  0.00000000E+00
  0.00000000E+00  0.00000000E+00  0.00000000E+00
  0.00000000E+00  0.00000000E+00  0.00000000E+00
  0.00000000E+00  0.00000000E+00  0.00000000E+00
  0.00000000E+00  0.00000000E+00  0.00000000E+00
  0.00000000E+00  0.00000000E+00  0.00000000E+00
  0.00000000E+00  0.00000000E+00  0.00000000E+00
  0.00000000E+00  0.00000000E+00  0.00000000E+00
  0.00000000E+00  0.00000000E+00  0.00000000E+00
  0.00000000E+00  0.00000000E+00  0.00000000E+00
  0.00000000E+00  0.00000000E+00  0.00000000E+00
  0.00000000E+00  0.00000000E+00  0.00000000E+00
  0.00000000E+00  0.00000000E+00  0.00000000E+00
  0.00000000E+00  0.00000000E+00  0.00000000E+00
  0.00000000E+00  0.00000000E+00  0.00000000E+00
  0.00000000E+00  0.00000000E+00  0.00000000E+00
  0.00000000E+00  0.00000000E+00  0.00000000E+00
  0.00000000E+00  0.00000000E+00  0.00000000E+00
  0.00000000E+00  0.00000000E+00  0.00000000E+00
  0.00000000E+00  0.00000000E+00  0.00000000E+00
  0.00000000E+00  0.00000000E+00  0.00000000E+00
  0.00000000E+00  0.00000000E+00  0.00000000E+00
  0.00000000E+00  0.00000000E+00  0.00000000E+00
  0.00000000E+00  0.00000000E+00  0.00000000E+00
  0.00000000E+00  0.00000000E+00  0.00000000E+00
  0.00000000E+00  0.00000000E+00  0.00000000E+00
  0.00000000E+00  0.00000000E+00  0.00000000E+00
  0.00000000E+00  0.00000000E+00  0.00000000E+00
  0.00000000E+00  0.00000000E+00  0.00000000E+00
  0.00000000E+00  0.00000000E+00  0.00000000E+00
  0.00000000E+00  0.00000000E+00  0.00000000E+00
  0.00000000E+00  0.00000000E+00  0.00000000E+00
  0.00000000E+00  0.00000000E+00  0.00000000E+00
  0.00000000E+00  0.00000000E+00  0.00000000E+00
  0.00000000E+00  0.00000000E+00  0.00000000E+00
  0.00000000E+00  0.00000000E+00  0.00000000E+00
  0.00000000E+00  0.00000000E+00  0.00000000E+00
  0.00000000E+00  0.00000000E+00  0.00000000E+00
  0.00000000E+00  0.00000000E+00  0.00000000E+00
  0.00000000E+00  0.00000000E+00  0.00000000E+00
  0.00000000E+00  0.00000000E+00  0.00000000E+00
  0.00000000E+00  0.00000000E+00  0.00000000E+00
  0.00000000E+00  0.00000000E+00  0.00000000E+00
  0.00000000E+00  0.00000000E+00  0.00000000E+00
  0.00000000E+00  0.00000000E+00  0.00000000E+00
  0.00000000E+00  0.00000000E+00  0.00000000E+00
  0.00000000E+00  0.00000000E+00  0.00000000E+00
  0.00000000E+00  0.00000000E+00  0.00000000E+00
  0.00000000E+00  0.00000000E+00  0.00000000E+00
  0.00000000E+00  0.00000000E+00  0.00000000E+00
  0.00000000E+00  0.00000000E+00  0.00000000E+00
  0.00000000E+00  0.00000000E+00  0.00000000E+00
  0.00000000E+00  0.00000000E+00  0.00000000E+00
  0.00000000E+00  0.00000000E+00  0.00000000E+00
  0.00000000E+00  0.00000000E+00  0.00000000E+00
  0.00000000E+00  0.00000000E+00  0.00000000E+00
  0.00000000E+00  0.00000000E+00  0.00000000E+00
  0.00000000E+00  0.00000000E+00  0.00000000E+00
  0.00000000E+00  0.00000000E+00  0.00000000E+00
  0.00000000E+00  0.00000000E+00  0.00000000E+00
  0.00000000E+00  0.00000000E+00  0.00000000E+00
  0.00000000E+00  0.00000000E+00  0.00000000E+00
  0.00000000E+00  0.00000000E+00  0.00000000E+00
  0.00000000E+00  0.00000000E+00  0.00000000E+00
  0.00000000E+00  0.00000000E+00  0.00000000E+00
  0.00000000E+00  0.00000000E+00  0.00000000E+00
  0.00000000E+00  0.00000000E+00  0.00000000E+00
  0.00000000E+00  0.00000000E+00  0.00000000E+00
  0.00000000E+00  0.00000000E+00  0.00000000E+00
