Mo  S Cu                                
   1.00000000000000     
    15.9214998300000001    0.0000000000000000    0.0000000000000000
    -7.9622501300000001   13.7910221699999997    0.0000000000000000
     0.0000000000000000    0.0000000000000000   13.5821998300000004
   Mo   S    Cu
    25    49     4
Direct
  0.1346057473019057  0.0684503934464361  0.6752187859384364
  0.1373124446734197  0.2686995647627906  0.6722797720944358
  0.1346196227879467  0.4646637126423098  0.6752966268502578
  0.1336451856507261  0.6656761933876914  0.6779152950471758
  0.1336534326227455  0.8665068493550817  0.6778490855956707
  0.3334293337313176  0.0669479262557702  0.6778944892924526
  0.3312517134696976  0.2670542834799605  0.6716182280961646
  0.3304522730109478  0.4616883382019076  0.6720626158966435
  0.3332224459219290  0.6646733428023743  0.6780126147321329
  0.3332867505733547  0.8658062825429039  0.6790967220621162
  0.5333213244331754  0.0658801897413610  0.6796353421305784
  0.5328904801657643  0.2655478183718276  0.6780663232192998
  0.5310607361021524  0.4652134817201791  0.6751095078544046
  0.5321146402842448  0.6647660187700412  0.6778783032249021
  0.5332357462430279  0.8656157889312279  0.6795019223445321
  0.7336854289491074  0.0660214080900645  0.6797473756218124
  0.7336165464297520  0.2659697836365618  0.6794113057087544
  0.7326887775853952  0.4655318117032996  0.6781219799353365
  0.7328995762294469  0.6657693667729362  0.6777845224113246
  0.7334110916695102  0.8658868260970325  0.6791076179725789
  0.9345468523076711  0.0671197498479133  0.6782053040236927
  0.9346913505939604  0.2660297082671367  0.6785246039077416
  0.9335962464928942  0.4655764255866857  0.6781393685939938
  0.9333222695489364  0.6659438032765685  0.6778640985583596
  0.9336140933795094  0.8665167043831488  0.6778662958200086
  0.0664085018991322  0.1339997394570286  0.5601749668921707
  0.0727264479058388  0.1385770625697786  0.7903297291642543
  0.0661300447200325  0.3309298338273424  0.5600104741153357
  0.0730265439251195  0.3333513859619777  0.7911147295137910
  0.0666217819225673  0.5324846746056942  0.5624441871729251
  0.0680015521462543  0.5314441880838404  0.7917494783504651
  0.0669312670981641  0.7327178261214127  0.5630081646542114
  0.0668522552454363  0.7327266024839645  0.7927153993669818
  0.0667267747285190  0.9327775172854992  0.5623132976889667
  0.0678940146733979  0.9350896740323217  0.7916170117260450
  0.2680334050592943  0.1332832818399412  0.5595685550691855
  0.2663447118218569  0.1377781993043817  0.7902117375303114
  0.2665446701782679  0.3321497758606941  0.5562311793327663
  0.2682102250096518  0.5329379686322572  0.5597771822821723
  0.2661551958659272  0.5266421129727390  0.7906309687528441
  0.2672713074535313  0.7327625309982475  0.5634979753537739
  0.2664399561798924  0.7313109859002149  0.7934517677786024
  0.2673320390137951  0.9328941949273768  0.5634596037917449
  0.2664720171079156  0.9335675336451191  0.7933791535859347
  0.4670377729229476  0.1322066433369561  0.5637279359335272
  0.4660400631333682  0.1328993925609710  0.7939429689775982
  0.4660694126369443  0.3310166315228481  0.5604240960532865
  0.4613246653487976  0.3326106970612506  0.7899459505467138
  0.4652029127872698  0.5328330636887395  0.5598754065315706
  0.4606863430246580  0.5269183407047220  0.7901436634920460
  0.4667600621719525  0.7328647690743212  0.5637208553454289
  0.4659650862447895  0.7311842679424918  0.7937322827461968
  0.4669117218663252  0.9326240195974479  0.5645156097536468
  0.4663086701194356  0.9322138186809001  0.7945797449622727
  0.6667938890635378  0.1324268547663932  0.5647302092245521
  0.6669273460480998  0.1327937268706350  0.7948056086107741
  0.6667207460839556  0.3319276479810492  0.5636204990257588
  0.6659485696651377  0.3327864968821366  0.7938344681306692
  0.6666565645415026  0.5326122454328360  0.5623038867715925
  0.6642420959696943  0.5316284179172444  0.7917355103549836
  0.6662662173251390  0.7328296413789970  0.5634312416965721
  0.6656276391691197  0.7313365552017229  0.7933509614144831
  0.6666947121399609  0.9327665374489748  0.5645714923355402
  0.6668358142220141  0.9322747130963335  0.7946035768619709
  0.8665313213633731  0.1325888456463999  0.5641226694948589
  0.8680739640938903  0.1331730547066467  0.7941263412511720
  0.8666209388786646  0.3318794008834170  0.5638783663557031
  0.8680882371984623  0.3328941307013772  0.7938427960680755
  0.8664447903672642  0.5321825831493534  0.5632182786505556
  0.8665849800355856  0.5325002001018669  0.7928857928796675
  0.8666145530877097  0.7327988182213949  0.5629421680412087
  0.8666408642110156  0.7327572501213249  0.7927342981334100
  0.8665368910625203  0.9331539547943081  0.5635618291414398
  0.8679328082663325  0.9335572980479406  0.7934941804518461
  0.2172744071284269  0.3297476975250451  1.0207447057665533
  0.4806849222243910  0.3382319940929935  0.9474168415303054
  0.5217930691161700  0.3449401374638150  0.1065186635451618
  0.2220940664930249  0.3399416850404419  0.1841126539335894
 
  0.00000000E+00  0.00000000E+00  0.00000000E+00
  0.00000000E+00  0.00000000E+00  0.00000000E+00
  0.00000000E+00  0.00000000E+00  0.00000000E+00
  0.00000000E+00  0.00000000E+00  0.00000000E+00
  0.00000000E+00  0.00000000E+00  0.00000000E+00
  0.00000000E+00  0.00000000E+00  0.00000000E+00
  0.00000000E+00  0.00000000E+00  0.00000000E+00
  0.00000000E+00  0.00000000E+00  0.00000000E+00
  0.00000000E+00  0.00000000E+00  0.00000000E+00
  0.00000000E+00  0.00000000E+00  0.00000000E+00
  0.00000000E+00  0.00000000E+00  0.00000000E+00
  0.00000000E+00  0.00000000E+00  0.00000000E+00
  0.00000000E+00  0.00000000E+00  0.00000000E+00
  0.00000000E+00  0.00000000E+00  0.00000000E+00
  0.00000000E+00  0.00000000E+00  0.00000000E+00
  0.00000000E+00  0.00000000E+00  0.00000000E+00
  0.00000000E+00  0.00000000E+00  0.00000000E+00
  0.00000000E+00  0.00000000E+00  0.00000000E+00
  0.00000000E+00  0.00000000E+00  0.00000000E+00
  0.00000000E+00  0.00000000E+00  0.00000000E+00
  0.00000000E+00  0.00000000E+00  0.00000000E+00
  0.00000000E+00  0.00000000E+00  0.00000000E+00
  0.00000000E+00  0.00000000E+00  0.00000000E+00
  0.00000000E+00  0.00000000E+00  0.00000000E+00
  0.00000000E+00  0.00000000E+00  0.00000000E+00
  0.00000000E+00  0.00000000E+00  0.00000000E+00
  0.00000000E+00  0.00000000E+00  0.00000000E+00
  0.00000000E+00  0.00000000E+00  0.00000000E+00
  0.00000000E+00  0.00000000E+00  0.00000000E+00
  0.00000000E+00  0.00000000E+00  0.00000000E+00
  0.00000000E+00  0.00000000E+00  0.00000000E+00
  0.00000000E+00  0.00000000E+00  0.00000000E+00
  0.00000000E+00  0.00000000E+00  0.00000000E+00
  0.00000000E+00  0.00000000E+00  0.00000000E+00
  0.00000000E+00  0.00000000E+00  0.00000000E+00
  0.00000000E+00  0.00000000E+00  0.00000000E+00
  0.00000000E+00  0.00000000E+00  0.00000000E+00
  0.00000000E+00  0.00000000E+00  0.00000000E+00
  0.00000000E+00  0.00000000E+00  0.00000000E+00
  0.00000000E+00  0.00000000E+00  0.00000000E+00
  0.00000000E+00  0.00000000E+00  0.00000000E+00
  0.00000000E+00  0.00000000E+00  0.00000000E+00
  0.00000000E+00  0.00000000E+00  0.00000000E+00
  0.00000000E+00  0.00000000E+00  0.00000000E+00
  0.00000000E+00  0.00000000E+00  0.00000000E+00
  0.00000000E+00  0.00000000E+00  0.00000000E+00
  0.00000000E+00  0.00000000E+00  0.00000000E+00
  0.00000000E+00  0.00000000E+00  0.00000000E+00
  0.00000000E+00  0.00000000E+00  0.00000000E+00
  0.00000000E+00  0.00000000E+00  0.00000000E+00
  0.00000000E+00  0.00000000E+00  0.00000000E+00
  0.00000000E+00  0.00000000E+00  0.00000000E+00
  0.00000000E+00  0.00000000E+00  0.00000000E+00
  0.00000000E+00  0.00000000E+00  0.00000000E+00
  0.00000000E+00  0.00000000E+00  0.00000000E+00
  0.00000000E+00  0.00000000E+00  0.00000000E+00
  0.00000000E+00  0.00000000E+00  0.00000000E+00
  0.00000000E+00  0.00000000E+00  0.00000000E+00
  0.00000000E+00  0.00000000E+00  0.00000000E+00
  0.00000000E+00  0.00000000E+00  0.00000000E+00
  0.00000000E+00  0.00000000E+00  0.00000000E+00
  0.00000000E+00  0.00000000E+00  0.00000000E+00
  0.00000000E+00  0.00000000E+00  0.00000000E+00
  0.00000000E+00  0.00000000E+00  0.00000000E+00
  0.00000000E+00  0.00000000E+00  0.00000000E+00
  0.00000000E+00  0.00000000E+00  0.00000000E+00
  0.00000000E+00  0.00000000E+00  0.00000000E+00
  0.00000000E+00  0.00000000E+00  0.00000000E+00
  0.00000000E+00  0.00000000E+00  0.00000000E+00
  0.00000000E+00  0.00000000E+00  0.00000000E+00
  0.00000000E+00  0.00000000E+00  0.00000000E+00
  0.00000000E+00  0.00000000E+00  0.00000000E+00
  0.00000000E+00  0.00000000E+00  0.00000000E+00
  0.00000000E+00  0.00000000E+00  0.00000000E+00
  0.00000000E+00  0.00000000E+00  0.00000000E+00
  0.00000000E+00  0.00000000E+00  0.00000000E+00
  0.00000000E+00  0.00000000E+00  0.00000000E+00
  0.00000000E+00  0.00000000E+00  0.00000000E+00
