POSCAR                                  
   1.00000000000000     
     6.6042806885903289   -0.0229629632767150    0.0043747807590021
    -3.3220774680557077    5.7511726920605888   -0.0080655888780580
     0.0070955153954918   -0.0107186343140700   10.1178323797628575
   Al   N    Sc
    10    16     6
Direct
  0.1670382592311981  0.8362957083715159  0.0012978779999244
  0.6673197404589644  0.8320915585192807  0.9998552573797426
  0.1781674721746143  0.3372734910268917  0.4967391761749624
  0.6615203363993345  0.3429014115085067  0.5015646036394656
  0.6644963220283273  0.8215461399106587  0.4958652483230850
  0.3300881274010834  0.1627763469622607  0.7443058314205544
  0.3373520484393069  0.6624562869773243  0.2475388684406994
  0.8369439074748044  0.6747065450127394  0.7480011541538545
  0.3384109844162353  0.1752990196717263  0.2508575954504195
  0.8231332562942910  0.6608396859483392  0.2462809663443508
  0.1802891867290697  0.3384757754526930  0.2018587671868488
  0.6574168581109490  0.3402573294965094  0.1945804447190298
  0.1664889768253772  0.8347837487563012  0.1993445988695655
  0.6580604810851298  0.8140040084316951  0.1898445156523678
  0.1842630312743410  0.3284161447510456  0.6865630587245377
  0.6578650328484343  0.3490083350396915  0.6935997422558131
  0.1565886454362868  0.8430873501051011  0.6890524623823566
  0.6748799899991624  0.8163408472408449  0.6811791683377635
  0.3211715965373116  0.1426060996555805  0.9326696798791687
  0.8237425523410025  0.1449015387451240  0.9421006918034323
  0.3409536092585057  0.6861114935110990  0.9506622019424142
  0.8454303586424174  0.6905723880480465  0.9388476304863076
  0.3458187746619643  0.1884664465592536  0.4387618885811904
  0.8312667472335704  0.1679661755423822  0.4634331091471537
  0.3436084073997208  0.6577715125157297  0.4397103161690694
  0.8111278593336309  0.6547504391278025  0.4342425335277156
  0.1692908427145241  0.3303517779347658  0.9952202284635234
  0.6655354898203356  0.3341121831467859  0.9875358181712812
  0.1642603146494608  0.8354187348359901  0.4838581226218821
  0.3360781453420714  0.6718381406526603  0.7430704056657831
  0.8281137372378282  0.1633487898268271  0.2520275853358243
  0.8332789082007395  0.1612245467148341  0.7295304507499125
 
  0.00000000E+00  0.00000000E+00  0.00000000E+00
  0.00000000E+00  0.00000000E+00  0.00000000E+00
  0.00000000E+00  0.00000000E+00  0.00000000E+00
  0.00000000E+00  0.00000000E+00  0.00000000E+00
  0.00000000E+00  0.00000000E+00  0.00000000E+00
  0.00000000E+00  0.00000000E+00  0.00000000E+00
  0.00000000E+00  0.00000000E+00  0.00000000E+00
  0.00000000E+00  0.00000000E+00  0.00000000E+00
  0.00000000E+00  0.00000000E+00  0.00000000E+00
  0.00000000E+00  0.00000000E+00  0.00000000E+00
  0.00000000E+00  0.00000000E+00  0.00000000E+00
  0.00000000E+00  0.00000000E+00  0.00000000E+00
  0.00000000E+00  0.00000000E+00  0.00000000E+00
  0.00000000E+00  0.00000000E+00  0.00000000E+00
  0.00000000E+00  0.00000000E+00  0.00000000E+00
  0.00000000E+00  0.00000000E+00  0.00000000E+00
  0.00000000E+00  0.00000000E+00  0.00000000E+00
  0.00000000E+00  0.00000000E+00  0.00000000E+00
  0.00000000E+00  0.00000000E+00  0.00000000E+00
  0.00000000E+00  0.00000000E+00  0.00000000E+00
  0.00000000E+00  0.00000000E+00  0.00000000E+00
  0.00000000E+00  0.00000000E+00  0.00000000E+00
  0.00000000E+00  0.00000000E+00  0.00000000E+00
  0.00000000E+00  0.00000000E+00  0.00000000E+00
  0.00000000E+00  0.00000000E+00  0.00000000E+00
  0.00000000E+00  0.00000000E+00  0.00000000E+00
  0.00000000E+00  0.00000000E+00  0.00000000E+00
  0.00000000E+00  0.00000000E+00  0.00000000E+00
  0.00000000E+00  0.00000000E+00  0.00000000E+00
  0.00000000E+00  0.00000000E+00  0.00000000E+00
  0.00000000E+00  0.00000000E+00  0.00000000E+00
  0.00000000E+00  0.00000000E+00  0.00000000E+00
