POSCAR                                  
   1.00000000000000     
     6.6042806885903289   -0.0229629632767150    0.0043747807590021
    -3.3220774680557077    5.7511726920605888   -0.0080655888780580
     0.0070955153954918   -0.0107186343140700   10.1178323797628575
   Al   N    Sc
    10    16     6
Direct
  0.1670382592312004  0.8362957083715175  0.0012978779999248
  0.6673197404589615  0.8320915585192785 -0.0001447426202579
  0.1781674721746140  0.3372734910268931  0.4967391761749656
  0.6615203363993318  0.3429014115085082  0.5015646036394689
  0.6644963220283270  0.8215461399106577  0.4958652483230870
  0.3300881274010838  0.1627763469622595  0.7443058314205570
  0.3373520484393082  0.6624562869773249  0.2475388684406961
  0.8369439074748068  0.6747065450127369  0.7480011541538559
  0.3384109844162374  0.1752990196717256  0.2508575954504220
  0.8231332562942913  0.6608396859483401  0.2462809663443500
  0.1802891867290730  0.3384757754526905  0.2018587671868464
  0.6574168581109490  0.3402573294965066  0.1945804447190274
  0.1664889768253804  0.8347837487563047  0.1993445988695637
  0.6580604810851310  0.8140040084316961  0.1898445156523651
  0.1842630312743402  0.3284161447510422  0.6865630587245347
  0.6578650328484315  0.3490083350396921  0.6935997422558166
  0.1565886454362853  0.8430873501050997  0.6890524623823585
  0.6748799899991633  0.8163408472408432  0.6811791683377633
  0.3211715965373151  0.1426060996555807  0.9326696798791690
  0.8237425523409997  0.1449015387451248  0.9421006918034349
  0.3409536092585092  0.6861114935110985  0.9506622019424148
  0.8454303586424153  0.6905723880480467  0.9388476304863106
  0.3458187746619651  0.1884664465592558  0.4387618885811870
  0.8312667472335704  0.1679661755423790  0.4634331091471555
  0.3436084073997226  0.6577715125157317  0.4397103161690673
  0.8111278593336341  0.6547504391278014  0.4342425335277180
  0.1692908427145238  0.3303517779347622 -0.0047797715364768
  0.6655354898203323  0.3341121831467834 -0.0124641818287217
  0.1642603146494617  0.8354187348359902  0.4838581226218810
  0.3360781453420690  0.6718381406526631  0.7430704056657813
  0.8281137372378261  0.1633487898268272  0.2520275853358234
  0.8332789082007397  0.1612245467148376  0.7295304507499101
 
  0.00000000E+00  0.00000000E+00  0.00000000E+00
  0.00000000E+00  0.00000000E+00  0.00000000E+00
  0.00000000E+00  0.00000000E+00  0.00000000E+00
  0.00000000E+00  0.00000000E+00  0.00000000E+00
  0.00000000E+00  0.00000000E+00  0.00000000E+00
  0.00000000E+00  0.00000000E+00  0.00000000E+00
  0.00000000E+00  0.00000000E+00  0.00000000E+00
  0.00000000E+00  0.00000000E+00  0.00000000E+00
  0.00000000E+00  0.00000000E+00  0.00000000E+00
  0.00000000E+00  0.00000000E+00  0.00000000E+00
  0.00000000E+00  0.00000000E+00  0.00000000E+00
  0.00000000E+00  0.00000000E+00  0.00000000E+00
  0.00000000E+00  0.00000000E+00  0.00000000E+00
  0.00000000E+00  0.00000000E+00  0.00000000E+00
  0.00000000E+00  0.00000000E+00  0.00000000E+00
  0.00000000E+00  0.00000000E+00  0.00000000E+00
  0.00000000E+00  0.00000000E+00  0.00000000E+00
  0.00000000E+00  0.00000000E+00  0.00000000E+00
  0.00000000E+00  0.00000000E+00  0.00000000E+00
  0.00000000E+00  0.00000000E+00  0.00000000E+00
  0.00000000E+00  0.00000000E+00  0.00000000E+00
  0.00000000E+00  0.00000000E+00  0.00000000E+00
  0.00000000E+00  0.00000000E+00  0.00000000E+00
  0.00000000E+00  0.00000000E+00  0.00000000E+00
  0.00000000E+00  0.00000000E+00  0.00000000E+00
  0.00000000E+00  0.00000000E+00  0.00000000E+00
  0.00000000E+00  0.00000000E+00  0.00000000E+00
  0.00000000E+00  0.00000000E+00  0.00000000E+00
  0.00000000E+00  0.00000000E+00  0.00000000E+00
  0.00000000E+00  0.00000000E+00  0.00000000E+00
  0.00000000E+00  0.00000000E+00  0.00000000E+00
  0.00000000E+00  0.00000000E+00  0.00000000E+00
