Ta  N Ru Cu 
 1.0000000000000000
    18.1096308199999996    0.0000000000000000    0.0000000000000000
     0.0000000000000000   23.3551997799999995    0.0000000000000000
     0.0000000000000000    0.0000000000000000   30.4818171199999988
 216 240  24  29
Selective dynamics
Cartesian
  18.091503    0.019510   5.932570  F  F  F
   5.936722    1.413543   6.129302  F  F  F
   3.065268    1.415507   6.130812  F  F  F
   4.501374    2.920596   8.518025  F  F  F
   1.476563    1.479514   8.622643  F  F  F
   7.526310    1.476713   8.617568  F  F  F
  18.082859    2.931860  11.242648  F  F  F
   5.998950    1.470956  11.211521  F  F  F
   3.001249    1.471864  11.214262  F  F  F
   4.508023    2.912798  13.851182  F  F  F
   1.478327    1.460878  13.825849  F  F  F
   7.516410    1.464000  13.819484  F  F  F
  18.072745    2.945787   5.978618  F  F  F
   6.074216    4.400144   6.166814  F  F  F
   2.932806    4.403190   6.169802  F  F  F
   4.501961    5.866879   8.514571  F  F  F
   1.471404    4.393326   8.650122  F  F  F
   7.539967    4.389870   8.641658  F  F  F
  18.079454    5.852945  11.266830  F  F  F
   5.998692    4.390261  11.223284  F  F  F
   3.007150    4.392559  11.232817  F  F  F
   4.511975    5.784792  13.862469  F  F  F
   1.473319    4.370286  13.835720  F  F  F
   7.522469    4.373149  13.836650  F  F  F
   6.052335    4.304985  16.501705  F  F  F
   0.001579    5.837383   5.974323  F  F  F
   5.935160    7.386637   6.145030  F  F  F
   3.071373    7.388477   6.151842  F  F  F
   4.500319    8.765790   8.583901  F  F  F
   1.479518    7.310953   8.656613  F  F  F
   7.533265    7.307797   8.641012  F  F  F
  18.081614    8.771727  11.281869  F  F  F
   6.010559    7.310139  11.232950  F  F  F
   2.993592    7.310601  11.259764  F  F  F
   4.505591    8.746712  13.854806  F  F  F
   1.498007    7.301133  13.906110  F  F  F
   7.535166    7.298172  13.879541  F  F  F
  18.078094    8.780536   5.983662  F  F  F
   5.942623   10.159535   6.155139  F  F  F
   3.057411   10.159390   6.162059  F  F  F
   4.501001    0.022164   8.539181  F  F  F
   1.473924   10.235023   8.657009  F  F  F
   7.537473   10.234089   8.634407  F  F  F
  18.081455    0.013129  11.223343  F  F  F
   6.006954   10.229798  11.231325  F  F  F
   2.997304   10.227691  11.257301  F  F  F
   4.498929    0.003443  13.844092  F  F  F
   1.512933   10.236388  13.910877  F  F  F
   7.531547   10.225257  13.862387  F  F  F
   6.171381   10.236742  16.505921  F  F  F
   0.023801   11.683036   5.991452  F  F  F
   5.942983   13.212500   6.149574  F  F  F
   3.059450   13.213456   6.154197  F  F  F
   4.502823   14.611287   8.562845  F  F  F
   1.474753   13.143446   8.646941  F  F  F
   7.534217   13.143960   8.633231  F  F  F
  18.077566   14.621425  11.257600  F  F  F
   6.003392   13.152280  11.231479  F  F  F
   3.003406   13.152415  11.245370  F  F  F
   4.509052   14.613773  13.852823  F  F  F
   1.488958   13.153366  13.860057  F  F  F
   7.536520   13.154569  13.839023  F  F  F
  18.074908   14.593264   5.969511  F  F  F
   5.931456   15.987384   6.130099  F  F  F
   3.066570   15.986471   6.135723  F  F  F
   4.501131   17.514414   8.489444  F  F  F
   1.477277   16.070915   8.636387  F  F  F
   7.526407   16.070729   8.628026  F  F  F
  18.072426   17.529481  11.239242  F  F  F
   6.006323   16.075410  11.220752  F  F  F
   2.998450   16.075101  11.222722  F  F  F
   4.485405   17.580800  13.861745  F  F  F
   1.505728   16.086168  13.854702  F  F  F
   7.528705   16.089764  13.848891  F  F  F
   6.049901   16.141141  16.506543  F  F  F
  18.106749   17.546351   5.954083  F  F  F
   6.066964   18.981900   6.152804  F  F  F
   2.929062   18.982288   6.155489  F  F  F
   4.499854   20.465846   8.497722  F  F  F
   1.470219   18.992095   8.630495  F  F  F
   7.530054   18.990866   8.627674  F  F  F
  18.077074   20.455171  11.224154  F  F  F
   5.993430   18.992453  11.212273  F  F  F
   3.004247   18.991375  11.211745  F  F  F
   4.495927   20.455311  13.839423  F  F  F
   1.459105   19.008790  13.808440  F  F  F
   7.509569   19.004502  13.835428  F  F  F
  18.070810   20.440279   5.966212  F  F  F
   5.938741   21.973721   6.117161  F  F  F
   3.059356   21.974922   6.119280  F  F  F
   4.501952   11.684450   8.571601  F  F  F
   1.474381   21.907186   8.614776  F  F  F
   7.524895   21.905764   8.612129  F  F  F
  18.085810   11.691820  11.276166  F  F  F
   5.997168   21.910321  11.204952  F  F  F
   3.000910   21.911291  11.204513  F  F  F
   4.491089   11.736634  13.865981  F  F  F
   1.479967   21.911104  13.804420  F  F  F
   7.507882   21.913627  13.808792  F  F  F
   6.016710   21.915616  16.449245  F  F  F
   2.934254   21.885674  16.444888  F  F  F
   9.022487    0.016663   5.930166  F  F  F
  14.995358    1.399006   6.140817  F  F  F
  12.118401    1.400623   6.137105  F  F  F
  13.561746    2.934275   8.543681  F  F  F
  10.527196    1.478313   8.612461  F  F  F
  16.587819    1.479565   8.614999  F  F  F
   9.029415    2.930813  11.235038  F  F  F
  15.058222    1.474359  11.207966  F  F  F
  12.054336    1.474333  11.203892  F  F  F
  13.560316    2.919592  13.841837  F  F  F
  10.531178    1.467078  13.818891  F  F  F
  16.570386    1.464740  13.826513  F  F  F
   9.046288    2.942587   5.972809  F  F  F
  15.007685    4.468022   6.153454  F  F  F
  12.107089    4.463381   6.141038  F  F  F
  13.568830    5.859631   8.571315  F  F  F
  10.527519    4.388371   8.628463  F  F  F
  16.595919    4.389229   8.635182  F  F  F
   9.029443    5.852688  11.254037  F  F  F
  15.062988    4.391015  11.230304  F  F  F
  12.064112    4.389932  11.223659  F  F  F
  13.568494    5.797405  13.869395  F  F  F
  10.531290    4.371299  13.821563  F  F  F
  16.570219    4.385894  13.848134  F  F  F
  15.106533    4.303541  16.502390  F  F  F
   9.012111    5.833989   5.967057  F  F  F
  14.995409    7.228343   6.145480  F  F  F
  12.128509    7.230585   6.140072  F  F  F
  13.570599    8.747341   8.521031  F  F  F
  10.535940    7.310006   8.638779  F  F  F
  16.592511    7.312614   8.645174  F  F  F
   9.030109    8.763115  11.258007  F  F  F
  15.070041    7.309387  11.236679  F  F  F
  12.071088    7.304452  11.226941  F  F  F
  13.572640    8.790142  13.869681  F  F  F
  10.599084    7.302796  13.877064  F  F  F
  16.595810    7.306845  13.900664  F  F  F
   9.045788    8.779196   5.974402  F  F  F
  15.106526   10.253014   6.179042  F  F  F
  12.021454   10.248116   6.172751  F  F  F
  13.558270    0.019406   8.538930  F  F  F
  10.528726   10.226676   8.645200  F  F  F
  16.600168   10.228516   8.657331  F  F  F
   9.026088    0.011948  11.220116  F  F  F
  15.068757   10.230486  11.238423  F  F  F
  12.084641   10.229188  11.211965  F  F  F
  13.546553    0.008880  13.837209  F  F  F
  10.560297   10.231044  13.783452  F  F  F
  16.593029   10.226056  13.884738  F  F  F
  15.050810   10.263299  16.539078  F  F  F
   8.988905   11.684320   5.981715  F  F  F
  15.099632   13.122072   6.176863  F  F  F
  12.021763   13.125954   6.169356  F  F  F
  13.564672   14.631186   8.503006  F  F  F
  10.526986   13.152712   8.635433  F  F  F
  16.597429   13.151178   8.644338  F  F  F
   9.022367   14.619211  11.237143  F  F  F
  15.067075   13.156717  11.217325  F  F  F
  12.071982   13.159245  11.195731  F  F  F
  13.552632   14.617160  13.834937  F  F  F
  10.561618   13.152130  13.808896  F  F  F
  16.569896   13.158608  13.876050  F  F  F
   9.040154   14.593553   5.962312  F  F  F
  14.992418   16.154005   6.127899  F  F  F
  12.122140   16.150672   6.126630  F  F  F
  13.559405   17.533624   8.552440  F  F  F
  10.529690   16.071299   8.622049  F  F  F
  16.586692   16.070085   8.625389  F  F  F
   9.023581   17.530637  11.235357  F  F  F
  15.061483   16.079296  11.214321  F  F  F
  12.056150   16.080469  11.214417  F  F  F
  13.538464   17.582967  13.848013  F  F  F
  10.564295   16.089858  13.846610  F  F  F
  16.560846   16.085407  13.866894  F  F  F
  15.131966   16.151784  16.559206  F  F  F
   9.004091   17.546078   5.952946  F  F  F
  15.001900   18.914958   6.139874  F  F  F
  12.104892   18.919745   6.133201  F  F  F
  13.555603   20.451622   8.532020  F  F  F
  10.521197   18.995817   8.614877  F  F  F
  16.589607   18.996331   8.615759  F  F  F
   9.023839   20.454278  11.224938  F  F  F
  15.051409   18.996307  11.209505  F  F  F
  12.052589   18.996520  11.211124  F  F  F
  13.543080   20.469052  13.832826  F  F  F
  10.514814   19.013220  13.813673  F  F  F
  16.558960   19.006077  13.827187  F  F  F
   9.039578   20.438461   5.962205  F  F  F
  14.993576   21.988725   6.135772  F  F  F
  12.112765   21.985627   6.129561  F  F  F
  13.571745   11.691603   8.479973  F  F  F
  10.522903   21.905927   8.607846  F  F  F
  16.587548   21.906564   8.609113  F  F  F
   9.028855   11.694024  11.248164  F  F  F
  15.053667   21.913520  11.200983  F  F  F
  12.051695   21.913241  11.199227  F  F  F
  13.585027   11.683044  13.835704  F  F  F
  10.533261   21.916959  13.808299  F  F  F
  16.560835   21.915302  13.807758  F  F  F
  15.074896   21.920724  16.452635  F  F  F
  12.004128   21.906541  16.448406  F  F  F
   6.054247    1.430499  16.488149  F  F  F
   2.936893    1.417761  16.472585  F  F  F
   6.095628    7.225664  16.561938  F  F  F
   5.972382   13.237890  16.502302  F  F  F
   6.041769   19.032598  16.520653  F  F  F
  15.104808    1.431820  16.485590  F  F  F
  11.996265    1.451736  16.472922  F  F  F
  15.223559    7.281335  16.560168  F  F  F
  15.214431   13.206005  16.576571  F  F  F
  15.087613   19.050465  16.497343  F  F  F
   3.002449    4.349283  16.481961  F  F  F
  12.034303    4.356133  16.461185  F  F  F
   2.967919   18.953349  16.475271  F  F  F
  11.979652   18.977278  16.505208  F  F  F
   7.316305    0.013995   7.041065  F  F  F
   4.499452    0.016240   5.366783  F  F  F
   1.685912    0.017739   7.044965  F  F  F
   2.756498    2.933616   9.625298  F  F  F
  18.086941    2.932451   9.206148  F  F  F
   6.249068    2.930953   9.619678  F  F  F
   7.245524    2.929523  12.246971  F  F  F
   4.501739    2.926204  11.786290  F  F  F
   1.755503    2.928384  12.252247  F  F  F
   2.718065    2.913336  14.849782  F  F  F
  18.078966    2.921049  14.431540  F  F  F
   6.291323    2.898455  14.847745  F  F  F
   7.309584    2.866587  17.315932  F  F  F
   4.501120    2.886899  16.984118  F  F  F
   1.635970    2.850094  17.283366  F  F  F
   7.327528    2.922842   7.048307  F  F  F
   4.502452    2.957498   6.323768  F  F  F
   1.680109    2.926767   7.055039  F  F  F
   2.763469    5.856475   9.642560  F  F  F
  18.087206    5.854797   9.223800  F  F  F
   6.247097    5.852351   9.628802  F  F  F
   7.247718    5.848141  12.270376  F  F  F
   4.507839    5.848983  11.800635  F  F  F
   1.746013    5.855834  12.280502  F  F  F
   2.728744    5.764368  14.831240  F  F  F
  18.087239    5.820057  14.496941  F  F  F
   6.313696    5.806468  14.898361  F  F  F
   7.255945    5.737482  17.477056  F  F  F
   4.536829    5.750395  17.031776  F  F  F
   1.532734    5.386690  17.467927  F  F  F
   7.329488    5.861718   7.068366  F  F  F
   4.503831    5.839024   6.277587  F  F  F
   1.682327    5.866067   7.079887  F  F  F
   2.738545    8.769334   9.663370  F  F  F
  18.088398    8.769146   9.233361  F  F  F
   6.269641    8.769922   9.644516  F  F  F
   7.245484    8.760981  12.273264  F  F  F
   4.509896    8.766374  11.799414  F  F  F
   1.741166    8.764862  12.298661  F  F  F
   2.735248    8.746667  14.787579  F  F  F
   0.001498    8.789008  14.564865  F  F  F
   6.299998    8.736138  14.888855  F  F  F
   7.254352    8.726385  17.421948  F  F  F
   4.607084    8.715314  17.188922  F  F  F
   1.069546    8.816096  18.287412  F  F  F
   7.327187    8.768290   7.067019  F  F  F
   4.501735    8.779296   5.382022  F  F  F
   1.683709    8.769946   7.083485  F  F  F
   2.739452    0.015422   9.618275  F  F  F
  18.085693    0.015692   9.181519  F  F  F
   6.262330    0.014056   9.615996  F  F  F
   7.244658    0.013742  12.236102  F  F  F
   4.500322    0.012618  11.778895  F  F  F
   1.753271    0.014404  12.234762  F  F  F
   2.710034   -0.000273  14.833757  F  F  F
  18.079230   23.352309  14.411362  F  F  F
   6.284023    0.008744  14.839069  F  F  F
   7.324519   23.312791  17.297055  F  F  F
   4.481098   23.352224  16.979842  F  F  F
   1.648327   23.326319  17.286941  F  F  F
   7.296478   11.686794   7.050790  F  F  F
   4.501341   11.684517   6.456492  F  F  F
   1.713476   11.686051   7.068053  F  F  F
   2.743105   14.609168   9.641804  F  F  F
  18.086568   14.612139   9.213125  F  F  F
   6.264746   14.610986   9.634035  F  F  F
   7.245410   14.621392  12.255633  F  F  F
   4.506502   14.624758  11.793960  F  F  F
   1.749584   14.632790  12.255654  F  F  F
   2.724047   14.582870  14.780011  F  F  F
  18.082171   14.649916  14.391749  F  F  F
   6.318502   14.633715  14.859301  F  F  F
   7.224295   14.685487  17.432791  F  F  F
   4.608139   14.690322  16.958062  F  F  F
   1.516680   15.185228  17.063151  F  F  F
   7.321750   14.606813   7.056865  F  F  F
   4.499237   14.589330   5.369610  F  F  F
   1.682152   14.605861   7.067688  F  F  F
   2.763011   17.528179   9.616107  F  F  F
  18.082485   17.530587   9.199008  F  F  F
   6.240112   17.528343   9.614181  F  F  F
   7.242447   17.542028  12.254633  F  F  F
   4.502134   17.531839  11.792996  F  F  F
   1.746355   17.529661  12.245944  F  F  F
   2.694549   17.608106  14.825009  F  F  F
  18.070524   17.567913  14.436253  F  F  F
   6.285911   17.576218  14.869271  F  F  F
   7.225453   17.614966  17.473300  F  F  F
   4.489853   17.615352  17.020311  F  F  F
   1.323980   17.912168  17.353263  F  F  F
   7.320797   17.516859   7.053610  F  F  F
   4.498907   17.538909   6.245847  F  F  F
   1.678352   17.515426   7.058753  F  F  F
   2.757377   20.453948   9.608346  F  F  F
  18.083887   20.451138   9.189208  F  F  F
   6.241706   20.453464   9.607903  F  F  F
   7.240552   20.448449  12.237063  F  F  F
   4.499192   20.453525  11.773950  F  F  F
   1.752545   20.451222  12.228950  F  F  F
   2.705653   20.435495  14.830655  F  F  F
  18.072545   20.481787  14.399067  F  F  F
   6.283012   20.458870  14.842339  F  F  F
   7.311980   20.515032  17.323261  F  F  F
   4.470057   20.439558  16.966827  F  F  F
   1.612618   20.473570  17.256838  F  F  F
   7.321943   20.461057   7.038394  F  F  F
   4.498420   20.431529   6.295985  F  F  F
   1.678503   20.463346   7.042370  F  F  F
   2.740484   11.688391   9.651944  F  F  F
  18.085550   11.691769   9.234871  F  F  F
   6.267426   11.688543   9.636328  F  F  F
   7.242142   11.689378  12.260982  F  F  F
   4.506569   11.688228  11.800087  F  F  F
   1.757257   11.679696  12.285790  F  F  F
   2.731933   11.742114  14.861267  F  F  F
  18.093351   11.697861  14.487230  F  F  F
   6.301184   11.727791  14.879876  F  F  F
   7.274138   11.765959  17.476322  F  F  F
   4.674551   11.619611  17.056433  F  F  F
   1.297438   12.243303  17.809136  F  F  F
  16.383815    0.016692   7.038276  F  F  F
  13.554739    0.015498   5.371215  F  F  F
  10.730190    0.015152   7.036188  F  F  F
  11.799188    2.936523   9.617272  F  F  F
   9.029414    2.931022   9.198535  F  F  F
  15.320876    2.937865   9.622482  F  F  F
  16.300291    2.929746  12.254462  F  F  F
  13.560052    2.927489  11.780183  F  F  F
  10.811164    2.925984  12.240509  F  F  F
  11.774024    2.915564  14.833911  F  F  F
   9.025656    2.922771  14.416038  F  F  F
  15.342274    2.902984  14.847548  F  F  F
  16.347704    2.857477  17.332323  F  F  F
  13.540069    2.900546  16.982697  F  F  F
  10.699178    2.946992  17.258148  F  F  F
  16.363392    2.940626   7.040202  F  F  F
  13.558342    2.939048   6.412702  F  F  F
  10.754610    2.937706   7.036755  F  F  F
  11.799022    5.845893   9.633352  F  F  F
   9.034085    5.852790   9.212070  F  F  F
  15.332006    5.850568   9.644828  F  F  F
  16.303079    5.857472  12.287624  F  F  F
  13.569959    5.851272  11.801415  F  F  F
  10.814367    5.856797  12.257321  F  F  F
  11.780873    5.752452  14.824656  F  F  F
   9.046601    5.831411  14.451285  F  F  F
  15.356420    5.819674  14.912705  F  F  F
  16.345449    5.711315  17.474197  F  F  F
  13.592290    5.747807  17.102480  F  F  F
  10.573116    5.602309  17.381738  F  F  F
  16.388047    5.858349   7.060813  F  F  F
  13.559295    5.842633   5.377319  F  F  F
  10.737562    5.855981   7.053084  F  F  F
  11.821819    8.766408   9.621803  F  F  F
   9.032934    8.768218   9.215940  F  F  F
  15.315176    8.767621   9.638741  F  F  F
  16.306757    8.771037  12.300094  F  F  F
  13.574529    8.761771  11.800259  F  F  F
  10.825686    8.746316  12.240994  F  F  F
  11.796673    8.822771  14.820963  F  F  F
   9.055574    8.752987  14.389701  F  F  F
  15.372246    8.785152  14.911109  F  F  F
  16.371494    8.878520  17.380122  F  F  F
  13.718541    8.684776  17.034599  F  F  F
  10.560421    8.797696  17.386203  F  F  F
  16.387698    8.762158   7.073084  F  F  F
  13.563620    8.762590   6.325293  F  F  F
  10.736572    8.760296   7.063388  F  F  F
  11.789986    0.015035   9.611140  F  F  F
   9.025155    0.014273   9.177821  F  F  F
  15.322735    0.016118   9.613952  F  F  F
  16.298784    0.017442  12.236884  F  F  F
  13.553524    0.014938  11.772551  F  F  F
  10.806646    0.016569  12.233285  F  F  F
  11.761330    0.015871  14.837401  F  F  F
   9.023617   23.348541  14.424543  F  F  F
  15.332531    0.013855  14.832514  F  F  F
  16.382601   23.339794  17.297607  F  F  F
  13.534793    0.015589  16.980943  F  F  F
  10.705111   23.347288  17.288546  F  F  F
  16.418023   11.686308   7.066884  F  F  F
  13.558975   11.685491   6.030742  F  F  F
  10.710156   11.685830   7.054790  F  F  F
  11.817164   14.619683   9.607551  F  F  F
   9.028060   14.612515   9.198589  F  F  F
  15.307714   14.616246   9.618284  F  F  F
  16.290324   14.619287  12.264932  F  F  F
  13.566233   14.618977  11.774185  F  F  F
  10.812968   14.620517  12.225859  F  F  F
  11.772227   14.596743  14.729031  F  F  F
   9.052030   14.630460  14.367840  F  F  F
  15.338510   14.626886  14.867033  F  F  F
  16.277517   14.722912  17.415513  F  F  F
  13.527272   14.615939  16.929996  F  F  F
  10.591266   14.893932  17.073745  F  F  F
  16.385898   14.616954   7.056822  F  F  F
  13.559545   14.618166   6.304386  F  F  F
  10.731710   14.618928   7.050362  F  F  F
  11.790615   17.537371   9.619229  F  F  F
   9.026887   17.530041   9.194447  F  F  F
  15.322925   17.535718   9.622408  F  F  F
  16.291231   17.538030  12.256808  F  F  F
  13.555869   17.535646  11.783504  F  F  F
  10.804451   17.533397  12.245021  F  F  F
  11.755171   17.619252  14.816317  F  F  F
   9.027292   17.559697  14.449398  F  F  F
  15.329173   17.572304  14.860627  F  F  F
  16.257072   17.634941  17.394647  F  F  F
  13.521842   17.619956  17.013115  F  F  F
  10.496258   17.762629  17.424553  F  F  F
  16.384359   17.524326   7.041364  F  F  F
  13.553630   17.539310   5.363893  F  F  F
  10.730910   17.525646   7.037672  F  F  F
  11.792816   20.450996   9.608071  F  F  F
   9.023514   20.450216   9.188240  F  F  F
  15.315742   20.452140   9.609226  F  F  F
  16.293440   20.454296  12.234437  F  F  F
  13.551615   20.458372  11.768867  F  F  F
  10.807634   20.458468  12.232821  F  F  F
  11.755992   20.445291  14.836184  F  F  F
   9.019601   20.485025  14.419357  F  F  F
  15.328060   20.468252  14.831928  F  F  F
  16.337948   20.527966  17.320150  F  F  F
  13.519669   20.455146  16.971362  F  F  F
  10.711005   20.498818  17.294065  F  F  F
  16.360631   20.448126   7.027278  F  F  F
  13.554688   20.448035   6.402406  F  F  F
  10.748430   20.447576   7.026375  F  F  F
  11.836132   11.691153   9.604981  F  F  F
   9.034582   11.689396   9.212721  F  F  F
  15.300829   11.690418   9.624036  F  F  F
  16.301931   11.694914  12.285900  F  F  F
  13.573415   11.703064  11.771495  F  F  F
  10.829572   11.707301  12.213800  F  F  F
  11.812726   11.668330  14.742707  F  F  F
   9.047350   11.703944  14.353469  F  F  F
  15.347238   11.684751  14.906833  F  F  F
  16.342152   11.704709  17.426477  F  F  F
  13.710147   11.767209  17.192098  F  F  F
  10.687308   12.007390  17.066342  F  F  F
  18.027442   20.593501  16.425190  F  F  F
   8.998450   20.624787  16.460381  F  F  F
  18.064274   23.231331  16.434869  F  F  F
   9.018418   23.150240  16.457223  F  F  F
  18.065330    2.962062  16.464037  F  F  F
   0.041634    9.151757  16.687094  F  F  F
   3.514032   10.239360  16.063380  F  F  F
  17.915189   14.954650  16.382127  F  F  F
   3.356571   16.021268  16.142957  F  F  F
   9.001564    3.040363  16.438128  F  F  F
   8.935595    8.754553  16.410069  F  F  F
  11.153069   10.311444  16.379745  F  F  F
   8.925319   14.755929  16.383583  F  F  F
  12.424066   16.076058  16.135393  F  F  F
  18.033405    5.489977  16.520313  F  F  F
   3.449833    7.255662  16.112740  F  F  F
   1.945744   13.458381  16.531819  F  F  F
  17.965462   17.737586  16.483141  F  F  F
  18.001652   11.681921  16.563363  F  F  F
   8.993674    5.679593  16.499161  F  F  F
  12.572334    7.315471  16.065829  F  F  F
  12.520223   13.096041  16.199059  F  F  F
   8.936788   17.642098  16.479175  F  F  F
   8.928517   11.892126  16.365174  F  F  F
   7.964610    9.150910  19.146450  T  T  T
  10.525124    9.673438  19.122140  T  T  T
   9.032793   10.302527  21.008623  T  T  T
  14.176028    7.644014  20.666992  T  T  T
  15.604641    8.748238  19.114971  T  T  T
   3.003475    8.967783  18.350088  T  T  T
  10.717787   13.450905  18.356831  T  T  T
   1.113842   10.614024  18.696152  T  T  T
   9.359651    7.879030  20.621153  T  T  T
  10.529884    7.122645  18.488019  T  T  T
   8.009736    6.671571  18.953686  T  T  T
   8.296097   11.834895  19.205451  T  T  T
   6.559439   10.380142  20.716037  T  T  T
  15.623720    6.319499  19.156632  T  T  T
   1.392141    7.072771  18.055605  T  T  T
   3.195157   11.779882  18.270765  T  T  T
  13.097852    8.978776  18.840093  T  T  T
   4.018146   10.471552  20.198422  T  T  T
   5.465879    8.979908  19.004217  T  T  T
  13.071683    6.389822  18.855731  T  T  T
  11.762783    7.686483  20.522121  T  T  T
   5.686181   11.703700  18.926847  T  T  T
  12.593606   11.475091  18.758781  T  T  T
  12.120569   10.106020  20.824159  T  T  T
   6.936458   13.936898  19.206896  T  T  T
   9.207076   14.355842  19.986379  T  T  T
  10.577592   11.994258  20.228432  T  T  T
   7.859452   16.222421  18.766649  T  T  T
  10.318366   16.166746  18.482247  T  T  T
