Ta  N Co Cu                             
   1.00000000000000     
    18.1096308199999996    0.0000000000000000    0.0000000000000000
     0.0000000000000000   23.3551997799999995    0.0000000000000000
     0.0000000000000000    0.0000000000000000   30.4818171199999988
   Ta   N    Co   Cu
   216   240    24     4
Direct
  0.0013196020025674  0.9989563391280285  0.1976934362595486
  0.3354334643567327  0.0616369018786997  0.2028620487171793
  0.1673996492134080  0.0617121786588939  0.2027796605698953
  0.2517232793685125  0.1240915031284260  0.2780369534450813
  0.0844294871543383  0.0617023986903291  0.2839869434627005
  0.4189882695801614  0.0616459030863510  0.2840940310691593
  0.0020912174773713  0.1240968547795447  0.3693815760124721
  0.3343320396455809  0.0617083266831600  0.3685177981137144
  0.1697969612147929  0.0617258350672358  0.3683291532696416
  0.2537215187672075  0.1242556025682617  0.4558482573680607
  0.0853201742927610  0.0619676082764613  0.4541157889460052
  0.4208323292973688  0.0620357920249290  0.4534405847567555
  0.3409808073080640  0.0640564331674938  0.5417704613624821
  0.1668093216325275  0.0670080770656725  0.5423658456176454
  0.0011562972293433  0.1242378122574621  0.1975672778849571
  0.3352251441334388  0.1868438686885838  0.2029515026216941
  0.1675075345271608  0.1869295849016765  0.2028908730324446
  0.2512910710760963  0.2493589444324584  0.2783052613184580
  0.0840922872533980  0.1868424948923604  0.2840630570918989
  0.4189357514752672  0.1867529642208297  0.2842283483601165
  0.0018617260627281  0.2492937826496231  0.3699926405948588
  0.3342317970560913  0.1865009604450591  0.3686146947275688
  0.1693474108869921  0.1865931617507854  0.3682650259530575
  0.2530678246749218  0.2461767263864303  0.4552702287482546
  0.0853221206415995  0.1855601672188456  0.4532322430372275
  0.4206273483381082  0.1860245480573539  0.4536164130339273
  0.3453214314062194  0.1864064799086833  0.5420931162389309
  0.1721296202409306  0.1962797003285033  0.5418352692729727
  0.0007723856780686  0.2498536150673871  0.1979585395531345
  0.3357181256425079  0.3119308085355144  0.2030801698880538
  0.1666569668544113  0.3119129476381985  0.2031200360273999
  0.2507156671335906  0.3741633119340761  0.2789486148148370
  0.0837782620950307  0.3118508479351050  0.2846133448014783
  0.4183835738044053  0.3117635345083229  0.2847557361989743
  0.0011738304198303  0.3739117278981254  0.3706182679919365
  0.3330112660758502  0.3115546316252420  0.3688948158515686
  0.1686984631768240  0.3117204501259039  0.3689778428423196
  0.2480237618096766  0.3740463383024135  0.4604949851551723
  0.0856061627121960  0.3107706884569694  0.4566951085872120
  0.4189058957619878  0.3107438789200714  0.4539056627453135
  0.3373686038781187  0.3090432423611844  0.5425701714348392
  0.0005876110823877  0.3744206777393444  0.1985494460303343
  0.3349453901463733  0.4369755157205830  0.2036231684636860
  0.1671012929271782  0.4369519811218296  0.2036423399415668
  0.2517945306254319  0.9992078377054838  0.2783294812133406
  0.0836306996356129  0.4367477041447003  0.2850221957644266
  0.4177412950666621  0.4366533532466974  0.2852276805260772
  0.0023007330106637  0.9994351787571105  0.3695894572011440
  0.3314082584146760  0.4363256470731187  0.3699637089646544
  0.1686016662762952  0.4365216859893977  0.3700060476820894
  0.2526408885606344  0.0001173601373310  0.4561937878879618
  0.0815172972820122  0.4366883845137366  0.4546566834158483
  0.4184223722293012  0.4350805152348158  0.4533452528493527
  0.3300875680820496  0.4335532497430989  0.5392142469276351
  0.0005007741000682  0.4994240475074534  0.1988876534974082
  0.3351773029830483  0.5616748188924205  0.2038512963571577
  0.1669343048271372  0.5615942246463632  0.2037465202362156
  0.2508397825886632  0.6241040399167517  0.2794712617543524
  0.0837805190964716  0.5617052273961676  0.2850782360051980
  0.4175004538058644  0.5616647073749945  0.2856241497367265
  0.0007640426050486  0.6243806080430687  0.3704584687902255
  0.3317034440312057  0.5613942011696835  0.3701584432721674
  0.1685468948339164  0.5614768371410861  0.3696673892350404
  0.2499452076828419  0.6248282359024842  0.4603043352796305
  0.0814569442982247  0.5614649496476432  0.4539801117094058
  0.4174421108844371  0.5601857928898895  0.4540719798510437
  0.3400475137715446  0.5568012366473312  0.5444876791550826
  0.0007967122496382  0.6242718858547320  0.1988660258946666
  0.3358484514129998  0.6865120933225910  0.2037790170988529
  0.1666144075080496  0.6865796938113746  0.2036156860622356
  0.2512516520277046  0.7491004085497650  0.2792577063431594
  0.0840977126484361  0.6866268060665703  0.2851734906533281
  0.4178298002552197  0.6865296533464971  0.2858097660050518
  0.0016981899688275  0.7495774852166619  0.3704020818814797
  0.3326409716684253  0.6866978308768239  0.3707021398173964
  0.1688962000861167  0.6867740185494426  0.3703118745827183
  0.2510575359997347  0.7491599159512958  0.4597711482489686
  0.0840707916992542  0.6876152821464458  0.4557332952406270
  0.4161437772622634  0.6869286483329518  0.4568280839691496
  0.3289758521121868  0.7001459086121287  0.5509079126939227
  0.0011153889877278  0.7486480182637791  0.1985258516220298
  0.3351342882997059  0.8113685425054626  0.2036439506454713
  0.1674236893340009  0.8113886792809666  0.2034574693134914
  0.2516025587321238  0.8741872146115597  0.2786990080751295
  0.0844475662959070  0.8115952682295386  0.2848466442173390
  0.4181618974825057  0.8115072512544259  0.2851180859721794
  0.0022083575789367  0.8744468058367829  0.3698783099886924
  0.3335817826366210  0.8117658808193795  0.3699261369850291
  0.1695967284234925  0.8118062697138129  0.3696381483257127
  0.2523767986711505  0.8760977372897472  0.4570166073097184
  0.0841173887432376  0.8138380719575906  0.4546080624348079
  0.4186831891795109  0.8131962225366181  0.4549651520800850
  0.3443021689485377  0.8196261994466241  0.5448429168859832
  0.1709028540085313  0.8117714890952783  0.5436092315677072
  0.0013853351889850  0.8738174162302954  0.1980653846441385
  0.3354534468772385  0.9364096313943691  0.2030576663852699
  0.1674131875289220  0.9364225300512530  0.2029447976981444
  0.2506277037425093  0.4991175360837445  0.2792427647817703
  0.0845356789348344  0.9366318589520830  0.2843225773485969
  0.4187450907996819  0.9365977998980028  0.2844565321847838
  0.0001516128464516  0.4990816747753613  0.3704168567622048
  0.3341788970277122  0.9368259609170835  0.3691270010730676
  0.1696993230002661  0.9368808009239373  0.3689608006027285
  0.2467553367690911  0.4969108619852776  0.4626571642850976
  0.0852356336155680  0.9379536842867111  0.4542349404180683
  0.4205957978487831  0.9377742162580418  0.4541798702166204
  0.3398443184881899  0.9414512179450796  0.5419199044345717
  0.1659723897277772  0.9389492318628712  0.5427017444024287
  0.5016071798409740  0.9989499826362476  0.1977591597468304
  0.8352671410626087  0.0617340687453378  0.2029677211752130
  0.6674033203089067  0.0616739391876280  0.2029097124722981
  0.7516946128697697  0.1241602684532026  0.2782892750759842
  0.5844951721285696  0.0616290741482075  0.2842033977976968
  0.9189424456322186  0.0616834619073927  0.2841527281742273
  0.5025440706873567  0.1241730242704904  0.3694728346009128
  0.8342694990903183  0.0616141975433351  0.3686197034467753
  0.6698414000364608  0.0616078789563588  0.3685987729292179
  0.7537333518465914  0.1238799097538532  0.4562743728780703
  0.5857611111954952  0.0615810352477766  0.4540937889642294
  0.9207709659922756  0.0615939220703439  0.4538567950217356
  0.8406432300744910  0.0612619427504555  0.5418987348502355
  0.6665178888891674  0.0646338194238822  0.5425195729636272
  0.5016744590085267  0.1242538017337438  0.1976192290719680
  0.8349871091606218  0.1869727201659259  0.2031749337262596
  0.6675185322718420  0.1868949429353748  0.2031064052720382
  0.7513318742907487  0.2494537947362403  0.2787567758869756
  0.5843896076596877  0.1867675682510210  0.2844013962672989
  0.9186674756039537  0.1868552351106203  0.2844130291121871
  0.5023514248048855  0.2490412307306258  0.3699895622378193
  0.8341554258032033  0.1865487174386686  0.3689876170239259
  0.6697258723851860  0.1865373429924020  0.3688124587697601
  0.7534525966226369  0.2456243625066463  0.4557408823147640
  0.5856006808116518  0.1853198643255141  0.4539676639889265
  0.9204905549747551  0.1857742111202825  0.4536013737323756
  0.8464248254027353  0.1851077552070493  0.5432136170590240
  0.6740857133392524  0.1932959219454347  0.5418271296321180
  0.5015653473458244  0.2497284196698786  0.1979936968316025
  0.8354711864944449  0.3120650491659802  0.2034529565294463
  0.6666300795819993  0.3120080628649191  0.2034231464388014
  0.7507313256855710  0.3744322572399099  0.2796346859688370
  0.5840827701747173  0.3118114176308708  0.2849479225567819
  0.9181243139299866  0.3119421312587178  0.2850899469642840
  0.5015264484102531  0.3736027799868111  0.3704209159734191
  0.8331091450992432  0.3119394314536166  0.3695513180119363
  0.6690178384734011  0.3118857129629546  0.3696972252598911
  0.7472451558714894  0.3731460652229117  0.4636428546443980
  0.5852184424428089  0.3105770424585685  0.4569233216195059
  0.9193976752181072  0.3109044781607864  0.4544654226814302
  0.8402878063662840  0.3083677238991882  0.5430881780868333
  0.5014292875019706  0.3743449152734897  0.1985403720815526
  0.8346582064449990  0.4370333464503844  0.2040132532255683
  0.6669916563857754  0.4370764042116448  0.2041075886906754
  0.7516647342346516  0.9991302405206994  0.2785220104134609
  0.5837859052989174  0.4368147473151893  0.2854667203959096
  0.9175151288677341  0.4368483215130468  0.2856251002675023
  0.5024323919863889  0.9993170591325864  0.3696740379706043
  0.8313588551334803  0.4366260826878303  0.3706544772252514
  0.6687651334508757  0.4365667252121170  0.3704992477592413
  0.7528419084601765  0.9992095742415472  0.4563833354441371
  0.5812264388058495  0.4368357716369147  0.4542711255507541
  0.9183152147180920  0.4361545139889600  0.4542938949747466
  0.8360969932553317  0.4341736114307082  0.5404217195705101
  0.5012198024397208  0.4995093479394228  0.1989670583703145
  0.8347642059939702  0.5617376848643758  0.2041362187149431
  0.6667400798127829  0.5617942990716926  0.2043599408976746
  0.7503643856600775  0.6242249851270429  0.2802004933742595
  0.5835598958008390  0.5618150028385855  0.2859313157103571
  0.9174301969350509  0.5617773062726172  0.2858049486838041
  0.5003769633405071  0.6245371267279438  0.3716002811981411
  0.8309552663932962  0.5617538637649631  0.3707375357878746
  0.6685729928822752  0.5617962544345971  0.3709698602149132
  0.7459688859049933  0.6248833926648274  0.4633451795620829
  0.5815201443825018  0.5621385060037127  0.4553003453093254
  0.9181925354588287  0.5621325015271452  0.4538491486792608
  0.8377612061133277  0.5636121498907585  0.5390306270029583
  0.5010158429996139  0.6243175022540015  0.1991445285967046
  0.8355215931019870  0.6865594873483758  0.2037692952998640
  0.6663549026592648  0.6866231202468995  0.2040945703080652
  0.7508844854150922  0.7489572865254885  0.2795438277256181
  0.5833985083379361  0.6866193722890017  0.2858451372926893
  0.9180202220654294  0.6866012036277240  0.2854908314495006
  0.5006084538671516  0.7492162296523830  0.3712573175043019
  0.8322386468455107  0.6866770251577208  0.3699510862435247
  0.6684463232082436  0.6867514451215158  0.3703879759520632
  0.7516350327670764  0.7521679063366093  0.4572660053738744
  0.5836784004389344  0.6882722688724598  0.4570686737378225
  0.9191182806743896  0.6879442785870680  0.4538965661618661
  0.8427367541102200  0.6896204842581852  0.5422264745605148
  0.5009747639355666  0.7485599322116343  0.1987843477474769
  0.8350566032390887  0.8114300450211758  0.2035876557246254
  0.6672379167171982  0.8113427959233661  0.2037636240717049
  0.7513681810879262  0.8740818355903528  0.2787725656680635
  0.5837245854073174  0.8115187056660602  0.2851326390334847
  0.9186680909511864  0.8115474270990504  0.2849439958805533
  0.5015900849463861  0.8744912272898659  0.3701147475333215
  0.8335358066386007  0.8119021423175496  0.3693677241717381
  0.6691001593307462  0.8118542465367184  0.3693237275203103
  0.7529568246465317  0.8750497110922666  0.4566879091744909
  0.5840890472571303  0.8134874019861513  0.4542314203191253
  0.9199458892524461  0.8130700242096012  0.4541522011976724
  0.8439228679178186  0.8135429917731329  0.5426091015687575
  0.6721131207085378  0.8074171101456784  0.5418770206069610
  0.5013089344794750  0.8738819874208659  0.1982079771419407
  0.8353387055129744  0.9364064398854310  0.2031497829796365
  0.6672372290283732  0.9363363761018917  0.2031763809443774
  0.7504014707988844  0.4994138391381640  0.2800308991960918
  0.5841838939978174  0.9365824832018035  0.2845204656388987
  0.9189799411393196  0.9366171691918197  0.2844118833390326
  0.5005227926470610  0.4990187558571577  0.3705490727262983
  0.8340971101682939  0.9368363204918211  0.3688154135318200
  0.6695974596934846  0.9368012792644649  0.3689044625838775
  0.7452485932909951  0.4995820470278645  0.4639935937927007
  0.5849859999057685  0.9373698786151721  0.4545815099411001
  0.9204920015169549  0.9373551073304043  0.4536664075303989
  0.8404406010123395  0.9373807120071973  0.5421278692765625
  0.6665041523209894  0.9361633448848394  0.5423533002726373
  0.4071031433225869  0.9990213494326170  0.2324992609814416
  0.2513856884965406  0.9990290906238641  0.1998201133343400
  0.0959222674410114  0.9990541702401998  0.2324049498987293
  0.1565948616955382  0.1241960557356236  0.3156676398876073
  0.0016295988725616  0.1242716631324896  0.3027982490479530
  0.3468527044051726  0.1241697263891837  0.3158290420533447
  0.4036567296918818  0.1241205717636689  0.4018510343250483
  0.2519869641614747  0.1240261236453009  0.3878121866241315
  0.1008806149835237  0.1238471314509937  0.4018066989049913
  0.1536653224090330  0.1252599161607009  0.4865344550258115
  0.0029685186800705  0.1237061812445504  0.4752085772155681
  0.3543538079885309  0.1237410909874725  0.4871669553092062
  0.4135299515813600  0.1234563161292712  0.5660765953436311
  0.2555177710445946  0.1240302609385111  0.5562962749080214
  0.1016638812055959  0.1322822547616056  0.5651526177193560
  0.4071538225184881  0.1242841035463513  0.2323479649495042
  0.2513742798933905  0.1242555167596393  0.1990427271961295
  0.0956891317441944  0.1243517574526081  0.2322458943975505
  0.1563281016112725  0.2493184917738631  0.3160357209776237
  0.0012915879063939  0.2493664782692449  0.3033751507929026
  0.3463520045587529  0.2491089303870737  0.3160869436242422
  0.4029384303583683  0.2489120227093053  0.4019701584329809
  0.2514197961015157  0.2491218517761453  0.3878571697011495
  0.1007585732029170  0.2492633185606365  0.4021643589697561
  0.1542976886509138  0.2441951520616854  0.4844134515701199
  0.0028343216800053  0.2485323042294851  0.4747334814491140
  0.3525669693993052  0.2481034570363434  0.4873025047067330
  0.4137376173946237  0.2482392614541453  0.5654091179194651
  0.2617893877786628  0.2423126127378836  0.5601064163431531
  0.1012127835583811  0.2648369364705303  0.5613058914915712
  0.4069947069580735  0.2494526645452950  0.2327123459703202
  0.2512918753063076  0.2496464228822788  0.1999402125280767
  0.0954097681886665  0.2495049040629311  0.2326065323282620
  0.1558493514788424  0.3743546209694486  0.3167906925639983
  0.0009362578491192  0.3743405229262180  0.3039383906895239
  0.3455899857118396  0.3742401562486108  0.3166618592517878
  0.4017613142606038  0.3731186865513862  0.4019047321988936
  0.2502846077516310  0.3736827868428634  0.3902157976691569
  0.1001263028123205  0.3729691732076006  0.4031019108167939
  0.1460509961441687  0.3757673142411591  0.4878422511773550
  0.9998385115834125  0.3733932899847119  0.4743945887232002
  0.3518398348628295  0.3727841113624137  0.4865225667612592
  0.3940528230558513  0.3735236612098944  0.5696426466770603
  0.2468358294629027  0.3656307771918677  0.5419235285066648
  0.0700121084916532  0.3838634169213151  0.5633738795915946
  0.4065914650395825  0.3743559457543952  0.2331522172595015
  0.2511177022049509  0.3742511212261661  0.2005682758389256
  0.0953882660498664  0.3743919461618432  0.2330960761598888
  0.1567483925593862  0.9991678101315600  0.3159859751734544
  0.0018322518625311  0.9992086589294047  0.3029634060402771
  0.3468161665135270  0.9991433237944918  0.3160979512364577
  0.4037463851633518  0.9994922069361394  0.4021364873435616
  0.2520358301334795  0.9995056159838001  0.3881544919174758
  0.1010570582590589  0.9996491171079143  0.4022720082077456
  0.1529499619743859  0.0005023786761811  0.4876285776517335
  0.0029652796885813  0.9997605168619188  0.4752342147446171
  0.3533174236421317  0.0009214405741389  0.4871474297783109
  0.4115290781875416  0.0019694938205035  0.5655430090541955
  0.2539183958463838  0.0024281944947830  0.5565696037272616
  0.0993305581339570  0.0031923647704701  0.5666242654524112
  0.4064272032408738  0.4993108888435174  0.2335239360272183
  0.2510875021307299  0.4993896033139222  0.1994394036267906
  0.0953216388122087  0.4992424769903963  0.2333262243150784
  0.1560658660677916  0.6241904307079267  0.3171655093391408
  0.0009946468301933  0.6241745846517333  0.3039533667475141
  0.3452362901166168  0.6241350071122653  0.3175683540949095
  0.4006903659601093  0.6245028415547722  0.4032277477735704
  0.2501959142312558  0.6237685201556999  0.3906591169420892
  0.0995657208352014  0.6248599883096801  0.4024840586340233
  0.1465248987982619  0.6210000796823962  0.4864131656292159
  0.9997524602834531  0.6249169620049386  0.4737769058925068
  0.3548980151972287  0.6192272220482025  0.4885708420504500
  0.3605915769735191  0.6282276158839295  0.5781514455020442
  0.2455825566404926  0.6840051225189043  0.5096830446947962
  0.0808122842154901  0.6271600611370687  0.5603679606881755
  0.4064103416846052  0.6241524686671056  0.2339770458046573
  0.2510784165717226  0.6242593431610359  0.2014277422748023
  0.0955132282103861  0.6241778751612799  0.2334648300345137
  0.1564708568450754  0.7491188134105187  0.3171427652621688
  0.0014053587674852  0.7491010182993918  0.3038087673490040
  0.3457518400603021  0.7490673084775707  0.3174911930324882
  0.4017058537245006  0.7494205550235975  0.4039557886486804
  0.2510397238127808  0.7492395542579757  0.3905712470970144
  0.1002359557719288  0.7498792489859341  0.4032133129661091
  0.1492781258642708  0.7544870102238832  0.4884452781787090
  0.0014104600036617  0.7512693188247255  0.4752569446928092
  0.3524697827036150  0.7537928185545084  0.4901188091803377
  0.4139216970498936  0.7567353132601440  0.5665489154947352
  0.2614916246775820  0.7678394950621552  0.5696170032166137
  0.0899799128095182  0.7496715254400499  0.5630053409175630
  0.4065911524809991  0.7488209176245988  0.2337629273346380
  0.2512530713091081  0.7486956612996849  0.2006595689991926
  0.0957091154711236  0.7489564986044002  0.2333422636188587
  0.1567822699386241  0.8741350752887627  0.3165030554179395
  0.0017549064493068  0.8741315695409000  0.3032733090352266
  0.3463372306207049  0.8741646820658460  0.3166684538250166
  0.4030978874958393  0.8748373729131842  0.4027902149893166
  0.2517863024582567  0.8746690914304338  0.3890040786319204
  0.1008507991571648  0.8750009074429883  0.4025695289987823
  0.1526704134300800  0.8756050726099929  0.4879174884448716
  0.0025550445859039  0.8755670698232692  0.4753455369043706
  0.3531407292111695  0.8772176711747335  0.4881171142878813
  0.4111547190491152  0.8819703973417035  0.5679081035431039
  0.2532818746211731  0.8815703163143525  0.5565613893709269
  0.1000944249464055  0.8734960112252352  0.5662216944845611
  0.4068660924452558  0.8738700523390079  0.2330297743249474
  0.2513503769760419  0.8739192501528521  0.1994625070619662
  0.0958864569384943  0.8739190852986738  0.2328468137469670
  0.1558605996971565  0.4990447866737142  0.3170535185506864
  0.0006822427691162  0.4992514032360091  0.3039246053572811
  0.3451441906160753  0.4989192279635475  0.3171219709740285
  0.4008613085497075  0.4982175828617841  0.4019271409106864
  0.2497141918888346  0.4989436188407552  0.3914306943067061
  0.0993680783042947  0.4988985177185938  0.4023678146449470
  0.1430275854450969  0.4991164840018172  0.4881130434639616
  0.9976618443201133  0.4992910151058041  0.4740159410553915
  0.3526752164208631  0.4949808842995935  0.4857645317820598
  0.3995214515994832  0.4954081379569288  0.5691008744516068
  0.2532298718844501  0.5062070834309367  0.5419444365749229
  0.0666984610373689  0.5068797967090006  0.5612692015889280
  0.9070073929174072  0.9990451859215383  0.2325589865018856
  0.7513083397399001  0.9989924200911631  0.2001839940649930
  0.5959269417129818  0.9990036577578252  0.2326663123167023
  0.6567189488333440  0.1241800385480332  0.3160443204122245
  0.5017544415825697  0.1242207545755249  0.3028860919428240
  0.8467974591534499  0.1241928996422885  0.3160704301392343
  0.9034761500835984  0.1239055607296180  0.4021066990118882
  0.7521318144500952  0.1237747994409943  0.3881649366761550
  0.6011574821770012  0.1238611052662222  0.4022023980109708
  0.6538574987716075  0.1243438719589207  0.4870677469404754
  0.5032514234330989  0.1238553258546347  0.4751416368989680
  0.8543866437318215  0.1233247405704745  0.4875633611268171
  0.9117104866224039  0.1205762924837543  0.5669312176819830
  0.7546651094189301  0.1218232434217370  0.5563722930831148
  0.6019883414006131  0.1306384024412921  0.5654835433170788
  0.9068826636336595  0.1243832662773272  0.2325278766376329
  0.7512798225744106  0.1242664454619842  0.1990355827143020
  0.5959577468407531  0.1242855772498999  0.2325640078456885
  0.6564943623780692  0.2493669132355762  0.3165663012922195
  0.5014997986257015  0.2492508459984890  0.3033823674634419
  0.8462497016182340  0.2493346746640341  0.3165720584233469
  0.9027921906888707  0.2491231873918309  0.4023473025143574
  0.7516454186226440  0.2493410741011388  0.3884367142495790
  0.6010544986000212  0.2490474011928114  0.4026676517940402
  0.6551004256735027  0.2444849355760397  0.4854851365286024
  0.5025458048211746  0.2477368053899696  0.4747850289536188
  0.8532663476400586  0.2470121805127619  0.4876285761940196
  0.9182414736552929  0.2453429499343898  0.5645934838076343
  0.7634154789911278  0.2400452572953853  0.5615393720781228
  0.5957024095241010  0.2592921579146079  0.5610291063494657
  0.9066114869796706  0.2495988938207105  0.2330692951528306
  0.7511299134275902  0.2497617746239413  0.2004031906288475
  0.5958288013689810  0.2494606071513985  0.2330335009240940
  0.6559129701177397  0.3744093364777328  0.3173983086673076
  0.5010019142578201  0.3742162137270242  0.3038326793863106
  0.8455472493100302  0.3745142600670519  0.3173366273214171
  0.9016920455143875  0.3738056508685546  0.4026271113681972
  0.7503322581524614  0.3741440604565867  0.3915958961749766
  0.6001379073019777  0.3728211841708173  0.4033218913708225
  0.6432290005062313  0.3759925152378187  0.4887839698222223
  0.4989313570291216  0.3727206675869255  0.4744179444735011
  0.8536215714393407  0.3731718599775249  0.4873750573550382
  0.8939228893004341  0.3714883542368739  0.5719639295312575
  0.7474335872465900  0.3588089702869155  0.5365310218015509
  0.5684439509273602  0.3793203868198418  0.5638958299744203
  0.9062699400492846  0.3745574584764455  0.2336377580105733
  0.7508947085833313  0.3743993953006211  0.2011778451027268
  0.5956103414580696  0.3744551185239118  0.2336123673389849
  0.6565801533586395  0.9991134971233961  0.3161758950178211
  0.5016510454537624  0.9991725169499333  0.3030577175372571
  0.8468488924751298  0.9991715526167368  0.3160933060600826
  0.9035341440298694  0.9993483435587649  0.4020746784997513
  0.7520426640745086  0.9992697760335858  0.3883106874687670
  0.6010851351292388  0.9992743864268689  0.4024745515748194
  0.6531152200839685  0.9997467181324780  0.4877302760122006
  0.5030173120761532  0.9996401566897717  0.4755472343566325
  0.8533810259982033  0.9991522110396076  0.4873016584587759
  0.9106909671961390  0.9996127666157832  0.5656016161281983
  0.7537858384473921  0.9993102987864901  0.5568166426220458
  0.5987649211007593  0.0002526403020084  0.5661246808352800
  0.9060153093665804  0.4993720939657251  0.2338762077160936
  0.7508110235175778  0.4995040349231772  0.2003411780070721
  0.5954737021032912  0.4994704124393010  0.2340080199443264
  0.6555048255608398  0.6241377708550857  0.3180484139295743
  0.5005303807747055  0.6241212418306716  0.3048323765470258
  0.8453892545810859  0.6240780344362449  0.3176308147614435
  0.9013591278386457  0.6246450099474643  0.4024518517623434
  0.7497693312916951  0.6243641709164933  0.3922918920851117
  0.5998594273125235  0.6253827755151278  0.4041236709091081
  0.6431568216605541  0.6242383192480361  0.4912011808955583
  0.4972252706221099  0.6250168626088026  0.4736205366246722
  0.8525022888499336  0.6262719032902382  0.4859794211996515
  0.9048683461853528  0.6252072813591241  0.5672399483905366
  0.7581532498964663  0.6287347764525748  0.5448443796839229
  0.5483646619512115  0.6230368914826201  0.5587070345465577
  0.9062441489022390  0.6241519754787177  0.2338715563111435
  0.7508884121338752  0.6243618577883865  0.2019718309191276
  0.5953611461800179  0.6242592782880081  0.2342174351594934
  0.6558265838497306  0.7490614845005510  0.3172508324016050
  0.5007385152250521  0.7490781601986356  0.3045150707301971
  0.8461171138945573  0.7491523766042789  0.3170140013115059
  0.9023348771230388  0.7497887835885706  0.4025454643656374
  0.7509210117931744  0.7492086777129927  0.3894197359151335
  0.5999664026535143  0.7498139809598854  0.4032028398840311
  0.6521107289748045  0.7546468576611218  0.4863311693713257
  0.5009062685340595  0.7502706730764572  0.4755338033940717
  0.8526329841474194  0.7509043430371563  0.4876403130780034
  0.9106645232609694  0.7522757044456796  0.5675508764898041
  0.7595261729903484  0.7562010784206237  0.5574543518120834
  0.5899158677214871  0.7444607483651069  0.5622929467468509
  0.9066835763061789  0.7489034902778684  0.2334785134253679
  0.7510987100762208  0.7486965581082288  0.2011561359211456
  0.5953124413711208  0.7488824844036941  0.2337879312392559
  0.6562783163966088  0.8741685226504572  0.3164889093478891
  0.5012265873712991  0.8741028777201620  0.3035125791166351
  0.8466355676806785  0.8741770315566058  0.3163832349444888
  0.9032457362230772  0.8746971860505752  0.4022756164141938
  0.7516584118703378  0.8745173135621087  0.3885688485891166
  0.6003994385000766  0.8748586861579923  0.4026276459165175
  0.6528246422478219  0.8744381374441730  0.4874706651475407
  0.5021549198137762  0.8755800720692619  0.4760400416939277
  0.8536615991807821  0.8758964196499477  0.4876219197470988
  0.9108757023355167  0.8774162251342759  0.5670137942634454
  0.7539887521417583  0.8761573353539660  0.5562815839480564
  0.6008048134178310  0.8713766707239046  0.5657878863175441
  0.9069315179539430  0.8738874225610402  0.2329109489942596
  0.7512040378412124  0.8738476192975568  0.1996605539740699
  0.5956576816820771  0.8738428392348823  0.2330849256748166
  0.6557009440075205  0.4993007798158260  0.3178664741076034
  0.5006030089523108  0.4992125099269416  0.3040812328264835
  0.8450714286230792  0.4992753708561040  0.3177836010650594
  0.9005750601858651  0.4992062590402426  0.4026043163487216
  0.7496299974748482  0.4991164598695121  0.3924307193189591
  0.5994754929163619  0.4994254312208710  0.4029654580371798
  0.6418954362450648  0.4993636516935283  0.4889267268997415
  0.4981133352360985  0.4986031310984416  0.4741622286653921
  0.8529035207856737  0.4991945790302381  0.4873939059959085
  0.8926923444757549  0.4986092789562093  0.5740102476501221
  0.7529986133556008  0.4939746570752206  0.5415227848802218
  0.5742335891092125  0.5008840706524680  0.5677428366410240
  0.0060604519268068  0.1189050226575930  0.5435286293799280
  0.0077498094874713  0.2614733417842956  0.5408957606529441
  0.9831564899985068  0.3776455152565461  0.5388621391794999
  0.1366736292306285  0.3349359670127967  0.5434650602258699
  0.0044750368459745  0.0073361080596612  0.5436483790310973
  0.1073492252813324  0.4454332825541840  0.5382186311026871
  0.9923978886534002  0.6182370962847017  0.5382643025622897
  0.1158895239043218  0.5632837180590471  0.5363093147240363
  0.0012720963086679  0.7575083585986064  0.5405672756849640
  0.1262467769393396  0.6876395922530349  0.5361076267046343
  0.0043271886810032  0.8696124683614030  0.5440213121404796
  0.9789346228329521  0.4994076757015904  0.5390534383377243
  0.5066012430940887  0.1320536761685176  0.5429217776217286
  0.5056275915835755  0.2451326900151756  0.5401456029602230
  0.4814431986984431  0.3813921246430994  0.5386900807209969
  0.6306996962643794  0.3279484425411425  0.5428910352047964
  0.5046417460694315  0.9945628968121127  0.5430463408015456
  0.6060599682177070  0.4393681472834814  0.5365831921064057
  0.4602226995188943  0.6272648759780637  0.5351406808821224
  0.6014630761530739  0.5651529299280753  0.5387487922284819
  0.5000192135304147  0.7437650835625575  0.5402518344278491
  0.6114367535715530  0.6757731954700503  0.5418186657500925
  0.5058405581708030  0.8836840198957532  0.5447178773245938
  0.4874983746711337  0.4977844853069868  0.5394384084562276
  0.8183336067337876  0.5146647935506650  0.6184222560763217
  0.7197715489006740  0.5976820430291241  0.5958285081002686
  0.6819786172903122  0.4988355180225099  0.5883197993576559
  0.7116834498010576  0.5394311398337166  0.6599635272894417
 
  0.00000000E+00  0.00000000E+00  0.00000000E+00
  0.00000000E+00  0.00000000E+00  0.00000000E+00
  0.00000000E+00  0.00000000E+00  0.00000000E+00