POSCAR                                  
   1.00000000000000     
     6.3081340234826087   -0.0000000000000000   -0.0000000000000000
    -3.1540670117413043    5.4630043148128813    0.0000000000000000
    -0.0000000000000000    0.0000000000000000    9.9687147647682366
   Al   N    Li   V 
    14    16     1     1
Direct
  0.1688245963887062  0.3311754036112938 -0.0052272989865973
  0.6623503072225818  0.3311754036112938 -0.0052272989865973
  0.1688245963887062  0.8376496927774182 -0.0052272989865973
  0.6666664999999981  0.8333335000000019 -0.0047636060574524
  0.1722914935122868  0.3277085064877131  0.5067592532931459
  0.6554165129754204  0.3277085064877131  0.5067592532931459
  0.1722914935122868  0.8445834870245796  0.5067592532931459
  0.8414816398683538  0.1829627797367011  0.7473524432011321
  0.3170372202632991  0.6585183601316462  0.7473524432011321
  0.8414816398683538  0.6585183601316462  0.7473524432011321
  0.3333335000000019  0.1666664999999981  0.2395187867472466
  0.8338154242075824  0.1676303484151586  0.2419414237977029
  0.3323696515848414  0.6661845757924176  0.2419414237977029
  0.8338154242075824  0.6661845757924176  0.2419414237977029
  0.1643405405399125  0.3356594594600876  0.1921380789935864
  0.6713184189201693  0.3356594594600876  0.1921380789935864
  0.1643405405399125  0.8286815810798307  0.1921380789935864
  0.6666664999999981  0.8333335000000019  0.1895519164133699
  0.1607897405906583  0.3392102594093418  0.6882419642522986
  0.6784200188186778  0.3392102594093418  0.6882419642522986
  0.1607897405906583  0.8215799811813222  0.6882419642522986
  0.6666664999999981  0.8333335000000019  0.6784725952088971
  0.3333335000000019  0.1666664999999981  0.9606064763053729
  0.8325733059969481  0.1651461119938901  0.9396355821072170
  0.3348538880061100  0.6674266940030519  0.9396355821072170
  0.8325733059969481  0.6674266940030519  0.9396355821072170
  0.3333335000000019  0.1666664999999981  0.4350379545036310
  0.8298515450060215  0.1597025900120371  0.4395470686463785
  0.3402974099879628  0.6701484549939785  0.4395470686463785
  0.8298515450060215  0.6701484549939785  0.4395470686463785
  0.3333335000000019  0.1666664999999981  0.7546404037485610
  0.6666664999999981  0.8333335000000019  0.4957699272157816
 
  0.00000000E+00  0.00000000E+00  0.00000000E+00
  0.00000000E+00  0.00000000E+00  0.00000000E+00
  0.00000000E+00  0.00000000E+00  0.00000000E+00
  0.00000000E+00  0.00000000E+00  0.00000000E+00
  0.00000000E+00  0.00000000E+00  0.00000000E+00
  0.00000000E+00  0.00000000E+00  0.00000000E+00
  0.00000000E+00  0.00000000E+00  0.00000000E+00
  0.00000000E+00  0.00000000E+00  0.00000000E+00
  0.00000000E+00  0.00000000E+00  0.00000000E+00
  0.00000000E+00  0.00000000E+00  0.00000000E+00
  0.00000000E+00  0.00000000E+00  0.00000000E+00
  0.00000000E+00  0.00000000E+00  0.00000000E+00
  0.00000000E+00  0.00000000E+00  0.00000000E+00
  0.00000000E+00  0.00000000E+00  0.00000000E+00
  0.00000000E+00  0.00000000E+00  0.00000000E+00
  0.00000000E+00  0.00000000E+00  0.00000000E+00
  0.00000000E+00  0.00000000E+00  0.00000000E+00
  0.00000000E+00  0.00000000E+00  0.00000000E+00
  0.00000000E+00  0.00000000E+00  0.00000000E+00
  0.00000000E+00  0.00000000E+00  0.00000000E+00
  0.00000000E+00  0.00000000E+00  0.00000000E+00
  0.00000000E+00  0.00000000E+00  0.00000000E+00
  0.00000000E+00  0.00000000E+00  0.00000000E+00
  0.00000000E+00  0.00000000E+00  0.00000000E+00
  0.00000000E+00  0.00000000E+00  0.00000000E+00
  0.00000000E+00  0.00000000E+00  0.00000000E+00
  0.00000000E+00  0.00000000E+00  0.00000000E+00
  0.00000000E+00  0.00000000E+00  0.00000000E+00
  0.00000000E+00  0.00000000E+00  0.00000000E+00
  0.00000000E+00  0.00000000E+00  0.00000000E+00
  0.00000000E+00  0.00000000E+00  0.00000000E+00
  0.00000000E+00  0.00000000E+00  0.00000000E+00
