Ta  N  W Cu                             
   1.00000000000000     
    18.1096308199999996    0.0000000000000000    0.0000000000000000
     0.0000000000000000   23.3551997799999995    0.0000000000000000
     0.0000000000000000    0.0000000000000000   30.4818171199999988
   Ta   N    W    Cu
   192   240    48    29
Selective dynamics
Direct
  0.9998684700000000  0.9999069700000000  0.1944880900000000   F   F   F
  0.3297747300000000  0.0597485680000000  0.2006547500000000   F   F   F
  0.1708352300000000  0.0590136140000000  0.2014039600000000   F   F   F
  0.2495421400000000  0.1247873300000000  0.2797240500000000   F   F   F
  0.0820367580000000  0.0625028000000000  0.2823464400000000   F   F   F
  0.4170930100000000  0.0624270550000000  0.2822838000000000   F   F   F
  0.0018777582381615  0.1242454158791658  0.3698382361117771   T   T   T
  0.3342041056602186  0.0634526538107987  0.3664196481281271   T   T   T
  0.1671872725017501  0.0612371848034076  0.3686765444745968   T   T   T
  0.2509573410567172  0.1272214983703611  0.4535291002287836   T   T   T
  0.0874610048769919  0.0599845221932240  0.4559119463051086   T   T   T
  0.4153186750960008  0.0633507750333473  0.4523997644527328   T   T   T
  0.9996683800000000  0.1249319600000000  0.1955074600000000   F   F   F
  0.3297617300000000  0.1900048200000000  0.2008341900000000   F   F   F
  0.1707154800000000  0.1907185700000000  0.2015903000000000   F   F   F
  0.2489102900000000  0.2497093900000000  0.2803854200000000   F   F   F
  0.0820100510000000  0.1871763300000000  0.2826123400000000   F   F   F
  0.4170885600000000  0.1871920300000000  0.2824727800000000   F   F   F
  0.9996909255764206  0.2489510318167170  0.3677611885271043   T   T   T
  0.3304442199909132  0.1885757566947903  0.3679623962950511   T   T   T
  0.1674303860618485  0.1890618927771573  0.3659452426263380   T   T   T
  0.2508996653190790  0.2524954740991480  0.4549330145262234   T   T   T
  0.0869574377636033  0.1855906887296665  0.4528318661669800   T   T   T
  0.4157913081275362  0.1903033644930590  0.4534962392438709   T   T   T
  0.9998468900000000  0.2499137800000000  0.1949382200000000   F   F   F
  0.3298505000000000  0.3098032200000000  0.2009648100000000   F   F   F
  0.1707538900000000  0.3090051700000000  0.2017839000000000   F   F   F
  0.2495357800000000  0.3747643800000000  0.2800453700000000   F   F   F
  0.0820382640000000  0.3124676100000000  0.2827906100000000   F   F   F
  0.4170999400000000  0.3123823200000000  0.2826415200000000   F   F   F
  0.9999853794128247  0.3718470825875823  0.3659912674290736   T   T   T
  0.3291080493018378  0.3142059444670471  0.3677312475488568   T   T   T
  0.1659392051558305  0.3125441473633235  0.3678838392092390   T   T   T
  0.2499720712428364  0.3774164821793889  0.4543566180357541   T   T   T
  0.0795811685577589  0.3129405669581198  0.4545140255946375   T   T   T
  0.4146782525138599  0.3131951790776282  0.4527125645331280   T   T   T
  0.9996967800000000  0.3748497000000000  0.1958730500000000   F   F   F
  0.3297825500000000  0.4398418500000000  0.2010453200000000   F   F   F
  0.1707226500000000  0.4405544100000000  0.2017718400000000   F   F   F
  0.2489873100000000  0.9998188500000000  0.2800278900000000   F   F   F
  0.0819923750000000  0.4371124600000000  0.2827999400000000   F   F   F
  0.4170660300000000  0.4371642000000000  0.2826633900000000   F   F   F
  0.9991854946350204  0.9975676573766759  0.3671965008633291   T   T   T
  0.3339628204290101  0.4366534750890269  0.3665842714230370   T   T   T
  0.1665419200345632  0.4365004561300434  0.3686592344585879   T   T   T
  0.2512996391220949  0.0010772326561158  0.4517291793174387   T   T   T
  0.0810438349363613  0.4364415165819008  0.4513158811429864   T   T   T
  0.4194765792781330  0.4390610921055074  0.4545467459880119   T   T   T
  0.9998509799999999  0.4997637900000000  0.1950071700000000   F   F   F
  0.3298900200000000  0.5596915900000000  0.2008976100000000   F   F   F
  0.1707732400000000  0.5588989800000000  0.2016991600000000   F   F   F
  0.2496236800000000  0.6248958000000000  0.2797578500000000   F   F   F
  0.0820363900000000  0.5624933100000000  0.2826120900000000   F   F   F
  0.4170923900000000  0.5624259000000000  0.2825850300000000   F   F   F
  0.9967143211348883  0.6258970384624059  0.3680256399827456   T   T   T
  0.3354301236678231  0.5607891531144303  0.3659317291201186   T   T   T
  0.1666295043457700  0.5611509470888969  0.3689417958750424   T   T   T
  0.2502253292650997  0.6245901814998798  0.4529900853402712   T   T   T
  0.0817966277082259  0.5604320592413206  0.4543885451844594   T   T   T
  0.4187292699419370  0.5630086934164263  0.4519840110579828   T   T   T
  0.9996657500000000  0.6247565200000000  0.1956199900000000   F   F   F
  0.3297920800000000  0.6898969200000000  0.2007534100000000   F   F   F
  0.1707923400000000  0.6905799700000000  0.2014004600000000   F   F   F
  0.2490629300000000  0.7499133300000000  0.2801032100000000   F   F   F
  0.0820410510000000  0.6872092500000000  0.2824163900000000   F   F   F
  0.4171113100000000  0.6872312300000000  0.2824570400000000   F   F   F
  0.0001916021906918  0.7522219770600530  0.3693797252054349   T   T   T
  0.3324434207108369  0.6842806663669645  0.3664707819465725   T   T   T
  0.1663861832302629  0.6855593881926790  0.3681391408605486   T   T   T
  0.2526806966026363  0.7479813676359010  0.4552829046948811   T   T   T
  0.0819548205241921  0.6877207590972934  0.4538197028591418   T   T   T
  0.4166711436398081  0.6893614993589938  0.4519541929167727   T   T   T
  0.9998440200000001  0.7497280200000001  0.1946022900000000   F   F   F
  0.3298054800000000  0.8096846000000000  0.2006633900000000   F   F   F
  0.1708434300000000  0.8089247200000000  0.2013819100000000   F   F   F
  0.2496484200000000  0.8748411699999999  0.2795904800000000   F   F   F
  0.0820567240000000  0.8125139600000000  0.2822645100000000   F   F   F
  0.4171379800000000  0.8124644700000000  0.2823113800000000   F   F   F
  0.9999353665839384  0.8781416471197597  0.3669495049256118   T   T   T
  0.3375249975072172  0.8122080468487987  0.3669957745687267   T   T   T
  0.1716767524835351  0.8096732846595688  0.3666502899419161   T   T   T
  0.2490797946418519  0.8732047985030429  0.4536441735913925   T   T   T
  0.0819714942427211  0.8137724390143588  0.4525567145679682   T   T   T
  0.4155680495793139  0.8124772655842374  0.4542725802927471   T   T   T
  0.9996746800000000  0.8748181300000000  0.1952749400000000   F   F   F
  0.3297819400000000  0.9399956600000000  0.2005845600000000   F   F   F
  0.1708151300000000  0.9407073100000000  0.2012780500000000   F   F   F
  0.2489177400000000  0.4997914100000000  0.2803746400000000   F   F   F
  0.0820397620000000  0.9371948800000000  0.2822151700000000   F   F   F
  0.4171120900000000  0.9372004400000000  0.2822240300000000   F   F   F
  0.9974333379031605  0.4975450241857517  0.3678502507980898   T   T   T
  0.3346804507179127  0.9363672173547934  0.3684402200709819   T   T   T
  0.1724431359252333  0.9346040343219982  0.3674109132570945   T   T   T
  0.2501092915957734  0.5028095783231606  0.4540636961866560   T   T   T
  0.0849942689003523  0.9396664255180889  0.4514347407364792   T   T   T
  0.4173679286022886  0.9394354270684487  0.4572760612691222   T   T   T
  0.4998654700000000  0.9998603600000000  0.1944326900000000   F   F   F
  0.8298968000000000  0.0597804770000000  0.2006763700000000   F   F   F
  0.6709680300000000  0.0590080210000000  0.2013809700000000   F   F   F
  0.7496931000000000  0.1248009500000000  0.2797322300000000   F   F   F
  0.5820346500000000  0.0624839440000000  0.2822538700000000   F   F   F
  0.9171113500000000  0.0624582870000000  0.2823626800000000   F   F   F
  0.4976906444555910  0.1249379200565177  0.3685746682595948   T   T   T
  0.8306258631627300  0.0612255263212897  0.3675369368277000   T   T   T
  0.6627517503615645  0.0614128707896023  0.3668800110184162   T   T   T
  0.7508684610260148  0.1238330825996378  0.4492347260824308   T   T   T
  0.5816735991247587  0.0645516782401002  0.4526313896618285   T   T   T
  0.9201153181387857  0.0618006177955877  0.4533040116008433   T   T   T
  0.4996606700000000  0.1247787700000000  0.1954229400000000   F   F   F
  0.8300007300000000  0.1899965800000000  0.2008711900000000   F   F   F
  0.6709529100000000  0.1907703100000000  0.2015926200000000   F   F   F
  0.7491127000000000  0.2497311400000000  0.2803880900000000   F   F   F
  0.5820630100000000  0.1871581500000000  0.2824536700000000   F   F   F
  0.9171719800000000  0.1872281600000000  0.2826415400000000   F   F   F
  0.4950001618025903  0.2531038588829746  0.3681188600636716   T   T   T
  0.8337018473637513  0.1850891898779069  0.3659867549873523   T   T   T
  0.6661084199876087  0.1870525053524414  0.3668283825986016   T   T   T
  0.7526194780121612  0.2484805913754599  0.4520050252048359   T   T   T
  0.5869323411031701  0.1901920766852498  0.4506232441542483   T   T   T
  0.9141554613007998  0.1853346945100393  0.4522124087915282   T   T   T
  0.4998460400000000  0.2499131300000000  0.1948120100000000   F   F   F
  0.8300100300000000  0.3097448000000000  0.2010545900000000   F   F   F
  0.6708945400000000  0.3090880600000000  0.2017090700000000   F   F   F
  0.7497596900000000  0.3747625500000000  0.2800606200000000   F   F   F
  0.5820776700000000  0.3124437600000000  0.2826152300000000   F   F   F
  0.9171731400000001  0.3124151000000000  0.2828367700000000   F   F   F
  0.4955368824577444  0.3736348389102060  0.3712492665185680   T   T   T
  0.8299530640137986  0.3104846868997473  0.3666140399789647   T   T   T
  0.6620339243233859  0.3093843649907218  0.3654838322994913   T   T   T
  0.7515960150829240  0.3730417250590443  0.4522206926039951   T   T   T
  0.5789431149961055  0.3135707155783838  0.4512644810066619   T   T   T
  0.9128588826619866  0.3078889375795096  0.4542899364495160   T   T   T
  0.4996863800000000  0.3747354400000000  0.1957422400000000   F   F   F
  0.8300257400000000  0.4398096500000000  0.2010627500000000   F   F   F
  0.6709596400000000  0.4406180000000000  0.2017933100000000   F   F   F
  0.7490094900000001  0.9998385900000000  0.2800251200000000   F   F   F
  0.5821006700000000  0.4371303200000000  0.2826398600000000   F   F   F
  0.9171995900000000  0.4371847100000000  0.2828393800000000   F   F   F
  0.4991988882367706  0.0045324755502098  0.3689964017105796   T   T   T
  0.8307169646568296  0.4390552493772543  0.3638044642748280   T   T   T
  0.6659618961855196  0.4340284405854087  0.3668710638006369   T   T   T
  0.7499962524494511  0.9991422359814018  0.4553590660153441   T   T   T
  0.5822152335228133  0.4382300837770681  0.4515274839507924   T   T   T
  0.9140320068437623  0.4384410346870763  0.4518523758472959   T   T   T
  0.4998512100000000  0.4997851200000000  0.1949070800000000   F   F   F
  0.8299685100000000  0.5596469600000000  0.2009555000000000   F   F   F
  0.6708295800000000  0.5589624500000000  0.2016432400000000   F   F   F
  0.7496292100000000  0.6248897800000000  0.2797624000000000   F   F   F
  0.5820697500000001  0.5624911300000000  0.2825541000000000   F   F   F
  0.9171384800000000  0.5624515800000000  0.2826564300000000   F   F   F
  0.5022137583812533  0.6263862033771367  0.3677776089979596   T   T   T
  0.8287409985796854  0.5630184672660091  0.3675785092065389   T   T   T
  0.6669856675360289  0.5627789260829502  0.3681567725893647   T   T   T
  0.7486376464477709  0.6246781492336771  0.4572904188297239   T   T   T
  0.5849485624316610  0.5665348985282470  0.4515248050743701   T   T   T
  0.9172070710325894  0.5612782421017921  0.4526069608090967   T   T   T
  0.4996440900000000  0.6246593100000000  0.1956063700000000   F   F   F
  0.8298991800000000  0.6898584800000001  0.2006896900000000   F   F   F
  0.6708954400000000  0.6906277700000000  0.2014995200000000   F   F   F
  0.7489690300000000  0.7499300500000000  0.2801043200000000   F   F   F
  0.5820380900000000  0.6871946000000000  0.2824348800000000   F   F   F
  0.9171015400000000  0.6872580000000000  0.2824553300000000   F   F   F
  0.5000620933098046  0.7525775127990569  0.3693546982509072   T   T   T
  0.8297462982028463  0.6895990179697739  0.3668474980742198   T   T   T
  0.6624360424199861  0.6914586643363823  0.3699343740014553   T   T   T
  0.7475525703090234  0.7484084654601008  0.4546659808281682   T   T   T
  0.5824140588273468  0.6932387602476889  0.4565789001122998   T   T   T
  0.9207239720787310  0.6864850619305130  0.4511376943770740   T   T   T
  0.4998518200000000  0.7497296400000000  0.1946236100000000   F   F   F
  0.8298789400000000  0.8096920200000000  0.2006539600000000   F   F   F
  0.6709118400000000  0.8089177500000000  0.2014032000000000   F   F   F
  0.7495800700000000  0.8748454700000000  0.2795990100000000   F   F   F
  0.5820017300000000  0.8125131200000000  0.2822857200000000   F   F   F
  0.9170814500000000  0.8124686400000000  0.2822933700000000   F   F   F
  0.5022875787151061  0.8755361023629746  0.3671414377122332   T   T   T
  0.8365100631901728  0.8169496723948564  0.3666763480979336   T   T   T
  0.6695988245179284  0.8147785689044115  0.3679618400607116   T   T   T
  0.7495606340772238  0.8721418620189558  0.4549212705282233   T   T   T
  0.5812754560743960  0.8160041673812597  0.4553584996224853   T   T   T
  0.9142474277623476  0.8127610066590724  0.4535098897329933   T   T   T
  0.4996718400000000  0.8746962600000000  0.1952887700000000   F   F   F
  0.8298570500000000  0.9399763500000000  0.2005572400000000   F   F   F
  0.6709148000000000  0.9407531500000000  0.2013232400000000   F   F   F
  0.7491104400000000  0.4997855500000000  0.2803828900000000   F   F   F
  0.5820421300000000  0.9371651400000000  0.2821980800000000   F   F   F
  0.9171089100000001  0.9372317400000000  0.2822472600000000   F   F   F
  0.5045668637101415  0.5016966781957559  0.3695112180894134   T   T   T
  0.8328600704753099  0.9389512198146888  0.3665872158194028   T   T   T
  0.6696387451636789  0.9358744357675095  0.3656604986727011   T   T   T
  0.7497863820473252  0.4997767062777148  0.4542888977968472   T   T   T
  0.5820973073555419  0.9400106600070716  0.4525582952689464   T   T   T
  0.9204059175913345  0.9386624004100866  0.4513136909462984   T   T   T
  0.4049555600000000  0.9998355700000000  0.2305903300000000   F   F   F
  0.2508219000000000  0.9998754900000000  0.1763420100000000   F   F   F
  0.0940268810000000  0.9998654900000000  0.2308412900000000   F   F   F
  0.1521653500000000  0.1248786200000000  0.3152410700000000   F   F   F
  0.9995784900000000  0.1248296600000000  0.3015197400000000   F   F   F
  0.3469340200000000  0.1247919300000000  0.3150397800000000   F   F   F
  0.3934411366454829  0.1237670449094107  0.4007435635778411   T   T   T
  0.2466924562965076  0.1227693644552980  0.3837471836250775   T   T   T
  0.1005419198897659  0.1238136311505748  0.3998251582183866   T   T   T
  0.1577666515421582  0.1254594579591559  0.4902084863289387   T   T   T
  0.0026665541152572  0.1246407698448071  0.4729072477089765   T   T   T
  0.3474805068492427  0.1273363037538895  0.4874082237512489   T   T   T
  0.3980244362689549  0.1220377036719013  0.5718670308235082   T   T   T
  0.2523026145691167  0.1338746182152792  0.5619641644490785   T   T   T
  0.0997828894481604  0.1264195975183192  0.5732835161870209   T   T   T
  0.4053831300000000  0.1248534600000000  0.2305037800000000   F   F   F
  0.2500224000000000  0.1248897100000000  0.2093814200000000   F   F   F
  0.0943891790000000  0.1249748300000000  0.2304542700000000   F   F   F
  0.1518369200000000  0.2497854900000000  0.3157796200000000   F   F   F
  0.9995571599999999  0.2498209400000000  0.3017330900000000   F   F   F
  0.3470221800000000  0.2497991000000000  0.3154245600000000   F   F   F
  0.3975910280642548  0.2496236410037880  0.4027697694521980   T   T   T
  0.2459302510599479  0.2523921575985482  0.3902108194696777   T   T   T
  0.1008081010027123  0.2509248755746039  0.4010463747260127   T   T   T
  0.1546054280806797  0.2533740235428051  0.4858756703752182   T   T   T
  0.0002559063869602  0.2509451348717737  0.4737646881793088   T   T   T
  0.3500455548611778  0.2534590567758397  0.4858336993483310   T   T   T
  0.3989721718153665  0.2537099226472389  0.5666867100566828   T   T   T
  0.2517105474363336  0.2565608907533969  0.5588031681803761   T   T   T
  0.1085679788890311  0.2477626428250343  0.5668516986859998   T   T   T
  0.4048933400000000  0.2498613300000000  0.2308977000000000   F   F   F
  0.2508081000000000  0.2499354600000000  0.1767633000000000   F   F   F
  0.0940057750000000  0.2498542900000000  0.2312688400000000   F   F   F
  0.1522042600000000  0.3747740700000000  0.3156313300000000   F   F   F
  0.9995970000000000  0.3747787700000000  0.3019696300000000   F   F   F
  0.3468668100000000  0.3747084000000000  0.3154204100000000   F   F   F
  0.3968106434342319  0.3702777593194096  0.4019460986582722   T   T   T
  0.2465609053584637  0.3720251766353608  0.3870694679786470   T   T   T
  0.0980242073424404  0.3733465094049254  0.4007324486205276   T   T   T
  0.1567241382087012  0.3766587092345255  0.4844020606118047   T   T   T
  0.9992296648368685  0.3786467210264032  0.4730437077440986   T   T   T
  0.3455485989254379  0.3781698127889512  0.4856068904176198   T   T   T
  0.3985438855568479  0.3819065106132023  0.5688600250781521   T   T   T
  0.2562819297688815  0.3876828746942549  0.5594215683469730   T   T   T
  0.1015214016600144  0.3769382802451953  0.5686840623748186   T   T   T
  0.4053869300000000  0.3747687400000000  0.2308371100000000   F   F   F
  0.2500141200000000  0.3747987700000000  0.2097062800000000   F   F   F
  0.0944166850000000  0.3748341800000000  0.2308220000000000   F   F   F
  0.1517872100000000  0.9998148100000001  0.3152843000000000   F   F   F
  0.9995335700000000  0.9998557100000000  0.3011588700000000   F   F   F
  0.3471041000000000  0.9998232000000000  0.3150365800000000   F   F   F
  0.4023735715817989  0.0002025831046575  0.4009432754409324   T   T   T
  0.2551059055887859  0.0017516763798489  0.3859288068704050   T   T   T
  0.1000802549306485  0.9984558466341521  0.3999730162029939   T   T   T
  0.1583548764668218  0.9960358655610131  0.4895316765352740   T   T   T
  0.0063953417625943  0.0020913478890894  0.4731060539317730   T   T   T
  0.3471114192444257  0.0037682203565767  0.4878106263813392   T   T   T
  0.4011856250746176  0.0071424635099429  0.5678530339154728   T   T   T
  0.2547175491725301  0.0008012825249812  0.5648978918247800   T   T   T
  0.0991341288285378  0.9972796684361461  0.5665868205899602   T   T   T
  0.4048893800000000  0.4997664000000000  0.2309491100000000   F   F   F
  0.2508403200000000  0.4997097900000000  0.1768787800000000   F   F   F
  0.0940191350000000  0.4997320600000000  0.2312733000000000   F   F   F
  0.1522693900000000  0.6249131100000000  0.3152579500000000   F   F   F
  0.9995856500000000  0.6248635500000000  0.3015822600000000   F   F   F
  0.3468843100000000  0.6248470000000000  0.3151920800000000   F   F   F
  0.4002675885174819  0.6275433476948283  0.4021637082561149   T   T   T
  0.2462851332568555  0.6229522404834950  0.3860233462252896   T   T   T
  0.0913418901244313  0.6271265106852264  0.4021503335517567   T   T   T
  0.1539360529481065  0.6284889119445047  0.4868495461503414   T   T   T
  0.9980729797696822  0.6213428084456279  0.4737945760449027   T   T   T
  0.3456927203026853  0.6290152724487750  0.4883741266275343   T   T   T
  0.4017300791910365  0.6295132484616011  0.5662618066388356   T   T   T
  0.2511127652495166  0.6302224610629834  0.5580503097953634   T   T   T
  0.1003493823351592  0.6308469578249597  0.5728576658558290   T   T   T
  0.4053651900000000  0.6247221600000000  0.2306899000000000   F   F   F
  0.2500554000000000  0.6247398100000000  0.2093754300000000   F   F   F
  0.0944418520000000  0.6247689300000000  0.2305235900000000   F   F   F
  0.1518715200000000  0.7498642700000000  0.3153637500000000   F   F   F
  0.9995422400000000  0.7498582100000000  0.3012351700000000   F   F   F
  0.3470988500000000  0.7499071300000000  0.3152189600000000   F   F   F
  0.4003870997492973  0.7487670191964814  0.4005588273236653   T   T   T
  0.2504780978331679  0.7462502930788802  0.3877238376811928   T   T   T
  0.0958091288528064  0.7506298278307860  0.3977736129224752   T   T   T
  0.1547962450735045  0.7492189888562687  0.4879079839604921   T   T   T
  0.0054248957788465  0.7459066180842144  0.4735223342551990   T   T   T
  0.3508134935387241  0.7494060485301470  0.4849573536786275   T   T   T
  0.3973639651505638  0.7572427162684757  0.5690104872257238   T   T   T
  0.2454808397567411  0.7534134868194479  0.5599396541486423   T   T   T
  0.0992920162144288  0.7458909974599873  0.5729829685366705   T   T   T
  0.4049086100000000  0.7497919600000000  0.2307211100000000   F   F   F
  0.2508404900000000  0.7496900399999999  0.1764596600000000   F   F   F
  0.0940430400000000  0.7497799900000000  0.2309080700000000   F   F   F
  0.1522006100000000  0.8748911300000000  0.3149860000000000   F   F   F
  0.9995798700000000  0.8748409200000000  0.3012252000000000   F   F   F
  0.3470208700000000  0.8748053099999999  0.3149488900000000   F   F   F
  0.4076216849335554  0.8743379616641257  0.4017188905639555   T   T   T
  0.2520815280881739  0.8705513209556330  0.3870863489722028   T   T   T
  0.0994965338329128  0.8724241004222517  0.4014423276441466   T   T   T
  0.1503416300310116  0.8712323867572490  0.4848046893354516   T   T   T
  0.0061248653645846  0.8768877006258027  0.4694633727318874   T   T   T
  0.3434703545043237  0.8774856281888587  0.4893897067699675   T   T   T
  0.3999541972056002  0.8699141385453691  0.5673507978478977   T   T   T
  0.2454895135560214  0.8819781513881232  0.5547476349342817   T   T   T
  0.0945420703784495  0.8768701823798034  0.5721017206518826   T   T   T
  0.4054178300000000  0.8747665500000000  0.2303799300000000   F   F   F
  0.2500641700000000  0.8748061499999999  0.2092751400000000   F   F   F
  0.0943992620000000  0.8748482300000000  0.2301903800000000   F   F   F
  0.1518211900000000  0.4997874800000000  0.3157428600000000   F   F   F
  0.9995563300000000  0.4998205400000000  0.3016910300000000   F   F   F
  0.3469781400000000  0.4997988900000000  0.3154536000000000   F   F   F
  0.4029583930323528  0.4958270422079201  0.4001103839023916   T   T   T
  0.2540534228012953  0.4980286311792105  0.3838303065006420   T   T   T
  0.0996309003493625  0.5001525636263142  0.4018486505492566   T   T   T
  0.1542484185327750  0.5061652678614110  0.4869396795519434   T   T   T
  0.0013655173856955  0.4992912836398963  0.4733984931363509   T   T   T
  0.3460385116652485  0.5042717270143989  0.4835820741299837   T   T   T
  0.3981701225934374  0.5031186680359390  0.5668592010714710   T   T   T
  0.2490629501459404  0.5079967836421592  0.5594307702876666   T   T   T
  0.1053759628214885  0.5024409935006531  0.5727266142838930   T   T   T
  0.9049397700000000  0.9998642300000000  0.2306263700000000   F   F   F
  0.7510004300000001  0.9998925000000000  0.1763494100000000   F   F   F
  0.5940198700000000  0.9998493100000000  0.2307953300000000   F   F   F
  0.6522432800000000  0.1247985800000000  0.3151317000000000   F   F   F
  0.4995794800000000  0.1247880500000000  0.3013372500000000   F   F   F
  0.8470165500000000  0.1248883700000000  0.3151459500000000   F   F   F
  0.9029271395601181  0.1192529770170185  0.4012019996390399   T   T   T
  0.7514504356383723  0.1239893064094181  0.3838014442262456   T   T   T
  0.5967962073229238  0.1280788960159679  0.4002178673105447   T   T   T
  0.6519706532230093  0.1232457111096720  0.4844922708070580   T   T   T
  0.4946694196305466  0.1285419229472231  0.4723230097848810   T   T   T
  0.8421509405127010  0.1207709996873652  0.4838198776649638   T   T   T
  0.9036234980605315  0.1217817870728642  0.5670165510853926   T   T   T
  0.7374303338660099  0.1162392784726015  0.5640081711539149   T   T   T
  0.5950941693168589  0.1265899001096106  0.5652276041578804   T   T   T
  0.9054458000000000  0.1249732300000000  0.2306286200000000   F   F   F
  0.7501647200000000  0.1249178400000000  0.2093803500000000   F   F   F
  0.5944381600000000  0.1248669800000000  0.2303195200000000   F   F   F
  0.6519195400000000  0.2498206300000000  0.3156334400000000   F   F   F
  0.4995444300000000  0.2498191300000000  0.3014768800000000   F   F   F
  0.8471336400000000  0.2497922500000000  0.3155718100000000   F   F   F
  0.8957733939277185  0.2488094029790486  0.4031520324328504   T   T   T
  0.7497011702766527  0.2512071712457141  0.3857908560797320   T   T   T
  0.5920131485327269  0.2493937609465457  0.3992309425334948   T   T   T
  0.6543760072952817  0.2512643763094643  0.4857128813436742   T   T   T
  0.4985826871684139  0.2554928337497006  0.4689664101452573   T   T   T
  0.8488026215284328  0.2463859913447637  0.4875240777209515   T   T   T
  0.8992329501021891  0.2434584386006424  0.5672327857036720   T   T   T
  0.7561572279279106  0.2552007675184416  0.5590886373322125   T   T   T
  0.6003195268126060  0.2515578183959391  0.5655816786595202   T   T   T
  0.9049924700000000  0.2498725900000000  0.2310739200000000   F   F   F
  0.7510251500000000  0.2499497500000000  0.1767930500000000   F   F   F
  0.5940561700000000  0.2498807500000000  0.2311115800000000   F   F   F
  0.6523514600000000  0.3747251000000000  0.3155026700000000   F   F   F
  0.4995937300000000  0.3747687400000000  0.3016751200000000   F   F   F
  0.8470253400000000  0.3747776500000000  0.3155614700000000   F   F   F
  0.9049043385681105  0.3664103242777893  0.3999958958600842   T   T   T
  0.7459893226097053  0.3710842418968692  0.3862697266433363   T   T   T
  0.5956531782965997  0.3774121948896098  0.3995835883991689   T   T   T
  0.6533908863278964  0.3742413205921238  0.4849033795818943   T   T   T
  0.5053289078294491  0.3795538583821333  0.4749282154987324   T   T   T
  0.8543318097087869  0.3791846896463911  0.4880431214015852   T   T   T
  0.9060888993164883  0.3738289048137188  0.5680607727966988   T   T   T
  0.7577332608788983  0.3803555484895396  0.5601246533153564   T   T   T
  0.6058082572747678  0.3770282750305854  0.5692195981118660   T   T   T
  0.9054622700000000  0.3748350600000000  0.2310060900000000   F   F   F
  0.7502280600000000  0.3748085600000000  0.2097154400000000   F   F   F
  0.5944702500000000  0.3747930800000000  0.2306562800000000   F   F   F
  0.6518090400000000  0.9998420900000000  0.3152520300000000   F   F   F
  0.4995385700000000  0.9998510400000000  0.3010996500000000   F   F   F
  0.8471249400000000  0.9998098800000000  0.3150678400000000   F   F   F
  0.9025208352843684  0.0011140354751794  0.3994984931159861   T   T   T
  0.7477645712559069  0.0036665922363832  0.3864253986074899   T   T   T
  0.5984561645537210  0.9995314064077797  0.4048388113834100   T   T   T
  0.6449954266013235  0.0050238248429896  0.4879356645053153   T   T   T
  0.4937710299881001  0.0016638290320182  0.4744346278638041   T   T   T
  0.8502781269004118  0.9956567250596063  0.4845824660882851   T   T   T
  0.8995213799674182  0.9953812114684205  0.5712085656123913   T   T   T
  0.7478510952282788  0.0000086507662740  0.5556372599864254   T   T   T
  0.5968565005393287  0.9986400857300910  0.5671252015166671   T   T   T
  0.9049510700000000  0.4997515300000000  0.2310859100000000   F   F   F
  0.7510087900000000  0.4997261200000000  0.1769035900000000   F   F   F
  0.5940443000000000  0.4997860900000000  0.2311625200000000   F   F   F
  0.6522985400000000  0.6248530100000000  0.3152839100000000   F   F   F
  0.4995804000000000  0.6248114700000000  0.3015407100000000   F   F   F
  0.8469128299999999  0.6249132900000000  0.3151858400000000   F   F   F
  0.8939989395993655  0.6282211064742264  0.4001319519349289   T   T   T
  0.7458754855070083  0.6249628543045962  0.3883203879511065   T   T   T
  0.5956061088890999  0.6295019496722275  0.4029605966092126   T   T   T
  0.6536172112685331  0.6306297141147195  0.4886595731295056   T   T   T
  0.4969880907981961  0.6316763019361450  0.4745430033051194   T   T   T
  0.8467813315306985  0.6253327785993568  0.4907709770484989   T   T   T
  0.9033296249187972  0.6259186704863112  0.5732379733317712   T   T   T
  0.7662453419319893  0.6211250561492718  0.5626574092240977   T   T   T
  0.6024006954306051  0.6270725923310453  0.5669249615457104   T   T   T
  0.9053956900000000  0.6247859300000000  0.2307139500000000   F   F   F
  0.7501505200000000  0.6247391400000000  0.2093873600000000   F   F   F
  0.5944410000000000  0.6247200700000000  0.2305069300000000   F   F   F
  0.6518259199999999  0.7499150300000000  0.3154253900000000   F   F   F
  0.4995331300000000  0.7498798500000000  0.3013058000000000   F   F   F
  0.8470629900000000  0.7498637400000000  0.3151663300000000   F   F   F
  0.8996686583225900  0.7477189453052970  0.3972160166681138   T   T   T
  0.7532775504965665  0.7541460563848427  0.3873884375414096   T   T   T
  0.6050752539028128  0.7548817712736305  0.4049630136716278   T   T   T
  0.6555477540690128  0.7588220872760182  0.4904143471397461   T   T   T
  0.4984087443854173  0.7492448586907299  0.4756314172017775   T   T   T
  0.8430850182544026  0.7521802616156680  0.4850246147229186   T   T   T
  0.8998945025933951  0.7427563955938217  0.5719222543929243   T   T   T
  0.7542879246942128  0.7533886669357479  0.5618743712206667   T   T   T
  0.6010889009627274  0.7528891115056618  0.5710877799200482   T   T   T
  0.9049076300000000  0.7497928000000000  0.2307033300000000   F   F   F
  0.7509635600000000  0.7496895300000000  0.1764787000000000   F   F   F
  0.5940257799999999  0.7497952700000000  0.2309328300000000   F   F   F
  0.6521560500000000  0.8748093300000001  0.3150315400000000   F   F   F