Ta  N Cu                                
   1.00000000000000     
    18.1096308199999996    0.0000000000000000    0.0000000000000000
     0.0000000000000000   23.3551997799999995    0.0000000000000000
     0.0000000000000000    0.0000000000000000   30.4818170799999990
   Ta   N    Cu
   240   240     3
Direct
  0.9999881866719125  0.9999833886696887  0.1973134163942886
  0.3342044724479089  0.0625011614927666  0.2025675163929178
  0.1657987087826100  0.0624845548031097  0.2025655020450177
  0.2500106279859380  0.1249893989135371  0.2778807598186226
  0.0827702495442894  0.0624816963627067  0.2838977295456192
  0.4172241583525402  0.0624940466253910  0.2839048471602113
  0.0000163468027894  0.1249560544496830  0.3695533275581243
  0.3321306470759614  0.0624456710304615  0.3682922301508136
  0.1678620186192157  0.0624468770169348  0.3682873851927475
  0.2499478396768221  0.1249123829718908  0.4556250457853564
  0.0839233731609074  0.0623945570421418  0.4542165030545559
  0.4160674032625660  0.0623634358277420  0.4542379863161919
  0.9999246331252835  0.1250450336571023  0.5405298152364070
  0.3351611371446692  0.0621085347038009  0.5425340254470387
  0.1647660798516216  0.0623869050384599  0.5425525527671740
  0.9999753401397641  0.1250146877990907  0.1973294441323966
  0.3341799996668591  0.1875112430270259  0.2025926701424935
  0.1658380997747493  0.1875024454286239  0.2025943686678077
  0.2500258697697547  0.2499918083917140  0.2779175724502732
  0.0827671539577975  0.1874800678194619  0.2839036132166905
  0.4172136295443487  0.1874969180377695  0.2839397595568347
  0.0000549088062138  0.2499336596103330  0.3695817380290025
  0.3321230066350815  0.1874471910145605  0.3683089240569747
  0.1679087603663099  0.1874353113700341  0.3682737991202482
  0.2498741773281993  0.2499300262451590  0.4556332784054986
  0.0839193533891667  0.1873373133741040  0.4542196253773348
  0.4160387151235523  0.1872734446756761  0.4542401712369682
  0.9997223458912213  0.2500371139749236  0.5404229852805261
  0.3350089098820802  0.1866280215003336  0.5424921829876342
  0.1648082337483306  0.1872320729742846  0.5424422031551637
  0.9999664385314168  0.2499843555110946  0.1973432092280620
  0.3341903933494785  0.3125194676962212  0.2026244025075607
  0.1658406220114821  0.3125063299351670  0.2026220172648918
  0.2500848337626550  0.3749982145987782  0.2779255145014756
  0.0827721354897381  0.3125005313734449  0.2839241969265113
  0.4172373799905135  0.3125023921504988  0.2839852732956361
  0.0001290529987972  0.3749807519533590  0.3696774860853853
  0.3322302680281873  0.3124591423318528  0.3684044188176907
  0.1679120162467821  0.3124384915236622  0.3682843084309499
  0.2498827038666062  0.3748954594786958  0.4554330202487508
  0.0841239963582698  0.3122757020178478  0.4542880684041701
  0.4159711088043027  0.3122361576438951  0.4544694737427712
  0.9994518521306587  0.3749959247081580  0.5401702093204106
  0.3348169584087622  0.3105478158004685  0.5428682810838223
  0.1632005652300852  0.3118660067832228  0.5427908565679461
  0.9999628486030963  0.3750484784767547  0.1973846763205570
  0.3342412510654446  0.4375073944163511  0.2025995399437907
  0.1657600942722562  0.4375050038505010  0.2025950026738921
  0.2499917154642341  0.9999764151403053  0.2778630296369569
  0.0827901394058082  0.4375013859281405  0.2839155810524926
  0.4172479736900647  0.4374995492486795  0.2840393234333843
  0.9999867991047757  0.9999834021142407  0.3695515229572481
  0.3325224313959815  0.4374866099380639  0.3684842565596362
  0.1679844649143834  0.4374936701091051  0.3682337604565016
  0.2499839277859906  0.9999394743526684  0.4556539156310600
  0.0840121537547094  0.4374915932541720  0.4542203628807600
  0.4159990649716721  0.4374710723554210  0.4547065224337967
  0.9999709991460010  0.9999622633616060  0.5405948035317206
  0.3344093239279351  0.4374653684294858  0.5396360206109908
  0.1607103780821932  0.4374785984002831  0.5413691069782975
  0.9999660413344330  0.4999586886142057  0.1973886570395657
  0.3341808016066082  0.5624862523267288  0.2026281262790766
  0.1658455401329151  0.5624942131664369  0.2026251429605955
  0.2500288132176200  0.6250003430287185  0.2779320673109118
  0.0827745333466400  0.5625000565223470  0.2839345214460420
  0.4172362617041590  0.5624929429356620  0.2839899802092157
  0.0000595936770195  0.6250577087578858  0.3695878210722469
  0.3322309707017340  0.5625131556690304  0.3684149538882820
  0.1679173756557855  0.5625456551687624  0.3682957982955550
  0.2498770819754803  0.6250314015549188  0.4556444112078241
  0.0841245559113079  0.5627084328471303  0.4543002852196653
  0.4159672782719995  0.5627184886476058  0.4544705441689360
  0.9997159868170219  0.6249292669896760  0.5404278385440349
  0.3347856638820014  0.5643614373384737  0.5428766369793606
  0.1631862762823323  0.5630827666336874  0.5428074276959677
  0.9999713699409325  0.6250206095181318  0.1973506572558528
  0.3341826337171273  0.6874846180945394  0.2025987448118282
  0.1658367746043004  0.6874985299657758  0.2025970904335887
  0.2500162374188594  0.7499947645450096  0.2778950868706292
  0.0827733685519077  0.6875159277861159  0.2839149841964598
  0.4172129206386509  0.6874896111502241  0.2839549986818865
  0.0000232601505279  0.7500305878337260  0.3695579016183145
  0.3321268313308817  0.6875232224673611  0.3683216388379280
  0.1679191884366837  0.6875410566624245  0.3682836146121917
  0.2499599230758743  0.7500479469944036  0.4556397504648990
  0.0839225589972707  0.6876348215497788  0.4542275494755099
  0.4160388117150269  0.6876725747379678  0.4542619179087896
  0.9999291985613774  0.7499180567264692  0.5405342138086087
  0.3350061719594180  0.6882760685631316  0.5425162318376385
  0.1647949348345546  0.6877208746712676  0.5424563220991513
  0.9999808846090691  0.7499827904741292  0.1973317667776264
  0.3342032322251959  0.8124885819926148  0.2025738321658045
  0.1658018688638646  0.8125096456283502  0.2025710203936374
  0.2499911802559844  0.8750066923260384  0.2778693466861969
  0.0827744785313996  0.8125081927797367  0.2839044596367997
  0.4172245520889014  0.8124876227763861  0.2839146644745794
  0.9999899664345367  0.8750031315794011  0.3695546141481482
  0.3321330729268739  0.8125208113486255  0.3683020492459965
  0.1678691850667651  0.8125263861274078  0.3682961151430306
  0.2499906872738314  0.8750226076185378  0.4556619638133796
  0.0839318406374097  0.8125726306329274  0.4542209258557255
  0.4160662771081747  0.8125834739880128  0.4542532749898314
  0.9999687804521599  0.8750003919203839  0.5405930953763526
  0.3351700398856984  0.8127963464878565  0.5425496106246155
  0.1647636696584966  0.8125608627681262  0.5425598233024324
  0.9999873918180355  0.8750097155195781  0.1973135756994256
  0.3341844788571056  0.9374936351721626  0.2025501397308043
  0.1657911348515533  0.9374956663054748  0.2025434837227010
  0.2500868085835493  0.4999980826229456  0.2779321129553837
  0.0827828220991015  0.9374931070597624  0.2838792537267000
  0.4172078017079193  0.9374909779524312  0.2838906827873985
  0.0001331589027570  0.5000125329677434  0.3696843495279915
  0.3321222165119883  0.9374805509363597  0.3682651085026537
  0.1678748291630096  0.9374874643510370  0.3682759066425584
  0.2498807681737862  0.5000643389800228  0.4554410059230358
  0.0838641408399458  0.9374887558583354  0.4542406219554341
  0.4161118203353636  0.9374735328772874  0.4542285900535738
  0.9994530854613305  0.4999697964395571  0.5401735439511792
  0.3351080717831269  0.9374464051961868  0.5425099168162478
  0.1648464526812952  0.9374686283754063  0.5425169412198895
  0.5000062904954183  0.9999698013757756  0.1973192560346924
  0.8341888421167101  0.0624874653288887  0.2025729092701340
  0.6657765768299335  0.0625133597894570  0.2025724363265756
  0.7499714350397503  0.1250041568222594  0.2778930375443703
  0.5827648579063758  0.0624995720427064  0.2839168856870256
  0.9172053976246030  0.0624871354893813  0.2839085501267875
  0.4999639024879948  0.1249280499070668  0.3695718461121014
  0.8321067490109327  0.0624718733378752  0.3682862497163669
  0.6678531437500111  0.0624768648841983  0.3682938376000714
  0.7500246069937040  0.1249628367570805  0.4556548737622961
  0.5838900941981396  0.0624100404155217  0.4542171016538303
  0.9161090868995131  0.0624268388346926  0.4541961242166164
  0.5000262641839658  0.1249936651513583  0.5405738029755156
  0.8351364490700472  0.0625634650429751  0.5425217688909844
  0.6648319989424487  0.0623635753460545  0.5425219917081294
  0.5000073008126223  0.1249893564511028  0.1973376920064643
  0.8341426075321383  0.1875125054520154  0.2026003575584561
  0.6658078053080947  0.1875265729638852  0.2025974732189846
  0.7499402772315267  0.2500298154881853  0.2779640499541455
  0.5827442196832532  0.1875040231962740  0.2839539307072692
  0.9172224889940125  0.1874902651964619  0.2839230906958590
  0.4999362588521520  0.2499970167700002  0.3696499534906935
  0.8320708562851848  0.1874684226478717  0.3682866146185352
  0.6678266832789553  0.1874984922394742  0.3683204098240204
  0.7500847933767892  0.2498989731116207  0.4556404560544368
  0.5838107699553747  0.1873394697392939  0.4542079777096055
  0.9161901838694384  0.1873558903929198  0.4541639230984227
  0.5002648550708643  0.2499347063333288  0.5404243342798508
  0.8352074976490885  0.1877012173713393  0.5423715970753613
  0.6649905612459142  0.1871909213179586  0.5424238021453234
  0.5000047991702179  0.2499914133515668  0.1973767887835345
  0.8341385650377968  0.3125253916014237  0.2026450364794726
  0.6658111883104444  0.3125183658760722  0.2026423673109260
  0.7498930031266628  0.3749883027947971  0.2780116946467441
  0.5827485617753954  0.3125052546631801  0.2839997379713249
  0.9171982217447983  0.3125118652021756  0.2839439281991635
  0.4999052573195548  0.3749451859545240  0.3697695177629592
  0.8320433585655156  0.3124802174289222  0.3683070401025619
  0.6677580290101867  0.3125113721012521  0.3684431587251779
  0.7500462578361593  0.3749868462873850  0.4557718568804617
  0.5837830882624130  0.3123890409737420  0.4543945113317365
  0.9162103718242104  0.3123486308669144  0.4541181900319083
  0.5007457505815268  0.3757749955641839  0.5411443754381438
  0.8359233263565515  0.3128513046647720  0.5422099572284725
  0.6659207356028979  0.3117611014318604  0.5424198370870660
  0.5000235147500361  0.3750515098233203  0.1974063647943939
  0.8341905304533421  0.4375008663685127  0.2026327530915231
  0.6657820299752168  0.4375062642114051  0.2026267957629056
  0.7499954780182092  0.9999879944758000  0.2778666051931448
  0.5826981625864186  0.4374977707679593  0.2840766920086534
  0.9172289830617074  0.4375039751356248  0.2839688321311931
  0.4999987162737606  0.9999682443904672  0.3695533477897396
  0.8319812649085619  0.4374978672969023  0.3683148953214839
  0.6674711698405860  0.4374928267624635  0.3685805986016590
  0.7499803130566587  0.9999650149968291  0.4556741098637746
  0.5835939076721601  0.4374780809706807  0.4547732144415116
  0.9164418691171373  0.4374940583132221  0.4541754839264406
  0.5000020980033004  0.9999639509627321  0.5405639226529431
  0.8365067364923393  0.4374870991541218  0.5421059621190977
  0.6686456164576116  0.4374809375610153  0.5409093022429954
  0.5000206235504687  0.4999529527689506  0.1974099229022543
  0.8341433521400231  0.5624760996455719  0.2026529324746377
  0.6658104067288260  0.5624876516659072  0.2026491077912923
  0.7499363157233551  0.6249685140235943  0.2779774007988422
  0.5827462597604044  0.5624893525810460  0.2840032167703184
  0.9172000604019273  0.5624931011850226  0.2839521456924679
  0.4999311898812822  0.6249768437533975  0.3696633896381369
  0.8320392297819048  0.5625139978624499  0.3683145026720955
  0.6677555627219013  0.5624732317993018  0.3684500294698880
  0.7500822748870355  0.6250775381569053  0.4556480678660864
  0.5837808125252061  0.5625671818596605  0.4544011482330405
  0.9162064931889962  0.5626352885653230  0.4541220865066974
  0.5002574745942063  0.6250092378346362  0.5404403990178249
  0.8359174157176334  0.5621304244346382  0.5422116526033458
  0.6659178532250438  0.5632000743818242  0.5424290831166746
  0.5000018547757812  0.6250116003181080  0.1973876653591822
  0.8341448736346160  0.6874878261280228  0.2026028285507603
  0.6658042239963144  0.6874697378652563  0.2026049546019915
  0.7499662182122051  0.7499870138646823  0.2779049703098468
  0.5827417927706678  0.6874862299905216  0.2839666289931994
  0.9172250122861275  0.6875078486011993  0.2839314651423236
  0.4999587213571282  0.7500477616527752  0.3695772273197640
  0.8320658931718955  0.6875231747708566  0.3682956063488344
  0.6678212666866183  0.6874810963013710  0.3683315235727029
  0.7500187502548415  0.7500160531833219  0.4556643758695019
  0.5838071221244395  0.6876189857258942  0.4542221096403284
  0.9161879438087650  0.6876237266182473  0.4541650668503590
  0.5000307856334851  0.7499481147425250  0.5405947814375450
  0.8352042203156759  0.6872806318063145  0.5423758836093757
  0.6649923233877263  0.6877721140049188  0.5424360396668240
  0.5000022207631860  0.7500043815905093  0.1973477037524458
  0.8341870808038875  0.8125076916891468  0.2025774371994715
  0.6657756689667631  0.8124784267497529  0.2025781339266556
  0.7499934384398105  0.8749997828954533  0.2778713439938418
  0.5827625092176582  0.8124844950742319  0.2839233314461269
  0.9172075022153601  0.8125055568943330  0.2839132655685575
  0.4999965032671108  0.8750045083579833  0.3695558258885703
  0.8321027649156411  0.8125123652144967  0.3682915668997143
  0.6678490856486508  0.8124991618309154  0.3682975351019317
  0.7499870897962828  0.8750142910482648  0.4556730671558652
  0.5838900781044152  0.8125441546380845  0.4542262876876478
  0.9161111890086249  0.8125538520249771  0.4541993296862007
  0.5000154250539407  0.8749819347754394  0.5405747996543464
  0.8351400675311282  0.8124103782279679  0.5425246252133231
  0.6648493555210718  0.8126001819124794  0.5425284862041162
  0.5000039573774490  0.8750222543659788  0.1973206725809984
  0.8341865751835166  0.9374964423401513  0.2025452417432437
  0.6657978127576666  0.9374945211842075  0.2025472527247847
  0.7498911296768150  0.5000142145082713  0.2780178991764720
  0.5827821682041722  0.9374922695836395  0.2838950052935983
  0.9172029117571698  0.9374952515097372  0.2838907895275756
  0.4998975709990859  0.5000297164181866  0.3697750300284884
  0.8320967704508274  0.9374926556248394  0.3682874167835206
  0.6678763014078352  0.9374881645087766  0.3682776898024781
  0.7500468524294749  0.4999905079993328  0.4557755699925388
  0.5838643716662034  0.9374788501006666  0.4542254091193412
  0.9161385170979832  0.9374914232307927  0.4542393627619775
  0.5007615303679350  0.4991773159518764  0.5411356879981573
  0.8350880669944073  0.9374894615166816  0.5424846733264751
  0.6649111608734353  0.9374798051885181  0.5425000151229860
  0.4056071738459948  0.0000042781423767  0.2321611094520965
  0.2500200225664964  0.0000034687319733  0.1991737119418509
  0.0943693987051494  0.0000027473474480  0.2321569639288741
  0.1549154837584868  0.1249650317270920  0.3156659385895876
 -0.0000020161058993  0.1249814579408201  0.3028840181158674
  0.3450804791654601  0.1249707187523001  0.3156973264759092
  0.4009150706051807  0.1249064926632272  0.4020029287995261
  0.2499965300402990  0.1249419614475469  0.3875585388065385
  0.0990928259075808  0.1249321542871405  0.4019750738130073
  0.1514342848344037  0.1248439999703841  0.4876655799142557
  0.0000249553917835  0.1248736996179352  0.4723570039802767
  0.3485211763821753  0.1247657847148389  0.4876933561931586
  0.4030746545149805  0.1247961047819067  0.5702049092882415
  0.2499785816679981  0.1249226511154716  0.5577468654880876
  0.0968614166495856  0.1249910241854945  0.5701203592199859
  0.4056236490324763  0.1250128010373901  0.2321801781439969
  0.2500104312612618  0.1249878114704951  0.1992067259180421
  0.0943666055268256  0.1249908219286858  0.2321585740619276
  0.1549076687279782  0.2499629421098706  0.3156899754761459
  0.0000058518332089  0.2500037176788992  0.3029092145504967
  0.3450757840758453  0.2499959239560283  0.3157345996912330
  0.4009160915475068  0.2499411185361220  0.4021001196616606
  0.2500307889499501  0.2498862497774217  0.3875565952766245
  0.0991448639737866  0.2498955194117139  0.4019975117572401
  0.1515341251839953  0.2496909995294943  0.4878235408381723
  0.0000602743817382  0.2498533239896337  0.4722593590455798
  0.3483322001195979  0.2496163718049594  0.4877590708527410
  0.4029688325609566  0.2497730979513129  0.5701964636869717
  0.2499287128164711  0.2504440308602375  0.5580990741629918
  0.0966443935559152  0.2498070160752779  0.5702868002001532
  0.4056331896415021  0.2500303581982107  0.2322104861508933
  0.2500041564878969  0.2500193107595304  0.1991916192648512
  0.0943515751449713  0.2500055419772580  0.2321701712589175
  0.1549655773752239  0.3749834253042200  0.3157096344285658
  0.0000191158276549  0.3750102440486202  0.3029859909521737
  0.3451210125164886  0.3749664091001418  0.3157875320091428
  0.4009038238003022  0.3749183481626502  0.4022728991109935
  0.2501473215206705  0.3750012773866928  0.3874911797798736
  0.0993455460135697  0.3749244496197554  0.4019574812989672
  0.1516874610326689  0.3744320992263557  0.4879327215969814
  0.0001519516720805  0.3748448401963511  0.4720181772915547
  0.3482270003278241  0.3739852313971820  0.4881677291948027
  0.4011844430931965  0.3737133497258132  0.5714898652607595
  0.2485477850358411  0.3762020576276069  0.5613601440160110
  0.0954857423378200  0.3746411574371649  0.5705143292865411
  0.4056500599653138  0.3750262113944857  0.2322490809992089
  0.2499973810733139  0.3750255712100222  0.1993144132755081
  0.0943723351231388  0.3750107923026868  0.2322050673140069
  0.1549017248492347  0.9999805471232547  0.3156644722445018
  0.9999908420956719  0.9999862062246170  0.3028712247626420
  0.3450871309179043  0.9999868913790452  0.3156653523619443
  0.4009347989747211  0.9999377314242882  0.4019740212921473
  0.2499954308667831  0.9999570217100864  0.3875723449856543
  0.0990601933507941  0.9999501431054082  0.4019737928526704
  0.1514085518102643  0.9999500348628796  0.4876835495621971
 -0.0000042721970503  0.9999624974119707  0.4723989100353305
  0.3485771189746823  0.9998873004680575  0.4876764399294051
  0.4031207198815515  0.9999086267007852  0.5701897159114678
  0.2499827124247872  0.9999611723328152  0.5577038262344046
  0.0968828402186995  0.9999821244605070  0.5701645200514245
  0.4056471051336057  0.4999751636959937  0.2322536578861175
  0.2499959708099319  0.4999818288065950  0.1993208951991939
  0.0943714702746964  0.4999974574412203  0.2322108695870181
  0.1549117350935404  0.6250272437973221  0.3157011802716218
  0.0000089603109589  0.6249956790311972  0.3029179020028980
  0.3450784302079234  0.6249864763632296  0.3157491327386772
  0.4009175470145056  0.6250233610809555  0.4021162663025507
  0.2500370153877204  0.6250887839718574  0.3875710650749936
  0.0991522590477545  0.6250860206546296  0.4020091224817536
  0.1515337021260507  0.6252781570127138  0.4878372798602732
  0.0000585633106864  0.6251250764508206  0.4722636860785381
  0.3483283500063450  0.6253252443275447  0.4877764115069212
  0.4029500877273695  0.6251360135746299  0.5702048650027691
  0.2499122516807362  0.6244880818647039  0.5581200356937733
  0.0966290364053462  0.6251437038101441  0.5702997598661952
  0.4056299652477883  0.6249688210649583  0.2322225677623429
  0.2500030476632953  0.6249818578402540  0.1992054007084589
  0.0943539780439429  0.6249986761440016  0.2321813394170868
  0.1549208627112127  0.7500206868720535  0.3156755204950777
  0.0000016000243108  0.7500129903028442  0.3028888772609161
  0.3450852619688252  0.7500060937202634  0.3157110808795523
  0.4009222612287094  0.7500537267824252  0.4020211221464310
  0.2500048550120520  0.7500299432763119  0.3875723801817623
  0.0990977924026720  0.7500424673339858  0.4019825638066168
  0.1514396059782545  0.7501166446751019  0.4876750321771189
  0.0000262915601522  0.7501019004674784  0.4723618954668539
  0.3485266753003832  0.7501695870873230  0.4877151258801493
  0.4030850666411870  0.7501188213747985  0.5702272316128763
  0.2499764722077215  0.7500086902183901  0.5577612137488503
  0.0968601006236447  0.7499625903957390  0.5701312662440144
  0.4056213992108645  0.7499747559433475  0.2321933028980852
  0.2500123070892863  0.7500050657985747  0.1992125261802288
  0.0943664274759625  0.7500034435758788  0.2321645039771494
  0.1549036387539006  0.8750003091140498  0.3156688363779689
  0.9999922253158936  0.8750054425071759  0.3028742944216345
  0.3450903280808736  0.8749870814774823  0.3156710959696116
  0.4009401474650015  0.8750171450670743  0.4019817376577112
  0.2499992068150174  0.8750119541227614  0.3875790654257091
  0.0990630506588824  0.8750240038037149  0.4019783523391850
  0.1514111079156504  0.8750124703956994  0.4876862978594967
 -0.0000006276997886  0.8750114275188445  0.4723990556691177
  0.3485819300660929  0.8750495441918652  0.4876847450073307
  0.4031261871771104  0.8750104828582309  0.5701958050878896
  0.2499858654874046  0.8749639070419183  0.5577101569677010
  0.0968820882582721  0.8749657364981073  0.5701656826907331
  0.4056079743436114  0.8749809653220423  0.2321651638226320
  0.2500221063749481  0.8749864450469048  0.1991765804611939
  0.0943684040176304  0.8749866889111423  0.2321589437908580
  0.1549672016338194  0.5000125651954296  0.3157156562380493
  0.0000199075551682  0.4999936677128937  0.3029904230227162
  0.3451222802780515  0.5000233315789633  0.3157927802550972
  0.4009015354365450  0.5000443894574391  0.4022769045954341
  0.2501476299670812  0.4999753583030734  0.3874972505430652
  0.0993468456386304  0.5000604982163630  0.4019639772366148
  0.1516845860065386  0.5005314993701384  0.4879400253125417
  0.0001521240233709  0.5001345010091117  0.4720239050379363
  0.3482192664952811  0.5009577237048775  0.4881720475842475
  0.4011831540728996  0.5012154955831283  0.5714983949389454
  0.2485369449658913  0.4986924952791343  0.5613757833530583
  0.0954813683459886  0.5003096319349227  0.5705210894808044
  0.9056133144335038  0.0000003264722272  0.2321655100913208
  0.7499632733461210  0.0000095392895843  0.1991832241409053
  0.5943962126303841  0.0000079577318421  0.2321717188323301
  0.6548937841060135  0.1250028593786437  0.3157088148259559
  0.4999808271334844  0.1250025561847975  0.3028967386503642
  0.8450588096683446  0.1249828956384166  0.3156770570018903
  0.9009372574220128  0.1249423592449620  0.4019527783271004
  0.7499785524003622  0.1249828800049665  0.3875789613677740
  0.5990103353406269  0.1249454854253318  0.4019911494112902
  0.6513806994648479  0.1249093359880977  0.4876486613499063
  0.4999572016780777  0.1249272858164155  0.4723906970959607
  0.8486191444752091  0.1249277428670884  0.4876025260167769
  0.9030833380181316  0.1250848133369497  0.5700760205662974
  0.7499510533119890  0.1250806532419660  0.5576020392897674
  0.5968851463186446  0.1249825574861620  0.5701611621111088
  0.9056024181746278  0.1249972865263883  0.2321762643082819
  0.7499777765892424  0.1249967541008388  0.1992383053251197
  0.5943713978816486  0.1250221938131583  0.2321971457828013
  0.6548769134060921  0.2500216583445183  0.3157514401990021
  0.4999724429064015  0.2500056001922188  0.3029622335800709
  0.8450904745761058  0.2499800908944934  0.3157007290311220
  0.9009363897256855  0.2499060792938083  0.4019238243813638
  0.7499342075825819  0.2499529010765950  0.3875605515610118
  0.5989572031099413  0.2499940325678034  0.4020657453696156
  0.6514838386251756  0.2497572878849885  0.4875811484603102
  0.4999283023482559  0.2497661228760119  0.4724097726356206
  0.8486298362642842  0.2497582907020059  0.4875964308563125
  0.9033351540393821  0.2499282558167522  0.5701538309787094
  0.7500371866060430  0.2503636577818573  0.5576325282224890
  0.5969569537910010  0.2500923238464815  0.5700911583808955
  0.9056043896887286  0.2500059592800587  0.2321939427591643
  0.7499871372349302  0.2500293105292026  0.1992156640450508
  0.5943619104432467  0.2500320228816565  0.2322313118944741
  0.6548403877042264  0.3750166474219631  0.3158482845237675
  0.4999667479865826  0.3749737375181572  0.3030786743045501
  0.8450197170314172  0.3750264127987737  0.3157615638657268
  0.9009332388072420  0.3749819288161843  0.4019003639050278
  0.7498024735568957  0.3750244534941110  0.3877052430471684
  0.5988819365118619  0.3749716240698652  0.4022871678545629
  0.6512002592149863  0.3745944307284065  0.4880457766380326
  0.4998556451978701  0.3747617699169482  0.4731942551888826
  0.8488770096891343  0.3748481088707479  0.4875989468354099
  0.9036542104615529  0.3749213608236170  0.5703761687254326
  0.7515400673044671  0.3749964024149427  0.5578136554011840
  0.6002577262095548  0.3747450822449432  0.5717134253519819
  0.9056035005543147  0.3750289951218306  0.2322501490686540
  0.7499760829041749  0.3750239046009141  0.1993456383847358
  0.5943616858502172  0.3750377357640746  0.2322888133973352
  0.6549045223953669 -0.0000046274244409  0.3156783766545775
  0.4999963567974618 -0.0000069981880096  0.3028807903360376
  0.8450668843108206  0.9999876727787018  0.3156718604652121
  0.9009264238160266  0.9999635007598163  0.4019682393352623
  0.7499846936188516  0.9999794353457241  0.3875896506263499
  0.5990492387865226  0.9999548608127505  0.4019696403185771
  0.6513703460050171  0.9999454574958143  0.4876635908046929
  0.4999950952899570  0.9999574268255786  0.4723988055359476
  0.8485898130787711 -0.0000049471576850  0.4876595116308763
  0.9030648448746665  0.0000422715272293  0.5701200392433132
  0.7499756273883128  0.0000424310634772  0.5576469449253487
  0.5968676477175522  0.9999804959496146  0.5701525542282122
  0.9056049742564343  0.4999810617156802  0.2322535156515075
  0.7499756793717647  0.4999843672027435  0.1993494061883286
  0.5943592732426236  0.4999671358994822  0.2322917280542504
  0.6548710356848422  0.6249684101580296  0.3157624184130695
  0.4999724632795882  0.6249833476154195  0.3029715446017222
  0.8450906971124347  0.6250172206825942  0.3157076366414564
  0.9009373838813300  0.6250828823968954  0.4019272072558080
  0.7499278392659712  0.6250333410419752  0.3875698684874209
  0.5989505709695248  0.6249796506312842  0.4020750053078713
  0.6514809531083821  0.6252042057324037  0.4875913805049834
  0.4999269508121098  0.6251828003936827  0.4724272860748476
  0.8486285069698206  0.6252265041570692  0.4875991774653278
  0.9033320620034808  0.6250498330863100  0.5701532596290523
  0.7500360710614986  0.6246027480537473  0.5576362614860634
  0.5969591416140317  0.6248630717925759  0.5701016316621847
  0.9056067440328224  0.6249988731412508  0.2322009825655408
  0.7499894318046845  0.6249743467457782  0.1992258800931806
  0.5943625887683853  0.6249699086173096  0.2322402450490781
  0.6548873577490633  0.7499806696935229  0.3157191356659824
  0.4999806963101146  0.7499827804596549  0.3029034947078613
  0.8450578483274780  0.7500095041456133  0.3156814623913308
  0.9009387313245024  0.7500430166012434  0.4019537653255785
  0.7499743559380989  0.7500006070002313  0.3875859240538000
  0.5990018076015461  0.7500235884611919  0.4020022166567571
  0.6513806923747371  0.7500518273236505  0.4876593899546057
  0.4999615503522145  0.7500205650250734  0.4724131412655337
  0.8486164005285111  0.7500537189997235  0.4876041458291067
  0.9030893881897202  0.7498925236845393  0.5700754107197564
  0.7499569437901962  0.7498902320533135  0.5576097037794953
  0.5969014126446965  0.7499784660721450  0.5701769071943902
  0.9056064612252827  0.7499985330023964  0.2321799670670850
  0.7499793331684141  0.7499995349550937  0.1992412229103690
  0.5943692074173825  0.7499683724906671  0.2322057356871834
  0.6549014033384946  0.8749865612620579  0.3156817158447041
  0.4999961162445185  0.8749924604357379  0.3028810210416687
  0.8450672372054907  0.8750011526416751  0.3156735689343200
  0.9009280279839967  0.8750180297887131  0.4019700699474281
  0.7499830496233295  0.8750024767571863  0.3875903226664343
  0.5990451957889584  0.8750102069741434  0.4019736885929483
  0.6513756169427632  0.8750137733989036  0.4876671844333885
  0.4999958399199417  0.8749923545021503  0.4724098598853410
  0.8485910289179681  0.8749833702038859  0.4876595546964352
  0.9030693842910182  0.8749332652974566  0.5701203520237185
  0.7499817734273523  0.8749279863330086  0.5576525239253149
  0.5968770741231896  0.8749796879075632  0.5701612189524154
  0.9056135830105965  0.8749912800364740  0.2321677675183392
  0.7499624083186734  0.8749831011116560  0.1991865658631669
  0.5943901117449695  0.8749786787229676  0.2321732808237928
  0.6548360819686546  0.4999782140028358  0.3158514352232406
  0.4999655138568337  0.5000188897437389  0.3030816553154679
  0.8450196337014321  0.4999762341366109  0.3157646279327201
  0.9009313630351696  0.5000120989660344  0.4019027887334734
  0.7497993303244520  0.4999661080668704  0.3877093062362188
  0.5988791753546110  0.5000033367391753  0.4022889566511700
  0.6511949032556724  0.5003674317146820  0.4880477509387083
  0.4998518966047167  0.5001930320457366  0.4731965348433315
  0.8488750074432138  0.5001375821486226  0.4876003978211793
  0.9036495601418327  0.5000591046714243  0.5703797662183737
  0.7515378513761061  0.4999716139670281  0.5578137276647051
  0.6002496324903204  0.5002055378273869  0.5717169151712403
  0.5639394252723406  0.4374709966269709  0.6092122213828073
  0.4280485196149240  0.4374564196270840  0.6094897044827700
  0.2537491145007481  0.4373523553613793  0.6101946939708132
 
  0.00000000E+00  0.00000000E+00  0.00000000E+00
  0.00000000E+00  0.00000000E+00  0.00000000E+00
  0.00000000E+00  0.00000000E+00  0.00000000E+00
  0.00000000E+00  0.00000000E+00  0.00000000E+00