Ta  N Co Cu                             
   1.00000000000000     
    18.1096308199999996    0.0000000000000000    0.0000000000000000
     0.0000000000000000   23.3551997799999995    0.0000000000000000
     0.0000000000000000    0.0000000000000000   30.4818171199999988
   Ta   N    Co   Cu
   228   240    12     1
Direct
  0.9999787113963450  0.0000566570450928  0.1978149339314186
  0.3338970763763740  0.0624574831431204  0.2027079720145579
  0.1657686868632524  0.0624867643086944  0.2030569900207837
  0.2498336245447774  0.1250712853519644  0.2784510165910845
  0.0825780122085860  0.0625905973011598  0.2844640100694420
  0.4169827328586990  0.0625169929703446  0.2841071485446136
  0.9999982467442337  0.1251000912368028  0.3701350579472091
  0.3315738227030067  0.0625732496615683  0.3687326146130232
  0.1678838113438275  0.0626121706255987  0.3687644142007542
  0.2507788993860629  0.1273783720455413  0.4578772909619317
  0.0849441388930572  0.0627451287865952  0.4552173768212100
  0.4170127809278199  0.0621526226011540  0.4533770355834150
  0.0000849809495165  0.1252325702007937  0.5414425824170692
  0.3333153476540502  0.0606886907347644  0.5428923770931817
  0.0000088906805757  0.1250252422435594  0.1978350820907977
  0.3338479031180626  0.1876212941217119  0.2027136119223485
  0.1658410591082813  0.1876451918516153  0.2030979168906200
  0.2498828623437532  0.2500177288026748  0.2783938320399031
  0.0824833324180290  0.1875829326280609  0.2845513910394217
  0.4170959307865019  0.1875109520533371  0.2841338333942574
  0.0000188839575515  0.2501954644942259  0.3701286094958149
  0.3315042848981662  0.1874533515812900  0.3687098659700396
  0.1679659657483725  0.1876561544435376  0.3686114234813047
  0.2502514909283065  0.2483395760357183  0.4574441508145739
  0.0834780768665624  0.1879358540650387  0.4538356654204776
  0.4178335378451123  0.1877932113243759  0.4528154869060899
  0.0001114769370076  0.2490445013914879  0.5418236279745798
  0.3433714848471467  0.1871937117237721  0.5411380540485666
  0.1721244397417436  0.1866674725979394  0.5430022491833597
  0.0000082507630808  0.2500614199539797  0.1978139464856099
  0.3338696764635145  0.3124690601219058  0.2027152071865927
  0.1657740167046668  0.3124934129518664  0.2030577846043755
  0.2498439934231129  0.3750775208993176  0.2784571696427136
  0.0825711856536628  0.3125994686129374  0.2844539423828607
  0.4169973728219531  0.3125260287228926  0.2841006013635621
  0.9999903587645278  0.3751095375457325  0.3701355111841380
  0.3316127925045151  0.3125778002870092  0.3687362621156183
  0.1679082501494449  0.3126240090555896  0.3687469720539056
  0.2507546414156963  0.3773568518999397  0.4577986662780873
  0.0849702245314177  0.3127446371498976  0.4552008310919646
  0.4170207279896019  0.3121210036302529  0.4534002632886995
  0.0001496510787220  0.3752024050931837  0.5414418244532584
  0.3328637528180920  0.3105724353962600  0.5428758427577307
  0.9999956403038084  0.3750429922054934  0.1978333583207501
  0.3338393600721403  0.4376357433883484  0.2027238309115447
  0.1658589893188349  0.4376444393873555  0.2030974128266720
  0.2498765846711635  0.0000250586350177  0.2783866973101539
  0.0824692409269900  0.4375981546346708  0.2845461570489931
  0.4171391270197446  0.4375269089631004  0.2841422026006271
  0.9999839739106093  0.0001808008945261  0.3701445192055033
  0.3315351859245581  0.4374359608186893  0.3686882748702303
  0.1679646625397027  0.4376456279670791  0.3685779521469996
  0.2502673085723757  0.9983005488612804  0.4575132631180878
  0.0834413562948626  0.4379446883251816  0.4538270915487175
  0.4179154920624271  0.4377500019822307  0.4528294797293810
  0.0000057925524217  0.9991677592476336  0.5418296937596949
  0.3432383315881751  0.4371537615991485  0.5411467804865708
  0.1719481763524868  0.4366704482382957  0.5430231648078774
  0.9999837974006809  0.5000922155906835  0.1978152850873514
  0.3339182241293273  0.5624834077460577  0.2027153781277420
  0.1657659715108153  0.5624945230622842  0.2030483809186734
  0.2498087800276352  0.6250595037024880  0.2784240525914328
  0.0825511119916271  0.5626013138683277  0.2844547350108044
  0.4170214765651110  0.5625339341165514  0.2841127727416151
  0.9999311706085763  0.6251301356884085  0.3701648007768483
  0.3314989492268268  0.5625417404082285  0.3686245877120200
  0.1678583524253625  0.5626234228894020  0.3687259476865705
  0.2506122744917576  0.6273187260863793  0.4576384917882166
  0.0849305248384198  0.5627514152539064  0.4551659637647347
  0.4169266357550683  0.5619831085893878  0.4533332432132013
  0.0001202482265938  0.6250659964471623  0.5414760320585401
  0.3326868913262047  0.5606006249246178  0.5427946034144853
  0.9999651944998789  0.6250304969437579  0.1978421681751286
  0.3338547240573106  0.6876218202864237  0.2027267018140009
  0.1658463553187985  0.6876444383216693  0.2030917345871117
  0.2498558186024624  0.7500431836763255  0.2783765581101605
  0.0824600214486964  0.6875883908810465  0.2845543332776472
  0.4171185421574037  0.6875165580748686  0.2841532788008791
  0.9999216515519223  0.7501883109841572  0.3701635769364344
  0.3314284157046146  0.6874783209052993  0.3686410507873035
  0.1678837060525424  0.6876800588934699  0.3685999637575179
  0.2501038184276680  0.7482547842695695  0.4575156848144175
  0.0833595851134206  0.6879232075969313  0.4538589279128047
  0.4175691193557540  0.6877850684706175  0.4526868878920922
  0.9999828567220703  0.7491055493661065  0.5418376502203088
  0.3430103751188653  0.6877384617942113  0.5408775762213338
  0.1721955642138369  0.6865238642225009  0.5431291798950326
  0.9999691094156660  0.7500649935808639  0.1978375786800513
  0.3339032186372464  0.8124495242187706  0.2027216420066225
  0.1657648346768497  0.8124999939843391  0.2030697160912851
  0.2498100911977161  0.8750728232710898  0.2784559106310738
  0.0825735607181102  0.8125830582122262  0.2844720951155253
  0.4169949328998968  0.8125263448949767  0.2841128514136315
  0.9999719584291498  0.8750725366502081  0.3701484377233442
  0.3314928096795597  0.8126034992206641  0.3686801394378207
  0.1678494139285434  0.8126256608841658  0.3687561751745889
  0.2507694739803625  0.8774423336242165  0.4579882266562834
  0.0849141605551722  0.8127434736430317  0.4551956799937997
  0.4169194066359339  0.8121438003951766  0.4533153716946217
  0.9999419837292933  0.8752831520064888  0.5414568776025277
  0.3335338578005178  0.8108655029642904  0.5428955603671852
  0.9999936115816581  0.8750289572876255  0.1978445390005348
  0.3338474421338304  0.9376303364028189  0.2027151387655692
  0.1658511202274369  0.9376486766303458  0.2031000759990604
  0.2498734736599744  0.5000177448621344  0.2783926745955867
  0.0824831719690167  0.9375743800106662  0.2845540269379185
  0.4170994523734350  0.9375014892994429  0.2841424017782188
  0.9999907808204753  0.5002065930941555  0.3701213744348237
  0.3314729701850823  0.9374597212426892  0.3687237333341287
  0.1679605749023736  0.9376442016364237  0.3686348722096326
  0.2502347180022326  0.4983284322753150  0.4573969847382671
  0.0834314222084487  0.9379134026006000  0.4538491903411170
  0.4178582647240319  0.9378399240871147  0.4527959236721628
  0.0001224682422816  0.4991547703790573  0.5417508784231373
  0.3435570439597555  0.9373477989224952  0.5410923386741118
  0.1721338264144023  0.9367256892793918  0.5429796003559701
  0.5000092030814329  0.0000205868269703  0.1974864955171753
  0.8342361027055745  0.0624939352487459  0.2030633628015650
  0.6661023728588589  0.0624654675647065  0.2027138527293175
  0.7501470546288473  0.1250682855445504  0.2784493107990471
  0.5830264956219722  0.0625127765546836  0.2841086679848459
  0.9174032858661008  0.0625782259579140  0.2844660747049730
  0.4999983916687682  0.1250639208788655  0.3690995262570169
  0.8320987376475628  0.0626002302787256  0.3687634686125634
  0.6684097188273626  0.0625739073862661  0.3687383431745630
  0.7492268088028453  0.1273802641296626  0.4578711391534327
  0.5829769900470936  0.0621947049621525  0.4533960728312820
  0.9150735942972901  0.0627267813095500  0.4552144001243548
  0.5000327058322469  0.1122113627090258  0.5433391374077630
  0.6667839416335894  0.0608417989455248  0.5429172093584214
  0.4999912596845277  0.1249964000140622  0.1975192485143111
  0.8341385313684739  0.1876547335415566  0.2031016920229973
  0.6661382056677780  0.1876205161923252  0.2027114548569315
  0.7501012019220639  0.2500267465855472  0.2783863017345638
  0.5829008049662363  0.1875154981468086  0.2841347782486778
  0.9174970593325114  0.1875850322801682  0.2845461905076121
  0.5000055085232802  0.2498646131688957  0.3690471928774741
  0.8320262825089912  0.1876452751507500  0.3685941235308192
  0.6684972573509711  0.1874556233802664  0.3687090392368759
  0.7497876246790725  0.2483155426234518  0.4574169525211218
  0.5821360152606516  0.1877972377870307  0.4528213544365940
  0.9165663052624780  0.1879029894742104  0.4538112003247363
  0.8280470815544874  0.1865963994785247  0.5429583637653153
  0.6567232734796633  0.1872138552982960  0.5411462301950465
  0.4999969947331664  0.2500280195797515  0.1974839312573025
  0.8342135547394278  0.3124960121105858  0.2030623987793732
  0.6661136314600000  0.3124749967721172  0.2027229336051803
  0.7501437700384059  0.3751075101306256  0.2784631483044393
  0.5830054082448655  0.3125276446448595  0.2841040831062287
  0.9174192432004489  0.3125988509548634  0.2844543296439781
  0.5000375846671901  0.3750511432928931  0.3691197405072444
  0.8321103385990583  0.3126118897866874  0.3687359908989052
  0.6683833660286140  0.3125675431269386  0.3687333304336420
  0.7493393911808255  0.3772290487871075  0.4576594220521670
  0.5831014744880676  0.3121427749238777  0.4534495353011678
  0.9151160504739195  0.3127005655148736  0.4551828156741635
  0.4998158426040433  0.3617153217175400  0.5434009048600217
  0.6671768130387719  0.3104182366145380  0.5429070373893978
  0.5000150934216805  0.3750318701700834  0.1975258783866067
  0.8340954555116298  0.4376805642382564  0.2031218723321047
  0.6661685263543120  0.4376634271571760  0.2027514073852359
  0.7500963078551024  0.0000001212877834  0.2783868757500088
  0.5829157572567425  0.4375410383220881  0.2841629171789606
  0.9174845708061383  0.4376055481882801  0.2845459791207077
  0.5000004399715294  0.9998755373060320  0.3690450265718894
  0.8320062620411264  0.4376629460632131  0.3685445519119952
  0.6684170815206869  0.4374321705740911  0.3687175150294522
  0.7497372260386896  0.9983333280253319  0.4574497265588349
  0.5821893900662474  0.4377589782945748  0.4529099317663778
  0.9164935242764400  0.4379052540794035  0.4537912818480905
  0.8289434338130377  0.4357679642553265  0.5429790996530031
  0.6570611407883433  0.4367516311864676  0.5412018303749804
  0.5000441066057206  0.5000710489956788  0.1974978293715779
  0.8341869889680069  0.5625020313885756  0.2031067256978929
  0.6660895218651746  0.5624764650543526  0.2027862646479548
  0.7499987567408866  0.6251014359519615  0.2785541681742245
  0.5830025772501131  0.5625398798636567  0.2842230900811771
  0.9173641803927097  0.5626037346580262  0.2844982310894153
  0.4999996235716253  0.6250344617458623  0.3691932299841412
  0.8320110388499700  0.5626347584572784  0.3688126676854822
  0.6683058869191996  0.5625803724898830  0.3689426420097135
  0.7485009649439291  0.6271059323343664  0.4579711242343549
  0.5828974996679790  0.5620096070180409  0.4536618097739193
  0.9148937125928569  0.5626837150625619  0.4552039057086716
  0.4990565414078745  0.6152346842664045  0.5423970513450413
  0.6701157405341931  0.5594913822047971  0.5431088993039666
  0.5000755633215235  0.6250153883288334  0.1975620987905486
  0.8340981624975541  0.6876612407354230  0.2031457156696135
  0.6661196288890920  0.6876053219224900  0.2027890146007678
  0.7500255367317834  0.7499999112705638  0.2785068889878417
  0.5829301036109058  0.6875115575395867  0.2842693492876975
  0.9174422589531019  0.6875780568079861  0.2845942332654374
  0.4999771479020652  0.7499028924441049  0.3690947214210496
  0.8319236899533919  0.6876530500707361  0.3686489643159945
  0.6683577249081338  0.6874803744318356  0.3689678846471764
  0.7497530383956175  0.7481711255936858  0.4577571600822026
  0.5818522135150275  0.6877930980823024  0.4531553171687506
  0.9164203580168291  0.6878832044026453  0.4538770614756800
  0.8287089137944363  0.6859862302265753  0.5431582844708061
  0.6586312687516340  0.6891929085314104  0.5412770634210489
  0.5000714162064952  0.7500148741305352  0.1975357117506462
  0.8342001408798723  0.8124878167122702  0.2031037112342631
  0.6660934734282691  0.8124416360385212  0.2027550043780977
  0.7501360423974006  0.8750287657290627  0.2784976587714212
  0.5830597879473842  0.8125043367940350  0.2841529353038155
  0.9173759517374336  0.8125667550257489  0.2844928630821713
  0.5000063478097303  0.8750872315323619  0.3690945966596644
  0.8320376359109432  0.8125981922089380  0.3688133471638437
  0.6683961083643695  0.8125786976238700  0.3688311658746812
  0.7491987689938355  0.8775103151941508  0.4580470573980691
  0.5827976609013845  0.8121416252455518  0.4534184790318889
  0.9150259697702197  0.8126973098835819  0.4552273091506365
  0.4999007774756663  0.8624673015668449  0.5431446841589604
  0.6659643432480920  0.8117424894072656  0.5426480466635795
  0.5000254808271976  0.8750070731220063  0.1975426547139918
  0.8341335034164601  0.9376349056347877  0.2031043953278839
  0.6661553953388335  0.9376152658992254  0.2027313522398941
  0.7500215550119975  0.5000508793899385  0.2784446924790132
  0.5829367441729616  0.9374918306032640  0.2841610229474369
  0.9174695684550827  0.9375599284462197  0.2845581195578859
  0.5000363345966221  0.4998449057310594  0.3691092033583203
  0.8320181008770717  0.9376054284743489  0.3686378314431522
  0.6685100514482798  0.9374307144505138  0.3687657452499522
  0.7498134306314412  0.4983990442228006  0.4572803181572880
  0.5820492502526307  0.9378699783381776  0.4528464520575000
  0.9165374479773121  0.9379036362136759  0.4538300410663680
  0.8279386267344648  0.9369013725403121  0.5429425331276718
  0.6563603022809872  0.9377195680310066  0.5410597486303246
  0.4055334061839133  0.9999780276825732  0.2323210477806299
  0.2498274957634692  0.0000552473520159  0.1993185071029586
  0.0942074259628427  0.0000273281718322  0.2327621978027707
  0.1549731989607324  0.1250851467296172  0.3161633390731851
  0.9999862423904560  0.1250437667517730  0.3035286001490789
  0.3449492478326519  0.1250565577124405  0.3160922350321229
  0.4010246029832061  0.1248147780936506  0.4017381727908784
  0.2496522742868379  0.1249811777224039  0.3891070280046591
  0.0993954792779093  0.1251154451958527  0.4022342591583623
  0.1501833222762912  0.1269152296168983  0.4873628628069184
  0.0000203931302423  0.1251523097064506  0.4731071287157178
  0.3524334468603101  0.1250502287258257  0.4874232635193820
  0.4062489637382285  0.1258998339719000  0.5713201388471632
  0.2567386065623651  0.1294503080846212  0.5543835221226061
  0.0977818697963357  0.1272764986796915  0.5695128070075697
  0.4054163056028059  0.1250567806760117  0.2323390463393125
  0.2498177142191409  0.1250509857710185  0.1996785534546888
  0.0942986264061503  0.1251164297928966  0.2327859295949111
  0.1549012083265424  0.2501014387154754  0.3161019201918762
  0.9999938070118475  0.2501332127854852  0.3035272713528911
  0.3449990618801380  0.2499867055358607  0.3160173453365474
  0.4009917717620795  0.2500901385063869  0.4015006471905664
  0.2496666083937384  0.2501877722844412  0.3888609178752063
  0.0994949090795600  0.2503191761345320  0.4022860934321741
  0.1503594114224001  0.2490200307235710  0.4880696980986627
  0.0000339920992474  0.2503315361784502  0.4732997194560582
  0.3510616763969665  0.2503621193159518  0.4869167302104103
  0.4109222626244389  0.2542810250732259  0.5648799243986247
  0.2586139241870242  0.2471132778728631  0.5553141140882829
  0.0977212241733554  0.2476603455288569  0.5698187236528085
  0.4055207324478900  0.2499899122048745  0.2323094883273313
  0.2498301620289496  0.2500584505536665  0.1993307111479297
  0.0942198139008852  0.2500409008035476  0.2327635779509833
  0.1549728604289911  0.3750979962312542  0.3161566464869807
  0.9999828282326035  0.3750782993349091  0.3035241112130791
  0.3449817785581786  0.3750582737741297  0.3160910185204315
  0.4010921637147860  0.3747910033872017  0.4017785693032039
  0.2496857774538697  0.3749847197331420  0.3890657847640355
  0.0993986298674940  0.3751133314990795  0.4022240384349800
  0.1502347551092100  0.3769371350223309  0.4873496410937932
  0.0000028386661626  0.3751394080227044  0.4730997287679273
  0.3523529136374606  0.3750968431735089  0.4874514279676418
  0.4062460434895030  0.3761767836227037  0.5713003990177441
  0.2567541183123438  0.3797549905291575  0.5546877993153458
  0.0977788706416547  0.3772726775487882  0.5695401368325577
  0.4054286608241000  0.3750830991281049  0.2323355452447657
  0.2498179127258524  0.3750747193744459  0.1996288313879901
  0.0942879564797323  0.3751315349917235  0.2327829077948067
  0.1549122559926914  0.0000867974887271  0.3161156113786134
  0.9999827783349957  0.0001045120405294  0.3035445405509805
  0.3449701080462120  0.9999814149593078  0.3160273872429613
  0.4009701235271592  0.0001118164168830  0.4014906713583031
  0.2496381977468971  0.0001865661370815  0.3889095012151174
  0.0994639628041369  0.0002965467805254  0.4022977815086932
  0.1503147599082837  0.9990160399453814  0.4880759758081012
  0.9999960632844278  0.0003460582980850  0.4733274201803113
  0.3511628852206741  0.0003857626561441  0.4869170554176208
  0.4110772269964826  0.0040506629043975  0.5649761324012346
  0.2587817160792696  0.9969928392033083  0.5552392804133532
  0.0976274156899208  0.9975927456572080  0.5697982107730510
  0.4055622169787583  0.5000000978379049  0.2323206514967211
  0.2498349064491450  0.5000815149626732  0.1993789358256635
  0.0942039868617499  0.5000450862203678  0.2327583907484154
  0.1549412632260143  0.6251185792526854  0.3161512621945590
  0.9999486931538044  0.6250783243228071  0.3035439104692443
  0.3449190855034701  0.6250789807715833  0.3160309385967111
  0.4008390630951268  0.6247455875728889  0.4016255391253694
  0.2496198690166977  0.6249901636618986  0.3889700485565157
  0.0993433573339857  0.6251593776481599  0.4022295368233202
  0.1503239016608759  0.6269482551641374  0.4873924756026184
  0.9998970351044250  0.6250896747735482  0.4731669344709459
  0.3520428274608420  0.6248426768759785  0.4873937414549019
  0.4068338934654534  0.6255065061127070  0.5711353246960442
  0.2571192938226758  0.6300462873447472  0.5553582256635536
  0.0978319073441085  0.6271923696436801  0.5695633156216360
  0.4054726184844455  0.6250773004006263  0.2323512863552111
  0.2498177116127280  0.6250508596544293  0.1996641614178287
  0.0942838565628961  0.6251259024832621  0.2327905499500105
  0.1548769800342740  0.7501083128534916  0.3161078754756730
  0.9999563793141348  0.7501199737282889  0.3035531370751130
  0.3449551054783058  0.7500135990389936  0.3159959041363010
  0.4008720865800584  0.7501538239714165  0.4014381825148661
  0.2495791211831033  0.7502445838802174  0.3888921195386814
  0.0994145099788213  0.7503084605969192  0.4022979355366942
  0.1501669013174833  0.7489964782308363  0.4880436914772375
  0.9999681563853144  0.7503415217760079  0.4733238670333080
  0.3510407811833147  0.7503600691630297  0.4868457074785937
  0.4110135350251412  0.7537007579074668  0.5650591429469785
  0.2586502047034784  0.7474279610306525  0.5550034707791056
  0.0975808841786687  0.7474864632141589  0.5697687544536052
  0.4055631608762198  0.7499709589786647  0.2323244030907787
  0.2498316287530997  0.7500451639365124  0.1993262817572230
  0.0941937536878754  0.7500265863754407  0.2327616193285422
  0.1549584048549519  0.8750943161410305  0.3161724914071087
  0.9999658177330559  0.8750399139652529  0.3035312280265856
  0.3449368769455035  0.8750710480448589  0.3160801209537709
  0.4009859888893530  0.8748302661057892  0.4017000369409374
  0.2496290838241961  0.8749655464391140  0.3891620850646049
  0.0993741496417684  0.8751136405546021  0.4022408069602861
  0.1500958516255082  0.8769025577629108  0.4873778723162019
  0.9999711009340402  0.8751609169655623  0.4731356073507698
  0.3525707805212477  0.8750707185461977  0.4874109770950099
  0.4061428615839446  0.8756062030786040  0.5713995377861778
  0.2567792010092447  0.8793731162442384  0.5540305825843461
  0.0977123762440684  0.8772608653959537  0.5694714707317274
  0.4054229459321519  0.8750524676524378  0.2323437050957295
  0.2498233282194278  0.8750407712216841  0.1996776918087733
  0.0942888668778536  0.8751097217699737  0.2327888552506181
  0.1548670918696544  0.5001037698080850  0.3160881938129094
  0.9999660937008130  0.5001578888233738  0.3035144875888918
  0.3450214904160021  0.4999606034950190  0.3159898112499633
  0.4009872284855973  0.5000265599683189  0.4014908617323698
  0.2496476164478452  0.5001384930488655  0.3888089844911278
  0.0994651223023411  0.5003141614051430  0.4022561305058119
  0.1503129852697711  0.4990367821391359  0.4880207299845551
  0.9999622847973697  0.5003846836602506  0.4732297192023509
  0.3510303637121055  0.5002736485472781  0.4868332188291973
  0.4108473510239747  0.5046245104722615  0.5648117591056234
  0.2585903276055390  0.4973468181286549  0.5552469314632233
  0.0975983152520072  0.4975904814520078  0.5698314254683225
  0.9057654839257836  0.0000189514575197  0.2327693375821198
  0.7501676241529580  0.0000514971963668  0.1993572734659352
  0.5944809460178888  0.9999703161838056  0.2323294699202592
  0.6550371379641007  0.1250562694091641  0.3161005220289823
  0.4999970071807027  0.1250151796139818  0.3026709211215675
  0.8450068997603495  0.1250785335849329  0.3161601915029735
  0.9005905821300146  0.1250935066690246  0.4022293978447848
  0.7503366749188203  0.1249750837788355  0.3891083158932034
  0.5989725300727144  0.1248317572766879  0.4017523874953710
  0.6475874952024441  0.1250928317898925  0.4874443802780917
  0.4999913200421418  0.1244851560763038  0.4743934678414448
  0.8498381574254097  0.1268922246917867  0.4873615713883765
  0.9023436992932830  0.1272464311527273  0.5695183458785351
  0.7433551367692814  0.1294588222638851  0.5544224457998865
  0.5938358736590246  0.1260285177193836  0.5713615518643564
  0.9057024926557489  0.1251183913641682  0.2327866093639912
  0.7501740014672222  0.1250455966340098  0.1996621898186177
  0.5945745628959571  0.1250548356281129  0.2323416969546130
  0.6549940441712749  0.2499948244135126  0.3160149162771120
  0.5000029670041926  0.2500249168821398  0.3026333330608253
  0.8450800737246524  0.2501090302073266  0.3160915420093318
  0.9005338388907660  0.2502967727726002  0.4022686025764912
  0.7503414656379732  0.2501816070303349  0.3888329895889910
  0.5990211167962514  0.2500953298718400  0.4015141487042939
  0.6489778467115954  0.2503183271685074  0.4869370070773940
  0.5000180523793105  0.2501372616879394  0.4734192903458236
  0.8497057310686884  0.2489757204037133  0.4880492023301173
  0.9025980414703554  0.2474234715991273  0.5697977857798477
  0.7415040637066568  0.2471543149086841  0.5552805816926920
  0.5890885346846915  0.2544165300579309  0.5648633517838491
  0.9057836646815076  0.2500371867591653  0.2327551141356494
  0.7501558600926046  0.2500651415138861  0.1993360619869478
  0.5944713639789896  0.2499906464547550  0.2323108728845540
  0.6550201337578514  0.3750739015113069  0.3161153764277458
  0.5000230562086472  0.3750480285125448  0.3026810267737261
  0.8450031077503581  0.3750879584865245  0.3161453164952448
  0.9005582821154903  0.3750999087880587  0.4022029833207839
  0.7503009694072489  0.3749624020216942  0.3890276615079600
  0.5989559329939667  0.3747877398649990  0.4018387541165396
  0.6479665648509680  0.3750159083898197  0.4875298348186661
  0.5000588178097516  0.3744063292374875  0.4745870941475800
  0.8497660200369666  0.3767725427818576  0.4873092308075755
  0.9025548535632026  0.3768052355914193  0.5696354013068401
  0.7432511515022640  0.3799110854396588  0.5553392590633024
  0.5933677311330214  0.3765664542181710  0.5712565087467851
  0.9056945697446110  0.3751342853658528  0.2327792741000962
  0.7501803866000074  0.3750711467776711  0.1996689488259520
  0.5945892912770958  0.3750887075329103  0.2323528825132044
  0.6550232965826481  0.9999536304456811  0.3160446635194631
  0.5000122639734670  0.0000023871486974  0.3026336128905527
  0.8450555737236698  0.0000705613232483  0.3161128499620318
  0.9004994255617120  0.0002840445124974  0.4022872618045525
  0.7503359392585409  0.0001691947148217  0.3888801434334326
  0.5990231279193452  0.0001041005806002  0.4015201328432241
  0.6489054001457575  0.0005292659229781  0.4869251824788208
  0.4999763368415984  0.0002410137892355  0.4733977803495506
  0.8496487791742808  0.9990010378303609  0.4880487026010698
  0.9024098279479844  0.9976555570036609  0.5698177762009919
  0.7412069720219989  0.9970438405555626  0.5554134600103069
  0.5888921784002221  0.0042661210993913  0.5650154537491332
  0.9057769956201227  0.5000693143944517  0.2327800507999953
  0.7501461493853867  0.5000901771378494  0.1993269400763822
  0.5944778243377868  0.5000362471411037  0.2323931643980188
  0.6549639017097917  0.6250690195588859  0.3163046747710823
  0.4999991416755805  0.6250308410967378  0.3027544382036069
  0.8448904102863395  0.6251152308503833  0.3162212930183728
  0.9005315762425141  0.6250803584966107  0.4022778558814792
  0.7501666418297361  0.6250325451617513  0.3892311413569018
  0.5989058062556225  0.6248498696904718  0.4020813322203480
  0.6468299270322291  0.6245904496234189  0.4888945364793145
  0.4995810068244779  0.6244599050703030  0.4736537328609174
  0.8490707659740409  0.6268027456886500  0.4873730737486923
  0.9025419055527806  0.6267003954502925  0.5695473548155050
  0.7430452317562484  0.6308239307132553  0.5570180208579245
  0.5937944757821541  0.6259794185751275  0.5739617967760466
  0.9056726865352687  0.6251254948277776  0.2328315757718684
  0.7501566341145107  0.6250672752145476  0.1997499070715705
  0.5945956916129091  0.6250725908737280  0.2324746319015603
  0.6549846844758918  0.7499728026718984  0.3161930283781160
  0.5000179888878193  0.7500134310328548  0.3026781588403935
  0.8450081784565384  0.7501028446863316  0.3161638849139266
  0.9004524603295607  0.7502671120196780  0.4023114665279053
  0.7502934951841382  0.7502360986445424  0.3891049835364981
  0.5988884348914141  0.7500832465511564  0.4016742195936445
  0.6486983756338986  0.7503577570695725  0.4869545396174288
  0.4997965564383193  0.7503685941240690  0.4734226551344420
  0.8499065801211714  0.7489366537161573  0.4880658909401348
  0.9024488391527612  0.7472390244792990  0.5699198610883229
  0.7416579984427401  0.7478102214759303  0.5543699739479919
  0.5900328393935439  0.7536875524764639  0.5657020924452851
  0.9057638284044600  0.7500089477470482  0.2327938706673933
  0.7501417131100467  0.7500404636540239  0.1994274252513293
  0.5945070836818616  0.7499358356440453  0.2324226607825040
  0.6550676034914176  0.8750150135132344  0.3161625296178343
  0.5000213861727616  0.8749965988193011  0.3026749838852325
  0.8449718318973041  0.8750466506619787  0.3161987190893996
  0.9005749576933439  0.8750649767697141  0.4022491146793712
  0.7503283416743045  0.8749245567824886  0.3892328165597121
  0.5989437621179405  0.8748420778902428  0.4017795364567007
  0.6472817445384891  0.8752024894454919  0.4874712357608075
  0.4998633096583731  0.8744367968722528  0.4742022396350052
  0.8498860031399076  0.8769130158470801  0.4874022435134790
  0.9021591342511996  0.8773295124828877  0.5694777818420107
  0.7431453144986122  0.8794060152722025  0.5538083398657108
  0.5936662186330111  0.8759128282157960  0.5713690766992343
  0.9056909543444789  0.8750911112946440  0.2328099680141946
  0.7501520055019597  0.8750224718807189  0.1996555213895519
  0.5946021138622797  0.8750388691250421  0.2323753194185727
  0.6549388257147086  0.5000240877389572  0.3161358885445722
  0.5000253787624800  0.5000360478910082  0.3026747989897913
  0.8450370100499214  0.5001344412565771  0.3161097573244831
  0.9005104877050698  0.5003607838509154  0.4022790676327901
  0.7503006471545959  0.5001095706345637  0.3887471548320676
  0.5989597716460082  0.5000281197840906  0.4016856618637519
  0.6493261165046746  0.5001596098396419  0.4869913914020358
  0.5000582861037515  0.5001655524860809  0.4736825648498879
  0.8495955191202000  0.4988472638866384  0.4881121023225106
  0.9027140156709805  0.4971079653438508  0.5697842863017968
  0.7422069329675480  0.4973614626011340  0.5557238830229210
  0.5897608944225965  0.5052557589873530  0.5645104855664940
  0.1270064299639841  0.0618977463964114  0.5366110732305032
  0.1269921969057322  0.3118859899367195  0.5366006204781897
  0.1271136305142875  0.5618605074320087  0.5366075524977632
  0.1269358488700405  0.8118858216631466  0.5366062717610944
  0.8730415304958896  0.0619693885565411  0.5366373270050033
  0.4999546991528447  0.2606712465502952  0.5363317591255026
  0.8728750962982730  0.3115306553366111  0.5364836274501172
  0.5000438818397726  0.0107143394671283  0.5362668247043558
  0.8725106780801326  0.5613568857029492  0.5363431548608446
  0.5005204004618804  0.7603280873647194  0.5363418931107944
  0.8731569751381230  0.8117941977053604  0.5366175608190176
  0.4999698279740130  0.5132407080909971  0.5366406125720715
  0.5890981392730978  0.6224635275663246  0.6328717892570523
 
  0.00000000E+00  0.00000000E+00  0.00000000E+00
  0.00000000E+00  0.00000000E+00  0.00000000E+00
  0.00000000E+00  0.00000000E+00  0.00000000E+00
  0.00000000E+00  0.00000000E+00  0.00000000E+00
  0.00000000E+00  0.00000000E+00  0.00000000E+00
  0.00000000E+00  0.00000000E+00  0.00000000E+00