Ta  N Cu                                
   1.00000000000000     
    18.1096308199999996    0.0000000000000000    0.0000000000000000
     0.0000000000000000   11.6775998899999998    0.0000000000000000
     0.0000000000000000    0.0000000000000000   23.4818170799999990
   Ta   N    Cu
   120   120     2
Direct
  0.0004993100220274  0.0001549996790111  0.2553830726748418
  0.3340485741513137  0.1246729255565346  0.2642171012212885
  0.1669805735360639  0.1246479292353221  0.2642912634852981
  0.2503947010319577  0.2501233396351391  0.3621627132314259
  0.0830559467354898  0.1251073040920068  0.3691470375966466
  0.4181567402601957  0.1250397777653830  0.3687577567345792
  0.0005189135137161  0.2502086359913143  0.4805681097804855
  0.3326114939947666  0.1251720996201144  0.4783866436552839
  0.1676607439819071  0.1252297932842850  0.4789933759859547
  0.2503538526379145  0.2502154960828554  0.5914111983438984
  0.0838936423319509  0.1254053923902004  0.5911303857963096
  0.4168797887969511  0.1251960502819846  0.5899311379210450
  0.0002978973661707  0.2483501894632917  0.7039397194073723
  0.3369214798507741  0.1253082490430994  0.7043408908215379
  0.1687664418830546  0.1254978504875409  0.7027963913118809
  0.0009270034640674  0.2499090732281563  0.2553620152020311
  0.3339151408051426  0.3753347015010171  0.2642921757863413
  0.1670722733904192  0.3754374433348570  0.2643278144353593
  0.2505094412026411  0.5000101803100435  0.3619820418063475
  0.0830867706570830  0.3750944297918508  0.3689763163967252
  0.4181353620470282  0.3750174424171797  0.3687578847193672
  0.0005110843086264  0.5001429430274588  0.4804212611775092
  0.3327586048102636  0.3751595318543548  0.4784230016154940
  0.1679816720879586  0.3751475699216830  0.4787773738557951
  0.2503834800950588  0.5003636094723317  0.5912204082607159
  0.0840337729952393  0.3754973109725374  0.5906251440082220
  0.4166482029138946  0.3752765581164772  0.5899775360742963
  0.0002609536486092  0.5004379003335695  0.7027166767749070
  0.3364619676614878  0.3752211584547016  0.7043641728431796
  0.1663047591940886  0.3765577531446711  0.7047099824407534
  0.0004813160957891  0.4999884013911393  0.2553102627418694
  0.3338683742002207  0.6246376792874462  0.2642300681130770
  0.1671690771780981  0.6246655302017521  0.2643308412208202
  0.2504984383408847  0.7501974964818540  0.3621314695074058
  0.0830588701664329  0.6250877958100403  0.3689543283262606
  0.4182115980346133  0.6250406060770389  0.3687364962001576
  0.0005136862504162  0.7503398382577733  0.4804288838736648
  0.3328241791705400  0.6251707679617887  0.4783873158299516
  0.1680403614982740  0.6252137740077299  0.4786408156456446
  0.2503712784528605  0.7502266134310157  0.5912117900933500
  0.0840102816351762  0.6254227840375307  0.5902691010182917
  0.4167021099520979  0.6251954134153321  0.5900105216393838
  0.0002882764879186  0.7503760425136220  0.7027286783591417
  0.3358702297181093  0.6253635642038016  0.7043285077980617
  0.1653251735961025  0.6254549173905749  0.7047300296757257
  0.0009580480754805  0.7501239984885045  0.2553071273095407
  0.3338811699157497  0.8754570715882224  0.2643102293699058
  0.1670746113726759  0.8754720984929164  0.2643369211112757
  0.2503880954254577  0.0000803133273697  0.3620018318021814
  0.0830987225593716  0.8751149120649301  0.3689900894629342
  0.4181242312181157  0.8750859967552603  0.3687434949372136
  0.0005242579491915  0.0002667265113464  0.4805733309226643
  0.3327558865609166  0.8751984760712057  0.4784136370358790
  0.1679997342631154  0.8753181052940804  0.4787959438508252
  0.2503342357376274  0.0004116787750553  0.5914376729365920
  0.0840286800532436  0.8752764989660501  0.5906400138586881
  0.4166489303840287  0.8750819539272242  0.5899782549787130
  0.0003395085312529  0.0024941521168838  0.7039190062558000
  0.3364436165845863  0.8754361709106836  0.7043728164220711
  0.1662867809835309  0.8743378089354877  0.7047494643151009
  0.5009335717889482  0.0002082231444943  0.2552031328829525
  0.8343169519891215  0.1253708038531420  0.2642583866563967
  0.6672395173699515  0.1253690573959869  0.2641031007176839
  0.7508478087316717  0.2500524542123061  0.3619009402092320
  0.5831918443534339  0.1250206317106686  0.3686893444300793
  0.9181807874597313  0.1250823513594458  0.3691261884531988
  0.5005585940573336  0.2499267299672494  0.4801267401247420
  0.8332975350717420  0.1252263653412766  0.4789292195459026
  0.6684077084530903  0.1251074720412795  0.4783584925632292
  0.7501953778816481  0.2500929270669228  0.5914154877543345
  0.5838789507829487  0.1250810460277607  0.5899322392705101
  0.9168256755445588  0.1253563278068519  0.5910749037329371
  0.5002540624113045  0.2501584680579495  0.7020957454304186
  0.8318230720436308  0.1253719080782574  0.7026559785278920
  0.6636468327245008  0.1250835883253018  0.7043961548441579
  0.5004728194235017  0.2497640480011193  0.2552011115522466
  0.8342058739322531  0.3745942676466797  0.2643058988103777
  0.6674352692028293  0.3745041343432260  0.2642085583806829
  0.7507581907271987  0.4999596080392586  0.3620398321849262
  0.5832459303497433  0.3749726074079235  0.3686826008372329
  0.9181381845115961  0.3750848030609921  0.3689564452942045
  0.5005717074426183  0.5000969290969324  0.4800621739010724
  0.8329716460949275  0.3751222384941146  0.4787675144603779
  0.6682830625123873  0.3750783466686938  0.4783872442923272
  0.7501886029147184  0.5002562993635615  0.5912322713683522
  0.5841334421294363  0.3751987797359224  0.5899831310282461
  0.9166683443612816  0.3754551959010329  0.5906362233292134
  0.5002590179939916  0.5003427410195097  0.7022727977512718
  0.8342713584633841  0.3764993090372535  0.7046876525961233
  0.6641096830201112  0.3749801808572781  0.7044628751258367
  0.5009477491312325  0.5000668813530498  0.2551975845058218
  0.8341183934778885  0.6254229644066955  0.2642944716415681
  0.6674315386944415  0.6253999858363434  0.2641377927666155
  0.7507534009852213  0.7501311416712478  0.3619029986525356
  0.5831659910045301  0.6250112691593922  0.3686880020441647
  0.9181947678262679  0.6251186679330667  0.3689225683766785
  0.5005719218366533  0.7500723378925237  0.4800605074143636
  0.8329690858812548  0.6252035075852730  0.4786199970315794
  0.6682434505960664  0.6251002824852578  0.4783782107593122
  0.7501840605808157  0.7501055392995980  0.5912419249571781
  0.5840710057960440  0.6250781011917007  0.5900276173334460
  0.9166796821692818  0.6253179422366799  0.5902811998633085
  0.5002518789551865  0.7499890016079287  0.7022713179142939
  0.8352227580480392  0.6254042136748099  0.7047406201702822
  0.6646943894863006  0.6250878944005336  0.7044473334870398
  0.5004849248699537  0.7499109946859113  0.2551962744970055
  0.8342526660763497  0.8746515397362395  0.2642974277332006
  0.6673662069781442  0.8746205883660640  0.2641901312672515
  0.7508454457771943  0.0000257094642286  0.3620559278099997
  0.5832365691909435  0.8750396519512861  0.3686946078347346
  0.9181565941629711  0.8750980611655738  0.3689676315976112
  0.5005592229576036  0.0002365689459639  0.4801250448135283
  0.8329675819144037  0.8752939776679454  0.4787616246836267
  0.6682847332476940  0.8751154939233492  0.4783902438149752
  0.7501867380361725  0.0002711601597651  0.5913796719236046
  0.5841283499676664  0.8750073955453307  0.5899764876650349
  0.9166758844644984  0.8752412192526507  0.5906129824367214
  0.5002514572725940  0.0001721365878593  0.7020830995370229
  0.8342379256300509  0.8742823199648253  0.7046197769819958
  0.6640927684784608  0.8752189398838194  0.7044550402367981
  0.4076196230525401  0.0001072026396919  0.3014984862279690
  0.2505083834635107  0.0001572045964880  0.2574492242597636
  0.0935985997348621  0.0001754625322627  0.3018243807272363
  0.1548414567787308  0.2501649692742433  0.4106276435011261
  0.0006429559440861  0.2501942684398391  0.3938168242094507
  0.3461626565274215  0.2500287117716230  0.4103061416405693
  0.4014022702751610  0.2501112724572240  0.5221469918355787
  0.2503156848552517  0.2500991550961408  0.5033504720036961
  0.0993297173386351  0.2503268394255549  0.5229906017014704
  0.1519930412194002  0.2512449494198548  0.6342168671479658
  0.0003572805806482  0.2507752866165885  0.6152842010680402
  0.3488935859446431  0.2503547085282755  0.6334007028970282
  0.4041876695829724  0.2505273301934445  0.7408354054709827
  0.2519567176298797  0.2503775021607277  0.7244562766773694
  0.1003970311591573  0.2511955676505492  0.7427907935859904
  0.4073065876643919  0.2499747072080830  0.3015686597625863
  0.2504814026848126  0.2499590812863792  0.2591490652223194
  0.0939475109255207  0.2499767422545479  0.3018730119757686
  0.1548948369442218  0.5001215157690129  0.4104855912056971
  0.0005843634363013  0.5000975087997516  0.3936839045487375
  0.3462597308942809  0.5001331161608800  0.4102323598090563
  0.4014916004461630  0.5001370560540470  0.5221723069248145
  0.2504372900090053  0.5002855735295776  0.5031468201008586
  0.0994051597198806  0.5001559578221754  0.5226449608023248
  0.1522285535546691  0.5007846309379542  0.6336098591487769
  0.0003486759056143  0.5007176089134391  0.6140497006600240
  0.3486625411552166  0.5004484660860634  0.6334005268106825
  0.4036829969043708  0.5006627418812654  0.7407158698986358
  0.2503917045378239  0.4998638180705355  0.7241676051020420
  0.0973530995200826  0.5002590521755859  0.7408067259772853
  0.4076309961102211  0.4999927579641580  0.3014418933747420
  0.2505421584933041  0.4999876820119809  0.2571493982562144
  0.0935973605453900  0.5000526802128161  0.3017277340914227
  0.1548909844135170  0.7501927331911833  0.4105109943465834
  0.0006546025218831  0.7501480175933162  0.3936934347451649
  0.3462588394568066  0.7500819135898931  0.4102368336234505
  0.4014778424820996  0.7501802780408381  0.5221732234114976
  0.2504429557947838  0.7501431929050822  0.5031522470430431
  0.0994220254299764  0.7504801951417913  0.5226559771283432
  0.1522403823435910  0.7500628564150751  0.6336389121808383
  0.0003448436683279  0.7500664601647631  0.6140571018266778
  0.3486358163732308  0.7500438991504363  0.6334104928806986
  0.4036851862946895  0.7499957188698018  0.7407261025164744
  0.2503976144052735  0.7509749744343911  0.7242059449299156
  0.0973620439555886  0.7507079237011601  0.7408415102406719
  0.4072964859059717  0.7500450332581640  0.3015023951185417
  0.2505191300260304  0.7500895047048363  0.2587725389204088
  0.0939531977682300  0.7501004283153218  0.3018038533658661
  0.1548565567084433  0.0001553364578581  0.4106280792430318
  0.0005929572556402  0.0000538355359384  0.3938287023189198
  0.3461510634621123  0.0001828371491766  0.4102864032131105
  0.4014102052244461  0.0002171049878924  0.5221458854945759
  0.2503244473358243  0.0003273143591268  0.5033616368787650
  0.0993362294714877  0.0003035572548415  0.5230019269526948
  0.1519727687911191  0.9996198605675725  0.6342312122131092
  0.0003533407108216  0.0000160591808258  0.6152568863607387
  0.3489004794296409  0.0001456560481761  0.6333894533380147
  0.4041841036699047  0.0001093710455988  0.7408290214339869
  0.2519705224495204  0.0004887906068321  0.7244478276495712
  0.1004628308338756  0.9998120505490998  0.7428023190695928
  0.9074017934924453  0.0001395106672885  0.3018261433045821
  0.7508000404871625  0.0000623448002956  0.2590457344206013
  0.5940856069402892  0.0000445493346830  0.3015217223730063
  0.6551283749795033  0.2499639244218874  0.4102373837559155
  0.5006603283042763  0.2500171372892821  0.3934161710422528
  0.8463212832888658  0.2501552134541316  0.4105773001272456
  0.9016275317359261  0.2503095361324637  0.5229404850648524
  0.7506530272134110  0.2500403954792654  0.5033283962816136
  0.5996261110326505  0.2500312135098080  0.5221633572609963
  0.6517283558484080  0.2501981963820992  0.6334640930704315
  0.5003777397675229  0.2503033332719999  0.6132875575912924
  0.8486217371938813  0.2511676141342107  0.6341267289433140
  0.9001013779285552  0.2510407481834635  0.7427118060717928
  0.7486239469488062  0.2501525016954958  0.7244454176747152
  0.5963528132610285  0.2502834950501426  0.7408614193245830
  0.9077400522259591  0.2499521093728082  0.3017502233693402
  0.7508066757957672  0.2498666801181514  0.2572335957996371
  0.5937552535726781  0.2499087788774719  0.3014503413512654
  0.6550436854386039  0.5000746757832921  0.4102039345556147
  0.5007296769194504  0.4999540669846536  0.3933577321186960
  0.8463002364639127  0.5001080166805574  0.4104753339103248
  0.9015382727194560  0.5001088307027438  0.5226260740544219
  0.7505532259999134  0.5002178127322837  0.5031621558350081
  0.5995886052911348  0.5000624137454193  0.5222071750208289
  0.6519902559984243  0.5002955588589482  0.6335244868371182
  0.5003821861118317  0.5001643379278052  0.6134906488956680
  0.8483577379801848  0.5007019531773592  0.6336091691136008
  0.9031798325010283  0.5001664297863625  0.7408336030998898
  0.7501586488195472  0.4996594157047278  0.7242953674331792
  0.5968134803992747  0.5003831545717875  0.7407907891585819
  0.9073948867270499  0.5000438249584336  0.3017340718286822
  0.7507694373676185  0.4999688036781710  0.2586364678555056
  0.5941075743679100  0.4999712581438489  0.3014748847178356
  0.6550425995216312  0.7500045011437745  0.4101963167995329
  0.5006606334449512  0.7501033177672805  0.3933598563603699
  0.8463028677282126  0.7501704886853003  0.4104628155869125
  0.9015494153555244  0.7504443185960059  0.5226199101993650
  0.7505531340239878  0.7500766830523190  0.5031500046573884
  0.5995766497015548  0.7500928559489931  0.5222037580377242
  0.6519623977015586  0.7498795401889364  0.6335065889466206
  0.5003710598776057  0.7501078126263021  0.6134824475023271
  0.8483525414330855  0.7499676395162929  0.6335704661588135
  0.9031648805515666  0.7506808794720644  0.7407798540227454
  0.7501538325796095  0.7508041408179982  0.7242555842580338
  0.5968050531047031  0.7497708209225380  0.7407776465668720
  0.9077513061807289  0.7500976323852013  0.3016693912613903
  0.7507681341452115  0.7500686737516055  0.2570270416645609
  0.5937624696835546  0.7500187574120493  0.3014141139025716
  0.6551174190310353  0.0001259818628712  0.4102543499907327
  0.5007174550507134  0.0000455756054805  0.3934158213894657
  0.8463301499532184  0.0001292366012470  0.4105842704125192
  0.9016238174293492  0.0002782423012403  0.5229280138908237
  0.7506544262413090  0.0002735756099164  0.5033164813058704
  0.5996368332519659  0.0001307279689576  0.5221595319534131
  0.6517420011526691  0.9999843042061771  0.6334680207341130
  0.5003684430389785  0.9999653691921514  0.6132784337114225
  0.8486036495680077  0.9995282061471984  0.6340973883217736
  0.9001757679554223  0.9996773554810106  0.7426218644656480
  0.7486340112876075  0.0002921355647986  0.7244445329793716
  0.5963380572814502  0.9998936288031671  0.7408543443847057
  0.0667117444798264  0.1255107949176608  0.7921765872186936
  0.9332797240700998  0.1253042015086139  0.7922444355745758
 
  0.00000000E+00  0.00000000E+00  0.00000000E+00
  0.00000000E+00  0.00000000E+00  0.00000000E+00
  0.00000000E+00  0.00000000E+00  0.00000000E+00
  0.00000000E+00  0.00000000E+00  0.00000000E+00
  0.00000000E+00  0.00000000E+00  0.00000000E+00
  0.00000000E+00  0.00000000E+00  0.00000000E+00
  0.00000000E+00  0.00000000E+00  0.00000000E+00
  0.00000000E+00  0.00000000E+00  0.00000000E+00
  0.00000000E+00  0.00000000E+00  0.00000000E+00
  0.00000000E+00  0.00000000E+00  0.00000000E+00
  0.00000000E+00  0.00000000E+00  0.00000000E+00
  0.00000000E+00  0.00000000E+00  0.00000000E+00
  0.00000000E+00  0.00000000E+00  0.00000000E+00
  0.00000000E+00  0.00000000E+00  0.00000000E+00
  0.00000000E+00  0.00000000E+00  0.00000000E+00
  0.00000000E+00  0.00000000E+00  0.00000000E+00
  0.00000000E+00  0.00000000E+00  0.00000000E+00
  0.00000000E+00  0.00000000E+00  0.00000000E+00
  0.00000000E+00  0.00000000E+00  0.00000000E+00
  0.00000000E+00  0.00000000E+00  0.00000000E+00
  0.00000000E+00  0.00000000E+00  0.00000000E+00
  0.00000000E+00  0.00000000E+00  0.00000000E+00
  0.00000000E+00  0.00000000E+00  0.00000000E+00
  0.00000000E+00  0.00000000E+00  0.00000000E+00
  0.00000000E+00  0.00000000E+00  0.00000000E+00
  0.00000000E+00  0.00000000E+00  0.00000000E+00
  0.00000000E+00  0.00000000E+00  0.00000000E+00
  0.00000000E+00  0.00000000E+00  0.00000000E+00
  0.00000000E+00  0.00000000E+00  0.00000000E+00
  0.00000000E+00  0.00000000E+00  0.00000000E+00
  0.00000000E+00  0.00000000E+00  0.00000000E+00
  0.00000000E+00  0.00000000E+00  0.00000000E+00
  0.00000000E+00  0.00000000E+00  0.00000000E+00
  0.00000000E+00  0.00000000E+00  0.00000000E+00
  0.00000000E+00  0.00000000E+00  0.00000000E+00
  0.00000000E+00  0.00000000E+00  0.00000000E+00
  0.00000000E+00  0.00000000E+00  0.00000000E+00
  0.00000000E+00  0.00000000E+00  0.00000000E+00
  0.00000000E+00  0.00000000E+00  0.00000000E+00
  0.00000000E+00  0.00000000E+00  0.00000000E+00
  0.00000000E+00  0.00000000E+00  0.00000000E+00
  0.00000000E+00  0.00000000E+00  0.00000000E+00
  0.00000000E+00  0.00000000E+00  0.00000000E+00
  0.00000000E+00  0.00000000E+00  0.00000000E+00
  0.00000000E+00  0.00000000E+00  0.00000000E+00
  0.00000000E+00  0.00000000E+00  0.00000000E+00
  0.00000000E+00  0.00000000E+00  0.00000000E+00
  0.00000000E+00  0.00000000E+00  0.00000000E+00
  0.00000000E+00  0.00000000E+00  0.00000000E+00
  0.00000000E+00  0.00000000E+00  0.00000000E+00
  0.00000000E+00  0.00000000E+00  0.00000000E+00
  0.00000000E+00  0.00000000E+00  0.00000000E+00
  0.00000000E+00  0.00000000E+00  0.00000000E+00
  0.00000000E+00  0.00000000E+00  0.00000000E+00
  0.00000000E+00  0.00000000E+00  0.00000000E+00
  0.00000000E+00  0.00000000E+00  0.00000000E+00
  0.00000000E+00  0.00000000E+00  0.00000000E+00
  0.00000000E+00  0.00000000E+00  0.00000000E+00
  0.00000000E+00  0.00000000E+00  0.00000000E+00
  0.00000000E+00  0.00000000E+00  0.00000000E+00
  0.00000000E+00  0.00000000E+00  0.00000000E+00
  0.00000000E+00  0.00000000E+00  0.00000000E+00
  0.00000000E+00  0.00000000E+00  0.00000000E+00
  0.00000000E+00  0.00000000E+00  0.00000000E+00
  0.00000000E+00  0.00000000E+00  0.00000000E+00
  0.00000000E+00  0.00000000E+00  0.00000000E+00
  0.00000000E+00  0.00000000E+00  0.00000000E+00
  0.00000000E+00  0.00000000E+00  0.00000000E+00
  0.00000000E+00  0.00000000E+00  0.00000000E+00
  0.00000000E+00  0.00000000E+00  0.00000000E+00
  0.00000000E+00  0.00000000E+00  0.00000000E+00
  0.00000000E+00  0.00000000E+00  0.00000000E+00
  0.00000000E+00  0.00000000E+00  0.00000000E+00
  0.00000000E+00  0.00000000E+00  0.00000000E+00
  0.00000000E+00  0.00000000E+00  0.00000000E+00
  0.00000000E+00  0.00000000E+00  0.00000000E+00
  0.00000000E+00  0.00000000E+00  0.00000000E+00
  0.00000000E+00  0.00000000E+00  0.00000000E+00
  0.00000000E+00  0.00000000E+00  0.00000000E+00
  0.00000000E+00  0.00000000E+00  0.00000000E+00
  0.00000000E+00  0.00000000E+00  0.00000000E+00
  0.00000000E+00  0.00000000E+00  0.00000000E+00
  0.00000000E+00  0.00000000E+00  0.00000000E+00
  0.00000000E+00  0.00000000E+00  0.00000000E+00
  0.00000000E+00  0.00000000E+00  0.00000000E+00
  0.00000000E+00  0.00000000E+00  0.00000000E+00
  0.00000000E+00  0.00000000E+00  0.00000000E+00
  0.00000000E+00  0.00000000E+00  0.00000000E+00
  0.00000000E+00  0.00000000E+00  0.00000000E+00
  0.00000000E+00  0.00000000E+00  0.00000000E+00
  0.00000000E+00  0.00000000E+00  0.00000000E+00
  0.00000000E+00  0.00000000E+00  0.00000000E+00
  0.00000000E+00  0.00000000E+00  0.00000000E+00
  0.00000000E+00  0.00000000E+00  0.00000000E+00
  0.00000000E+00  0.00000000E+00  0.00000000E+00
  0.00000000E+00  0.00000000E+00  0.00000000E+00
  0.00000000E+00  0.00000000E+00  0.00000000E+00
  0.00000000E+00  0.00000000E+00  0.00000000E+00
  0.00000000E+00  0.00000000E+00  0.00000000E+00
  0.00000000E+00  0.00000000E+00  0.00000000E+00
  0.00000000E+00  0.00000000E+00  0.00000000E+00
  0.00000000E+00  0.00000000E+00  0.00000000E+00
  0.00000000E+00  0.00000000E+00  0.00000000E+00
  0.00000000E+00  0.00000000E+00  0.00000000E+00
  0.00000000E+00  0.00000000E+00  0.00000000E+00
  0.00000000E+00  0.00000000E+00  0.00000000E+00
  0.00000000E+00  0.00000000E+00  0.00000000E+00
  0.00000000E+00  0.00000000E+00  0.00000000E+00
  0.00000000E+00  0.00000000E+00  0.00000000E+00
  0.00000000E+00  0.00000000E+00  0.00000000E+00
  0.00000000E+00  0.00000000E+00  0.00000000E+00
  0.00000000E+00  0.00000000E+00  0.00000000E+00
  0.00000000E+00  0.00000000E+00  0.00000000E+00
  0.00000000E+00  0.00000000E+00  0.00000000E+00
  0.00000000E+00  0.00000000E+00  0.00000000E+00
  0.00000000E+00  0.00000000E+00  0.00000000E+00
  0.00000000E+00  0.00000000E+00  0.00000000E+00
  0.00000000E+00  0.00000000E+00  0.00000000E+00
  0.00000000E+00  0.00000000E+00  0.00000000E+00
  0.00000000E+00  0.00000000E+00  0.00000000E+00
  0.00000000E+00  0.00000000E+00  0.00000000E+00
  0.00000000E+00  0.00000000E+00  0.00000000E+00
  0.00000000E+00  0.00000000E+00  0.00000000E+00
  0.00000000E+00  0.00000000E+00  0.00000000E+00
  0.00000000E+00  0.00000000E+00  0.00000000E+00
  0.00000000E+00  0.00000000E+00  0.00000000E+00
  0.00000000E+00  0.00000000E+00  0.00000000E+00
  0.00000000E+00  0.00000000E+00  0.00000000E+00
  0.00000000E+00  0.00000000E+00  0.00000000E+00
  0.00000000E+00  0.00000000E+00  0.00000000E+00
  0.00000000E+00  0.00000000E+00  0.00000000E+00
  0.00000000E+00  0.00000000E+00  0.00000000E+00
  0.00000000E+00  0.00000000E+00  0.00000000E+00
  0.00000000E+00  0.00000000E+00  0.00000000E+00
  0.00000000E+00  0.00000000E+00  0.00000000E+00
  0.00000000E+00  0.00000000E+00  0.00000000E+00
  0.00000000E+00  0.00000000E+00  0.00000000E+00
  0.00000000E+00  0.00000000E+00  0.00000000E+00
  0.00000000E+00  0.00000000E+00  0.00000000E+00
  0.00000000E+00  0.00000000E+00  0.00000000E+00
  0.00000000E+00  0.00000000E+00  0.00000000E+00
  0.00000000E+00  0.00000000E+00  0.00000000E+00
  0.00000000E+00  0.00000000E+00  0.00000000E+00
  0.00000000E+00  0.00000000E+00  0.00000000E+00
  0.00000000E+00  0.00000000E+00  0.00000000E+00
  0.00000000E+00  0.00000000E+00  0.00000000E+00
  0.00000000E+00  0.00000000E+00  0.00000000E+00
  0.00000000E+00  0.00000000E+00  0.00000000E+00
  0.00000000E+00  0.00000000E+00  0.00000000E+00
  0.00000000E+00  0.00000000E+00  0.00000000E+00
  0.00000000E+00  0.00000000E+00  0.00000000E+00
  0.00000000E+00  0.00000000E+00  0.00000000E+00
  0.00000000E+00  0.00000000E+00  0.00000000E+00
  0.00000000E+00  0.00000000E+00  0.00000000E+00
  0.00000000E+00  0.00000000E+00  0.00000000E+00
  0.00000000E+00  0.00000000E+00  0.00000000E+00
  0.00000000E+00  0.00000000E+00  0.00000000E+00
  0.00000000E+00  0.00000000E+00  0.00000000E+00
  0.00000000E+00  0.00000000E+00  0.00000000E+00
  0.00000000E+00  0.00000000E+00  0.00000000E+00
  0.00000000E+00  0.00000000E+00  0.00000000E+00
  0.00000000E+00  0.00000000E+00  0.00000000E+00
  0.00000000E+00  0.00000000E+00  0.00000000E+00
  0.00000000E+00  0.00000000E+00  0.00000000E+00
  0.00000000E+00  0.00000000E+00  0.00000000E+00
  0.00000000E+00  0.00000000E+00  0.00000000E+00
  0.00000000E+00  0.00000000E+00  0.00000000E+00
  0.00000000E+00  0.00000000E+00  0.00000000E+00
  0.00000000E+00  0.00000000E+00  0.00000000E+00
  0.00000000E+00  0.00000000E+00  0.00000000E+00
  0.00000000E+00  0.00000000E+00  0.00000000E+00
  0.00000000E+00  0.00000000E+00  0.00000000E+00
  0.00000000E+00  0.00000000E+00  0.00000000E+00
  0.00000000E+00  0.00000000E+00  0.00000000E+00
  0.00000000E+00  0.00000000E+00  0.00000000E+00
  0.00000000E+00  0.00000000E+00  0.00000000E+00
  0.00000000E+00  0.00000000E+00  0.00000000E+00
  0.00000000E+00  0.00000000E+00  0.00000000E+00
  0.00000000E+00  0.00000000E+00  0.00000000E+00
  0.00000000E+00  0.00000000E+00  0.00000000E+00
  0.00000000E+00  0.00000000E+00  0.00000000E+00
  0.00000000E+00  0.00000000E+00  0.00000000E+00
  0.00000000E+00  0.00000000E+00  0.00000000E+00
  0.00000000E+00  0.00000000E+00  0.00000000E+00
  0.00000000E+00  0.00000000E+00  0.00000000E+00
  0.00000000E+00  0.00000000E+00  0.00000000E+00
  0.00000000E+00  0.00000000E+00  0.00000000E+00
  0.00000000E+00  0.00000000E+00  0.00000000E+00
  0.00000000E+00  0.00000000E+00  0.00000000E+00
  0.00000000E+00  0.00000000E+00  0.00000000E+00
  0.00000000E+00  0.00000000E+00  0.00000000E+00
  0.00000000E+00  0.00000000E+00  0.00000000E+00
  0.00000000E+00  0.00000000E+00  0.00000000E+00
  0.00000000E+00  0.00000000E+00  0.00000000E+00
  0.00000000E+00  0.00000000E+00  0.00000000E+00
  0.00000000E+00  0.00000000E+00  0.00000000E+00
  0.00000000E+00  0.00000000E+00  0.00000000E+00
  0.00000000E+00  0.00000000E+00  0.00000000E+00
  0.00000000E+00  0.00000000E+00  0.00000000E+00
  0.00000000E+00  0.00000000E+00  0.00000000E+00
  0.00000000E+00  0.00000000E+00  0.00000000E+00
  0.00000000E+00  0.00000000E+00  0.00000000E+00
  0.00000000E+00  0.00000000E+00  0.00000000E+00
  0.00000000E+00  0.00000000E+00  0.00000000E+00
  0.00000000E+00  0.00000000E+00  0.00000000E+00
  0.00000000E+00  0.00000000E+00  0.00000000E+00
  0.00000000E+00  0.00000000E+00  0.00000000E+00
  0.00000000E+00  0.00000000E+00  0.00000000E+00
  0.00000000E+00  0.00000000E+00  0.00000000E+00
  0.00000000E+00  0.00000000E+00  0.00000000E+00
  0.00000000E+00  0.00000000E+00  0.00000000E+00
  0.00000000E+00  0.00000000E+00  0.00000000E+00
  0.00000000E+00  0.00000000E+00  0.00000000E+00
  0.00000000E+00  0.00000000E+00  0.00000000E+00
  0.00000000E+00  0.00000000E+00  0.00000000E+00
  0.00000000E+00  0.00000000E+00  0.00000000E+00
  0.00000000E+00  0.00000000E+00  0.00000000E+00
  0.00000000E+00  0.00000000E+00  0.00000000E+00
  0.00000000E+00  0.00000000E+00  0.00000000E+00
  0.00000000E+00  0.00000000E+00  0.00000000E+00
  0.00000000E+00  0.00000000E+00  0.00000000E+00
  0.00000000E+00  0.00000000E+00  0.00000000E+00
  0.00000000E+00  0.00000000E+00  0.00000000E+00
  0.00000000E+00  0.00000000E+00  0.00000000E+00
  0.00000000E+00  0.00000000E+00  0.00000000E+00
  0.00000000E+00  0.00000000E+00  0.00000000E+00
  0.00000000E+00  0.00000000E+00  0.00000000E+00
  0.00000000E+00  0.00000000E+00  0.00000000E+00
  0.00000000E+00  0.00000000E+00  0.00000000E+00
  0.00000000E+00  0.00000000E+00  0.00000000E+00
  0.00000000E+00  0.00000000E+00  0.00000000E+00
  0.00000000E+00  0.00000000E+00  0.00000000E+00
  0.00000000E+00  0.00000000E+00  0.00000000E+00
  0.00000000E+00  0.00000000E+00  0.00000000E+00
  0.00000000E+00  0.00000000E+00  0.00000000E+00
  0.00000000E+00  0.00000000E+00  0.00000000E+00
  0.00000000E+00  0.00000000E+00  0.00000000E+00
  0.00000000E+00  0.00000000E+00  0.00000000E+00
  0.00000000E+00  0.00000000E+00  0.00000000E+00
  0.00000000E+00  0.00000000E+00  0.00000000E+00
  0.00000000E+00  0.00000000E+00  0.00000000E+00
  0.00000000E+00  0.00000000E+00  0.00000000E+00
