generated by phonopy                    
   1.00000000000000     
     7.6616205470297620    0.0000000000000000   -0.0000000000000000
    -3.8308102735148810    6.6351580278846010    0.0000000000000000
     0.0000000000000000   -0.0000000000000000   13.3526032825181868
   B    N    Ga
    34    36     2
Direct
  0.1125941679080175  0.2312039531514471 -0.0000000000000000
  0.4519431185767651  0.2312039531514471 -0.0000000000000000
  0.7777777777777786  0.2222222222222214 -0.0000000000000000
  0.1125941679080175  0.5480568814232347 -0.0000000000000000
  0.4444444444444429  0.5555555555555571 -0.0000000000000000
  0.7687960468485530  0.5480568814232347 -0.0000000000000000
  0.4519431185767651  0.8874058320919823 -0.0000000000000000
  0.7687960468485531  0.8874058320919823 -0.0000000000000000
  0.1021003533803845  0.2147208827656763  0.5000000000000000
  0.4459538627186277  0.2147208827656763  0.5000000000000000
  0.7777777777777786  0.2222222222222214  0.5000000000000000
  0.1021003533803845  0.5540461372813723  0.5000000000000000
  0.7852791172343238  0.5540461372813723  0.5000000000000000
  0.1111111111111143  0.8888888888888857  0.5000000000000000
  0.4459538627186277  0.8978996466196156  0.5000000000000000
  0.7852791172343236  0.8978996466196156  0.5000000000000000
  0.2224529268119128  0.1115725202904969  0.2494249012880265
  0.5557037181085072  0.1111851923875893  0.2499220668345405
  0.8888148076124107  0.1111851923875893  0.2499220668345405
  0.2217704752732003  0.4442185709699322  0.2506563249385337
  0.5557814290300679  0.4442185709699322  0.2506563249385337
  0.8888148076124107  0.4442962818914928  0.2499220668345405
  0.2224529268119128  0.7775470731880871  0.2494249012880265
  0.5557814290300679  0.7782295247267998  0.2506563249385337
  0.8884274797095033  0.7775470731880871  0.2494249012880265
  0.2224529268119128  0.1115725202904969  0.7505750987119737
  0.5557037181085072  0.1111851923875893  0.7500779331654591
  0.8888148076124107  0.1111851923875893  0.7500779331654591
  0.2217704752732003  0.4442185709699322  0.7493436750614665
  0.5557814290300679  0.4442185709699322  0.7493436750614665
  0.8888148076124107  0.4442962818914928  0.7500779331654591
  0.2224529268119128  0.7775470731880871  0.7505750987119737
  0.5557814290300679  0.7782295247267998  0.7493436750614665
  0.8884274797095033  0.7775470731880871  0.7505750987119737
  0.2420571882436270  0.1507810431539253 -0.0000000000000000
  0.5558484631001540  0.1112575648834127 -0.0000000000000000
  0.8887424351165872  0.1112575648834127 -0.0000000000000000
  0.2232239036619949  0.4449452851643296 -0.0000000000000000
  0.5550547148356703  0.4449452851643296 -0.0000000000000000
  0.8887424351165872  0.4441515368998462 -0.0000000000000000
  0.2420571882436270  0.7579428117563729 -0.0000000000000000
  0.5550547148356703  0.7767760963380052 -0.0000000000000000
  0.8492189568460745  0.7579428117563729 -0.0000000000000000
  0.2220675023630361  0.1108016713927435  0.5000000000000000
  0.5565461253070313  0.1116063959868513  0.5000000000000000
  0.8883936040131488  0.1116063959868513  0.5000000000000000
  0.1825558045556914  0.4246112356111777  0.5000000000000000
  0.5753887643888220  0.4246112356111777  0.5000000000000000
  0.8883936040131488  0.4434538746929687  0.5000000000000000
  0.2220675023630361  0.7779324976369643  0.5000000000000000
  0.5753887643888220  0.8174441954443089  0.5000000000000000
  0.8891983286072564  0.7779324976369643  0.5000000000000000
  0.1110891932519384  0.2222270535138786  0.2500008385196496
  0.4444711935952759  0.2222270535138786  0.2500008385196496
  0.7777777777777786  0.2222222222222214  0.2500189742363393
  0.1110891932519384  0.5555288064047241  0.2500008385196496
  0.4444444444444429  0.5555555555555571  0.2524506550088577
  0.7777729464861213  0.5555288064047241  0.2500008385196496
  0.1111111111111143  0.8888888888888857  0.2475367378399877
  0.4444711935952759  0.8889108067480614  0.2500008385196496
  0.7777729464861213  0.8889108067480614  0.2500008385196496
  0.1110891932519384  0.2222270535138786  0.7499991614803504
  0.4444711935952759  0.2222270535138786  0.7499991614803504
  0.7777777777777786  0.2222222222222214  0.7499810257636607
  0.1110891932519384  0.5555288064047241  0.7499991614803504
  0.4444444444444429  0.5555555555555571  0.7475493449911422
  0.7777729464861213  0.5555288064047241  0.7499991614803504
  0.1111111111111143  0.8888888888888857  0.7524632621600122
  0.4444711935952759  0.8889108067480614  0.7499991614803504
  0.7777729464861213  0.8889108067480614  0.7499991614803504
  0.1111111111111143  0.8888888888888857 -0.0000000000000000
  0.4444444444444429  0.5555555555555571  0.5000000000000000
 
  0.00000000E+00  0.00000000E+00  0.00000000E+00
  0.00000000E+00  0.00000000E+00  0.00000000E+00
  0.00000000E+00  0.00000000E+00  0.00000000E+00
  0.00000000E+00  0.00000000E+00  0.00000000E+00
  0.00000000E+00  0.00000000E+00  0.00000000E+00
  0.00000000E+00  0.00000000E+00  0.00000000E+00
  0.00000000E+00  0.00000000E+00  0.00000000E+00
  0.00000000E+00  0.00000000E+00  0.00000000E+00
  0.00000000E+00  0.00000000E+00  0.00000000E+00
  0.00000000E+00  0.00000000E+00  0.00000000E+00
  0.00000000E+00  0.00000000E+00  0.00000000E+00
  0.00000000E+00  0.00000000E+00  0.00000000E+00
  0.00000000E+00  0.00000000E+00  0.00000000E+00
  0.00000000E+00  0.00000000E+00  0.00000000E+00
  0.00000000E+00  0.00000000E+00  0.00000000E+00
  0.00000000E+00  0.00000000E+00  0.00000000E+00
  0.00000000E+00  0.00000000E+00  0.00000000E+00
  0.00000000E+00  0.00000000E+00  0.00000000E+00
  0.00000000E+00  0.00000000E+00  0.00000000E+00
  0.00000000E+00  0.00000000E+00  0.00000000E+00
  0.00000000E+00  0.00000000E+00  0.00000000E+00
  0.00000000E+00  0.00000000E+00  0.00000000E+00
  0.00000000E+00  0.00000000E+00  0.00000000E+00
  0.00000000E+00  0.00000000E+00  0.00000000E+00
  0.00000000E+00  0.00000000E+00  0.00000000E+00
  0.00000000E+00  0.00000000E+00  0.00000000E+00
  0.00000000E+00  0.00000000E+00  0.00000000E+00
  0.00000000E+00  0.00000000E+00  0.00000000E+00
  0.00000000E+00  0.00000000E+00  0.00000000E+00
  0.00000000E+00  0.00000000E+00  0.00000000E+00
  0.00000000E+00  0.00000000E+00  0.00000000E+00
  0.00000000E+00  0.00000000E+00  0.00000000E+00
  0.00000000E+00  0.00000000E+00  0.00000000E+00
  0.00000000E+00  0.00000000E+00  0.00000000E+00
  0.00000000E+00  0.00000000E+00  0.00000000E+00
  0.00000000E+00  0.00000000E+00  0.00000000E+00
  0.00000000E+00  0.00000000E+00  0.00000000E+00
  0.00000000E+00  0.00000000E+00  0.00000000E+00
  0.00000000E+00  0.00000000E+00  0.00000000E+00
  0.00000000E+00  0.00000000E+00  0.00000000E+00
  0.00000000E+00  0.00000000E+00  0.00000000E+00
  0.00000000E+00  0.00000000E+00  0.00000000E+00
  0.00000000E+00  0.00000000E+00  0.00000000E+00
  0.00000000E+00  0.00000000E+00  0.00000000E+00
  0.00000000E+00  0.00000000E+00  0.00000000E+00
  0.00000000E+00  0.00000000E+00  0.00000000E+00
  0.00000000E+00  0.00000000E+00  0.00000000E+00
  0.00000000E+00  0.00000000E+00  0.00000000E+00
  0.00000000E+00  0.00000000E+00  0.00000000E+00
  0.00000000E+00  0.00000000E+00  0.00000000E+00
  0.00000000E+00  0.00000000E+00  0.00000000E+00
  0.00000000E+00  0.00000000E+00  0.00000000E+00
  0.00000000E+00  0.00000000E+00  0.00000000E+00
  0.00000000E+00  0.00000000E+00  0.00000000E+00
  0.00000000E+00  0.00000000E+00  0.00000000E+00
  0.00000000E+00  0.00000000E+00  0.00000000E+00
  0.00000000E+00  0.00000000E+00  0.00000000E+00
  0.00000000E+00  0.00000000E+00  0.00000000E+00
  0.00000000E+00  0.00000000E+00  0.00000000E+00
  0.00000000E+00  0.00000000E+00  0.00000000E+00
  0.00000000E+00  0.00000000E+00  0.00000000E+00
  0.00000000E+00  0.00000000E+00  0.00000000E+00
  0.00000000E+00  0.00000000E+00  0.00000000E+00
  0.00000000E+00  0.00000000E+00  0.00000000E+00
  0.00000000E+00  0.00000000E+00  0.00000000E+00
  0.00000000E+00  0.00000000E+00  0.00000000E+00
  0.00000000E+00  0.00000000E+00  0.00000000E+00
  0.00000000E+00  0.00000000E+00  0.00000000E+00
  0.00000000E+00  0.00000000E+00  0.00000000E+00
  0.00000000E+00  0.00000000E+00  0.00000000E+00
  0.00000000E+00  0.00000000E+00  0.00000000E+00
  0.00000000E+00  0.00000000E+00  0.00000000E+00
