Cu	N	Ru	Ta                              
   1.00000000000000     
    18.1096308199999996    0.0000000000000000    0.0000000000000000
     0.0000000000000000   23.3551997799999995    0.0000000000000000
     0.0000000000000000    0.0000000000000000   30.4818171199999988
   Cu   N    Ru   Ta
     3   240    36   204
Selective dynamics
Direct
  0.5838989820006663  0.4382274140054724  0.6102275629463408   T   T   T
  0.2351372680058112  0.4279910123915323  0.5929165213803300   T   T   T
  0.4485421217244474  0.4426455653142924  0.6173569610519924   T   T   T
  0.9999390215389100  0.8744319407623782  0.4735054653565375   T   T   T
  0.0002131212768962  0.3743729846526925  0.4733302500035149   T   T   T
  0.0007546365873381  0.7508357331636546  0.3024712727493721   F   F   F
  0.0007546365873381  0.2508357331636546  0.3024712727493721   F   F   F
  0.0007971388342227  0.6259226757939587  0.3025555019798603   F   F   F
  0.0007971388342227  0.1259226757939587  0.3025555019798603   F   F   F
  0.0009289261701255  0.8759179472966139  0.3027706837052264   F   F   F
  0.0009289261701255  0.3759179472966139  0.3027706837052264   F   F   F
  0.0009959888293309  0.0008861705399639  0.3028813086718003   F   F   F
  0.0009959888293309  0.5008861705399639  0.3028813086718003   F   F   F
  0.0021322505772559  0.0004305903467961  0.4726265185284222   T   T   T
  0.0022480732467914  0.5004310497163227  0.4721630323877047   T   T   T
  0.5622480154437904  0.7617508121051424  0.5807269616083135   T   T   T
  0.5634568356363882  0.2616311323651442  0.5807352820408793   T   T   T
  0.5944407181460178  0.8759335502460033  0.2316533513143781   F   F   F
  0.5944407181460178  0.3759335502460033  0.2316533513143781   F   F   F
  0.5944879250719026  0.6260651198762730  0.2317376786361365   F   F   F
  0.5944879250719026  0.1260651198762730  0.2317376786361365   F   F   F
  0.5945319922319641  0.7509793277392376  0.2318466107902424   F   F   F
  0.5945319922319641  0.2509793277392376  0.2318466107902424   F   F   F
  0.5946973191803622  0.0011281697544092  0.2317203788144795   F   F   F
  0.5946973191803622  0.5011281697544092  0.2317203788144795   F   F   F
  0.5991388096140728  0.7516122648655728  0.4022413380499912   T   T   T
  0.5993160054887321  0.2514450738386719  0.4022003941091173   T   T   T
  0.5996969472302242  0.6265001988324665  0.4015625491490841   T   T   T
  0.5999013611464837  0.1263449840877715  0.4015284058615863   T   T   T
  0.6001719812060093  0.3759470294120441  0.4014960043035591   T   T   T
  0.6002051571107628  0.8760521721993181  0.4012576109156398   T   T   T
  0.6005403321296514  0.5013338906355600  0.4012510822736945   T   T   T
  0.6007136093640557  0.0013125149819910  0.4009303799741156   T   T   T
  0.6044333921638826  0.8769157418044894  0.5690388629153138   T   T   T
  0.6046341163098904  0.9981608451015015  0.5690094662599313   T   T   T
  0.6070026094588152  0.5001903801225815  0.5717918667231018   T   T   T
  0.6099950244358173  0.3758371754669742  0.5715637608178118   T   T   T
  0.6131614523522136  0.1414544983971962  0.5674918792409642   T   T   T
  0.6135776835472277  0.6421478297867126  0.5667550353780823   T   T   T
  0.6478774307610754  0.7511511406027781  0.4871525856991726   T   T   T
  0.6483085819012797  0.2502329609884690  0.4871999728793232   T   T   T
  0.6523246084188167  0.1257737290359804  0.4854490386700578   T   T   T
  0.6523714667238100  0.6266555471996015  0.4848062752070146   T   T   T
  0.6536300408544926  0.3787724298276866  0.4853554459000106   T   T   T
  0.6536249349624581  0.8793546245289638  0.4848389019138316   T   T   T
  0.6549923804575926  0.7511371041673840  0.3152775575080256   F   F   F
  0.6549923804575926  0.2511371041673840  0.3152775575080256   F   F   F
  0.6552059756456146  0.6260466862938543  0.3150601846403305   F   F   F
  0.6552059756456146  0.1260466862938543  0.3150601846403305   F   F   F
  0.6552148418000521  0.9989174626848065  0.4858977655499930   T   T   T
  0.6552570788408829  0.8758846061131820  0.3149041322638837   F   F   F
  0.6552570788408829  0.3758846061131820  0.3149041322638837   F   F   F
  0.6554052259801963  0.0012023099894023  0.3149218625060755   F   F   F
  0.6554052259801963  0.5012023099894023  0.3149218625060755   F   F   F
  0.6553812230715033  0.4992813048360198  0.4862438074138885   T   T   T
  0.0697840149356674  0.6312680332952698  0.5732302944684687   T   T   T
  0.0698377943982607  0.1311320177761418  0.5735542231657411   T   T   T
  0.7275520603388586  0.7626250195640170  0.5562131710758824   T   T   T
  0.7298773686228867  0.2622277048424619  0.5559511533718271   T   T   T
  0.7502576959584276  0.2508994657016733  0.3870673697937587   T   T   T
  0.7501865098029453  0.7509516106887607  0.3870010355775419   T   T   T
  0.7503837756312706  0.8759246053428527  0.1980143607002915   F   F   F
  0.7503837756312706  0.3759246053428527  0.1980143607002915   F   F   F
  0.7504065850415813  0.0010474442621131  0.1995662990185920   F   F   F
  0.7504065850415813  0.5010474442621131  0.1995662990185920   F   F   F
  0.7504116177228610  0.6259067547141299  0.1982016356247982   F   F   F
  0.7504116177228610  0.1259067547141299  0.1982016356247982   F   F   F
  0.7504539896523426  0.7509563452768688  0.1993173260006742   F   F   F
  0.7504539896523426  0.2509563452768688  0.1993173260006742   F   F   F
  0.7506775348008736  0.1259623698999656  0.3868827964095266   T   T   T
  0.7505777015518222  0.6259949047626673  0.3866938001262091   T   T   T
  0.7507718478611785  0.3761616226756437  0.3860354034339296   T   T   T
  0.7508396936822073  0.8761983177422152  0.3859535847511472   T   T   T
  0.7512368211315298  0.0009257660907255  0.3866931286652686   T   T   T
  0.7511349405038651  0.5009877869819723  0.3867334244322788   T   T   T
  0.7575369061270153  0.8827208972839599  0.5563938865249592   T   T   T
  0.7601009068617726  0.3832004934167804  0.5555437929308406   T   T   T
  0.7658130345390765  0.4983685131579253  0.5561468267552300   T   T   T
  0.7658393864956711  0.9975821869744149  0.5566192969645457   T   T   T
  0.7721617747295095  0.1384008961884274  0.5569936963803614   T   T   T
  0.7721836081360929  0.6394877876244635  0.5571866007129027   T   T   T
  0.0802806177423327  0.7424518374616743  0.5723820587657719   T   T   T
  0.0808613577428924  0.2420734542136546  0.5718560966898311   T   T   T
  0.8457971856104365  0.7508865770875488  0.3147238720130474   F   F   F
  0.8457971856104365  0.2508865770875488  0.3147238720130474   F   F   F
  0.8459094352758285  0.6257770200071491  0.3148105564777453   F   F   F
  0.8459094352758285  0.1257770200071491  0.3148105564777453   F   F   F
  0.8459894799777032  0.8758569369000710  0.3146601051453359   F   F   F
  0.8459894799777032  0.3758569369000710  0.3146601051453359   F   F   F
  0.8462370857983075  0.0009253177109869  0.3148622358114821   F   F   F
  0.8462370857983075  0.5009253177109869  0.3148622358114821   F   F   F
  0.8463638256140261  0.7542160637084747  0.4850769340299532   T   T   T
  0.8467772562043603  0.2542455349043427  0.4848835224997213   T   T   T
  0.8495728403474360  0.6249392471853651  0.4845951645286828   T   T   T
  0.8495293056592623  0.8729740157499364  0.4851650933601562   T   T   T
  0.8497455781649257  0.3732751317303014  0.4851446498052603   T   T   T
  0.8499070666628774  0.1249496845628997  0.4848344855021893   T   T   T
  0.8519150341650644  0.0010752728419326  0.4860107323653522   T   T   T
  0.8522569107373068  0.5011868178033627  0.4858057610648741   T   T   T
  0.0876576554235881  0.8621131516411730  0.5741312783320764   T   T   T
  0.0888523108569599  0.3624946516015588  0.5742062930074525   T   T   T
  0.8960066858384820  0.8702648893610828  0.5715379438023609   T   T   T
  0.8976209724126977  0.3697184901979718  0.5717644272252721   T   T   T
  0.8977360916325507  0.7493233842384509  0.5672151805184090   T   T   T
  0.8981358606052008  0.2481999407675370  0.5671000166345117   T   T   T
  0.9006374464699369  0.2505475299937016  0.4005527309450195   T   T   T
  0.9006224320135194  0.7505516676742801  0.4006049533441661   T   T   T
  0.9011578449489900  0.1257330319203201  0.4012343354181429   T   T   T
  0.9010682463992727  0.6258194771018886  0.4010825256082551   T   T   T
  0.9017819337775166  0.3759925988758744  0.4007864009681958   T   T   T
  0.9018623188027195  0.8759373824480463  0.4008714161050771   T   T   T
  0.9020439562506880  0.5006104997411528  0.4011681391785178   T   T   T
  0.9021747868443162  0.0005750026764710  0.4012803069709323   T   T   T
  0.9024534085972817  0.6073794424529064  0.5671310215748286   T   T   T
  0.9029919502123500  0.1062898431245985  0.5677530833443358   T   T   T
  0.9063370116785165  0.7509661375287990  0.2314450664875594   F   F   F
  0.9063370116785165  0.2509661375287990  0.2314450664875594   F   F   F
  0.9065036119825223  0.6258452416457985  0.2314281613274076   F   F   F
  0.9065036119825223  0.1258452416457985  0.2314281613274076   F   F   F
  0.9065431196901699  0.0009511492176983  0.2315080614196674   F   F   F
  0.9065431196901699  0.5009511492176983  0.2315080614196674   F   F   F
  0.9067333030259945  0.8759844438376305  0.2313964578368939   F   F   F
  0.9067333030259945  0.3759844438376305  0.2313964578368939   F   F   F
  0.9226955821207002  0.4841691661013071  0.5706519182776809   T   T   T
  0.9243931364005712  0.9833714473554984  0.5698376717891557   T   T   T
  0.0952407101582224  0.7510020395980561  0.2320892091881959   F   F   F
  0.0952407101582224  0.2510020395980561  0.2320892091881959   F   F   F
  0.0953260277450525  0.0008979764762245  0.2323666739458474   F   F   F
  0.0953260277450525  0.5008979764762245  0.2323666739458474   F   F   F
  0.0953735919394063  0.6258547564434522  0.2322437075234305   F   F   F
  0.0953735919394063  0.1258547564434522  0.2322437075234305   F   F   F
  0.0955543013107132  0.8759987254538473  0.2323923499085652   F   F   F
  0.0955543013107132  0.3759987254538473  0.2323923499085652   F   F   F
  0.0993736845653165  0.1252781217373560  0.4015895370206836   T   T   T
  0.0993778953945016  0.6251884393969616  0.4015863176910860   T   T   T
  0.0994784576141291  0.2509360491087175  0.4016417851959197   T   T   T
  0.0994673677268966  0.7509603231347622  0.4017640046050210   T   T   T
  0.9984306779530189  0.6245493832494877  0.4718592593079578   T   T   T
  0.9985221702835122  0.2504752036890229  0.4722065779914972   T   T   T
  0.9984775537604934  0.7505555474044469  0.4723653895203462   T   T   T
  0.9985959619414986  0.1244836310555874  0.4720698780217832   T   T   T
  0.1002712635790536  0.8756470789874548  0.4028775288084318   T   T   T
  0.1003859777311557  0.3754762321801248  0.4025527188100843   T   T   T
  0.1007402717821972  0.0012264737107241  0.4028276131124638   T   T   T
  0.1007632681572565  0.5013135190766163  0.4024856458795023   T   T   T
  0.1018054244835591  0.5024785748753173  0.5662447253626485   T   T   T
  0.1049921162340904  0.0006080466903162  0.5671948051895339   T   T   T
  0.1479885262410049  0.6281223116101108  0.4860667466842196   T   T   T
  0.1483367803755987  0.1283972631371628  0.4859070184354334   T   T   T
  0.1484690371444068  0.2461357886330408  0.4869455766895744   T   T   T
  0.1484299648652003  0.7460148723818237  0.4872029630067589   T   T   T
  0.1530022168846233  0.3763457206340006  0.4875112123757764   T   T   T
  0.1533004974039863  0.8765373815677150  0.4878882950574386   T   T   T
  0.1545674343504489  0.5008208341221952  0.4866786947188335   T   T   T
  0.1549328051537706  0.0016367911906499  0.4871528544066375   T   T   T
  0.1554278840897965  0.7509669489112838  0.3157714680232928   F   F   F
  0.1554278840897965  0.2509669489112767  0.3157714680232928   F   F   F
  0.1555300833018336  0.8760083006234964  0.3161854069282626   F   F   F
  0.1555300833018336  0.3760083006234964  0.3161854069282626   F   F   F
  0.1556347359045702  0.6258770940815310  0.3158690852351640   F   F   F
  0.1556347359045702  0.1258770940815310  0.3158690852351640   F   F   F
  0.1557688557010550  0.0008265358541948  0.3160543218953578   F   F   F
  0.1557688557010550  0.5008265358541948  0.3160543218953578   F   F   F
  0.2101741563982629  0.1126334526170469  0.5659627652229475   T   T   T
  0.2116034872805976  0.6140389789173895  0.5654048505836096   T   T   T
  0.2219430384815116  0.7506424551560698  0.5627727920504191   T   T   T
  0.2228059280198499  0.2497264925683838  0.5619204562483314   T   T   T
  0.2502252069218999  0.2512536497719289  0.3876929009292436   T   T   T
  0.2501305938311030  0.7512755214375995  0.3876916896955176   T   T   T
  0.2504443913073218  0.1255052801728063  0.3886417123851943   T   T   T
  0.2504809879435367  0.6255182698849439  0.3887307237739598   T   T   T
  0.2506886730670530  0.7509740783728773  0.1986783637654739   F   F   F
  0.2506886730670530  0.2509740783728773  0.1986783637654739   F   F   F
  0.2507303928573421  0.8760426103278647  0.2004520155719618   F   F   F
  0.2507303928573421  0.3760426103278647  0.2004520155719618   F   F   F
  0.2507787477911734  0.6260460958471867  0.2004465916827201   F   F   F
  0.2507787477911734  0.1260460958471867  0.2004465916827201   F   F   F
  0.2507842901460080  0.0010521164550710  0.1987081864626035   F   F   F
  0.2507842901460080  0.5010521164550710  0.1987081864626035   F   F   F
  0.2508790630092135  0.8756172004715708  0.3887576638061193   T   T   T
  0.2510797242720324  0.3755462704391799  0.3888025366110671   T   T   T
  0.2511081854781787  0.0013940583001806  0.3880348129911679   T   T   T
  0.2512776806017131  0.5013455278420262  0.3881871499806615   T   T   T
  0.2754384850480504  0.4986303825400309  0.5661809617619938   T   T   T
  0.2812622296292964  0.0003209651098501  0.5648503413569096   T   T   T
  0.2879783647278685  0.3667855403630824  0.5673411067771210   T   T   T
  0.2887457725178736  0.8655099991613259  0.5648452497029425   T   T   T
  0.3453329291920965  0.2515920031566509  0.4857676612777881   T   T   T
  0.3451500392203625  0.7520425581897408  0.4859094940974583   T   T   T
  0.3457709857389588  0.7509801434034244  0.3160634932646005   F   F   F
  0.3457709857389588  0.2509801434034244  0.3160634932646005   F   F   F
  0.3458124879654534  0.8762438730036024  0.3160546332285037   F   F   F
  0.3458124879654534  0.3762438730036024  0.3160546332285037   F   F   F
  0.3458692307014104  0.0011300682609701  0.3160825482309733   F   F   F
  0.3458692307014104  0.5011300682609701  0.3160825482309733   F   F   F
  0.3458914509224655  0.6260993829100983  0.3163092197569100   F   F   F
  0.3458914509224655  0.1260993829100983  0.3163092197569100   F   F   F
  0.3475137490695748  0.6269150530892025  0.4878860205084127   T   T   T
  0.3477101690759744  0.1264805053369146  0.4877845500076952   T   T   T
  0.3520831948345694  0.4971495417027983  0.4883845966819528   T   T   T
  0.3522227569957598  0.9971184378959886  0.4877924042346349   T   T   T
  0.3529695913334660  0.8786309366843489  0.4868339853062070   T   T   T
  0.3532376150853455  0.3775993159791913  0.4871381929532169   T   T   T
  0.3884567619337936  0.7537056553237141  0.5654890805644353   T   T   T
  0.3891395642092961  0.2538026702072619  0.5656940495612020   T   T   T
  0.4008519219190388  0.2516464055274601  0.4025425172261879   T   T   T
  0.4007466517072255  0.7516467980173828  0.4026103611826765   T   T   T
  0.4012817768399693  0.1259220934930369  0.4029048747120989   T   T   T
  0.4013320660804782  0.6259054448839604  0.4032198354551374   T   T   T
  0.4018443472146351  0.0015902462853275  0.4022279397680067   T   T   T
  0.4019729217419401  0.5017420860975336  0.4025712228692433   T   T   T
  0.4020138235551787  0.8758357398690269  0.4021213268682226   T   T   T
  0.4022239998743730  0.3756939675145075  0.4022280539294107   T   T   T
  0.4059113337573805  0.8760558925948985  0.2324750129594619   F   F   F
  0.4059113337573805  0.3760558925948985  0.2324750129594619   F   F   F
  0.4059234726022964  0.6261621252550071  0.2326545521246786   F   F   F
  0.4059234726022964  0.1261621252550071  0.2326545521246786   F   F   F
  0.4060644417929637  0.7510364413590125  0.2325227387887452   F   F   F
  0.4060644417929637  0.2510364413590125  0.2325227387887452   F   F   F
  0.4061374416245584  0.0011248655651599  0.2324172293308493   F   F   F
  0.4061374416245584  0.5011248655651599  0.2324172293308493   F   F   F
  0.4148171493538776  0.6145107267944488  0.5729946591957377   T   T   T
  0.4158739778955037  0.1141703787224473  0.5725923590172821   T   T   T
  0.4221559375448403  0.4977665897769615  0.5740834003545247   T   T   T
  0.4250973101641499  0.9955610111487573  0.5722382616817429   T   T   T
  0.4348788277655695  0.3827658592097840  0.5759143516026282   T   T   T
  0.4351256864060192  0.8887281484976791  0.5753516167405212   T   T   T
  0.4983383014037520  0.7520561747124870  0.4734488959808371   T   T   T
  0.4986202997140611  0.2514955921510032  0.4733945288113148   T   T   T
  0.5004630585837617  0.7510598909550410  0.3031888444713573   F   F   F
  0.5004630585837617  0.2510598909550410  0.3031888444713573   F   F   F
  0.5004977600090044  0.6261199205207575  0.3031516629609641   F   F   F
  0.5004977600090044  0.1261199205207575  0.3031516629609641   F   F   F
  0.5005209432535551  0.8761149809355189  0.3028206587442455   F   F   F
  0.5005209432535551  0.3761149809355189  0.3028206587442455   F   F   F
  0.5006083602757840  0.0011215981985515  0.3028334437431965   F   F   F
  0.5006083602757840  0.5011215981985515  0.3028334437431965   F   F   F
  0.5015307342828836  0.1270491713770171  0.4740018220459113   T   T   T
  0.5014477741326487  0.6272503046691793  0.4744720566623417   T   T   T
  0.5023707602542878  0.8771349408257917  0.4729770848329550   T   T   T
  0.5026660511648751  0.3767173012444985  0.4734093919871708   T   T   T
  0.5028605822482618  0.0017535646984924  0.4727202395150838   T   T   T
  0.5029864030682532  0.5017418273278200  0.4734108407189695   T   T   T
  0.0023785407442357  0.4983641904618533  0.5402664700263653   T   T   T
  0.0043958155446246  0.9979407319447786  0.5406385920356653   T   T   T
  0.6263065043226271  0.0681215234440482  0.5397100089395681   T   T   T
  0.6263893771703920  0.2992812194506381  0.5457767636749321   T   T   T
  0.6258362109720351  0.8004194693349853  0.5463678727453681   T   T   T
  0.6295337535122817  0.5685424362145062  0.5382743793892993   T   T   T
  0.6990571679391561  0.6882248495026777  0.5377815827137072   T   T   T
  0.6996488928570814  0.1882833819148234  0.5380985145437981   T   T   T
  0.8071056603996105  0.5671705963950108  0.5373519671568086   T   T   T
  0.8071731636833780  0.0661737691864022  0.5374235129159913   T   T   T
  0.8460086082055059  0.9370838536153406  0.5366046403066613   T   T   T
  0.8492755469558207  0.4373971899528630  0.5370653180779404   T   T   T
  0.8741741238483894  0.1766382063193119  0.5421040316328835   T   T   T
  0.8741241946177452  0.6781679251682959  0.5416384382530888   T   T   T
  0.9962081000338883  0.6167280285107201  0.5393382732849051   T   T   T
  0.9961773051822692  0.7542279485578472  0.5394629948700280   T   T   T
  0.9965949844526920  0.2539939248899888  0.5392632691472956   T   T   T
  0.9967967207624825  0.1157031501015314  0.5396840718874000   T   T   T
  0.1191989093674687  0.4297621077091704  0.5422097636311959   T   T   T
  0.1206644226085116  0.9287569340818130  0.5431277793709615   T   T   T
  0.1403439506571818  0.8031534725039076  0.5412389259105616   T   T   T
  0.1416216881121009  0.3029202254493874  0.5411673596769878   T   T   T
  0.1993296558205283  0.5437043943876742  0.5418705138094725   T   T   T
  0.2021726190643094  0.0413502086892484  0.5428563629945993   T   T   T
  0.2983741928392815  0.7951629197579360  0.5408866563537782   T   T   T
  0.2993416562901990  0.2948835221074098  0.5408694349484473   T   T   T
  0.3604874424168214  0.5546020436464877  0.5430955670924758   T   T   T
  0.3619107413333750  0.0545981064053734  0.5415301092194420   T   T   T
  0.3761032637231344  0.1794335731392132  0.5416484940710862   T   T   T
  0.3759440587655448  0.6791430112908723  0.5419568930156962   T   T   T
  0.4876611760537589  0.2520958929110554  0.5417359370491759   T   T   T
  0.4871289954475055  0.7524201405830722  0.5416030446978112   T   T   T
  0.5091062143343198  0.9985557025782210  0.5400304992583425   T   T   T
  0.5096632333615950  0.5007573686691907  0.5404456245007370   T   T   T
  0.5110004826050328  0.8829380842850827  0.5405522597105598   T   T   T
  0.5148156228455372  0.3825287612477812  0.5405148286413060   T   T   T
  0.0003628065165986  0.1255841127485877  0.3691364969505194   T   T   T
  0.0003764733799090  0.2508970517656933  0.3689815121956598   T   T   T
  0.0003595577665221  0.6256308522208573  0.3691054704955693   T   T   T
  0.0004194767250558  0.7509311623898910  0.3690111609646208   T   T   T
  0.0010343750342656  0.7509675273691911  0.1970340395507222   F   F   F
  0.0010343750342656  0.2509675273691911  0.1970340395507222   F   F   F
  0.0013074606674977  0.0009931951008113  0.1970949867046485   F   F   F
  0.0013074606674977  0.5009931951008113  0.1970949867046485   F   F   F
  0.0014056432322107  0.6258753569951239  0.1970772590869743   F   F   F
  0.0014056432322107  0.1258753569951239  0.1970772590869743   F   F   F
  0.0016024396031646  0.3758287515100950  0.3693575244238400   T   T   T
  0.0016300205284878  0.8760244032474702  0.1970602374639512   F   F   F
  0.0016300205284878  0.3760244032474702  0.1970602374639512   F   F   F
  0.0016521651649922  0.8758338025566942  0.3694320043654348   T   T   T
  0.0017308963908801  0.5006702696174193  0.3695244642433120   T   T   T
  0.0018357426993758  0.0006721653958360  0.3696058342633416   T   T   T
  0.5828489970288615  0.8134981673875430  0.2835797008416634   F   F   F
  0.5828489970288615  0.3134981673875430  0.2835797008416634   F   F   F
  0.5829043521053947  0.6885407361734863  0.2836251512160501   F   F   F
  0.5829043521053947  0.1885407361734863  0.2836251512160501   F   F   F
  0.5829602019462925  0.4385545752758304  0.2833243807611936   F   F   F
  0.5829602019462925  0.9385545752758304  0.2833243807611936   F   F   F
  0.5830265959005345  0.5635893986773652  0.2835447360626375   F   F   F
  0.5830265959005345  0.0635893986773652  0.2835447360626375   F   F   F
  0.5842245231196466  0.1889097368886268  0.4535277808528910   T   T   T
  0.5842237735683472  0.8146982552253016  0.4552184200317189   T   T   T
  0.5842016964746889  0.6894971069039121  0.4537085183951685   T   T   T
  0.5844899425546642  0.3141783006036749  0.4553236288921606   T   T   T
  0.5856179510609962  0.9391192098848716  0.4525795853865056   T   T   T
  0.5858008053407816  0.4389023928444912  0.4532032797380503   T   T   T
  0.5865546593329520  0.0632573864268238  0.4534427995958127   T   T   T
  0.5866003253568424  0.5635072781863562  0.4537401350702468   T   T   T
  0.6662453414939336  0.5635923628994988  0.2021068355520654   F   F   F
  0.6662453414939336  0.0635923628994988  0.2021068355520654   F   F   F
  0.6663404610475681  0.8134949072998268  0.2022484366903115   F   F   F
  0.6663404610475681  0.3134949072998268  0.2022484366903115   F   F   F
  0.6663750951053373  0.6883939277525641  0.2022233082671292   F   F   F
  0.6663750951053373  0.1883939277525641  0.2022233082671292   F   F   F
  0.6663864277493872  0.4383644600106251  0.2021335334354930   F   F   F
  0.6663864277493872  0.9383644600106251  0.2021335334354930   F   F   F
  0.6680833620697516  0.3135740759322254  0.3679224634815910   T   T   T
  0.6680664628799888  0.8136013082971245  0.3679061938480960   T   T   T
  0.6680435652451087  0.6887428046589708  0.3677143809197351   T   T   T
  0.6682743202835790  0.1886805725077978  0.3676950550489453   T   T   T
  0.6685424226465139  0.4386033854137881  0.3672641350775390   T   T   T
  0.6685391270912200  0.5637151708234055  0.3675755278278162   T   T   T
  0.6687648696440986  0.9386024395693598  0.3669728835749340   T   T   T
  0.6687986250245749  0.0637103110688715  0.3675240016342752   T   T   T
  0.6757631358698041  0.9359709201966957  0.5401832844475241   T   T   T
  0.6801531024281541  0.4367903181363759  0.5395092757775928   T   T   T
  0.7473684897623344  0.7523142394745931  0.4552134105466816   T   T   T
  0.7477895514317640  0.2519647674494210  0.4552811341805176   T   T   T
  0.7501730562611186  0.7507079098083409  0.2774330469442816   F   F   F
  0.7501730562611186  0.2507079098083409  0.2774330469442816   F   F   F
  0.7503705266477219  0.1258219428276538  0.4549905442719127   T   T   T
  0.7504750055418299  0.6259680682551618  0.2773981497465243   F   F   F
  0.7504750055418299  0.1259680682551618  0.2773981497465243   F   F   F
  0.7504218113369816  0.6263517173181168  0.4545852439010676   T   T   T
  0.7505173338481086  0.8759365097582545  0.2770578193141517   F   F   F
  0.7505173338481086  0.3759365097582545  0.2770578193141517   F   F   F
  0.7507337004896470  0.0010587017123740  0.2774432067716575   F   F   F
  0.7507337004896470  0.5010587017123740  0.2774432067716575   F   F   F
  0.7513837851792240  0.3757178327428851  0.4536440308844432   T   T   T
  0.7513358234982042  0.8756930274585164  0.4535852027424531   T   T   T
  0.7537604818020810  0.0006967263890954  0.4546327279957487   T   T   T
  0.7537728369992480  0.5005283727900367  0.4546495439849964   T   T   T
  0.0811391220330533  0.6877025380987632  0.4526751604643702   T   T   T
  0.0813811165053864  0.1877295724641625  0.4526312025021316   T   T   T
  0.8260732631236593  0.8149574291231526  0.5405305970075140   T   T   T
  0.8279285232789750  0.3142983278660295  0.5403920698770813   T   T   T
  0.8323353890183699  0.1882773177005056  0.3671124672909307   T   T   T
  0.8323635613448830  0.3133507232390949  0.3669558980536640   T   T   T
  0.8323421604863408  0.8133645448974658  0.3669834939951135   T   T   T
  0.8323242763782398  0.6883281945243159  0.3670741034617238   T   T   T
  0.8328925720160473  0.0633394770839342  0.3673697325745259   T   T   T
  0.8329238149864168  0.5633775484305702  0.3672508965491798   T   T   T
  0.8331723930490661  0.4383682138228860  0.3671544126701472   T   T   T
  0.8332651354076689  0.9383624380534819  0.3671330190052998   T   T   T
  0.8344344719226058  0.6883603527882158  0.2020465356692611   F   F   F
  0.8344344719226058  0.1883603527882158  0.2020465356692611   F   F   F
  0.8344691253071090  0.4383027932291981  0.2021423465583752   F   F   F
  0.8344691253071090  0.9383027932291981  0.2021423465583752   F   F   F
  0.8345236995836203  0.8136019065986346  0.2020593032807980   F   F   F
  0.8345236995836203  0.3136019065986346  0.2020593032807980   F   F   F
  0.8345432068835521  0.5635442939465207  0.2020614199525141   F   F   F
  0.8345432068835521  0.0635442939465207  0.2020614199525141   F   F   F
  0.0835181835032017  0.8134609632527869  0.2839000862688721   F   F   F
  0.0835181835032017  0.3134609632527869  0.2839000862688721   F   F   F
  0.0836480050342630  0.5633752300961916  0.2839758639034855   F   F   F
  0.0836480050342630  0.0633752300961916  0.2839758639034855   F   F   F
  0.0836768758602418  0.6884091217994310  0.2837888281379435   F   F   F
  0.0836768758602418  0.1884091217994310  0.2837888281379435   F   F   F
  0.0836920180794749  0.4383888699923588  0.2841732146708722   F   F   F
  0.0836920180794749  0.9383888699923588  0.2841732146708722   F   F   F
  0.0847225459773750  0.3126302050035436  0.4545132724555424   T   T   T
  0.0847991367011577  0.8126707522309539  0.4547261142390909   T   T   T
  0.0854195114116800  0.5634708891445462  0.4549960621827712   T   T   T
  0.0855586455404141  0.0636621464779830  0.4552610246948244   T   T   T
  0.0859980070385164  0.4381649926351599  0.4543537552211170   T   T   T
  0.0861642567569843  0.9382284901595612  0.4551420403716787   T   T   T
  0.9145337652769975  0.6887956337605580  0.4537090525905823   T   T   T
  0.9147020882990660  0.1887604057152225  0.4537181226135433   T   T   T
  0.9166900795230281  0.3126811378719516  0.4518130669774730   T   T   T
  0.9167324742175447  0.8125724486825316  0.4519154511262257   T   T   T
  0.9173617074948232  0.5628461975661434  0.4528743738801246   T   T   T
  0.9175472009779198  0.0627615528157263  0.4529654412370099   T   T   T
  0.9178159050586445  0.9376576479105662  0.4534511080180892   T   T   T
  0.9180229517590899  0.4377364311752464  0.4534506384769357   T   T   T
  0.9181839152478091  0.6884040565462470  0.2831378587445599   F   F   F
  0.9181839152478091  0.1884040565462470  0.2831378587445599   F   F   F
  0.9183594213103916  0.8134327656776748  0.2832265145484243   F   F   F
  0.9183594213103916  0.3134327656776748  0.2832265145484243   F   F   F
  0.9184058656586132  0.5633566590711467  0.2833389507587185   F   F   F
  0.9184058656586132  0.0633566590711467  0.2833389507587185   F   F   F
  0.9185001265531056  0.4384185648785746  0.2832681567508857   F   F   F
  0.9185001265531056  0.9384185648785746  0.2832681567508857   F   F   F
  0.9909869249546271  0.8666998239489008  0.5418319146257926   T   T   T
  0.9922253092713046  0.3659819016028537  0.5418122846645047   T   T   T
  0.1523085117050280  0.6813370092815937  0.5436447192796418   T   T   T
  0.1531010508000460  0.1802853877212339  0.5437357560785715   T   T   T
  0.1667765378554549  0.5633392265506032  0.2026421323795375   F   F   F
  0.1667765378554549  0.0633392265506032  0.2026421323795375   F   F   F
  0.1668059973185052  0.6886073834303943  0.2025943133799615   F   F   F
  0.1668059973185052  0.1886073834303943  0.2025943133799615   F   F   F
  0.1668155121452699  0.8133424731509606  0.2025799106952988   F   F   F
  0.1668155121452699  0.3133424731509606  0.2025799106952988   F   F   F
  0.1668272738427916  0.4386259927766716  0.2026791524822329   F   F   F