Cu	N	Ru	Ta                              
   1.00000000000000     
    18.1096308199999996    0.0000000000000000    0.0000000000000000
     0.0000000000000000   23.3551997799999995    0.0000000000000000
     0.0000000000000000    0.0000000000000000   30.4818171199999988
   Cu   N    Ru   Ta
     3   240    24   216
Selective dynamics
Direct
  0.5571199920685301  0.4579747474977020  0.6107100136442705   T   T   T
  0.4439955751828565  0.4084438009754306  0.6267433444357176   T   T   T
  0.4457079826858273  0.5097457603404305  0.6224001667124696   T   T   T
  0.0000000000000000  0.0000770226766207  0.3028264943543491   F   F   F
  0.0000000000000000  0.5000770226766207  0.3028264943543491   F   F   F
  0.0000000000000000  0.6248851796377153  0.3029475127301708   F   F   F
  0.0000000000000000  0.7500770228907001  0.3028264943543491   F   F   F
  0.0000000000000000  0.8748851798518018  0.3029475127301708   F   F   F
  0.0000000000000000  0.1248851796377153  0.3029475127301708   F   F   F
  0.0000000000000000  0.2500770228907001  0.3028264943543491   F   F   F
  0.0000000000000000  0.3748851798518018  0.3029475127301708   F   F   F
 -0.0000626447932647  0.7517942457848075  0.4740499007389409   T   T   T
  0.0003394164024955  0.0016933116575663  0.4743648206938884   T   T   T
  0.0001614201062938  0.5018532072508937  0.4744097863337746   T   T   T
 -0.0000242452920892  0.2515130562109068  0.4744692186497673   T   T   T
  0.0011883447639635  0.8761426968120705  0.4754449439808676   T   T   T
  0.0010366093810173  0.3759570041292320  0.4754449769266072   T   T   T
  0.5920320802322461  0.8971069482915798  0.5701033572311182   T   T   T
  0.5916296888595788  0.6458576149404398  0.5710769206538460   T   T   T
  0.5937616006667924  0.3939740883139049  0.5712662891020996   T   T   T
  0.5929202522016440  0.7696169896662450  0.5638521611798304   T   T   T
  0.5943504772119894  0.6250779795299195  0.2321437935324795   F   F   F
  0.5943504772119894  0.8750779797440060  0.2321437935324795   F   F   F
  0.5943504772119894  0.1250779795299195  0.2321437935324795   F   F   F
  0.5943504772119894  0.3750779797440060  0.2321437935324795   F   F   F
  0.5943930523482663  0.9999373617004466  0.2321734905809336   F   F   F
  0.5943930523482663  0.4999373617004466  0.2321734905809336   F   F   F
  0.5943930523482663  0.7499373619145331  0.2321734905809336   F   F   F
  0.5943930523482663  0.2499373619145331  0.2321734905809336   F   F   F
  0.5937766543174938  0.1417220004784520  0.5688365671981035   T   T   T
  0.5945093449349180  0.2664682060710057  0.5668109435456445   T   T   T
  0.5977661007901125  0.0192088884297811  0.5669124518213993   T   T   T
  0.5987496227860617  0.6241357827327764  0.4025598071167192   T   T   T
  0.5986703669122126  0.1242482467302165  0.4022833352509050   T   T   T
  0.5988490330134705  0.7507096770283302  0.4016017289144643   T   T   T
  0.5986294751929423  0.2505458421596140  0.4016459484143665   T   T   T
  0.5990671180085868  0.8742184835258124  0.4027065269508748   T   T   T
  0.5988870764548959  0.5005465900285685  0.4018171011155228   T   T   T
  0.5988604144620558  0.3743319376551954  0.4025612830930527   T   T   T
  0.5991484521730227  0.0004345261095716  0.4016924444597492   T   T   T
  0.5998364838884807  0.5140803985812507  0.5664806078709733   T   T   T
  0.6495172863085379  0.2463760299043239  0.4831416761291938   T   T   T
  0.6500501492042255  0.6280265060672415  0.4887105476845516   T   T   T
  0.6501146709650101  0.7469573226282477  0.4832455002387493   T   T   T
  0.6507156764680807  0.3766072029527322  0.4887592453150365   T   T   T
  0.6512304539205808  0.8772395452554258  0.4891308205697482   T   T   T
  0.6511658505022512  0.4965498522760570  0.4836659932413565   T   T   T
  0.6513305711920866  0.9970091697586857  0.4837450892674624   T   T   T
  0.6513101500200326  0.1279185874997787  0.4877869526842079   T   T   T
  0.6547082680948861  0.6251230654212776  0.3157550047659328   F   F   F
  0.6547082680948861  0.8751230656353641  0.3157550047659328   F   F   F
  0.6547082680948861  0.1251230654212776  0.3157550047659328   F   F   F
  0.6547082680948861  0.3751230656353641  0.3157550047659328   F   F   F
  0.6547523877132235  0.9998547719551993  0.3156484409089586   F   F   F
  0.6547523877132235  0.4998547719551993  0.3156484409089586   F   F   F
  0.6547523877132235  0.7498547721692859  0.3156484409089586   F   F   F
  0.6547523877132235  0.2498547721692859  0.3156484409089586   F   F   F
  0.7470238998868199  0.2560216878329903  0.5587172115726655   T   T   T
  0.7472224908343460  0.7542070258802079  0.5601817435044890   T   T   T
  0.7481657910816595  0.1341770362833884  0.5592513583916948   T   T   T
  0.7499200387532884  0.7501717315500888  0.3868615978867017   T   T   T
  0.7499999997239044  0.0000513585844359  0.1992858820091215   F   F   F
  0.7499999997239044  0.5000513585844431  0.1992858820091215   F   F   F
  0.7499999997239044  0.6250070552811167  0.1993925282102751   F   F   F
  0.7499999997239044  0.7500513587985225  0.1992858820091215   F   F   F
  0.7499999997239044  0.8750070554952032  0.1993925282102751   F   F   F
  0.7499999997239044  0.1250070552811167  0.1993925282102751   F   F   F
  0.7499999997239044  0.2500513587985225  0.1992858820091215   F   F   F
  0.7499999997239044  0.3750070554952032  0.1993925282102751   F   F   F
  0.7499058613998490  0.6247982328071556  0.3885188156419136   T   T   T
  0.7499634719925684  0.0059918242313052  0.5607846289750319   T   T   T
  0.7500614659387551  0.6309484902628175  0.5547110135753753   T   T   T
  0.7500604427827036  0.8748640831142204  0.3886658130179677   T   T   T
  0.7498766069026495  0.2502281338905657  0.3869669928953762   T   T   T
  0.7499529938695779  0.5000380543053642  0.3868425788471816   T   T   T
  0.7499783824617573  0.1248405264361833  0.3879042543796592   T   T   T
  0.7501092291186502 -0.0000278742554438  0.3866821284145601   T   T   T
  0.7500061563867481  0.3747351961573281  0.3887176521787703   T   T   T
  0.7502942403455243  0.5041803604728842  0.5578726467615641   T   T   T
  0.7544630193497142  0.8852393822856377  0.5540500453259097   T   T   T
  0.7552410561156343  0.3820019645028481  0.5532028693897765   T   T   T
  0.8452476122867765  0.9998547719551993  0.3156484409089586   F   F   F
  0.8452476122867765  0.4998547719551993  0.3156484409089586   F   F   F
  0.8452476122867765  0.7498547721692859  0.3156484409089586   F   F   F
  0.8452476122867765  0.2498547721692859  0.3156484409089586   F   F   F
  0.8452917319051139  0.6251230654212776  0.3157550047659328   F   F   F
  0.8452917319051139  0.8751230656353641  0.3157550047659328   F   F   F
  0.8452917319051139  0.1251230654212776  0.3157550047659328   F   F   F
  0.8452917319051139  0.3751230656353641  0.3157550047659328   F   F   F
  0.8480110876707151  0.1279485028846808  0.4881762031657802   T   T   T
  0.8481750662419933  0.7476670772555801  0.4842095415136408   T   T   T
  0.8481169064334843  0.2473060534905533  0.4843415074094654   T   T   T
  0.8494250190667680  0.9975329956299883  0.4834880213419609   T   T   T
  0.8490519380136025  0.6292753623769013  0.4878310451500683   T   T   T
  0.8495238595143549  0.4972771098524635  0.4833470910613639   T   T   T
  0.8502707734984597  0.8801496055701417  0.4874150383856807   T   T   T
  0.8507867227118330  0.3798043850488177  0.4875762502584275   T   T   T
  0.0872540144892208  0.1498835151395804  0.5689764573973173   T   T   T
  0.9008727964271428  0.7512110472481150  0.4018780753905112   T   T   T
  0.9010589087304792  0.6249910571087531  0.4024612745365226   T   T   T
  0.9009103148537089  0.2509013010212648  0.4020048236630695   T   T   T
  0.9010811431922641  0.1250031361603082  0.4024314951877576   T   T   T
  0.9012255160876227  0.5011411274212423  0.4015751249546727   T   T   T
  0.9014382763369537  0.0010628296077947  0.4016017360815166   T   T   T
  0.9015085634712410  0.8749126536975528  0.4025427885620860   T   T   T
  0.9014218679930344  0.3747133103785951  0.4025849104046564   T   T   T
  0.0898264012975287  0.6487440959715415  0.5699952053486766   T   T   T
  0.9010122858210142  0.1438824937732039  0.5705799861449327   T   T   T
  0.9018924855766571  0.0201422200077288  0.5682444140666127   T   T   T
  0.9028632616283482  0.5179883303837045  0.5685001639860252   T   T   T
  0.9053629307634525  0.7686250705281917  0.5655936051139622   T   T   T
  0.9052156099022407  0.6475234777582325  0.5706319586901960   T   T   T
  0.9056069476517337  0.9999373617004466  0.2321734905809336   F   F   F
  0.9056069476517337  0.4999373617004466  0.2321734905809336   F   F   F
  0.9056069476517337  0.7499373619145331  0.2321734905809336   F   F   F
  0.9056069476517337  0.2499373619145331  0.2321734905809336   F   F   F
  0.9056495227880106  0.6250779795299195  0.2321437935324795   F   F   F
  0.9056495227880106  0.8750779797440060  0.2321437935324795   F   F   F
  0.9056495227880106  0.1250779795299195  0.2321437935324795   F   F   F
  0.9056495227880106  0.3750779797440060  0.2321437935324795   F   F   F
  0.9056043726706944  0.2667782921281653  0.5653957406719998   T   T   T
  0.9127545634065721  0.8995755193366799  0.5686604943667835   T   T   T
  0.9125011672005285  0.3982393063263688  0.5697428660497665   T   T   T
  0.0943504772119894  0.6250779795299195  0.2321437935324795   F   F   F
  0.0943504772119894  0.8750779797440060  0.2321437935324795   F   F   F
  0.0943504772119894  0.1250779795299195  0.2321437935324795   F   F   F
  0.0943504772119894  0.3750779797440060  0.2321437935324795   F   F   F
  0.0943930523482663  0.9999373617004466  0.2321734905809336   F   F   F
  0.0943930523482663  0.4999373617004466  0.2321734905809336   F   F   F
  0.0943930523482663  0.7499373619145331  0.2321734905809336   F   F   F
  0.0943930523482663  0.2499373619145331  0.2321734905809336   F   F   F
  0.0946392766015978  0.0177538053295353  0.5656370682150738   T   T   T
  0.0947934790536265  0.5170481624010839  0.5663712654625165   T   T   T
  0.0974947468322624  0.7700727873123475  0.5677751898740326   T   T   T
  0.0976968474639756  0.3935021254518395  0.5711831099691510   T   T   T
  0.0988499956596698  0.8943804503041487  0.5703816640651916   T   T   T
  0.0986612380117313  0.6248626122220728  0.4024209558001271   T   T   T
  0.0985372516820233  0.2699967562271693  0.5683918791340000   T   T   T
  0.0987642787619040  0.7511379171848578  0.4015535792586738   T   T   T
  0.0986739767242861  0.1248615021564294  0.4027388382704191   T   T   T
  0.0991071413019694  0.8750643744028181  0.4024340516996313   T   T   T
  0.0987976579051059  0.2509936529366216  0.4017615879490612   T   T   T
  0.0989804452368718  0.3748748835403773  0.4023491596614622   T   T   T
  0.0990502926511737  0.5010572499023617  0.4018029972973765   T   T   T
  0.0992662809622744  0.0010350594784727  0.4020370433137142   T   T   T
  0.9991014499830000  0.1260783665310953  0.4755905642462802   T   T   T
  0.9994663942631928  0.6263769857644973  0.4751476934319375   T   T   T
  0.1500019836303050  0.6297940555940933  0.4875418815168732   T   T   T
  0.1500841675185607  0.1299410744974214  0.4877886729693283   T   T   T
  0.1507876301422993  0.7475640704556845  0.4835453912124588   T   T   T
  0.1511556085749349  0.4976407962598019  0.4839268552318717   T   T   T
  0.1509765991961176  0.2476424984846213  0.4839628895256112   T   T   T
  0.1519013615913980  0.9972691654390109  0.4843960612413868   T   T   T
  0.1516482454586977  0.3784939903467643  0.4880462809570586   T   T   T
  0.1521359588111539  0.8780679484498585  0.4882344474302941   T   T   T
  0.1547082680948861  0.6251230654212776  0.3157550047659328   F   F   F
  0.1547082680948861  0.8751230656353641  0.3157550047659328   F   F   F
  0.1547082680948861  0.1251230654212776  0.3157550047659328   F   F   F
  0.1547082680948861  0.3751230656353641  0.3157550047659328   F   F   F
  0.1547523877132235  0.9998547719551993  0.3156484409089586   F   F   F
  0.1547523877132235  0.4998547719551993  0.3156484409089586   F   F   F
  0.1547523877132235  0.7498547721692859  0.3156484409089586   F   F   F
  0.1547523877132235  0.2498547721692859  0.3156484409089586   F   F   F
  0.2456439217711649  0.6334210930878983  0.5542652693693196   T   T   T
  0.2454968613143835  0.1341679862207214  0.5544138627659688   T   T   T
  0.2495661518790884  0.7552746229630654  0.5611996680514608   T   T   T
  0.2499999997239044  0.0000513585844359  0.1992858820091215   F   F   F
  0.2499999997239044  0.5000513585844431  0.1992858820091215   F   F   F
  0.2499999997239044  0.6250070552811167  0.1993925282102751   F   F   F
  0.2499999997239044  0.7500513587985225  0.1992858820091215   F   F   F
  0.2499999997239044  0.8750070554952032  0.1993925282102751   F   F   F
  0.2499999997239044  0.1250070552811167  0.1993925282102751   F   F   F
  0.2499999997239044  0.2500513587985225  0.1992858820091215   F   F   F
  0.2499999997239044  0.3750070554952032  0.1993925282102751   F   F   F
  0.2499354181465689  0.6249092771296946  0.3884208671454689   T   T   T
  0.2499521130524524  0.7500684753740452  0.3866099600810040   T   T   T
  0.2501376143297106  0.3820971043431973  0.5589728512082197   T   T   T
  0.2500909722063570  0.8748898532456000  0.3878759109230080   T   T   T
  0.2500892578047928  0.5002032576594264  0.3869572104529421   T   T   T
  0.2501393945208063  0.0003231204849681  0.3869022067052685   T   T   T
  0.2500318430026194  0.2499523966081657  0.3868990827447070   T   T   T
  0.2500737129542189  0.1249056579189692  0.3887660261024117   T   T   T
  0.2505553333148645  0.5033972127028148  0.5593054922513612   T   T   T
  0.2501434773762925  0.3749094942218875  0.3880243967072642   T   T   T
  0.2516424668107028  0.8844949745827706  0.5593373443668014   T   T   T
  0.2530700350875889  0.0064003153540379  0.5591537282946799   T   T   T
  0.2520843030375172  0.2543356404118118  0.5619022726918912   T   T   T
  0.3452476122867765  0.9998547719551993  0.3156484409089586   F   F   F
  0.3452476122867765  0.4998547719551993  0.3156484409089586   F   F   F
  0.3452476122867765  0.7498547721692859  0.3156484409089586   F   F   F
  0.3452476122867765  0.2498547721692859  0.3156484409089586   F   F   F
  0.3452917319051139  0.6251230654212776  0.3157550047659328   F   F   F
  0.3452917319051139  0.8751230656353641  0.3157550047659328   F   F   F
  0.3452917319051139  0.1251230654212776  0.3157550047659328   F   F   F
  0.3452917319051139  0.3751230656353641  0.3157550047659328   F   F   F
  0.3487099837719276  0.8779512236502712  0.4878044459640742   T   T   T
  0.3484990240530625  0.6281945900367339  0.4884957138437771   T   T   T
  0.3487547836892962  0.7475013212071593  0.4836039036702003   T   T   T
  0.3491740157311127  0.4965277818541344  0.4840216054441057   T   T   T
  0.3488870450995848  0.2469909306971053  0.4841155195223354   T   T   T
  0.3490760111152324  0.3775328937967769  0.4881845944100415   T   T   T
  0.3488951492399162  0.1266296037531682  0.4892057681133261   T   T   T
  0.3502632430935524  0.9966496352687282  0.4829697252848579   T   T   T
  0.3969305862811441  0.5176321363142070  0.5680524179806392   T   T   T
  0.4004362853983992  0.3867805100096458  0.5723299975706667   T   T   T
  0.4009112828344030  0.7506511699902813  0.4014980324515910   T   T   T
  0.4009050407938809  0.6242786825946599  0.4025548579758281   T   T   T
  0.4011007394316076  0.5006240141218050  0.4019025658280377   T   T   T
  0.4009842045508454  0.2505012414359372  0.4019016412927943   T   T   T
  0.4010676179097637  0.1242960682454471  0.4028311323917997   T   T   T
  0.4013650664823335  0.8743684870583300  0.4022200455338970   T   T   T
  0.4013707583280269  0.0005595426778675  0.4015971226950115   T   T   T
  0.4013003763299113  0.3744983902909388  0.4023808536331225   T   T   T
  0.4020758375525887  0.2659549330517831  0.5663704130212609   T   T   T
  0.4023535717393376  0.7697209663409312  0.5669604207001652   T   T   T
  0.4064221659961639  0.8925310534524885  0.5688092094293331   T   T   T
  0.4048553766005201  0.6463283950284100  0.5711158595028278   T   T   T
  0.4056069476517337  0.9999373617004466  0.2321734905809336   F   F   F
  0.4056069476517337  0.4999373617004466  0.2321734905809336   F   F   F
  0.4056069476517337  0.7499373619145331  0.2321734905809336   F   F   F
  0.4056069476517337  0.2499373619145331  0.2321734905809336   F   F   F
  0.4056495227880106  0.6250779795299195  0.2321437935324795   F   F   F
  0.4056495227880106  0.8750779797440060  0.2321437935324795   F   F   F
  0.4056495227880106  0.1250779795299195  0.2321437935324795   F   F   F
  0.4056495227880106  0.3750779797440060  0.2321437935324795   F   F   F
  0.4069635174290137  0.0175763249697214  0.5652174722692892   T   T   T
  0.4072256486648893  0.1443294260929039  0.5706120075565901   T   T   T
  0.4994879253743130  0.7503661096743108  0.4729521241694919   T   T   T
  0.4995311062564863  0.6254895343017765  0.4751669562782742   T   T   T
  0.5000815828870686  0.8747233278858840  0.4759901078840013   T   T   T
  0.4994363065019169  0.2511078450478997  0.4743545984688021   T   T   T
  0.4998715373171521  0.3751990033450583  0.4753338145984491   T   T   T
  0.5000000000000000  0.0000770226766207  0.3028264943543491   F   F   F
  0.5000000000000000  0.5000770226766207  0.3028264943543491   F   F   F
  0.5000000000000000  0.6248851796377153  0.3029475127301708   F   F   F
  0.5000000000000000  0.7500770228907001  0.3028264943543491   F   F   F
  0.5000000000000000  0.8748851798518018  0.3029475127301708   F   F   F
  0.5000000000000000  0.1248851796377153  0.3029475127301708   F   F   F
  0.5000000000000000  0.2500770228907001  0.3028264943543491   F   F   F
  0.5000000000000000  0.3748851798518018  0.3029475127301708   F   F   F
  0.5001431365716194  0.5015188211029313  0.4747408627226271   T   T   T
  0.5000606424961219  0.1247070759190201  0.4760572491399372   T   T   T
  0.5006719399733044  0.0002244260133035  0.4734673835947821   T   T   T
  0.0031647361997906  0.7670112849664307  0.5405423088245291   T   T   T
  0.0039843858379765  0.2664439699453879  0.5410494278483174   T   T   T
  0.6608277218898077  0.5832049434914336  0.5468815225007465   T   T   T
  0.6631070236824957  0.8338212822913211  0.5489840574073618   T   T   T
  0.6648755079047897  0.3296721724867160  0.5482389325531575   T   T   T
  0.6657668449560321  0.0790286103066283  0.5435229877885415   T   T   T
  0.8325016226612427  0.0790752353340179  0.5444347508176918   T   T   T
  0.8408995056222904  0.5812686911397866  0.5448804135219804   T   T   T
  0.8482253652426582  0.8328132726488806  0.5443738064791949   T   T   T
  0.8488130494751750  0.3320853737143963  0.5445403262406905   T   T   T
  0.9960679204581714  0.0171056885750214  0.5409277562981865   T   T   T
  0.9973095125381226  0.5178920287883640  0.5410950826261035   T   T   T
  0.1527755038750606  0.5821363184860406  0.5445942242017964   T   T   T
  0.1512608897883762  0.0829081540053316  0.5450483159517858   T   T   T
  0.1657034351613041  0.3291729103899000  0.5436458761411893   T   T   T
  0.1672424496893964  0.8293890164769779  0.5444806063023320   T   T   T
  0.3295635248999085  0.3241816710219761  0.5420465853566802   T   T   T
  0.3341132317893897  0.8298817846670354  0.5438578709069384   T   T   T
  0.3348818719009449  0.5839378017117348  0.5463999264688157   T   T   T
  0.3350807737196412  0.0810273908023652  0.5490058421568089   T   T   T
  0.4960593339884481  0.7627181190947088  0.5391168866188802   T   T   T
  0.4974015024827742  0.2675161259600944  0.5406369341230244   T   T   T
  0.5001004390506767  0.5186104075898790  0.5412938759400953   T   T   T
  0.5037663254752531  0.0131488867202793  0.5396713750280719   T   T   T
  0.0000000000000000  0.9999830748611132  0.1973415402473861   F   F   F
  0.0000000000000000  0.4999830748611132  0.1973415402473861   F   F   F
  0.0000000000000000  0.6250597900044994  0.1972695212469660   F   F   F
  0.0000000000000000  0.7499830750751997  0.1973415402473861   F   F   F
  0.0000000000000000  0.8750597902185859  0.1972695212469660   F   F   F
  0.0000000000000000  0.1250597900044994  0.1972695212469660   F   F   F
  0.0000000000000000  0.2499830750751997  0.1973415402473861   F   F   F
  0.0000000000000000  0.3750597902185859  0.1972695212469660   F   F   F
  0.9998838514099894  0.6250048720332745  0.3695520043335530   T   T   T
  0.0001837147102631  0.8749853296836764  0.3695637842677910   T   T   T
  0.9998041718668664  0.2504947425171504  0.3694310838267335   T   T   T
  0.0000822686083466  0.3748620817727678  0.3695569459334685   T   T   T
  0.0000072621657414  0.1249243087888890  0.3696260368177194   T   T   T
  0.0001782090310663  0.5005765510659572  0.3693574918306147   T   T   T
  0.0003823368667372  0.0005480087858748  0.3693994643969232   T   T   T
  0.0046589577502832  0.8718683087562136  0.5439245165560092   T   T   T
  0.0040326274259377  0.3714012711897319  0.5441415295292434   T   T   T
  0.5824959423441172  0.4374754614066489  0.2839355729984092   F   F   F
  0.5824959423441172  0.6874754611925624  0.2839355729984092   F   F   F
  0.5824959423441172  0.9374754614066489  0.2839355729984092   F   F   F
  0.5824959423441172  0.1874754611925624  0.2839355729984092   F   F   F
  0.5827651808530874  0.5624885324787385  0.2838652796168972   F   F   F
  0.5827651808530874  0.0624885324787385  0.2838652796168972   F   F   F
  0.5827651808530874  0.8124885322646520  0.2838652796168972   F   F   F
  0.5827651808530874  0.3124885322646520  0.2838652796168972   F   F   F
  0.5830211394014697  0.6871347534974804  0.4525988469684963   T   T   T
  0.5828636575149302  0.1870732068409368  0.4526473556564090   T   T   T
  0.5832909365124020  0.4373921648993262  0.4530385871944251   T   T   T
  0.5836950333717271  0.9369444729942192  0.4530366453303879   T   T   T
  0.5849981558893000  0.5623025223239205  0.4558648463460472   T   T   T
  0.5850014588458387  0.3125175467934191  0.4554211025307758   T   T   T
  0.5854678172771141  0.0624425348327509  0.4549714865402259   T   T   T
  0.5855372465656685  0.8125826826339135  0.4556498526845927   T   T   T
  0.6637942275829005  0.7026844264925450  0.5418453153076045   T   T   T
  0.6636535639442631  0.2025759795542801  0.5421087169840049   T   T   T
  0.6659163253997278  0.5625456426731574  0.2025671506292426   F   F   F
  0.6659163253997278  0.0625456426731503  0.2025671506292426   F   F   F
  0.6659163253997278  0.8125456424590709  0.2025671506292426   F   F   F
  0.6659163253997278  0.3125456424590709  0.2025671506292426   F   F   F
  0.6659898017733283  0.4375125970341855  0.2025194438276969   F   F   F
  0.6659898017733283  0.6875125968200990  0.2025194438276969   F   F   F
  0.6659898017733283  0.9375125970341855  0.2025194438276969   F   F   F
  0.6659898017733283  0.1875125968200990  0.2025194438276969   F   F   F
  0.6681492191143957  0.9507317535034903  0.5416821363482177   T   T   T
  0.6676599492312785  0.6872642843974204  0.3684114522555650   T   T   T
  0.6677510883962173  0.8125557524861292  0.3680866132199667   T   T   T
  0.6676561595609309  0.5625735558166890  0.3681238514251535   T   T   T
  0.6678143803911234  0.9371841235588858  0.3683299878348019   T   T   T
  0.6676763789606849  0.1873410621708335  0.3682682149443204   T   T   T
  0.6677571009403873  0.4372533129390194  0.3684259750568580   T   T   T
  0.6677800742240072  0.3126212861931387  0.3681235147393128   T   T   T
  0.6679032221487040  0.0624885757807543  0.3679278617733023   T   T   T
  0.6703119183046313  0.4477370202155502  0.5398028175760197   T   T   T
  0.7495560467665632  0.6274256066579794  0.4569593354651894   T   T   T
  0.7496249261940803  0.7481696245851303  0.4541050270634466   T   T   T
  0.7493977296422356  0.2478623472268527  0.4543513419973341   T   T   T
  0.7499999997239044  0.0001643475558382  0.2779548773829816   F   F   F
  0.7499999997239044  0.5001643475558382  0.2779548773829816   F   F   F
  0.7499999997239044  0.6249264342623420  0.2780286426703711   F   F   F
  0.7499999997239044  0.7501643477699247  0.2779548773829816   F   F   F
  0.7499999997239044  0.8749264344764285  0.2780286426703711   F   F   F
  0.7499999997239044  0.1249264342623420  0.2780286426703711   F   F   F
  0.7499999997239044  0.2501643477699247  0.2779548773829816   F   F   F
  0.7499999997239044  0.3749264344764285  0.2780286426703711   F   F   F
  0.7498048916408938  0.1269826276323039  0.4559984328678999   T   T   T
  0.7504100979654125  0.8774978753655877  0.4572173755803324   T   T   T
  0.7502408351860340  0.9987972452066430  0.4538166339586691   T   T   T
  0.7502607872113447  0.4981268947897721  0.4540498759407962   T   T   T
  0.7503271160309565  0.3770782095157655  0.4573772674922499   T   T   T
  0.0824959423441172  0.4374754614066489  0.2839355729984092   F   F   F
  0.0824959423441172  0.6874754611925624  0.2839355729984092   F   F   F
  0.0824959423441172  0.9374754614066489  0.2839355729984092   F   F   F
  0.0824959423441172  0.1874754611925624  0.2839355729984092   F   F   F
  0.0825048829173109  0.6882902593038328  0.4525511438796445   T   T   T
  0.0827651808530874  0.5624885324787385  0.2838652796168972   F   F   F
  0.0827651808530874  0.0624885324787385  0.2838652796168972   F   F   F
  0.0827651808530874  0.8124885322646520  0.2838652796168972   F   F   F
  0.0827651808530874  0.3124885322646520  0.2838652796168972   F   F   F
  0.0823543165537569  0.1883385365247251  0.4528994413330689   T   T   T
  0.8299901526267659  0.2008008843365366  0.5421460244959101   T   T   T
  0.8304456510668367  0.7010362348132424  0.5418594440489023   T   T   T
  0.8320378744082139  0.6875206582958567  0.3683436149895781   T   T   T
  0.8321511963611798  0.5627428425559605  0.3680825029613313   T   T   T
  0.8322372698016672  0.8127666651940849  0.3681884480930827   T   T   T
  0.8320432195319928  0.1875578975400950  0.3682603103389672   T   T   T
  0.8323186347368481  0.9374180528354585  0.3682631845228954   T   T   T
  0.8322605128902993  0.0626829007530981  0.3679341704409323   T   T   T
  0.8322352753972151  0.4374183745694625  0.3683707281653844   T   T   T
  0.8322428166985393  0.3127425344351924  0.3682266778378229   T   T   T
  0.8340465312848804  0.9523919030242887  0.5420687637271878   T   T   T
  0.8340101684082839  0.4375125970341855  0.2025194438276969   F   F   F
  0.8340101684082839  0.6875125968200990  0.2025194438276969   F   F   F
  0.8340101684082839  0.9375125970341855  0.2025194438276969   F   F   F
  0.8340101684082839  0.1875125968200990  0.2025194438276969   F   F   F
  0.8340836447818845  0.5625456426731574  0.2025671506292426   F   F   F
  0.8340836447818845  0.0625456426731503  0.2025671506292426   F   F   F
  0.8340836447818845  0.8125456424590709  0.2025671506292426   F   F   F
  0.8340836447818845  0.3125456424590709  0.2025671506292426   F   F   F
  0.8351015112648638  0.4517317490540433  0.5417162357130243   T   T   T
  0.0837003960678126  0.4382066173195361  0.4529445511664883   T   T   T
  0.0843350305616221  0.9380996290255716  0.4532219670719985   T   T   T
  0.0854372192364145  0.8133263767692771  0.4549926341019781   T   T   T
  0.0853665369913973  0.5633620253597903  0.4556083034670071   T   T   T
  0.0853789263304350  0.3133679447958571  0.4550256280053767   T   T   T
  0.0858458912542096  0.0633657812689709  0.4560655935168432   T   T   T
  0.9144462131901709  0.8135064688601320  0.4557947419908203   T   T   T
  0.9146557276762350  0.5632819284069683  0.4552953062581784   T   T   T
  0.9148889839957776  0.0633549785491608  0.4549982386309927   T   T   T
  0.9145673949042715  0.3132575873683851  0.4558985051422096   T   T   T
  0.9159642433910505  0.1880968528703854  0.4532467070040891   T   T   T
  0.9163089610238274  0.6883528863028996  0.4529085286231757   T   T   T
  0.9172348191469126  0.5624885324787385  0.2838652796168972   F   F   F
  0.9172348191469126  0.0624885324787385  0.2838652796168972   F   F   F
  0.9172348191469126  0.8124885322646520  0.2838652796168972   F   F   F
  0.9172348191469126  0.3124885322646520  0.2838652796168972   F   F   F
  0.9175040576558828  0.4374754614066489  0.2839355729984092   F   F   F
  0.9175040576558828  0.6874754611925624  0.2839355729984092   F   F   F
  0.9175040576558828  0.9374754614066489  0.2839355729984092   F   F   F
  0.9175040576558828  0.1874754611925624  0.2839355729984092   F   F   F
  0.9180845801340046  0.9384217293799529  0.4526364414608805   T   T   T
  0.9179974277552226  0.4383666265160445  0.4525469003768869   T   T   T
  0.9954714091092272  0.1219181291533906  0.5441023533949256   T   T   T
  0.9976870786069524  0.6227988847600939  0.5437611654123208   T   T   T
  0.9998120892359137  0.7506022605420204  0.3693474315051152   T   T   T
  0.1659163253997278  0.5625456426731574  0.2025671506292426   F   F   F
  0.1659163253997278  0.0625456426731503  0.2025671506292426   F   F   F
  0.1659163253997278  0.8125456424590709  0.2025671506292426   F   F   F
  0.1659163253997278  0.3125456424590709  0.2025671506292426   F   F   F
  0.1659898017733283  0.4375125970341855  0.2025194438276969   F   F   F
  0.1659898017733283  0.6875125968200990  0.2025194438276969   F   F   F
  0.1659898017733283  0.9375125970341855  0.2025194438276969   F   F   F
  0.1659898017733283  0.1875125968200990  0.2025194438276969   F   F   F
  0.1658457064842106  0.7020581500329580  0.5420201239241466   T   T   T
  0.1668269731015254  0.4515179135106724  0.5420953217722279   T   T   T
  0.1664858669236752  0.2025508632757748  0.5426497654307125   T   T   T
  0.1676950149321455  0.6874583067600338  0.3682225694621520   T   T   T
  0.1677779549239323  0.8127151296590009  0.3679194928727303   T   T   T
  0.1678051038556770  0.0628135613243572  0.3682505583968368   T   T   T
  0.1678162237204005  0.5627593833084870  0.3681379347605492   T   T   T