Ta  N Ru Cu                             
   1.00000000000000     
     9.0548154099999998    0.0000000000000000    0.0000000000000000
     0.0000000000000000   11.6775998899999998    0.0000000000000000
     0.0000000000000000    0.0000000000000000   26.4818170799999990
   Ta   N    Ru   Cu
    60    60    32     1
Selective dynamics
Direct
  0.0000000000000000  0.0000000000000000  0.2258397498815228   F   F   F
  0.6670845899906297  0.1250000003211298  0.2339882671631202   F   F   F
  0.3329153514769843  0.1250000003211298  0.2339882671631202   F   F   F
  0.4999999994478088  0.2499999997859135  0.3208898207564346   F   F   F
  0.1650707596845180  0.1250000003211298  0.3267034403329916   F   F   F
  0.8349292403154820  0.1250000003211298  0.3267034403329916   F   F   F
  0.0009961612298462  0.2502266989623827  0.4255339384896488   T   T   T
  0.6648773614482746  0.1251856546486261  0.4239188336903714   T   T   T
  0.3351409112326675  0.1251976279910685  0.4239056189839459   T   T   T
  0.4973380924156678  0.2503010739253418  0.5233416054566525   T   T   T
  0.1675105828060001  0.1254259734371732  0.5233901267648399   T   T   T
  0.8338498759979280  0.1253577516061204  0.5226422381601327   T   T   T
  0.0077993095235867  0.2502170582596285  0.6230104566276848   T   T   T
  0.6647953521174715  0.1251946382394130  0.6201087343559292   T   T   T
  0.3312115858397395  0.1255154039656408  0.6238627075539642   T   T   T
  0.0000000000000000  0.2499999997859135  0.2258397498815228   F   F   F
  0.6670845899906297  0.3750000001070433  0.2339882671631202   F   F   F
  0.3329153514769843  0.3750000001070433  0.2339882671631202   F   F   F
  0.4999999994478088  0.5000000004281731  0.3208898207564346   F   F   F
  0.1650707596845180  0.3750000001070433  0.3267034403329916   F   F   F
  0.8349292403154820  0.3750000001070433  0.3267034403329916   F   F   F
  0.0010520869033041  0.4999830772500127  0.4255276204335895   T   T   T
  0.6649956887724584  0.3751032929682467  0.4240243310574726   T   T   T
  0.3351649608707491  0.3750619791519850  0.4240542420584600   T   T   T
  0.4972770756114643  0.5000617147743274  0.5234124965157920   T   T   T
  0.1674743750462314  0.3752223277154287  0.5238360436470868   T   T   T
  0.8342870956738341  0.3752509332163659  0.5228553647798537   T   T   T
  0.0099522395087055  0.5005436109136243  0.6239648900882440   T   T   T
  0.6652182535489334  0.3750612316092460  0.6201367723172742   T   T   T
  0.3324575533319618  0.3752605868177791  0.6239784616885394   T   T   T
  0.0000000000000000  0.5000000004281731  0.2258397498815228   F   F   F
  0.6670845899906297  0.6249999998929567  0.2339882671631202   F   F   F
  0.3329153514769843  0.6249999998929567  0.2339882671631202   F   F   F
  0.4999999994478088  0.7500000002140865  0.3208898207564346   F   F   F
  0.1650707596845180  0.6249999998929567  0.3267034403329916   F   F   F
  0.8349292403154820  0.6249999998929567  0.3267034403329916   F   F   F
  0.0008235562549690  0.7499519692811719  0.4254499365296296   T   T   T
  0.6649326639795451  0.6249875642264716  0.4239474901180967   T   T   T
  0.3351316109732641  0.6249768893469634  0.4239571002215323   T   T   T
  0.4976820044240302  0.7501849701087913  0.5230510156608834   T   T   T
  0.1671921975958459  0.6249193514940553  0.5234809121670472   T   T   T
  0.8338971388482570  0.6249783953681557  0.5226791933757161   T   T   T
  0.0039737352901196  0.7501793191072933  0.6220832431189387   T   T   T
  0.6651627763475307  0.6249728337466084  0.6200749375660293   T   T   T
  0.3309825314420027  0.6255580394492989  0.6240031336775996   T   T   T
  0.0000000000000000  0.7500000002140865  0.2258397498815228   F   F   F
  0.6670845899906297  0.8750000005352163  0.2339882671631202   F   F   F
  0.3329153514769843  0.8750000005352163  0.2339882671631202   F   F   F
  0.4999999994478088  0.0000000000000000  0.3208898207564346   F   F   F
  0.1650707596845180  0.8750000005352163  0.3267034403329916   F   F   F
  0.8349292403154820  0.8750000005352163  0.3267034403329916   F   F   F
  0.0008454000063073  0.0002133225288509  0.4254544628735756   T   T   T
  0.6648240285588800  0.8750611069415272  0.4239150262946445   T   T   T
  0.3351524820760959  0.8750560886407867  0.4238900578559761   T   T   T
  0.4976103270186102  0.0002503252281751  0.5230256761290685   T   T   T
  0.1668618412910695  0.8751765241357826  0.5230704976780347   T   T   T
  0.8335311225451105  0.8751904915801904  0.5225167176882728   T   T   T
  0.0059843974741348 -0.0000159137083013  0.6221906432901296   T   T   T
  0.6659554655874442  0.8754467813699062  0.6203917585197405   T   T   T
  0.3307817203630491  0.8751663440273646  0.6221711298248248   T   T   T
  0.8141011533980276  0.0000000000000000  0.2671765160246267   F   F   F
  0.4999999994478088  0.0000000000000000  0.2273691263583544   F   F   F
  0.1858988466019724  0.0000000000000000  0.2671765160246267   F   F   F
  0.3088456122590841  0.2499999997859135  0.3635413069267344   F   F   F
  0.0000000000000000  0.2499999997859135  0.3485649890092901   F   F   F
  0.6911543877409159  0.2499999997859135  0.3635413069267344   F   F   F
  0.8026202918613324  0.2503083740907300  0.4627433470001075   T   T   T
  0.4998705928217894  0.2501825050681327  0.4457468436516911   T   T   T
  0.1989551779785797  0.2503166950317948  0.4633491111850176   T   T   T
  0.3016718358239549  0.2502617296716744  0.5632258725655138   T   T   T
  0.0007003811144996  0.2503929314090785  0.5441662542109432   T   T   T
  0.6955064910989625  0.2502822804642339  0.5604022424559525   T   T   T
  0.8076645753189993  0.2504215603284685  0.6560601995203330   T   T   T
  0.5032473341140947  0.2500533436206360  0.6434735782857396   T   T   T
  0.2023404090331833  0.2507755015627627  0.6639296305604069   T   T   T
  0.8141011533980276  0.2499999997859135  0.2671765160246267   F   F   F
  0.4999999994478088  0.2499999997859135  0.2273691263583544   F   F   F
  0.1858988466019724  0.2499999997859135  0.2671765160246267   F   F   F
  0.3088456122590841  0.5000000004281731  0.3635413069267344   F   F   F
  0.0000000000000000  0.5000000004281731  0.3485649890092901   F   F   F
  0.6911543877409159  0.5000000004281731  0.3635413069267344   F   F   F
  0.8028357150302254  0.4999740314525228  0.4627884718460208   T   T   T
  0.4998394343039956  0.5000394870015192  0.4458146969522881   T   T   T
  0.1989271977072649  0.4999343139439502  0.4634403978432254   T   T   T
  0.3017035046757316  0.5003799284525763  0.5634871892953283   T   T   T
  0.0008110046811311  0.5000599435930045  0.5448429319563497   T   T   T
  0.6955127413575001  0.5000005188816004  0.5603928054114932   T   T   T
  0.8085081176739074  0.4998690781339558  0.6556967279665356   T   T   T
  0.5042271438584102  0.4999435522800988  0.6437492707199294   T   T   T
  0.2063373495179222  0.5004693585037362  0.6652703016306757   T   T   T
  0.8141011533980276  0.5000000004281731  0.2671765160246267   F   F   F
  0.4999999994478088  0.5000000004281731  0.2273691263583544   F   F   F
  0.1858988466019724  0.5000000004281731  0.2671765160246267   F   F   F
  0.3088456122590841  0.7500000002140865  0.3635413069267344   F   F   F
  0.0000000000000000  0.7500000002140865  0.3485649890092901   F   F   F
  0.6911543877409159  0.7500000002140865  0.3635413069267344   F   F   F
  0.8024480038081665  0.7499997048335297  0.4626370551925794   T   T   T
  0.4998339097728450  0.7499633993043895  0.4456002687818701   T   T   T
  0.1986898664096771  0.7499166058329800  0.4631339482239517   T   T   T
  0.3015385352639262  0.7498002679599568  0.5622798389034895   T   T   T
  0.0001231478381582  0.7499991121241578  0.5435820699379815   T   T   T
  0.6956570390726735  0.7502048177209771  0.5602029198075748   T   T   T
  0.8039137595422748  0.7510476568473116  0.6555683366503711   T   T   T
  0.5015496508092270  0.7501804801827464  0.6414833588152874   T   T   T
  0.1982894963259360  0.7521981916444429  0.6605707880362571   T   T   T
  0.8141011533980276  0.7500000002140865  0.2671765160246267   F   F   F
  0.4999999994478088  0.7500000002140865  0.2273691263583544   F   F   F
  0.1858988466019724  0.7500000002140865  0.2671765160246267   F   F   F
  0.3088456122590841  0.0000000000000000  0.3635413069267344   F   F   F
  0.0000000000000000  0.0000000000000000  0.3485649890092901   F   F   F
  0.6911543877409159  0.0000000000000000  0.3635413069267344   F   F   F
  0.8024392844817368  0.0002426952777264  0.4626178522386575   T   T   T
  0.4998218946554479  0.0001986019846648  0.4455708124233693   T   T   T
  0.1987988917506472  0.0002927999179878  0.4631043442408564   T   T   T
  0.3016607766621801  0.0005749433537504  0.5624069344451784   T   T   T
  0.0003295103396527  0.0004451383854406  0.5436671635350568   T   T   T
  0.6956470218954997  0.0001963672789862  0.5601594359014216   T   T   T
  0.8057026259960953  0.0002035756354750  0.6551030162923634   T   T   T
  0.5027038747634351  0.0001656537726945  0.6422100824706378   T   T   T
  0.2019857634860591  0.9987094102058498  0.6618577967913089   T   T   T
  0.0662888349559874  0.0103702714623939  0.7305075402968186   T   T   T
  0.5518230326626854  0.9971829080717717  0.7195068470701040   T   T   T
  0.8186782790344934  0.1244843407865613  0.7116766858773170   T   T   T
  0.0587886255052739  0.5017731259003322  0.7356811662273118   T   T   T
  0.5568388836752455  0.4893529589448365  0.7221706127465949   T   T   T
  0.8191754842590371  0.6253138549572120  0.7110090565899005   T   T   T
  0.0697128937917374  0.2450889368216553  0.7308541503066829   T   T   T
  0.5532288299445296  0.2513562765215279  0.7214938184152891   T   T   T
  0.8232795277853944  0.3740697771107716  0.7106014836176754   T   T   T
  0.0786515861569976  0.7420809422974286  0.7299652951182712   T   T   T
  0.5378765395153653  0.7537648380955088  0.7179411664115726   T   T   T
  0.8268684192951344  0.8761291446795239  0.7147214436804088   T   T   T
  0.3000514934124753  0.8900443648497846  0.7279451380649999   T   T   T
  0.3096521071340628  0.6053736642203251  0.7334078886154577   T   T   T
  0.3058308342562345  0.3765587810514247  0.7306332398830995   T   T   T
  0.3135875800072599  0.1238187800393784  0.7333266693881869   T   T   T
  0.1338614645497636  0.8800084913441160  0.8040461691712461   T   T   T
  0.6376467749944497  0.8646529581460635  0.7915500622437558   T   T   T
  0.8793449967174529  0.9881500642149340  0.7986001608479946   T   T   T
  0.1456572267258161  0.3688753081888723  0.8096459397869044   T   T   T
  0.6635804232546061  0.3650994915101922  0.7958586544360641   T   T   T
  0.8744779159446452  0.5427689210220696  0.8047406955002203   T   T   T
  0.1474435836797732  0.1162507022896147  0.8073862679037460   T   T   T
  0.6423511480396353  0.1185586880795552  0.7925651576926098   T   T   T
  0.9092349756551006  0.3914970366725143  0.8535027386440153   T   T   T
  0.1393330844720107  0.6268029078692613  0.8077024294348581   T   T   T
  0.6328745982213442  0.6329461472273153  0.7901398769539777   T   T   T
  0.8912589753976541  0.7656059372882359  0.7997091401121450   T   T   T
  0.3894317554455659  0.7612474422665370  0.7988245137923599   T   T   T
  0.4094682764723547  0.4806625872158894  0.8038552067717558   T   T   T
  0.4037530470037116  0.2563099218412381  0.8022469215722375   T   T   T
  0.4024487645127729  0.9957111239320943  0.8025154484902396   T   T   T
  0.8870956712049802  0.2165654977547420  0.8020766783047922   T   T   T
 
  0.00000000E+00  0.00000000E+00  0.00000000E+00
  0.00000000E+00  0.00000000E+00  0.00000000E+00
  0.00000000E+00  0.00000000E+00  0.00000000E+00
  0.00000000E+00  0.00000000E+00  0.00000000E+00
  0.00000000E+00  0.00000000E+00  0.00000000E+00
  0.00000000E+00  0.00000000E+00  0.00000000E+00
  0.00000000E+00  0.00000000E+00  0.00000000E+00
  0.00000000E+00  0.00000000E+00  0.00000000E+00
  0.00000000E+00  0.00000000E+00  0.00000000E+00
  0.00000000E+00  0.00000000E+00  0.00000000E+00
  0.00000000E+00  0.00000000E+00  0.00000000E+00
  0.00000000E+00  0.00000000E+00  0.00000000E+00
  0.00000000E+00  0.00000000E+00  0.00000000E+00
  0.00000000E+00  0.00000000E+00  0.00000000E+00
  0.00000000E+00  0.00000000E+00  0.00000000E+00
  0.00000000E+00  0.00000000E+00  0.00000000E+00
  0.00000000E+00  0.00000000E+00  0.00000000E+00
  0.00000000E+00  0.00000000E+00  0.00000000E+00
  0.00000000E+00  0.00000000E+00  0.00000000E+00
  0.00000000E+00  0.00000000E+00  0.00000000E+00
  0.00000000E+00  0.00000000E+00  0.00000000E+00
  0.00000000E+00  0.00000000E+00  0.00000000E+00
  0.00000000E+00  0.00000000E+00  0.00000000E+00
  0.00000000E+00  0.00000000E+00  0.00000000E+00
  0.00000000E+00  0.00000000E+00  0.00000000E+00
  0.00000000E+00  0.00000000E+00  0.00000000E+00
  0.00000000E+00  0.00000000E+00  0.00000000E+00
  0.00000000E+00  0.00000000E+00  0.00000000E+00
  0.00000000E+00  0.00000000E+00  0.00000000E+00
  0.00000000E+00  0.00000000E+00  0.00000000E+00
  0.00000000E+00  0.00000000E+00  0.00000000E+00
  0.00000000E+00  0.00000000E+00  0.00000000E+00
  0.00000000E+00  0.00000000E+00  0.00000000E+00
  0.00000000E+00  0.00000000E+00  0.00000000E+00
  0.00000000E+00  0.00000000E+00  0.00000000E+00
  0.00000000E+00  0.00000000E+00  0.00000000E+00
  0.00000000E+00  0.00000000E+00  0.00000000E+00
  0.00000000E+00  0.00000000E+00  0.00000000E+00
  0.00000000E+00  0.00000000E+00  0.00000000E+00
  0.00000000E+00  0.00000000E+00  0.00000000E+00
  0.00000000E+00  0.00000000E+00  0.00000000E+00
  0.00000000E+00  0.00000000E+00  0.00000000E+00
  0.00000000E+00  0.00000000E+00  0.00000000E+00
  0.00000000E+00  0.00000000E+00  0.00000000E+00
  0.00000000E+00  0.00000000E+00  0.00000000E+00
  0.00000000E+00  0.00000000E+00  0.00000000E+00
  0.00000000E+00  0.00000000E+00  0.00000000E+00
  0.00000000E+00  0.00000000E+00  0.00000000E+00
  0.00000000E+00  0.00000000E+00  0.00000000E+00
  0.00000000E+00  0.00000000E+00  0.00000000E+00
  0.00000000E+00  0.00000000E+00  0.00000000E+00
  0.00000000E+00  0.00000000E+00  0.00000000E+00
  0.00000000E+00  0.00000000E+00  0.00000000E+00
  0.00000000E+00  0.00000000E+00  0.00000000E+00
  0.00000000E+00  0.00000000E+00  0.00000000E+00
  0.00000000E+00  0.00000000E+00  0.00000000E+00
  0.00000000E+00  0.00000000E+00  0.00000000E+00
  0.00000000E+00  0.00000000E+00  0.00000000E+00
  0.00000000E+00  0.00000000E+00  0.00000000E+00
  0.00000000E+00  0.00000000E+00  0.00000000E+00
  0.00000000E+00  0.00000000E+00  0.00000000E+00
  0.00000000E+00  0.00000000E+00  0.00000000E+00
  0.00000000E+00  0.00000000E+00  0.00000000E+00
  0.00000000E+00  0.00000000E+00  0.00000000E+00
  0.00000000E+00  0.00000000E+00  0.00000000E+00
  0.00000000E+00  0.00000000E+00  0.00000000E+00
  0.00000000E+00  0.00000000E+00  0.00000000E+00
  0.00000000E+00  0.00000000E+00  0.00000000E+00
  0.00000000E+00  0.00000000E+00  0.00000000E+00
  0.00000000E+00  0.00000000E+00  0.00000000E+00
  0.00000000E+00  0.00000000E+00  0.00000000E+00
  0.00000000E+00  0.00000000E+00  0.00000000E+00
  0.00000000E+00  0.00000000E+00  0.00000000E+00
  0.00000000E+00  0.00000000E+00  0.00000000E+00
  0.00000000E+00  0.00000000E+00  0.00000000E+00
  0.00000000E+00  0.00000000E+00  0.00000000E+00
  0.00000000E+00  0.00000000E+00  0.00000000E+00
  0.00000000E+00  0.00000000E+00  0.00000000E+00
  0.00000000E+00  0.00000000E+00  0.00000000E+00
  0.00000000E+00  0.00000000E+00  0.00000000E+00
  0.00000000E+00  0.00000000E+00  0.00000000E+00
  0.00000000E+00  0.00000000E+00  0.00000000E+00
  0.00000000E+00  0.00000000E+00  0.00000000E+00
  0.00000000E+00  0.00000000E+00  0.00000000E+00
  0.00000000E+00  0.00000000E+00  0.00000000E+00
  0.00000000E+00  0.00000000E+00  0.00000000E+00
  0.00000000E+00  0.00000000E+00  0.00000000E+00
  0.00000000E+00  0.00000000E+00  0.00000000E+00
  0.00000000E+00  0.00000000E+00  0.00000000E+00
  0.00000000E+00  0.00000000E+00  0.00000000E+00
  0.00000000E+00  0.00000000E+00  0.00000000E+00
  0.00000000E+00  0.00000000E+00  0.00000000E+00
  0.00000000E+00  0.00000000E+00  0.00000000E+00
  0.00000000E+00  0.00000000E+00  0.00000000E+00
  0.00000000E+00  0.00000000E+00  0.00000000E+00
  0.00000000E+00  0.00000000E+00  0.00000000E+00
  0.00000000E+00  0.00000000E+00  0.00000000E+00
  0.00000000E+00  0.00000000E+00  0.00000000E+00
  0.00000000E+00  0.00000000E+00  0.00000000E+00
  0.00000000E+00  0.00000000E+00  0.00000000E+00
  0.00000000E+00  0.00000000E+00  0.00000000E+00
  0.00000000E+00  0.00000000E+00  0.00000000E+00
  0.00000000E+00  0.00000000E+00  0.00000000E+00
  0.00000000E+00  0.00000000E+00  0.00000000E+00
  0.00000000E+00  0.00000000E+00  0.00000000E+00
  0.00000000E+00  0.00000000E+00  0.00000000E+00
  0.00000000E+00  0.00000000E+00  0.00000000E+00
  0.00000000E+00  0.00000000E+00  0.00000000E+00
  0.00000000E+00  0.00000000E+00  0.00000000E+00
  0.00000000E+00  0.00000000E+00  0.00000000E+00
  0.00000000E+00  0.00000000E+00  0.00000000E+00
  0.00000000E+00  0.00000000E+00  0.00000000E+00
  0.00000000E+00  0.00000000E+00  0.00000000E+00
  0.00000000E+00  0.00000000E+00  0.00000000E+00
  0.00000000E+00  0.00000000E+00  0.00000000E+00
  0.00000000E+00  0.00000000E+00  0.00000000E+00
  0.00000000E+00  0.00000000E+00  0.00000000E+00
  0.00000000E+00  0.00000000E+00  0.00000000E+00
  0.00000000E+00  0.00000000E+00  0.00000000E+00
  0.00000000E+00  0.00000000E+00  0.00000000E+00
  0.00000000E+00  0.00000000E+00  0.00000000E+00
  0.00000000E+00  0.00000000E+00  0.00000000E+00
  0.00000000E+00  0.00000000E+00  0.00000000E+00
  0.00000000E+00  0.00000000E+00  0.00000000E+00
  0.00000000E+00  0.00000000E+00  0.00000000E+00
  0.00000000E+00  0.00000000E+00  0.00000000E+00
  0.00000000E+00  0.00000000E+00  0.00000000E+00
  0.00000000E+00  0.00000000E+00  0.00000000E+00
  0.00000000E+00  0.00000000E+00  0.00000000E+00
  0.00000000E+00  0.00000000E+00  0.00000000E+00
  0.00000000E+00  0.00000000E+00  0.00000000E+00
  0.00000000E+00  0.00000000E+00  0.00000000E+00
  0.00000000E+00  0.00000000E+00  0.00000000E+00
  0.00000000E+00  0.00000000E+00  0.00000000E+00
  0.00000000E+00  0.00000000E+00  0.00000000E+00
  0.00000000E+00  0.00000000E+00  0.00000000E+00
  0.00000000E+00  0.00000000E+00  0.00000000E+00
  0.00000000E+00  0.00000000E+00  0.00000000E+00
  0.00000000E+00  0.00000000E+00  0.00000000E+00
  0.00000000E+00  0.00000000E+00  0.00000000E+00
  0.00000000E+00  0.00000000E+00  0.00000000E+00
  0.00000000E+00  0.00000000E+00  0.00000000E+00
  0.00000000E+00  0.00000000E+00  0.00000000E+00
  0.00000000E+00  0.00000000E+00  0.00000000E+00
  0.00000000E+00  0.00000000E+00  0.00000000E+00
  0.00000000E+00  0.00000000E+00  0.00000000E+00
  0.00000000E+00  0.00000000E+00  0.00000000E+00
  0.00000000E+00  0.00000000E+00  0.00000000E+00
  0.00000000E+00  0.00000000E+00  0.00000000E+00
  0.00000000E+00  0.00000000E+00  0.00000000E+00
  0.00000000E+00  0.00000000E+00  0.00000000E+00
  0.00000000E+00  0.00000000E+00  0.00000000E+00
  0.00000000E+00  0.00000000E+00  0.00000000E+00
