Cu	N	Ru	Ta                              
   1.00000000000000     
    18.1096308199999996    0.0000000000000000    0.0000000000000000
     0.0000000000000000   23.3551997799999995    0.0000000000000000
     0.0000000000000000    0.0000000000000000   30.4818171199999988
   Cu   N    Ru   Ta
     2   240    36   204
Selective dynamics
Direct
  0.5769735693565353  0.4384327300737623  0.6091936417425544   T   T   T
  0.1127064817345168  0.0698293714507288  0.5894839000631983   T   T   T
  0.9996874999980000  0.8741353306725075  0.4736159078902948   T   T   T
  0.0001613311315017  0.3745110126122768  0.4734252395073510   T   T   T
  0.0007546365873381  0.7508357331636546  0.3024712727493721   F   F   F
  0.0007546365873381  0.2508357331636546  0.3024712727493721   F   F   F
  0.0007971388342227  0.6259226757939587  0.3025555019798603   F   F   F
  0.0007971388342227  0.1259226757939587  0.3025555019798603   F   F   F
  0.0009289261701255  0.8759179472966139  0.3027706837052264   F   F   F
  0.0009289261701255  0.3759179472966139  0.3027706837052264   F   F   F
  0.0009959888293309  0.0008861705399639  0.3028813086718003   F   F   F
  0.0009959888293309  0.5008861705399639  0.3028813086718003   F   F   F
  0.0016672023652846  0.0003244152444920  0.4735291163015434   T   T   T
  0.0021835728451940  0.5005777859048203  0.4724928627521519   T   T   T
  0.5619662580620685  0.7607200040620625  0.5813076590178506   T   T   T
  0.5628724542138079  0.2617336675946983  0.5799621501146094   T   T   T
  0.5944407181460178  0.8759335502460033  0.2316533513143781   F   F   F
  0.5944407181460178  0.3759335502460033  0.2316533513143781   F   F   F
  0.5944879250719026  0.6260651198762730  0.2317376786361365   F   F   F
  0.5944879250719026  0.1260651198762730  0.2317376786361365   F   F   F
  0.5945319922319641  0.7509793277392376  0.2318466107902424   F   F   F
  0.5945319922319641  0.2509793277392376  0.2318466107902424   F   F   F
  0.5946973191803622  0.0011281697544092  0.2317203788144795   F   F   F
  0.5946973191803622  0.5011281697544092  0.2317203788144795   F   F   F
  0.5991705698858352  0.7516121949300677  0.4022812998785932   T   T   T
  0.5995035351113308  0.2516426039583991  0.4021660185506393   T   T   T
  0.5998561272203313  0.6265689894170728  0.4016553173916270   T   T   T
  0.6000757452745823  0.1264585906212511  0.4012531445023056   T   T   T
  0.6001601051239827  0.8760331166201401  0.4011315753582942   T   T   T
  0.6004096296741571  0.3759872715279613  0.4015414555101142   T   T   T
  0.6007895777100893  0.0013311422220407  0.4007158976242493   T   T   T
  0.6007620262060606  0.5013798597348262  0.4012449486701852   T   T   T
  0.6044123581907566  0.8759307430574959  0.5693001138156200   T   T   T
  0.6049869121312530  0.4998694288405109  0.5717813897667431   T   T   T
  0.6040548547913344  0.9979275724716663  0.5687929836327901   T   T   T
  0.6062083413441459  0.3767824278671317  0.5715328319441773   T   T   T
  0.6133744559294182  0.6425506652976806  0.5671551249707203   T   T   T
  0.6145930031245560  0.1411890309505056  0.5674442481800259   T   T   T
  0.0638222374030975  0.1396964286699620  0.5768942620882306   T   T   T
  0.6479170112618430  0.7512920662847178  0.4874680616966113   T   T   T
  0.6483983632703376  0.2500853736236742  0.4873076469589194   T   T   T
  0.6520341235141626  0.1258729132788426  0.4849063000384857   T   T   T
  0.6523437350760772  0.6266083451699350  0.4853642655495531   T   T   T
  0.6529026967658136  0.8795209312431106  0.4845223232231966   T   T   T
  0.6535261700971787  0.3789224378898124  0.4858278358544834   T   T   T
  0.6546658672153337  0.9990789253680420  0.4856854784167875   T   T   T
  0.6549923804575926  0.7511371041673840  0.3152775575080256   F   F   F
  0.6549923804575926  0.2511371041673840  0.3152775575080256   F   F   F
  0.6551044610680321  0.4992320105669864  0.4864424592876692   T   T   T
  0.6552059756456146  0.6260466862938543  0.3150601846403305   F   F   F
  0.6552059756456146  0.1260466862938543  0.3150601846403305   F   F   F
  0.6552570788408829  0.8758846061131820  0.3149041322638837   F   F   F
  0.6552570788408829  0.3758846061131820  0.3149041322638837   F   F   F
  0.6554052259801963  0.0012023099894023  0.3149218625060755   F   F   F
  0.6554052259801963  0.5012023099894023  0.3149218625060755   F   F   F
  0.0701287207588425  0.6324259279233004  0.5733019755720393   T   T   T
  0.7274521975373003  0.7620695485165572  0.5569247073378737   T   T   T
  0.7282507653492449  0.2635715968496273  0.5562871206157023   T   T   T
  0.7501628171612180  0.7509140995609159  0.3870053620361155   T   T   T
  0.7503837756312706  0.8759246053428527  0.1980143607002915   F   F   F
  0.7503837756312706  0.3759246053428527  0.1980143607002915   F   F   F
  0.7504065850415813  0.0010474442621131  0.1995662990185920   F   F   F
  0.7504065850415813  0.5010474442621131  0.1995662990185920   F   F   F
  0.7504116177228610  0.6259067547141299  0.1982016356247982   F   F   F
  0.7504116177228610  0.1259067547141299  0.1982016356247982   F   F   F
  0.7504539896523426  0.7509563452768688  0.1993173260006742   F   F   F
  0.7504539896523426  0.2509563452768688  0.1993173260006742   F   F   F
  0.7505296673350804  0.2509358513370231  0.3869599993999039   T   T   T
  0.7505814163662506  0.6259636630425099  0.3867797692499966   T   T   T
  0.7508138527954652  0.8761904885153563  0.3858644852663204   T   T   T
  0.7508977458864370  0.1259351188999678  0.3866862521405853   T   T   T
  0.7509370438015317  0.3761836001104147  0.3860846991262049   T   T   T
  0.7511867716810855  0.5009708758604721  0.3867452370849703   T   T   T
  0.7513233258294461  0.0009220779625139  0.3865767388696161   T   T   T
  0.7561042653679652  0.8818426979510573  0.5561865558902569   T   T   T
  0.7586368446206934  0.3836362023968622  0.5566124318857515   T   T   T
  0.7619417278644018  0.9979506995475664  0.5551419566336235   T   T   T
  0.7658031415809885  0.4983457539916337  0.5562006620430030   T   T   T
  0.7702410593559321  0.1388093199833745  0.5567002940772412   T   T   T
  0.7727421662614566  0.6391729688558997  0.5573511576798771   T   T   T
  0.0791217941473964  0.2470462582733740  0.5725972684757463   T   T   T
  0.0804475410643316  0.7433810323745906  0.5715625583622314   T   T   T
  0.0824738390768835  0.9955785351057649  0.5766207636182666   T   T   T
  0.8457971856104365  0.7508865770875488  0.3147238720130474   F   F   F
  0.8457971856104365  0.2508865770875488  0.3147238720130474   F   F   F
  0.8459094352758285  0.6257770200071491  0.3148105564777453   F   F   F
  0.8459094352758285  0.1257770200071491  0.3148105564777453   F   F   F
  0.8459894799777032  0.8758569369000710  0.3146601051453359   F   F   F
  0.8459894799777032  0.3758569369000710  0.3146601051453359   F   F   F
  0.8461683445640804  0.7541697665785578  0.4850897605726172   T   T   T
  0.8462370857983075  0.0009253177109869  0.3148622358114821   F   F   F
  0.8462370857983075  0.5009253177109869  0.3148622358114821   F   F   F
  0.8466809679286441  0.2543673958804770  0.4846800895601958   T   T   T
  0.8488041092845673  0.8728279921342956  0.4849893397135792   T   T   T
  0.8493399903248354  0.1247706234279945  0.4844803541939874   T   T   T
  0.8495988763362061  0.6249225921901342  0.4846576356258760   T   T   T
  0.8496348505323937  0.3729921599372198  0.4850017864454420   T   T   T
  0.8513746350530235  0.0006116221783367  0.4857084982969503   T   T   T
  0.8519498411597829  0.5011738784024041  0.4857628933203751   T   T   T
  0.0887370369728461  0.3647302633892683  0.5738459901345782   T   T   T
  0.8956736364802717  0.8705759988466034  0.5708994583520657   T   T   T
  0.0890209403003251  0.8631844347183479  0.5731343170759557   T   T   T
  0.8963057155350824  0.2499227561567013  0.5671147810876983   T   T   T
  0.8964085084833804  0.3707993263654499  0.5715412223031991   T   T   T
  0.8974356630837594  0.7493170270307493  0.5672681562215894   T   T   T
  0.8991172705161170  0.1081877274525470  0.5678482631685627   T   T   T
  0.9004969413554422  0.7505004705974863  0.4006187840284553   T   T   T
  0.9010564196254173  0.2504226380036225  0.4005995982848250   T   T   T
  0.9010781281672916  0.6256871899264993  0.4011315591370206   T   T   T
  0.9016914989700981  0.1255494961854960  0.4013692533337102   T   T   T
  0.9018633129590934  0.8758709148984919  0.4008623186148391   T   T   T
  0.9020720991859050  0.3759384001658497  0.4008212752748442   T   T   T
  0.9022214203291862  0.5006342022244522  0.4011709721483153   T   T   T
  0.9024287195982716  0.0006448541291554  0.4013234522237608   T   T   T
  0.9030396530300052  0.6073954435937600  0.5673024226333891   T   T   T
  0.9063370116785165  0.7509661375287990  0.2314450664875594   F   F   F
  0.9063370116785165  0.2509661375287990  0.2314450664875594   F   F   F
  0.9065036119825223  0.6258452416457985  0.2314281613274076   F   F   F
  0.9065036119825223  0.1258452416457985  0.2314281613274076   F   F   F
  0.9065431196901699  0.0009511492176983  0.2315080614196674   F   F   F
  0.9065431196901699  0.5009511492176983  0.2315080614196674   F   F   F
  0.9067333030259945  0.8759844438376305  0.2313964578368939   F   F   F
  0.9067333030259945  0.3759844438376305  0.2313964578368939   F   F   F
  0.9111283726550775  0.9854732933635589  0.5704324990700043   T   T   T
  0.9233498306826663  0.4845644358826313  0.5699829983542691   T   T   T
  0.0952407101582224  0.7510020395980561  0.2320892091881959   F   F   F
  0.0952407101582224  0.2510020395980561  0.2320892091881959   F   F   F
  0.0953260277450525  0.0008979764762245  0.2323666739458474   F   F   F
  0.0953260277450525  0.5008979764762245  0.2323666739458474   F   F   F
  0.0953735919394063  0.6258547564434522  0.2322437075234305   F   F   F
  0.0953735919394063  0.1258547564434522  0.2322437075234305   F   F   F
  0.0955543013107132  0.8759987254538473  0.2323923499085652   F   F   F
  0.0955543013107132  0.3759987254538473  0.2323923499085652   F   F   F
  0.0993896929097926  0.6251709819882031  0.4015993359695282   T   T   T
  0.0993715899125498  0.7507695173194766  0.4015905294701296   T   T   T
  0.0996233368233666  0.1248192225976645  0.4025047039025377   T   T   T
  0.0997388987238339  0.2503910594927208  0.4021914420494416   T   T   T
  0.9983168504783450  0.7504337875597306  0.4721884820586759   T   T   T
  0.9984798104458315  0.6245414891976909  0.4719496601118818   T   T   T
  0.9987398665494023  0.2502448438351960  0.4723814842015737   T   T   T
  0.9991527605048683  0.1242100255363113  0.4731812718658355   T   T   T
  0.1001573732468403  0.8756593850666374  0.4030145258863838   T   T   T
  0.1004564689365389  0.3754971479934569  0.4028937639995328   T   T   T
  0.1008414334777315  0.5011176327005691  0.4028224681003238   T   T   T
  0.1006819963770596  0.0010707507006579  0.4034699904257728   T   T   T
  0.1035286601592337  0.5029730737870647  0.5670202804593827   T   T   T
  0.1481219990125095  0.6283990348292721  0.4860197141427046   T   T   T
  0.1486359349741920  0.7459926011520541  0.4868724634460974   T   T   T
  0.1490356559552208  0.2459046290270238  0.4874585749056214   T   T   T
  0.1507975819071100  0.1265472044049645  0.4883602601660758   T   T   T
  0.1533715274988235  0.8749698367975829  0.4881005193124624   T   T   T
  0.1535220283882982  0.3762770859572427  0.4882714820386777   T   T   T
  0.1548742039245187  0.5012975781155382  0.4872040023304275   T   T   T
  0.1551348500458459  0.0007370020746233  0.4895662713704652   T   T   T
  0.1554278840897965  0.7509669489112838  0.3157714680232928   F   F   F
  0.1554278840897965  0.2509669489112767  0.3157714680232928   F   F   F
  0.1555300833018336  0.8760083006234964  0.3161854069282626   F   F   F
  0.1555300833018336  0.3760083006234964  0.3161854069282626   F   F   F
  0.1556347359045702  0.6258770940815310  0.3158690852351640   F   F   F
  0.1556347359045702  0.1258770940815310  0.3158690852351640   F   F   F
  0.1557688557010550  0.0008265358541948  0.3160543218953578   F   F   F
  0.1557688557010550  0.5008265358541948  0.3160543218953578   F   F   F
  0.2052844339639421  0.1177019578091974  0.5724633501462545   T   T   T
  0.2110781059823335  0.6138616257363311  0.5654609583607109   T   T   T
  0.2207600569723153  0.2520739162895393  0.5635295653611742   T   T   T
  0.2220186230211746  0.7512261293415665  0.5626822662932623   T   T   T
  0.2500710229306195  0.7512125900937237  0.3874928204780586   T   T   T
  0.2502041392943707  0.2513387020362570  0.3876923633219793   T   T   T
  0.2504837530850599  0.6255055070353093  0.3886686889258130   T   T   T
  0.2506886730670530  0.7509740783728773  0.1986783637654739   F   F   F
  0.2506886730670530  0.2509740783728773  0.1986783637654739   F   F   F
  0.2507303928573421  0.8760426103278647  0.2004520155719618   F   F   F
  0.2507303928573421  0.3760426103278647  0.2004520155719618   F   F   F
  0.2506153964087056  0.1254026808039367  0.3885543972019680   T   T   T
  0.2507787477911734  0.6260460958471867  0.2004465916827201   F   F   F
  0.2507787477911734  0.1260460958471867  0.2004465916827201   F   F   F
  0.2507842901460080  0.0010521164550710  0.1987081864626035   F   F   F
  0.2507842901460080  0.5010521164550710  0.1987081864626035   F   F   F
  0.2507334495948494  0.8753918448444816  0.3886223208048488   T   T   T
  0.2509355533673525  0.3755411351137071  0.3887648417832159   T   T   T
  0.2509200237551293  0.0012355055627896  0.3877596068610031   T   T   T
  0.2511739746134499  0.5013785939574718  0.3880205903179018   T   T   T
  0.2803487096250212  0.5007855399784377  0.5642683217675450   T   T   T
  0.2804463490291579  0.0029088764692988  0.5593887061324594   T   T   T
  0.2893434187794899  0.3652251827375531  0.5644795297843189   T   T   T
  0.2886177491114624  0.8666830736378939  0.5641039584469179   T   T   T
  0.3449875602856348  0.7520886324058308  0.4856731442608404   T   T   T
  0.3454985845324074  0.2524875920771913  0.4856949944716509   T   T   T
  0.3457709857389588  0.7509801434034244  0.3160634932646005   F   F   F
  0.3457709857389588  0.2509801434034244  0.3160634932646005   F   F   F
  0.3458124879654534  0.8762438730036024  0.3160546332285037   F   F   F
  0.3458124879654534  0.3762438730036024  0.3160546332285037   F   F   F
  0.3458692307014104  0.0011300682609701  0.3160825482309733   F   F   F
  0.3458692307014104  0.5011300682609701  0.3160825482309733   F   F   F
  0.3458914509224655  0.6260993829100983  0.3163092197569100   F   F   F
  0.3458914509224655  0.1260993829100983  0.3163092197569100   F   F   F
  0.3476865300819140  0.6268597792084025  0.4876629848239061   T   T   T
  0.3489456128120864  0.1274425318021176  0.4876368597522643   T   T   T
  0.3522785979077481  0.4973771854143684  0.4875334905722494   T   T   T
  0.3525033652844695  0.9973594585395497  0.4870569380655262   T   T   T
  0.3529026335150158  0.8788185033361087  0.4864597427981434   T   T   T
  0.3531577940068069  0.3788707188794168  0.4864187489205000   T   T   T
  0.3879679808488168  0.7536069930333867  0.5651300605355339   T   T   T
  0.3882990215014904  0.2529906514481954  0.5656088939038051   T   T   T
  0.4007103503630016  0.7517679641416938  0.4024844609954205   T   T   T
  0.4009395373261613  0.2519816517882513  0.4024172021797828   T   T   T
  0.4013968768572865  0.6260921412245013  0.4029172376188739   T   T   T
  0.4013281975957995  0.1261905002418461  0.4028091883971315   T   T   T
  0.4018638841309857  0.0017651638601057  0.4020090695948816   T   T   T
  0.4018789103608618  0.8757259173063298  0.4018860669421324   T   T   T
  0.4020452125693998  0.5017386185128823  0.4021671925752210   T   T   T
  0.4022927363741836  0.3759318590394121  0.4020056004481489   T   T   T
  0.4059113337573805  0.8760558925948985  0.2324750129594619   F   F   F
  0.4059113337573805  0.3760558925948985  0.2324750129594619   F   F   F
  0.4059234726022964  0.6261621252550071  0.2326545521246786   F   F   F
  0.4059234726022964  0.1261621252550071  0.2326545521246786   F   F   F
  0.4060644417929637  0.7510364413590125  0.2325227387887452   F   F   F
  0.4060644417929637  0.2510364413590125  0.2325227387887452   F   F   F
  0.4061374416245584  0.0011248655651599  0.2324172293308493   F   F   F
  0.4061374416245584  0.5011248655651599  0.2324172293308493   F   F   F
  0.4155607129873342  0.6138408330193150  0.5726906340545547   T   T   T
  0.4194351395802230  0.1141763654703356  0.5733446643260321   T   T   T
  0.4233954793918074  0.4954124995823647  0.5719857244132377   T   T   T
  0.4256333901850486  0.9940408779379971  0.5722706109233341   T   T   T
  0.4334900985938523  0.3871463354571623  0.5747223889374098   T   T   T
  0.4356411713050307  0.8876620945135926  0.5744886930228773   T   T   T
  0.4982164385966101  0.7520191670545709  0.4735114999467719   T   T   T
  0.4987279133578528  0.2520440699481811  0.4733445029038054   T   T   T
  0.5004630585837617  0.7510598909550410  0.3031888444713573   F   F   F
  0.5004630585837617  0.2510598909550410  0.3031888444713573   F   F   F
  0.5004977600090044  0.6261199205207575  0.3031516629609641   F   F   F
  0.5004977600090044  0.1261199205207575  0.3031516629609641   F   F   F
  0.5005209432535551  0.8761149809355189  0.3028206587442455   F   F   F
  0.5005209432535551  0.3761149809355189  0.3028206587442455   F   F   F
  0.5006083602757840  0.0011215981985515  0.3028334437431965   F   F   F
  0.5006083602757840  0.5011215981985515  0.3028334437431965   F   F   F
  0.5014360025792073  0.6274694919472810  0.4741860486838005   T   T   T
  0.5018454605891007  0.1273050705217554  0.4736643269473100   T   T   T
  0.5021086201038281  0.8768975393521171  0.4725944206261092   T   T   T
  0.5026757838780356  0.3770801589970828  0.4730576369762571   T   T   T
  0.5028587996079302  0.0017492395220470  0.4722640326380287   T   T   T
  0.5029659054579271  0.5019659949563463  0.4729469201426691   T   T   T
  0.0032039861773991  0.4992662194644630  0.5404995574954102   T   T   T
  0.6255484532107145  0.7990386290517949  0.5471492219787981   T   T   T
  0.6257383098209194  0.3008313106199112  0.5453974348819289   T   T   T
  0.6271343957259861  0.5692229527145177  0.5391269745749613   T   T   T
  0.6274272723128260  0.0675526633355852  0.5392183331115818   T   T   T
  0.6993995074457693  0.6878421064809255  0.5381682716751870   T   T   T
  0.6990863900737674  0.1895116899490719  0.5378982728861312   T   T   T
  0.8053645345692059  0.0663746235405712  0.5373023902042233   T   T   T
  0.8076141691312348  0.5670833375274786  0.5372313026154177   T   T   T
  0.8432051638816553  0.9363574542213746  0.5362065073503259   T   T   T
  0.8470991017181756  0.4375341816481912  0.5365272911851251   T   T   T
  0.8703542379428785  0.1784513117577335  0.5415038561242901   T   T   T
  0.8743192847474920  0.6779438943873728  0.5417401885429478   T   T   T
  0.9913640156883073  0.1197263345742218  0.5407265463926677   T   T   T
  0.9937609708478430  0.9952128817626313  0.5424450361362253   T   T   T
  0.9941486857578999  0.2558000044307329  0.5393030632231950   T   T   T
  0.9956785732106697  0.7542135191044687  0.5392917583073022   T   T   T
  0.9968852805392753  0.6168990132204063  0.5394874701146825   T   T   T
  0.1165961197960490  0.9334459420093030  0.5444003599942001   T   T   T
  0.1200586834863128  0.4314304739825095  0.5426630908092175   T   T   T
  0.1405285826907661  0.8041170615296175  0.5405812028227895   T   T   T
  0.1405370256251500  0.3052685054056948  0.5403461295594926   T   T   T
  0.2018748853018498  0.5428187492336822  0.5423450018119539   T   T   T
  0.2160264874970582  0.0540176225808032  0.5357862226922078   T   T   T
  0.2985608038642410  0.7957879948830002  0.5407326332593645   T   T   T
  0.2986088415842532  0.2946534173487780  0.5410196126072231   T   T   T
  0.3612920210999662  0.5546486065152062  0.5414176838407234   T   T   T
  0.3667494691935668  0.0552955386916229  0.5414511416128720   T   T   T
  0.3755905159636753  0.6791067883292096  0.5417221342032724   T   T   T
  0.3776046925866886  0.1783901414842779  0.5420848891108103   T   T   T
  0.4869047792188406  0.7517432190418255  0.5417252018554275   T   T   T
  0.4872421205856244  0.2528417957692710  0.5414086299739387   T   T   T
  0.5083177660297166  0.4991467505675934  0.5403083199828222   T   T   T
  0.5103690396535588  0.3828686129776149  0.5405872921998054   T   T   T
  0.5094757253861054  0.9976319998764942  0.5395823943466919   T   T   T
  0.5115144635293727  0.8820939886791562  0.5401301554221006   T   T   T
  0.0002613083760488  0.7508893032404402  0.3689739718367004   T   T   T
  0.0003479708346304  0.6255706640446057  0.3691077621054337   T   T   T
  0.0009017842539559  0.2506877114273813  0.3691434222948966   T   T   T
  0.0009352141363984  0.1255204136030477  0.3693794442271284   T   T   T
  0.0010343750342656  0.7509675273691911  0.1970340395507222   F   F   F
  0.0010343750342656  0.2509675273691911  0.1970340395507222   F   F   F
  0.0013074606674977  0.0009931951008113  0.1970949867046485   F   F   F
  0.0013074606674977  0.5009931951008113  0.1970949867046485   F   F   F
  0.0014056432322107  0.6258753569951239  0.1970772590869743   F   F   F
  0.0014056432322107  0.1258753569951239  0.1970772590869743   F   F   F
  0.0016300205284878  0.8760244032474702  0.1970602374639512   F   F   F
  0.0016300205284878  0.3760244032474702  0.1970602374639512   F   F   F
  0.0016351055623599  0.8757767638785902  0.3694654996906608   T   T   T
  0.0018457951593471  0.3757719073206073  0.3694197865294940   T   T   T
  0.0019085553461366  0.5006508026734362  0.3695752135943171   T   T   T
  0.0021013073414406  0.0005874824900725  0.3697697192969924   T   T   T
  0.5828489970288615  0.8134981673875430  0.2835797008416634   F   F   F
  0.5828489970288615  0.3134981673875430  0.2835797008416634   F   F   F
  0.5829043521053947  0.6885407361734863  0.2836251512160501   F   F   F
  0.5829043521053947  0.1885407361734863  0.2836251512160501   F   F   F
  0.5829602019462925  0.4385545752758304  0.2833243807611936   F   F   F
  0.5829602019462925  0.9385545752758304  0.2833243807611936   F   F   F
  0.5830265959005345  0.5635893986773652  0.2835447360626375   F   F   F
  0.5830265959005345  0.0635893986773652  0.2835447360626375   F   F   F
  0.5842523695951839  0.6895536928273145  0.4537593159408127   T   T   T
  0.5841808625487097  0.8146406350289659  0.4551720646213523   T   T   T
  0.5845413037369304  0.1890907252393171  0.4532375769776109   T   T   T
  0.5846538274654390  0.3143786353929643  0.4553919403084980   T   T   T
  0.5851431239133891  0.9392362332017345  0.4523222565229126   T   T   T
  0.5858200547211526  0.4390836441019658  0.4530373809050598   T   T   T
  0.5864191470392807  0.0633228954780135  0.4530936515198831   T   T   T
  0.5867174113654455  0.5636253612816617  0.4537789064810878   T   T   T
  0.6662453414939336  0.5635923628994988  0.2021068355520654   F   F   F
  0.6662453414939336  0.0635923628994988  0.2021068355520654   F   F   F
  0.6663404610475681  0.8134949072998268  0.2022484366903115   F   F   F
  0.6663404610475681  0.3134949072998268  0.2022484366903115   F   F   F
  0.6663750951053373  0.6883939277525641  0.2022233082671292   F   F   F
  0.6663750951053373  0.1883939277525641  0.2022233082671292   F   F   F
  0.6663864277493872  0.4383644600106251  0.2021335334354930   F   F   F
  0.6663864277493872  0.9383644600106251  0.2021335334354930   F   F   F
  0.6680505963440858  0.8135812562659277  0.3678649713755474   T   T   T
  0.6681093125231909  0.6887489294967842  0.3677122257903371   T   T   T
  0.6682332552903421  0.3136301530979644  0.3679207285519879   T   T   T
  0.6684906025261037  0.1887249628813157  0.3675805876708663   T   T   T
  0.6686033608722460  0.5637321474467509  0.3676139336987621   T   T   T
  0.6686514534604511  0.4386186024477978  0.3671949750298447   T   T   T
  0.6688098850408761  0.9385833008769841  0.3668852228251490   T   T   T
  0.6689445834515031  0.0637251041048075  0.3674082978867516   T   T   T
  0.6744653750716965  0.9354448123109292  0.5398379749919808   T   T   T
  0.6788257911007481  0.4369827459991532  0.5399387696870261   T   T   T
  0.7472686573213821  0.7522728377211545  0.4552211274217913   T   T   T
  0.7477041537745991  0.2523873294395009  0.4551041835082552   T   T   T
  0.7500370581119070  0.1256980828410255  0.4546278234998448   T   T   T
  0.7501730562611186  0.7507079098083409  0.2774330469442816   F   F   F
  0.7501730562611186  0.2507079098083409  0.2774330469442816   F   F   F
  0.7502870125609524  0.6262617101695598  0.4547644679985923   T   T   T
  0.7504750055418299  0.6259680682551618  0.2773981497465243   F   F   F
  0.7504750055418299  0.1259680682551618  0.2773981497465243   F   F   F
  0.7505173338481086  0.8759365097582545  0.2770578193141517   F   F   F
  0.7505173338481086  0.3759365097582545  0.2770578193141517   F   F   F
  0.7507337004896470  0.0010587017123740  0.2774432067716575   F   F   F
  0.7507337004896470  0.5010587017123740  0.2774432067716575   F   F   F
  0.7508012389881100  0.8754449274664307  0.4534223032979584   T   T   T
  0.7511973190780945  0.3756756115518607  0.4537185077760630   T   T   T
  0.7532975211036453  0.0006888687078481  0.4544639505899628   T   T   T
  0.7535134601148084  0.5006295979382701  0.4546739644231665   T   T   T
  0.0812443801567749  0.6877063229802629  0.4526013166485153   T   T   T
  0.0820917187168072  0.1869002185216388  0.4537965014120159   T   T   T
  0.8256686858380905  0.8145829169127794  0.5405107454894220   T   T   T
  0.8265300434748288  0.3150824076456152  0.5403916615532446   T   T   T
  0.8322474197207257  0.6882917582423808  0.3670647604607115   T   T   T
  0.8323052286525229  0.8133345796454028  0.3669866101199541   T   T   T
  0.8325238561759672  0.3133529253625728  0.3669695607809965   T   T   T
  0.8326615276218005  0.1882498235841537  0.3671333201658944   T   T   T
  0.8329014002060430  0.5633442081361606  0.3672857189859893   T   T   T
  0.8331936115542622  0.0633105349287223  0.3673760735100107   T   T   T
  0.8333077842950716  0.4383619995740263  0.3671787792790961   T   T   T
  0.8334136557942070  0.9383765333319304  0.3671635967563454   T   T   T
  0.8344344719226058  0.6883603527882158  0.2020465356692611   F   F   F
  0.8344344719226058  0.1883603527882158  0.2020465356692611   F   F   F
  0.8344691253071090  0.4383027932291981  0.2021423465583752   F   F   F
  0.8344691253071090  0.9383027932291981  0.2021423465583752   F   F   F
  0.8345236995836203  0.8136019065986346  0.2020593032807980   F   F   F
  0.8345236995836203  0.3136019065986346  0.2020593032807980   F   F   F
  0.8345432068835521  0.5635442939465207  0.2020614199525141   F   F   F
  0.8345432068835521  0.0635442939465207  0.2020614199525141   F   F   F
  0.0835181835032017  0.8134609632527869  0.2839000862688721   F   F   F
  0.0835181835032017  0.3134609632527869  0.2839000862688721   F   F   F
  0.0836480050342630  0.5633752300961916  0.2839758639034855   F   F   F
  0.0836480050342630  0.0633752300961916  0.2839758639034855   F   F   F
  0.0836768758602418  0.6884091217994310  0.2837888281379435   F   F   F
  0.0836768758602418  0.1884091217994310  0.2837888281379435   F   F   F
  0.0836920180794749  0.4383888699923588  0.2841732146708722   F   F   F
  0.0836920180794749  0.9383888699923588  0.2841732146708722   F   F   F
  0.0847753492150193  0.8124588828237725  0.4544460775195738   T   T   T
  0.0849675876962247  0.3123847437016856  0.4546403850427320   T   T   T
  0.0856129303921356  0.5635789693934377  0.4551679282581531   T   T   T
  0.0861295517698513  0.4380528991809662  0.4550835622084948   T   T   T
  0.0863454166793451  0.0625106096922224  0.4562121041353041   T   T   T
  0.0869285933340490  0.9377924781950272  0.4563686996943493   T   T   T
  0.9145229350006828  0.6887141345145966  0.4536427749670472   T   T   T
  0.9150222614873655  0.1885720658840152  0.4538252121298992   T   T   T
  0.9164078685153555  0.8125118130750679  0.4518978078401731   T   T   T
  0.9171141777265465  0.3125286669755344  0.4518408987608289   T   T   T
  0.9174446646264471  0.5627938753031385  0.4529354326912032   T   T   T
  0.9179930227180318  0.0625763837507262  0.4534062193832467   T   T   T
  0.9179543334445865  0.4377308746281403  0.4533933668420926   T   T   T
  0.9181839152478091  0.6884040565462470  0.2831378587445599   F   F   F
  0.9181839152478091  0.1884040565462470  0.2831378587445599   F   F   F
  0.9180908163645340  0.9377563717761859  0.4534188445314691   T   T   T
  0.9183594213103916  0.8134327656776748  0.2832265145484243   F   F   F
  0.9183594213103916  0.3134327656776748  0.2832265145484243   F   F   F
  0.9184058656586132  0.5633566590711467  0.2833389507587185   F   F   F
  0.9184058656586132  0.0633566590711467  0.2833389507587185   F   F   F
  0.9185001265531056  0.4384185648785746  0.2832681567508857   F   F   F
  0.9185001265531056  0.9384185648785746  0.2832681567508857   F   F   F
  0.9912708022413431  0.8665739301279872  0.5418101319435612   T   T   T
  0.9915054466579439  0.3674432046187974  0.5419039377363849   T   T   T
  0.1499378640296560  0.1845141223777177  0.5456947596426790   T   T   T
  0.1530505601985671  0.6817136858744868  0.5435058657845229   T   T   T
  0.1667765378554549  0.5633392265506032  0.2026421323795375   F   F   F
  0.1667765378554549  0.0633392265506032  0.2026421323795375   F   F   F
  0.1668059973185052  0.6886073834303943  0.2025943133799615   F   F   F
  0.1668059973185052  0.1886073834303943  0.2025943133799615   F   F   F
  0.1668155121452699  0.8133424731509606  0.2025799106952988   F   F   F
  0.1668155121452699  0.3133424731509606  0.2025799106952988   F   F   F
  0.1668272738427916  0.4386259927766716  0.2026791524822329   F   F   F
  0.1668272738427916  0.9386259927766716  0.2026791524822329   F   F   F