Mo  S Ru                                
   1.00000000000000     
    15.9214998300000001    0.0000000000000000    0.0000000000000000
    -7.9622501300000001   13.7910221699999997    0.0000000000000000
     0.0000000000000000    0.0000000000000000   13.5821998300000004
   Mo   S    Ru
    25    50     4
Direct
  0.1335897097344940  0.0670254242126020  0.6864127643531646
  0.1334226059850820  0.2679890097423723  0.6869375861777627
  0.1343531394340260  0.4688224599469564  0.6860237901609025
  0.1338413558009321  0.6681037413777986  0.6838858807979591
  0.1336602615342528  0.8673997591184133  0.6836500110125812
  0.3334184162228411  0.0671312857258712  0.6863184237178928
  0.3338941337051864  0.2677681605418911  0.6853824614331288
  0.3353294134620413  0.4709025646105545  0.6848025489261502
  0.3339154433791691  0.6684835721297091  0.6840490152158978
  0.3338237595398041  0.8679714338465132  0.6839787112895479
  0.5343009387776831  0.0672872138640415  0.6844096678280778
  0.5346091069554859  0.2680723207935785  0.6867891187447981
  0.5355235393454905  0.4709719139823250  0.6847085462109987
  0.5345361108022502  0.6693305425473497  0.6830540516318777
  0.5338235608470399  0.8680683942999821  0.6832094097961772
  0.7337309033205273  0.0676477313923058  0.6843704250701208
  0.7343867937992385  0.2670757138495432  0.6845098191379293
  0.7343758536383405  0.4688615401541938  0.6858834322908223
  0.7343765671361950  0.6684715530905052  0.6839275387555261
  0.7339948832222234  0.8680488474744408  0.6832314334315726
  0.9328055332932053  0.0671685774473687  0.6847414961924585
  0.9326083380665082  0.2669798652379001  0.6847657055173073
  0.9338860747170514  0.4677916207147774  0.6848284627408603
  0.9341677099900352  0.6680880430645360  0.6836252013842312
  0.9339501029429655  0.8678861481365061  0.6838003826708956
  0.0680088003050585  0.1357457760855709  0.5725492777261891
  0.0633479189753743  0.1271711919834999  0.8072409040050914
  0.0675760727196533  0.3340898153533729  0.5720947992485748
  0.0648119160447820  0.3365452561997344  0.8045943630361307
  0.0671309355668868  0.5341331356429606  0.5695686946208554
  0.0672421533418017  0.5358597735779256  0.7998663126629282
  0.0672229669971145  0.7343622814370860  0.5683029309190530
  0.0670929234683726  0.7344537539234111  0.7989413755042776
  0.0677050495613543  0.9353290530233309  0.5690625216229250
  0.0666453751110936  0.9326636995459268  0.7995599563378448
  0.2671010322780418  0.1343765606259311  0.5704086002066404
  0.2674446264082633  0.1348673084875927  0.8005197025486765
  0.2662993579060284  0.3350687963056131  0.5722731905870688
  0.2740419003889940  0.3400181730408107  0.8032306741097486
  0.2665090145462585  0.5348720349099025  0.5694308862691386
  0.2679637802555561  0.5361438378450529  0.8001272691568744
  0.2671043056144384  0.7348254036161208  0.5687706373382326
  0.2671819012343875  0.7349564317007520  0.7991035747080630
  0.2675787290888962  0.9353364362886509  0.5691067315922496
  0.2659525000991181  0.9328725508326414  0.7996300762394952
  0.4676551866368257  0.1358929357061669  0.5723285363698807
  0.4639393307439690  0.1273836586162034  0.8069466570482149
  0.4687363515440737  0.3350842231014326  0.5722034913152356
  0.4659438851080822  0.3401900384273873  0.8031820238273184
  0.4677047658286568  0.5356590466927287  0.5682936114499881
  0.4690659220877862  0.5382418788592531  0.7991494992748898
  0.4668362469548200  0.7349512282110950  0.5680715054141245
  0.4676542019032084  0.7355126719676761  0.7985397379327139
  0.4670318175326358  0.9349495586346706  0.5685267586093019
  0.4670943890667587  0.9337012606668580  0.7991198121895096
  0.6673960134277976  0.1346596870576420  0.5690360218700548
  0.6671987809420585  0.1339620513662751  0.7996934592553373
  0.6664396731467122  0.3341474032611771  0.5719136573536829
  0.6717351505262528  0.3365877110555289  0.8044588087011064
  0.6682951015937988  0.5349255973802443  0.5692695094071638
  0.6681139678385719  0.5361886052512332  0.8000391366038215
  0.6678551515131943  0.7349807761787801  0.5680891993620918
  0.6676130254894801  0.7354441557423357  0.7985126034969099
  0.6674699838999771  0.9351504200671314  0.5683459622501630
  0.6669259460324284  0.9341238538626015  0.7986023741468458
  0.8672627315706336  0.1345919590105851  0.5693147957543729
  0.8664159401944076  0.1337803378524143  0.8000056826608883
  0.8673820128805474  0.3344899732839366  0.5694241781659457
  0.8672455691212377  0.3346398028920134  0.8000348077084638
  0.8669291151275615  0.5339852504809244  0.5694477324778546
  0.8685616144758797  0.5359191209792584  0.7996596241618192
  0.8674768416464502  0.7347495208994417  0.5685536380498490
  0.8676453691219663  0.7348918927527208  0.7988477425844565
  0.8677233786282628  0.9350778602034282  0.5686189647795103
  0.8663345906704691  0.9333850749318202  0.7991839407105985
  0.1378592723096759  0.2676956772453991  0.8930792067851243
  0.5298300476998818  0.2680038852450792  0.8928570869888901
  0.4305339833467272  0.3288858291462446  0.9665126714714489
  0.2977896771053210  0.3278967161040072  0.9665970501224734
 
  0.00000000E+00  0.00000000E+00  0.00000000E+00
  0.00000000E+00  0.00000000E+00  0.00000000E+00
  0.00000000E+00  0.00000000E+00  0.00000000E+00
  0.00000000E+00  0.00000000E+00  0.00000000E+00
  0.00000000E+00  0.00000000E+00  0.00000000E+00
  0.00000000E+00  0.00000000E+00  0.00000000E+00
  0.00000000E+00  0.00000000E+00  0.00000000E+00
  0.00000000E+00  0.00000000E+00  0.00000000E+00
  0.00000000E+00  0.00000000E+00  0.00000000E+00
  0.00000000E+00  0.00000000E+00  0.00000000E+00
  0.00000000E+00  0.00000000E+00  0.00000000E+00
  0.00000000E+00  0.00000000E+00  0.00000000E+00
  0.00000000E+00  0.00000000E+00  0.00000000E+00
  0.00000000E+00  0.00000000E+00  0.00000000E+00
  0.00000000E+00  0.00000000E+00  0.00000000E+00
  0.00000000E+00  0.00000000E+00  0.00000000E+00
  0.00000000E+00  0.00000000E+00  0.00000000E+00
  0.00000000E+00  0.00000000E+00  0.00000000E+00
  0.00000000E+00  0.00000000E+00  0.00000000E+00
  0.00000000E+00  0.00000000E+00  0.00000000E+00
  0.00000000E+00  0.00000000E+00  0.00000000E+00
  0.00000000E+00  0.00000000E+00  0.00000000E+00
  0.00000000E+00  0.00000000E+00  0.00000000E+00
  0.00000000E+00  0.00000000E+00  0.00000000E+00
  0.00000000E+00  0.00000000E+00  0.00000000E+00
  0.00000000E+00  0.00000000E+00  0.00000000E+00
  0.00000000E+00  0.00000000E+00  0.00000000E+00
  0.00000000E+00  0.00000000E+00  0.00000000E+00
  0.00000000E+00  0.00000000E+00  0.00000000E+00
  0.00000000E+00  0.00000000E+00  0.00000000E+00
  0.00000000E+00  0.00000000E+00  0.00000000E+00
  0.00000000E+00  0.00000000E+00  0.00000000E+00
  0.00000000E+00  0.00000000E+00  0.00000000E+00
  0.00000000E+00  0.00000000E+00  0.00000000E+00
  0.00000000E+00  0.00000000E+00  0.00000000E+00
  0.00000000E+00  0.00000000E+00  0.00000000E+00
  0.00000000E+00  0.00000000E+00  0.00000000E+00
  0.00000000E+00  0.00000000E+00  0.00000000E+00
  0.00000000E+00  0.00000000E+00  0.00000000E+00
  0.00000000E+00  0.00000000E+00  0.00000000E+00
  0.00000000E+00  0.00000000E+00  0.00000000E+00
  0.00000000E+00  0.00000000E+00  0.00000000E+00
  0.00000000E+00  0.00000000E+00  0.00000000E+00
  0.00000000E+00  0.00000000E+00  0.00000000E+00
  0.00000000E+00  0.00000000E+00  0.00000000E+00
  0.00000000E+00  0.00000000E+00  0.00000000E+00
  0.00000000E+00  0.00000000E+00  0.00000000E+00
  0.00000000E+00  0.00000000E+00  0.00000000E+00
  0.00000000E+00  0.00000000E+00  0.00000000E+00
  0.00000000E+00  0.00000000E+00  0.00000000E+00
  0.00000000E+00  0.00000000E+00  0.00000000E+00
  0.00000000E+00  0.00000000E+00  0.00000000E+00
  0.00000000E+00  0.00000000E+00  0.00000000E+00
  0.00000000E+00  0.00000000E+00  0.00000000E+00
  0.00000000E+00  0.00000000E+00  0.00000000E+00
  0.00000000E+00  0.00000000E+00  0.00000000E+00
  0.00000000E+00  0.00000000E+00  0.00000000E+00
  0.00000000E+00  0.00000000E+00  0.00000000E+00
  0.00000000E+00  0.00000000E+00  0.00000000E+00
  0.00000000E+00  0.00000000E+00  0.00000000E+00
  0.00000000E+00  0.00000000E+00  0.00000000E+00
  0.00000000E+00  0.00000000E+00  0.00000000E+00
  0.00000000E+00  0.00000000E+00  0.00000000E+00
  0.00000000E+00  0.00000000E+00  0.00000000E+00
  0.00000000E+00  0.00000000E+00  0.00000000E+00
  0.00000000E+00  0.00000000E+00  0.00000000E+00
  0.00000000E+00  0.00000000E+00  0.00000000E+00
  0.00000000E+00  0.00000000E+00  0.00000000E+00
  0.00000000E+00  0.00000000E+00  0.00000000E+00
  0.00000000E+00  0.00000000E+00  0.00000000E+00
  0.00000000E+00  0.00000000E+00  0.00000000E+00
  0.00000000E+00  0.00000000E+00  0.00000000E+00
  0.00000000E+00  0.00000000E+00  0.00000000E+00
  0.00000000E+00  0.00000000E+00  0.00000000E+00
  0.00000000E+00  0.00000000E+00  0.00000000E+00
  0.00000000E+00  0.00000000E+00  0.00000000E+00
  0.00000000E+00  0.00000000E+00  0.00000000E+00
  0.00000000E+00  0.00000000E+00  0.00000000E+00
  0.00000000E+00  0.00000000E+00  0.00000000E+00
