Ta  N Ru                                
   1.00000000000000     
     9.0548154099999998    0.0000000000000000    0.0000000000000000
     0.0000000000000000   11.6775998899999998    0.0000000000000000
     0.0000000000000000    0.0000000000000000   23.4818170799999990
   Ta   N    Ru
    60    60     1
Selective dynamics
Direct
  0.0000000000000000  0.0000000000000000  0.2546926809530987   F   F   F
  0.6670845899906297  0.1250000003211298  0.2638822399803757   F   F   F
  0.3329153514769843  0.1250000003211298  0.2638822399803757   F   F   F
  0.4999999994478088  0.2499999997859135  0.3618861993156202   F   F   F
  0.1650707596845180  0.1250000003211298  0.3684425577811794   F   F   F
  0.8349292403154820  0.1250000003211298  0.3684425577811794   F   F   F
  0.0000512194897917  0.2499818903280473  0.4798247989388303   T   T   T
  0.6646142596364533  0.1249519850192641  0.4782944543028073   T   T   T
  0.3350850059471089  0.1249619169087787  0.4785956418671408   T   T   T
  0.4977006526998076  0.2500713932369467  0.5912387638392913   T   T   T
  0.1667679311082582  0.1249366586278415  0.5906823766030945   T   T   T
  0.8315309221073319  0.1249060877792618  0.5898580983682473   T   T   T
 -0.0019481777374647  0.2497350023210414  0.7033742109817115   T   T   T
  0.6727494882128038  0.1249243859327954  0.7034847724858307   T   T   T
  0.3420751786611466  0.1248640250537524  0.7044481420848285   T   T   T
  0.0000000000000000  0.2499999997859135  0.2546926809530987   F   F   F
  0.6670845899906297  0.3750000001070433  0.2638822399803757   F   F   F
  0.3329153514769843  0.3750000001070433  0.2638822399803757   F   F   F
  0.4999999994478088  0.5000000004281731  0.3618861993156202   F   F   F
  0.1650707596845180  0.3750000001070433  0.3684425577811794   F   F   F
  0.8349292403154820  0.3750000001070433  0.3684425577811794   F   F   F
 -0.0001535760955120  0.4997247263413315  0.4797439551248129   T   T   T
  0.6645147779443747  0.3749510933075905  0.4780145655697766   T   T   T
  0.3350096125723431  0.3748610749352782  0.4781896424241386   T   T   T
  0.4998203302314284  0.4997788854855668  0.5905925350599188   T   T   T
  0.1661088714773900  0.3748367011380832  0.5904293480298193   T   T   T
  0.8318060427001245  0.3748876594936723  0.5898716609614721   T   T   T
  0.0012171876804790  0.5000711929156493  0.7022292216139960   T   T   T
  0.6713434198350769  0.3758810238175865  0.7031556628038029   T   T   T
  0.3318626948511916  0.3789166868062785  0.7040724676137297   T   T   T
  0.0000000000000000  0.5000000004281731  0.2546926809530987   F   F   F
  0.6670845899906297  0.6249999998929567  0.2638822399803757   F   F   F
  0.3329153514769843  0.6249999998929567  0.2638822399803757   F   F   F
  0.4999999994478088  0.7500000002140865  0.3618861993156202   F   F   F
  0.1650707596845180  0.6249999998929567  0.3684425577811794   F   F   F
  0.8349292403154820  0.6249999998929567  0.3684425577811794   F   F   F
 -0.0002080459480213  0.7501865630517287  0.4797428089875730   T   T   T
  0.6646298717565585  0.6249584890838689  0.4780334964511996   T   T   T
  0.3347760659747068  0.6249731648557925  0.4781591358355006   T   T   T
  0.4998695077053896  0.7501145616944764  0.5906158602408366   T   T   T
  0.1674401536256225  0.6249587029846526  0.5897931521141975   T   T   T
  0.8320986347121199  0.6249103669661693  0.5898045716483268   T   T   T
  0.0012048326051855  0.7498323786944245  0.7022250521231139   T   T   T
  0.6720147853843131  0.6248519795756448  0.7040498552924930   T   T   T
  0.3297966905712093  0.6249988511720139  0.7036920108555860   T   T   T
  0.0000000000000000  0.7500000002140865  0.2546926809530987   F   F   F
  0.6670845899906297  0.8750000005352163  0.2638822399803757   F   F   F
  0.3329153514769843  0.8750000005352163  0.2638822399803757   F   F   F
  0.4999999994478088  0.0000000000000000  0.3618861993156202   F   F   F
  0.1650707596845180  0.8750000005352163  0.3684425577811794   F   F   F
  0.8349292403154820  0.8750000005352163  0.3684425577811794   F   F   F
 -0.0000058609863171 -0.0000809364449282  0.4798289451987831   T   T   T
  0.6645071424733743  0.8749735937625385  0.4780035167349860   T   T   T
  0.3349689786024643  0.8750860064678257  0.4782068278072998   T   T   T
  0.4977861506267733 -0.0002536978912367  0.5912271637868277   T   T   T
  0.1661391568304328  0.8750578075889192  0.5904225916597059   T   T   T
  0.8318140526103383  0.8749685784978338  0.5899054743427584   T   T   T
 -0.0017673589252921  0.0002248153389660  0.7033800572242088   T   T   T
  0.6715263483534685  0.8738442389134224  0.7032325743988330   T   T   T
  0.3319082761617821  0.8711242506029293  0.7040777959228021   T   T   T
  0.8141011533980276  0.0000000000000000  0.3013105672926031   F   F   F
  0.4999999994478088  0.0000000000000000  0.2564174481620327   F   F   F
  0.1858988466019724  0.0000000000000000  0.3013105672926031   F   F   F
  0.3088456122590841  0.2499999997859135  0.4099867722441957   F   F   F
  0.0000000000000000  0.2499999997859135  0.3930971035158137   F   F   F
  0.6911543877409159  0.2499999997859135  0.4099867722441957   F   F   F
  0.8023055030862579  0.2500312714458731  0.5219713672805965   T   T   T
  0.4996844700511652  0.2501214402043118  0.5031796375178659   T   T   T
  0.1973425557419768  0.2497942928892747  0.5225891262761828   T   T   T
  0.3011935468001390  0.2507158820721467  0.6351938258668430   T   T   T
 -0.0010062551034187  0.2495291714007609  0.6142008655640181   T   T   T
  0.6948167804615936  0.2499288526958447  0.6329362977853230   T   T   T
  0.8050151347506893  0.2505960458349577  0.7399739084262299   T   T   T
  0.4994062855253488  0.2480919606883855  0.7237762035847106   T   T   T
  0.1890109250065472  0.2749946144790774  0.7496639868839255   T   T   T
  0.8141011533980276  0.2499999997859135  0.3013105672926031   F   F   F
  0.4999999994478088  0.2499999997859135  0.2564174481620327   F   F   F
  0.1858988466019724  0.2499999997859135  0.3013105672926031   F   F   F
  0.3088456122590841  0.5000000004281731  0.4099867722441957   F   F   F
  0.0000000000000000  0.5000000004281731  0.3930971035158137   F   F   F
  0.6911543877409159  0.5000000004281731  0.4099867722441957   F   F   F
  0.8020702922624559  0.4998549739314840  0.5219542148510595   T   T   T
  0.4997062979181366  0.4998797891269879  0.5027337375791128   T   T   T
  0.1975153549317384  0.4995632719917980  0.5221198169799385   T   T   T
  0.3037843839884664  0.5005863225422177  0.6328949376883038   T   T   T
 -0.0004736941221868  0.5002129818112389  0.6136094417439963   T   T   T
  0.6958002462624966  0.5003410164897540  0.6329094463479356   T   T   T
  0.8066432978227929  0.5000177464230693  0.7400328430987040   T   T   T
  0.5010350168459552  0.4993720991008443  0.7238383717218450   T   T   T
  0.1948114845311127  0.5033591547061278  0.7401878050905787   T   T   T
  0.8141011533980276  0.5000000004281731  0.3013105672926031   F   F   F
  0.4999999994478088  0.5000000004281731  0.2564174481620327   F   F   F
  0.1858988466019724  0.5000000004281731  0.3013105672926031   F   F   F
  0.3088456122590841  0.7500000002140865  0.4099867722441957   F   F   F
  0.0000000000000000  0.7500000002140865  0.3930971035158137   F   F   F
  0.6911543877409159  0.7500000002140865  0.4099867722441957   F   F   F
  0.8020465452912030  0.7500433302579276  0.5219585948442126   T   T   T
  0.4996585439687495  0.7500307114652469  0.5027393185024862   T   T   T
  0.1974586348386301  0.7503639746215875  0.5221062973963837   T   T   T
  0.3038221372269290  0.7494342382784086  0.6328981798147290   T   T   T
 -0.0005028023932897  0.7496301213475225  0.6136065378140035   T   T   T
  0.6958334052168265  0.7494978672008711  0.6329464701045617   T   T   T
  0.8066584331995634  0.7496405789970684  0.7400691344140884   T   T   T
  0.5010622359207978  0.7505464123667939  0.7238959227511019   T   T   T
  0.1947483917000885  0.7467682661412642  0.7401849992416183   T   T   T
  0.8141011533980276  0.7500000002140865  0.3013105672926031   F   F   F
  0.4999999994478088  0.7500000002140865  0.2564174481620327   F   F   F
  0.1858988466019724  0.7500000002140865  0.3013105672926031   F   F   F
  0.3088456122590841  0.0000000000000000  0.4099867722441957   F   F   F
  0.0000000000000000  0.0000000000000000  0.3930971035158137   F   F   F
  0.6911543877409159  0.0000000000000000  0.4099867722441957   F   F   F
  0.8022815267458066 -0.0001710790144579  0.5219802557557301   T   T   T
  0.4996496600117795 -0.0002227429321028  0.5031783557356422   T   T   T
  0.1972662667025632  0.0001305438992597  0.5225879204639764   T   T   T
  0.3012989259623610 -0.0008309381804384  0.6351495289298207   T   T   T
 -0.0009650910784448  0.0002992483454328  0.6142307225886847   T   T   T
  0.6948791329210596 -0.0001356497652684  0.6329820677196154   T   T   T
  0.8052268341969340 -0.0007787710239942  0.7400124902558988   T   T   T
  0.4995623200242949  0.0018729265509198  0.7238315733120078   T   T   T
  0.1894657233071049 -0.0245397120042325  0.7496110516673482   T   T   T
  0.1487709462693193  0.1252450494185556  0.7794792748340664   T   T   T
 
  0.00000000E+00  0.00000000E+00  0.00000000E+00
  0.00000000E+00  0.00000000E+00  0.00000000E+00
  0.00000000E+00  0.00000000E+00  0.00000000E+00
  0.00000000E+00  0.00000000E+00  0.00000000E+00
  0.00000000E+00  0.00000000E+00  0.00000000E+00
  0.00000000E+00  0.00000000E+00  0.00000000E+00
  0.00000000E+00  0.00000000E+00  0.00000000E+00
  0.00000000E+00  0.00000000E+00  0.00000000E+00
  0.00000000E+00  0.00000000E+00  0.00000000E+00
  0.00000000E+00  0.00000000E+00  0.00000000E+00
  0.00000000E+00  0.00000000E+00  0.00000000E+00
  0.00000000E+00  0.00000000E+00  0.00000000E+00
  0.00000000E+00  0.00000000E+00  0.00000000E+00
  0.00000000E+00  0.00000000E+00  0.00000000E+00
  0.00000000E+00  0.00000000E+00  0.00000000E+00
  0.00000000E+00  0.00000000E+00  0.00000000E+00
  0.00000000E+00  0.00000000E+00  0.00000000E+00
  0.00000000E+00  0.00000000E+00  0.00000000E+00
  0.00000000E+00  0.00000000E+00  0.00000000E+00
  0.00000000E+00  0.00000000E+00  0.00000000E+00
  0.00000000E+00  0.00000000E+00  0.00000000E+00
  0.00000000E+00  0.00000000E+00  0.00000000E+00
  0.00000000E+00  0.00000000E+00  0.00000000E+00
  0.00000000E+00  0.00000000E+00  0.00000000E+00
  0.00000000E+00  0.00000000E+00  0.00000000E+00
  0.00000000E+00  0.00000000E+00  0.00000000E+00
  0.00000000E+00  0.00000000E+00  0.00000000E+00
  0.00000000E+00  0.00000000E+00  0.00000000E+00
  0.00000000E+00  0.00000000E+00  0.00000000E+00
  0.00000000E+00  0.00000000E+00  0.00000000E+00
  0.00000000E+00  0.00000000E+00  0.00000000E+00
  0.00000000E+00  0.00000000E+00  0.00000000E+00
  0.00000000E+00  0.00000000E+00  0.00000000E+00
  0.00000000E+00  0.00000000E+00  0.00000000E+00
  0.00000000E+00  0.00000000E+00  0.00000000E+00
  0.00000000E+00  0.00000000E+00  0.00000000E+00
  0.00000000E+00  0.00000000E+00  0.00000000E+00
  0.00000000E+00  0.00000000E+00  0.00000000E+00
  0.00000000E+00  0.00000000E+00  0.00000000E+00
  0.00000000E+00  0.00000000E+00  0.00000000E+00
  0.00000000E+00  0.00000000E+00  0.00000000E+00
  0.00000000E+00  0.00000000E+00  0.00000000E+00
  0.00000000E+00  0.00000000E+00  0.00000000E+00
  0.00000000E+00  0.00000000E+00  0.00000000E+00
  0.00000000E+00  0.00000000E+00  0.00000000E+00
  0.00000000E+00  0.00000000E+00  0.00000000E+00
  0.00000000E+00  0.00000000E+00  0.00000000E+00
  0.00000000E+00  0.00000000E+00  0.00000000E+00
  0.00000000E+00  0.00000000E+00  0.00000000E+00
  0.00000000E+00  0.00000000E+00  0.00000000E+00
  0.00000000E+00  0.00000000E+00  0.00000000E+00
  0.00000000E+00  0.00000000E+00  0.00000000E+00
  0.00000000E+00  0.00000000E+00  0.00000000E+00
  0.00000000E+00  0.00000000E+00  0.00000000E+00
  0.00000000E+00  0.00000000E+00  0.00000000E+00
  0.00000000E+00  0.00000000E+00  0.00000000E+00
  0.00000000E+00  0.00000000E+00  0.00000000E+00
  0.00000000E+00  0.00000000E+00  0.00000000E+00
  0.00000000E+00  0.00000000E+00  0.00000000E+00
  0.00000000E+00  0.00000000E+00  0.00000000E+00
  0.00000000E+00  0.00000000E+00  0.00000000E+00
  0.00000000E+00  0.00000000E+00  0.00000000E+00
  0.00000000E+00  0.00000000E+00  0.00000000E+00
  0.00000000E+00  0.00000000E+00  0.00000000E+00
  0.00000000E+00  0.00000000E+00  0.00000000E+00
  0.00000000E+00  0.00000000E+00  0.00000000E+00
  0.00000000E+00  0.00000000E+00  0.00000000E+00
  0.00000000E+00  0.00000000E+00  0.00000000E+00
  0.00000000E+00  0.00000000E+00  0.00000000E+00
  0.00000000E+00  0.00000000E+00  0.00000000E+00
  0.00000000E+00  0.00000000E+00  0.00000000E+00
  0.00000000E+00  0.00000000E+00  0.00000000E+00
  0.00000000E+00  0.00000000E+00  0.00000000E+00
  0.00000000E+00  0.00000000E+00  0.00000000E+00
  0.00000000E+00  0.00000000E+00  0.00000000E+00
  0.00000000E+00  0.00000000E+00  0.00000000E+00
  0.00000000E+00  0.00000000E+00  0.00000000E+00
  0.00000000E+00  0.00000000E+00  0.00000000E+00
  0.00000000E+00  0.00000000E+00  0.00000000E+00
  0.00000000E+00  0.00000000E+00  0.00000000E+00
  0.00000000E+00  0.00000000E+00  0.00000000E+00
  0.00000000E+00  0.00000000E+00  0.00000000E+00
  0.00000000E+00  0.00000000E+00  0.00000000E+00
  0.00000000E+00  0.00000000E+00  0.00000000E+00
  0.00000000E+00  0.00000000E+00  0.00000000E+00
  0.00000000E+00  0.00000000E+00  0.00000000E+00
  0.00000000E+00  0.00000000E+00  0.00000000E+00
  0.00000000E+00  0.00000000E+00  0.00000000E+00
  0.00000000E+00  0.00000000E+00  0.00000000E+00
  0.00000000E+00  0.00000000E+00  0.00000000E+00
  0.00000000E+00  0.00000000E+00  0.00000000E+00
  0.00000000E+00  0.00000000E+00  0.00000000E+00
  0.00000000E+00  0.00000000E+00  0.00000000E+00
  0.00000000E+00  0.00000000E+00  0.00000000E+00
  0.00000000E+00  0.00000000E+00  0.00000000E+00
  0.00000000E+00  0.00000000E+00  0.00000000E+00
  0.00000000E+00  0.00000000E+00  0.00000000E+00
  0.00000000E+00  0.00000000E+00  0.00000000E+00
  0.00000000E+00  0.00000000E+00  0.00000000E+00
  0.00000000E+00  0.00000000E+00  0.00000000E+00
  0.00000000E+00  0.00000000E+00  0.00000000E+00
  0.00000000E+00  0.00000000E+00  0.00000000E+00
  0.00000000E+00  0.00000000E+00  0.00000000E+00
  0.00000000E+00  0.00000000E+00  0.00000000E+00
  0.00000000E+00  0.00000000E+00  0.00000000E+00
  0.00000000E+00  0.00000000E+00  0.00000000E+00
  0.00000000E+00  0.00000000E+00  0.00000000E+00
  0.00000000E+00  0.00000000E+00  0.00000000E+00
  0.00000000E+00  0.00000000E+00  0.00000000E+00
  0.00000000E+00  0.00000000E+00  0.00000000E+00
  0.00000000E+00  0.00000000E+00  0.00000000E+00
  0.00000000E+00  0.00000000E+00  0.00000000E+00
  0.00000000E+00  0.00000000E+00  0.00000000E+00
  0.00000000E+00  0.00000000E+00  0.00000000E+00
  0.00000000E+00  0.00000000E+00  0.00000000E+00
  0.00000000E+00  0.00000000E+00  0.00000000E+00
  0.00000000E+00  0.00000000E+00  0.00000000E+00
  0.00000000E+00  0.00000000E+00  0.00000000E+00
  0.00000000E+00  0.00000000E+00  0.00000000E+00
  0.00000000E+00  0.00000000E+00  0.00000000E+00
  0.00000000E+00  0.00000000E+00  0.00000000E+00
