Ta  N Ru                                
   1.00000000000000     
    18.1096308199999996    0.0000000000000000    0.0000000000000000
     0.0000000000000000   23.3551997799999995    0.0000000000000000
     0.0000000000000000    0.0000000000000000   30.4818171199999988
   Ta   N    Ru
   216   240    24
Direct
  0.0000000000000000 -0.0000169251791119  0.1973415401966877
  0.3340836453085199  0.0625456427909769  0.2025671507649825
  0.1659163254252834  0.0625456427909769  0.2025671507649825
  0.2499999997239044  0.1249264343318959  0.2780286427457489
  0.0827651805981192  0.0624885323955133  0.2838652795942170
  0.4172348194018807  0.0624885323955133  0.2838652795942170
  0.0000000000000000  0.1247214832976820  0.3695792291898118
  0.3322221581535745  0.0626412833801531  0.3680890426101645
  0.1677778125802362  0.0626412833801531  0.3680890426101645
  0.2499999997239044  0.1271085484182826  0.4569601686812682
  0.0854183856274149  0.0630765597794405  0.4554668414679606
  0.4145816143725852  0.0630765597794405  0.4554668414679606
  0.0000000000000000  0.1215845407340040  0.5441493064389087
  0.0000000000000000  0.1250597901973046  0.1972695212644298
  0.3340101687179523  0.1875125968246528  0.2025194439736352
  0.1659898020158512  0.1875125968246528  0.2025194439736352
  0.2499999997239044  0.2501643478293478  0.2779548773134197
  0.0824959421597515  0.1874754613012227  0.2839355728384863
  0.4175040578402484  0.1874754613012227  0.2839355728384863
  0.0000000000000000  0.2503993392818095  0.3693640906109525
  0.3322093629128924  0.1873639706472100  0.3683252880878157
  0.1677906078209181  0.1873639706472100  0.3683252880878157
  0.2499999997239044  0.2483429057465366  0.4540263075579214
  0.0832596714671905  0.1876493422984178  0.4528489854754719
  0.4167403285328096  0.1876493422984178  0.4528489854754719
  0.3327852730435337  0.2035837442995330  0.5421799649195661
  0.1672146976902697  0.2035837442995330  0.5421799649195661
  0.0000000000000000  0.2499830750349746  0.1973415401966877
  0.3340836453085199  0.3125456425768975  0.2025671507649825
  0.1659163254252834  0.3125456425768975  0.2025671507649825
  0.2499999997239044  0.3749264345459823  0.2780286427457489
  0.0827651805981192  0.3124885321814340  0.2838652795942170
  0.4172348194018807  0.3124885321814340  0.2838652795942170
  0.0000000000000000  0.3747214835117685  0.3695792291898118
  0.3322221581535745  0.3126412831660735  0.3680890426101645
  0.1677778125802362  0.3126412831660735  0.3680890426101645
  0.2499999997239044  0.3771085486323690  0.4569601686812682
  0.0854183856274149  0.3130765595653611  0.4554668414679606
  0.4145816143725852  0.3130765595653611  0.4554668414679606
  0.0000000000000000  0.3715845409480906  0.5441493064389087
  0.0000000000000000  0.3750597904113910  0.1972695212644298
  0.3340101687179523  0.4375125970387393  0.2025194439736352
  0.1659898020158512  0.4375125970387393  0.2025194439736352
  0.2499999997239044  0.0001643476152613  0.2779548773134197
  0.0824959421597515  0.4374754615153091  0.2839355728384863
  0.4175040578402484  0.4374754615153091  0.2839355728384863
  0.0000000000000000  0.0003993390677230  0.3693640906109525
  0.3322093629128924  0.4373639708612966  0.3683252880878157
  0.1677906078209181  0.4373639708612966  0.3683252880878157
  0.2499999997239044  0.9983429055324502  0.4540263075579214
  0.0832596714671905  0.4376493425125044  0.4528489854754719
  0.4167403285328096  0.4376493425125044  0.4528489854754719
  0.3327852730435337  0.4535837445136195  0.5421799649195661
  0.1672146976902697  0.4535837445136195  0.5421799649195661
  0.0000000000000000  0.4999830748208881  0.1973415401966877
  0.3340836453085199  0.5625456427909770  0.2025671507649825
  0.1659163254252834  0.5625456427909770  0.2025671507649825
  0.2499999997239044  0.6249264343318958  0.2780286427457489
  0.0827651805981192  0.5624885323955136  0.2838652795942170
  0.4172348194018807  0.5624885323955136  0.2838652795942170
  0.0000000000000000  0.6247214832976818  0.3695792291898118
  0.3322221581535745  0.5626412833801533  0.3680890426101645
  0.1677778125802362  0.5626412833801533  0.3680890426101645
  0.2499999997239044  0.6271085484182825  0.4569601686812682
  0.0854183856274149  0.5630765597794404  0.4554668414679606
  0.4145816143725852  0.5630765597794404  0.4554668414679606
  0.0000000000000000  0.6215845407340042  0.5441493064389087
  0.0000000000000000  0.6250597901973046  0.1972695212644298
  0.3340101687179523  0.6875125968246526  0.2025194439736352
  0.1659898020158512  0.6875125968246526  0.2025194439736352
  0.2499999997239044  0.7501643478293477  0.2779548773134197
  0.0824959421597515  0.6874754613012226  0.2839355728384863
  0.4175040578402484  0.6874754613012226  0.2839355728384863
  0.0000000000000000  0.7503993392818096  0.3693640906109525
  0.3322093629128924  0.6873639706472100  0.3683252880878157
  0.1677906078209181  0.6873639706472100  0.3683252880878157
  0.2499999997239044  0.7483429057465367  0.4540263075579214
  0.0832596714671905  0.6876493422984181  0.4528489854754719
  0.4167403285328096  0.6876493422984181  0.4528489854754719
  0.3327852730435337  0.7035837442995331  0.5421799649195661
  0.1672146976902697  0.7035837442995331  0.5421799649195661
  0.0000000000000000  0.7499830750349745  0.1973415401966877
  0.3340836453085199  0.8125456425768975  0.2025671507649825
  0.1659163254252834  0.8125456425768975  0.2025671507649825
  0.2499999997239044  0.8749264345459823  0.2780286427457489
  0.0827651805981192  0.8124885321814341  0.2838652795942170
  0.4172348194018807  0.8124885321814341  0.2838652795942170
  0.0000000000000000  0.8747214835117684  0.3695792291898118
  0.3322221581535745  0.8126412831660739  0.3680890426101645
  0.1677778125802362  0.8126412831660739  0.3680890426101645
  0.2499999997239044  0.8771085486323690  0.4569601686812682
  0.0854183856274149  0.8130765595653610  0.4554668414679606
  0.4145816143725852  0.8130765595653610  0.4554668414679606
  0.0000000000000000  0.8715845409480907  0.5441493064389087
  0.0000000000000000  0.8750597904113911  0.1972695212644298
  0.3340101687179523  0.9375125970387391  0.2025194439736352
  0.1659898020158512  0.9375125970387391  0.2025194439736352
  0.2499999997239044  0.5001643476152612  0.2779548773134197
  0.0824959421597515  0.9374754615153091  0.2839355728384863
  0.4175040578402484  0.9374754615153091  0.2839355728384863
  0.0000000000000000  0.5003993390677230  0.3693640906109525
  0.3322093629128924  0.9373639708612965  0.3683252880878157
  0.1677906078209181  0.9373639708612965  0.3683252880878157
  0.2499999997239044  0.4983429055324500  0.4540263075579214
  0.0832596714671905  0.9376493425125046  0.4528489854754719
  0.4167403285328096  0.9376493425125046  0.4528489854754719
  0.3327852730435337  0.9535837445136196  0.5421799649195661
  0.1672146976902697  0.9535837445136196  0.5421799649195661
  0.5000000000000000 -0.0000169251791119  0.1973415401966877
  0.8340836447563289  0.0625456427909769  0.2025671507649825
  0.6659163254252833  0.0625456427909769  0.2025671507649825
  0.7499999997239044  0.1249264343318959  0.2780286427457489
  0.5827651805981191  0.0624885323955133  0.2838652795942170
  0.9172348194018809  0.0624885323955133  0.2838652795942170
  0.5000000000000000  0.1247214832976820  0.3695792291898118
  0.8322221576013689  0.0626412833801531  0.3680890426101645
  0.6677778125802363  0.0626412833801531  0.3680890426101645
  0.7499999997239044  0.1271085484182826  0.4569601686812682
  0.5854183856274149  0.0630765597794405  0.4554668414679606
  0.9145816143725851  0.0630765597794405  0.4554668414679606
  0.5000000000000000  0.1215845407340040  0.5441493064389087
  0.5000000000000000  0.1250597901973046  0.1972695212644298
  0.8340101681657612  0.1875125968246528  0.2025194439736352
  0.6659898020158510  0.1875125968246528  0.2025194439736352
  0.7499999997239044  0.2501643478293478  0.2779548773134197
  0.5824959421597516  0.1874754613012227  0.2839355728384863
  0.9175040578402484  0.1874754613012227  0.2839355728384863
  0.5000000000000000  0.2503993392818095  0.3693640906109525
  0.8322093623606943  0.1873639706472100  0.3683252880878157
  0.6677906078209179  0.1873639706472100  0.3683252880878157
  0.7499999997239044  0.2483429057465366  0.4540263075579214
  0.5832596714671905  0.1876493422984178  0.4528489854754719
  0.9167403285328095  0.1876493422984178  0.4528489854754719
  0.8327852730435340  0.2035837442995330  0.5421799649195661
  0.6672146976902694  0.2035837442995330  0.5421799649195661
  0.5000000000000000  0.2499830750349746  0.1973415401966877
  0.8340836447563289  0.3125456425768975  0.2025671507649825
  0.6659163254252833  0.3125456425768975  0.2025671507649825
  0.7499999997239044  0.3749264345459823  0.2780286427457489
  0.5827651805981191  0.3124885321814340  0.2838652795942170
  0.9172348194018809  0.3124885321814340  0.2838652795942170
  0.5000000000000000  0.3747214835117685  0.3695792291898118
  0.8322221576013689  0.3126412831660735  0.3680890426101645
  0.6677778125802363  0.3126412831660735  0.3680890426101645
  0.7499999997239044  0.3771085486323690  0.4569601686812682
  0.5854183856274149  0.3130765595653611  0.4554668414679606
  0.9145816143725851  0.3130765595653611  0.4554668414679606
  0.5000000000000000  0.3715845409480906  0.5441493064389087
  0.5000000000000000  0.3750597904113910  0.1972695212644298
  0.8340101681657612  0.4375125970387393  0.2025194439736352
  0.6659898020158510  0.4375125970387393  0.2025194439736352
  0.7499999997239044  0.0001643476152613  0.2779548773134197
  0.5824959421597516  0.4374754615153091  0.2839355728384863
  0.9175040578402484  0.4374754615153091  0.2839355728384863
  0.5000000000000000  0.0003993390677230  0.3693640906109525
  0.8322093623606943  0.4373639708612966  0.3683252880878157
  0.6677906078209179  0.4373639708612966  0.3683252880878157
  0.7499999997239044  0.9983429055324502  0.4540263075579214
  0.5832596714671905  0.4376493425125044  0.4528489854754719
  0.9167403285328095  0.4376493425125044  0.4528489854754719
  0.8327852730435340  0.4535837445136195  0.5421799649195661
  0.6672146976902694  0.4535837445136195  0.5421799649195661
  0.5000000000000000  0.4999830748208881  0.1973415401966877
  0.8340836447563289  0.5625456427909770  0.2025671507649825
  0.6659163254252833  0.5625456427909770  0.2025671507649825
  0.7499999997239044  0.6249264343318958  0.2780286427457489
  0.5827651805981191  0.5624885323955136  0.2838652795942170
  0.9172348194018809  0.5624885323955136  0.2838652795942170
  0.5000000000000000  0.6247214832976818  0.3695792291898118
  0.8322221576013689  0.5626412833801533  0.3680890426101645
  0.6677778125802363  0.5626412833801533  0.3680890426101645
  0.7499999997239044  0.6271085484182825  0.4569601686812682
  0.5854183856274149  0.5630765597794404  0.4554668414679606
  0.9145816143725851  0.5630765597794404  0.4554668414679606
  0.5000000000000000  0.6215845407340042  0.5441493064389087
  0.5000000000000000  0.6250597901973046  0.1972695212644298
  0.8340101681657612  0.6875125968246526  0.2025194439736352
  0.6659898020158510  0.6875125968246526  0.2025194439736352
  0.7499999997239044  0.7501643478293477  0.2779548773134197
  0.5824959421597516  0.6874754613012226  0.2839355728384863
  0.9175040578402484  0.6874754613012226  0.2839355728384863
  0.5000000000000000  0.7503993392818096  0.3693640906109525
  0.8322093623606943  0.6873639706472100  0.3683252880878157
  0.6677906078209179  0.6873639706472100  0.3683252880878157
  0.7499999997239044  0.7483429057465367  0.4540263075579214
  0.5832596714671905  0.6876493422984181  0.4528489854754719
  0.9167403285328095  0.6876493422984181  0.4528489854754719
  0.8327852730435340  0.7035837442995331  0.5421799649195661
  0.6672146976902694  0.7035837442995331  0.5421799649195661
  0.5000000000000000  0.7499830750349745  0.1973415401966877
  0.8340836447563289  0.8125456425768975  0.2025671507649825
  0.6659163254252833  0.8125456425768975  0.2025671507649825
  0.7499999997239044  0.8749264345459823  0.2780286427457489
  0.5827651805981191  0.8124885321814341  0.2838652795942170
  0.9172348194018809  0.8124885321814341  0.2838652795942170
  0.5000000000000000  0.8747214835117684  0.3695792291898118
  0.8322221576013689  0.8126412831660739  0.3680890426101645
  0.6677778125802363  0.8126412831660739  0.3680890426101645
  0.7499999997239044  0.8771085486323690  0.4569601686812682
  0.5854183856274149  0.8130765595653610  0.4554668414679606
  0.9145816143725851  0.8130765595653610  0.4554668414679606
  0.5000000000000000  0.8715845409480907  0.5441493064389087
  0.5000000000000000  0.8750597904113911  0.1972695212644298
  0.8340101681657612  0.9375125970387391  0.2025194439736352
  0.6659898020158510  0.9375125970387391  0.2025194439736352
  0.7499999997239044  0.5001643476152612  0.2779548773134197
  0.5824959421597516  0.9374754615153091  0.2839355728384863
  0.9175040578402484  0.9374754615153091  0.2839355728384863
  0.5000000000000000  0.5003993390677230  0.3693640906109525
  0.8322093623606943  0.9373639708612965  0.3683252880878157
  0.6677906078209179  0.9373639708612965  0.3683252880878157
  0.7499999997239044  0.4983429055324500  0.4540263075579214
  0.5832596714671905  0.9376493425125046  0.4528489854754719
  0.9167403285328095  0.9376493425125046  0.4528489854754719
  0.8327852730435340  0.9535837445136196  0.5421799649195661
  0.6672146976902694  0.9535837445136196  0.5421799649195661
  0.4056069474266035 -0.0000626383494832  0.2321734907340075
  0.2499999997239044  0.0000513587277517  0.1992858819354750
  0.0943930525733965 -0.0000626383494832  0.2321734907340075
  0.1547082680068368  0.1251230653872992  0.3157550047969776
  0.0000000000000000  0.1248851797808525  0.3029475127512471
  0.3452917319931632  0.1251230653872992  0.3157550047969776
  0.4011803368459778  0.1246105273307481  0.4025403091426196
  0.2499999997239044  0.1248159804325916  0.3885163870388026
  0.0988196626018310  0.1246105273307481  0.4025403091426196
  0.1507733507426771  0.1284184430660332  0.4883419360593370
  0.0000000000000000  0.1257186766972598  0.4755566174659980
  0.3492266487051318  0.1284184430660332  0.4883419360593370
  0.4074029422442776  0.1476543631292823  0.5696518963630492
  0.2499999997239044  0.1369649644746497  0.5563358480765640
  0.0925970577557225  0.1476543631292823  0.5696518963630492
  0.4056495225775871  0.1250779796458556  0.2321437934505582
  0.2499999997239044  0.1250070554064280  0.1993925282839728
  0.0943504774224129  0.1250779796458556  0.2321437934505582
  0.1547523877655829  0.2498547720176451  0.3156484410005856
  0.0000000000000000  0.2500770228524948  0.3028264942509231
  0.3452476122344171  0.2498547720176451  0.3156484410005856
  0.4011298655495952  0.2508418313359191  0.4017328549907736
  0.2499999997239044  0.2501037712650501  0.3868185429652994
  0.0988701338982136  0.2508418313359191  0.4017328549907736
  0.1507181499949930  0.2471355596021434  0.4835295094945853
  0.0000000000000000  0.2511352018349595  0.4741576654570694
  0.3492818494528159  0.2471355596021434  0.4835295094945853
  0.4044471906928080  0.2702197341654736  0.5668712501889986
  0.2499999997239044  0.2582283797711779  0.5593641152727203
  0.0955528093071920  0.2702197341654736  0.5668712501889986
  0.4056069474266035  0.2499373618646034  0.2321734907340075
  0.2499999997239044  0.2500513589418383  0.1992858819354750
  0.0943930525733965  0.2499373618646034  0.2321734907340075
  0.1547082680068368  0.3751230656013859  0.3157550047969776
  0.0000000000000000  0.3748851799949390  0.3029475127512471
  0.3452917319931632  0.3751230656013859  0.3157550047969776
  0.4011803368459778  0.3746105275448347  0.4025403091426196
  0.2499999997239044  0.3748159806466782  0.3885163870388026
  0.0988196626018310  0.3746105275448347  0.4025403091426196
  0.1507733507426771  0.3784184432801198  0.4883419360593370
  0.0000000000000000  0.3757186769113464  0.4755566174659980
  0.3492266487051318  0.3784184432801198  0.4883419360593370
  0.4074029422442776  0.3976543633433688  0.5696518963630492
  0.2499999997239044  0.3869649646887363  0.5563358480765640
  0.0925970577557225  0.3976543633433688  0.5696518963630492
  0.4056495225775871  0.3750779798599421  0.2321437934505582
  0.2499999997239044  0.3750070556205146  0.1993925282839728
  0.0943504774224129  0.3750779798599421  0.2321437934505582
  0.1547523877655829 -0.0001452281964415  0.3156484410005856
  0.0000000000000000  0.0000770226384082  0.3028264942509231
  0.3452476122344171 -0.0001452281964415  0.3156484410005856
  0.4011298655495952  0.0008418311218326  0.4017328549907736
  0.2499999997239044  0.0001037710509636  0.3868185429652994
  0.0988701338982136  0.0008418311218326  0.4017328549907736
  0.1507181499949930  0.9971355593880568  0.4835295094945853
  0.0000000000000000  0.0011352016208729  0.4741576654570694
  0.3492818494528159  0.9971355593880568  0.4835295094945853
  0.4044471906928080  0.0202197339513871  0.5668712501889986
  0.2499999997239044  0.0082283795570913  0.5593641152727203
  0.0955528093071920  0.0202197339513871  0.5668712501889986
  0.4056069474266035  0.4999373616505168  0.2321734907340075
  0.2499999997239044  0.5000513587277516  0.1992858819354750
  0.0943930525733965  0.4999373616505168  0.2321734907340075
  0.1547082680068368  0.6251230653872990  0.3157550047969776
  0.0000000000000000  0.6248851797808526  0.3029475127512471
  0.3452917319931632  0.6251230653872990  0.3157550047969776
  0.4011803368459778  0.6246105273307410  0.4025403091426196
  0.2499999997239044  0.6248159804325915  0.3885163870388026
  0.0988196626018310  0.6246105273307481  0.4025403091426196
  0.1507733507426771  0.6284184430660329  0.4883419360593370
  0.0000000000000000  0.6257186766972599  0.4755566174659980
  0.3492266487051318  0.6284184430660329  0.4883419360593370
  0.4074029422442776  0.6476543631292824  0.5696518963630492
  0.2499999997239044  0.6369649644746497  0.5563358480765640
  0.0925970577557225  0.6476543631292824  0.5696518963630492
  0.4056495225775871  0.6250779796458557  0.2321437934505582
  0.2499999997239044  0.6250070554064278  0.1993925282839728
  0.0943504774224129  0.6250779796458557  0.2321437934505582
  0.1547523877655829  0.7498547720176451  0.3156484410005856
  0.0000000000000000  0.7500770228524948  0.3028264942509231
  0.3452476122344171  0.7498547720176451  0.3156484410005856
  0.4011298655495952  0.7508418313359191  0.4017328549907736
  0.2499999997239044  0.7501037712650501  0.3868185429652994
  0.0988701338982136  0.7508418313359191  0.4017328549907736
  0.1507181499949930  0.7471355596021433  0.4835295094945853
  0.0000000000000000  0.7511352018349593  0.4741576654570694
  0.3492818494528159  0.7471355596021433  0.4835295094945853
  0.4044471906928080  0.7702197341654736  0.5668712501889986
  0.2499999997239044  0.7582283797711781  0.5593641152727203
  0.0955528093071920  0.7702197341654736  0.5668712501889986
  0.4056069474266035  0.7499373618646034  0.2321734907340075
  0.2499999997239044  0.7500513589418381  0.1992858819354750
  0.0943930525733965  0.7499373618646034  0.2321734907340075
  0.1547082680068368  0.8751230656013855  0.3157550047969776
  0.0000000000000000  0.8748851799949391  0.3029475127512471
  0.3452917319931632  0.8751230656013855  0.3157550047969776
  0.4011803368459778  0.8746105275448275  0.4025403091426196
  0.2499999997239044  0.8748159806466780  0.3885163870388026
  0.0988196626018310  0.8746105275448346  0.4025403091426196
  0.1507733507426771  0.8784184432801194  0.4883419360593370
  0.0000000000000000  0.8757186769113464  0.4755566174659980
  0.3492266487051318  0.8784184432801194  0.4883419360593370
  0.4074029422442776  0.8976543633433689  0.5696518963630492
  0.2499999997239044  0.8869649646887362  0.5563358480765640
  0.0925970577557225  0.8976543633433689  0.5696518963630492
  0.4056495225775871  0.8750779798599422  0.2321437934505582
  0.2499999997239044  0.8750070556205143  0.1993925282839728
  0.0943504774224129  0.8750779798599422  0.2321437934505582
  0.1547523877655829  0.4998547718035586  0.3156484410005856
  0.0000000000000000  0.5000770226384083  0.3028264942509231
  0.3452476122344171  0.4998547718035586  0.3156484410005856
  0.4011298655495952  0.5008418311218326  0.4017328549907736
  0.2499999997239044  0.5001037710509636  0.3868185429652994
  0.0988701338982136  0.5008418311218326  0.4017328549907736
  0.1507181499949930  0.4971355593880569  0.4835295094945853
  0.0000000000000000  0.5011352016208728  0.4741576654570694
  0.3492818494528159  0.4971355593880569  0.4835295094945853
  0.4044471906928080  0.5202197339513871  0.5668712501889986
  0.2499999997239044  0.5082283795570915  0.5593641152727203
  0.0955528093071920  0.5202197339513871  0.5668712501889986
  0.9056069474266033 -0.0000626383494832  0.2321734907340075
  0.7499999997239044  0.0000513587277517  0.1992858819354750
  0.5943930525733967 -0.0000626383494832  0.2321734907340075
  0.6547082680068368  0.1251230653872992  0.3157550047969776
  0.5000000000000000  0.1248851797808525  0.3029475127512471
  0.8452917319931632  0.1251230653872992  0.3157550047969776
  0.9011803368459778  0.1246105273307481  0.4025403091426196
  0.7499999997239044  0.1248159804325916  0.3885163870388026
  0.5988196626018311  0.1246105273307481  0.4025403091426196
  0.6507733507426843  0.1284184430660332  0.4883419360593370
  0.5000000000000000  0.1257186766972598  0.4755566174659980
  0.8492266487051245  0.1284184430660332  0.4883419360593370
  0.9074029422442775  0.1476543631292823  0.5696518963630492
  0.7499999997239044  0.1369649644746497  0.5563358480765640
  0.5925970577557225  0.1476543631292823  0.5696518963630492
  0.9056495225775871  0.1250779796458556  0.2321437934505582
  0.7499999997239044  0.1250070554064280  0.1993925282839728
  0.5943504774224129  0.1250779796458556  0.2321437934505582
  0.6547523877655829  0.2498547720176451  0.3156484410005856
  0.5000000000000000  0.2500770228524948  0.3028264942509231
  0.8452476122344171  0.2498547720176451  0.3156484410005856
  0.9011298655495953  0.2508418313359191  0.4017328549907736
  0.7499999997239044  0.2501037712650501  0.3868185429652994
  0.5988701338982135  0.2508418313359191  0.4017328549907736
  0.6507181499949930  0.2471355596021434  0.4835295094945853
  0.5000000000000000  0.2511352018349595  0.4741576654570694
  0.8492818494528158  0.2471355596021434  0.4835295094945853
  0.9044471906928080  0.2702197341654736  0.5668712501889986
  0.7499999997239044  0.2582283797711779  0.5593641152727203
  0.5955528093071920  0.2702197341654736  0.5668712501889986
  0.9056069474266033  0.2499373618646034  0.2321734907340075
  0.7499999997239044  0.2500513589418383  0.1992858819354750
  0.5943930525733967  0.2499373618646034  0.2321734907340075
  0.6547082680068368  0.3751230656013859  0.3157550047969776
  0.5000000000000000  0.3748851799949390  0.3029475127512471
  0.8452917319931632  0.3751230656013859  0.3157550047969776
  0.9011803368459778  0.3746105275448347  0.4025403091426196
  0.7499999997239044  0.3748159806466782  0.3885163870388026
  0.5988196626018311  0.3746105275448347  0.4025403091426196
  0.6507733507426843  0.3784184432801198  0.4883419360593370
  0.5000000000000000  0.3757186769113464  0.4755566174659980
  0.8492266487051245  0.3784184432801198  0.4883419360593370
  0.9074029422442775  0.3976543633433688  0.5696518963630492
  0.7499999997239044  0.3869649646887363  0.5563358480765640
  0.5925970577557225  0.3976543633433688  0.5696518963630492
  0.9056495225775871  0.3750779798599421  0.2321437934505582
  0.7499999997239044  0.3750070556205146  0.1993925282839728
  0.5943504774224129  0.3750779798599421  0.2321437934505582
  0.6547523877655829 -0.0001452281964415  0.3156484410005856
  0.5000000000000000  0.0000770226384082  0.3028264942509231
  0.8452476122344171 -0.0001452281964415  0.3156484410005856
  0.9011298655495953  0.0008418311218326  0.4017328549907736
  0.7499999997239044  0.0001037710509636  0.3868185429652994
  0.5988701338982135  0.0008418311218326  0.4017328549907736
  0.6507181499949930  0.9971355593880568  0.4835295094945853
  0.5000000000000000  0.0011352016208729  0.4741576654570694
  0.8492818494528158  0.9971355593880568  0.4835295094945853
  0.9044471906928080  0.0202197339513871  0.5668712501889986
  0.7499999997239044  0.0082283795570913  0.5593641152727203
  0.5955528093071920  0.0202197339513871  0.5668712501889986
  0.9056069474266033  0.4999373616505168  0.2321734907340075
  0.7499999997239044  0.5000513587277516  0.1992858819354750
  0.5943930525733967  0.4999373616505168  0.2321734907340075
  0.6547082680068368  0.6251230653872990  0.3157550047969776
  0.5000000000000000  0.6248851797808526  0.3029475127512471
  0.8452917319931632  0.6251230653872990  0.3157550047969776
  0.9011803368459778  0.6246105273307410  0.4025403091426196
  0.7499999997239044  0.6248159804325915  0.3885163870388026
  0.5988196626018311  0.6246105273307481  0.4025403091426196
  0.6507733507426843  0.6284184430660329  0.4883419360593370
  0.5000000000000000  0.6257186766972599  0.4755566174659980
  0.8492266487051245  0.6284184430660329  0.4883419360593370
  0.9074029422442775  0.6476543631292824  0.5696518963630492
  0.7499999997239044  0.6369649644746497  0.5563358480765640
  0.5925970577557225  0.6476543631292824  0.5696518963630492
  0.9056495225775871  0.6250779796458557  0.2321437934505582
  0.7499999997239044  0.6250070554064278  0.1993925282839728
  0.5943504774224129  0.6250779796458557  0.2321437934505582
  0.6547523877655829  0.7498547720176451  0.3156484410005856
  0.5000000000000000  0.7500770228524948  0.3028264942509231
  0.8452476122344171  0.7498547720176451  0.3156484410005856
  0.9011298655495953  0.7508418313359191  0.4017328549907736
  0.7499999997239044  0.7501037712650501  0.3868185429652994
  0.5988701338982135  0.7508418313359191  0.4017328549907736
  0.6507181499949930  0.7471355596021433  0.4835295094945853
  0.5000000000000000  0.7511352018349593  0.4741576654570694
  0.8492818494528158  0.7471355596021433  0.4835295094945853
  0.9044471906928080  0.7702197341654736  0.5668712501889986
  0.7499999997239044  0.7582283797711781  0.5593641152727203
  0.5955528093071920  0.7702197341654736  0.5668712501889986
  0.9056069474266033  0.7499373618646034  0.2321734907340075
  0.7499999997239044  0.7500513589418381  0.1992858819354750
  0.5943930525733967  0.7499373618646034  0.2321734907340075
  0.6547082680068368  0.8751230656013855  0.3157550047969776
  0.5000000000000000  0.8748851799949391  0.3029475127512471
  0.8452917319931632  0.8751230656013855  0.3157550047969776
  0.9011803368459778  0.8746105275448346  0.4025403091426196
  0.7499999997239044  0.8748159806466780  0.3885163870388026
  0.5988196626018311  0.8746105275448346  0.4025403091426196
  0.6507733507426843  0.8784184432801194  0.4883419360593370
  0.5000000000000000  0.8757186769113464  0.4755566174659980
  0.8492266487051245  0.8784184432801194  0.4883419360593370
  0.9074029422442775  0.8976543633433689  0.5696518963630492
  0.7499999997239044  0.8869649646887362  0.5563358480765640
  0.5925970577557225  0.8976543633433689  0.5696518963630492
  0.9056495225775871  0.8750779798599422  0.2321437934505582
  0.7499999997239044  0.8750070556205143  0.1993925282839728
  0.5943504774224129  0.8750779798599422  0.2321437934505582
  0.6547523877655829  0.4998547718035586  0.3156484410005856
  0.5000000000000000  0.5000770226384083  0.3028264942509231
  0.8452476122344171  0.4998547718035586  0.3156484410005856
  0.9011298655495953  0.5008418311218326  0.4017328549907736
  0.7499999997239044  0.5001037710509636  0.3868185429652994
  0.5988701338982135  0.5008418311218326  0.4017328549907736
  0.6507181499949930  0.4971355593880569  0.4835295094945853
  0.5000000000000000  0.5011352016208728  0.4741576654570694
  0.8492818494528158  0.4971355593880569  0.4835295094945853
  0.9044471906928080  0.5202197339513871  0.5668712501889986
  0.7499999997239044  0.5082283795570915  0.5593641152727203
  0.5955528093071920  0.5202197339513871  0.5668712501889986
  0.3386219027114603  0.0831084443062946  0.5460914071460825
  0.1613780680223431  0.0831084443062946  0.5460914071460825
  0.0000000000000000  0.2667347372191116  0.5406340861582931
  0.3386219027114603  0.3331084440922152  0.5460914071460825
  0.1613780680223431  0.3331084440922152  0.5460914071460825
  0.0000000000000000  0.0167347370050251  0.5406340861582931
  0.3386219027114603  0.5831084443062947  0.5460914071460825
  0.1613780680223431  0.5831084443062947  0.5460914071460825
  0.0000000000000000  0.7667347372191118  0.5406340861582931
  0.3386219027114603  0.8331084440922153  0.5460914071460825
  0.1613780680223431  0.8331084440922153  0.5460914071460825
  0.0000000000000000  0.5167347370050253  0.5406340861582931
  0.8386219027114603  0.0831084443062946  0.5460914071460825
  0.6613780680223431  0.0831084443062946  0.5460914071460825
  0.5000000000000000  0.2667347372191116  0.5406340861582931
  0.8386219027114603  0.3331084440922152  0.5460914071460825
  0.6613780680223431  0.3331084440922152  0.5460914071460825
  0.5000000000000000  0.0167347370050251  0.5406340861582931
  0.8386219027114603  0.5831084443062947  0.5460914071460825
  0.6613780680223431  0.5831084443062947  0.5460914071460825
  0.5000000000000000  0.7667347372191118  0.5406340861582931
  0.8386219027114603  0.8331084440922153  0.5460914071460825
  0.6613780680223431  0.8331084440922153  0.5460914071460825
  0.5000000000000000  0.5167347370050253  0.5406340861582931
 
  0.00000000E+00  0.00000000E+00  0.00000000E+00
  0.00000000E+00  0.00000000E+00  0.00000000E+00
  0.00000000E+00  0.00000000E+00  0.00000000E+00
  0.00000000E+00  0.00000000E+00  0.00000000E+00
  0.00000000E+00  0.00000000E+00  0.00000000E+00
  0.00000000E+00  0.00000000E+00  0.00000000E+00
  0.00000000E+00  0.00000000E+00  0.00000000E+00
  0.00000000E+00  0.00000000E+00  0.00000000E+00