Ta  N Cu                                
   1.00000000000000     
     9.0548154099999998    0.0000000000000000    0.0000000000000000
     0.0000000000000000   11.6775998899999998    0.0000000000000000
     0.0000000000000000    0.0000000000000000   23.4818170799999990
   Ta   N    Cu
    60    60     2
Selective dynamics
Direct
  0.0000000000000000  0.0000000000000000  0.2546926809530987   F   F   F
  0.6670845899906297  0.1250000003211298  0.2638822399803757   F   F   F
  0.3329153514769843  0.1250000003211298  0.2638822399803757   F   F   F
  0.4999999994478088  0.2499999997859135  0.3618861993156202   F   F   F
  0.1650707596845180  0.1250000003211298  0.3684425577811794   F   F   F
  0.8349292403154820  0.1250000003211298  0.3684425577811794   F   F   F
  0.0008991390861571  0.2499560942494221  0.4799353222438534   T   T   T
  0.6658210842460628  0.1248987579146363  0.4781898496010094   T   T   T
  0.3349219523951394  0.1249265857601593  0.4782465064607264   T   T   T
  0.5004930990382469  0.2499326869182116  0.5908439466974006   T   T   T
  0.1691762030516208  0.1248251986009147  0.5909180604793408   T   T   T
  0.8329999862883231  0.1247240829997017  0.5902142533009116   T   T   T
 -0.0012087027862279  0.2489426847078235  0.7030585777107056   T   T   T
  0.6725024701945544  0.1208363281776747  0.7020261291180374   T   T   T
  0.3346371097167291  0.1230573525697240  0.7028058451933206   T   T   T
  0.0000000000000000  0.2499999997859135  0.2546926809530987   F   F   F
  0.6670845899906297  0.3750000001070433  0.2638822399803757   F   F   F
  0.3329153514769843  0.3750000001070433  0.2638822399803757   F   F   F
  0.4999999994478088  0.5000000004281731  0.3618861993156202   F   F   F
  0.1650707596845180  0.3750000001070433  0.3684425577811794   F   F   F
  0.8349292403154820  0.3750000001070433  0.3684425577811794   F   F   F
  0.0008858071901816  0.4997370891420931  0.4798225576789323   T   T   T
  0.6658478912468083  0.3748744458793619  0.4782143360869072   T   T   T
  0.3351348728534873  0.3747611540425465  0.4782595830403865   T   T   T
  0.5002242590641950  0.4996536714763128  0.5906996046792303   T   T   T
  0.1693043937351088  0.3746119999514830  0.5908513680608225   T   T   T
  0.8330082671508177  0.3747672825176145  0.5901304082462816   T   T   T
  0.0008912699465850  0.4992497288700816  0.7018723330385992   T   T   T
  0.6721608244554480  0.3785746782100973  0.7022288334384882   T   T   T
  0.3290005021396472  0.3776018972096812  0.7052269165975018   T   T   T
  0.0000000000000000  0.5000000004281731  0.2546926809530987   F   F   F
  0.6670845899906297  0.6249999998929567  0.2638822399803757   F   F   F
  0.3329153514769843  0.6249999998929567  0.2638822399803757   F   F   F
  0.4999999994478088  0.7500000002140865  0.3618861993156202   F   F   F
  0.1650707596845180  0.6249999998929567  0.3684425577811794   F   F   F
  0.8349292403154820  0.6249999998929567  0.3684425577811794   F   F   F
  0.0008242754940112  0.7498281178131430  0.4797508232066602   T   T   T
  0.6653761894339739  0.6248498736708180  0.4780725980282582   T   T   T
  0.3353186851927678  0.6247905903902469  0.4781084097046211   T   T   T
  0.5004826321693161  0.7495737629378254  0.5906712757679915   T   T   T
  0.1687819936638862  0.6245848292885727  0.5901162932443860   T   T   T
  0.8332904807624242  0.6248583278625890  0.5897705583216888   T   T   T
  0.0016334252863768  0.7495885909458851  0.7018560437121747   T   T   T
  0.6722447894992665  0.6255947859386530  0.7037683631068687   T   T   T
  0.3294922202163907  0.6249768301581428  0.7040817724387729   T   T   T
  0.0000000000000000  0.7500000002140865  0.2546926809530987   F   F   F
  0.6670845899906297  0.8750000005352163  0.2638822399803757   F   F   F
  0.3329153514769843  0.8750000005352163  0.2638822399803757   F   F   F
  0.4999999994478088  0.0000000000000000  0.3618861993156202   F   F   F
  0.1650707596845180  0.8750000005352163  0.3684425577811794   F   F   F
  0.8349292403154820  0.8750000005352163  0.3684425577811794   F   F   F
  0.0008719017578808 -0.0001294984310440  0.4798600664877766   T   T   T
  0.6655139914328952  0.8749210236914627  0.4780993971278258   T   T   T
  0.3352484197815646  0.8749504193863451  0.4781854767616684   T   T   T
  0.4998910305951188  0.9994502588710499  0.5908826497057862   T   T   T
  0.1687825299527710  0.8746369295885333  0.5902631474016162   T   T   T
  0.8330085992770575  0.8744954351592558  0.5896679855995237   T   T   T
 -0.0004944551983995  0.0007267840625142  0.7015518053405398   T   T   T
  0.6729861035568734  0.8736968426316664  0.7036130283112029   T   T   T
  0.3311372427093943  0.8723992570490121  0.7046323666011527   T   T   T
  0.8141011533980276  0.0000000000000000  0.3013105672926031   F   F   F
  0.4999999994478088  0.0000000000000000  0.2564174481620327   F   F   F
  0.1858988466019724  0.0000000000000000  0.3013105672926031   F   F   F
  0.3088456122590841  0.2499999997859135  0.4099867722441957   F   F   F
  0.0000000000000000  0.2499999997859135  0.3930971035158137   F   F   F
  0.6911543877409159  0.2499999997859135  0.4099867722441957   F   F   F
  0.8031505138968412  0.2498374820881540  0.5222060696406098   T   T   T
  0.5004643165632284  0.2497211162848424  0.5028875787891800   T   T   T
  0.1984788056640422  0.2498484402346636  0.5226837023089196   T   T   T
  0.3057317602038802  0.2503318151260968  0.6350984007258458   T   T   T
  0.0006804950350892  0.2498111399466754  0.6146346974355178   T   T   T
  0.6965586872612878  0.2499527477858295  0.6339548825819881   T   T   T
  0.8056830178794578  0.2493651596100812  0.7444071889432722   T   T   T
  0.5014383272274174  0.2494829225627943  0.7293517789301521   T   T   T
  0.1947297581810480  0.2514676777491111  0.7440222646403647   T   T   T
  0.8141011533980276  0.2499999997859135  0.3013105672926031   F   F   F
  0.4999999994478088  0.2499999997859135  0.2564174481620327   F   F   F
  0.1858988466019724  0.2499999997859135  0.3013105672926031   F   F   F
  0.3088456122590841  0.5000000004281731  0.4099867722441957   F   F   F
  0.0000000000000000  0.5000000004281731  0.3930971035158137   F   F   F
  0.6911543877409159  0.5000000004281731  0.4099867722441957   F   F   F
  0.8032588738284491  0.4997089534290070  0.5220347209822540   T   T   T
  0.5004499759792597  0.4997499984719971  0.5027395700814876   T   T   T
  0.1984156598564774  0.4993283231690904  0.5224183566112632   T   T   T
  0.3048129931620385  0.4998739305043448  0.6336625524461986   T   T   T
  0.0009332778816587  0.4995551052516885  0.6136681076485095   T   T   T
  0.6966960625757832  0.5009780975447720  0.6326135657667359   T   T   T
  0.8067198297022012  0.4999676761474483  0.7403135461523065   T   T   T
  0.5009415351824792  0.4987653728134293  0.7238697128425049   T   T   T
  0.1947855558586110  0.4998985265495977  0.7411497381098681   T   T   T
  0.8141011533980276  0.5000000004281731  0.3013105672926031   F   F   F
  0.4999999994478088  0.5000000004281731  0.2564174481620327   F   F   F
  0.1858988466019724  0.5000000004281731  0.3013105672926031   F   F   F
  0.3088456122590841  0.7500000002140865  0.4099867722441957   F   F   F
  0.0000000000000000  0.7500000002140865  0.3930971035158137   F   F   F
  0.6911543877409159  0.7500000002140865  0.4099867722441957   F   F   F
  0.8030342929904206  0.7497752071094824  0.5219400782798221   T   T   T
  0.5004058955463705  0.7498268708395204  0.5027323200215508   T   T   T
  0.1984441022374236  0.7498772314207282  0.5222292795686329   T   T   T
  0.3047973504926171  0.7495980396484124  0.6333976230358342   T   T   T
  0.0009779977340694  0.7496247971384418  0.6134876287776025   T   T   T
  0.6967708428259884  0.7495587631695104  0.6328865806648949   T   T   T
  0.8077615227912558  0.7495015196840136  0.7403533372874114   T   T   T
  0.5008591555426634  0.7502873101629105  0.7238240965233708   T   T   T
  0.1952006733846472  0.7494641518000232  0.7409605226805288   T   T   T
  0.8141011533980276  0.7500000002140865  0.3013105672926031   F   F   F
  0.4999999994478088  0.7500000002140865  0.2564174481620327   F   F   F
  0.1858988466019724  0.7500000002140865  0.3013105672926031   F   F   F
  0.3088456122590841  0.0000000000000000  0.4099867722441957   F   F   F
  0.0000000000000000  0.0000000000000000  0.3930971035158137   F   F   F
  0.6911543877409159  0.0000000000000000  0.4099867722441957   F   F   F
  0.8032019821685799 -0.0001235893833563  0.5219932868499768   T   T   T
  0.5003335105283871  0.0000401396979531  0.5029061249124117   T   T   T
  0.1983991692646311  0.0000406175188041  0.5224846475620976   T   T   T
  0.3039548215656356  0.9986053548907402  0.6342735149604132   T   T   T
  0.0006609530409905  0.9997187968892470  0.6135471069536816   T   T   T
  0.6968683202129689  0.9981690856385684  0.6325550702215653   T   T   T
  0.8068675777332421  0.9995188354315223  0.7403431115603427   T   T   T
  0.5024128377451909  0.0002410466780612  0.7241379008251512   T   T   T
  0.1961393591438840  0.9971345980284610  0.7435763663746204   T   T   T
  0.1388048376129593  0.1236438734148218  0.7911275302217071   T   T   T
  0.6361561997746312  0.2489197811962996  0.7973404752941969   T   T   T
 
  0.00000000E+00  0.00000000E+00  0.00000000E+00
  0.00000000E+00  0.00000000E+00  0.00000000E+00
  0.00000000E+00  0.00000000E+00  0.00000000E+00
  0.00000000E+00  0.00000000E+00  0.00000000E+00
  0.00000000E+00  0.00000000E+00  0.00000000E+00
  0.00000000E+00  0.00000000E+00  0.00000000E+00
  0.00000000E+00  0.00000000E+00  0.00000000E+00
  0.00000000E+00  0.00000000E+00  0.00000000E+00
  0.00000000E+00  0.00000000E+00  0.00000000E+00
  0.00000000E+00  0.00000000E+00  0.00000000E+00
  0.00000000E+00  0.00000000E+00  0.00000000E+00
  0.00000000E+00  0.00000000E+00  0.00000000E+00
  0.00000000E+00  0.00000000E+00  0.00000000E+00
  0.00000000E+00  0.00000000E+00  0.00000000E+00
  0.00000000E+00  0.00000000E+00  0.00000000E+00
  0.00000000E+00  0.00000000E+00  0.00000000E+00
  0.00000000E+00  0.00000000E+00  0.00000000E+00
  0.00000000E+00  0.00000000E+00  0.00000000E+00
  0.00000000E+00  0.00000000E+00  0.00000000E+00
  0.00000000E+00  0.00000000E+00  0.00000000E+00
  0.00000000E+00  0.00000000E+00  0.00000000E+00
  0.00000000E+00  0.00000000E+00  0.00000000E+00
  0.00000000E+00  0.00000000E+00  0.00000000E+00
  0.00000000E+00  0.00000000E+00  0.00000000E+00
  0.00000000E+00  0.00000000E+00  0.00000000E+00
  0.00000000E+00  0.00000000E+00  0.00000000E+00
  0.00000000E+00  0.00000000E+00  0.00000000E+00
  0.00000000E+00  0.00000000E+00  0.00000000E+00
  0.00000000E+00  0.00000000E+00  0.00000000E+00
  0.00000000E+00  0.00000000E+00  0.00000000E+00
  0.00000000E+00  0.00000000E+00  0.00000000E+00
  0.00000000E+00  0.00000000E+00  0.00000000E+00
  0.00000000E+00  0.00000000E+00  0.00000000E+00
  0.00000000E+00  0.00000000E+00  0.00000000E+00
  0.00000000E+00  0.00000000E+00  0.00000000E+00
  0.00000000E+00  0.00000000E+00  0.00000000E+00
  0.00000000E+00  0.00000000E+00  0.00000000E+00
  0.00000000E+00  0.00000000E+00  0.00000000E+00
  0.00000000E+00  0.00000000E+00  0.00000000E+00
  0.00000000E+00  0.00000000E+00  0.00000000E+00
  0.00000000E+00  0.00000000E+00  0.00000000E+00
  0.00000000E+00  0.00000000E+00  0.00000000E+00
  0.00000000E+00  0.00000000E+00  0.00000000E+00
  0.00000000E+00  0.00000000E+00  0.00000000E+00
  0.00000000E+00  0.00000000E+00  0.00000000E+00
  0.00000000E+00  0.00000000E+00  0.00000000E+00
  0.00000000E+00  0.00000000E+00  0.00000000E+00
  0.00000000E+00  0.00000000E+00  0.00000000E+00
  0.00000000E+00  0.00000000E+00  0.00000000E+00
  0.00000000E+00  0.00000000E+00  0.00000000E+00
  0.00000000E+00  0.00000000E+00  0.00000000E+00
  0.00000000E+00  0.00000000E+00  0.00000000E+00
  0.00000000E+00  0.00000000E+00  0.00000000E+00
  0.00000000E+00  0.00000000E+00  0.00000000E+00
  0.00000000E+00  0.00000000E+00  0.00000000E+00
  0.00000000E+00  0.00000000E+00  0.00000000E+00
  0.00000000E+00  0.00000000E+00  0.00000000E+00
  0.00000000E+00  0.00000000E+00  0.00000000E+00
  0.00000000E+00  0.00000000E+00  0.00000000E+00
  0.00000000E+00  0.00000000E+00  0.00000000E+00
  0.00000000E+00  0.00000000E+00  0.00000000E+00
  0.00000000E+00  0.00000000E+00  0.00000000E+00
  0.00000000E+00  0.00000000E+00  0.00000000E+00
  0.00000000E+00  0.00000000E+00  0.00000000E+00
  0.00000000E+00  0.00000000E+00  0.00000000E+00
  0.00000000E+00  0.00000000E+00  0.00000000E+00
  0.00000000E+00  0.00000000E+00  0.00000000E+00
  0.00000000E+00  0.00000000E+00  0.00000000E+00
  0.00000000E+00  0.00000000E+00  0.00000000E+00
  0.00000000E+00  0.00000000E+00  0.00000000E+00
  0.00000000E+00  0.00000000E+00  0.00000000E+00
  0.00000000E+00  0.00000000E+00  0.00000000E+00
  0.00000000E+00  0.00000000E+00  0.00000000E+00
  0.00000000E+00  0.00000000E+00  0.00000000E+00
  0.00000000E+00  0.00000000E+00  0.00000000E+00
  0.00000000E+00  0.00000000E+00  0.00000000E+00
  0.00000000E+00  0.00000000E+00  0.00000000E+00
  0.00000000E+00  0.00000000E+00  0.00000000E+00
  0.00000000E+00  0.00000000E+00  0.00000000E+00
  0.00000000E+00  0.00000000E+00  0.00000000E+00
  0.00000000E+00  0.00000000E+00  0.00000000E+00
  0.00000000E+00  0.00000000E+00  0.00000000E+00
  0.00000000E+00  0.00000000E+00  0.00000000E+00
  0.00000000E+00  0.00000000E+00  0.00000000E+00
  0.00000000E+00  0.00000000E+00  0.00000000E+00
  0.00000000E+00  0.00000000E+00  0.00000000E+00
  0.00000000E+00  0.00000000E+00  0.00000000E+00
  0.00000000E+00  0.00000000E+00  0.00000000E+00
  0.00000000E+00  0.00000000E+00  0.00000000E+00
  0.00000000E+00  0.00000000E+00  0.00000000E+00
  0.00000000E+00  0.00000000E+00  0.00000000E+00
  0.00000000E+00  0.00000000E+00  0.00000000E+00
  0.00000000E+00  0.00000000E+00  0.00000000E+00
  0.00000000E+00  0.00000000E+00  0.00000000E+00
  0.00000000E+00  0.00000000E+00  0.00000000E+00
  0.00000000E+00  0.00000000E+00  0.00000000E+00
  0.00000000E+00  0.00000000E+00  0.00000000E+00
  0.00000000E+00  0.00000000E+00  0.00000000E+00
  0.00000000E+00  0.00000000E+00  0.00000000E+00
  0.00000000E+00  0.00000000E+00  0.00000000E+00
  0.00000000E+00  0.00000000E+00  0.00000000E+00
  0.00000000E+00  0.00000000E+00  0.00000000E+00
  0.00000000E+00  0.00000000E+00  0.00000000E+00
  0.00000000E+00  0.00000000E+00  0.00000000E+00
  0.00000000E+00  0.00000000E+00  0.00000000E+00
  0.00000000E+00  0.00000000E+00  0.00000000E+00
  0.00000000E+00  0.00000000E+00  0.00000000E+00
  0.00000000E+00  0.00000000E+00  0.00000000E+00
  0.00000000E+00  0.00000000E+00  0.00000000E+00
  0.00000000E+00  0.00000000E+00  0.00000000E+00
  0.00000000E+00  0.00000000E+00  0.00000000E+00
  0.00000000E+00  0.00000000E+00  0.00000000E+00
  0.00000000E+00  0.00000000E+00  0.00000000E+00
  0.00000000E+00  0.00000000E+00  0.00000000E+00
  0.00000000E+00  0.00000000E+00  0.00000000E+00
  0.00000000E+00  0.00000000E+00  0.00000000E+00
  0.00000000E+00  0.00000000E+00  0.00000000E+00
  0.00000000E+00  0.00000000E+00  0.00000000E+00
  0.00000000E+00  0.00000000E+00  0.00000000E+00
  0.00000000E+00  0.00000000E+00  0.00000000E+00
  0.00000000E+00  0.00000000E+00  0.00000000E+00
  0.00000000E+00  0.00000000E+00  0.00000000E+00
