Cu	N	Ru	Ta                              
   1.00000000000000     
    18.1096308199999996    0.0000000000000000    0.0000000000000000
     0.0000000000000000   23.3551997799999995    0.0000000000000000
     0.0000000000000000    0.0000000000000000   30.4818171199999988
   Cu   N    Ru   Ta
     4   240    24   216
Selective dynamics
Direct
  0.5584879819329139  0.4596884460610480  0.6120982831453776   T   T   T
  0.4390179086016572  0.4100963398296295  0.6272313945931642   T   T   T
  0.4446249526799874  0.5141305265431788  0.6216445956753646   T   T   T
  0.4978780416442815  0.4657609524676699  0.6826997790125511   T   T   T
  0.0000000000000000  0.0000770226766207  0.3028264943543491   F   F   F
  0.0000000000000000  0.5000770226766207  0.3028264943543491   F   F   F
  0.0000000000000000  0.6248851796377153  0.3029475127301708   F   F   F
  0.0000000000000000  0.7500770228907001  0.3028264943543491   F   F   F
  0.0000000000000000  0.8748851798518018  0.3029475127301708   F   F   F
  0.0000000000000000  0.1248851796377153  0.3029475127301708   F   F   F
  0.0000000000000000  0.2500770228907001  0.3028264943543491   F   F   F
  0.0000000000000000  0.3748851798518018  0.3029475127301708   F   F   F
 -0.0000650960920933  0.7514288688488457  0.4739753392236803   T   T   T
 -0.0001329205855339  0.5013619896659532  0.4747860824437038   T   T   T
  0.0005120407539237  0.2508090507650145  0.4737644077449888   T   T   T
  0.0007164055273401  0.8758024148964908  0.4754638843232703   T   T   T
  0.0005024862396551  0.3751737069779543  0.4758705395465450   T   T   T
  0.5905187014457375  0.8968878570671045  0.5695700979568796   T   T   T
  0.5893109249314086  0.3969138838240535  0.5715276821699219   T   T   T
  0.5908038536540969  0.6460164994776409  0.5710794432080757   T   T   T
  0.5931705745924555  0.7690770879452025  0.5643422554479339   T   T   T
  0.5943504772119894  0.6250779795299195  0.2321437935324795   F   F   F
  0.5943504772119894  0.8750779797440060  0.2321437935324795   F   F   F
  0.5943504772119894  0.1250779795299195  0.2321437935324795   F   F   F
  0.5943504772119894  0.3750779797440060  0.2321437935324795   F   F   F
  0.5943930523482663  0.9999373617004466  0.2321734905809336   F   F   F
  0.5943930523482663  0.4999373617004466  0.2321734905809336   F   F   F
  0.5943930523482663  0.7499373619145331  0.2321734905809336   F   F   F
  0.5943930523482663  0.2499373619145331  0.2321734905809336   F   F   F
  0.5955400742997655  0.2658632681932922  0.5666479604618904   T   T   T
  0.5964668052169374  0.1426130029798887  0.5697126047940555   T   T   T
  0.5975687434235206  0.0187617517860423  0.5672548703219578   T   T   T
  0.5987226751696145  0.6243425005171274  0.4024892060244753   T   T   T
  0.5988463853246857  0.8743497486273718  0.4026864220625463   T   T   T
  0.5988291449647440  0.7507711482842936  0.4016935383805905   T   T   T
  0.5988116821643511  0.1246019839885781  0.4024520704190616   T   T   T
  0.5988677298552271  0.5007425707698918  0.4015236722931838   T   T   T
  0.5989515025138366  0.0006134092318997  0.4017039633020506   T   T   T
  0.5988320648222444  0.3744942128518068  0.4024469642789582   T   T   T
  0.5990075737079494  0.2506146076517336  0.4019542671905560   T   T   T
  0.5996932433399400  0.5152706452813249  0.5685915979655417   T   T   T
  0.6498923173598676  0.6280835803833402  0.4886724188884490   T   T   T
  0.6498059425100148  0.3786778335554942  0.4879326416923735   T   T   T
  0.6503432888207887  0.7469336423261594  0.4834758165038371   T   T   T
  0.6508287243280824  0.8778711715630189  0.4887452952339315   T   T   T
  0.6507612912344509  0.4970392009645513  0.4834047292131181   T   T   T
  0.6511141375845153  0.9969524008847913  0.4836637739923400   T   T   T
  0.6511668187947537  0.2466821779424978  0.4841923393045640   T   T   T
  0.6518753493072728  0.1279105613921497  0.4879882115064528   T   T   T
  0.6547082680948861  0.6251230654212776  0.3157550047659328   F   F   F
  0.6547082680948861  0.8751230656353641  0.3157550047659328   F   F   F
  0.6547082680948861  0.1251230654212776  0.3157550047659328   F   F   F
  0.6547082680948861  0.3751230656353641  0.3157550047659328   F   F   F
  0.6547523877132235  0.9998547719551993  0.3156484409089586   F   F   F
  0.6547523877132235  0.4998547719551993  0.3156484409089586   F   F   F
  0.6547523877132235  0.7498547721692859  0.3156484409089586   F   F   F
  0.6547523877132235  0.2498547721692859  0.3156484409089586   F   F   F
  0.7478180618762885  0.7530024420459599  0.5603838143194798   T   T   T
  0.7493880992622912  0.0052659703619545  0.5609583019648711   T   T   T
  0.7485174251334389  0.3826989975215801  0.5537320161487977   T   T   T
  0.7497992396368593  0.6297725216711476  0.5541719766180543   T   T   T
  0.7499049655647093  0.7501027401193645  0.3868700106278474   T   T   T
  0.7499999997239044  0.0000513585844359  0.1992858820091215   F   F   F
  0.7499999997239044  0.5000513585844431  0.1992858820091215   F   F   F
  0.7499999997239044  0.6250070552811167  0.1993925282102751   F   F   F
  0.7499999997239044  0.7500513587985225  0.1992858820091215   F   F   F
  0.7499999997239044  0.8750070554952032  0.1993925282102751   F   F   F
  0.7499999997239044  0.1250070552811167  0.1993925282102751   F   F   F
  0.7499999997239044  0.2500513587985225  0.1992858820091215   F   F   F
  0.7499999997239044  0.3750070554952032  0.1993925282102751   F   F   F
  0.7499482221905217  0.8748244550575555  0.3885777861583814   T   T   T
  0.7499303095968316  0.6247680347129243  0.3885602620014181   T   T   T
  0.7499732297336098  0.5047523670669309  0.5569816688253267   T   T   T
  0.7500000973883038 -0.0000353765392052  0.3866637081629268   T   T   T
  0.7499946519478602  0.1248430696633924  0.3879352862344256   T   T   T
  0.7501645538736271  0.1333114848128603  0.5590539719290911   T   T   T
  0.7500467803741322  0.5000465720906905  0.3868407846223166   T   T   T
  0.7500042795934575  0.2501607579767714  0.3869353351518220   T   T   T
  0.7500656048169074  0.3747310034947463  0.3887406527668870   T   T   T
  0.7512953228353945  0.2546451066365899  0.5592578474441546   T   T   T
  0.7525941474004145  0.8844418351249865  0.5539171633133554   T   T   T
  0.8452476122867765  0.9998547719551993  0.3156484409089586   F   F   F
  0.8452476122867765  0.4998547719551993  0.3156484409089586   F   F   F
  0.8452476122867765  0.7498547721692859  0.3156484409089586   F   F   F
  0.8452476122867765  0.2498547721692859  0.3156484409089586   F   F   F
  0.8452917319051139  0.6251230654212776  0.3157550047659328   F   F   F
  0.8452917319051139  0.8751230656353641  0.3157550047659328   F   F   F
  0.8452917319051139  0.1251230654212776  0.3157550047659328   F   F   F
  0.8452917319051139  0.3751230656353641  0.3157550047659328   F   F   F
  0.8482303540304933  0.7473157998381503  0.4841238639666338   T   T   T
  0.8487252148112779  0.1279073860149275  0.4880233919122774   T   T   T
  0.8491247207707607  0.9973670423333264  0.4835701574020933   T   T   T
  0.8489970949528612  0.6289411538761602  0.4879077249280120   T   T   T
  0.8492321799439633  0.4967002468918371  0.4835614536698378   T   T   T
  0.8497127563767352  0.8796009067669062  0.4875634659700255   T   T   T
  0.8495078710716745  0.2468219270993184  0.4832999463887717   T   T   T
  0.8497791298765621  0.3776850634483021  0.4886863444564834   T   T   T
  0.0896055993964865  0.1487118804940511  0.5695696332451776   T   T   T
  0.9008347663293644  0.7509660751729077  0.4018662643731922   T   T   T
  0.9010762498339018  0.6247408725666214  0.4025398554776715   T   T   T
  0.9012102445190514  0.0008411754377620  0.4015557181965805   T   T   T
  0.9013131392098482  0.8746687839176697  0.4025257667214839   T   T   T
  0.9012320019665470  0.1246191588264193  0.4022338715588803   T   T   T
  0.9011660680172805  0.5007496777349676  0.4018108533698719   T   T   T
  0.9012349162067572  0.2507022475417022  0.4016816132466250   T   T   T
  0.9012605506695572  0.3744670055504368  0.4027408127597069   T   T   T
  0.9020073460729495  0.5163135770228094  0.5681130623957812   T   T   T
  0.9026432051239193  0.0199193976771811  0.5675434378510272   T   T   T
  0.0899692460773698  0.6486825481926441  0.5699463586591829   T   T   T
  0.9038101959377414  0.1429063641551743  0.5700806017060739   T   T   T
  0.9052759934054129  0.7683328673022539  0.5654128428322612   T   T   T
  0.9052981684083972  0.6469334916308065  0.5709487787854461   T   T   T
  0.9056069476517337  0.9999373617004466  0.2321734905809336   F   F   F
  0.9056069476517337  0.4999373617004466  0.2321734905809336   F   F   F
  0.9056069476517337  0.7499373619145331  0.2321734905809336   F   F   F
  0.9056069476517337  0.2499373619145331  0.2321734905809336   F   F   F
  0.9056495227880106  0.6250779795299195  0.2321437935324795   F   F   F
  0.9056495227880106  0.8750779797440060  0.2321437935324795   F   F   F
  0.9056495227880106  0.1250779795299195  0.2321437935324795   F   F   F
  0.9056495227880106  0.3750779797440060  0.2321437935324795   F   F   F
  0.9066065956399953  0.2673676854273339  0.5647236945374589   T   T   T
  0.9088139927017862  0.3954508691331627  0.5703077586950004   T   T   T
  0.9114969331786236  0.8991142834553747  0.5688339813659857   T   T   T
  0.0943504772119894  0.6250779795299195  0.2321437935324795   F   F   F
  0.0943504772119894  0.8750779797440060  0.2321437935324795   F   F   F
  0.0943504772119894  0.1250779795299195  0.2321437935324795   F   F   F
  0.0943504772119894  0.3750779797440060  0.2321437935324795   F   F   F
  0.0943930523482663  0.9999373617004466  0.2321734905809336   F   F   F
  0.0943930523482663  0.4999373617004466  0.2321734905809336   F   F   F
  0.0943930523482663  0.7499373619145331  0.2321734905809336   F   F   F
  0.0943930523482663  0.2499373619145331  0.2321734905809336   F   F   F
  0.0946507320803142  0.0179780733619800  0.5654692904267444   T   T   T
  0.0947886500366555  0.5165688165871029  0.5668367711116306   T   T   T
  0.0949800181501068  0.3927445150946533  0.5700019552045608   T   T   T
  0.0973068521778599  0.7700711860126687  0.5674940089386991   T   T   T
  0.0976246188832965  0.8939405556233101  0.5702319119835870   T   T   T
  0.0980599365965160  0.2699869977322537  0.5676861065340794   T   T   T
  0.0985642651683918  0.6247021370633234  0.4024476156995696   T   T   T
  0.0987604001519903  0.7509507344185475  0.4015656548468485   T   T   T
  0.0989496010090285  0.8748014799525904  0.4023117862532037   T   T   T
  0.0990010620671846  0.1245233977037788  0.4027253959967688   T   T   T
  0.0988525717149913  0.3746968051171845  0.4024476815313389   T   T   T
  0.0988338892721942  0.5008173493631435  0.4019405771297265   T   T   T
  0.0991340423630561  0.0008081125399924  0.4018243893402659   T   T   T
  0.0990850615950869  0.2507575574512901  0.4017216986946495   T   T   T
  0.9994019522344860  0.6260369450535059  0.4752405746388053   T   T   T
  0.9997635671425387  0.1254216867449910  0.4755655108484748   T   T   T
  0.0000396002679520  0.0011951053775465  0.4740218854956999   T   T   T
  0.1500595304293132  0.6296117515368417  0.4875118348350010   T   T   T
  0.1507862855149434  0.1286485321400156  0.4884769642653184   T   T   T
  0.1508543892916771  0.7474428100872053  0.4836314164156548   T   T   T
  0.1511319928661743  0.9968441268243866  0.4837129393896898   T   T   T
  0.1508330768431415  0.4972695436867082  0.4840729540004041   T   T   T
  0.1511874809692078  0.2473251902104665  0.4838885865696075   T   T   T
  0.1516990823252247  0.8780029693509491  0.4881065033822680   T   T   T
  0.1515306687750456  0.3781087034257047  0.4880450182547463   T   T   T
  0.1547082680948861  0.6251230654212776  0.3157550047659328   F   F   F
  0.1547082680948861  0.8751230656353641  0.3157550047659328   F   F   F
  0.1547082680948861  0.1251230654212776  0.3157550047659328   F   F   F
  0.1547082680948861  0.3751230656353641  0.3157550047659328   F   F   F
  0.1547523877132235  0.9998547719551993  0.3156484409089586   F   F   F
  0.1547523877132235  0.4998547719551993  0.3156484409089586   F   F   F
  0.1547523877132235  0.7498547721692859  0.3156484409089586   F   F   F
  0.1547523877132235  0.2498547721692859  0.3156484409089586   F   F   F
  0.2454411917190096  0.6326396594417336  0.5542887831022517   T   T   T
  0.2496374031189030  0.1334489126771002  0.5542015152535946   T   T   T
  0.2493524669160646  0.3819542942764221  0.5592043234893789   T   T   T
  0.2498421573215169  0.6248834934696308  0.3884291831446893   T   T   T
  0.2499999997239044  0.0000513585844359  0.1992858820091215   F   F   F
  0.2499999997239044  0.5000513585844431  0.1992858820091215   F   F   F
  0.2499999997239044  0.6250070552811167  0.1993925282102751   F   F   F
  0.2499999997239044  0.7500513587985225  0.1992858820091215   F   F   F
  0.2499999997239044  0.8750070554952032  0.1993925282102751   F   F   F
  0.2499999997239044  0.1250070552811167  0.1993925282102751   F   F   F
  0.2499999997239044  0.2500513587985225  0.1992858820091215   F   F   F
  0.2499999997239044  0.3750070554952032  0.1993925282102751   F   F   F
  0.2499056698361222  0.7500315625753224  0.3866328197538125   T   T   T
  0.2500087895219381  0.7546479591743128  0.5616018971658294   T   T   T
  0.2499001175113267  0.5001632384071472  0.3870006327543126   T   T   T
  0.2500371967430838  0.8748488677740943  0.3879015950852582   T   T   T
  0.2501357992232373  0.0002927296862024  0.3868980025421758   T   T   T
  0.2505964759245041  0.8847775402509295  0.5591009423141974   T   T   T
  0.2500394915537311  0.3749053823982386  0.3880256569768224   T   T   T
  0.2501033822377360  0.2499124281095240  0.3869196363915298   T   T   T
  0.2501829831794834  0.1248678509201928  0.3887931521567494   T   T   T
  0.2501148659887849  0.5031173425368596  0.5593357426820762   T   T   T
  0.2513604606179936  0.0068569955133648  0.5579989084553671   T   T   T
  0.2516434169084721  0.2532690422506770  0.5623125124877151   T   T   T
  0.3452476122867765  0.9998547719551993  0.3156484409089586   F   F   F
  0.3452476122867765  0.4998547719551993  0.3156484409089586   F   F   F
  0.3452476122867765  0.7498547721692859  0.3156484409089586   F   F   F
  0.3452476122867765  0.2498547721692859  0.3156484409089586   F   F   F
  0.3452917319051139  0.6251230654212776  0.3157550047659328   F   F   F
  0.3452917319051139  0.8751230656353641  0.3157550047659328   F   F   F
  0.3452917319051139  0.1251230654212776  0.3157550047659328   F   F   F
  0.3452917319051139  0.3751230656353641  0.3157550047659328   F   F   F
  0.3483980092509553  0.8778842488552908  0.4879615648452340   T   T   T
  0.3485149428485158  0.6281789190772477  0.4886163685344416   T   T   T
  0.3486551592267541  0.7474632718066336  0.4836617671537590   T   T   T
  0.3488623471021371  0.4967773370015350  0.4840517315606608   T   T   T
  0.3490838089929069  0.2472992252316075  0.4843385359135139   T   T   T
  0.3489887681683337  0.3777023609280592  0.4881359063876685   T   T   T
  0.3496032033405431  0.1278500021923577  0.4886524675975899   T   T   T
  0.3497449224178270  0.9964581389834258  0.4832584545431941   T   T   T
  0.3982238576616792  0.5167516129013604  0.5671911420101039   T   T   T
  0.3993556890934951  0.3882371932530063  0.5729364972087244   T   T   T
  0.4007593211413014  0.6244248919758913  0.4025306383620073   T   T   T
  0.4008981444823019  0.7506859486952551  0.4015459844987547   T   T   T
  0.4008566935765639  0.5007155923904494  0.4017767033818639   T   T   T
  0.4012194858272856  0.8744669262954389  0.4022815500103210   T   T   T
  0.4012649876602107  0.0006750218562363  0.4017253675854032   T   T   T
  0.4011393820456631  0.3746421468247209  0.4022724463652170   T   T   T
  0.4012438280941926  0.2505752809588098  0.4019326726538090   T   T   T
  0.4013482969905589  0.1245674369269720  0.4028780916320538   T   T   T
  0.4017500436036327  0.2663693194579491  0.5670626431155973   T   T   T
  0.4025057003738777  0.7691660630523591  0.5668914984124908   T   T   T
  0.4046200024501215  0.8924889792890572  0.5694420817040761   T   T   T
  0.4046377318948643  0.6453219493883400  0.5714498284532732   T   T   T
  0.4056069476517337  0.9999373617004466  0.2321734905809336   F   F   F
  0.4056069476517337  0.4999373617004466  0.2321734905809336   F   F   F
  0.4056069476517337  0.7499373619145331  0.2321734905809336   F   F   F
  0.4056069476517337  0.2499373619145331  0.2321734905809336   F   F   F
  0.4056495227880106  0.6250779795299195  0.2321437935324795   F   F   F
  0.4056495227880106  0.8750779797440060  0.2321437935324795   F   F   F
  0.4056495227880106  0.1250779795299195  0.2321437935324795   F   F   F
  0.4056495227880106  0.3750779797440060  0.2321437935324795   F   F   F
  0.4063205541803268  0.0165527415630952  0.5657723301731128   T   T   T
  0.4101442850382596  0.1453005028652812  0.5698388010958774   T   T   T
  0.4993493283257933  0.6254642415287824  0.4750565454308811   T   T   T
  0.4995040973316365  0.7505263717240125  0.4731141444099451   T   T   T
  0.4996630709679200  0.8748530674873908  0.4758563085822253   T   T   T
  0.4995588900982853  0.3754860171527069  0.4747644011335664   T   T   T
  0.5000000000000000  0.0000770226766207  0.3028264943543491   F   F   F
  0.5000000000000000  0.5000770226766207  0.3028264943543491   F   F   F
  0.5000000000000000  0.6248851796377153  0.3029475127301708   F   F   F
  0.5000000000000000  0.7500770228907001  0.3028264943543491   F   F   F
  0.5000000000000000  0.8748851798518018  0.3029475127301708   F   F   F
  0.5000000000000000  0.1248851796377153  0.3029475127301708   F   F   F
  0.5000000000000000  0.2500770228907001  0.3028264943543491   F   F   F
  0.5000000000000000  0.3748851798518018  0.3029475127301708   F   F   F
  0.4998681934960653  0.5016018005674368  0.4740185487753373   T   T   T
  0.5000147652256162  0.2512323842586152  0.4748537517078464   T   T   T
  0.5004879589950006  0.0005544333103371  0.4737907708216188   T   T   T
  0.5007088613318348  0.1250001831217235  0.4759759781044807   T   T   T
  0.0028502488387668  0.7664390518996682  0.5404101051750745   T   T   T
  0.0042126395784472  0.2646282659955524  0.5401246507129304   T   T   T
  0.6530873623883389  0.3297035264616838  0.5458348604851639   T   T   T
  0.6608868168453081  0.8334794790669755  0.5475339221771622   T   T   T
  0.6597306173940211  0.5831394599582144  0.5473845344108547   T   T   T
  0.6662275544603868  0.0783431656406412  0.5437224975494863   T   T   T
  0.8343123175258709  0.0793006421396260  0.5439456199833765   T   T   T
  0.8392621925894819  0.3318153043280051  0.5469324136597816   T   T   T
  0.8410072165517752  0.5807329343508806  0.5450700848333031   T   T   T
  0.8465246028998941  0.8325705513252091  0.5446413023829617   T   T   T
  0.9969163625987106  0.0157622769724514  0.5404670799869469   T   T   T
  0.9969430275892516  0.5176689197834385  0.5413841677562919   T   T   T
  0.1523548279641761  0.5816750535447611  0.5444681257685419   T   T   T
  0.1569145869663148  0.0832014286896264  0.5467259422379424   T   T   T
  0.1653001873175374  0.3291469683260452  0.5437488727967248   T   T   T
  0.1663920239006641  0.8294934082604686  0.5442409539494850   T   T   T
  0.3314201677227284  0.3242596978241693  0.5423139208919927   T   T   T
  0.3335431379128745  0.8294631553045259  0.5439927375248879   T   T   T
  0.3343669022138057  0.5839064385152503  0.5464693307592449   T   T   T
  0.3406346724725925  0.0806803147887674  0.5468227665555591   T   T   T
  0.4965594844294653  0.7633415021505887  0.5392125741361323   T   T   T
  0.4973643186097781  0.2683773633834651  0.5414660854503043   T   T   T
  0.5013292182716741  0.5176796733277176  0.5403925462834501   T   T   T
  0.5033895225128840  0.0140139883477059  0.5401172331190424   T   T   T
  0.0000000000000000  0.9999830748611132  0.1973415402473861   F   F   F
  0.0000000000000000  0.4999830748611132  0.1973415402473861   F   F   F
  0.0000000000000000  0.6250597900044994  0.1972695212469660   F   F   F
  0.0000000000000000  0.7499830750751997  0.1973415402473861   F   F   F
  0.0000000000000000  0.8750597902185859  0.1972695212469660   F   F   F
  0.0000000000000000  0.1250597900044994  0.1972695212469660   F   F   F
  0.0000000000000000  0.2499830750751997  0.1973415402473861   F   F   F
  0.0000000000000000  0.3750597902185859  0.1972695212469660   F   F   F
  0.9998268987111398  0.6248635536408010  0.3695629977876055   T   T   T
 -0.0000236212633721  0.3747266632511855  0.3696110538253968   T   T   T
  0.0000107777223655  0.5003828104229313  0.3694423794525258   T   T   T
  0.0002380332496597  0.0004028816917804  0.3693514122915303   T   T   T
  0.0001018400860185  0.2503301568427992  0.3693562914005599   T   T   T
  0.0002552951072148  0.1247068413692383  0.3695847863975799   T   T   T
  0.0009898736238798  0.3694355838180361  0.5445020702052554   T   T   T
  0.0035146020460271  0.8713950874111771  0.5439444264575742   T   T   T
  0.5824959423441172  0.4374754614066489  0.2839355729984092   F   F   F
  0.5824959423441172  0.6874754611925624  0.2839355729984092   F   F   F
  0.5824959423441172  0.9374754614066489  0.2839355729984092   F   F   F
  0.5824959423441172  0.1874754611925624  0.2839355729984092   F   F   F
  0.5827651808530874  0.5624885324787385  0.2838652796168972   F   F   F
  0.5827651808530874  0.0624885324787385  0.2838652796168972   F   F   F
  0.5827651808530874  0.8124885322646520  0.2838652796168972   F   F   F
  0.5827651808530874  0.3124885322646520  0.2838652796168972   F   F   F
  0.5826081698005298  0.4379462028475425  0.4525615927228563   T   T   T
  0.5831350305197572  0.9372271278509009  0.4529461816397371   T   T   T
  0.5830041587653684  0.6872677418216585  0.4526267066232402   T   T   T
  0.5835397792347594  0.1875558804847814  0.4531617778313070   T   T   T
  0.5848278671591793  0.5625977177330997  0.4555830786530947   T   T   T
  0.5854491486548704  0.8127406491674704  0.4557037016551009   T   T   T
  0.5854170994465333  0.3126350262249890  0.4556930536384344   T   T   T
  0.5855596465077428  0.0626542863345220  0.4549912755238449   T   T   T
  0.6642803190993209  0.7020195822240770  0.5418342204433787   T   T   T
  0.6659163253997278  0.5625456426731574  0.2025671506292426   F   F   F
  0.6659163253997278  0.0625456426731503  0.2025671506292426   F   F   F
  0.6659163253997278  0.8125456424590709  0.2025671506292426   F   F   F
  0.6659163253997278  0.3125456424590709  0.2025671506292426   F   F   F
  0.6659898017733283  0.4375125970341855  0.2025194438276969   F   F   F
  0.6659898017733283  0.6875125968200990  0.2025194438276969   F   F   F
  0.6659898017733283  0.9375125970341855  0.2025194438276969   F   F   F
  0.6659898017733283  0.1875125968200990  0.2025194438276969   F   F   F
  0.6671357204676797  0.9507362408734272  0.5416882179262871   T   T   T
  0.6676620345292632  0.8125656389674162  0.3681263849968724   T   T   T
  0.6677159635729575  0.6873088752992881  0.3683755721087467   T   T   T
  0.6677505367594075  0.9372361973769813  0.3682760739652822   T   T   T
  0.6677903391270239  0.5626302972419409  0.3680572327733273   T   T   T
  0.6678262772925345  0.0625626118436669  0.3679708512980278   T   T   T
  0.6678218503912126  0.1874177449236819  0.3682327594613971   T   T   T
  0.6678707157272912  0.3126709743000238  0.3682076289846080   T   T   T
  0.6679932843229794  0.4373170019481295  0.3683122751431168   T   T   T
  0.6690201116736190  0.1998424402970127  0.5419491634914023   T   T   T
  0.6691322609356773  0.4489828126322844  0.5399140381261543   T   T   T
  0.7496199407646900  0.7480574550576615  0.4541139507522161   T   T   T
  0.7494968452497021  0.6273774449140792  0.4570263466731270   T   T   T
  0.7499999997239044  0.0001643475558382  0.2779548773829816   F   F   F
  0.7499999997239044  0.5001643475558382  0.2779548773829816   F   F   F
  0.7499999997239044  0.6249264342623420  0.2780286426703711   F   F   F
  0.7499999997239044  0.7501643477699247  0.2779548773829816   F   F   F
  0.7499999997239044  0.8749264344764285  0.2780286426703711   F   F   F
  0.7499999997239044  0.1249264342623420  0.2780286426703711   F   F   F
  0.7499999997239044  0.2501643477699247  0.2779548773829816   F   F   F
  0.7499999997239044  0.3749264344764285  0.2780286426703711   F   F   F
  0.7500889675740700  0.8773554392757092  0.4570641055695824   T   T   T
  0.7500147808886432  0.9987483295473129  0.4537843772222749   T   T   T
  0.7497696952184537  0.3770429969866925  0.4573989831483123   T   T   T
  0.7500443261568293  0.2478340980485090  0.4543025020055303   T   T   T
  0.7502438731254123  0.1269409345026203  0.4560324708876576   T   T   T
  0.7501558167201554  0.4978806776355269  0.4540699631946433   T   T   T
  0.0824959423441172  0.4374754614066489  0.2839355729984092   F   F   F
  0.0824959423441172  0.6874754611925624  0.2839355729984092   F   F   F
  0.0824959423441172  0.9374754614066489  0.2839355729984092   F   F   F
  0.0824959423441172  0.1874754611925624  0.2839355729984092   F   F   F
  0.0825128070602853  0.6880269305716985  0.4525739739698008   T   T   T
  0.0827651808530874  0.5624885324787385  0.2838652796168972   F   F   F
  0.0827651808530874  0.0624885324787385  0.2838652796168972   F   F   F
  0.0827651808530874  0.8124885322646520  0.2838652796168972   F   F   F
  0.0827651808530874  0.3124885322646520  0.2838652796168972   F   F   F
  0.8310821467743288  0.7005319745285266  0.5417904780799569   T   T   T
  0.8320042950086113  0.6874251774097030  0.3683032678305108   T   T   T
  0.8321898170746669  0.8126507724152641  0.3681710361046784   T   T   T
  0.8321613894412276  0.9373313092395186  0.3682109664049174   T   T   T
  0.8321682105349099  0.0626056380185644  0.3678954348341522   T   T   T
  0.8321260324037039  0.1874439845237482  0.3681708282079752   T   T   T
  0.8322479413180732  0.5626555821636210  0.3681615155699631   T   T   T
  0.8322515108373808  0.3126575056139060  0.3681508914159909   T   T   T
  0.8323222401027420  0.4373105353054410  0.3683908162595727   T   T   T
  0.0832365163928149  0.1876177682287599  0.4528391705477843   T   T   T
  0.8329857370525801  0.9518209497071357  0.5419102107712761   T   T   T
  0.8335819413101050  0.4500582063045029  0.5414451301238269   T   T   T
  0.8340101684082839  0.4375125970341855  0.2025194438276969   F   F   F
  0.8340101684082839  0.6875125968200990  0.2025194438276969   F   F   F
  0.8340101684082839  0.9375125970341855  0.2025194438276969   F   F   F
  0.8340101684082839  0.1875125968200990  0.2025194438276969   F   F   F
  0.8340836447818845  0.5625456426731574  0.2025671506292426   F   F   F
  0.8340836447818845  0.0625456426731503  0.2025671506292426   F   F   F
  0.8340836447818845  0.8125456424590709  0.2025671506292426   F   F   F
  0.8340836447818845  0.3125456424590709  0.2025671506292426   F   F   F
  0.8344813627793936  0.2022622477333900  0.5419795702051937   T   T   T
  0.0832900311179653  0.4378275087126928  0.4531168376944979   T   T   T
  0.0837800936141548  0.9376481343575706  0.4528912295301192   T   T   T
  0.0852545193228398  0.8130612842678987  0.4549632059006628   T   T   T
  0.0851169555690278  0.5630120571725381  0.4556801557720846   T   T   T
  0.0855838973994076  0.3129735671071058  0.4550435685665366   T   T   T
  0.0858566257646563  0.0629860611330854  0.4558960838290358   T   T   T
  0.9142802633351391  0.8131599654324255  0.4557668972377188   T   T   T
  0.9145422244719793  0.5627643362304202  0.4555109869041385   T   T   T
  0.9149003442745225  0.0629677050079191  0.4549213257140885   T   T   T
  0.9148067641316291  0.3128792032296008  0.4556237737410944   T   T   T
  0.9163349586110232  0.6879890306967882  0.4528772590095710   T   T   T
  0.9168132721870982  0.1875067319218536  0.4527079964435912   T   T   T
  0.9172348191469126  0.5624885324787385  0.2838652796168972   F   F   F
  0.9172348191469126  0.0624885324787385  0.2838652796168972   F   F   F
  0.9172348191469126  0.8124885322646520  0.2838652796168972   F   F   F
  0.9172348191469126  0.3124885322646520  0.2838652796168972   F   F   F
  0.9174488520624688  0.9379882262968997  0.4526042899605923   T   T   T
  0.9175040576558828  0.4374754614066489  0.2839355729984092   F   F   F
  0.9175040576558828  0.6874754611925624  0.2839355729984092   F   F   F
  0.9175040576558828  0.9374754614066489  0.2839355729984092   F   F   F
  0.9175040576558828  0.1874754611925624  0.2839355729984092   F   F   F
  0.9172946741302567  0.4375890465444321  0.4530286656953657   T   T   T
  0.9979864737342823  0.1206527125441319  0.5441211658591224   T   T   T
  0.9977400343669764  0.6223694970918855  0.5438610788484644   T   T   T
  0.9997876796574801  0.7504894311903409  0.3693527722750589   T   T   T
  0.0000031987664803  0.8748112035744334  0.3695304520584511   T   T   T
  0.1659163253997278  0.5625456426731574  0.2025671506292426   F   F   F
  0.1659163253997278  0.0625456426731503  0.2025671506292426   F   F   F
  0.1659163253997278  0.8125456424590709  0.2025671506292426   F   F   F
  0.1659163253997278  0.3125456424590709  0.2025671506292426   F   F   F
  0.1659898017733283  0.4375125970341855  0.2025194438276969   F   F   F
  0.1659898017733283  0.6875125968200990  0.2025194438276969   F   F   F
  0.1659898017733283  0.9375125970341855  0.2025194438276969   F   F   F
  0.1659898017733283  0.1875125968200990  0.2025194438276969   F   F   F
  0.1661462782661210  0.7018460434914038  0.5420476460448059   T   T   T
  0.1658621089418781  0.4513977955049085  0.5422258375578398   T   T   T
  0.1675861356939296  0.2018001771553346  0.5422235768679997   T   T   T
  0.1677526879084257  0.8126402991216815  0.3679230551283329   T   T   T
  0.1676607607693950  0.5626821078052615  0.3681940310971517   T   T   T
  0.1677065161994048  0.6874001010101624  0.3681909654476166   T   T   T