Ta  N  W Cu                             
   1.00000000000000     
    18.1096308199999996    0.0000000000000000    0.0000000000000000
     0.0000000000000000   23.3551997799999995    0.0000000000000000
     0.0000000000000000    0.0000000000000000   30.4818171199999988
   Ta   N    W    Cu
   216   240    24     2
Direct
  0.0000127025468188  0.0000156614498721  0.1978627534937019
  0.3344321485352282  0.0625001896454762  0.2033497150936512
  0.1656516442741847  0.0624705345257937  0.2033240429432936
  0.2501023875992558  0.1250814449302382  0.2784193090873401
  0.0826989946922012  0.0624719959149473  0.2846648631834512
  0.4173549957365950  0.0624746199064177  0.2846832943452711
  0.0000604953570260  0.1251788591140368  0.3703213264534782
  0.3326568560285992  0.0624784595110341  0.3690839935589665
  0.1675183952251587  0.0624980918939926  0.3690418028448335
  0.2500020296777521  0.1251942072474463  0.4553677711382278
  0.0835952215366618  0.0626554010680920  0.4552782752895439
  0.4165001297469146  0.0626382782118355  0.4553646094616752
  0.0000094859201596  0.1284269048352868  0.5415576020413582
  0.3352347267233071  0.0630788684300541  0.5427404566950003
  0.1645596069885542  0.0631905665273749  0.5427809882926908
  0.0000746466697876  0.1248680029201665  0.1976916496840246
  0.3341893996435488  0.1873022518879779  0.2030776727756205
  0.1659501384222324  0.1872487822274778  0.2030173701242148
  0.2501534292289236  0.2500502106335958  0.2780722163187406
  0.0827229032626988  0.1874180701100698  0.2842575168671146
  0.4173638473159968  0.1874440180751904  0.2843442166574235
  0.0000671297855490  0.2501917031582082  0.3697000695603734
  0.3328077403185006  0.1874660720208254  0.3686438741834621
  0.1674127170412731  0.1874724152772416  0.3685102119270169
  0.2499796955596736  0.2504638258209013  0.4542165217443284
  0.0838819396770276  0.1878729565858990  0.4547083231159306
  0.4162820283936455  0.1876553057265582  0.4548693700074011
  0.9999905399368672  0.2525761377299318  0.5408656192633856
  0.0000696358253975  0.2497793156305903  0.1973501006153526
  0.3341652151708985  0.3123785672080146  0.2027176021697485
  0.1660712189330695  0.3123064376164422  0.2026483579268188
  0.2502070337689588  0.3749972115770959  0.2777589955083144
  0.0826920599217047  0.3124223814387364  0.2837987351877800
  0.4174306566823418  0.3124669485224416  0.2839638530577062
  0.0000667284137634  0.3751351650123311  0.3692568474770894
  0.3327593041856289  0.3125279850048628  0.3681940778536656
  0.1674595396770329  0.3125472534253859  0.3679855813072379
  0.2502326627483384  0.3751927835448470  0.4539463000675497
  0.0837219010177037  0.3128886975627978  0.4540617961484656
  0.4168035455969630  0.3127200784576800  0.4544243134138455
  0.9996467351367713  0.3761174705707404  0.5406227625135287
  0.0001436327738418  0.3748574620428542  0.1969778914484976
  0.3343514084231458  0.4374082620106847  0.2025301728346776
  0.1659523234788765  0.4373714815092242  0.2024673231636882
  0.2500577080837019  0.0000302330431552  0.2786412259895101
  0.0826651732510655  0.4374934871920004  0.2835882806969394
  0.4174752640401920  0.4375191667018896  0.2838098165486329
  0.0000443005541584  0.0000140318560895  0.3706411158960279
  0.3328059996976975  0.4375408146503545  0.3681734628302209
  0.1675438310620265  0.4375667374400507  0.3677785646340013
  0.2499576919218427  0.0000236748642521  0.4559537870971084
  0.0838375207939777  0.4376845414620618  0.4538091216263282
  0.4165551138172177  0.4375424683880311  0.4545260338602404
  0.9999648748256433  0.0000371168284445  0.5415231971755006
  0.0001127469871633  0.4999791274901852  0.1968720897120662
  0.3343326908374493  0.5625753206822637  0.2025156806673394
  0.1659543825545171  0.5626212470048912  0.2024528747542931
  0.2502159200396648  0.6250423722021168  0.2777506576312092
  0.0826666311953375  0.5625232411160255  0.2835797182080526
  0.4174726736000096  0.5625383784509381  0.2837992922697765
  0.0000611463015261  0.6248971512846779  0.3692410144392539
  0.3328171396520290  0.5625336179646894  0.3681826107061070
  0.1675580138312469  0.5625043370389236  0.3677833943390141
  0.2502840132083293  0.6248564875119271  0.4539684047180117
  0.0838535914922431  0.5623762002636497  0.4538091736797085
  0.4165748502251745  0.5624898860195557  0.4545614622093979
  0.9996632180197551  0.6239492658776271  0.5406044940876455
  0.0001380914175115  0.6251232173175865  0.1969587687360175
  0.3341421778667595  0.6876279987504574  0.2026879884726824
  0.1660663195400431  0.6876835439072195  0.2026301730825395
  0.2501544852633373  0.7499791490916792  0.2780447498124161
  0.0826938829150734  0.6875790025144681  0.2837797300034310
  0.4174224485158575  0.6875731358367219  0.2839243584430946
  0.0000558835047144  0.7498355533573999  0.3696692749268138
  0.3327833124119977  0.6875323548527703  0.3682047234060590
  0.1674719109123117  0.6875116813838744  0.3679809650106165
  0.2500754757863604  0.7495818451156282  0.4542236569832383
  0.0837613744312904  0.6871608869753132  0.4540512608066294
  0.4168259247487072  0.6873230841623155  0.4544733267995795
  0.0000280778903416  0.7474926552515626  0.5408566021683185
  0.0000496281675240  0.7502210256049011  0.1973396379587626
  0.3341526388738814  0.8127110641000073  0.2030518961771719
  0.1659227001203689  0.8127456356803506  0.2030030330448227
  0.2500925466845629  0.8749589524250680  0.2783942215373401
  0.0827198373257971  0.8125956626731252  0.2842286871155792
  0.4173589882891449  0.8125916263820798  0.2843056189416941
  0.0000518820755602  0.8748478797234966  0.3702975047651194
  0.3328226721055572  0.8125782643516288  0.3686299142864442
  0.1674231288435806  0.8125788184082552  0.3684893636518396
  0.2500052731413689  0.8748578435564198  0.4553410594602454
  0.0838974464808402  0.8121752667014732  0.4546851671015233
  0.4163063512246481  0.8123858904850820  0.4548675214587590
  0.0000320269688743  0.8716224753528863  0.5415440427845510
  0.0000646447380390  0.8751612003464189  0.1976751087828319
  0.3344007644173885  0.9375488158229643  0.2033461628906963
  0.1656557898213151  0.9375584028891666  0.2033216155819417
  0.2502800549531941  0.5000205903552910  0.2777177969536169
  0.0827027957030424  0.9375547462641123  0.2846523127151031
  0.4173475811855312  0.9375583349588936  0.2846612091284868
  0.0000416576937781  0.5000064793361005  0.3691024765907756
  0.3326538182717158  0.9375730183741950  0.3690688576334651
  0.1675092082882799  0.9375589818773520  0.3690269574446106
  0.2503811957850530  0.5000148283481209  0.4539300065882585
  0.0835919093401216  0.9373897087020993  0.4552666470938433
  0.4165034047342289  0.9374262723399198  0.4553419737865454
  0.9995095669795546  0.5000344652682855  0.5406360606197467
  0.3352514525176531  0.9369242591243960  0.5427287208038436
  0.1645731170965234  0.9368915477665283  0.5427518942862690
  0.5000174661258328  0.0000250552640679  0.1978676562328943
  0.8344129052401783  0.0624994406989501  0.2032982138552626
  0.6655804448438332  0.0624718097816626  0.2033272481566399
  0.7500002015833687  0.1250345789641401  0.2783504784369129
  0.5826669177063266  0.0624737091132275  0.2846536986604775
  0.9173329705633932  0.0624828446800976  0.2846388072061714
  0.5000857148585993  0.1251479519120551  0.3703964321973530
  0.8325976097852958  0.0625001818520232  0.3690443956969460
  0.6674968029577784  0.0624743716190679  0.3690420338067284
  0.7501386590809176  0.1252466985138554  0.4553404777924897
  0.5837350956313330  0.0626753638055106  0.4553644548655029
  0.9164773158270236  0.0626547650806444  0.4552804839013262
  0.4999143359363458  0.1283367402585185  0.5422476819511317
  0.8355050093920653  0.0631801468506694  0.5428017166139867
  0.6647477389359011  0.0632596153013694  0.5427700413293977
  0.4999492002743580  0.1248590130727436  0.1977220572230181
  0.8341026100123656  0.1872485188066975  0.2029792475643291
  0.6658749627131400  0.1872592865109013  0.2030206863915325
  0.7499696438830554  0.2499858065071479  0.2779310296242841
  0.5827056027677813  0.1874302701030075  0.2842708254464483
  0.9173594783107859  0.1874106221174543  0.2842014134038351
  0.5000496537220940  0.2501424119363165  0.3698288403491574
  0.8327389143547279  0.1874835487221418  0.3684694463427078
  0.6673253589453196  0.1874594979865520  0.3685495154223375
  0.7501617907809361  0.2505357381489972  0.4541186695490609
  0.5840347140693751  0.1877225163530198  0.4548226444869812
  0.9162663253915113  0.1878988357538631  0.4546886923428985
  0.5001476849336157  0.2520605693204558  0.5407710511603483
  0.4999392193506296  0.2498627440321428  0.1974149695264344
  0.8339843816353465  0.3123418431051732  0.2025807193361331
  0.6658960558111460  0.3123818895049411  0.2026213801161987
  0.7499455534852828  0.3749599590349675  0.2775491721462018
  0.5826447442344502  0.3124501058717257  0.2838301391454507
  0.9174232731635144  0.3124282448259521  0.2837163735509733
  0.4999704648260561  0.3751374013624797  0.3694909485833549
  0.8327713055223285  0.3125431825099341  0.3678924481316912
  0.6673238423605881  0.3125208249067200  0.3680150214292013
  0.7501223715850927  0.3753317731915828  0.4536334296841602
  0.5836671282960921  0.3128560583099187  0.4542440159813594
  0.9163929742328421  0.3129397819125685  0.4540834551737234
  0.5008888282968371  0.3756357983889558  0.5416327868764199
  0.4998614713181695  0.3748827164625794  0.1970642507673475
  0.8341464143885702  0.4373296087092982  0.2023871063195202
  0.6656868595113963  0.4373462207911203  0.2024239302033308
  0.7500474372657138  0.0000244498815363  0.2786359503641975
  0.5825846447428304  0.4375125126039734  0.2836404214497819
  0.9174827757100772  0.4374855451550985  0.2834710871728845
  0.5000700516231049  0.0000270327783554  0.3706286989611982
  0.8327341292535451  0.4375576513254558  0.3676000430323185
  0.6673358397520417  0.4375319632988877  0.3678391561821215
  0.7501463157140620  0.0000167334647330  0.4559560413410111
  0.5838307710330781  0.4376370288418556  0.4541633463229928
  0.9163285166325892  0.4377229523460642  0.4538582849012798
  0.4999529381027870  0.0000565042021137  0.5413361219583592
  0.4998902577431679  0.4999809903095951  0.1969647430475518
  0.8341388194504091  0.5626458732443922  0.2023811464372187
  0.6656958643524646  0.5626495868203136  0.2024139114600345
  0.7499420910016923  0.6250499175953763  0.2775350357843323
  0.5825706341408150  0.5625319579491261  0.2836285723843659
  0.9174783797668127  0.5625155496556289  0.2834659049839132
  0.4999717458662616  0.6249281816484711  0.3694943210894479
  0.8327408439889297  0.5624780125081301  0.3675967483144831
  0.6673319418980128  0.5625303735110379  0.3678385911007638
  0.7500914619757282  0.6247226893410129  0.4536373340583353
  0.5838265126410036  0.5624167108572635  0.4541796951128774
  0.9163465643705351  0.5623235312608728  0.4538524340520169
  0.5008358602210876  0.6243117590533274  0.5416951049483032
  0.4998661347673803  0.6251071481664283  0.1970367206245029
  0.8340074443930519  0.6876633531333027  0.2025750002107003
  0.6659070351306369  0.6876223209319718  0.2026007503949216
  0.7499788876002853  0.7500296771054735  0.2779051548168781
  0.5826390843131151  0.6875819876943723  0.2838021249944163
  0.9174218678407797  0.6875733895255181  0.2836939294563123
  0.5000302213830778  0.7499053600269292  0.3698001932023658
  0.8327625784964567  0.6874848731158849  0.3678769784070468
  0.6673032660277940  0.6875363478154100  0.3680016879652612
  0.7501377447635491  0.7495166574994698  0.4541004434189944
  0.5836537041728320  0.6872241965794501  0.4542629380851722
  0.9164027849120870  0.6871028538166826  0.4540700854257693
  0.5000870615475321  0.7480224884737368  0.5408174816668634
  0.4999549026744674  0.7501476327022587  0.1973806393507971
  0.8341116191658244  0.8127620988020325  0.2029662550152906
  0.6658889524357505  0.8127636637492301  0.2029907971144382
  0.7500116143734630  0.8749934634096661  0.2783311996163249
  0.5827014690681978  0.8126027082617782  0.2842347666466338
  0.9173646027873446  0.8125941542098190  0.2841872728601231
  0.5000697138538115  0.8748987560285215  0.3703655509425374
  0.8327315408213423  0.8125397674228907  0.3684585144444981
  0.6673067271888939  0.8125860159619052  0.3685208001110141
  0.7501302664834526  0.8748006376527471  0.4553246541677396
  0.5840283473185011  0.8123361970240737  0.4548006468700336
  0.9162633440454044  0.8121362076560530  0.4546838789103802
  0.4999111810779979  0.8716755559411737  0.5422056501790635
  0.4999635997051968  0.8751770090506028  0.1976926619160508
  0.8343927324164966  0.9375175706501935  0.2033019403543790
  0.6656325814181869  0.9375413133140214  0.2033242051475668
  0.7498837890564616  0.5000014644013362  0.2775162021040316
  0.5826758297260852  0.9375589571210341  0.2846392721817566
  0.9173410910017239  0.9375417227499767  0.2846333438950879
  0.4999489189872648  0.5000333461673279  0.3694619325409576
  0.8325912077102657  0.9375301230616131  0.3690424769237595
  0.6674935177399206  0.9375722169806977  0.3690267450552014
  0.7501053116750640  0.5000247887396583  0.4535342181770545
  0.5837167161194330  0.9373968205816468  0.4553414949972350
  0.9164689657335003  0.9373812207748244  0.4552788469660811
  0.5019603435482338  0.4999508284542742  0.5414074234221573
  0.8354934311635560  0.9368578156121998  0.5427909366618877
  0.6647513040171589  0.9368130940224333  0.5427542690068066
  0.4059269245812374  0.0000124229900180  0.2330351889304652
  0.2500398852448384  0.0000258038538732  0.2009793310778107
  0.0940887815345803  0.0000066218157428  0.2330229770710659
  0.1549540374542744  0.1249464094189960  0.3162911517908427
  0.0000267763889283  0.1250257020114418  0.3036525395934646
  0.3451973389176501  0.1249543696961055  0.3163617377912260
  0.4011255866949881  0.1250782225050671  0.4029956205598140
  0.2500494697618834  0.1250144340590751  0.3877784825903277
  0.0990666326871192  0.1251545275551820  0.4028832267887665
  0.1522655473734957  0.1258691266342709  0.4882791614589408
  0.0000543134306170  0.1259245297914973  0.4738177961399259
  0.3476511285805159  0.1255995513733197  0.4883763582224461
  0.4002417384602737  0.1294098601840474  0.5703290655922402
  0.2496391023471531  0.1306641926296521  0.5581695920980962
  0.0993164824396189  0.1295504310606077  0.5700474657992487
  0.4058846171499155  0.1249101974565079  0.2328375642310831
  0.2500524325512856  0.1247672264688191  0.2000327584063228
  0.0941708327295032  0.1248735166535297  0.2327839261304803
  0.1548862355855931  0.2499649809806854  0.3157930143527707
  0.0000336726887937  0.2500200672382462  0.3031241670665494
  0.3453300716737999  0.2500004921281658  0.3159177110368390
  0.4011277051108237  0.2502211989295731  0.4025119068939915
  0.2500429404134579  0.2500488322659749  0.3869877559495620
  0.0990402323751667  0.2502599208490395  0.4023558469650794
  0.1528774979757301  0.2508923434611816  0.4874489004958420
  0.0000491009500720  0.2508431062056786  0.4733236326642682
  0.3469960677488686  0.2505131791635762  0.4873706622877734
  0.3982256303499625  0.2512624460232118  0.5687989184512077
  0.2498669708446499  0.2533036846597554  0.5577235796802071
  0.1012097857093863  0.2520631541524594  0.5688804910282670
  0.4058202290726669  0.2498605653728276  0.2324659438508405
  0.2500917961409783  0.2497860154269134  0.1997013091745856
  0.0942510269443844  0.2498032568511590  0.2323386879349414
  0.1548534824573196  0.3750271849722253  0.3154492703236329
  0.0000400944225092  0.3749861820554798  0.3027298033002666
  0.3454031667054451  0.3750849817046742  0.3157019031853849
  0.4012272704300344  0.3751611125658982  0.4024521260090239
  0.2501026624104910  0.3750660136237727  0.3867260199931621
  0.0990097361235769  0.3752243908841919  0.4019549386656678
  0.1528953162345985  0.3754594674630951  0.4869386966574112
  0.0000267438046819  0.3754888730977868  0.4729740594924152
  0.3471677558870994  0.3746389383986894  0.4876416109508668
  0.3966922765525567  0.3742420570441070  0.5704013596991970
  0.2488048872193289  0.3762953975496544  0.5576237912036675
  0.1010503857059533  0.3759212881990095  0.5686372010687677
  0.4058140214089292  0.3749213256855839  0.2321907223957069
  0.2501135688886791  0.3749083411752423  0.1992996340625695
  0.0942897339845814  0.3748539159021931  0.2319935096087420
  0.1549635107998810  0.0000203595930088  0.3165552134258860
  0.0000208355292344  0.0000074578141920  0.3039300913669649
  0.3451297778206381  0.0000223735508058  0.3165690187979280
  0.4010605349227632  0.0000279720806020  0.4031111387489261
  0.2500420229272038  0.0000248808936334  0.3881201251122803
  0.0990996338355288  0.0000217330731473  0.4031462675635140
  0.1516414957936760  0.0000267431426408  0.4885916494348805
  0.0000354407774239  0.0000231334486003  0.4736378151937402
  0.3481617808264090  0.0000158069051395  0.4884642073801686
  0.4024413366627329  0.0000100189981964  0.5705006158060755
  0.2498671769212137  0.0000084423066014  0.5583741870174705
  0.0973734373421280  0.0000266093586347  0.5707613537270078
  0.4058822619537210  0.5000074984280261  0.2321573093879721
  0.2500882687934904  0.4999950506242214  0.1999717325371932
  0.0942828489814218  0.4999992553466370  0.2319193806542970
  0.1548665249624293  0.6250131886117600  0.3154371524473731
  0.0000431365959415  0.6250221972386711  0.3027172850471800
  0.3454104795314024  0.6249760863100207  0.3157046358197917
  0.4012422524527750  0.6248973708320662  0.4024888365153956
  0.2501329738213585  0.6249971166290749  0.3867459862226426
  0.0990146104947769  0.6248358845001718  0.4019438171037493
  0.1529570119622150  0.6245946818224652  0.4869262570801993
  0.0000541173293485  0.6245695901209061  0.4729651462261728
  0.3472197468952984  0.6253784788581171  0.4877227152218353
  0.3966779597634726  0.6256804912980840  0.5705079635796437
  0.2488158558639171  0.6237132927689260  0.5576640168862852
  0.1010815076462350  0.6241943410119575  0.5686214849869629
  0.4058154333082271  0.6250971358306927  0.2321615222368365
  0.2501087887045799  0.6250768272273035  0.1992563900632121
  0.0942783157422511  0.6251349685801983  0.2319772723151416
  0.1548916583381228  0.7500691726991491  0.3157739770706698
  0.0000316165729544  0.7499895840339406  0.3031051967201037
  0.3453284325403487  0.7500474938652744  0.3159011224350223
  0.4011404161638481  0.7498139422869059  0.4025381268397084
  0.2500763381974807  0.7500061383602272  0.3869840022194495
  0.0990364010841134  0.7497971027619101  0.4023339085416282
  0.1529499841565212  0.7491732094829118  0.4874116380186564
  0.0000744401126624  0.7492036844426977  0.4733223894817655
  0.3470651906222457  0.7495152426536364  0.4874281316718836
  0.3981988095661819  0.7488096700166480  0.5689001768358395
  0.2499016336518167  0.7467720862300880  0.5577352737215051
  0.1012786172957263  0.7480302616406931  0.5688442890505030
  0.4058101948356381  0.7501694588588492  0.2324150724237484
  0.2500839917668287  0.7502226201040756  0.1996608533859785
  0.0942454466254361  0.7501999153834689  0.2323129597344433
  0.1549525775218541  0.8750894141107892  0.3162714449905621
  0.0000274174048869  0.8749900823501946  0.3036453470016269
  0.3451908875790366  0.8750880855647196  0.3163359124178555
  0.4011282565722922  0.8749716921143786  0.4029735399283680
  0.2500562181300481  0.8750376053918316  0.3877506318878332
  0.0990622445075076  0.8748912348034708  0.4028674809399320
  0.1523014254858595  0.8741905989381920  0.4882428234335947
  0.0000565497184368  0.8741129172350028  0.4738123559181844
  0.3476930724661003  0.8744402281345174  0.4883530587905511
  0.4002656715572996  0.8706445337175026  0.5703252153824536
  0.2496907807660449  0.8693973832608322  0.5581337009584999
  0.0993650172357761  0.8705103853161305  0.5700036669016129
  0.4058859235118533  0.8751259595183001  0.2327993381673963
  0.2500335330475139  0.8752457392323052  0.1999983182056155
  0.0941675184987361  0.8751437291817794  0.2327642098739986
  0.1548618784145788  0.5000257396199359  0.3153515053499945
  0.0000462879343957  0.5000039705746033  0.3026154459671559
  0.3455084372079682  0.5000338509002589  0.3156832999858210
  0.4012142855757119  0.5000314764096316  0.4024435057177840
  0.2501517468274059  0.5000344600753692  0.3866908704417540
  0.0990055934086342  0.5000317756018759  0.4018470935087137
  0.1528611560905162  0.5000226301409043  0.4867992546698332
  0.0000322207632735  0.5000265659146663  0.4729491033926578
  0.3471477464425163  0.4999967465096304  0.4877691437541998
  0.3944387807182963  0.4998543288829680  0.5704620605094277
  0.2484877034084150  0.4999999862879605  0.5574954891101243
  0.1007846702045541  0.5000535419880592  0.5686570405300060
  0.9059179718320891  0.0000127031080339  0.2330024119510412
  0.7500178987757877  0.0000220569348954  0.2010513851512457
  0.5940727790862184  0.0000200590194765  0.2330079523968891
  0.6549047484024726  0.1249330892867420  0.3163026758349687
  0.5000458063308315  0.1250193900571261  0.3037024331292884
  0.8451298501018911  0.1249410213571949  0.3162595655179317
  0.9010607722417419  0.1251669655807746  0.4028692655861903
  0.7500857444650393  0.1250343055438989  0.3877365478856376
  0.5990723766395263  0.1250940844563786  0.4029740641489283
  0.6525906190615913  0.1257303960797529  0.4883759593754746
  0.5001326001995281  0.1257455260136311  0.4742902700300036
  0.8478503091469420  0.1259003266317649  0.4882824445124356
  0.9006557531532877  0.1295815846444697  0.5700433732257082
  0.7503629750137080  0.1308087006162211  0.5581641849481613
  0.5997834662285086  0.1297170404306982  0.5702123792319327
  0.9059068498091705  0.1248692256764414  0.2327374214936668
  0.7499890588597822  0.1247479504014706  0.1998505374110451
  0.5941050226016031  0.1248882993277505  0.2327742201268919
  0.6548263493864965  0.2499677301699208  0.3157844688573661
  0.5000617347965743  0.2500273291250252  0.3032502752737329
  0.8452011557030374  0.2499644871886701  0.3157229398986630
  0.9011127794690665  0.2502802411252034  0.4023288554868856
  0.7500841229292803  0.2500770509204031  0.3868796230014695
  0.5990524138767057  0.2502388191789606  0.4023962820666398
  0.6531996605993413  0.2508269423790281  0.4872640639137771
  0.5001986728862704  0.2505358081888005  0.4732902644161641
  0.8471818414538390  0.2509048798287381  0.4873843982423409
  0.8987540974466626  0.2522477696475534  0.5687649113201445
  0.7502112969508303  0.2532549011836451  0.5576103906339895
  0.6017216931034994  0.2519389749593515  0.5685358304209629
  0.9058248068521024  0.2498042328210417  0.2322810843077150
  0.7499545038905708  0.2497648472229628  0.1996606035293951
  0.5941678256864478  0.2498288993164692  0.2323506074601056
  0.6547632468663878  0.3750285816001480  0.3154700739646543
  0.5000584091954181  0.3750032955944818  0.3029221638469082
  0.8452560673413103  0.3750019499636750  0.3153178878348086
  0.9011115984409273  0.3752372561759287  0.4019233840661300
  0.7500844648232103  0.3750667656285032  0.3864290603029374
  0.5989286405026206  0.3751957029403741  0.4021531017371700
  0.6532978055478367  0.3753597081557842  0.4870021178627866
  0.5002243578271077  0.3755610572242460  0.4736449785029464
  0.8470648005106085  0.3755412373579219  0.4868911597107797
  0.8983408263597141  0.3760732833585081  0.5684533630384010
  0.7505498814194311  0.3763205028256564  0.5571934054390439
  0.6031241502675755  0.3755633093520885  0.5685603332096605
  0.9058799027478059  0.3748394319976498  0.2318857713928466
  0.7499492214736776  0.3749007143866194  0.1989244809037913
  0.5940891269542092  0.3748988020548580  0.2320174167592555
  0.6549437961716578  0.0000219943417790  0.3165437550986496
  0.5000291537169517  0.0000153331192081  0.3039088724226318
  0.8451220514545099  0.0000112561199828  0.3165652207071545
  0.9009877480907278  0.0000150776071592  0.4031460197073002
  0.7500591695017960  0.0000157658261628  0.3881205645894497
  0.5991087477065804  0.0000314606997662  0.4031174905338020
  0.6520100455766809  0.0000266447436701  0.4885055275951160
  0.5001355378675356  0.0000312537205645  0.4734772491267520
  0.8484168598753143  0.0000183068471173  0.4886277072675185
  0.9026173821223153  0.0000301286185547  0.5708118854231898
  0.7501201970245575  0.0000234454902781  0.5584444603631553
  0.5974977667604335  0.0000370099265155  0.5704310705903524
  0.9058696795440255  0.4999893262029929  0.2318204232748897
  0.7499482559610016  0.4999939823934980  0.2000797705811408
  0.5940630016670170  0.5000048336689105  0.2319772334619046
  0.6547498093585915  0.6250139751862847  0.3154613478410297
  0.5000426109662683  0.6250500176616072  0.3029241984569921
  0.8452526358287287  0.6250043669679073  0.3153057489001654
  0.9011077263888154  0.6247938224957892  0.4019145904919128
  0.7500660875885785  0.6249872607095242  0.3864345766434099
  0.5989178587197799  0.6248832072463912  0.4021669130533496
  0.6532698383372377  0.6246964170249640  0.4870294521148608
  0.5002304207942245  0.6244828107918039  0.4737193195968317
  0.8470471319660220  0.6245021575866545  0.4868810239552133
  0.8983548662032561  0.6239753496755185  0.5684264219108286
  0.7505273548037508  0.6237401207495665  0.5572019392030683
  0.6030726019889556  0.6244632235355283  0.5685901572540715
  0.9058823672390517  0.6251396480303839  0.2318700404920335
  0.7499557887498085  0.6250782116672511  0.1988996928218114
  0.5940849649675997  0.6251137422724327  0.2319960141169801
  0.6548167289956908  0.7500733598296137  0.3157520986001572
  0.5000545905823230  0.7500145179090580  0.3032188044847999
  0.8452017802491980  0.7500490466251790  0.3157050457179196
  0.9011079523714827  0.7497455910894715  0.4023170462495571
  0.7500688046023498  0.7499629416796196  0.3868596138089799
  0.5990127871299364  0.7498202156056593  0.4023844656176081
  0.6531730408707048  0.7492281238443823  0.4872623319450895
  0.5002010459401518  0.7495166986554338  0.4733341166273277
  0.8471607622974773  0.7491296305619741  0.4873648409185947
  0.8987587355597029  0.7477816845541625  0.5687337058816837
  0.7501941097975120  0.7467864686127399  0.5575931356477071
  0.6016739523824342  0.7481294245491270  0.5685390701248565
  0.9058222491095904  0.7501955432875604  0.2322652176930902
  0.7499641843971716  0.7502370675689676  0.1996294198997930
  0.5941688412665371  0.7501866397980237  0.2323198369610608
  0.6549056050137665  0.8751146586776173  0.3162751419711043
  0.5000415172704678  0.8750162284896277  0.3036698244319709
  0.8451330847985616  0.8750847713533858  0.3162529942397043
  0.9010556519598865  0.8748625432560146  0.4028668318950750
  0.7500792816707857  0.8750017511311015  0.3877214016419543
  0.5990537538537950  0.8749593603617143  0.4029432869770133
  0.6525642247479979  0.8743418922888750  0.4883487930255157
  0.5001301393566777  0.8743179314131240  0.4742491813937377
  0.8478394854799802  0.8741374374636877  0.4882717654506337
  0.9006554505237574  0.8704507398019246  0.5700237424550778
  0.7503391018640926  0.8692424855553895  0.5581364259339168
  0.5997561780379641  0.8703411082120169  0.5701719689991833
  0.9059079883633743  0.8751497109025550  0.2327252705403851
  0.7499984633145402  0.8752609271472167  0.1998407676353651
  0.5941132068639661  0.8751517352237386  0.2327471630491971
  0.6546181146838208  0.5000280640430361  0.3154211091119663
  0.5000481198698381  0.5000283798885050  0.3028629159297438
  0.8453286967507125  0.5000032464142166  0.3152051644344596
  0.9010663119439428  0.5000198923627437  0.4018249156164941
  0.7500613518244066  0.5000310819051137  0.3863160424344230
  0.5989710862723854  0.5000355913051564  0.4020699843654043
  0.6534156486853888  0.5000266774943896  0.4868895872450381
  0.5002747136561609  0.5000145467876891  0.4734724454392207
  0.8470428809816752  0.5000334123264238  0.4868181932269522
  0.8983057470218796  0.5000323525164490  0.5685225219366501
  0.7506717130517728  0.5000365438762131  0.5571742747179158
  0.6040578330537372  0.4999859875922326  0.5683356815683922
  0.3347164013125337  0.1881953020148401  0.5400691439518184
  0.1649475766091584  0.1887677079418637  0.5401863589404101
  0.3338249866243075  0.3116172476625110  0.5396903792881957
  0.1646718365050859  0.3134785516075027  0.5394052355149270
  0.3301362178561220  0.4364001105999051  0.5385156083183062
  0.1637729044400515  0.4379339098915693  0.5391403605757148
  0.3301026344632092  0.5635768504935470  0.5385541467494264
  0.1637659479380318  0.5621222225150930  0.5391487644575648
  0.3338677882131620  0.6883862712680724  0.5397700617424945
  0.1647474062237251  0.6865940439202376  0.5393787691604999
  0.3347453094544903  0.8118499266747818  0.5400824342097579
  0.1650078095599099  0.8113061901205256  0.5401413249013487
  0.8349999207027139  0.1887880620686957  0.5401604448869648
  0.6654592067971734  0.1886390928801731  0.5400543972839742
  0.8347494102525133  0.3134150053077889  0.5392736976516659
  0.6658184384378742  0.3129755226544049  0.5392828645782970
  0.8347291258273231  0.4378951681765031  0.5390772181744765
  0.6661013267250198  0.4375085465130581  0.5391345801168512
  0.8347206774034106  0.5621480845684701  0.5390769694885051
  0.6660664550224098  0.5625167223589003  0.5391450266861924
  0.8347493713107923  0.6866387500272637  0.5392572562861702
  0.6657853842264103  0.6870853144046691  0.5392999148304511
  0.8349629337487627  0.8112538635973650  0.5401359614240846
  0.6654410507751365  0.8114307166823025  0.5400289447492099
  0.4332969068262713  0.5620435851374381  0.6073860712122752
  0.4332406553022849  0.4375545983414426  0.6075235694636447
 
  0.00000000E+00  0.00000000E+00  0.00000000E+00
  0.00000000E+00  0.00000000E+00  0.00000000E+00
  0.00000000E+00  0.00000000E+00  0.00000000E+00
  0.00000000E+00  0.00000000E+00  0.00000000E+00
  0.00000000E+00  0.00000000E+00  0.00000000E+00