Ru  N  H                                
   1.00000000000000     
    10.8619003295999992    0.0000000000000000    0.0000000000000000
    -5.4309501647999996    9.4066816188000004    0.0000000000000000
     0.0000000000000000    0.0000000000000000   23.5699996947999999
   Ru   N    H 
    80    16    16
Selective dynamics
Direct
  0.0833299999999966  0.1666699980000033  0.0908999930000007   F   F   F
  0.0832851765516492  0.1667015215612826  0.2712519800296552   T   T   T
  0.1666700039999967  0.0833299999999966  0.0000000000000000   F   F   F
  0.1666700039999967  0.0833299999999966  0.1817999849999978   F   F   F
  0.1667552747726537  0.0835685456639470  0.3669148740044457   T   T   T
  0.3333300159999979  0.1666699980000033  0.0908999930000007   F   F   F
  0.3333571245434411  0.1667127558632709  0.2712413197695748   T   T   T
  0.4166700039999967  0.0833299999999966  0.0000000000000000   F   F   F
  0.4166700039999967  0.0833299999999966  0.1817999849999978   F   F   F
  0.4167626360596065  0.0835372394800561  0.3669784235793995   T   T   T
  0.5833299510000032  0.1666699980000033  0.0908999930000007   F   F   F
  0.5833076367848382  0.1666720121933164  0.2712684053171580   T   T   T
  0.6666700480000003  0.0833299999999966  0.0000000000000000   F   F   F
  0.6666700480000003  0.0833299999999966  0.1817999849999978   F   F   F
  0.6665800350566077  0.0833606605268112  0.3670163502560413   T   T   T
  0.8333299940000032  0.1666699980000033  0.0908999930000007   F   F   F
  0.8332825343965866  0.1666315182229484  0.2712869356822374   T   T   T
  0.9166700039999967  0.0833299999999966  0.0000000000000000   F   F   F
  0.9166700039999967  0.0833299999999966  0.1817999849999978   F   F   F
  0.9166933575600942  0.0833668400204335  0.3670062999344653   T   T   T
  0.0833300170000015  0.4166700210000016  0.0908999930000007   F   F   F
  0.0833332219155426  0.4167655158762435  0.2712586550469070   T   T   T
  0.1666699989999998  0.3333300099999974  0.0000000000000000   F   F   F
  0.1666699989999998  0.3333300099999974  0.1817999849999978   F   F   F
  0.1666589922365181  0.3334691919371036  0.3667993227744044   T   T   T
  0.3333300279999989  0.4166700210000016  0.0908999930000007   F   F   F
  0.3333731430743105  0.4167551860403980  0.2712587358326190   T   T   T
  0.4166699880000024  0.3333300099999974  0.0000000000000000   F   F   F
  0.4166699880000024  0.3333300099999974  0.1817999849999978   F   F   F
  0.4167124747606265  0.3334434784300230  0.3669969401283275   T   T   T
  0.5833300059999971  0.4166700210000016  0.0908999930000007   F   F   F
  0.5833547684880119  0.4167237292159988  0.2712742368316613   T   T   T
  0.6666700099999971  0.3333300099999974  0.0000000000000000   F   F   F
  0.6666700099999971  0.3333300099999974  0.1817999849999978   F   F   F
  0.6667013693710300  0.3333758557939847  0.3668113702308438   T   T   T
  0.8333300059999971  0.4166700210000016  0.0908999930000007   F   F   F
  0.8333774503386561  0.4167638894417928  0.2712685085195666   T   T   T
  0.9166700099999971  0.3333300099999974  0.0000000000000000   F   F   F
  0.9166700099999971  0.3333300099999974  0.1817999849999978   F   F   F
  0.9166783834241730  0.3334021275805562  0.3669728799424759   T   T   T
  0.0833300239999986  0.6666700569999975  0.0908999930000007   F   F   F
  0.0832579693216983  0.6665911063779910  0.2712520095398946   T   T   T
  0.1666700259999985  0.5833300210000019  0.0000000000000000   F   F   F
  0.1666700259999985  0.5833300210000019  0.1817999849999978   F   F   F
  0.1666362987820365  0.5833719963933132  0.3670254291896515   T   T   T
  0.3333300239999986  0.6666700569999975  0.0908999930000007   F   F   F
  0.3333080928989258  0.6666695210446045  0.2712732538366818   T   T   T
  0.4166700150000011  0.5833300210000019  0.0000000000000000   F   F   F
  0.4166700150000011  0.5833300210000019  0.1817999849999978   F   F   F
  0.4166625904252150  0.5833534237430357  0.3670025677281691   T   T   T
  0.5833299800000020  0.6666700569999975  0.0908999930000007   F   F   F
  0.5833191055246804  0.6666723889656607  0.2712757571224454   T   T   T
  0.6666700589999977  0.5833300210000019  0.0000000000000000   F   F   F
  0.6666700589999977  0.5833300210000019  0.1817999849999978   F   F   F
  0.6666819631248936  0.5833742048544996  0.3670113010365109   T   T   T
  0.8333299800000020  0.6666700569999975  0.0908999930000007   F   F   F
  0.8333307728058167  0.6666497722116288  0.2712722668146432   T   T   T
  0.9166700589999977  0.5833300210000019  0.0000000000000000   F   F   F
  0.9166700589999977  0.5833300210000019  0.1817999849999978   F   F   F
  0.9166738538651764  0.5833636821529958  0.3670286918521697   T   T   T
  0.0833300420000000  0.9166700930000005  0.0908999930000007   F   F   F
  0.0832900349984275  0.9167371167175165  0.2712393678449604   T   T   T
  0.1666700079999970  0.8333300059999971  0.0000000000000000   F   F   F
  0.1666700079999970  0.8333300059999971  0.1817999849999978   F   F   F
  0.1665682337129508  0.8330960478452194  0.3667409029065317   T   T   T
  0.3333300420000000  0.9166700930000005  0.0908999930000007   F   F   F
  0.3333983239518545  0.9167471033314887  0.2712587445883092   T   T   T
  0.4166700079999970  0.8333300059999971  0.0000000000000000   F   F   F
  0.4166700079999970  0.8333300059999971  0.1817999849999978   F   F   F
  0.4168045665702984  0.8333865272823511  0.3669854773589775   T   T   T
  0.5833299979999964  0.9166700930000005  0.0908999930000007   F   F   F
  0.5833356621274192  0.9167164375741045  0.2712667466696423   T   T   T
  0.6666700509999970  0.8333300059999971  0.0000000000000000   F   F   F
  0.6666700509999970  0.8333300059999971  0.1817999849999978   F   F   F
  0.6666838937237101  0.8334563518059531  0.3668312380892427   T   T   T
  0.8333299979999964  0.9166700930000005  0.0908999930000007   F   F   F
  0.8333242328240381  0.9167294448799520  0.2712637332950726   T   T   T
  0.9166700509999970  0.8333300059999971  0.0000000000000000   F   F   F
  0.9166700509999970  0.8333300059999971  0.1817999849999978   F   F   F
  0.9165231393490355  0.8333759427233056  0.3669575297069375   T   T   T
  0.8332891340117113  0.4166712298826274  0.4172632147985485   T   T   T
  0.5834290258719013  0.4166656268608930  0.4172541764370761   T   T   T
  0.3332164014829735  0.4166664698734664  0.4172358258434850   T   T   T
  0.0833512902252147  0.4166496580806210  0.4172496748065910   T   T   T
  0.8333433942129667  0.6667306087790489  0.4173430414353314   T   T   T
  0.5834063876700302  0.6668546345582791  0.4172467661892664   T   T   T
  0.8332132298653543  0.9167220556606481  0.4173141324019914   T   T   T
  0.0834146554756728  0.1668793188482502  0.4172089054070245   T   T   T
  0.3333131000634464  0.6666828523977728  0.4173328088975568   T   T   T
  0.5834191012812744  0.9167177914615239  0.4173074317465092   T   T   T
  0.0833560081821311  0.6667577755114424  0.4173553978062555   T   T   T
  0.3333194610262122  0.1667687596837452  0.4173165835136162   T   T   T
  0.8333331946687966  0.1667258365463809  0.4172741057650984   T   T   T
  0.5834303155989057  0.1668570732094978  0.4173006021212662   T   T   T
  0.3332548860839081  0.9167122058752760  0.4170765077256981   T   T   T
  0.0834364368800285  0.9167250613437835  0.4170116180646344   T   T   T
  0.8333218653636217  0.4166809055821030  0.4608698912272401   T   T   T
  0.5833295343845022  0.4166717564275038  0.4608655553987880   T   T   T
  0.3333291119839720  0.4166843528351534  0.4608582303370265   T   T   T
  0.0833534572486724  0.4166710712595714  0.4608667549670771   T   T   T
  0.8332591501857488  0.6664741475301768  0.4609746650464596   T   T   T
  0.5833392125376425  0.6667325889342102  0.4608648433913606   T   T   T
  0.3331385716726474  0.6664007801429020  0.4609675551310655   T   T   T
  0.0830533984182894  0.6662221208309080  0.4609880418318834   T   T   T
  0.8333296126397368  0.1667318231051464  0.4609017265837462   T   T   T
  0.5836889406165897  0.1668629073943387  0.4609050099898932   T   T   T
  0.3333172180556173  0.1669430080699793  0.4609714169977668   T   T   T
  0.0832919589942340  0.1668986376565246  0.4608504478078527   T   T   T
  0.8330785656514046  0.9168432078710462  0.4609285331265071   T   T   T
  0.5836213008724586  0.9168273077549834  0.4609377727143333   T   T   T
  0.3335948169251472  0.9168641340511521  0.4606848486493703   T   T   T
  0.0833401636249895  0.9167436545660645  0.4606207224726208   T   T   T
 
  0.00000000E+00  0.00000000E+00  0.00000000E+00
  0.00000000E+00  0.00000000E+00  0.00000000E+00
  0.00000000E+00  0.00000000E+00  0.00000000E+00
  0.00000000E+00  0.00000000E+00  0.00000000E+00
  0.00000000E+00  0.00000000E+00  0.00000000E+00
  0.00000000E+00  0.00000000E+00  0.00000000E+00
  0.00000000E+00  0.00000000E+00  0.00000000E+00
  0.00000000E+00  0.00000000E+00  0.00000000E+00
  0.00000000E+00  0.00000000E+00  0.00000000E+00
  0.00000000E+00  0.00000000E+00  0.00000000E+00
  0.00000000E+00  0.00000000E+00  0.00000000E+00
  0.00000000E+00  0.00000000E+00  0.00000000E+00
  0.00000000E+00  0.00000000E+00  0.00000000E+00
  0.00000000E+00  0.00000000E+00  0.00000000E+00
  0.00000000E+00  0.00000000E+00  0.00000000E+00
  0.00000000E+00  0.00000000E+00  0.00000000E+00
  0.00000000E+00  0.00000000E+00  0.00000000E+00
  0.00000000E+00  0.00000000E+00  0.00000000E+00
  0.00000000E+00  0.00000000E+00  0.00000000E+00
  0.00000000E+00  0.00000000E+00  0.00000000E+00
  0.00000000E+00  0.00000000E+00  0.00000000E+00
  0.00000000E+00  0.00000000E+00  0.00000000E+00
  0.00000000E+00  0.00000000E+00  0.00000000E+00
  0.00000000E+00  0.00000000E+00  0.00000000E+00
  0.00000000E+00  0.00000000E+00  0.00000000E+00
  0.00000000E+00  0.00000000E+00  0.00000000E+00
  0.00000000E+00  0.00000000E+00  0.00000000E+00
  0.00000000E+00  0.00000000E+00  0.00000000E+00
  0.00000000E+00  0.00000000E+00  0.00000000E+00
  0.00000000E+00  0.00000000E+00  0.00000000E+00
  0.00000000E+00  0.00000000E+00  0.00000000E+00
  0.00000000E+00  0.00000000E+00  0.00000000E+00
  0.00000000E+00  0.00000000E+00  0.00000000E+00
  0.00000000E+00  0.00000000E+00  0.00000000E+00
  0.00000000E+00  0.00000000E+00  0.00000000E+00
  0.00000000E+00  0.00000000E+00  0.00000000E+00
  0.00000000E+00  0.00000000E+00  0.00000000E+00
  0.00000000E+00  0.00000000E+00  0.00000000E+00
  0.00000000E+00  0.00000000E+00  0.00000000E+00
  0.00000000E+00  0.00000000E+00  0.00000000E+00
  0.00000000E+00  0.00000000E+00  0.00000000E+00
  0.00000000E+00  0.00000000E+00  0.00000000E+00
  0.00000000E+00  0.00000000E+00  0.00000000E+00
  0.00000000E+00  0.00000000E+00  0.00000000E+00
  0.00000000E+00  0.00000000E+00  0.00000000E+00
  0.00000000E+00  0.00000000E+00  0.00000000E+00
  0.00000000E+00  0.00000000E+00  0.00000000E+00
  0.00000000E+00  0.00000000E+00  0.00000000E+00
  0.00000000E+00  0.00000000E+00  0.00000000E+00
  0.00000000E+00  0.00000000E+00  0.00000000E+00
  0.00000000E+00  0.00000000E+00  0.00000000E+00
  0.00000000E+00  0.00000000E+00  0.00000000E+00
  0.00000000E+00  0.00000000E+00  0.00000000E+00
  0.00000000E+00  0.00000000E+00  0.00000000E+00
  0.00000000E+00  0.00000000E+00  0.00000000E+00
  0.00000000E+00  0.00000000E+00  0.00000000E+00
  0.00000000E+00  0.00000000E+00  0.00000000E+00
  0.00000000E+00  0.00000000E+00  0.00000000E+00
  0.00000000E+00  0.00000000E+00  0.00000000E+00
  0.00000000E+00  0.00000000E+00  0.00000000E+00
  0.00000000E+00  0.00000000E+00  0.00000000E+00
  0.00000000E+00  0.00000000E+00  0.00000000E+00
  0.00000000E+00  0.00000000E+00  0.00000000E+00
  0.00000000E+00  0.00000000E+00  0.00000000E+00
  0.00000000E+00  0.00000000E+00  0.00000000E+00
  0.00000000E+00  0.00000000E+00  0.00000000E+00
  0.00000000E+00  0.00000000E+00  0.00000000E+00
  0.00000000E+00  0.00000000E+00  0.00000000E+00
  0.00000000E+00  0.00000000E+00  0.00000000E+00
  0.00000000E+00  0.00000000E+00  0.00000000E+00
  0.00000000E+00  0.00000000E+00  0.00000000E+00
  0.00000000E+00  0.00000000E+00  0.00000000E+00
  0.00000000E+00  0.00000000E+00  0.00000000E+00
  0.00000000E+00  0.00000000E+00  0.00000000E+00
  0.00000000E+00  0.00000000E+00  0.00000000E+00
  0.00000000E+00  0.00000000E+00  0.00000000E+00
  0.00000000E+00  0.00000000E+00  0.00000000E+00
  0.00000000E+00  0.00000000E+00  0.00000000E+00
  0.00000000E+00  0.00000000E+00  0.00000000E+00
  0.00000000E+00  0.00000000E+00  0.00000000E+00
  0.00000000E+00  0.00000000E+00  0.00000000E+00
  0.00000000E+00  0.00000000E+00  0.00000000E+00
  0.00000000E+00  0.00000000E+00  0.00000000E+00
  0.00000000E+00  0.00000000E+00  0.00000000E+00
  0.00000000E+00  0.00000000E+00  0.00000000E+00
  0.00000000E+00  0.00000000E+00  0.00000000E+00
  0.00000000E+00  0.00000000E+00  0.00000000E+00
  0.00000000E+00  0.00000000E+00  0.00000000E+00
  0.00000000E+00  0.00000000E+00  0.00000000E+00
  0.00000000E+00  0.00000000E+00  0.00000000E+00
  0.00000000E+00  0.00000000E+00  0.00000000E+00
  0.00000000E+00  0.00000000E+00  0.00000000E+00
  0.00000000E+00  0.00000000E+00  0.00000000E+00
  0.00000000E+00  0.00000000E+00  0.00000000E+00
  0.00000000E+00  0.00000000E+00  0.00000000E+00
  0.00000000E+00  0.00000000E+00  0.00000000E+00
  0.00000000E+00  0.00000000E+00  0.00000000E+00
  0.00000000E+00  0.00000000E+00  0.00000000E+00
  0.00000000E+00  0.00000000E+00  0.00000000E+00
  0.00000000E+00  0.00000000E+00  0.00000000E+00
  0.00000000E+00  0.00000000E+00  0.00000000E+00
  0.00000000E+00  0.00000000E+00  0.00000000E+00
  0.00000000E+00  0.00000000E+00  0.00000000E+00
  0.00000000E+00  0.00000000E+00  0.00000000E+00
  0.00000000E+00  0.00000000E+00  0.00000000E+00
  0.00000000E+00  0.00000000E+00  0.00000000E+00
  0.00000000E+00  0.00000000E+00  0.00000000E+00
  0.00000000E+00  0.00000000E+00  0.00000000E+00
  0.00000000E+00  0.00000000E+00  0.00000000E+00
  0.00000000E+00  0.00000000E+00  0.00000000E+00
  0.00000000E+00  0.00000000E+00  0.00000000E+00
  0.00000000E+00  0.00000000E+00  0.00000000E+00
