System=Ru slab
ISTART =0
ICHARG=2
ENCUT=400
ISMEAR=0
#SIGMA=0.1
ISIF=2
PREC= Normal
ISPIN=2
NSW=1000
IBRION=2
LREAL=Auto
SYMPREC = 0.001
NPAR=8
IVDW=11
