Cu	N	Ru	Ta                              
   1.00000000000000     
    18.1096308199999996    0.0000000000000000    0.0000000000000000
     0.0000000000000000   23.3551997799999995    0.0000000000000000
     0.0000000000000000    0.0000000000000000   30.4818171199999988
   Cu   N    Ru   Ta
     4   240    48   192
Selective dynamics
Direct
  0.5938517882828445  0.4421967753154353  0.5738264754885081   T   T   T
  0.0924232584384456  0.0726439072982049  0.5764036076569699   T   T   T
  0.4217548131093320  0.4394063714560787  0.5835718529706132   T   T   T
  0.5171766296410365  0.5741701802623039  0.6053885404058815   T   T   T
  0.0000000000000000  0.0000000000000000  0.3032267788896164   F   F   F
  0.0000000000000000  0.5000000000000000  0.3032267788896164   F   F   F
  0.0000000000000000  0.6249999998929567  0.3032267788896164   F   F   F
  0.0000000000000000  0.7500000002140865  0.3032267788896164   F   F   F
  0.0000000000000000  0.8750000001070433  0.3032267788896164   F   F   F
  0.0000000000000000  0.1249999998929567  0.3032267788896164   F   F   F
  0.0000000000000000  0.2500000002140865  0.3032267788896164   F   F   F
  0.0000000000000000  0.3750000001070433  0.3032267788896164   F   F   F
  0.9982856516088124  0.8752150698096842  0.4729702542224545   T   T   T
  0.9982002493237159  0.6257389420411804  0.4700074712938235   T   T   T
  0.9980570432482261  0.2512469556975070  0.4726253657585061   T   T   T
  0.0002821627692717  0.0003508039641974  0.4745280245316568   T   T   T
  0.9999026579205812  0.1259169022729979  0.4755011565845469   T   T   T
  0.0002022456438341  0.5003879127081697  0.4723061537879031   T   T   T
  0.0019325398887818  0.7479847567051759  0.4745297398053914   T   T   T
  0.0021519138506904  0.3733315546532722  0.4742786785741510   T   T   T
  0.0243452110742129  0.2925281693108756  0.5646143181875015   T   T   T
  0.0351659116323545  0.6475236665288459  0.5595033891938771   T   T   T
  0.0464300747243436  0.8477823719323343  0.5789318632997209   T   T   T
  0.5905998682323156  0.9778837771254804  0.5633366067016156   T   T   T
  0.5941133989389655  0.0000000000000000  0.2322132027803434   F   F   F
  0.5941133989389655  0.5000000000000000  0.2322132027803434   F   F   F
  0.5941133989389655  0.6249999998929567  0.2322132027803434   F   F   F
  0.5941133989389655  0.7500000002140865  0.2322132027803434   F   F   F
  0.5941133989389655  0.8750000001070433  0.2322132027803434   F   F   F
  0.5941133989389655  0.1249999998929567  0.2322132027803434   F   F   F
  0.5941133989389655  0.2500000002140865  0.2322132027803434   F   F   F
  0.5941133989389655  0.3750000001070433  0.2322132027803434   F   F   F
  0.5935194419236340  0.5229241499291374  0.5701502214957874   T   T   T
  0.5964746142757702  0.3616793545326384  0.5719934726019430   T   T   T
  0.5960831334012247  0.1230703198851522  0.5669984594627727   T   T   T
  0.5985399302016424  0.9998075542577476  0.4017625634048496   T   T   T
  0.5984965107762641  0.2501577633355285  0.4026455652980405   T   T   T
  0.5984688074408507  0.1258286615748632  0.4020207252425588   T   T   T
  0.5987098131962031  0.8747850586773545  0.4017840072086749   T   T   T
  0.5991402570947300  0.6248912689545082  0.4024887679818698   T   T   T
  0.5995665025616713  0.7499183233796051  0.4027508728569214   T   T   T
  0.5996660177387669  0.3749094708908840  0.4028632242866765   T   T   T
  0.5998979488263019  0.4994860511535550  0.4022919063136170   T   T   T
  0.6035725388506655  0.7568611473528860  0.5701712849275868   T   T   T
  0.6462843541162214  0.8765132929134134  0.4863030132875483   T   T   T
  0.6492762332572604  0.6230381244834668  0.4866817470414899   T   T   T
  0.6503454736062511  0.2504965262767397  0.4861075400676021   T   T   T
  0.6507709961790971  0.1242958883319688  0.4852386459064468   T   T   T
  0.6508938736994075  0.0001018815158723  0.4857536398814952   T   T   T
  0.6515041028096896  0.7493569637788120  0.4874623139081547   T   T   T
  0.6545990963497701  0.0000000000000000  0.3156671842141137   F   F   F
  0.6545990963497701  0.5000000000000000  0.3156671842141137   F   F   F
  0.6545990963497701  0.6249999998929567  0.3156671842141137   F   F   F
  0.6545990963497701  0.7500000002140865  0.3156671842141137   F   F   F
  0.6545990963497701  0.8750000001070433  0.3156671842141137   F   F   F
  0.6545990963497701  0.1249999998929567  0.3156671842141137   F   F   F
  0.6545990963497701  0.2500000002140865  0.3156671842141137   F   F   F
  0.6545990963497701  0.3750000001070433  0.3156671842141137   F   F   F
  0.6535699107083081  0.4977495598038645  0.4859682979577553   T   T   T
  0.6549605222855921  0.3769318482930515  0.4870105745583319   T   T   T
  0.6875876665595557  0.2437248200351430  0.5652348032985655   T   T   T
  0.6910940676137380  0.6328972415067851  0.5694921459808422   T   T   T
  0.7082407159314116  0.8673845471689230  0.5611623341120308   T   T   T
  0.7487879122678313  0.3691620122520682  0.5642435924678029   T   T   T
  0.7499999997239044  0.0000000000000000  0.1996562654398630   F   F   F
  0.7499999997239044  0.5000000000000000  0.1996562654398630   F   F   F
  0.7499999997239044  0.6249999998929567  0.1996562654398630   F   F   F
  0.7499999997239044  0.7500000002140865  0.1996562654398630   F   F   F
  0.7499999997239044  0.8750000001070433  0.1996562654398630   F   F   F
  0.7499999997239044  0.1249999998929567  0.1996562654398630   F   F   F
  0.7499999997239044  0.2500000002140865  0.1996562654398630   F   F   F
  0.7499999997239044  0.3750000001070433  0.1996562654398630   F   F   F
  0.7495310076428793  0.9998993114611270  0.3871746436697246   T   T   T
  0.7495749353617361  0.1249252952870571  0.3871351760929200   T   T   T
  0.7496804597772800  0.8748502393443337  0.3881403468023657   T   T   T
  0.7497182716343450  0.2497042142352342  0.3881102955092766   T   T   T
  0.7498720424298353  0.6251430999001313  0.3885688214854189   T   T   T
  0.7500807162321586  0.7499455451313334  0.3888413107267271   T   T   T
  0.7485986374366311  0.5083162371417094  0.5565496108667654   T   T   T
  0.7503166334767158  0.4998179149989567  0.3866114624431644   T   T   T
  0.7503462328832899  0.3747327782780312  0.3870316846883797   T   T   T
  0.7629020192201859  0.9885904363111422  0.5554167511495562   T   T   T
  0.7635424300924060  0.1265797989240197  0.5587251569509244   T   T   T
  0.7738715029899149  0.7523532157749846  0.5652638345319951   T   T   T
  0.8454009036502299  0.0000000000000000  0.3156671842141137   F   F   F
  0.8454009036502299  0.5000000000000000  0.3156671842141137   F   F   F
  0.8454009036502299  0.6249999998929567  0.3156671842141137   F   F   F
  0.8454009036502299  0.7500000002140865  0.3156671842141137   F   F   F
  0.8454009036502299  0.8750000001070433  0.3156671842141137   F   F   F
  0.8454009036502299  0.1249999998929567  0.3156671842141137   F   F   F
  0.8454009036502299  0.2500000002140865  0.3156671842141137   F   F   F
  0.8454009036502299  0.3750000001070433  0.3156671842141137   F   F   F
  0.8470734278883119  0.8777206327248808  0.4843746160126751   T   T   T
  0.8488807060421983  0.0010752048254364  0.4849109215380810   T   T   T
  0.8487847496389845  0.1210350134141550  0.4853635544768898   T   T   T
  0.8494481817476330  0.4966199634842550  0.4835660776622913   T   T   T
  0.8497347701787837  0.2459812716684539  0.4868642721202255   T   T   T
  0.8509332480458974  0.3753083990594293  0.4846259565562542   T   T   T
  0.8520595696028977  0.7507071592143532  0.4880851702191879   T   T   T
  0.8522068432764905  0.6207474816711934  0.4844281034988255   T   T   T
  0.0789389458151850  0.5226352148380301  0.5694143991745422   T   T   T
  0.8587917187285210  0.6263649620436262  0.5702714941687873   T   T   T
  0.8619430272569251  0.2523196321853881  0.5744162718876955   T   T   T
  0.8849571896764719  0.8636517481618969  0.5664983350681935   T   T   T
  0.9003583564014549  0.7506219208337662  0.4024548770455137   T   T   T
  0.9002570241730266  0.2497107858501796  0.4016263525958630   T   T   T
  0.9005481602196558  0.8744615131344869  0.4017115228321236   T   T   T
  0.9004077898695096  0.6251321014481325  0.4007864444795378   T   T   T
  0.9009638220052367  0.0006056370354908  0.4013882083822076   T   T   T
  0.9012575846051224  0.3742629075266004  0.4010415376024135   T   T   T
  0.9011294908528974  0.1241607997970728  0.4016267194538389   T   T   T
  0.9014049296077200  0.4993703557544396  0.4003957959767959   T   T   T
  0.9058866010610345  0.0000000000000000  0.2322132027803434   F   F   F
  0.9058866010610345  0.5000000000000000  0.2322132027803434   F   F   F
  0.9058866010610345  0.6249999998929567  0.2322132027803434   F   F   F
  0.9058866010610345  0.7500000002140865  0.2322132027803434   F   F   F
  0.9058866010610345  0.8750000001070433  0.2322132027803434   F   F   F
  0.9058866010610345  0.1249999998929567  0.2322132027803434   F   F   F
  0.9058866010610345  0.2500000002140865  0.2322132027803434   F   F   F
  0.9058866010610345  0.3750000001070433  0.2322132027803434   F   F   F
  0.8985452332873010  0.5026233364981595  0.5673941637839954   T   T   T
  0.0893369331121979  0.1528511049728148  0.5713889429948574   T   T   T
  0.9186454218317563  0.3799349049504276  0.5789643512238751   T   T   T
  0.9173622317410283  0.1398620746940178  0.5707706269779947   T   T   T
  0.9222906477323847  0.9817801084064274  0.5673102979532805   T   T   T
  0.9372738501125323  0.7457870503454602  0.5852569855710121   T   T   T
  0.0941133989389655  0.0000000000000000  0.2322132027803434   F   F   F
  0.0941133989389655  0.5000000000000000  0.2322132027803434   F   F   F
  0.0941133989389655  0.6249999998929567  0.2322132027803434   F   F   F
  0.0941133989389655  0.7500000002140865  0.2322132027803434   F   F   F
  0.0941133989389655  0.8750000001070433  0.2322132027803434   F   F   F
  0.0941133989389655  0.1249999998929567  0.2322132027803434   F   F   F
  0.0941133989389655  0.2500000002140865  0.2322132027803434   F   F   F
  0.0941133989389655  0.3750000001070433  0.2322132027803434   F   F   F
  0.0945208343215651  0.9929838334776693  0.5728486577360857   T   T   T
  0.0986745591066994  0.8755363394218212  0.4021294007112866   T   T   T
  0.0988521252420818  0.0009015206678313  0.4024324399436322   T   T   T
  0.0987110109019756  0.2501264981335370  0.4018024927361348   T   T   T
  0.0988046050717937  0.1247614533602292  0.4024953136123108   T   T   T
  0.0994498410401318  0.7506078969290120  0.4019582389900187   T   T   T
  0.0998940925441553  0.3746113973038414  0.4020943969079003   T   T   T
  0.0997645395567196  0.6251679649428609  0.4021997685869619   T   T   T
  0.1000864624330448  0.5002836651576790  0.4019476333239877   T   T   T
  0.1077495704868422  0.3856488434638974  0.5694235564816633   T   T   T
  0.1137858514050436  0.7428707458154241  0.5691404926092275   T   T   T
  0.1467135891943042  0.6272698141810374  0.4872581290483539   T   T   T
  0.1482282345453739  0.8775018290982393  0.4861616712529701   T   T   T
  0.1484400276779083  0.2493530218938401  0.4846849267696011   T   T   T
  0.1511777751986661  0.0026075066003500  0.4859977500914056   T   T   T
  0.1508441208229836  0.4994934907876001  0.4853307086853290   T   T   T
  0.1515932573911212  0.3750056009613510  0.4859177366987043   T   T   T
  0.1522804299705941  0.7523701322871313  0.4860959808838499   T   T   T
  0.1545990963497701  0.0000000000000000  0.3156671842141137   F   F   F
  0.1545990963497701  0.5000000000000000  0.3156671842141137   F   F   F
  0.1545990963497701  0.6249999998929567  0.3156671842141137   F   F   F
  0.1545990963497701  0.7500000002140865  0.3156671842141137   F   F   F
  0.1545990963497701  0.8750000001070433  0.3156671842141137   F   F   F
  0.1545990963497701  0.1249999998929567  0.3156671842141137   F   F   F
  0.1545990963497701  0.2500000002140865  0.3156671842141137   F   F   F
  0.1545990963497701  0.3750000001070433  0.3156671842141137   F   F   F
  0.1529724634442158  0.1251342276350708  0.4866174577376811   T   T   T
  0.1858129993296965  0.2658343757013142  0.5639683997273403   T   T   T
  0.1880553776092656  0.8763350220147873  0.5695778338494168   T   T   T
  0.2082234934850831  0.6290137479188040  0.5646001239844365   T   T   T
  0.2452139462108887  0.0038900543054900  0.5598292657858159   T   T   T
  0.2499999997239044  0.0000000000000000  0.1996562654398630   F   F   F
  0.2499999997239044  0.5000000000000000  0.1996562654398630   F   F   F
  0.2499999997239044  0.6249999998929567  0.1996562654398630   F   F   F
  0.2499999997239044  0.7500000002140865  0.1996562654398630   F   F   F
  0.2499999997239044  0.8750000001070433  0.1996562654398630   F   F   F
  0.2499999997239044  0.1249999998929567  0.1996562654398630   F   F   F
  0.2499999997239044  0.2500000002140865  0.1996562654398630   F   F   F
  0.2499999997239044  0.3750000001070433  0.1996562654398630   F   F   F
  0.2496815200242553  0.8751575958753289  0.3889247737062134   T   T   T
  0.2498532277726844  0.0002271975554903  0.3876472310761261   T   T   T
  0.2500004927630460  0.2503982969847656  0.3873578710757208   T   T   T
  0.2501626091940449  0.1252185675664110  0.3868886051314946   T   T   T
  0.2500930635742357  0.7502026822993970  0.3883622354958240   T   T   T
  0.2500295454691772  0.6250626449289544  0.3883446477046476   T   T   T
  0.2502426274322306  0.3754300265697975  0.3871696473107650   T   T   T
  0.2502157815807775  0.5002115910993666  0.3881524574620607   T   T   T
  0.2513054363862360  0.1448665832832343  0.5572143033996508   T   T   T
  0.2689897552131342  0.5149120051850653  0.5497148761405942   T   T   T
  0.2714088951104328  0.7591421196859917  0.5623032790727027   T   T   T
  0.2786101112732250  0.3731401298430711  0.5662663423721895   T   T   T
  0.3454009036502299  0.0000000000000000  0.3156671842141137   F   F   F
  0.3454009036502299  0.5000000000000000  0.3156671842141137   F   F   F
  0.3454009036502299  0.6249999998929567  0.3156671842141137   F   F   F
  0.3454009036502299  0.7500000002140865  0.3156671842141137   F   F   F
  0.3454009036502299  0.8750000001070433  0.3156671842141137   F   F   F
  0.3454009036502299  0.1249999998929567  0.3156671842141137   F   F   F
  0.3454009036502299  0.2500000002140865  0.3156671842141137   F   F   F
  0.3454009036502299  0.3750000001070433  0.3156671842141137   F   F   F
  0.3469250993569486  0.2549862922411016  0.4856259630501877   T   T   T
  0.3477519456087189  0.9988853645272179  0.4870555135408447   T   T   T
  0.3485798658713614  0.1279029818759619  0.4878424333576175   T   T   T
  0.3486719391440286  0.3786995384770148  0.4854815860827821   T   T   T
  0.3500531041208205  0.6221265192640030  0.4842511821160396   T   T   T
  0.3509838953932187  0.8869224811403561  0.5758738412651895   T   T   T
  0.3520994022776646  0.7475716838802731  0.4870268919301763   T   T   T
  0.3521680555257333  0.4967216718339182  0.4841725226236269   T   T   T
  0.3525180649539977  0.8725422165938389  0.4846563860468250   T   T   T
  0.3715049930629040  0.2463474148621162  0.5698191611549843   T   T   T
  0.3713871866119114  0.6420329161726208  0.5669504433887240   T   T   T
  0.3996474486282632  0.8747335968131126  0.4008939485053456   T   T   T
  0.3997201449264207  0.0004028745424608  0.4020307109690902   T   T   T
  0.4002143494348252  0.1260184774610747  0.4028703593254376   T   T   T
  0.4007144893595883  0.2503707373307008  0.4022020591889810   T   T   T
  0.4007467152567152  0.7489803078404641  0.4019010430101746   T   T   T
  0.4011327761500150  0.6244575341854549  0.4014979563209153   T   T   T
  0.4019138952876493  0.3753341746850829  0.4016226444572480   T   T   T
  0.4020148529592722  0.4994753812079804  0.4012402194585549   T   T   T
  0.4058866010610345  0.0000000000000000  0.2322132027803434   F   F   F
  0.4058866010610345  0.5000000000000000  0.2322132027803434   F   F   F
  0.4058866010610345  0.6249999998929567  0.2322132027803434   F   F   F
  0.4058866010610345  0.7500000002140865  0.2322132027803434   F   F   F
  0.4058866010610345  0.8750000001070433  0.2322132027803434   F   F   F
  0.4058866010610345  0.1249999998929567  0.2322132027803434   F   F   F
  0.4058866010610345  0.2500000002140865  0.2322132027803434   F   F   F
  0.4058866010610345  0.3750000001070433  0.2322132027803434   F   F   F
  0.4168575474417323  0.0026071179452685  0.5767487939235316   T   T   T
  0.4175068868999978  0.1214795855469211  0.5774835025085593   T   T   T
  0.4202631167625041  0.3634109158165493  0.5701391022435001   T   T   T
  0.4319523186872514  0.7521925030849673  0.5896348068122071   T   T   T
  0.4407769606599534  0.5156993557157410  0.5888312916838713   T   T   T
  0.4972212500332509  0.8745150845782922  0.4706143901910971   T   T   T
  0.5000000000000000  0.0000000000000000  0.3032267788896164   F   F   F
  0.5000000000000000  0.5000000000000000  0.3032267788896164   F   F   F
  0.5000000000000000  0.6249999998929567  0.3032267788896164   F   F   F
  0.5000000000000000  0.7500000002140865  0.3032267788896164   F   F   F
  0.5000000000000000  0.8750000001070433  0.3032267788896164   F   F   F
  0.5000000000000000  0.1249999998929567  0.3032267788896164   F   F   F
  0.5000000000000000  0.2500000002140865  0.3032267788896164   F   F   F
  0.5000000000000000  0.3750000001070433  0.3032267788896164   F   F   F
  0.4986886254803292  0.9987197575659139  0.4729464890019069   T   T   T
  0.4989135529801470  0.2495600162237188  0.4752566057872777   T   T   T
  0.4990088851729097  0.6240662411446083  0.4725377851285330   T   T   T
  0.4997444558401182  0.1261498732199097  0.4733236903867375   T   T   T
  0.5013753179166076  0.4998008048734180  0.4728235089854088   T   T   T
  0.5020896723441357  0.3744881654425489  0.4753138852849651   T   T   T
  0.5022499475770491  0.7520332440983430  0.4752753639310610   T   T   T
  0.5133728052851700  0.8460057756829302  0.5589635953751360   T   T   T
  0.5246100982145903  0.2378266677029681  0.5927898385094247   T   T   T
  0.5382839274209325  0.6443496116463158  0.5772264339577841   T   T   T
  0.0007035152294161  0.1529809892483011  0.5426640055395475   T   T   T
  0.0099555565338181  0.9781820643885136  0.5423373533292909   T   T   T
  0.0077948726117530  0.3703360398076558  0.5449999711523783   T   T   T
  0.0141648891140727  0.7320962344823300  0.5470194089889379   T   T   T
  0.6131093215136597  0.0511960408021300  0.5392823245809127   T   T   T
  0.6148008003048973  0.6843883387019234  0.5466228597381230   T   T   T
  0.6720546742939306  0.3116996411543572  0.5383790602723304   T   T   T
  0.6742196584373049  0.5622969042921699  0.5375917122867512   T   T   T
  0.6821136902224880  0.1729297428178475  0.5403130405986115   T   T   T
  0.6874743460367598  0.9373783656522863  0.5361530511656063   T   T   T
  0.6939667099412420  0.7962187796698023  0.5420627858660488   T   T   T
  0.7168443928128824  0.4368304563687382  0.5345504971118951   T   T   T
  0.7758477608298305  0.6723194005509369  0.5550243690886062   T   T   T
  0.7989997205748701  0.0581267739140023  0.5336810137990039   T   T   T
  0.8310029808866987  0.5591072015774148  0.5359099416897155   T   T   T
  0.8364751330524015  0.3288758315909496  0.5726854331239657   T   T   T
  0.8436687500099336  0.1807371032651977  0.5370412922910458   T   T   T
  0.8519353649018534  0.9355779792010874  0.5355534877988813   T   T   T
  0.8732051624496212  0.7844847996233578  0.5508014084497154   T   T   T
  0.8744422619196430  0.4313149735421394  0.5374604323651307   T   T   T
  0.9453785655090323  0.6301519894566017  0.5333218815197547   T   T   T
  0.9472168374052352  0.2654643674187838  0.5363182236178802   T   T   T
  0.9804421762648688  0.8655659747702885  0.5396478226384487   T   T   T
  0.9883300266809190  0.5108549516571259  0.5392104714262765   T   T   T
  0.1128571382172265  0.5961012142791327  0.5474262142489728   T   T   T
  0.1189544094298007  0.4555848866208876  0.5411006773150693   T   T   T
  0.1229250008212607  0.8158465047234487  0.5426931636717586   T   T   T
  0.1654677333454489  0.1963269796535650  0.5368242232682161   T   T   T
  0.1709145821750423  0.9469992232033109  0.5402114812602264   T   T   T
  0.1909803306350372  0.3388538096030821  0.5450172932546317   T   T   T
  0.1998777778540321  0.7042931033386358  0.5415252530169425   T   T   T
  0.2147343558096314  0.0746746767443294  0.5351037992611594   T   T   T
  0.2734504860118398  0.8400188507743194  0.5509522695582540   T   T   T
  0.2931144596030906  0.5897738056200947  0.5416336162664713   T   T   T
  0.2996655670955273  0.4432648396655695  0.5317497022001916   T   T   T
  0.3322298526530088  0.9594993012292812  0.5508339750924428   T   T   T
  0.3503137417834040  0.3169556972774262  0.5372482882105204   T   T   T
  0.3517671330640899  0.1738112520225632  0.5489663414541501   T   T   T
  0.3645618160844532  0.7213926877411275  0.5525375157090304   T   T   T
  0.3761025105079345  0.0628896434415922  0.5378688085964234   T   T   T
  0.4331635635462362  0.8753648897409431  0.5341276323501402   T   T   T
  0.4640404381318194  0.6324820946200012  0.5378051520940997   T   T   T
  0.4756881510681470  0.2444641283138136  0.5477719241931885   T   T   T
  0.4950233309085521  0.9882782537025593  0.5399937931100623   T   T   T
  0.4986377015943413  0.5154883725769714  0.5399736404019824   T   T   T
  0.5019541104292475  0.1289645338364196  0.5408451357213376   T   T   T
  0.5031032157977793  0.7680523162316129  0.5482126502034377   T   T   T
  0.5102607368557401  0.3541403269574595  0.5430204030142244   T   T   T
  0.0000000000000000  0.0000000000000000  0.1972002481458333   F   F   F
  0.0000000000000000  0.5000000000000000  0.1972002481458333   F   F   F
  0.0000000000000000  0.6249999998929567  0.1972002481458333   F   F   F
  0.0000000000000000  0.7500000002140865  0.1972002481458333   F   F   F
  0.0000000000000000  0.8750000001070433  0.1972002481458333   F   F   F
  0.0000000000000000  0.1249999998929567  0.1972002481458333   F   F   F
  0.0000000000000000  0.2500000002140865  0.1972002481458333   F   F   F
  0.0000000000000000  0.3750000001070433  0.1972002481458333   F   F   F
  0.9996333810368759  0.8750086845302338  0.3698084244706187   T   T   T
  0.9996108739191316  0.7502796495826189  0.3700793663188300   T   T   T
  0.9996785865996051  0.2499544543677220  0.3697157760884297   T   T   T
  0.0002020062561381  0.0000337045392460  0.3696762467768008   T   T   T
  0.0001402813095527  0.1250121481336607  0.3696745127444144   T   T   T
  0.0007370149465411  0.3747588516558354  0.3697460828206985   T   T   T
  0.0002982248368848  0.6251095286274571  0.3698853303418532   T   T   T
  0.0011661325810712  0.5000052422325875  0.3695572758755611   T   T   T
  0.5825346300460907  0.4375000002676046  0.2838671249793236   F   F   F
  0.5825346300460907  0.5625000001605613  0.2838671249793236   F   F   F
  0.5825346300460907  0.0625000001605613  0.2838671249793236   F   F   F
  0.5825346300460907  0.6875000000535181  0.2838671249793236   F   F   F
  0.5825346300460907  0.8124999999464819  0.2838671249793236   F   F   F
  0.5825346300460907  0.9375000002676046  0.2838671249793236   F   F   F
  0.5825346300460907  0.1875000000535181  0.2838671249793236   F   F   F
  0.5825346300460907  0.3124999999464819  0.2838671249793236   F   F   F
  0.5823747231777324  0.9372984248513250  0.4537563243454443   T   T   T
  0.5825904291757842  0.0624641605037520  0.4536698624247461   T   T   T
  0.5832401253272356  0.1879980822124774  0.4551078413267768   T   T   T
  0.5833934320045971  0.6873973703943812  0.4555120388320150   T   T   T
  0.5846111490345069  0.3127559644255639  0.4555644466679353   T   T   T
  0.5847168715368795  0.8129034522241959  0.4548033688382149   T   T   T
  0.5852221514856230  0.4371482159622520  0.4553857970807018   T   T   T
  0.5853307116825307  0.5617455142535042  0.4546199819888849   T   T   T
  0.6657105641648826  0.4375000002676046  0.2025710526275901   F   F   F
  0.6657105641648826  0.5625000001605613  0.2025710526275901   F   F   F
  0.6657105641648826  0.0625000001605613  0.2025710526275901   F   F   F
  0.6657105641648826  0.6875000000535181  0.2025710526275901   F   F   F
  0.6657105641648826  0.8124999999464819  0.2025710526275901   F   F   F
  0.6657105641648826  0.9375000002676046  0.2025710526275901   F   F   F
  0.6657105641648826  0.1875000000535181  0.2025710526275901   F   F   F
  0.6657105641648826  0.3124999999464819  0.2025710526275901   F   F   F
  0.6670739083828845  0.0626127498093772  0.3680632737304830   T   T   T
  0.6673862649613369  0.9373470697695628  0.3683307341314691   T   T   T
  0.6672728600972423  0.1875909707543347  0.3685564452646550   T   T   T
  0.6677502179890258  0.8123097552931190  0.3685814063268368   T   T   T
  0.6675191126442965  0.3123819086650372  0.3687118692819722   T   T   T
  0.6679148248478336  0.6874823447343642  0.3687240232489411   T   T   T
  0.6678539036699515  0.5625408610370269  0.3683999744443553   T   T   T
  0.6677759583137733  0.4372838210776421  0.3683500961312896   T   T   T
  0.7469591221588862  0.8739292667489751  0.4564325846979997   T   T   T
  0.7499999997239044  0.0000000000000000  0.2777865629422820   F   F   F
  0.7499999997239044  0.5000000000000000  0.2777865629422820   F   F   F
  0.7499999997239044  0.6249999998929567  0.2777865629422820   F   F   F
  0.7499999997239044  0.7500000002140865  0.2777865629422820   F   F   F
  0.7499999997239044  0.8750000001070433  0.2777865629422820   F   F   F
  0.7499999997239044  0.1249999998929567  0.2777865629422820   F   F   F
  0.7499999997239044  0.2500000002140865  0.2777865629422820   F   F   F
  0.7499999997239044  0.3750000001070433  0.2777865629422820   F   F   F
  0.7491380633948971  0.9997974332883690  0.4549427331569505   T   T   T
  0.7497333140908684  0.1241350710878175  0.4548593587078033   T   T   T
  0.7501843517629276  0.2492279650345322  0.4565621537044257   T   T   T
  0.7502864480501711  0.6248387930116168  0.4573912416508965   T   T   T
  0.7506650207369381  0.4997874257468876  0.4540159270515009   T   T   T
  0.7517164128589664  0.7496758689424114  0.4580263991296850   T   T   T
  0.7518300358187568  0.3740388323861604  0.4549510943780942   T   T   T
  0.0825346300460907  0.4375000002676046  0.2838671249793236   F   F   F
  0.0825346300460907  0.5625000001605613  0.2838671249793236   F   F   F
  0.0825346300460907  0.0625000001605613  0.2838671249793236   F   F   F
  0.0825346300460907  0.6875000000535181  0.2838671249793236   F   F   F
  0.0825346300460907  0.8124999999464819  0.2838671249793236   F   F   F
  0.0825346300460907  0.9375000002676046  0.2838671249793236   F   F   F
  0.0825346300460907  0.1875000000535181  0.2838671249793236   F   F   F
  0.0825346300460907  0.3124999999464819  0.2838671249793236   F   F   F
  0.8318553389246246  0.8124477536674026  0.3684745727653553   T   T   T
  0.8317137217013865  0.6876748947429173  0.3683998828704083   T   T   T
  0.8318753507241893  0.0624463478729126  0.3680440264094352   T   T   T
  0.8319937371220765  0.9374095721555390  0.3680063231087443   T   T   T
  0.8321358714792767  0.1873752858651847  0.3682467893931544   T   T   T
  0.8321217022528460  0.3122061644042324  0.3680995799460184   T   T   T
  0.8322940510524418  0.5625587272819513  0.3677730183859634   T   T   T
  0.8342894060167296  0.4375000002676046  0.2025710526275901   F   F   F
  0.8342894060167296  0.5625000001605613  0.2025710526275901   F   F   F
  0.8342894060167296  0.0625000001605613  0.2025710526275901   F   F   F
  0.8342894060167296  0.6875000000535181  0.2025710526275901   F   F   F
  0.8342894060167296  0.8124999999464819  0.2025710526275901   F   F   F
  0.8342894060167296  0.9375000002676046  0.2025710526275901   F   F   F
  0.8342894060167296  0.1875000000535181  0.2025710526275901   F   F   F
  0.8342894060167296  0.3124999999464819  0.2025710526275901   F   F   F
  0.8326925337950862  0.4372244716423493  0.3675981836397218   T   T   T
  0.0828688219477799  0.8134689991432653  0.4545604052549345   T   T   T
  0.0832797048205450  0.9388379145505539  0.4546626510155951   T   T   T
  0.0833878323797408  0.0634671103301928  0.4555186116595816   T   T   T
  0.0835065196563970  0.1876514279940830  0.4543871740365006   T   T   T
  0.0843181269449625  0.3125512659827205  0.4544773312924726   T   T   T
  0.0845054331769611  0.4375711191650363  0.4543338978005941   T   T   T
  0.0844630414692568  0.6888360640468908  0.4538804044953269   T   T   T
  0.0848055980544413  0.5626359459828929  0.4553002329073138   T   T   T
  0.9145412752751924  0.3117833560848645  0.4545666557740513   T   T   T
  0.9153126536445323  0.9378466348982326  0.4528907392813484   T   T   T
  0.9153521626479941  0.8125571424147098  0.4557017828699696   T   T   T
  0.9174653699539093  0.4375000002676046  0.2838671249793236   F   F   F
  0.9174653699539093  0.5625000001605613  0.2838671249793236   F   F   F
  0.9174653699539093  0.0625000001605613  0.2838671249793236   F   F   F
  0.9174653699539093  0.6875000000535181  0.2838671249793236   F   F   F
  0.9174653699539093  0.8124999999464819  0.2838671249793236   F   F   F
  0.9174653699539093  0.9375000002676046  0.2838671249793236   F   F   F
  0.9174653699539093  0.1875000000535181  0.2838671249793236   F   F   F
  0.9174653699539093  0.3124999999464819  0.2838671249793236   F   F   F
  0.9160261773243109  0.6873606317280386  0.4543208446723132   T   T   T
  0.9158018427477114  0.1864001262275752  0.4535503827451491   T   T   T
  0.9170788517918869  0.0622024308502264  0.4540816320788955   T   T   T
  0.9175757682993162  0.4361815727864248  0.4528420329958350   T   T   T
  0.9178239810385407  0.5609850542333739  0.4521573892056953   T   T   T
  0.1657105641648826  0.4375000002676046  0.2025710526275901   F   F   F
  0.1657105641648826  0.5625000001605613  0.2025710526275901   F   F   F