Ta N Cu Ru                              
   1.00000000000000     
    18.1096308199999996    0.0000000000000000    0.0000000000000000
     0.0000000000000000   11.6775998899999998    0.0000000000000000
     0.0000000000000000    0.0000000000000000   23.4818170799999990
   Ta   N    Cu   Ru
   119   120     2     1
Direct
  0.0002891699308788  0.0003844322046906  0.2553511064318247
  0.3331897153467914  0.1255786381031476  0.2639641863797550
  0.1662739070222702  0.1256483182172830  0.2640714558117633
  0.2495607391883970  0.2503862675185922  0.3614559179206221
  0.0823132711508040  0.1254190217474303  0.3688129062738488
  0.4170651071726673  0.1254315076300880  0.3685782868363409
 -0.0001646321902038  0.2506296527936468  0.4803548864112197
  0.3320879919357323  0.1253260169341130  0.4783986564802992
  0.1675698818116949  0.1254724305910843  0.4785052411608410
  0.2498000623056240  0.2508764253457492  0.5915548426836447
  0.0833439806235188  0.1255695736979434  0.5904743111641618
  0.4161507217351717  0.1260011476147871  0.5892150859156151
 -0.0013686297061211  0.2500486969546240  0.7018422298466571
  0.3333707909754093  0.1268532279664145  0.7022437789167745
  0.1673011492412305  0.1258046102739048  0.7022695305955132
 -0.0000516163326011  0.2505154114540967  0.2553492181588322
  0.3331647479613342  0.3752882621719301  0.2639835594216842
  0.1662929572444681  0.3751513345984757  0.2640921765666761
  0.2496797059132980  0.5004527890335181  0.3615913326284832
  0.0822821342053650  0.3753739300427559  0.3688183229373232
  0.4170864079058560  0.3755099702852202  0.3686195426214852
 -0.0001247783716855  0.5006479854519903  0.4801824249482108
  0.3320707139867093  0.3755491567191721  0.4784712084800910
  0.1676937263875664  0.3754736995337236  0.4785420975065006
  0.2501025473719227  0.5003245211087816  0.5914090836223737
  0.0834993945080000  0.3758487403051998  0.5903132611196693
  0.4160507819459868  0.3748626683171533  0.5893780558973311
 -0.0001456736775060  0.5004022297999532  0.7021084435546493
  0.3348611973614198  0.3764253463733031  0.7040674914786739
  0.1647786290729182  0.3772682613263437  0.7047398803259572
  0.0002772320619279  0.5006926031234314  0.2552487477751079
  0.3334551397470636  0.6257047373022692  0.2638639242271883
  0.1659271819809579  0.6256463162860979  0.2640423618479238
  0.2497702067047845  0.7503858745143074  0.3615123766356854
  0.0824107036020624  0.6254175666483519  0.3689149750206841
  0.4170490368321896  0.6255156796759159  0.3686840273115693
 -0.0000767708968789  0.7505335924760858  0.4801482178706413
  0.3322980928026258  0.6255326676547674  0.4785452150876758
  0.1675018842293358  0.6255356100830005  0.4785618751490707
  0.2502174447195544  0.7505563580218871  0.5915802272465988
  0.0835441673267913  0.6257087760512130  0.5902646882260485
  0.4164663487772196  0.6252385316667962  0.5903850792407199
 -0.0000969069713751  0.7508885688509774  0.7022112050871768
  0.3361922244923150  0.6254015914172437  0.7044285485974500
  0.1644135883879032  0.6256579292048566  0.7044216557458262
 -0.0000852844830584  0.7504525243751931  0.2552330589743480
  0.3333905600518506  0.8751272248899952  0.2639507394056897
  0.1659207469100998  0.8751158347177441  0.2640860985520576
  0.2496271945360437  0.0004479688959224  0.3615948194205987
  0.0824017217104570  0.8753853791220816  0.3689551269063922
  0.4170698302684207  0.8753791571208546  0.3687059337275876
 -0.0001045203482879  0.0003659456882161  0.4802526501501126
  0.3321803801370155  0.8753816591665124  0.4786427905629151
  0.1675339663608116  0.8755010793112621  0.4787767543525976
  0.2502897212726165  0.0008164331133790  0.5919025809545122
  0.0835615113604855  0.8755090170228055  0.5903195337533546
  0.4165092328973224  0.8753457258418923  0.5902873370985625
 -0.0011220145656889  0.0016312575835934  0.7018421674210309
  0.3356999311723087  0.8743719170476978  0.7050816388937758
  0.1651885707869206  0.8745381686215846  0.7049001523926141
  0.4991865700336162  0.0002360940096940  0.2549817089101798
  0.8331024355905297  0.1251669510919762  0.2638594317489164
  0.6665003811294306  0.1251520167640943  0.2637470072959300
  0.7499893313617890  0.2505175900057703  0.3611528103190424
  0.5822083171659923  0.1254560630513534  0.3681471861429548
  0.9174392385308804  0.1254781988393659  0.3684377300719958
  0.4996977128574000  0.2504180539646313  0.4794682017253104
  0.8319088020329063  0.1254726082484247  0.4777963436402708
  0.6675441101036396  0.1253145702505842  0.4776161966331695
  0.7497452911882342  0.2507139682424934  0.5906103007502118
  0.5840485319517272  0.1258468422118331  0.5885228458134776
  0.9158599145529616  0.1255502633425333  0.5898100558685554
  0.8342122265955448  0.1255063110713740  0.7033464419721331
  0.6644232089871460  0.1260927515874734  0.7028755599695008
  0.4995082038362753  0.2504292427782526  0.2549524809739478
  0.8331245369798727  0.3758236347501787  0.2638239087380188
  0.6665046582546835  0.3758217796107247  0.2637466326033729
  0.7498417739076396  0.5004811112717938  0.3610950464258187
  0.5821790151598408  0.3755683126903969  0.3681972410466279
  0.9174305727103241  0.3754717975056452  0.3684288914226232
  0.4996814140768125  0.5005942328366541  0.4797662857880909
  0.8318635256566768  0.3756047513387891  0.4778566154504652
  0.6674514312831484  0.3756273367423071  0.4777971787627239
  0.7494964956821960  0.5001938633069528  0.5909297390451456
  0.5838206831844993  0.3747947560768242  0.5888269764490830
  0.9158433134455282  0.3758142465323325  0.5897685184675744
  0.4999896188791565  0.4903299725675243  0.7034164734543931
  0.8348908266965618  0.3755315133344706  0.7037728530434709
  0.6647218402194129  0.3747719748365386  0.7033172537892238
  0.4991977151372642  0.5007054320802657  0.2549366315135492
  0.8335651714926177  0.6251853220021170  0.2638392375250630
  0.6660765313434834  0.6252242519405979  0.2636587238871690
  0.7497483888449974  0.7504732841153313  0.3613226257416455
  0.5821597714345356  0.6255481538301775  0.3683225178064147
  0.9173823464892292  0.6254885424142971  0.3685929987733841
  0.4997463687190055  0.7503872452209562  0.4800062998073870
  0.8320504279292623  0.6255227212208382  0.4780594896176908
  0.6672992361520966  0.6255400357990187  0.4780013231042751
  0.7495928413314876  0.7504033276386203  0.5909499047543266
  0.5833021359952725  0.6251739345060801  0.5900406509139059
  0.9159942899053748  0.6255971323739111  0.5897972721297043
  0.5000865254136304  0.7503520845419241  0.7025522524886240
  0.8346981108577102  0.6254194131378916  0.7042172888576803
  0.6640988512067127  0.6250995214091304  0.7043349362136753
  0.4995237591091976  0.7503920081673976  0.2549669399550262
  0.8335712886807138  0.8757909277821063  0.2638204090485482
  0.6661104982481328  0.8757285053735767  0.2636495982997192
  0.7499029874567000  0.0004483007608616  0.3610767751228213
  0.5821619634914926  0.8754147660637783  0.3683110160485865
  0.9173528554958018  0.8754538098884429  0.3686002208110469
  0.4997345704470201  0.0001929307142008  0.4797531294169722
  0.8320959116412614  0.8754851027631214  0.4780936230855661
  0.6673532365166543  0.8753809011645338  0.4779028751625642
  0.7494944643228094  0.0006898145543488  0.5908311208562688
  0.5834697953441201  0.8752973866488818  0.5898570776069332
  0.9157725279207144  0.8754868530146649  0.5897186663409926
  0.5015232576052507  0.0037482280855742  0.7018926841929429
  0.8347676646900659  0.8759335458731219  0.7038536521471572
  0.6642864168374600  0.8752781438473086  0.7040199698232037
  0.4061737636286454  0.0003309920960638  0.3015155167516285
  0.2496731119521612  0.0002354440873108  0.2588958317981301
  0.0933066244721468  0.0004386489679701  0.3017808650723876
  0.1543175261013898  0.2504101712951115  0.4104413719035164
 -0.0002211698869565  0.2504650853331748  0.3935704825173544
  0.3451250082425196  0.2504309978491795  0.4101792242247705
  0.4007020546527941  0.2504146930851917  0.5219053121125397
  0.2497224983855265  0.2502630061555745  0.5033452107424525
  0.0987862299997963  0.2506284033571912  0.5224633763170345
  0.1511510504457804  0.2516370132113825  0.6342264102964668
  0.9994383216104866  0.2508312669017184  0.6135043054238301
  0.3485208248101102  0.2512050973744191  0.6336473617465352
  0.4036447876454641  0.2556063681125673  0.7411284834675226
  0.2504317184218153  0.2498617615504659  0.7250204590142175
  0.0968802078250671  0.2524050322581110  0.7433176614580889
  0.4063799317905079  0.2504818790655491  0.3013810791264014
  0.2497748303631064  0.2503924678846846  0.2575095620673761
  0.0930374003571281  0.2504312369852948  0.3016739508305096
  0.1543496525924127  0.5003824493093965  0.4104422832853403
 -0.0001581594269997  0.5004635673183111  0.3934790845691879
  0.3452014760568261  0.5004582600388180  0.4102928213699854
  0.4009100231748027  0.5004648258750961  0.5224147498317389
  0.2498527201575674  0.5007937498132963  0.5033336620972598
  0.0988351862999956  0.5004832280985848  0.5224301757486669
  0.1517155333299949  0.5009782700289477  0.6335517895585280
  0.9996690982342209  0.5007512024326073  0.6135940512443065
  0.3487005393800677  0.5001712448949416  0.6337199076295048
  0.4031838144964316  0.4993008620654675  0.7410953320364254
  0.2499926662561456  0.4992876420053506  0.7243129553950667
  0.0970035879864363  0.5006669970806829  0.7407590081405279
  0.4062160698137049  0.5005674298172328  0.3015152321306729
  0.2496965029404347  0.5006169315835817  0.2589547461867526
  0.0932553094441753  0.5003587846889547  0.3017606426351027
  0.1544602157134311  0.7505504110686761  0.4104766825008676
 -0.0001993927906388  0.7504632234079875  0.3934943810987174
  0.3452021838553797  0.7505179157357011  0.4103621850022331
  0.4009442635625164  0.7504384017664323  0.5224501833516654
  0.2499417618562243  0.7503997715637112  0.5034218268454511
  0.0988762326085415  0.7506169161305288  0.5225179437170239
  0.1518198288057673  0.7506731899293456  0.6335732191395231
  0.9996587147291714  0.7507023503495445  0.6136157877311879
  0.3484932537024962  0.7508136501064847  0.6338609855658768
  0.4030970419828205  0.7503108403022449  0.7411419232621004
  0.2504600390373385  0.7523967148275126  0.7241260579677189
  0.0971891733340251  0.7507269156856899  0.7407797896895653
  0.4064538899635482  0.7504377964301495  0.3015683663986420
  0.2496398794472057  0.7503801097262488  0.2581524768658129
  0.0930095039535865  0.7504098435831703  0.3017760811577641
  0.1543935440130371  0.0004723865442138  0.4105350333033458
 -0.0001540494629333  0.0004238201722949  0.3935468855128976
  0.3451137165528825  0.0004218500682748  0.4103147846204270
  0.4009387881958507  0.0002376986241308  0.5223035997186963
  0.2498351470730283  0.0005615172130459  0.5036836582760471
  0.0988220185197296  0.0006146699813133  0.5225076639102333
  0.1513613671496963  0.9995591605122286  0.6341736679283357
  0.9994665601208937  0.0003518329073701  0.6135071989282835
  0.3494205961259542  0.0003091799681798  0.6343038122555666
  0.4046553182842952  0.0015615340957911  0.7434650052208418
  0.2506293618274684  0.0017626708748205  0.7247963665424240
  0.0970724605488672  0.9994622860757516  0.7433413792570667
  0.9067976919796750  0.0004694578459270  0.3012542854493974
  0.7498218630687670  0.0001787837479222  0.2567956280859595
  0.5927369044795732  0.0002859310807637  0.3009515511288116
  0.6542285925139359  0.2505415573310688  0.4095401575467990
  0.4997261662156316  0.2504588108535993  0.3929235828261653
  0.8453814950324023  0.2505326536058748  0.4098581393854358
  0.9006362524267881  0.2506483741069259  0.5219356680066785
  0.7498119933886129  0.2504885089441677  0.5024069893420400
  0.5990221057256032  0.2504438485221017  0.5213346840232105
  0.6515250050263952  0.2505746837997960  0.6326228165885782
  0.5000682617199718  0.2501639182018621  0.6122802408454125
  0.8477208497398617  0.2509251144203573  0.6331480532927830
  0.9025693489582081  0.2497377346815249  0.7402025740771498
  0.7489458700313691  0.2504465870914184  0.7242655817379410
  0.5953259999223054  0.2508295261755906  0.7379499989166141
  0.9065205516293970  0.2505137713348340  0.3012479478405682
  0.7497972250797228  0.2504965936307287  0.2575198933477549
  0.5930170082980275  0.2505114712095089  0.3009086308273722
  0.6541853196871339  0.5005497032083575  0.4097220823707567
  0.4996693815799448  0.5005480576386679  0.3931119784372354
  0.8452991111200130  0.5004890878649821  0.4099062886106704
  0.9007244883196790  0.5006044441456980  0.5219816943553527
  0.7497162421293322  0.5007252667705848  0.5027438794484721
  0.5986883747116616  0.5005599055211007  0.5219880730915579
  0.6509874677456384  0.5000290774452874  0.6332625886741994
  0.4999551957714385  0.4981977216394341  0.6145605789760882
  0.8477546901377058  0.5011445187379207  0.6330091836404321
  0.9030673725672645  0.5001559026547108  0.7400762861957204
  0.7497215594280128  0.5002619090658724  0.7239265712117655
  0.5964872845071250  0.4980295351184301  0.7408386442330613
  0.9068414232570773  0.5005225918258840  0.3012554391071965
  0.7498224001756065  0.5008029205369064  0.2568405936008178
  0.5927009684498582  0.5006486784203604  0.3009805422721979
  0.6541522188765421  0.7504495962741442  0.4098352107288710
  0.4997156038210693  0.7504456329722989  0.3932614034132513
  0.8452078802251127  0.7504918848889149  0.4099737760395671
  0.9007243151481170  0.7504496670728518  0.5220440542437922
  0.7496566823623142  0.7504816314983039  0.5027605638291822
  0.5987413203570116  0.7503193642952904  0.5220260956921600
  0.6514875573694896  0.7502341801365797  0.6333190737815233
  0.4999911636944300  0.7500514714642910  0.6138701348587869
  0.8476933747889459  0.7502588433514469  0.6330146731195013
  0.9030798078143953  0.7507568782113535  0.7400837674929585
  0.7493804746244618  0.7504406501584864  0.7238666428801912
  0.5965925893680600  0.7501656579641939  0.7407041866321596
  0.9065743735449485  0.7504899300060868  0.3014140503816840
  0.7498792942948419  0.7504790182012225  0.2590012004789545
  0.5929288557737243  0.7504629468006089  0.3011392330097534
  0.6542274383388589  0.0003802841552438  0.4096601156095435
  0.4996765435954655  0.0003912746690607  0.3931300890354273
  0.8453270399252329  0.0004580226016278  0.4099124873201821
  0.9006716675719773  0.0006125787161296  0.5219663126142042
  0.7497475191935623  0.0003082087579899  0.5026700493224484
  0.5988514170162456  0.0000990704713701  0.5217297850172697
  0.6509875247774930  0.0006063446165881  0.6330885136933662
  0.5002236487937100  0.0020362107395879  0.6135736516837705
  0.8477084214656297  0.0000941443268482  0.6330027272703092
  0.9026316653342270  0.0016168372754919  0.7400189705343002
  0.7494742015312800  0.0005295556287371  0.7238066844890774
  0.5965747788780175  0.0030656465437471  0.7405980184729619
  0.0683824972075329  0.1261251753073061  0.7913700968305949
  0.4363459315858086  0.1336268194265033  0.7876404823280193
  0.5015305506452733  0.2524386839901514  0.6978818009910694
 
  0.00000000E+00  0.00000000E+00  0.00000000E+00
  0.00000000E+00  0.00000000E+00  0.00000000E+00
  0.00000000E+00  0.00000000E+00  0.00000000E+00
  0.00000000E+00  0.00000000E+00  0.00000000E+00
  0.00000000E+00  0.00000000E+00  0.00000000E+00
  0.00000000E+00  0.00000000E+00  0.00000000E+00
  0.00000000E+00  0.00000000E+00  0.00000000E+00
  0.00000000E+00  0.00000000E+00  0.00000000E+00
  0.00000000E+00  0.00000000E+00  0.00000000E+00
  0.00000000E+00  0.00000000E+00  0.00000000E+00
  0.00000000E+00  0.00000000E+00  0.00000000E+00
  0.00000000E+00  0.00000000E+00  0.00000000E+00
  0.00000000E+00  0.00000000E+00  0.00000000E+00
  0.00000000E+00  0.00000000E+00  0.00000000E+00
  0.00000000E+00  0.00000000E+00  0.00000000E+00
  0.00000000E+00  0.00000000E+00  0.00000000E+00
  0.00000000E+00  0.00000000E+00  0.00000000E+00
  0.00000000E+00  0.00000000E+00  0.00000000E+00
  0.00000000E+00  0.00000000E+00  0.00000000E+00
  0.00000000E+00  0.00000000E+00  0.00000000E+00
  0.00000000E+00  0.00000000E+00  0.00000000E+00
  0.00000000E+00  0.00000000E+00  0.00000000E+00
  0.00000000E+00  0.00000000E+00  0.00000000E+00
  0.00000000E+00  0.00000000E+00  0.00000000E+00
  0.00000000E+00  0.00000000E+00  0.00000000E+00
  0.00000000E+00  0.00000000E+00  0.00000000E+00
  0.00000000E+00  0.00000000E+00  0.00000000E+00
  0.00000000E+00  0.00000000E+00  0.00000000E+00
  0.00000000E+00  0.00000000E+00  0.00000000E+00
  0.00000000E+00  0.00000000E+00  0.00000000E+00
  0.00000000E+00  0.00000000E+00  0.00000000E+00
  0.00000000E+00  0.00000000E+00  0.00000000E+00
  0.00000000E+00  0.00000000E+00  0.00000000E+00
  0.00000000E+00  0.00000000E+00  0.00000000E+00
  0.00000000E+00  0.00000000E+00  0.00000000E+00
  0.00000000E+00  0.00000000E+00  0.00000000E+00
  0.00000000E+00  0.00000000E+00  0.00000000E+00
  0.00000000E+00  0.00000000E+00  0.00000000E+00
  0.00000000E+00  0.00000000E+00  0.00000000E+00
  0.00000000E+00  0.00000000E+00  0.00000000E+00
  0.00000000E+00  0.00000000E+00  0.00000000E+00
  0.00000000E+00  0.00000000E+00  0.00000000E+00
  0.00000000E+00  0.00000000E+00  0.00000000E+00
  0.00000000E+00  0.00000000E+00  0.00000000E+00
  0.00000000E+00  0.00000000E+00  0.00000000E+00
  0.00000000E+00  0.00000000E+00  0.00000000E+00
  0.00000000E+00  0.00000000E+00  0.00000000E+00
  0.00000000E+00  0.00000000E+00  0.00000000E+00
  0.00000000E+00  0.00000000E+00  0.00000000E+00
  0.00000000E+00  0.00000000E+00  0.00000000E+00
  0.00000000E+00  0.00000000E+00  0.00000000E+00
  0.00000000E+00  0.00000000E+00  0.00000000E+00
  0.00000000E+00  0.00000000E+00  0.00000000E+00
  0.00000000E+00  0.00000000E+00  0.00000000E+00
  0.00000000E+00  0.00000000E+00  0.00000000E+00
  0.00000000E+00  0.00000000E+00  0.00000000E+00
  0.00000000E+00  0.00000000E+00  0.00000000E+00
  0.00000000E+00  0.00000000E+00  0.00000000E+00
  0.00000000E+00  0.00000000E+00  0.00000000E+00
  0.00000000E+00  0.00000000E+00  0.00000000E+00
  0.00000000E+00  0.00000000E+00  0.00000000E+00
  0.00000000E+00  0.00000000E+00  0.00000000E+00
  0.00000000E+00  0.00000000E+00  0.00000000E+00
  0.00000000E+00  0.00000000E+00  0.00000000E+00
  0.00000000E+00  0.00000000E+00  0.00000000E+00
  0.00000000E+00  0.00000000E+00  0.00000000E+00
  0.00000000E+00  0.00000000E+00  0.00000000E+00
  0.00000000E+00  0.00000000E+00  0.00000000E+00
  0.00000000E+00  0.00000000E+00  0.00000000E+00
  0.00000000E+00  0.00000000E+00  0.00000000E+00
  0.00000000E+00  0.00000000E+00  0.00000000E+00
  0.00000000E+00  0.00000000E+00  0.00000000E+00
  0.00000000E+00  0.00000000E+00  0.00000000E+00
  0.00000000E+00  0.00000000E+00  0.00000000E+00
  0.00000000E+00  0.00000000E+00  0.00000000E+00
  0.00000000E+00  0.00000000E+00  0.00000000E+00
  0.00000000E+00  0.00000000E+00  0.00000000E+00
  0.00000000E+00  0.00000000E+00  0.00000000E+00
  0.00000000E+00  0.00000000E+00  0.00000000E+00
  0.00000000E+00  0.00000000E+00  0.00000000E+00
  0.00000000E+00  0.00000000E+00  0.00000000E+00
  0.00000000E+00  0.00000000E+00  0.00000000E+00
  0.00000000E+00  0.00000000E+00  0.00000000E+00
  0.00000000E+00  0.00000000E+00  0.00000000E+00
  0.00000000E+00  0.00000000E+00  0.00000000E+00
  0.00000000E+00  0.00000000E+00  0.00000000E+00
  0.00000000E+00  0.00000000E+00  0.00000000E+00
  0.00000000E+00  0.00000000E+00  0.00000000E+00
  0.00000000E+00  0.00000000E+00  0.00000000E+00
  0.00000000E+00  0.00000000E+00  0.00000000E+00
  0.00000000E+00  0.00000000E+00  0.00000000E+00
  0.00000000E+00  0.00000000E+00  0.00000000E+00
  0.00000000E+00  0.00000000E+00  0.00000000E+00
  0.00000000E+00  0.00000000E+00  0.00000000E+00
  0.00000000E+00  0.00000000E+00  0.00000000E+00
  0.00000000E+00  0.00000000E+00  0.00000000E+00
  0.00000000E+00  0.00000000E+00  0.00000000E+00
  0.00000000E+00  0.00000000E+00  0.00000000E+00
  0.00000000E+00  0.00000000E+00  0.00000000E+00
  0.00000000E+00  0.00000000E+00  0.00000000E+00
  0.00000000E+00  0.00000000E+00  0.00000000E+00
  0.00000000E+00  0.00000000E+00  0.00000000E+00
  0.00000000E+00  0.00000000E+00  0.00000000E+00
  0.00000000E+00  0.00000000E+00  0.00000000E+00
  0.00000000E+00  0.00000000E+00  0.00000000E+00
  0.00000000E+00  0.00000000E+00  0.00000000E+00
  0.00000000E+00  0.00000000E+00  0.00000000E+00
  0.00000000E+00  0.00000000E+00  0.00000000E+00
  0.00000000E+00  0.00000000E+00  0.00000000E+00
  0.00000000E+00  0.00000000E+00  0.00000000E+00
  0.00000000E+00  0.00000000E+00  0.00000000E+00
  0.00000000E+00  0.00000000E+00  0.00000000E+00
  0.00000000E+00  0.00000000E+00  0.00000000E+00
  0.00000000E+00  0.00000000E+00  0.00000000E+00
  0.00000000E+00  0.00000000E+00  0.00000000E+00
  0.00000000E+00  0.00000000E+00  0.00000000E+00
  0.00000000E+00  0.00000000E+00  0.00000000E+00
  0.00000000E+00  0.00000000E+00  0.00000000E+00
  0.00000000E+00  0.00000000E+00  0.00000000E+00
  0.00000000E+00  0.00000000E+00  0.00000000E+00
  0.00000000E+00  0.00000000E+00  0.00000000E+00
  0.00000000E+00  0.00000000E+00  0.00000000E+00
  0.00000000E+00  0.00000000E+00  0.00000000E+00
  0.00000000E+00  0.00000000E+00  0.00000000E+00
  0.00000000E+00  0.00000000E+00  0.00000000E+00
  0.00000000E+00  0.00000000E+00  0.00000000E+00
  0.00000000E+00  0.00000000E+00  0.00000000E+00
  0.00000000E+00  0.00000000E+00  0.00000000E+00
  0.00000000E+00  0.00000000E+00  0.00000000E+00
  0.00000000E+00  0.00000000E+00  0.00000000E+00
  0.00000000E+00  0.00000000E+00  0.00000000E+00
  0.00000000E+00  0.00000000E+00  0.00000000E+00
  0.00000000E+00  0.00000000E+00  0.00000000E+00
  0.00000000E+00  0.00000000E+00  0.00000000E+00
  0.00000000E+00  0.00000000E+00  0.00000000E+00
  0.00000000E+00  0.00000000E+00  0.00000000E+00
  0.00000000E+00  0.00000000E+00  0.00000000E+00
  0.00000000E+00  0.00000000E+00  0.00000000E+00
  0.00000000E+00  0.00000000E+00  0.00000000E+00
  0.00000000E+00  0.00000000E+00  0.00000000E+00
  0.00000000E+00  0.00000000E+00  0.00000000E+00
  0.00000000E+00  0.00000000E+00  0.00000000E+00
  0.00000000E+00  0.00000000E+00  0.00000000E+00
  0.00000000E+00  0.00000000E+00  0.00000000E+00
  0.00000000E+00  0.00000000E+00  0.00000000E+00
  0.00000000E+00  0.00000000E+00  0.00000000E+00
  0.00000000E+00  0.00000000E+00  0.00000000E+00
  0.00000000E+00  0.00000000E+00  0.00000000E+00
  0.00000000E+00  0.00000000E+00  0.00000000E+00
  0.00000000E+00  0.00000000E+00  0.00000000E+00
  0.00000000E+00  0.00000000E+00  0.00000000E+00
  0.00000000E+00  0.00000000E+00  0.00000000E+00
  0.00000000E+00  0.00000000E+00  0.00000000E+00
  0.00000000E+00  0.00000000E+00  0.00000000E+00
  0.00000000E+00  0.00000000E+00  0.00000000E+00
  0.00000000E+00  0.00000000E+00  0.00000000E+00
  0.00000000E+00  0.00000000E+00  0.00000000E+00
  0.00000000E+00  0.00000000E+00  0.00000000E+00
  0.00000000E+00  0.00000000E+00  0.00000000E+00
  0.00000000E+00  0.00000000E+00  0.00000000E+00
  0.00000000E+00  0.00000000E+00  0.00000000E+00
  0.00000000E+00  0.00000000E+00  0.00000000E+00
  0.00000000E+00  0.00000000E+00  0.00000000E+00
  0.00000000E+00  0.00000000E+00  0.00000000E+00
  0.00000000E+00  0.00000000E+00  0.00000000E+00
  0.00000000E+00  0.00000000E+00  0.00000000E+00
  0.00000000E+00  0.00000000E+00  0.00000000E+00
  0.00000000E+00  0.00000000E+00  0.00000000E+00
  0.00000000E+00  0.00000000E+00  0.00000000E+00
  0.00000000E+00  0.00000000E+00  0.00000000E+00
  0.00000000E+00  0.00000000E+00  0.00000000E+00
  0.00000000E+00  0.00000000E+00  0.00000000E+00
  0.00000000E+00  0.00000000E+00  0.00000000E+00
  0.00000000E+00  0.00000000E+00  0.00000000E+00
  0.00000000E+00  0.00000000E+00  0.00000000E+00
  0.00000000E+00  0.00000000E+00  0.00000000E+00
  0.00000000E+00  0.00000000E+00  0.00000000E+00
  0.00000000E+00  0.00000000E+00  0.00000000E+00
  0.00000000E+00  0.00000000E+00  0.00000000E+00
  0.00000000E+00  0.00000000E+00  0.00000000E+00
  0.00000000E+00  0.00000000E+00  0.00000000E+00
  0.00000000E+00  0.00000000E+00  0.00000000E+00
  0.00000000E+00  0.00000000E+00  0.00000000E+00
  0.00000000E+00  0.00000000E+00  0.00000000E+00
  0.00000000E+00  0.00000000E+00  0.00000000E+00
  0.00000000E+00  0.00000000E+00  0.00000000E+00
  0.00000000E+00  0.00000000E+00  0.00000000E+00
  0.00000000E+00  0.00000000E+00  0.00000000E+00
  0.00000000E+00  0.00000000E+00  0.00000000E+00
  0.00000000E+00  0.00000000E+00  0.00000000E+00
  0.00000000E+00  0.00000000E+00  0.00000000E+00
  0.00000000E+00  0.00000000E+00  0.00000000E+00
  0.00000000E+00  0.00000000E+00  0.00000000E+00
  0.00000000E+00  0.00000000E+00  0.00000000E+00
  0.00000000E+00  0.00000000E+00  0.00000000E+00
  0.00000000E+00  0.00000000E+00  0.00000000E+00
  0.00000000E+00  0.00000000E+00  0.00000000E+00
  0.00000000E+00  0.00000000E+00  0.00000000E+00
  0.00000000E+00  0.00000000E+00  0.00000000E+00
  0.00000000E+00  0.00000000E+00  0.00000000E+00
  0.00000000E+00  0.00000000E+00  0.00000000E+00
  0.00000000E+00  0.00000000E+00  0.00000000E+00
  0.00000000E+00  0.00000000E+00  0.00000000E+00
  0.00000000E+00  0.00000000E+00  0.00000000E+00
  0.00000000E+00  0.00000000E+00  0.00000000E+00
  0.00000000E+00  0.00000000E+00  0.00000000E+00
  0.00000000E+00  0.00000000E+00  0.00000000E+00
  0.00000000E+00  0.00000000E+00  0.00000000E+00
  0.00000000E+00  0.00000000E+00  0.00000000E+00
  0.00000000E+00  0.00000000E+00  0.00000000E+00
  0.00000000E+00  0.00000000E+00  0.00000000E+00
  0.00000000E+00  0.00000000E+00  0.00000000E+00
  0.00000000E+00  0.00000000E+00  0.00000000E+00
  0.00000000E+00  0.00000000E+00  0.00000000E+00
  0.00000000E+00  0.00000000E+00  0.00000000E+00
  0.00000000E+00  0.00000000E+00  0.00000000E+00
  0.00000000E+00  0.00000000E+00  0.00000000E+00
  0.00000000E+00  0.00000000E+00  0.00000000E+00
  0.00000000E+00  0.00000000E+00  0.00000000E+00
  0.00000000E+00  0.00000000E+00  0.00000000E+00
  0.00000000E+00  0.00000000E+00  0.00000000E+00
  0.00000000E+00  0.00000000E+00  0.00000000E+00
  0.00000000E+00  0.00000000E+00  0.00000000E+00
  0.00000000E+00  0.00000000E+00  0.00000000E+00
  0.00000000E+00  0.00000000E+00  0.00000000E+00
  0.00000000E+00  0.00000000E+00  0.00000000E+00
  0.00000000E+00  0.00000000E+00  0.00000000E+00
  0.00000000E+00  0.00000000E+00  0.00000000E+00
  0.00000000E+00  0.00000000E+00  0.00000000E+00
  0.00000000E+00  0.00000000E+00  0.00000000E+00
  0.00000000E+00  0.00000000E+00  0.00000000E+00
  0.00000000E+00  0.00000000E+00  0.00000000E+00
  0.00000000E+00  0.00000000E+00  0.00000000E+00
  0.00000000E+00  0.00000000E+00  0.00000000E+00
  0.00000000E+00  0.00000000E+00  0.00000000E+00
  0.00000000E+00  0.00000000E+00  0.00000000E+00
  0.00000000E+00  0.00000000E+00  0.00000000E+00
  0.00000000E+00  0.00000000E+00  0.00000000E+00
  0.00000000E+00  0.00000000E+00  0.00000000E+00
  0.00000000E+00  0.00000000E+00  0.00000000E+00
  0.00000000E+00  0.00000000E+00  0.00000000E+00
  0.00000000E+00  0.00000000E+00  0.00000000E+00
