Mo  S Co                                
   1.00000000000000     
    15.9215000000000000    0.0000000000000000    0.0000000000000000
    -7.9622500000000000   13.7910219999999999    0.0000000000000000
     0.0000000000000000    0.0000000000000000   13.5822000000000003
   Mo   S    Co
    25    50     2
Direct
  0.1323403991664591  0.0652007623636663  0.6788639598280142
  0.1320109519241797  0.2654317037480212  0.6793362053088075
  0.1320035605727483  0.4651489319579554  0.6797106377226640
  0.1326194067334114  0.6656862105293513  0.6792194580360302
  0.1325668686883787  0.8655584225171395  0.6787709594807154
  0.3324275824545779  0.0651836042042078  0.6788504766034649
  0.3318350990701191  0.2640407676977929  0.6800567255294183
  0.3321698161847522  0.4656747627489395  0.6769584451825210
  0.3330427531537694  0.6663006292708999  0.6801490391761575
  0.3325746905277782  0.8657888700897587  0.6788800587862909
  0.5326121290764263  0.0656751644848512  0.6786944710915961
  0.5330246342117704  0.2654110461518400  0.6792878953132657
  0.5331890655405189  0.4656883721205674  0.6768721132771134
  0.5341301041595088  0.6686105261863844  0.6786895160185438
  0.5326837986325472  0.8663463224343957  0.6789067145611725
  0.7327318943819279  0.0658977278044333  0.6786837736908993
  0.7327254949519073  0.2656902693571226  0.6791044428363762
  0.7328040869366177  0.4651451482925495  0.6796437412859788
  0.7329088398779078  0.6663316674126918  0.6801052699358365
  0.7332524552589490  0.8663648260211261  0.6789114990754328
  0.9326444148559574  0.0657039843356344  0.6787248581702698
  0.9325673690248806  0.2657011290997886  0.6791371489631288
  0.9327385858790578  0.4658310482896511  0.6790374766182410
  0.9326904352927841  0.6656966814347314  0.6791962521466814
  0.9328121840879575  0.8658220167548691  0.6788795997569395
  0.0660246559612148  0.1324078849547092  0.5637770372579780
  0.0655023366017673  0.1317656515934189  0.7940583680813162
  0.0660249812209912  0.3326057963656339  0.5641912767594448
  0.0654757673366362  0.3319825888967571  0.7946704375425995
  0.0660990037088922  0.5323386682255489  0.5641513011871879
  0.0656827918397056  0.5324589727986435  0.7943498017729809
  0.0658872097069718  0.7321490068183891  0.5638810134923489
  0.0660558451704674  0.7325186444051468  0.7941476284046800
  0.0658802198608299  0.9321810757903748  0.5635859736566289
  0.0659155868774661  0.9321210529613353  0.7940045047981457
  0.2656233021121466  0.1316668738799791  0.5636347698166375
  0.2649595738962560  0.1303226710083933  0.7943039932312956
  0.2658734330279415  0.3315702153124249  0.5648547569396882
  0.2649475262057948  0.3296317739068613  0.7977919719324333
  0.2655082428828592  0.5328491381068261  0.5647720965166059
  0.2661285049346418  0.5319769542090853  0.7974512725619292
  0.2659828191261226  0.7321770955668114  0.5642631808532030
  0.2658611665825461  0.7329597265340553  0.7943715089310146
  0.2658616721582945  0.9321517071934409  0.5635812183107660
  0.2657754987091110  0.9321060921268867  0.7939972272033131
  0.4659356677535413  0.1323736850191111  0.5637427417643792
  0.4658400114659784  0.1317529512151978  0.7940271626875202
  0.4653209593388752  0.3315664781098135  0.5648291571571775
  0.4643324883701183  0.3296203031459513  0.7977779484637040
  0.4665016016495187  0.5333242857655875  0.5644767671711506
  0.4701224290351860  0.5405555586191610  0.7985585970226694
  0.4652643907083771  0.7330509135598291  0.5637305422399237
  0.4665415589161910  0.7339802831941071  0.7944080562007514
  0.4658395109316231  0.9324810149035230  0.5635722144599313
  0.4659361991554434  0.9327552704788928  0.7939778972338090
  0.6660723147190808  0.1326234277794356  0.5636629692497124
  0.6659629876082107  0.1322537554328989  0.7938481898122660
  0.6661940872323981  0.3325852634764530  0.5641331948441319
  0.6661189539758610  0.3319896260539608  0.7946163128934742
  0.6670346257887800  0.5328764530021886  0.5647179614120361
  0.6655549471375650  0.5319998512053274  0.7973905959034724
  0.6674224742182915  0.7330915789838741  0.5637102786823363
  0.6670888580126544  0.7339834990991250  0.7943974819803898
  0.6660355309100652  0.9325000765580498  0.5637050349851265
  0.6662373182274379  0.9329112466443448  0.7938487512997341
  0.8661434787107751  0.1326516003444738  0.5636896226017925
  0.8658480016945163  0.1322621018165080  0.7938732149304784
  0.8660582212615182  0.3324832515003564  0.5639026956475632
  0.8660033003070424  0.3324257465545983  0.7940795617026595
  0.8659345217289030  0.5323520641750719  0.5641149921369504
  0.8664130130065715  0.5324607947699889  0.7943136346999182
  0.8658584288264137  0.7322324521572767  0.5642331768070932
  0.8667285346399467  0.7329811880740209  0.7943473446841267
  0.8662378642431179  0.9325304771796823  0.5635879165833728
  0.8664019258336495  0.9327756653425467  0.7939917091144864
  0.5240273557893715  0.4642591371533058  0.8717286718314838
  0.3399489394010615  0.4642560993151790  0.8718463993825125
 
  0.00000000E+00  0.00000000E+00  0.00000000E+00
  0.00000000E+00  0.00000000E+00  0.00000000E+00
  0.00000000E+00  0.00000000E+00  0.00000000E+00
  0.00000000E+00  0.00000000E+00  0.00000000E+00
  0.00000000E+00  0.00000000E+00  0.00000000E+00
  0.00000000E+00  0.00000000E+00  0.00000000E+00
  0.00000000E+00  0.00000000E+00  0.00000000E+00
  0.00000000E+00  0.00000000E+00  0.00000000E+00
  0.00000000E+00  0.00000000E+00  0.00000000E+00
  0.00000000E+00  0.00000000E+00  0.00000000E+00
  0.00000000E+00  0.00000000E+00  0.00000000E+00
  0.00000000E+00  0.00000000E+00  0.00000000E+00
  0.00000000E+00  0.00000000E+00  0.00000000E+00
  0.00000000E+00  0.00000000E+00  0.00000000E+00
  0.00000000E+00  0.00000000E+00  0.00000000E+00
  0.00000000E+00  0.00000000E+00  0.00000000E+00
  0.00000000E+00  0.00000000E+00  0.00000000E+00
  0.00000000E+00  0.00000000E+00  0.00000000E+00
  0.00000000E+00  0.00000000E+00  0.00000000E+00
  0.00000000E+00  0.00000000E+00  0.00000000E+00
  0.00000000E+00  0.00000000E+00  0.00000000E+00
  0.00000000E+00  0.00000000E+00  0.00000000E+00
  0.00000000E+00  0.00000000E+00  0.00000000E+00
  0.00000000E+00  0.00000000E+00  0.00000000E+00
  0.00000000E+00  0.00000000E+00  0.00000000E+00
  0.00000000E+00  0.00000000E+00  0.00000000E+00
  0.00000000E+00  0.00000000E+00  0.00000000E+00
  0.00000000E+00  0.00000000E+00  0.00000000E+00
  0.00000000E+00  0.00000000E+00  0.00000000E+00
  0.00000000E+00  0.00000000E+00  0.00000000E+00
  0.00000000E+00  0.00000000E+00  0.00000000E+00
  0.00000000E+00  0.00000000E+00  0.00000000E+00
  0.00000000E+00  0.00000000E+00  0.00000000E+00
  0.00000000E+00  0.00000000E+00  0.00000000E+00
  0.00000000E+00  0.00000000E+00  0.00000000E+00
  0.00000000E+00  0.00000000E+00  0.00000000E+00
  0.00000000E+00  0.00000000E+00  0.00000000E+00
  0.00000000E+00  0.00000000E+00  0.00000000E+00
  0.00000000E+00  0.00000000E+00  0.00000000E+00
  0.00000000E+00  0.00000000E+00  0.00000000E+00
  0.00000000E+00  0.00000000E+00  0.00000000E+00
  0.00000000E+00  0.00000000E+00  0.00000000E+00
  0.00000000E+00  0.00000000E+00  0.00000000E+00
  0.00000000E+00  0.00000000E+00  0.00000000E+00
  0.00000000E+00  0.00000000E+00  0.00000000E+00
  0.00000000E+00  0.00000000E+00  0.00000000E+00
  0.00000000E+00  0.00000000E+00  0.00000000E+00
  0.00000000E+00  0.00000000E+00  0.00000000E+00
  0.00000000E+00  0.00000000E+00  0.00000000E+00
  0.00000000E+00  0.00000000E+00  0.00000000E+00
  0.00000000E+00  0.00000000E+00  0.00000000E+00
  0.00000000E+00  0.00000000E+00  0.00000000E+00
  0.00000000E+00  0.00000000E+00  0.00000000E+00
  0.00000000E+00  0.00000000E+00  0.00000000E+00
  0.00000000E+00  0.00000000E+00  0.00000000E+00
  0.00000000E+00  0.00000000E+00  0.00000000E+00
  0.00000000E+00  0.00000000E+00  0.00000000E+00
  0.00000000E+00  0.00000000E+00  0.00000000E+00
  0.00000000E+00  0.00000000E+00  0.00000000E+00
  0.00000000E+00  0.00000000E+00  0.00000000E+00
  0.00000000E+00  0.00000000E+00  0.00000000E+00
  0.00000000E+00  0.00000000E+00  0.00000000E+00
  0.00000000E+00  0.00000000E+00  0.00000000E+00
  0.00000000E+00  0.00000000E+00  0.00000000E+00
  0.00000000E+00  0.00000000E+00  0.00000000E+00
  0.00000000E+00  0.00000000E+00  0.00000000E+00
  0.00000000E+00  0.00000000E+00  0.00000000E+00
  0.00000000E+00  0.00000000E+00  0.00000000E+00
  0.00000000E+00  0.00000000E+00  0.00000000E+00
  0.00000000E+00  0.00000000E+00  0.00000000E+00
  0.00000000E+00  0.00000000E+00  0.00000000E+00
  0.00000000E+00  0.00000000E+00  0.00000000E+00
  0.00000000E+00  0.00000000E+00  0.00000000E+00
  0.00000000E+00  0.00000000E+00  0.00000000E+00
  0.00000000E+00  0.00000000E+00  0.00000000E+00
  0.00000000E+00  0.00000000E+00  0.00000000E+00
  0.00000000E+00  0.00000000E+00  0.00000000E+00
