Mo  S Co                                
   1.00000000000000     
    15.9215000000000000    0.0000000000000000    0.0000000000000000
    -7.9622500000000000   13.7910219999999999    0.0000000000000000
     0.0000000000000000    0.0000000000000000   13.5822000000000003
   Mo   S    Co
    25    50     3
Direct
  0.1321868527821479  0.0661841187580947  0.6807385973221258
  0.1325143617989823  0.2657503264738565  0.6798677883130964
  0.1327001356750301  0.4661234575032154  0.6788870859514020
  0.1327583162210360  0.6661171231058347  0.6789838793660650
  0.1326147662524377  0.8660926788134091  0.6802843754260905
  0.3331973649790640  0.0659503950758733  0.6805414687603957
  0.3326723810847128  0.2656029172327408  0.6772284901305170
  0.3320583558315420  0.4662484248432222  0.6798682870609056
  0.3323857177422695  0.6663144757111397  0.6788232206778773
  0.3325823743864120  0.8659451538883260  0.6790640318712065
  0.5327845727865252  0.0654491727802409  0.6788345940955125
  0.5342557730229132  0.2649834929120090  0.6786942438608392
  0.5325763168967441  0.4659461526325899  0.6759940938540439
  0.5324465272361394  0.6666522869613445  0.6797918670454735
  0.5325685236927953  0.8660087696009171  0.6788769128133936
  0.7327972006783909  0.0656477186535298  0.6785000775679748
  0.7334241594732802  0.2653095990619150  0.6780549877263979
  0.7336615234309392  0.4644422095504339  0.6786781480072364
  0.7329460635180993  0.6659372223297666  0.6771221094812319
  0.7329573921724872  0.8662153917727267  0.6797611824956391
  0.9327343642953636  0.0659844236365501  0.6800621211351654
  0.9330757010361381  0.2658961590593449  0.6785094041352764
  0.9332459323309408  0.4659228661381292  0.6787442793642029
  0.9327213440327142  0.6655041631689329  0.6804128349487897
  0.9324584817636037  0.8664759486817672  0.6806739350670554
  0.0661886692685130  0.1323357553523437  0.5650859854574151
  0.0657705774106176  0.1329857043124747  0.7955346778971872
  0.0667341727139856  0.3326010937126327  0.5638233963407586
  0.0657256522587630  0.3328640451646905  0.7941769933867491
  0.0663866098890864  0.5329186212571315  0.5636075414185413
  0.0662352451496346  0.5327095675200653  0.7939948716561815
  0.0658226122584225  0.7331247314998492  0.5647365386086349
  0.0664557785756017  0.7323957631069646  0.7948118713036223
  0.0658162831521238  0.9328929330164613  0.5656663207758683
  0.0659579726706809  0.9326547836869423  0.7955466630685493
  0.2653212845928792  0.1316494186370818  0.5653637556766142
  0.2667330079669981  0.1333706563454768  0.7980877396494535
  0.2662299159967887  0.3329180964111842  0.5649771267218497
  0.2650466511023950  0.3347252268018792  0.7993206560530339
  0.2659154873386456  0.5327835394827574  0.5637305375447212
  0.2654519826228423  0.5335211407632556  0.7941585794489541
  0.2658165090694027  0.7329459887576988  0.5636507134636872
  0.2658696647411247  0.7327870517735704  0.7941101040896399
  0.2656404814368969  0.9329313649804831  0.5648150408025927
  0.2662789256601172  0.9322174848428020  0.7949118034811349
  0.4652380545975490  0.1314087715753018  0.5639465801418808
  0.4670258371003371  0.1322285663968685  0.7944357143161156
  0.4659484143807120  0.3315346938207853  0.5639078185963342
  0.4706840775444903  0.3313303902612645  0.7983388441418384
  0.4653511183742154  0.5332771831030527  0.5644543088447307
  0.4651184098238801  0.5336240560389598  0.7962513325184233
  0.4658916703643001  0.7328114857994095  0.5636929487336815
  0.4652087796512774  0.7332574271151628  0.7941272365107039
  0.4657603763726570  0.9323457961158823  0.5636688568867640
  0.4660075842078157  0.9324457106568929  0.7940721834946274
  0.6659326804422960  0.1318480521858802  0.5632014191600518
  0.6664466777602129  0.1322511056933493  0.7934866001206657
  0.6667732675073310  0.3319435387166436  0.5625943961283113
  0.6674827092986177  0.3312666158563005  0.7935724208616719
  0.6669717256613197  0.5326134006157019  0.5638916344428822
  0.6671031619345413  0.5278119248707966  0.7983752877522079
  0.6657435320462497  0.7324954283582414  0.5648578193628495
  0.6639867383343585  0.7336779219779146  0.7991891880646804
  0.6660812665079447  0.9320273218336794  0.5637774291289617
  0.6658639899220304  0.9329776290113401  0.7941226659738589
  0.8665540037704247  0.1321524147550974  0.5637907406080487
  0.8658082312562883  0.1328767058776492  0.7939810440402937
  0.8668888541952171  0.3327416054688470  0.5631692973276614
  0.8665122026719558  0.3323157163780905  0.7934493478819178
  0.8672285909920774  0.5334498578910498  0.5638678873963201
  0.8665000550633906  0.5317354125069897  0.7943401354563591
  0.8669572114279660  0.7333528974190315  0.5652726206162058
  0.8651969465154323  0.7318680266183790  0.7979493048682187
  0.8664273914173748  0.9325937748621413  0.5650173161255623
  0.8656980001970140  0.9329171599416242  0.7954696240754231
  0.3400035562386918  0.2742681997806429  0.8712199685905375
  0.5321412101313143  0.4661280011502029  0.8736148341983281
  0.7242609270703895  0.6585459529735758  0.8710855960643613
 
  0.00000000E+00  0.00000000E+00  0.00000000E+00
  0.00000000E+00  0.00000000E+00  0.00000000E+00
  0.00000000E+00  0.00000000E+00  0.00000000E+00
  0.00000000E+00  0.00000000E+00  0.00000000E+00
  0.00000000E+00  0.00000000E+00  0.00000000E+00
  0.00000000E+00  0.00000000E+00  0.00000000E+00
  0.00000000E+00  0.00000000E+00  0.00000000E+00
  0.00000000E+00  0.00000000E+00  0.00000000E+00
  0.00000000E+00  0.00000000E+00  0.00000000E+00
  0.00000000E+00  0.00000000E+00  0.00000000E+00
  0.00000000E+00  0.00000000E+00  0.00000000E+00
  0.00000000E+00  0.00000000E+00  0.00000000E+00
  0.00000000E+00  0.00000000E+00  0.00000000E+00
  0.00000000E+00  0.00000000E+00  0.00000000E+00
  0.00000000E+00  0.00000000E+00  0.00000000E+00
  0.00000000E+00  0.00000000E+00  0.00000000E+00
  0.00000000E+00  0.00000000E+00  0.00000000E+00
  0.00000000E+00  0.00000000E+00  0.00000000E+00
  0.00000000E+00  0.00000000E+00  0.00000000E+00
  0.00000000E+00  0.00000000E+00  0.00000000E+00
  0.00000000E+00  0.00000000E+00  0.00000000E+00
  0.00000000E+00  0.00000000E+00  0.00000000E+00
  0.00000000E+00  0.00000000E+00  0.00000000E+00
  0.00000000E+00  0.00000000E+00  0.00000000E+00
  0.00000000E+00  0.00000000E+00  0.00000000E+00
  0.00000000E+00  0.00000000E+00  0.00000000E+00
  0.00000000E+00  0.00000000E+00  0.00000000E+00
  0.00000000E+00  0.00000000E+00  0.00000000E+00
  0.00000000E+00  0.00000000E+00  0.00000000E+00
  0.00000000E+00  0.00000000E+00  0.00000000E+00
  0.00000000E+00  0.00000000E+00  0.00000000E+00
  0.00000000E+00  0.00000000E+00  0.00000000E+00
  0.00000000E+00  0.00000000E+00  0.00000000E+00
  0.00000000E+00  0.00000000E+00  0.00000000E+00
  0.00000000E+00  0.00000000E+00  0.00000000E+00
  0.00000000E+00  0.00000000E+00  0.00000000E+00
  0.00000000E+00  0.00000000E+00  0.00000000E+00
  0.00000000E+00  0.00000000E+00  0.00000000E+00
  0.00000000E+00  0.00000000E+00  0.00000000E+00
  0.00000000E+00  0.00000000E+00  0.00000000E+00
  0.00000000E+00  0.00000000E+00  0.00000000E+00
  0.00000000E+00  0.00000000E+00  0.00000000E+00
  0.00000000E+00  0.00000000E+00  0.00000000E+00
  0.00000000E+00  0.00000000E+00  0.00000000E+00
  0.00000000E+00  0.00000000E+00  0.00000000E+00
  0.00000000E+00  0.00000000E+00  0.00000000E+00
  0.00000000E+00  0.00000000E+00  0.00000000E+00
  0.00000000E+00  0.00000000E+00  0.00000000E+00
  0.00000000E+00  0.00000000E+00  0.00000000E+00
  0.00000000E+00  0.00000000E+00  0.00000000E+00
  0.00000000E+00  0.00000000E+00  0.00000000E+00
  0.00000000E+00  0.00000000E+00  0.00000000E+00
  0.00000000E+00  0.00000000E+00  0.00000000E+00
  0.00000000E+00  0.00000000E+00  0.00000000E+00
  0.00000000E+00  0.00000000E+00  0.00000000E+00
  0.00000000E+00  0.00000000E+00  0.00000000E+00
  0.00000000E+00  0.00000000E+00  0.00000000E+00
  0.00000000E+00  0.00000000E+00  0.00000000E+00
  0.00000000E+00  0.00000000E+00  0.00000000E+00
  0.00000000E+00  0.00000000E+00  0.00000000E+00
  0.00000000E+00  0.00000000E+00  0.00000000E+00
  0.00000000E+00  0.00000000E+00  0.00000000E+00
  0.00000000E+00  0.00000000E+00  0.00000000E+00
  0.00000000E+00  0.00000000E+00  0.00000000E+00
  0.00000000E+00  0.00000000E+00  0.00000000E+00
  0.00000000E+00  0.00000000E+00  0.00000000E+00
  0.00000000E+00  0.00000000E+00  0.00000000E+00
  0.00000000E+00  0.00000000E+00  0.00000000E+00
  0.00000000E+00  0.00000000E+00  0.00000000E+00
  0.00000000E+00  0.00000000E+00  0.00000000E+00
  0.00000000E+00  0.00000000E+00  0.00000000E+00
  0.00000000E+00  0.00000000E+00  0.00000000E+00
  0.00000000E+00  0.00000000E+00  0.00000000E+00
  0.00000000E+00  0.00000000E+00  0.00000000E+00
  0.00000000E+00  0.00000000E+00  0.00000000E+00
  0.00000000E+00  0.00000000E+00  0.00000000E+00
  0.00000000E+00  0.00000000E+00  0.00000000E+00
  0.00000000E+00  0.00000000E+00  0.00000000E+00
