Mo  S Cu                                
   1.00000000000000     
    15.9214998300000001    0.0000000000000000    0.0000000000000000
    -7.9622501300000001   13.7910221699999997    0.0000000000000000
     0.0000000000000000    0.0000000000000000   13.5821998300000004
   Mo   S    Cu
    25    50     4
Direct
  0.1323065379327346  0.0655183519521287  0.6783739110955906
  0.1320240054379553  0.2655348295071818  0.6794965374587747
  0.1326781037307967  0.4656834836908317  0.6790302368269536
  0.1326142417137532  0.6656273648201889  0.6787078969526377
  0.1326389344568568  0.8656825989563970  0.6784154338339476
  0.3328509229312857  0.0655159928108446  0.6782819805407598
  0.3332290126258002  0.2670252611520070  0.6773784687131297
  0.3307878565315860  0.4641189388758278  0.6786231698472491
  0.3326937935540997  0.6656730543622800  0.6786284449539508
  0.3325742902357476  0.8656395704129309  0.6784982059431570
  0.5328950109671524  0.0656589134537811  0.6785475244448236
  0.5332588833131879  0.2654209544117165  0.6791613050527801
  0.5333359935746458  0.4642971166075753  0.6786273726444421
  0.5337248673001014  0.6677553403416994  0.6788768978425708
  0.5326132468617004  0.8659106801226457  0.6785161100458836
  0.7326809413803161  0.0657176586216295  0.6785972349933900
  0.7328008829612784  0.2655726173664661  0.6786059321817177
  0.7326612320314112  0.4656760003618245  0.6790562924788972
  0.7326116509613669  0.6655753055844755  0.6786626252720609
  0.7329464485313721  0.8659279557478783  0.6785638275671104
  0.9324319540823467  0.0657034427147991  0.6786884129259789
  0.9324481702595264  0.2655819955786214  0.6787208772482316
  0.9325966354661048  0.4655271456885401  0.6788192224398273
  0.9326324045060517  0.6656253948392603  0.6787680311460420
  0.9326853935717097  0.8656655551110504  0.6785925650539397
  0.0658668492282004  0.1325846006631650  0.5637282809888617
  0.0655197649891122  0.1315392737605805  0.7939927971537557
  0.0659693880182388  0.3323565170944889  0.5639097013650272
  0.0655308491506830  0.3323797134958113  0.7944567650021952
  0.0659667439876088  0.5321935827193016  0.5637793344012536
  0.0659514360322291  0.5324383956079544  0.7939357206915290
  0.0658662156661407  0.7321718413063465  0.5635369757638884
  0.0660573760820355  0.7324730337298462  0.7936707361903288
  0.0658691013845569  0.9322809962852432  0.5632842778666003
  0.0660639396465967  0.9323426076304671  0.7936039195684046
  0.2661947073159681  0.1328410574477203  0.5633218050198678
  0.2663395911088884  0.1329819043660194  0.7922421971486031
  0.2647866405725807  0.3316105817515336  0.5633908114751520
  0.2648029985038534  0.3325345245581843  0.7962579071983882
  0.2658866323292486  0.5321415143777699  0.5634862124193134
  0.2659426792473525  0.5318796922219846  0.7942216373308284
  0.2659194366940056  0.7321853995777232  0.5635347591991788
  0.2659133100389326  0.7323411367121011  0.7937847855224902
  0.2659569371173589  0.9322482217929817  0.5632172818370833
  0.2659264814064315  0.9323547472061051  0.7935204276155190
  0.4662715920968097  0.1324114843407358  0.5634855398915235
  0.4656844357421193  0.1315250778202710  0.7937916805468319
  0.4664045286063185  0.3316173236110131  0.5633799453057335
  0.4680545291625364  0.3324734379476553  0.7961402148045664
  0.4659805538338020  0.5322420419528768  0.5652236007447655
  0.4671659038653999  0.5342731488965882  0.7939800662888743
  0.4659167801183344  0.7326192793157915  0.5634291934095472
  0.4659370434129713  0.7331942286371458  0.7938591539648741
  0.4659807060691250  0.9324352100778270  0.5633719703941509
  0.4659400086873404  0.9324363191672163  0.7935772631659859
  0.6661697040909047  0.1324161464912166  0.5634201080405106
  0.6661049501705705  0.1322859446032894  0.7937916334246680
  0.6662008636105838  0.3324442687013445  0.5637068535721710
  0.6663540313360627  0.3322601766590978  0.7943732245706556
  0.6660537623476230  0.5321715806866720  0.5633752004582604
  0.6656173371948100  0.5317395397664342  0.7944603115878124
  0.6664122038489779  0.7326246244215255  0.5634847333466766
  0.6668802615458915  0.7331707114569923  0.7939105960108890
  0.6660702547827100  0.9324614356534937  0.5634457888059785
  0.6660529063768124  0.9325240883102524  0.7936583222825391
  0.8659644178693213  0.1324431461264837  0.5635186116394166
  0.8657771306541164  0.1322949483166838  0.7938795577014517
  0.8660341487635179  0.3323219381125142  0.5635724846899564
  0.8659074205246284  0.3322334497038923  0.7939295986801014
  0.8659018511208956  0.5322171223355809  0.5638038250693214
  0.8661480964971915  0.5324218143357911  0.7939753552866904
  0.8658986298269937  0.7322199413476014  0.5636123823205779
  0.8660413088378149  0.7323148058798594  0.7938680673158913
  0.8661362706084006  0.9325124998194454  0.5634849532554540
  0.8661021844051291  0.9324361566218755  0.7936910116730331
  0.2869850528496016  0.3702063362895132  0.9564656096070223
  0.4951698350188209  0.3739138814876313  0.9556452030922316
  0.4531438343231144  0.4985799275776017  0.9478275423856388
  0.4023028124223131  0.3951337377667983  0.0821991584061905
 
  0.00000000E+00  0.00000000E+00  0.00000000E+00
  0.00000000E+00  0.00000000E+00  0.00000000E+00
  0.00000000E+00  0.00000000E+00  0.00000000E+00
  0.00000000E+00  0.00000000E+00  0.00000000E+00
  0.00000000E+00  0.00000000E+00  0.00000000E+00
  0.00000000E+00  0.00000000E+00  0.00000000E+00
  0.00000000E+00  0.00000000E+00  0.00000000E+00
  0.00000000E+00  0.00000000E+00  0.00000000E+00
  0.00000000E+00  0.00000000E+00  0.00000000E+00
  0.00000000E+00  0.00000000E+00  0.00000000E+00
  0.00000000E+00  0.00000000E+00  0.00000000E+00
  0.00000000E+00  0.00000000E+00  0.00000000E+00
  0.00000000E+00  0.00000000E+00  0.00000000E+00
  0.00000000E+00  0.00000000E+00  0.00000000E+00
  0.00000000E+00  0.00000000E+00  0.00000000E+00
  0.00000000E+00  0.00000000E+00  0.00000000E+00
  0.00000000E+00  0.00000000E+00  0.00000000E+00
  0.00000000E+00  0.00000000E+00  0.00000000E+00
  0.00000000E+00  0.00000000E+00  0.00000000E+00
  0.00000000E+00  0.00000000E+00  0.00000000E+00
  0.00000000E+00  0.00000000E+00  0.00000000E+00
  0.00000000E+00  0.00000000E+00  0.00000000E+00
  0.00000000E+00  0.00000000E+00  0.00000000E+00
  0.00000000E+00  0.00000000E+00  0.00000000E+00
  0.00000000E+00  0.00000000E+00  0.00000000E+00
  0.00000000E+00  0.00000000E+00  0.00000000E+00
  0.00000000E+00  0.00000000E+00  0.00000000E+00
  0.00000000E+00  0.00000000E+00  0.00000000E+00
  0.00000000E+00  0.00000000E+00  0.00000000E+00
  0.00000000E+00  0.00000000E+00  0.00000000E+00
  0.00000000E+00  0.00000000E+00  0.00000000E+00
  0.00000000E+00  0.00000000E+00  0.00000000E+00
  0.00000000E+00  0.00000000E+00  0.00000000E+00
  0.00000000E+00  0.00000000E+00  0.00000000E+00
  0.00000000E+00  0.00000000E+00  0.00000000E+00
  0.00000000E+00  0.00000000E+00  0.00000000E+00
  0.00000000E+00  0.00000000E+00  0.00000000E+00
  0.00000000E+00  0.00000000E+00  0.00000000E+00
  0.00000000E+00  0.00000000E+00  0.00000000E+00
  0.00000000E+00  0.00000000E+00  0.00000000E+00
  0.00000000E+00  0.00000000E+00  0.00000000E+00
  0.00000000E+00  0.00000000E+00  0.00000000E+00
  0.00000000E+00  0.00000000E+00  0.00000000E+00
  0.00000000E+00  0.00000000E+00  0.00000000E+00
  0.00000000E+00  0.00000000E+00  0.00000000E+00
  0.00000000E+00  0.00000000E+00  0.00000000E+00
  0.00000000E+00  0.00000000E+00  0.00000000E+00
  0.00000000E+00  0.00000000E+00  0.00000000E+00
  0.00000000E+00  0.00000000E+00  0.00000000E+00
  0.00000000E+00  0.00000000E+00  0.00000000E+00
  0.00000000E+00  0.00000000E+00  0.00000000E+00
  0.00000000E+00  0.00000000E+00  0.00000000E+00
  0.00000000E+00  0.00000000E+00  0.00000000E+00
  0.00000000E+00  0.00000000E+00  0.00000000E+00
  0.00000000E+00  0.00000000E+00  0.00000000E+00
  0.00000000E+00  0.00000000E+00  0.00000000E+00
  0.00000000E+00  0.00000000E+00  0.00000000E+00
  0.00000000E+00  0.00000000E+00  0.00000000E+00
  0.00000000E+00  0.00000000E+00  0.00000000E+00
  0.00000000E+00  0.00000000E+00  0.00000000E+00
  0.00000000E+00  0.00000000E+00  0.00000000E+00
  0.00000000E+00  0.00000000E+00  0.00000000E+00
  0.00000000E+00  0.00000000E+00  0.00000000E+00
  0.00000000E+00  0.00000000E+00  0.00000000E+00
  0.00000000E+00  0.00000000E+00  0.00000000E+00
  0.00000000E+00  0.00000000E+00  0.00000000E+00
  0.00000000E+00  0.00000000E+00  0.00000000E+00
  0.00000000E+00  0.00000000E+00  0.00000000E+00
  0.00000000E+00  0.00000000E+00  0.00000000E+00
  0.00000000E+00  0.00000000E+00  0.00000000E+00
  0.00000000E+00  0.00000000E+00  0.00000000E+00
  0.00000000E+00  0.00000000E+00  0.00000000E+00
  0.00000000E+00  0.00000000E+00  0.00000000E+00
  0.00000000E+00  0.00000000E+00  0.00000000E+00
  0.00000000E+00  0.00000000E+00  0.00000000E+00
  0.00000000E+00  0.00000000E+00  0.00000000E+00
  0.00000000E+00  0.00000000E+00  0.00000000E+00
  0.00000000E+00  0.00000000E+00  0.00000000E+00
  0.00000000E+00  0.00000000E+00  0.00000000E+00
