Ta  N Cu                                
   1.00000000000000     
    18.1096308199999996    0.0000000000000000    0.0000000000000000
     0.0000000000000000   23.3551997799999995    0.0000000000000000
     0.0000000000000000    0.0000000000000000   30.4818170799999990
   Ta   N    Cu
   240   240    29
Direct
  0.9956851232351221  0.0014850762277612  0.1980383563802718
  0.3275952881363892  0.0648409733702143  0.2001656472532234
  0.1600810325452387  0.0613906858185338  0.2010802399500280
  0.2475907652075002  0.1265977058891474  0.2775930428108533
  0.0765547191480510  0.0615615352182029  0.2833841749095789
  0.4124352196654261  0.0639854011806446  0.2828587309167487
  0.9992186327213706  0.1239575596397503  0.3695003462896745
  0.3294671856629960  0.0608437876678952  0.3684785170396107
  0.1655333751740293  0.0599277768861823  0.3684356613034272
  0.2523143115304733  0.1271256471260651  0.4569454955496717
  0.0818591793097309  0.0599565297030846  0.4542192937283481
  0.4121068979575960  0.0587689687857745  0.4528330507980109
  0.9969252207047350  0.1232197503773740  0.5426118134323330
  0.3347880180085745  0.0599816959496647  0.5413136240348756
  0.1561001684824671  0.0573407711592885  0.5428416318837797
  0.9899403231029595  0.1256400823396627  0.1924686348671740
  0.3223753963501709  0.1837522591393233  0.2045383801873553
  0.1603681827737455  0.1836053680036410  0.2031756495857767
  0.2484560383999989  0.2466081446381346  0.2821778585052383
  0.0788859105159534  0.1847178274606657  0.2844897448457676
  0.4163445891536708  0.1872760275028033  0.2826248595193192
  0.9962043105855168  0.2492768674587438  0.3712045506723015
  0.3312446151045355  0.1868638999692597  0.3693174121475029
  0.1652993382838482  0.1836794187162963  0.3701918666862397
  0.2442616675163357  0.2489901197547261  0.4578539607863507
  0.0857139964146231  0.1850244224951732  0.4560327763481746
  0.4168721721107396  0.1825604565663231  0.4549336692365745
  0.9926026065851304  0.2466775522077005  0.5384693071886967
  0.3288678890138735  0.1834169635688232  0.5452246942806678
  0.1598416695465105  0.1820159606689880  0.5425120841705541
  0.9957546358977136  0.2510667207105957  0.1977230602336140
  0.3231644734345773  0.3177825297783317  0.2061759006127711
  0.1684270435039064  0.3148340705702358  0.2024877515959133
  0.2489437461335833  0.3718778652216636  0.2791661307393850
  0.0803225372745539  0.3062021179760094  0.2848308772085681
  0.4173019083346959  0.3109823776418321  0.2846323840804285
  0.0019120912471339  0.3750435234153170  0.3696632234975927
  0.3300156497361112  0.3122018544478506  0.3683793039334711
  0.1686560871078057  0.3078052503092913  0.3690740042811671
  0.2453413433901546  0.3727017598529553  0.4546728734708326
  0.0816760687456696  0.3118221584068032  0.4536874328297562
  0.4132287033142934  0.3110752463279634  0.4560576608742249
  0.9947776841229838  0.3737810055641475  0.5372363384227489
  0.3334031250780317  0.3094004828509646  0.5400349224776170
  0.1551256669449469  0.3072443017214292  0.5434875792179936
  0.9928769495639866  0.3715368278161492  0.1966205439484578
  0.3280081607560842  0.4337753922874304  0.2057049764303504
  0.1670460026875259  0.4355459147167299  0.1987845667547838
  0.2467211698430713  0.9997117001599740  0.2773172559339960
  0.0853554961985891  0.4362776240331328  0.2822313498992030
  0.4132954766941704  0.4386367056146594  0.2849612913643761
  0.9984638000393350  0.9997968343864982  0.3671028209321529
  0.3284097467783294  0.4368726178157595  0.3695884737866070
  0.1682467085642913  0.4371120652686941  0.3658211564034003
  0.2435102237562271  0.9994756685774006  0.4499973627176054
  0.0826845485756288  0.4371142006678925  0.4536865462647284
  0.4129886474049479  0.4352142135752397  0.4519058311042490
  0.9925758906461807  0.9954176409257960  0.5395063780600615
  0.3323056863016649  0.4378730148166597  0.5362694930303870
  0.1554993866282009  0.4356783242681609  0.5394391874838393
  0.9942030482973805  0.4933945358738298  0.1963186634022718
  0.3273040911953116  0.5660481744004853  0.2021159348993663
  0.1615755053580917  0.5629735723135028  0.2037652096561425
  0.2469073493016616  0.6262474270869416  0.2814842741076770
  0.0796371953170108  0.5611697705873336  0.2806295706066173
  0.4158032501048832  0.5602677072676912  0.2812942164481214
  0.9974127275395641  0.6197631224748317  0.3690959612258727
  0.3309092838441986  0.5636458689939423  0.3681545063903234
  0.1656994289286731  0.5622282096765306  0.3660369019300930
  0.2503358005085345  0.6270529448367667  0.4545364050500261
  0.0814114815012310  0.5637316994762335  0.4524520281333235
  0.4116653418633519  0.5615701022548106  0.4545017394678421
  0.9951695325399216  0.6207112239040633  0.5379288802076132
  0.3278923114123388  0.5591136792746676  0.5415748737704676
  0.1580697413643553  0.5626849471069079  0.5403512111393699
  0.9960653804632755  0.6268424428870299  0.1931123940235696
  0.3256666317413993  0.6835055489017755  0.2029209641521966
  0.1630764169366982  0.6828198855188476  0.2029834710273914
  0.2476496762326962  0.7497328145378959  0.2804385596964598
  0.0786525718161354  0.6871635721635051  0.2836630578378658
  0.4153752661289792  0.6838368353877496  0.2833943705234749
  0.0018053266788267  0.7505546765563998  0.3688576715015662
  0.3301203999567722  0.6827770617487604  0.3691960004884526
  0.1665973015446387  0.6860158448854808  0.3641024315876111
  0.2493497497412450  0.7499108330601993  0.4540295894970536
  0.0829539140166031  0.6892301497683694  0.4495486856100950
  0.4142046828119340  0.6849721831590985  0.4546557377450264
  0.9967345428211848  0.7462193121135576  0.5378981854195606
  0.3255177496102760  0.6824552085664871  0.5423973068934730
  0.1565767926774157  0.6882183403502814  0.5386100396329425
  0.9940201555721423  0.7474451869619322  0.1932924760366685
  0.3242483118130119  0.8162132154185476  0.1986083698133680
  0.1631035180805099  0.8107084559947658  0.2022010765898310
  0.2510413400612279  0.8759641325727903  0.2822283667955881
  0.0794127265592904  0.8124958782300125  0.2827388523578218
  0.4141360487779201  0.8087944981794049  0.2841310234823035
  0.0005162627916582  0.8748438521252682  0.3678268153581065
  0.3307833628921929  0.8118429710425210  0.3683150022086188
  0.1674382476318771  0.8106884916397081  0.3655778109495564
  0.2481360368035971  0.8740518646460911  0.4535418422136537
  0.0839397855704093  0.8125409748119538  0.4518144678216323
  0.4122612486616247  0.8079881085268400  0.4553178676917165
  0.9941570497775639  0.8743394567793337  0.5364158671652610
  0.3313345775454279  0.8116783974664921  0.5430567085451834
  0.1629331712228230  0.8122815810636461  0.5425414537195602
  0.9941197446079716  0.8766912288760921  0.1946296980889417
  0.3261750202721038  0.9361705484272034  0.2005606565710653
  0.1672268932410813  0.9313628004980633  0.2016125434207418
  0.2482119099212412  0.4976292798382739  0.2779910864229702
  0.0785589045345851  0.9349055344484059  0.2844724501852912
  0.4125974818857161  0.9332733609463425  0.2819659205925739
  0.0023123282204664  0.4977463493166427  0.3670542891760732
  0.3296048889635207  0.9382917557227063  0.3632400682674227
  0.1649853421473788  0.9360236253016297  0.3652202229639569
  0.2426414408789649  0.5007104342044836  0.4531217104864925
  0.0824599130234148  0.9352575676609867  0.4513956150288172
  0.4141886474523124  0.9326833227580846  0.4514772227079806
  0.9964566742803692  0.4949647019390853  0.5372868531193550
  0.3320678340703358  0.9397059422336718  0.5394118363250832
  0.1601453912293381  0.9335500353725869  0.5411576195179093
  0.4926250315647254  0.9970749736673672  0.1960422827120994
  0.8229036875150820  0.0675755163180647  0.2024435873173128
  0.6573370683989633  0.0653417217224245  0.1955721038440763
  0.7464828009781285  0.1216525416358668  0.2803999750574184
  0.5809115307587447  0.0614693192684587  0.2805424249636045
  0.9115011213010437  0.0631770410959564  0.2816734186894866
  0.4986666218605431  0.1219206800450787  0.3669686111739138
  0.8349368727449034  0.0603850119064428  0.3672850726193952
  0.6642960180580294  0.0619897792696409  0.3663881031006255
  0.7505523939679041  0.1242401719428627  0.4539223291812776
  0.5803935829640086  0.0600880053206944  0.4512746552839661
  0.9120539185920743  0.0594821015588158  0.4544547076503394
  0.5003445555793946  0.1264551658201134  0.5377574252191547
  0.8339172191963623  0.0628169484056064  0.5401377095533583
  0.6612258403075593  0.0616251501019677  0.5414904656749182
  0.4924263031709862  0.1252622495727006  0.1954084131181869
  0.8216979375344812  0.1812932009303171  0.2034985053278525
  0.6670252133653100  0.1819526128705416  0.2016444911052545
  0.7501338754828947  0.2498055770439904  0.2799736769765417
  0.5812864297888835  0.1856151124512384  0.2847160251760728
  0.9126530729577118  0.1869232425157184  0.2832548909650539
  0.4970084144679088  0.2505903728217305  0.3688205787903553
  0.8275396101592639  0.1864084981251886  0.3687340136530349
  0.6652614169808609  0.1861560375590214  0.3701134852875144
  0.7484031696656669  0.2510795957192866  0.4587383455057009
  0.5825202202964928  0.1825168177163622  0.4533925666385667
  0.9122899806465655  0.1867172122463007  0.4566058246721132
  0.4949986952398294  0.2479881460891303  0.5410307359206766
  0.8375226737679575  0.1877483293166096  0.5437279308051001
  0.6681916136228272  0.1863129642794226  0.5437110997391084
  0.4951601156966995  0.2470878194878499  0.1946107833126184
  0.8219728825739364  0.3151894672091883  0.2008953183381703
  0.6673442955727173  0.3156418963023457  0.2017222220148462
  0.7467611022160519  0.3756254313833750  0.2812188647753152
  0.5844389387019229  0.3141253414373441  0.2822237400270172
  0.9134624376074173  0.3098849193138496  0.2840501658274308
  0.5015221033986105  0.3806447036059407  0.3692467260811207
  0.8257557910344988  0.3118235511737012  0.3692903981394078
  0.6628543651014697  0.3110166212409005  0.3698329718266737
  0.7507558345088479  0.3739712762795455  0.4559300835068801
  0.5800811366114396  0.3096981344674644  0.4530491399907347
  0.9151035679663885  0.3096912567690092  0.4526288510723914
  0.4981550141335428  0.3665397742284591  0.5398723531181044
  0.8344666961876575  0.3092279849995195  0.5455409091746697
  0.6632787637427812  0.3103314032649734  0.5380586502924538
  0.4980017489683854  0.3713191857911541  0.1957108435482961
  0.8213406310281500  0.4296395777692840  0.2043549338314019
  0.6666458845361399  0.4355761211694490  0.2008997275863694
  0.7459508247459925  0.9999898917561183  0.2798883928322276
  0.5810739049312837  0.4379690113825800  0.2841129668881632
  0.9166921990101645  0.4352172098343379  0.2794858853376102
  0.5000995038030613  0.9968798555694546  0.3667214508704526
  0.8311751382422389  0.4365275544383594  0.3677808151557216
  0.6628725698389745  0.4405384318011164  0.3716493935021564
  0.7476969449116914  0.0020959800111659  0.4523416612543417
  0.5802586377100907  0.4362350266537535  0.4552393542559032
  0.9159751221132388  0.4354821892672106  0.4516648010635348
  0.5042368171100394  0.9962068714304396  0.5386125929993123
  0.8364874689860237  0.4396520519345363  0.5391709706903409
  0.6644360671331988  0.4319851214816352  0.5381855940343190
  0.4931023863601459  0.4953194763720751  0.1957691346118834
  0.8253930553959085  0.5651048108384703  0.2035003279829973
  0.6653917167672653  0.5636353067709424  0.2010156893708770
  0.7502369872642799  0.6262888355584151  0.2803651296274886
  0.5798908584477925  0.5622583689078227  0.2843499358564977
  0.9167180415611698  0.5600306313321886  0.2826195553493976
  0.4944225247820581  0.6233246067047803  0.3687338173873643
  0.8351733466334837  0.5624741397054352  0.3698086908440038
  0.6633341179847934  0.5644001580233282  0.3683058613965725
  0.7437652215355531  0.6257000041887120  0.4547162342595291
  0.5787177776277374  0.5612385546730577  0.4543841085113509
  0.9169928843646991  0.5632411437958417  0.4512468598362169
  0.4920027788360776  0.6198433854079574  0.5407801318160511
  0.8373572123533461  0.5649050815111515  0.5374798564408182
  0.6611140556791678  0.5596747399061408  0.5401460673869073
  0.4995907286434487  0.6217621172610941  0.1948132142061894
  0.8295861582165311  0.6834901492664972  0.2034666831961187
  0.6660158927552183  0.6820405997643613  0.2041360648377323
  0.7473854122192529  0.7472087177646991  0.2819130233552338
  0.5791001714664227  0.6865262656193983  0.2838315731697871
  0.9137859303779599  0.6867303775645273  0.2833338769098024
  0.4929960743776257  0.7486354862595960  0.3700003822413002
  0.8290145657560070  0.6873308423237661  0.3679391174678605
  0.6666599264439523  0.6859385676256947  0.3657456681642007
  0.7475072935807445  0.7501938363452402  0.4562664157726002
  0.5808405888797450  0.6853090268759674  0.4538844476644829
  0.9154854234748463  0.6872627625014491  0.4522258280469429
  0.4995027868363711  0.7520731227898312  0.5413837886598089
  0.8288545249672012  0.6948099144964514  0.5409733846970047
  0.6586425924732781  0.6877436532552732  0.5441866785678567
  0.4968035370647899  0.7490841037906927  0.1929041211709991
  0.8217218609254161  0.8152594516705001  0.2058294250087817
  0.6606098142103664  0.8109024247644323  0.2004941919754113
  0.7494438136301150  0.8721424397221357  0.2806670251789848
  0.5788760771172874  0.8105813255137053  0.2837869315810373
  0.9141069745580370  0.8109045751591919  0.2837805986808025
  0.4911343707119973  0.8728052897754104  0.3698356485140975
  0.8276997172425623  0.8110989437332592  0.3680682725560638
  0.6594700862346189  0.8106162115147418  0.3665987231543142
  0.7445532206136553  0.8758657962215656  0.4534305842448350
  0.5835266595635472  0.8105862932510208  0.4487716296221960
  0.9132295194022819  0.8142193744520894  0.4512150790946515
  0.4976174904662376  0.8718432102522319  0.5392508328716341
  0.8347932358875056  0.8162689549387645  0.5403290589930406
  0.6623570343637014  0.8157559424195696  0.5369462124653825
  0.4952008889775810  0.8734136515161760  0.1943168277031457
  0.8230093059812917  0.9287612474588014  0.2020444648240387
  0.6668939697484026  0.9340831064202665  0.1991077538676895
  0.7443528199905505  0.5013752115688946  0.2829496603477771
  0.5793346020124186  0.9375873483909137  0.2823576693110171
  0.9117603312482840  0.9373819216380000  0.2837398471768641
  0.5001256152143065  0.5025149515463209  0.3686414495286528
  0.8292563167585129  0.9363397554187667  0.3679528636597754
  0.6617418188517800  0.9359283794332431  0.3659788988898540
  0.7474494699234703  0.4986182106390703  0.4546246235367604
  0.5794764834391224  0.9362892413201482  0.4516916029260523
  0.9134493423030402  0.9361490579203972  0.4525372486272810
  0.5031422441349502  0.5009258093572990  0.5413453979888750
  0.8332570572991890  0.9376927515681104  0.5385790034422555
  0.6605869600638113  0.9387997459212769  0.5401317835359838
  0.3995216010231656  0.0019591307418559  0.2313723739371199
  0.2458861753541381  0.0003620632858905  0.2025313612991346
  0.0893323863587628  0.9976230975809048  0.2332737042403536
  0.1500783139105348  0.1242898707439768  0.3176264910089233
  0.9971992333622753  0.1231264405301172  0.3013298746945644
  0.3422854464176487  0.1243246064244184  0.3138611994633436
  0.3986599244885027  0.1240476506866527  0.4017222502482909
  0.2452985211666163  0.1236536945791870  0.3890473335402488
  0.0985984416032055  0.1239494173315377  0.4016448150745892
  0.1537845849101519  0.1208274830023968  0.4893663626437751
  0.9992245314773394  0.1210589093263556  0.4744478465263087
  0.3474169815616623  0.1207758072740494  0.4892264004814175
  0.4072242855421977  0.1228000509673520  0.5703784805087329
  0.2488826644732153  0.1212675463056195  0.5632774281296428
  0.0940900149029457  0.1194910248084139  0.5739908000866001
  0.3986020503649861  0.1243492898764882  0.2322090108151503
  0.2443531073882421  0.1212817657047138  0.1855947676176054
  0.0831191751573419  0.1244594141476098  0.2308787111482771
  0.1502299135577059  0.2448694172195347  0.3192398053439828
  0.9957592275771229  0.2474267931427247  0.3038169441981788
  0.3472412640842649  0.2484677808228597  0.3173988374613004
  0.3982703521294380  0.2504621469627430  0.4043026511284122
  0.2474993563447257  0.2464078839252922  0.3916000333135927
  0.0977447591882459  0.2472979461336390  0.4031026630887796
  0.1466743814060130  0.2475768573164456  0.4885578060629159
  0.9975659570364409  0.2481268601997889  0.4717706029773794
  0.3442038990751157  0.2436939287243408  0.4886373499572307
  0.4005013647961158  0.2476007457472026  0.5729847755698564
  0.2412593120001504  0.2487219967875684  0.5586863372070044
  0.0870992496552539  0.2433760165382637  0.5716055829826832
  0.4002307005689592  0.2502167770082918  0.2313306581947533
  0.2452960181241428  0.2476501304426996  0.2107499276816219
  0.0918478930639568  0.2517019782722367  0.2322534874221195
  0.1519081954408140  0.3720702374965548  0.3159095422697671
  0.9978417835431563  0.3739516041572828  0.3009097364062109
  0.3451456509636754  0.3726065946354229  0.3160898681273378
  0.4019921969791009  0.3736248332288803  0.3999885247370571
  0.2477602932999789  0.3742614120256467  0.3884653084973030
  0.1009818510101460  0.3740974830876097  0.4024805762890376
  0.1508063350408203  0.3739244081789364  0.4893652479840459
  0.9996153857795212  0.3732153479257718  0.4685019928919357
  0.3481294428328490  0.3711155754592420  0.4869280028966411
  0.3963868351619870  0.3701437313815982  0.5683795741842355
  0.2457930036066140  0.3792883324390626  0.5601200287433631
  0.0865026280500945  0.3693508247242655  0.5705870420590670
  0.4073582463634972  0.3749784511288550  0.2340233301429195
  0.2430570693095975  0.3752590085556942  0.1780319421567468
  0.0943310304419049  0.3732114415707776  0.2328538515159289
  0.1495837814791713  0.0016343779112054  0.3141107589360926
  0.9960737647207609  0.9965022754236433  0.3003958714488756
  0.3423459125991500  0.0005590879040276  0.3142441901013497
  0.4019158536383458  0.9995260958609169  0.3997205550992180
  0.2464154515872198  0.9999000859169487  0.3845270840671103
  0.0938342806142307  0.0008092752162453  0.4014817595981564
  0.1492968217295388  0.9948865563435382  0.4850259330288625
  0.0002909786604770  0.9960384739494208  0.4714933579049427
  0.3418033851814259  0.9971498175096061  0.4821019575803395
  0.4047442367564284  0.9979323818712084  0.5670802874017714
  0.2485525294362067  0.9989117499885053  0.5556753812743896
  0.0911954243734702  0.9950019761728276  0.5699045660735143
  0.4002902653264958  0.4977086998710046  0.2320713066560556
  0.2469450096475093  0.4993603926789761  0.2105829323390777
  0.0869977824488814  0.5003972301775337  0.2295724296442458
  0.1442922567444284  0.6234788216444737  0.3144800313059355
  0.9949710310913561  0.6251635472611191  0.3025285274001319
  0.3447837070444750  0.6212515824810567  0.3158094789492820
  0.3974876923383904  0.6222677888570320  0.4044038947016347
  0.2453955627956360  0.6228071921823592  0.3846992886651364
  0.0972749028651565  0.6231515150018192  0.4012735964436387
  0.1500836563720970  0.6244022746732286  0.4859033205023273
  0.0008197447033588  0.6237077802941215  0.4687392872755724
  0.3478917628133253  0.6215047706027583  0.4901025696423180
  0.3966036974752177  0.6244393129277270  0.5733363512092138
  0.2464804368332844  0.6240103246517799  0.5598152385830474
  0.0878350839967795  0.6212976478197624  0.5664982633963053
  0.4041420060723728  0.6207139659865041  0.2309661491279046
  0.2458856745305133  0.6238667109915438  0.1818321874786777
  0.0846298011679894  0.6254132891577699  0.2332499799724130
  0.1499690507114466  0.7509066651343429  0.3158535684119326
  0.9971321662164601  0.7491874934379023  0.3006925230997406
  0.3471848658700374  0.7469291219370836  0.3168012954804779
  0.3960940739449322  0.7453026558600662  0.4038135183106821
  0.2477657450113830  0.7490714994448244  0.3852293668140024
  0.0984981445657770  0.7496786881055155  0.3991139690259475
  0.1492234949166960  0.7518000830399936  0.4835599609446736
  0.9999870586607629  0.7534343742393040  0.4700806208466372
  0.3494692047150184  0.7469054927911233  0.4882189874382854
  0.3979973973919550  0.7511553833597495  0.5734776303911171
  0.2425691423396378  0.7452980018415715  0.5568992434424915
  0.0940408457600794  0.7489531445929090  0.5700580724302755
  0.4017011220069240  0.7480371773597706  0.2319010464169292
  0.2462720083800024  0.7462746560696109  0.2069803833775545
  0.0869240384668752  0.7480790741149661  0.2293874286036219
  0.1484070493218584  0.8720018280266064  0.3152666433724651
  0.9981405997175232  0.8741733774479885  0.3009489459416493
  0.3451635681293329  0.8724421775523452  0.3166375454396406
  0.3924086948152107  0.8746849126079336  0.4012324600274511
  0.2492307753563034  0.8726472177591980  0.3845292390204786
  0.0975217856943197  0.8699700041898466  0.4011132020815894
  0.1521776692222874  0.8731154888167818  0.4860658269113196
  0.0006380539069358  0.8731137064553134  0.4663786423581282
  0.3448825721641749  0.8732982972242573  0.4877723278561855
  0.3989093223065858  0.8750415016990203  0.5674821078310864
  0.2485251020073587  0.8730668520335864  0.5556873541586699
  0.0901178224163270  0.8682962915111526  0.5667484021716761
  0.4007500186498544  0.8707428277211148  0.2308414261648011
  0.2437572913380878  0.8722908715910882  0.1828085863809900
  0.0910803557473294  0.8738278149944478  0.2318551980952002
  0.1519089484170046  0.5005677575117806  0.3137289401932558
  0.9987509251082325  0.4966947897542240  0.2999228605610209
  0.3449552108729875  0.4981505244410670  0.3172285546428482
  0.3988487050606048  0.4998671992606129  0.4016594229192202
  0.2452976645004792  0.5003888301306163  0.3849361144070365
  0.0991566509824502  0.4999170499149739  0.4001913939172859
  0.1440384758479363  0.5019447653767405  0.4846886545548517
  0.9999935246641166  0.4972520306465678  0.4687655939422096
  0.3417998785124244  0.5011253736291760  0.4871827195135983
  0.4021830228820249  0.5005184972900263  0.5662725992280765
  0.2437466561625267  0.4982556196301166  0.5534986830930537
  0.0882560909572335  0.4998496734555025  0.5687651246145340
  0.8970735164274501  0.9999409959241518  0.2310599776906457
  0.7449293674814507  0.9991367095778692  0.2064577974495353
  0.5895714618028330  0.9960594285300197  0.2258842028631640
  0.6486270984276364  0.1223754012756497  0.3159983973422208
  0.4974592160486969  0.1231529182194408  0.3004223621891403
  0.8428020808692750  0.1235607948950406  0.3143078486253347
  0.8986756516367888  0.1240608614978794  0.4038110636484383
  0.7495172981253337  0.1198584667795269  0.3870943731042183
  0.5956550047318927  0.1236355332275585  0.4010717956246384
  0.6491970552167509  0.1225153414687607  0.4877191685024069
  0.5023475075402813  0.1202252606393904  0.4688187670940271
  0.8442220319282585  0.1237873547420482  0.4882788112582651
  0.8995695105601006  0.1213463488217125  0.5732658252329308
  0.7490159875906715  0.1231504527383811  0.5594464195096500
  0.5972767794103016  0.1193011312495203  0.5698301723528536
  0.9034984765393670  0.1249237714301010  0.2314737283352994
  0.7404892192742896  0.1226374689156661  0.1720741818658139
  0.5891297353883433  0.1250721940475523  0.2292713948439918
  0.6521869424332700  0.2494060358088819  0.3153635098387129
  0.5024512322908918  0.2483889803063386  0.3014533337567338
  0.8444592461830268  0.2510000668070268  0.3168871073206213
  0.8968367209710626  0.2480557016077533  0.4032212768909382
  0.7477056677302218  0.2490529651507314  0.3906593154603618
  0.5961503784687863  0.2472012293244538  0.4022248986615617
  0.6501137506024112  0.2480927611066778  0.4892640145816600
  0.4995975744355047  0.2459793558573831  0.4753712874284079
  0.8467866566635849  0.2522606617674906  0.4902318797312247
  0.9005533476635353  0.2528808178264185  0.5733152292706178
  0.7497534605859377  0.2467834024864022  0.5587221213367052
  0.5982568451322389  0.2492547956067083  0.5723865468027353
  0.8940196976081578  0.2470913332099710  0.2317479105463376
  0.7422451801823943  0.2473582492673742  0.2107080667164231
  0.5906922970470609  0.2472396804745411  0.2309164557174848
  0.6512330907270224  0.3754603775533815  0.3190914118926403
  0.5014497023701446  0.3773474043634420  0.3012125397415341
  0.8431504638607805  0.3740636544690806  0.3160595332602905
  0.8973006606714272  0.3752976376641712  0.4011049091241759
  0.7462907940892500  0.3765784393274927  0.3889451083330801
  0.5967786250986933  0.3747580848167950  0.4033469325227834
  0.6491752852748288  0.3721184351282261  0.4848114565439139
  0.4976465427752150  0.3739920419959373  0.4748510512227866
  0.8470400443047572  0.3700316174902125  0.4885194270889242
  0.8983900108003807  0.3777175606163463  0.5733806811399530
  0.7439062691754855  0.3720541544922886  0.5620570588125228
  0.5969924311556716  0.3679765223432975  0.5695116659504306
  0.9000596157729408  0.3711171957659701  0.2329330147084745
  0.7414415830960548  0.3737076600080204  0.1750171187577806
  0.5924356106340919  0.3756381795972957  0.2314586183037702
  0.6481355315399745  0.9996009102174935  0.3151618562842043
  0.4935827940378132  0.0000472548250539  0.3002048740918192
  0.8420673475999138  0.9988984649080561  0.3139186779439844
  0.8989795600494259  0.9983199731413510  0.4014929407177238
  0.7484651190502359  0.9973882965162869  0.3846960339480597
  0.5986156248700930  0.9970744933401058  0.4001107046075145
  0.6472034478838906  0.0007905535087026  0.4848375058783999
  0.4980306698011923  0.9971603756765468  0.4704429530740494
  0.8443162268152017  0.9978121872577569  0.4849566821245611
  0.8972786874590358  0.9992900988430156  0.5682845629940885
  0.7495566625120978  0.0003801603227205  0.5534389455330239
  0.6020866011587747  0.9974264116071415  0.5710196344761886
  0.8984263567817424  0.4974053326577655  0.2313331314307395
  0.7466425268829241  0.4988194459662469  0.2115586422069875
  0.5882577075048178  0.4973209445911371  0.2312472153201893
  0.6522089549757477  0.6251404171400486  0.3149705781385346
  0.5028811480221247  0.6207386814611840  0.3025365539919246
  0.8473363156729935  0.6229010258797489  0.3173445775899199
  0.8986202864041053  0.6239081167983292  0.4019007488264749
  0.7482264238228431  0.6246046209283272  0.3860881383072352
  0.5935698087954809  0.6250918493340165  0.4014586199520804
  0.6439444797670993  0.6219509016122234  0.4885295091941550
  0.4955726398167175  0.6216019019082456  0.4731766844608691
  0.8457162851496530  0.6251213879813732  0.4842868330262820
  0.9004245389135257  0.6228544991786471  0.5726409392600098
  0.7459025067427271  0.6272564866052351  0.5585478709070045
  0.5931430248659889  0.6222910459268076  0.5706292017576579
  0.9070694521399258  0.6252056673986368  0.2321321111229751
  0.7446401795213309  0.6237272888775884  0.1840193489552681
  0.5922439523425307  0.6235608428748198  0.2322922830917472
  0.6468834217315915  0.7467350487667321  0.3155283889924172
  0.4955661089309137  0.7487459110692108  0.3021243868205205
  0.8461391299623638  0.7476211614973084  0.3175700241816042
  0.9010367245393283  0.7473851253759485  0.4015160499106588
  0.7458368535864986  0.7489366838304917  0.3877612487115320
  0.5953077723439708  0.7460609206729478  0.4011336548763836
  0.6498460044084945  0.7463443670679805  0.4876395557349915
  0.4998037892304459  0.7493267080049764  0.4729724107766508
  0.8482959071237156  0.7512672987853500  0.4841796571557235
  0.8999244051858403  0.7527474892837298  0.5683196651699319
  0.7461284512718966  0.7518968686104545  0.5558399543057925
  0.5984809904060271  0.7541825348821481  0.5757918400109725
  0.9042289657559808  0.7471188096792012  0.2322476872558677
  0.7464822076921191  0.7478938529487043  0.2106002028713390
  0.5846813684353270  0.7477979829060258  0.2318263767363872
  0.6494576442862982  0.8766379695265203  0.3123462227465814
  0.4982082485516032  0.8708789612963033  0.2998206375806617
  0.8419650562854722  0.8750406913187549  0.3151467386770360
  0.8966584449512986  0.8759535414325328  0.3996847835791278
  0.7433560710193479  0.8769969435017905  0.3863556648485758
  0.5932549195264938  0.8751472900360799  0.3997863722841128
  0.6437750185777746  0.8748955305630556  0.4843389194735754
  0.4934918391658513  0.8705936238632792  0.4707930581819440
  0.8437527580973392  0.8747627062117806  0.4849263322899505
  0.9042906227530594  0.8748745657115974  0.5686982378973117
  0.7491743469552075  0.8744462805183743  0.5562906768241960
  0.5944657014291772  0.8762734885037846  0.5705448566531001
  0.9031275166260572  0.8733821158381204  0.2336300131614728
  0.7415512545784129  0.8716766662071299  0.1815506607665533
  0.5912011479361046  0.8727196321908058  0.2315326676280264
  0.6488809204927249  0.4996764680391387  0.3185292833351440
  0.4989142687930374  0.4998016211604970  0.3020684236234665
  0.8421888283602286  0.4981259683181699  0.3163317806181411
  0.9013290682645131  0.4976682821867218  0.4019146084833338
  0.7478089592662022  0.5025662751895255  0.3857807868057617
  0.5927112528211738  0.5001012004432847  0.4046603797267188
  0.6448934378248571  0.4992028019842215  0.4855528813760147
  0.4963660919499221  0.5010856512674023  0.4745232136110627
  0.8483956192672039  0.5000675933839844  0.4846043220003236
  0.8964929182970783  0.5005112393422946  0.5692036615549202
  0.7506918019926414  0.5001122267198116  0.5563381205447505
  0.6018714890571689  0.4953077497788407  0.5693916446482229
  0.4426967809962621  0.3842106894031465  0.6236091709234373
  0.6055111002236309  0.6235601206746151  0.6333440844716896
  0.4798523305242734  0.4442330367310891  0.6865847605168697
  0.6250282274838681  0.4514778290719671  0.6942489942928936
  0.6406017168962282  0.3417635100239386  0.6860685271567700
  0.5287976649916643  0.5029893550093015  0.7458529728597340