Mo  S Co                                
   1.00000000000000     
    15.9214998300000001    0.0000000000000000    0.0000000000000000
    -7.9622501300000001   13.7910221699999997    0.0000000000000000
     0.0000000000000000    0.0000000000000000   13.5821998300000004
   Mo   S    Ru
    25    49     4
Direct
  0.1329333641182942  0.0676185521584003  0.6718730496220147
  0.1342758488830640  0.2673045813796904  0.6696626888960964
  0.1307735842542499  0.4642317628556754  0.6748881211544884
  0.1334526370138605  0.6662336585576796  0.6782883651914062
  0.1336724023007889  0.8670259211017850  0.6753568330713193
  0.3328113949685658  0.0667520483599588  0.6774049853964925
  0.3277902007106661  0.2647940540146507  0.6762196293945166
  0.3197141707268614  0.4529140392859290  0.6870395681579495
  0.3352830358298178  0.6668073900863618  0.6883792237332216
  0.3336034068671978  0.8669443500965386  0.6791027554837967
  0.5337819267881869  0.0668884563242642  0.6775024791080497
  0.5362637321843593  0.2664349099233405  0.6841364028982042
  0.5368102554706695  0.4640133491478196  0.6854551726797595
  0.5378394063862899  0.6747370866261591  0.6884697452645412
  0.5350547673970851  0.8708250066095928  0.6783666218747086
  0.7349059928893809  0.0681092571924822  0.6749310009070157
  0.7347407546830809  0.2666499542450040  0.6766552093860980
  0.7314321421780861  0.4639249995338943  0.6832021966076098
  0.7369583500151293  0.6715419594850900  0.6778807754984015
  0.7353852845412092  0.8693283281706314  0.6782310173153050
  0.9347755124602557  0.0682197473525648  0.6730213215478429
  0.9338758264177400  0.2664554769204628  0.6734273032243649
  0.9332585695271973  0.4662784204927632  0.6761649381136294
  0.9338585196171891  0.6675790168870179  0.6769693735409916
  0.9346922914844669  0.8683523846391523  0.6742337158127683
  0.0667124490422424  0.1344752950749850  0.5555049905265790
  0.0707383922360378  0.1376428332978392  0.7869906924569605
  0.0667204601635589  0.3331726980152183  0.5568111689122262
  0.0677155268889180  0.3302972512108511  0.7885457994983369
  0.0668175300756957  0.5343159724918607  0.5610184884918681
  0.0649273618208994  0.5316427864600684  0.7912650849808784
  0.0672828863220545  0.7323669854768653  0.5617629418229768
  0.0671005893135757  0.7344131325620751  0.7916469002181685
  0.0672179051117112  0.9329825665359408  0.5583322274622589
  0.0675448832023875  0.9354364859536588  0.7886319490698952
  0.2690120653023840  0.1349918568850725  0.5592577735013009
  0.2606070798407458  0.1309521260344653  0.7901829837196388
  0.2681253665883148  0.3350869761690589  0.5603301787319950
  0.2715092273026514  0.5341412521863944  0.5707131535533776
  0.2493396328973461  0.5187712683720989  0.8051576614042091
  0.2696351019312289  0.7311752809577712  0.5674282788901266
  0.2651048289542572  0.7341961239451251  0.7966160934619992
  0.2682795130879185  0.9334324134327616  0.5620965194024379
  0.2653257173041652  0.9335238350091970  0.7922502169691299
  0.4683288325356827  0.1360064085320047  0.5648759732586086
  0.4657093697807397  0.1304163089642714  0.7941596751055329
  0.4683182579599929  0.3335299733356507  0.5695980431724124
  0.4430724074129344  0.3151455211527363  0.8027705482982768
  0.4630204489344294  0.5336338948164112  0.5826547596235869
  0.4422971406775247  0.4939226235233036  0.8113582151568437
  0.4668525382738409  0.7322644164874177  0.5709928861784306
  0.4766429272436099  0.7486525758838170  0.8043235054998306
  0.4661100258199582  0.9335973313355481  0.5625678696636456
  0.4671577877760456  0.9359619555998577  0.7937838395487731
  0.6662978390348115  0.1339664704137107  0.5610620285873154
  0.6684383889300065  0.1330680689277344  0.7912019073980971
  0.6653921227174635  0.3337383942314531  0.5668670079114122
  0.6733017762133429  0.3276992203563580  0.8075984538914796
  0.6655615936343438  0.5334815025378461  0.5684850827166841
  0.6790074963591550  0.5488197619955315  0.8046146151169751
  0.6643926067076791  0.7334914182428349  0.5662860693298484
  0.6726657733966519  0.7388057659446261  0.8016499938456647
  0.6670487851033826  0.9333667493708617  0.5617871074182261
  0.6705170013374726  0.9385609887472768  0.7921320951542370
  0.8667774006621656  0.1336875936277693  0.5581668014101240
  0.8686664417590322  0.1344012305561790  0.7889412395741928
  0.8664276638459256  0.3340537604397511  0.5599258055869925
  0.8693053537403941  0.3328483391706669  0.7904802802330977
  0.8628823076565482  0.5317925142497941  0.5645029683854048
  0.8684316679187063  0.5337673705944965  0.7926434380848377
  0.8669111688050535  0.7334828899182781  0.5608437130763448
  0.8713765306516379  0.7380313853863214  0.7917743958889432
  0.8657340481858355  0.9334205799416679  0.5596698105223865
  0.8710099484347964  0.9374143314004684  0.7899802723165550
  0.3770176602944559  0.3703302270482354  0.9017862725977324
  0.5887161312829363  0.4003410548381652  0.8570903049210088
  0.5796995686345028  0.5856577971207670  0.8822087229805078
  0.4018153964502886  0.5957711658999045  0.8560989343009098
 
  0.00000000E+00  0.00000000E+00  0.00000000E+00
  0.00000000E+00  0.00000000E+00  0.00000000E+00
  0.00000000E+00  0.00000000E+00  0.00000000E+00
  0.00000000E+00  0.00000000E+00  0.00000000E+00
  0.00000000E+00  0.00000000E+00  0.00000000E+00
  0.00000000E+00  0.00000000E+00  0.00000000E+00
  0.00000000E+00  0.00000000E+00  0.00000000E+00
  0.00000000E+00  0.00000000E+00  0.00000000E+00
  0.00000000E+00  0.00000000E+00  0.00000000E+00
  0.00000000E+00  0.00000000E+00  0.00000000E+00
  0.00000000E+00  0.00000000E+00  0.00000000E+00
  0.00000000E+00  0.00000000E+00  0.00000000E+00
  0.00000000E+00  0.00000000E+00  0.00000000E+00
  0.00000000E+00  0.00000000E+00  0.00000000E+00
  0.00000000E+00  0.00000000E+00  0.00000000E+00
  0.00000000E+00  0.00000000E+00  0.00000000E+00
  0.00000000E+00  0.00000000E+00  0.00000000E+00
  0.00000000E+00  0.00000000E+00  0.00000000E+00
  0.00000000E+00  0.00000000E+00  0.00000000E+00
  0.00000000E+00  0.00000000E+00  0.00000000E+00
  0.00000000E+00  0.00000000E+00  0.00000000E+00
  0.00000000E+00  0.00000000E+00  0.00000000E+00
  0.00000000E+00  0.00000000E+00  0.00000000E+00
  0.00000000E+00  0.00000000E+00  0.00000000E+00
  0.00000000E+00  0.00000000E+00  0.00000000E+00
  0.00000000E+00  0.00000000E+00  0.00000000E+00
  0.00000000E+00  0.00000000E+00  0.00000000E+00
  0.00000000E+00  0.00000000E+00  0.00000000E+00
  0.00000000E+00  0.00000000E+00  0.00000000E+00
  0.00000000E+00  0.00000000E+00  0.00000000E+00
  0.00000000E+00  0.00000000E+00  0.00000000E+00
  0.00000000E+00  0.00000000E+00  0.00000000E+00
  0.00000000E+00  0.00000000E+00  0.00000000E+00
  0.00000000E+00  0.00000000E+00  0.00000000E+00
  0.00000000E+00  0.00000000E+00  0.00000000E+00
  0.00000000E+00  0.00000000E+00  0.00000000E+00
  0.00000000E+00  0.00000000E+00  0.00000000E+00
  0.00000000E+00  0.00000000E+00  0.00000000E+00
  0.00000000E+00  0.00000000E+00  0.00000000E+00
  0.00000000E+00  0.00000000E+00  0.00000000E+00
  0.00000000E+00  0.00000000E+00  0.00000000E+00
  0.00000000E+00  0.00000000E+00  0.00000000E+00
  0.00000000E+00  0.00000000E+00  0.00000000E+00
  0.00000000E+00  0.00000000E+00  0.00000000E+00
  0.00000000E+00  0.00000000E+00  0.00000000E+00
  0.00000000E+00  0.00000000E+00  0.00000000E+00
  0.00000000E+00  0.00000000E+00  0.00000000E+00
  0.00000000E+00  0.00000000E+00  0.00000000E+00
  0.00000000E+00  0.00000000E+00  0.00000000E+00
  0.00000000E+00  0.00000000E+00  0.00000000E+00
  0.00000000E+00  0.00000000E+00  0.00000000E+00
  0.00000000E+00  0.00000000E+00  0.00000000E+00
  0.00000000E+00  0.00000000E+00  0.00000000E+00
  0.00000000E+00  0.00000000E+00  0.00000000E+00
  0.00000000E+00  0.00000000E+00  0.00000000E+00
  0.00000000E+00  0.00000000E+00  0.00000000E+00
  0.00000000E+00  0.00000000E+00  0.00000000E+00
  0.00000000E+00  0.00000000E+00  0.00000000E+00
  0.00000000E+00  0.00000000E+00  0.00000000E+00
  0.00000000E+00  0.00000000E+00  0.00000000E+00
  0.00000000E+00  0.00000000E+00  0.00000000E+00
  0.00000000E+00  0.00000000E+00  0.00000000E+00
  0.00000000E+00  0.00000000E+00  0.00000000E+00
  0.00000000E+00  0.00000000E+00  0.00000000E+00
  0.00000000E+00  0.00000000E+00  0.00000000E+00
  0.00000000E+00  0.00000000E+00  0.00000000E+00
  0.00000000E+00  0.00000000E+00  0.00000000E+00
  0.00000000E+00  0.00000000E+00  0.00000000E+00
  0.00000000E+00  0.00000000E+00  0.00000000E+00
  0.00000000E+00  0.00000000E+00  0.00000000E+00
  0.00000000E+00  0.00000000E+00  0.00000000E+00
  0.00000000E+00  0.00000000E+00  0.00000000E+00
  0.00000000E+00  0.00000000E+00  0.00000000E+00
  0.00000000E+00  0.00000000E+00  0.00000000E+00
  0.00000000E+00  0.00000000E+00  0.00000000E+00
  0.00000000E+00  0.00000000E+00  0.00000000E+00
  0.00000000E+00  0.00000000E+00  0.00000000E+00
  0.00000000E+00  0.00000000E+00  0.00000000E+00
