Mo  S Cu                                
   1.00000000000000     
    15.9214998300000001    0.0000000000000000    0.0000000000000000
    -7.9622501300000001   13.7910221699999997    0.0000000000000000
     0.0000000000000000    0.0000000000000000   13.5821998300000004
   Mo   S    Cu
    25    50     2
Direct
  0.1326742419014977  0.0658935250846397  0.6787288954110906
  0.1327245038824927  0.2658722256112469  0.6783804644485016
  0.1326971121424947  0.4657158637066487  0.6788593773870915
  0.1326774503182691  0.6658191278220968  0.6788958324884007
  0.1327171596310919  0.8658225310766099  0.6788451119394239
  0.3324723467935087  0.0654072931654994  0.6785740873840993
  0.3323962646871266  0.2656184852059056  0.6781881954959630
  0.3326157472348683  0.4656731066848465  0.6784654705855715
  0.3328700307529644  0.6660903351366088  0.6787396410781312
  0.3326435046386820  0.8658228362294977  0.6788517318599858
  0.5327611503193879  0.0658968385623311  0.6787982906692420
  0.5328215041203208  0.2656552367468947  0.6783285473289666
  0.5326135426649117  0.4656862188107240  0.6787646462149795
  0.5328224581081784  0.6661235694567083  0.6787536779296204
  0.5327412834691216  0.8659275687871144  0.6788560049557262
  0.7327864052437860  0.0656685909369088  0.6787347547019564
  0.7326697816549768  0.2658904652075691  0.6785386429537184
  0.7325932193847819  0.4656792986061618  0.6785837203988763
  0.7328289262826786  0.6661393356127263  0.6787711259544196
  0.7326597260814935  0.8657946055107715  0.6788315305274182
  0.9323996598984863  0.0656595821438231  0.6787100634332504
  0.9324862173054100  0.2654707912506495  0.6785776027459107
  0.9325536506828342  0.4657233505787204  0.6788963742140552
  0.9327692442287514  0.6661105182459366  0.6787553191737530
  0.9327155478567875  0.8659240719459262  0.6788521875533817
  0.0657783841197670  0.1323905524502109  0.5635403460996500
  0.0657847822982589  0.1322989001556962  0.7939277412129115
  0.0658604283479391  0.3323843355836331  0.5635108042897414
  0.0658422750517289  0.3324113537768056  0.7940554889416234
  0.0659609229324190  0.5324111259084887  0.5638680523461872
  0.0659978603715530  0.5324337493365903  0.7938981968990291
  0.0660505995350888  0.7325277330971716  0.5637412444158301
  0.0660363319273714  0.7325350899874579  0.7939604533430966
  0.0660357589502496  0.9325374564000342  0.5637590608274863
  0.0660713837542559  0.9326141722103856  0.7938822522587827
  0.2659821025105984  0.1322728031779548  0.5634460091425311
  0.2658880759173741  0.1321532630951197  0.7939048214142943
  0.2659470260293446  0.3324688810522574  0.5628664125536744
  0.2659833790392483  0.3325880963521897  0.7932580008337524
  0.2661152844938641  0.5326561708341728  0.5636271946001656
  0.2660671242067991  0.5325778020429297  0.7940740080914210
  0.2660173147984324  0.7325326546005400  0.5637442454293762
  0.2660367498955907  0.7325213782049218  0.7939550848015884
  0.2659096961731038  0.9322684002059205  0.5635844624680715
  0.2659483468981776  0.9323622059700440  0.7940301057692309
  0.4658976119035998  0.1323350646820174  0.5635289003770083
  0.4657924858046059  0.1321464594450106  0.7939818429206227
  0.4659488375643122  0.3322453097223814  0.5634097416634489
  0.4659014274717421  0.3323305838693145  0.7939479971322783
  0.4661319648017894  0.5326584187658625  0.5636250371354592
  0.4661672581168048  0.5325982473785729  0.7940081973884219
  0.4661151209832823  0.7326908632595135  0.5637238494658945
  0.4661133546214558  0.7326835339289772  0.7939480979672453
  0.4660531026375523  0.9325681730644106  0.5637816109838383
  0.4660619754673760  0.9325824630900428  0.7939081831733219
  0.6661603298089744  0.1324552932119474  0.5636281435160413
  0.6660461653599086  0.1322863523285633  0.7940272776990298
  0.6660899579797004  0.3324824713327459  0.5630085866336998
  0.6661341775912959  0.3325674292732472  0.7934713541472362
  0.6661064571502209  0.5326490427859838  0.5636820935759843
  0.6659441735208347  0.5326609604296664  0.7940412217255641
  0.6660688008602591  0.7326034930568284  0.5636378869783130
  0.6660443280242845  0.7325740708285338  0.7940072882703220
  0.6660096120132124  0.9324398919463874  0.5636947945367581
  0.6660215066410657  0.9324684255490681  0.7939761608323224
  0.8659059567920337  0.1323112265653066  0.5636008164130359
  0.8659436710679387  0.1323458492499157  0.7939223761440317
  0.8659841718204078  0.3323778646317521  0.5635764714412517
  0.8661575515130622  0.3324393313416181  0.7941288627713234
  0.8660320614310990  0.5326373765833097  0.5636943965396171
  0.8661272790007288  0.5326530858326706  0.7941067978948979
  0.8660992708866857  0.7326823833648888  0.5637288768907283
  0.8661052315935436  0.7326942413311670  0.7939504182403354
  0.8659454992158828  0.9324179296876807  0.5636884466276655
  0.8659840717258263  0.9324726558858245  0.7939653076854754
  0.2671392050137200  0.3423768315365336  0.9526930580118673
  0.6726742238131251  0.3385133962022380  0.9531343547278652
 
  0.00000000E+00  0.00000000E+00  0.00000000E+00
  0.00000000E+00  0.00000000E+00  0.00000000E+00
  0.00000000E+00  0.00000000E+00  0.00000000E+00
  0.00000000E+00  0.00000000E+00  0.00000000E+00
  0.00000000E+00  0.00000000E+00  0.00000000E+00
  0.00000000E+00  0.00000000E+00  0.00000000E+00
  0.00000000E+00  0.00000000E+00  0.00000000E+00
  0.00000000E+00  0.00000000E+00  0.00000000E+00
  0.00000000E+00  0.00000000E+00  0.00000000E+00
  0.00000000E+00  0.00000000E+00  0.00000000E+00
  0.00000000E+00  0.00000000E+00  0.00000000E+00
  0.00000000E+00  0.00000000E+00  0.00000000E+00
  0.00000000E+00  0.00000000E+00  0.00000000E+00
  0.00000000E+00  0.00000000E+00  0.00000000E+00
  0.00000000E+00  0.00000000E+00  0.00000000E+00
  0.00000000E+00  0.00000000E+00  0.00000000E+00
  0.00000000E+00  0.00000000E+00  0.00000000E+00
  0.00000000E+00  0.00000000E+00  0.00000000E+00
  0.00000000E+00  0.00000000E+00  0.00000000E+00
  0.00000000E+00  0.00000000E+00  0.00000000E+00
  0.00000000E+00  0.00000000E+00  0.00000000E+00
  0.00000000E+00  0.00000000E+00  0.00000000E+00
  0.00000000E+00  0.00000000E+00  0.00000000E+00
  0.00000000E+00  0.00000000E+00  0.00000000E+00
  0.00000000E+00  0.00000000E+00  0.00000000E+00
  0.00000000E+00  0.00000000E+00  0.00000000E+00
  0.00000000E+00  0.00000000E+00  0.00000000E+00
  0.00000000E+00  0.00000000E+00  0.00000000E+00
  0.00000000E+00  0.00000000E+00  0.00000000E+00
  0.00000000E+00  0.00000000E+00  0.00000000E+00
  0.00000000E+00  0.00000000E+00  0.00000000E+00
  0.00000000E+00  0.00000000E+00  0.00000000E+00
  0.00000000E+00  0.00000000E+00  0.00000000E+00
  0.00000000E+00  0.00000000E+00  0.00000000E+00
  0.00000000E+00  0.00000000E+00  0.00000000E+00
  0.00000000E+00  0.00000000E+00  0.00000000E+00
  0.00000000E+00  0.00000000E+00  0.00000000E+00
  0.00000000E+00  0.00000000E+00  0.00000000E+00
  0.00000000E+00  0.00000000E+00  0.00000000E+00
  0.00000000E+00  0.00000000E+00  0.00000000E+00
  0.00000000E+00  0.00000000E+00  0.00000000E+00
  0.00000000E+00  0.00000000E+00  0.00000000E+00
  0.00000000E+00  0.00000000E+00  0.00000000E+00
  0.00000000E+00  0.00000000E+00  0.00000000E+00
  0.00000000E+00  0.00000000E+00  0.00000000E+00
  0.00000000E+00  0.00000000E+00  0.00000000E+00
  0.00000000E+00  0.00000000E+00  0.00000000E+00
  0.00000000E+00  0.00000000E+00  0.00000000E+00
  0.00000000E+00  0.00000000E+00  0.00000000E+00
  0.00000000E+00  0.00000000E+00  0.00000000E+00
  0.00000000E+00  0.00000000E+00  0.00000000E+00
  0.00000000E+00  0.00000000E+00  0.00000000E+00
  0.00000000E+00  0.00000000E+00  0.00000000E+00
  0.00000000E+00  0.00000000E+00  0.00000000E+00
  0.00000000E+00  0.00000000E+00  0.00000000E+00
  0.00000000E+00  0.00000000E+00  0.00000000E+00
  0.00000000E+00  0.00000000E+00  0.00000000E+00
  0.00000000E+00  0.00000000E+00  0.00000000E+00
  0.00000000E+00  0.00000000E+00  0.00000000E+00
  0.00000000E+00  0.00000000E+00  0.00000000E+00
  0.00000000E+00  0.00000000E+00  0.00000000E+00
  0.00000000E+00  0.00000000E+00  0.00000000E+00
  0.00000000E+00  0.00000000E+00  0.00000000E+00
  0.00000000E+00  0.00000000E+00  0.00000000E+00
  0.00000000E+00  0.00000000E+00  0.00000000E+00
  0.00000000E+00  0.00000000E+00  0.00000000E+00
  0.00000000E+00  0.00000000E+00  0.00000000E+00
  0.00000000E+00  0.00000000E+00  0.00000000E+00
  0.00000000E+00  0.00000000E+00  0.00000000E+00
  0.00000000E+00  0.00000000E+00  0.00000000E+00
  0.00000000E+00  0.00000000E+00  0.00000000E+00
  0.00000000E+00  0.00000000E+00  0.00000000E+00
  0.00000000E+00  0.00000000E+00  0.00000000E+00
  0.00000000E+00  0.00000000E+00  0.00000000E+00
  0.00000000E+00  0.00000000E+00  0.00000000E+00
  0.00000000E+00  0.00000000E+00  0.00000000E+00
  0.00000000E+00  0.00000000E+00  0.00000000E+00
