Mo  S Co                                
   1.00000000000000     
    15.9215000000000000    0.0000000000000000    0.0000000000000000
    -7.9622500000000000   13.7910219999999999    0.0000000000000000
     0.0000000000000000    0.0000000000000000   13.5822000000000003
   Mo   S    Co
    25    49     1
Direct
  0.1328048635270846  0.0669910512347016  0.6767952534934381
  0.1361656156529278  0.2674751391634231  0.6750679454671200
  0.1328131208332266  0.4646064620806598  0.6768153537918380
  0.1318600547919431  0.6652139162992938  0.6785221475016883
  0.1318543128360972  0.8654369266295063  0.6784865694318611
  0.3318271614854140  0.0652951407197833  0.6787756262906797
  0.3308239655595386  0.2639372494424208  0.6782867784411408
  0.3308408782616894  0.4657129031976339  0.6782802633923311
  0.3318295335545400  0.6653472778636527  0.6788434756108757
  0.3318592283479589  0.8653380523946979  0.6787508778488771
  0.5324396363753436  0.0649272380710926  0.6788216806803860
  0.5327852942915712  0.2634880896806351  0.6794745255256416
  0.5254441340082892  0.4621285372965431  0.6833602431305508
  0.5327919489872386  0.6681265526178635  0.6795551969392548
  0.5324389460073888  0.8663403376958314  0.6789048607125849
  0.7331990596847788  0.0660039735554605  0.6791644268613410
  0.7329750296002899  0.2653800465482092  0.6795631494065688
  0.7309874593029875  0.4643146082531047  0.6808564652525888
  0.7309826761877574  0.6654655844929707  0.6809123381301916
  0.7329710157506781  0.8663978811733557  0.6796764194231528
  0.9339970310146768  0.0669156211583228  0.6787138746152195
  0.9340008932024446  0.2658698939745605  0.6786908380745089
  0.9319823499417836  0.4651816059317966  0.6789343941892625
  0.9312676669035085  0.6650239798595905  0.6793957644886888
  0.9319712011620069  0.8655781583831086  0.6789589002646821
  0.0665173842069606  0.1343492062374665  0.5615196800846860
  0.0709146654087647  0.1370332123160054  0.7921267626602031
  0.0665365577689201  0.3309755710836697  0.5615199340053607
  0.0709040748903789  0.3326577221173110  0.7921275212788146
  0.0650032364473319  0.5319185008453076  0.5632828183919187
  0.0659473308984175  0.5313030735336071  0.7927858105695904
  0.0644537813065895  0.7316117634089707  0.5638845393642669
  0.0652416954150326  0.7320292547726979  0.7937196361428676
  0.0649642203446561  0.9318629021743519  0.5632644715350850
  0.0659611330530439  0.9334366441572186  0.7927676988003753
  0.2672754187583948  0.1335138235245807  0.5621077837740529
  0.2629484341718396  0.1325595972489140  0.7932712929334897
  0.2685754445181985  0.3337002087062331  0.5638088552577400
  0.2672891832064153  0.5326091751014488  0.5621330633521353
  0.2629477197773227  0.5291721592967065  0.7932996359049369
  0.2653220303456010  0.7320387057044542  0.5636618483258786
  0.2649199871886410  0.7317385964366139  0.7938751493411687
  0.2653173350476834  0.9320732133849958  0.5636176241615800
  0.2649165659454411  0.9320199194069119  0.7938299677844753
  0.4656151727131146  0.1314357067600298  0.5638018668120850
  0.4652185611680864  0.1296622752388075  0.7943389565893000
  0.4649093324082969  0.3311160025147686  0.5662423366754226
  0.4578140620649336  0.3178911794749837  0.7985732136296164
  0.4649455226385655  0.5326665987205672  0.5662648877581304
  0.4578084238265703  0.5387253825255627  0.7985878597359388
  0.4656252767211839  0.7330168016894447  0.5638969735248551
  0.4652112205836403  0.7343866423918328  0.7944330236224957
  0.4653909127802578  0.9320820696858192  0.5635669792408891
  0.4652205328228973  0.9320593790417746  0.7940331779938177
  0.6663106177705913  0.1323707268743632  0.5640893670489575
  0.6660573431239669  0.1319239895494420  0.7942612247208629
  0.6660011736192359  0.3320846635118428  0.5646596026664668
  0.6658558674610262  0.3308803933895064  0.7952865999222851
  0.6608262719639058  0.5298329872955847  0.5686156788416454
  0.6627462863099041  0.5307522515427152  0.7953320239516941
  0.6660045050779217  0.7327491467818064  0.5647606608746329
  0.6658556182870612  0.7337631942536120  0.7953887488269800
  0.6662967559960222  0.9327074963051558  0.5641731556629921
  0.6660688270425155  0.9330009336744638  0.7943434857373788
  0.8665161250239137  0.1326454876969905  0.5640267088042563
  0.8671389765058564  0.1329766971937545  0.7940303960542110
  0.8660584886933620  0.3319278351859296  0.5640613367397265
  0.8671425705593236  0.3321931977822175  0.7941340904801422
  0.8636365202739995  0.5313221070586849  0.5648161179828151
  0.8653719784692910  0.5318075738164509  0.7946734341274748
  0.8636084348595361  0.7310946509440512  0.5648474557449035
  0.8653860358146872  0.7323434887914502  0.7947027505836886
  0.8660084829199022  0.9328974225220037  0.5641259026319148
  0.8671793788772106  0.9337612225486538  0.7941960300499176
  0.4396152899540198  0.4192108023861749  0.8695810777138533
 
  0.00000000E+00  0.00000000E+00  0.00000000E+00
  0.00000000E+00  0.00000000E+00  0.00000000E+00
  0.00000000E+00  0.00000000E+00  0.00000000E+00
  0.00000000E+00  0.00000000E+00  0.00000000E+00
  0.00000000E+00  0.00000000E+00  0.00000000E+00
  0.00000000E+00  0.00000000E+00  0.00000000E+00
  0.00000000E+00  0.00000000E+00  0.00000000E+00
  0.00000000E+00  0.00000000E+00  0.00000000E+00
  0.00000000E+00  0.00000000E+00  0.00000000E+00
  0.00000000E+00  0.00000000E+00  0.00000000E+00
  0.00000000E+00  0.00000000E+00  0.00000000E+00
  0.00000000E+00  0.00000000E+00  0.00000000E+00
  0.00000000E+00  0.00000000E+00  0.00000000E+00
  0.00000000E+00  0.00000000E+00  0.00000000E+00
  0.00000000E+00  0.00000000E+00  0.00000000E+00
  0.00000000E+00  0.00000000E+00  0.00000000E+00
  0.00000000E+00  0.00000000E+00  0.00000000E+00
  0.00000000E+00  0.00000000E+00  0.00000000E+00
  0.00000000E+00  0.00000000E+00  0.00000000E+00
  0.00000000E+00  0.00000000E+00  0.00000000E+00
  0.00000000E+00  0.00000000E+00  0.00000000E+00
  0.00000000E+00  0.00000000E+00  0.00000000E+00
  0.00000000E+00  0.00000000E+00  0.00000000E+00
  0.00000000E+00  0.00000000E+00  0.00000000E+00
  0.00000000E+00  0.00000000E+00  0.00000000E+00
  0.00000000E+00  0.00000000E+00  0.00000000E+00
  0.00000000E+00  0.00000000E+00  0.00000000E+00
  0.00000000E+00  0.00000000E+00  0.00000000E+00
  0.00000000E+00  0.00000000E+00  0.00000000E+00
  0.00000000E+00  0.00000000E+00  0.00000000E+00
  0.00000000E+00  0.00000000E+00  0.00000000E+00
  0.00000000E+00  0.00000000E+00  0.00000000E+00
  0.00000000E+00  0.00000000E+00  0.00000000E+00
  0.00000000E+00  0.00000000E+00  0.00000000E+00
  0.00000000E+00  0.00000000E+00  0.00000000E+00
  0.00000000E+00  0.00000000E+00  0.00000000E+00
  0.00000000E+00  0.00000000E+00  0.00000000E+00
  0.00000000E+00  0.00000000E+00  0.00000000E+00
  0.00000000E+00  0.00000000E+00  0.00000000E+00
  0.00000000E+00  0.00000000E+00  0.00000000E+00
  0.00000000E+00  0.00000000E+00  0.00000000E+00
  0.00000000E+00  0.00000000E+00  0.00000000E+00
  0.00000000E+00  0.00000000E+00  0.00000000E+00
  0.00000000E+00  0.00000000E+00  0.00000000E+00
  0.00000000E+00  0.00000000E+00  0.00000000E+00
  0.00000000E+00  0.00000000E+00  0.00000000E+00
  0.00000000E+00  0.00000000E+00  0.00000000E+00
  0.00000000E+00  0.00000000E+00  0.00000000E+00
  0.00000000E+00  0.00000000E+00  0.00000000E+00
  0.00000000E+00  0.00000000E+00  0.00000000E+00
  0.00000000E+00  0.00000000E+00  0.00000000E+00
  0.00000000E+00  0.00000000E+00  0.00000000E+00
  0.00000000E+00  0.00000000E+00  0.00000000E+00
  0.00000000E+00  0.00000000E+00  0.00000000E+00
  0.00000000E+00  0.00000000E+00  0.00000000E+00
  0.00000000E+00  0.00000000E+00  0.00000000E+00
  0.00000000E+00  0.00000000E+00  0.00000000E+00
  0.00000000E+00  0.00000000E+00  0.00000000E+00
  0.00000000E+00  0.00000000E+00  0.00000000E+00
  0.00000000E+00  0.00000000E+00  0.00000000E+00
  0.00000000E+00  0.00000000E+00  0.00000000E+00
  0.00000000E+00  0.00000000E+00  0.00000000E+00
  0.00000000E+00  0.00000000E+00  0.00000000E+00
  0.00000000E+00  0.00000000E+00  0.00000000E+00
  0.00000000E+00  0.00000000E+00  0.00000000E+00
  0.00000000E+00  0.00000000E+00  0.00000000E+00
  0.00000000E+00  0.00000000E+00  0.00000000E+00
  0.00000000E+00  0.00000000E+00  0.00000000E+00
  0.00000000E+00  0.00000000E+00  0.00000000E+00
  0.00000000E+00  0.00000000E+00  0.00000000E+00
  0.00000000E+00  0.00000000E+00  0.00000000E+00
  0.00000000E+00  0.00000000E+00  0.00000000E+00
  0.00000000E+00  0.00000000E+00  0.00000000E+00
  0.00000000E+00  0.00000000E+00  0.00000000E+00
  0.00000000E+00  0.00000000E+00  0.00000000E+00
