POSCAR                                  
   1.00000000000000     
     6.2939611484099256   -0.0033083099091922    0.0048438204818929
    -3.1498456546299152    5.4556927098190631   -0.0000000000000000
     0.0076411669642681    0.0044116298037431    9.9968677820038945
   Al   N    Li   V 
    14    16     1     1
Direct
  0.1657683901572145  0.3325405161760037  0.9933545085748363
  0.6681733299741662  0.3340866649870867  0.9973640845235250
  0.1657683901572145  0.8332278739812180  0.9933545085748789
  0.6678534239919699  0.8339267119959886  0.9859383115762100
  0.1568526884851728  0.3220246043381142  0.4980573290317258
  0.6745616309387718  0.3372808154693894  0.4995712431719491
  0.1568526884851728  0.8348280841470659  0.4980573290317471
  0.3355948505552850  0.1677974252776390  0.7456943417641740
  0.8314612191856331  0.1638239675425310  0.7456052302404079
  0.3376249533774306  0.6688124766887116  0.7477529483936636
  0.8314612191856331  0.6676372516430951  0.7456052302403724
  0.3407171890951390  0.1703585945475660  0.2528247291493746
  0.8281058855350300  0.1676143342304107  0.2567810346226143
  0.8281058855350300  0.6604915513046120  0.2567810346225930
  0.1682833404906117  0.3335272321731209  0.1892236938227253
  0.6656662199126282  0.3328331099563177  0.1883160106455068
  0.1682833404906117  0.8347561083174980  0.1892236938228958
  0.6655610406776669  0.8327805203388373  0.1873781753247200
  0.1691279401901507  0.3361703475565327  0.6889853659269788
  0.6675856221020370  0.3337928110510220  0.6918206933821918
  0.1691279401901507  0.8329575926336252  0.6889853659270143
  0.6663129766388929  0.8331564883194502  0.7078531648587499
  0.3330315785557749  0.1665157892778839  0.9396906684510099
  0.8359229391902384  0.1706160199265656  0.9415614792704023
  0.3292108119320711  0.6646054059660322  0.9429587300307808
  0.8359229391902384  0.6653069192636659  0.9415614792703668
  0.3350827130487510  0.1675413565243720  0.4404300876569461
  0.8393705162823533  0.1798651910394972  0.4389559379823929
  0.3135940855474786  0.6567970427737359  0.4188229352706418
  0.8393705162823533  0.6595053252428489  0.4389559379822365
  0.6773701343185446  0.8386850671592759  0.5039889545649699
  0.3322736003005832  0.6661368001502881  0.2445457622913916
 
  0.00000000E+00  0.00000000E+00  0.00000000E+00
  0.00000000E+00  0.00000000E+00  0.00000000E+00
  0.00000000E+00  0.00000000E+00  0.00000000E+00
  0.00000000E+00  0.00000000E+00  0.00000000E+00
  0.00000000E+00  0.00000000E+00  0.00000000E+00
  0.00000000E+00  0.00000000E+00  0.00000000E+00
  0.00000000E+00  0.00000000E+00  0.00000000E+00
  0.00000000E+00  0.00000000E+00  0.00000000E+00
  0.00000000E+00  0.00000000E+00  0.00000000E+00
  0.00000000E+00  0.00000000E+00  0.00000000E+00
  0.00000000E+00  0.00000000E+00  0.00000000E+00
  0.00000000E+00  0.00000000E+00  0.00000000E+00
  0.00000000E+00  0.00000000E+00  0.00000000E+00
  0.00000000E+00  0.00000000E+00  0.00000000E+00
  0.00000000E+00  0.00000000E+00  0.00000000E+00
  0.00000000E+00  0.00000000E+00  0.00000000E+00
  0.00000000E+00  0.00000000E+00  0.00000000E+00
  0.00000000E+00  0.00000000E+00  0.00000000E+00
  0.00000000E+00  0.00000000E+00  0.00000000E+00
  0.00000000E+00  0.00000000E+00  0.00000000E+00
  0.00000000E+00  0.00000000E+00  0.00000000E+00
  0.00000000E+00  0.00000000E+00  0.00000000E+00
  0.00000000E+00  0.00000000E+00  0.00000000E+00
  0.00000000E+00  0.00000000E+00  0.00000000E+00
  0.00000000E+00  0.00000000E+00  0.00000000E+00
  0.00000000E+00  0.00000000E+00  0.00000000E+00
  0.00000000E+00  0.00000000E+00  0.00000000E+00
  0.00000000E+00  0.00000000E+00  0.00000000E+00
  0.00000000E+00  0.00000000E+00  0.00000000E+00
  0.00000000E+00  0.00000000E+00  0.00000000E+00
  0.00000000E+00  0.00000000E+00  0.00000000E+00
  0.00000000E+00  0.00000000E+00  0.00000000E+00
