Ta  N Ru                                
   1.00000000000000     
    18.1096308199999996    0.0000000000000000    0.0000000000000000
     0.0000000000000000   23.3551997799999995    0.0000000000000000
     0.0000000000000000    0.0000000000000000   30.4818171199999988
   Ta   N    Ru
   192   240    48
Direct
  0.0000000000000000  0.0000000000000000  0.1972002480802615
  0.3342894068167946  0.0625000001605613  0.2025710526885707
  0.1657105639170090  0.0625000001605613  0.2025710526885707
  0.2499999997239044  0.1249999998929567  0.2777865629601087
  0.0825346300841367  0.0625000001605613  0.2838671249264908
  0.4174653699158634  0.0625000001605613  0.2838671249264908
  0.0000000000000000  0.1249999998929567  0.3699997840622507
  0.3330941367205942  0.0625000001605613  0.3682425141513184
  0.1669058340132162  0.0625000001605613  0.3682425141513184
  0.2499999997239044  0.1249999998929567  0.4535396640151866
  0.0845048676266509  0.0625000001605613  0.4556964079600510
  0.4154951323733491  0.0625000001605613  0.4556964079600510
  0.0000000000000000  0.1249999998929567  0.1972002480802615
  0.3342894068167946  0.1875000000535181  0.2025710526885707
  0.1657105639170090  0.1875000000535181  0.2025710526885707
  0.2499999997239044  0.2500000002140865  0.2777865629601087
  0.0825346300841367  0.1875000000535181  0.2838671249264908
  0.4174653699158634  0.1875000000535181  0.2838671249264908
  0.0000000000000000  0.2500000002140865  0.3699997840622507
  0.3330941367205942  0.1875000000535181  0.3682425141513184
  0.1669058340132162  0.1875000000535181  0.3682425141513184
  0.2499999997239044  0.2500000002140865  0.4535396640151866
  0.0845048676266509  0.1875000000535181  0.4556964079600510
  0.4154951323733491  0.1875000000535181  0.4556964079600510
  0.0000000000000000  0.2500000002140865  0.1972002480802615
  0.3342894068167946  0.3124999999464819  0.2025710526885707
  0.1657105639170090  0.3124999999464819  0.2025710526885707
  0.2499999997239044  0.3750000001070433  0.2777865629601087
  0.0825346300841367  0.3124999999464819  0.2838671249264908
  0.4174653699158634  0.3124999999464819  0.2838671249264908
  0.0000000000000000  0.3750000001070433  0.3699997840622507
  0.3330941367205942  0.3124999999464819  0.3682425141513184
  0.1669058340132162  0.3124999999464819  0.3682425141513184
  0.2499999997239044  0.3750000001070433  0.4535396640151866
  0.0845048676266509  0.3124999999464819  0.4556964079600510
  0.4154951323733491  0.3124999999464819  0.4556964079600510
  0.0000000000000000  0.3750000001070433  0.1972002480802615
  0.3342894068167946  0.4375000002676046  0.2025710526885707
  0.1657105639170090  0.4375000002676046  0.2025710526885707
  0.2499999997239044  0.0000000000000000  0.2777865629601087
  0.0825346300841367  0.4375000002676046  0.2838671249264908
  0.4174653699158634  0.4375000002676046  0.2838671249264908
  0.0000000000000000  0.0000000000000000  0.3699997840622507
  0.3330941367205942  0.4375000002676046  0.3682425141513184
  0.1669058340132162  0.4375000002676046  0.3682425141513184
  0.2499999997239044 -0.0000000000000000  0.4535396640151866
  0.0845048676266509  0.4375000002676046  0.4556964079600510
  0.4154951323733491  0.4375000002676046  0.4556964079600510
  0.0000000000000000  0.5000000000000000  0.1972002480802615
  0.3342894068167946  0.5625000001605613  0.2025710526885707
  0.1657105639170090  0.5625000001605613  0.2025710526885707
  0.2499999997239044  0.6249999998929567  0.2777865629601087
  0.0825346300841367  0.5625000001605613  0.2838671249264908
  0.4174653699158634  0.5625000001605613  0.2838671249264908
  0.0000000000000000  0.6249999998929567  0.3699997840622507
  0.3330941367205942  0.5625000001605613  0.3682425141513184
  0.1669058340132162  0.5625000001605613  0.3682425141513184
  0.2499999997239044  0.6249999998929567  0.4535396640151866
  0.0845048676266509  0.5625000001605613  0.4556964079600510
  0.4154951323733491  0.5625000001605613  0.4556964079600510
  0.0000000000000000  0.6249999998929567  0.1972002480802615
  0.3342894068167946  0.6875000000535181  0.2025710526885707
  0.1657105639170090  0.6875000000535181  0.2025710526885707
  0.2499999997239044  0.7500000002140865  0.2777865629601087
  0.0825346300841367  0.6875000000535181  0.2838671249264908
  0.4174653699158634  0.6875000000535181  0.2838671249264908
  0.0000000000000000  0.7500000002140865  0.3699997840622507
  0.3330941367205942  0.6875000000535181  0.3682425141513184
  0.1669058340132162  0.6875000000535181  0.3682425141513184
  0.2499999997239044  0.7500000002140865  0.4535396640151866
  0.0845048676266509  0.6875000000535181  0.4556964079600510
  0.4154951323733491  0.6875000000535181  0.4556964079600510
  0.0000000000000000  0.7500000002140865  0.1972002480802615
  0.3342894068167946  0.8124999999464819  0.2025710526885707
  0.1657105639170090  0.8124999999464819  0.2025710526885707
  0.2499999997239044  0.8750000001070433  0.2777865629601087
  0.0825346300841367  0.8124999999464819  0.2838671249264908
  0.4174653699158634  0.8124999999464819  0.2838671249264908
  0.0000000000000000  0.8750000001070433  0.3699997840622507
  0.3330941367205942  0.8124999999464819  0.3682425141513184
  0.1669058340132162  0.8124999999464819  0.3682425141513184
  0.2499999997239044  0.8750000001070433  0.4535396640151866
  0.0845048676266509  0.8124999999464819  0.4556964079600510
  0.4154951323733491  0.8124999999464819  0.4556964079600510
  0.0000000000000000  0.8750000001070433  0.1972002480802615
  0.3342894068167946  0.9375000002676046  0.2025710526885707
  0.1657105639170090  0.9375000002676046  0.2025710526885707
  0.2499999997239044  0.5000000000000000  0.2777865629601087
  0.0825346300841367  0.9375000002676046  0.2838671249264908
  0.4174653699158634  0.9375000002676046  0.2838671249264908
  0.0000000000000000  0.5000000000000000  0.3699997840622507
  0.3330941367205942  0.9375000002676046  0.3682425141513184
  0.1669058340132162  0.9375000002676046  0.3682425141513184
  0.2499999997239044  0.5000000000000000  0.4535396640151866
  0.0845048676266509  0.9375000002676046  0.4556964079600510
  0.4154951323733491  0.9375000002676046  0.4556964079600510
  0.5000000000000000  0.0000000000000000  0.1972002480802615
  0.8342894062646034  0.0625000001605613  0.2025710526885707
  0.6657105639170089  0.0625000001605613  0.2025710526885707
  0.7499999997239044  0.1249999998929567  0.2777865629601087
  0.5825346300841365  0.0625000001605613  0.2838671249264908
  0.9174653699158635  0.0625000001605613  0.2838671249264908
  0.5000000000000000  0.1249999998929567  0.3699997840622507
  0.8330941361683960  0.0625000001605613  0.3682425141513184
  0.6669058340132162  0.0625000001605613  0.3682425141513184
  0.7499999997239044  0.1249999998929567  0.4535396640151866
  0.5845048676266508  0.0625000001605613  0.4556964079600510
  0.9154951323733492  0.0625000001605613  0.4556964079600510
  0.5000000000000000  0.1249999998929567  0.1972002480802615
  0.8342894062646034  0.1875000000535181  0.2025710526885707
  0.6657105639170089  0.1875000000535181  0.2025710526885707
  0.7499999997239044  0.2500000002140865  0.2777865629601087
  0.5825346300841365  0.1875000000535181  0.2838671249264908
  0.9174653699158635  0.1875000000535181  0.2838671249264908
  0.5000000000000000  0.2500000002140865  0.3699997840622507
  0.8330941361683960  0.1875000000535181  0.3682425141513184
  0.6669058340132162  0.1875000000535181  0.3682425141513184
  0.7499999997239044  0.2500000002140865  0.4535396640151866
  0.5845048676266508  0.1875000000535181  0.4556964079600510
  0.9154951323733492  0.1875000000535181  0.4556964079600510
  0.5000000000000000  0.2500000002140865  0.1972002480802615
  0.8342894062646034  0.3124999999464819  0.2025710526885707
  0.6657105639170089  0.3124999999464819  0.2025710526885707
  0.7499999997239044  0.3750000001070433  0.2777865629601087
  0.5825346300841365  0.3124999999464819  0.2838671249264908
  0.9174653699158635  0.3124999999464819  0.2838671249264908
  0.5000000000000000  0.3750000001070433  0.3699997840622507
  0.8330941361683960  0.3124999999464819  0.3682425141513184
  0.6669058340132162  0.3124999999464819  0.3682425141513184
  0.7499999997239044  0.3750000001070433  0.4535396640151866
  0.5845048676266508  0.3124999999464819  0.4556964079600510
  0.9154951323733492  0.3124999999464819  0.4556964079600510
  0.5000000000000000  0.3750000001070433  0.1972002480802615
  0.8342894062646034  0.4375000002676046  0.2025710526885707
  0.6657105639170089  0.4375000002676046  0.2025710526885707
  0.7499999997239044  0.0000000000000000  0.2777865629601087
  0.5825346300841365  0.4375000002676046  0.2838671249264908
  0.9174653699158635  0.4375000002676046  0.2838671249264908
  0.5000000000000000  0.0000000000000000  0.3699997840622507
  0.8330941361683960  0.4375000002676046  0.3682425141513184
  0.6669058340132162  0.4375000002676046  0.3682425141513184
  0.7499999997239044  0.0000000000000000  0.4535396640151866
  0.5845048676266508  0.4375000002676046  0.4556964079600510
  0.9154951323733492  0.4375000002676046  0.4556964079600510
  0.5000000000000000  0.5000000000000000  0.1972002480802615
  0.8342894062646034  0.5625000001605613  0.2025710526885707
  0.6657105639170089  0.5625000001605613  0.2025710526885707
  0.7499999997239044  0.6249999998929567  0.2777865629601087
  0.5825346300841365  0.5625000001605613  0.2838671249264908
  0.9174653699158635  0.5625000001605613  0.2838671249264908
  0.5000000000000000  0.6249999998929567  0.3699997840622507
  0.8330941361683960  0.5625000001605613  0.3682425141513184
  0.6669058340132162  0.5625000001605613  0.3682425141513184
  0.7499999997239044  0.6249999998929567  0.4535396640151866
  0.5845048676266508  0.5625000001605613  0.4556964079600510
  0.9154951323733492  0.5625000001605613  0.4556964079600510
  0.5000000000000000  0.6249999998929567  0.1972002480802615
  0.8342894062646034  0.6875000000535181  0.2025710526885707
  0.6657105639170089  0.6875000000535181  0.2025710526885707
  0.7499999997239044  0.7500000002140865  0.2777865629601087
  0.5825346300841365  0.6875000000535181  0.2838671249264908
  0.9174653699158635  0.6875000000535181  0.2838671249264908
  0.5000000000000000  0.7500000002140865  0.3699997840622507
  0.8330941361683960  0.6875000000535181  0.3682425141513184
  0.6669058340132162  0.6875000000535181  0.3682425141513184
  0.7499999997239044  0.7500000002140865  0.4535396640151866
  0.5845048676266508  0.6875000000535181  0.4556964079600510
  0.9154951323733492  0.6875000000535181  0.4556964079600510
  0.5000000000000000  0.7500000002140865  0.1972002480802615
  0.8342894062646034  0.8124999999464819  0.2025710526885707
  0.6657105639170089  0.8124999999464819  0.2025710526885707
  0.7499999997239044  0.8750000001070433  0.2777865629601087
  0.5825346300841365  0.8124999999464819  0.2838671249264908
  0.9174653699158635  0.8124999999464819  0.2838671249264908
  0.5000000000000000  0.8750000001070433  0.3699997840622507
  0.8330941361683960  0.8124999999464819  0.3682425141513184
  0.6669058340132162  0.8124999999464819  0.3682425141513184
  0.7499999997239044  0.8750000001070433  0.4535396640151866
  0.5845048676266508  0.8124999999464819  0.4556964079600510
  0.9154951323733492  0.8124999999464819  0.4556964079600510
  0.5000000000000000  0.8750000001070433  0.1972002480802615
  0.8342894062646034  0.9375000002676046  0.2025710526885707
  0.6657105639170089  0.9375000002676046  0.2025710526885707
  0.7499999997239044  0.5000000000000000  0.2777865629601087
  0.5825346300841365  0.9375000002676046  0.2838671249264908
  0.9174653699158635  0.9375000002676046  0.2838671249264908
  0.5000000000000000  0.5000000000000000  0.3699997840622507
  0.8330941361683960  0.9375000002676046  0.3682425141513184
  0.6669058340132162  0.9375000002676046  0.3682425141513184
  0.7499999997239044  0.5000000000000000  0.4535396640151866
  0.5845048676266508  0.9375000002676046  0.4556964079600510
  0.9154951323733492  0.9375000002676046  0.4556964079600510
  0.4058866008042798 -0.0000000000000000  0.2322132027086574
  0.2499999997239044  0.0000000000000000  0.1996562655205650
  0.0941133991957201  0.0000000000000000  0.2322132027086574
  0.1545990962481748  0.1249999998929567  0.3156671842807418
  0.0000000000000000  0.1249999998929567  0.3032267790298790
  0.3454009037518252  0.1249999998929567  0.3156671842807418
  0.4014915062006968  0.1249999998929567  0.4028031984610247
  0.2499999997239044  0.1249999998929567  0.3861820725600019
  0.0985084932471120  0.1249999998929567  0.4028031984610247
  0.1535894290959681  0.1249999998929567  0.4847923658165204
  0.0000000000000000  0.1249999998929567  0.4753547055184603
  0.3464105703518407  0.1249999998929567  0.4847923658165204
  0.4017542102292401  0.1249999998929567  0.5624037428229145
  0.2499999997239044  0.1249999998929567  0.5619005108815530
  0.0982457897707600  0.1249999998929567  0.5624037428229145
  0.4058866008042798  0.1249999998929567  0.2322132027086574
  0.2499999997239044  0.1249999998929567  0.1996562655205650
  0.0941133991957201  0.1249999998929567  0.2322132027086574
  0.1545990962481748  0.2500000002140865  0.3156671842807418
  0.0000000000000000  0.2500000002140865  0.3032267790298790
  0.3454009037518252  0.2500000002140865  0.3156671842807418
  0.4014915062006968  0.2500000002140865  0.4028031984610247
  0.2499999997239044  0.2500000002140865  0.3861820725600019
  0.0985084932471120  0.2500000002140865  0.4028031984610247
  0.1535894290959681  0.2500000002140865  0.4847923658165204
  0.0000000000000000  0.2500000002140865  0.4753547055184603
  0.3464105703518407  0.2500000002140865  0.4847923658165204
  0.4017542102292401  0.2500000002140865  0.5624037428229145
  0.2499999997239044  0.2500000002140865  0.5619005108815530
  0.0982457897707600  0.2500000002140865  0.5624037428229145
  0.4058866008042798  0.2500000002140865  0.2322132027086574
  0.2499999997239044  0.2500000002140865  0.1996562655205650
  0.0941133991957201  0.2500000002140865  0.2322132027086574
  0.1545990962481748  0.3750000001070433  0.3156671842807418
  0.0000000000000000  0.3750000001070433  0.3032267790298790
  0.3454009037518252  0.3750000001070433  0.3156671842807418
  0.4014915062006968  0.3750000001070433  0.4028031984610247
  0.2499999997239044  0.3750000001070433  0.3861820725600019
  0.0985084932471120  0.3750000001070433  0.4028031984610247
  0.1535894290959681  0.3750000001070433  0.4847923658165204
  0.0000000000000000  0.3750000001070433  0.4753547055184603
  0.3464105703518407  0.3750000001070433  0.4847923658165204
  0.4017542102292401  0.3750000001070433  0.5624037428229145
  0.2499999997239044  0.3750000001070433  0.5619005108815530
  0.0982457897707600  0.3750000001070433  0.5624037428229145
  0.4058866008042798  0.3750000001070433  0.2322132027086574
  0.2499999997239044  0.3750000001070433  0.1996562655205650
  0.0941133991957201  0.3750000001070433  0.2322132027086574
  0.1545990962481748  0.0000000000000000  0.3156671842807418
  0.0000000000000000 -0.0000000000000000  0.3032267790298790
  0.3454009037518252  0.0000000000000000  0.3156671842807418
  0.4014915062006968 -0.0000000000000000  0.4028031984610247
  0.2499999997239044  0.0000000000000000  0.3861820725600019
  0.0985084932471120  0.0000000000000000  0.4028031984610247
  0.1535894290959681 -0.0000000000000000  0.4847923658165204
  0.0000000000000000 -0.0000000000000000  0.4753547055184603
  0.3464105703518407 -0.0000000000000000  0.4847923658165204
  0.4017542102292401  0.0000000000000000  0.5624037428229145
  0.2499999997239044 -0.0000000000000000  0.5619005108815530
  0.0982457897707600  0.0000000000000000  0.5624037428229145
  0.4058866008042798  0.5000000000000000  0.2322132027086574
  0.2499999997239044  0.5000000000000000  0.1996562655205650
  0.0941133991957201  0.5000000000000000  0.2322132027086574
  0.1545990962481748  0.6249999998929567  0.3156671842807418
  0.0000000000000000  0.6249999998929567  0.3032267790298790
  0.3454009037518252  0.6249999998929567  0.3156671842807418
  0.4014915062006968  0.6249999998929567  0.4028031984610247
  0.2499999997239044  0.6249999998929567  0.3861820725600019
  0.0985084932471120  0.6249999998929567  0.4028031984610247
  0.1535894290959681  0.6249999998929567  0.4847923658165204
  0.0000000000000000  0.6249999998929567  0.4753547055184603
  0.3464105703518407  0.6249999998929567  0.4847923658165204
  0.4017542102292401  0.6249999998929567  0.5624037428229145
  0.2499999997239044  0.6249999998929567  0.5619005108815530
  0.0982457897707600  0.6249999998929567  0.5624037428229145
  0.4058866008042798  0.6249999998929567  0.2322132027086574
  0.2499999997239044  0.6249999998929567  0.1996562655205650
  0.0941133991957201  0.6249999998929567  0.2322132027086574
  0.1545990962481748  0.7500000002140865  0.3156671842807418
  0.0000000000000000  0.7500000002140865  0.3032267790298790
  0.3454009037518252  0.7500000002140865  0.3156671842807418
  0.4014915062006968  0.7500000002140865  0.4028031984610247
  0.2499999997239044  0.7500000002140865  0.3861820725600019
  0.0985084932471120  0.7500000002140865  0.4028031984610247
  0.1535894290959681  0.7500000002140865  0.4847923658165204
  0.0000000000000000  0.7500000002140865  0.4753547055184603
  0.3464105703518407  0.7500000002140865  0.4847923658165204
  0.4017542102292401  0.7500000002140865  0.5624037428229145
  0.2499999997239044  0.7500000002140865  0.5619005108815530
  0.0982457897707600  0.7500000002140865  0.5624037428229145
  0.4058866008042798  0.7500000002140865  0.2322132027086574
  0.2499999997239044  0.7500000002140865  0.1996562655205650
  0.0941133991957201  0.7500000002140865  0.2322132027086574
  0.1545990962481748  0.8750000001070433  0.3156671842807418
  0.0000000000000000  0.8750000001070433  0.3032267790298790
  0.3454009037518252  0.8750000001070433  0.3156671842807418
  0.4014915062006968  0.8750000001070433  0.4028031984610247
  0.2499999997239044  0.8750000001070433  0.3861820725600019
  0.0985084932471120  0.8750000001070433  0.4028031984610247
  0.1535894290959681  0.8750000001070433  0.4847923658165204
  0.0000000000000000  0.8750000001070433  0.4753547055184603
  0.3464105703518407  0.8750000001070433  0.4847923658165204
  0.4017542102292401  0.8750000001070433  0.5624037428229145
  0.2499999997239044  0.8750000001070433  0.5619005108815530
  0.0982457897707600  0.8750000001070433  0.5624037428229145
  0.4058866008042798  0.8750000001070433  0.2322132027086574
  0.2499999997239044  0.8750000001070433  0.1996562655205650
  0.0941133991957201  0.8750000001070433  0.2322132027086574
  0.1545990962481748  0.5000000000000000  0.3156671842807418
  0.0000000000000000  0.5000000000000000  0.3032267790298790
  0.3454009037518252  0.5000000000000000  0.3156671842807418
  0.4014915062006968  0.5000000000000000  0.4028031984610247
  0.2499999997239044  0.5000000000000000  0.3861820725600019
  0.0985084932471120  0.5000000000000000  0.4028031984610247
  0.1535894290959681  0.5000000000000000  0.4847923658165204
  0.0000000000000000  0.5000000000000000  0.4753547055184603
  0.3464105703518407  0.5000000000000000  0.4847923658165204
  0.4017542102292401  0.5000000000000000  0.5624037428229145
  0.2499999997239044  0.5000000000000000  0.5619005108815530
  0.0982457897707600  0.5000000000000000  0.5624037428229145
  0.9058866008042800  0.0000000000000000  0.2322132027086574
  0.7499999997239044 -0.0000000000000000  0.1996562655205650
  0.5941133991957200  0.0000000000000000  0.2322132027086574
  0.6545990962481749  0.1249999998929567  0.3156671842807418
  0.5000000000000000  0.1249999998929567  0.3032267790298790
  0.8454009037518251  0.1249999998929567  0.3156671842807418
  0.9014915062006968  0.1249999998929567  0.4028031984610247
  0.7499999997239044  0.1249999998929567  0.3861820725600019
  0.5985084932471120  0.1249999998929567  0.4028031984610247
  0.6535894290959682  0.1249999998929567  0.4847923658165204
  0.5000000000000000  0.1249999998929567  0.4753547055184603
  0.8464105703518406  0.1249999998929567  0.4847923658165204
  0.9017542102292401  0.1249999998929567  0.5624037428229145
  0.7499999997239044  0.1249999998929567  0.5619005108815530
  0.5982457897707599  0.1249999998929567  0.5624037428229145
  0.9058866008042800  0.1249999998929567  0.2322132027086574
  0.7499999997239044  0.1249999998929567  0.1996562655205650
  0.5941133991957200  0.1249999998929567  0.2322132027086574
  0.6545990962481749  0.2500000002140865  0.3156671842807418
  0.5000000000000000  0.2500000002140865  0.3032267790298790
  0.8454009037518251  0.2500000002140865  0.3156671842807418
  0.9014915062006968  0.2500000002140865  0.4028031984610247
  0.7499999997239044  0.2500000002140865  0.3861820725600019
  0.5985084932471120  0.2500000002140865  0.4028031984610247
  0.6535894290959682  0.2500000002140865  0.4847923658165204
  0.5000000000000000  0.2500000002140865  0.4753547055184603
  0.8464105703518406  0.2500000002140865  0.4847923658165204
  0.9017542102292401  0.2500000002140865  0.5624037428229145
  0.7499999997239044  0.2500000002140865  0.5619005108815530
  0.5982457897707599  0.2500000002140865  0.5624037428229145
  0.9058866008042800  0.2500000002140865  0.2322132027086574
  0.7499999997239044  0.2500000002140865  0.1996562655205650
  0.5941133991957200  0.2500000002140865  0.2322132027086574
  0.6545990962481749  0.3750000001070433  0.3156671842807418
  0.5000000000000000  0.3750000001070433  0.3032267790298790
  0.8454009037518251  0.3750000001070433  0.3156671842807418
  0.9014915062006968  0.3750000001070433  0.4028031984610247
  0.7499999997239044  0.3750000001070433  0.3861820725600019
  0.5985084932471120  0.3750000001070433  0.4028031984610247
  0.6535894290959682  0.3750000001070433  0.4847923658165204
  0.5000000000000000  0.3750000001070433  0.4753547055184603
  0.8464105703518406  0.3750000001070433  0.4847923658165204
  0.9017542102292401  0.3750000001070433  0.5624037428229145
  0.7499999997239044  0.3750000001070433  0.5619005108815530
  0.5982457897707599  0.3750000001070433  0.5624037428229145
  0.9058866008042800  0.3750000001070433  0.2322132027086574
  0.7499999997239044  0.3750000001070433  0.1996562655205650
  0.5941133991957200  0.3750000001070433  0.2322132027086574
  0.6545990962481749  0.0000000000000000  0.3156671842807418
  0.5000000000000000  0.0000000000000000  0.3032267790298790
  0.8454009037518251  0.0000000000000000  0.3156671842807418
  0.9014915062006968 -0.0000000000000000  0.4028031984610247
  0.7499999997239044 -0.0000000000000000  0.3861820725600019
  0.5985084932471120  0.0000000000000000  0.4028031984610247
  0.6535894290959682 -0.0000000000000000  0.4847923658165204
  0.5000000000000000 -0.0000000000000000  0.4753547055184603
  0.8464105703518406 -0.0000000000000000  0.4847923658165204
  0.9017542102292401 -0.0000000000000000  0.5624037428229145
  0.7499999997239044  0.0000000000000000  0.5619005108815530
  0.5982457897707599  0.0000000000000000  0.5624037428229145
  0.9058866008042800  0.5000000000000000  0.2322132027086574
  0.7499999997239044  0.5000000000000000  0.1996562655205650
  0.5941133991957200  0.5000000000000000  0.2322132027086574
  0.6545990962481749  0.6249999998929567  0.3156671842807418
  0.5000000000000000  0.6249999998929567  0.3032267790298790
  0.8454009037518251  0.6249999998929567  0.3156671842807418
  0.9014915062006968  0.6249999998929567  0.4028031984610247
  0.7499999997239044  0.6249999998929567  0.3861820725600019
  0.5985084932471120  0.6249999998929567  0.4028031984610247
  0.6535894290959682  0.6249999998929567  0.4847923658165204
  0.5000000000000000  0.6249999998929567  0.4753547055184603
  0.8464105703518406  0.6249999998929567  0.4847923658165204
  0.9017542102292401  0.6249999998929567  0.5624037428229145
  0.7499999997239044  0.6249999998929567  0.5619005108815530
  0.5982457897707599  0.6249999998929567  0.5624037428229145
  0.9058866008042800  0.6249999998929567  0.2322132027086574
  0.7499999997239044  0.6249999998929567  0.1996562655205650
  0.5941133991957200  0.6249999998929567  0.2322132027086574
  0.6545990962481749  0.7500000002140865  0.3156671842807418
  0.5000000000000000  0.7500000002140865  0.3032267790298790
  0.8454009037518251  0.7500000002140865  0.3156671842807418
  0.9014915062006968  0.7500000002140865  0.4028031984610247
  0.7499999997239044  0.7500000002140865  0.3861820725600019
  0.5985084932471120  0.7500000002140865  0.4028031984610247
  0.6535894290959682  0.7500000002140865  0.4847923658165204
  0.5000000000000000  0.7500000002140865  0.4753547055184603
  0.8464105703518406  0.7500000002140865  0.4847923658165204
  0.9017542102292401  0.7500000002140865  0.5624037428229145
  0.7499999997239044  0.7500000002140865  0.5619005108815530
  0.5982457897707599  0.7500000002140865  0.5624037428229145
  0.9058866008042800  0.7500000002140865  0.2322132027086574
  0.7499999997239044  0.7500000002140865  0.1996562655205650
  0.5941133991957200  0.7500000002140865  0.2322132027086574
  0.6545990962481749  0.8750000001070433  0.3156671842807418
  0.5000000000000000  0.8750000001070433  0.3032267790298790
  0.8454009037518251  0.8750000001070433  0.3156671842807418
  0.9014915062006968  0.8750000001070433  0.4028031984610247
  0.7499999997239044  0.8750000001070433  0.3861820725600019
  0.5985084932471120  0.8750000001070433  0.4028031984610247
  0.6535894290959682  0.8750000001070433  0.4847923658165204
  0.5000000000000000  0.8750000001070433  0.4753547055184603
  0.8464105703518406  0.8750000001070433  0.4847923658165204
  0.9017542102292401  0.8750000001070433  0.5624037428229145
  0.7499999997239044  0.8750000001070433  0.5619005108815530
  0.5982457897707599  0.8750000001070433  0.5624037428229145
  0.9058866008042800  0.8750000001070433  0.2322132027086574
  0.7499999997239044  0.8750000001070433  0.1996562655205650
  0.5941133991957200  0.8750000001070433  0.2322132027086574
  0.6545990962481749  0.5000000000000000  0.3156671842807418
  0.5000000000000000  0.5000000000000000  0.3032267790298790
  0.8454009037518251  0.5000000000000000  0.3156671842807418
  0.9014915062006968  0.5000000000000000  0.4028031984610247
  0.7499999997239044  0.5000000000000000  0.3861820725600019
  0.5985084932471120  0.5000000000000000  0.4028031984610247
  0.6535894290959682  0.5000000000000000  0.4847923658165204
  0.5000000000000000  0.5000000000000000  0.4753547055184603
  0.8464105703518406  0.5000000000000000  0.4847923658165204
  0.9017542102292401  0.5000000000000000  0.5624037428229145
  0.7499999997239044  0.5000000000000000  0.5619005108815530
  0.5982457897707599  0.5000000000000000  0.5624037428229145
  0.0000000000000000  0.1249999998929567  0.5416251725996044
  0.3257623069487350  0.0625000001605613  0.5404187278453313
  0.1742376637850685  0.0625000001605613  0.5404187278453313
  0.0000000000000000  0.2500000002140865  0.5416251725996044
  0.3257623069487350  0.1875000000535181  0.5404187278453313
  0.1742376637850685  0.1875000000535181  0.5404187278453313
  0.0000000000000000  0.3750000001070433  0.5416251725996044
  0.3257623069487350  0.3124999999464819  0.5404187278453313
  0.1742376637850685  0.3124999999464819  0.5404187278453313
  0.0000000000000000 -0.0000000000000000  0.5416251725996044
  0.3257623069487350  0.4375000002676046  0.5404187278453313
  0.1742376637850685  0.4375000002676046  0.5404187278453313
  0.0000000000000000  0.6249999998929567  0.5416251725996044
  0.3257623069487350  0.5625000001605613  0.5404187278453313
  0.1742376637850685  0.5625000001605613  0.5404187278453313
  0.0000000000000000  0.7500000002140865  0.5416251725996044
  0.3257623069487350  0.6875000000535181  0.5404187278453313
  0.1742376637850685  0.6875000000535181  0.5404187278453313
  0.0000000000000000  0.8750000001070433  0.5416251725996044
  0.3257623069487350  0.8124999999464819  0.5404187278453313
  0.1742376637850685  0.8124999999464819  0.5404187278453313
  0.0000000000000000  0.5000000000000000  0.5416251725996044
  0.3257623069487350  0.9375000002676046  0.5404187278453313
  0.1742376637850685  0.9375000002676046  0.5404187278453313
  0.5000000000000000  0.1249999998929567  0.5416251725996044
  0.8257623069487351  0.0625000001605613  0.5404187278453313
  0.6742376637850683  0.0625000001605613  0.5404187278453313
  0.5000000000000000  0.2500000002140865  0.5416251725996044
  0.8257623069487351  0.1875000000535181  0.5404187278453313
  0.6742376637850683  0.1875000000535181  0.5404187278453313
  0.5000000000000000  0.3750000001070433  0.5416251725996044
  0.8257623069487351  0.3124999999464819  0.5404187278453313
  0.6742376637850683  0.3124999999464819  0.5404187278453313
  0.5000000000000000 -0.0000000000000000  0.5416251725996044
  0.8257623069487351  0.4375000002676046  0.5404187278453313
  0.6742376637850683  0.4375000002676046  0.5404187278453313
  0.5000000000000000  0.6249999998929567  0.5416251725996044
  0.8257623069487351  0.5625000001605613  0.5404187278453313
  0.6742376637850683  0.5625000001605613  0.5404187278453313
  0.5000000000000000  0.7500000002140865  0.5416251725996044
  0.8257623069487351  0.6875000000535181  0.5404187278453313
  0.6742376637850683  0.6875000000535181  0.5404187278453313
  0.5000000000000000  0.8750000001070433  0.5416251725996044
  0.8257623069487351  0.8124999999464819  0.5404187278453313
  0.6742376637850683  0.8124999999464819  0.5404187278453313
  0.5000000000000000  0.5000000000000000  0.5416251725996044
  0.8257623069487351  0.9375000002676046  0.5404187278453313
  0.6742376637850683  0.9375000002676046  0.5404187278453313
 
  0.00000000E+00  0.00000000E+00  0.00000000E+00
  0.00000000E+00  0.00000000E+00  0.00000000E+00
  0.00000000E+00  0.00000000E+00  0.00000000E+00
  0.00000000E+00  0.00000000E+00  0.00000000E+00
  0.00000000E+00  0.00000000E+00  0.00000000E+00
  0.00000000E+00  0.00000000E+00  0.00000000E+00
  0.00000000E+00  0.00000000E+00  0.00000000E+00
  0.00000000E+00  0.00000000E+00  0.00000000E+00