POSCAR                                  
   1.00000000000000     
     6.3682356153400672   -0.0000172503744209   -0.0000067726717169
    -3.1841319999765596    5.5081452699044711    0.0003450261340014
    -0.0000199976469191    0.0006305130129318   10.1180537662365637
   Al   N    Sc
    14    16     2
Direct
  0.1721985621592781  0.3353874953228159  0.9957605086608520
  0.6631891958443257  0.3353833618512471  0.9957622981161950
  0.1675635735557617  0.8351186784253097  0.9985244170445549
  0.6646976733568911  0.8293996261208456  0.9952751065660271
  0.1664365452367823  0.3343926307638645  0.5010271795151675
  0.6679587247245345  0.3343954452710027  0.5010260841413451
  0.3310702692611461  0.6638716414055011  0.2444215916185722
  0.1647933000983413  0.8295777177682006  0.4961096647750315
  0.8349094821352071  0.1698240754248306  0.7524472943179163
  0.3310228846344598  0.6672119319989822  0.7522691656457682
  0.8361913426725244  0.6672152282374881  0.7522751900857623
  0.3347492404220593  0.1695094067454859  0.2475209354077506
  0.3330252766915995  0.1660490988296847  0.7474154070611199
  0.8327968086775680  0.6638749764435006  0.2444218171118477
  0.1882795171008003  0.3425188340076454  0.1824106098102674
  0.6542389020278608  0.3425133728441571  0.1824162215771481
  0.1678499728937637  0.8357067533123197  0.1882735137688472
  0.6569414102281785  0.8138934112270065  0.1858545578057984
  0.1683328309004697  0.3353833986590166  0.6920916239127020
  0.6670560214425978  0.3353897245801605  0.6920951297963077
  0.1664520411618538  0.8329020519089561  0.6879966407365025
  0.6668402176300879  0.8336725245614223  0.7060751488440647
  0.3325056555696098  0.1650077214674667  0.9361820487967896
  0.8346079417514792  0.1692145417695194  0.9446060693483929
  0.3308212218089949  0.6675249825318105  0.9403162217977351
  0.8367063539670960  0.6675267585828578  0.9403208507446793
  0.3334136622153209  0.1668367557075620  0.4404497517708569
  0.8411454390830057  0.1822917220995807  0.4477784405617539
  0.3126916495661173  0.6548158003876655  0.4334595530112644
  0.8421244322988400  0.6548219801964338  0.4334612449678674
  0.6638123971929206  0.8276187844939814  0.4999425006677736
  0.8355774536905239  0.1711495670536779  0.2420132120133311
 
  0.00000000E+00  0.00000000E+00  0.00000000E+00
  0.00000000E+00  0.00000000E+00  0.00000000E+00
  0.00000000E+00  0.00000000E+00  0.00000000E+00
  0.00000000E+00  0.00000000E+00  0.00000000E+00
  0.00000000E+00  0.00000000E+00  0.00000000E+00
  0.00000000E+00  0.00000000E+00  0.00000000E+00
  0.00000000E+00  0.00000000E+00  0.00000000E+00
  0.00000000E+00  0.00000000E+00  0.00000000E+00
  0.00000000E+00  0.00000000E+00  0.00000000E+00
  0.00000000E+00  0.00000000E+00  0.00000000E+00
  0.00000000E+00  0.00000000E+00  0.00000000E+00
  0.00000000E+00  0.00000000E+00  0.00000000E+00
  0.00000000E+00  0.00000000E+00  0.00000000E+00
  0.00000000E+00  0.00000000E+00  0.00000000E+00
  0.00000000E+00  0.00000000E+00  0.00000000E+00
  0.00000000E+00  0.00000000E+00  0.00000000E+00
  0.00000000E+00  0.00000000E+00  0.00000000E+00
  0.00000000E+00  0.00000000E+00  0.00000000E+00
  0.00000000E+00  0.00000000E+00  0.00000000E+00
  0.00000000E+00  0.00000000E+00  0.00000000E+00
  0.00000000E+00  0.00000000E+00  0.00000000E+00
  0.00000000E+00  0.00000000E+00  0.00000000E+00
  0.00000000E+00  0.00000000E+00  0.00000000E+00
  0.00000000E+00  0.00000000E+00  0.00000000E+00
  0.00000000E+00  0.00000000E+00  0.00000000E+00
  0.00000000E+00  0.00000000E+00  0.00000000E+00
  0.00000000E+00  0.00000000E+00  0.00000000E+00
  0.00000000E+00  0.00000000E+00  0.00000000E+00
  0.00000000E+00  0.00000000E+00  0.00000000E+00
  0.00000000E+00  0.00000000E+00  0.00000000E+00
  0.00000000E+00  0.00000000E+00  0.00000000E+00
  0.00000000E+00  0.00000000E+00  0.00000000E+00
