Mo  S Co                                
   1.00000000000000     
    15.9214998300000001    0.0000000000000000    0.0000000000000000
    -7.9622501300000001   13.7910221699999997    0.0000000000000000
     0.0000000000000000    0.0000000000000000   13.5821998300000004
   Mo   S    Ru
    25    49     4
Direct
  0.1320729016732756  0.0668413586486665  0.6751148173701651
  0.1365801583657316  0.2670945251894210  0.6709985792342934
  0.1345173763252916  0.4648465513877440  0.6763240321604513
  0.1333717944269424  0.6657903324322447  0.6791688289420037
  0.1328765200854534  0.8660040130892810  0.6785388437896742
  0.3321609151013831  0.0663585605968819  0.6793854816076177
  0.3276569530513171  0.2642269722483306  0.6701034073683232
  0.3339772764974143  0.4634706145469565  0.6736636822446371
  0.3334708183614481  0.6653672336410352  0.6798642976420766
  0.3330735868642591  0.8660621911036799  0.6806158387322156
  0.5339760606955863  0.0666828762523721  0.6805545377071525
  0.5318615441693240  0.2672938934693789  0.6757823973541406
  0.5297117506475928  0.4665113011513711  0.6751688190418150
  0.5340378200666933  0.6680410823843914  0.6800157060995033
  0.5331391302551651  0.8667591147045144  0.6809432890649703
  0.7336230778084527  0.0667894113139127  0.6805153721269619
  0.7327521939708035  0.2652264227448811  0.6807784132199615
  0.7323822573408094  0.4663634089210191  0.6798790386280515
  0.7325576459004637  0.6671716255246594  0.6793572944723536
  0.7336347989848733  0.8671184888980363  0.6803219370963518
  0.9342823988014075  0.0674821856240797  0.6779683673263861
  0.9345977023282543  0.2665561857674632  0.6781649344257943
  0.9333916189678106  0.4659931726990223  0.6789353704789320
  0.9330249021463572  0.6662273231246374  0.6788849375310946
  0.9328239982857269  0.8662857387589824  0.6782337641760208
  0.0654709710510772  0.1333829670383651  0.5591205687544729
  0.0718528726406689  0.1382073445129066  0.7903179580928636
  0.0664386797420775  0.3322363856158077  0.5598854055097462
  0.0726571024044489  0.3322061221673209  0.7902128873194627
  0.0667288480928860  0.5328006770396954  0.5635330518824091
  0.0677653354442285  0.5313961257860171  0.7927807939955613
  0.0664950886477342  0.7323670778118014  0.5638952282840037
  0.0663913645696113  0.7327065355568152  0.7938653566821472
  0.0654117764747966  0.9314257305837401  0.5624039246179393
  0.0663254345122226  0.9341348621055943  0.7919525170289603
  0.2652755377436478  0.1293860161607938  0.5582655611709129
  0.2628228520741303  0.1340489268138043  0.7920690171732758
  0.2680685086102699  0.3355132461152621  0.5557764598655197
  0.2690123111110978  0.5336102516085433  0.5619509608124531
  0.2664730921361027  0.5268314939739582  0.7912900315459410
  0.2673075951113191  0.7328904060801591  0.5651596443299383
  0.2660221612722751  0.7314662564328671  0.7950562784107760
  0.2669086414753394  0.9324024699258757  0.5645869638569039
  0.2653753341770653  0.9328019067139692  0.7944362321023775
  0.4660488865431134  0.1328043288447276  0.5647984985713492
  0.4660755624819615  0.1342501465846624  0.7957285697543384
  0.4652875224680741  0.3335499918419629  0.5614134333848853
  0.4301727224874909  0.3236600131405680  0.8060437451461979
  0.4672116347308588  0.5360838091752740  0.5622229155978573
  0.4623086132874263  0.5311732426897109  0.7968271764146024
  0.4669038443102522  0.7340916801176576  0.5654157001062217
  0.4660870555415357  0.7330222533458084  0.7956515841939407
  0.4665879933760309  0.9331960658362846  0.5657285241807699
  0.4662840472593714  0.9331965725024389  0.7959359081386950
  0.6665755182338771  0.1331120512953348  0.5652493727215244
  0.6668989463543866  0.1329247899733517  0.7962089030386039
  0.6666962518295918  0.3330123744364428  0.5649603753576073
  0.6646628188424373  0.3335078020107787  0.7954672311269420
  0.6653626329170592  0.5328893630328508  0.5650693277845775
  0.6682575586812902  0.5343195689813030  0.7987540259307622
  0.6664862358495967  0.7342191132416076  0.5647021823229892
  0.6668506812418542  0.7335880932268779  0.7955193504637421
  0.6663429058062533  0.9334066959671645  0.5656555365834208
  0.6671497964220876  0.9335664366541891  0.7957535722875591
  0.8659722369657672  0.1330338997125864  0.5640911236975867
  0.8685118074793223  0.1340539619743808  0.7940267077798921
  0.8658310115270780  0.3324133053288634  0.5645025417420371
  0.8681689835014339  0.3329778240506371  0.7941569660028591
  0.8659379038502948  0.5325950928922865  0.5640714707048531
  0.8673149167729903  0.5332661750500094  0.7937582888163206
  0.8656077029747706  0.7323951748719750  0.5637108524028633
  0.8666669716144852  0.7334303088903269  0.7938068323397616
  0.8658340788288612  0.9331457599516284  0.5638594479057772
  0.8683311408802723  0.9346576856164077  0.7939285015104005
  0.3452089727899974  0.2372986191557871  0.9413310510195601
  0.5205599207509621  0.2774166469153130  0.8836660204213729
  0.5272975261349231  0.4521752194441930  0.8859811937494868
  0.4788219399361608  0.3447113784191842  0.0318505090860199
 
  0.00000000E+00  0.00000000E+00  0.00000000E+00
  0.00000000E+00  0.00000000E+00  0.00000000E+00
  0.00000000E+00  0.00000000E+00  0.00000000E+00
  0.00000000E+00  0.00000000E+00  0.00000000E+00
  0.00000000E+00  0.00000000E+00  0.00000000E+00
  0.00000000E+00  0.00000000E+00  0.00000000E+00
  0.00000000E+00  0.00000000E+00  0.00000000E+00
  0.00000000E+00  0.00000000E+00  0.00000000E+00
  0.00000000E+00  0.00000000E+00  0.00000000E+00
  0.00000000E+00  0.00000000E+00  0.00000000E+00
  0.00000000E+00  0.00000000E+00  0.00000000E+00
  0.00000000E+00  0.00000000E+00  0.00000000E+00
  0.00000000E+00  0.00000000E+00  0.00000000E+00
  0.00000000E+00  0.00000000E+00  0.00000000E+00
  0.00000000E+00  0.00000000E+00  0.00000000E+00
  0.00000000E+00  0.00000000E+00  0.00000000E+00
  0.00000000E+00  0.00000000E+00  0.00000000E+00
  0.00000000E+00  0.00000000E+00  0.00000000E+00
  0.00000000E+00  0.00000000E+00  0.00000000E+00
  0.00000000E+00  0.00000000E+00  0.00000000E+00
  0.00000000E+00  0.00000000E+00  0.00000000E+00
  0.00000000E+00  0.00000000E+00  0.00000000E+00
  0.00000000E+00  0.00000000E+00  0.00000000E+00
  0.00000000E+00  0.00000000E+00  0.00000000E+00
  0.00000000E+00  0.00000000E+00  0.00000000E+00
  0.00000000E+00  0.00000000E+00  0.00000000E+00
  0.00000000E+00  0.00000000E+00  0.00000000E+00
  0.00000000E+00  0.00000000E+00  0.00000000E+00
  0.00000000E+00  0.00000000E+00  0.00000000E+00
  0.00000000E+00  0.00000000E+00  0.00000000E+00
  0.00000000E+00  0.00000000E+00  0.00000000E+00
  0.00000000E+00  0.00000000E+00  0.00000000E+00
  0.00000000E+00  0.00000000E+00  0.00000000E+00
  0.00000000E+00  0.00000000E+00  0.00000000E+00
  0.00000000E+00  0.00000000E+00  0.00000000E+00
  0.00000000E+00  0.00000000E+00  0.00000000E+00
  0.00000000E+00  0.00000000E+00  0.00000000E+00
  0.00000000E+00  0.00000000E+00  0.00000000E+00
  0.00000000E+00  0.00000000E+00  0.00000000E+00
  0.00000000E+00  0.00000000E+00  0.00000000E+00
  0.00000000E+00  0.00000000E+00  0.00000000E+00
  0.00000000E+00  0.00000000E+00  0.00000000E+00
  0.00000000E+00  0.00000000E+00  0.00000000E+00
  0.00000000E+00  0.00000000E+00  0.00000000E+00
  0.00000000E+00  0.00000000E+00  0.00000000E+00
  0.00000000E+00  0.00000000E+00  0.00000000E+00
  0.00000000E+00  0.00000000E+00  0.00000000E+00
  0.00000000E+00  0.00000000E+00  0.00000000E+00
  0.00000000E+00  0.00000000E+00  0.00000000E+00
  0.00000000E+00  0.00000000E+00  0.00000000E+00
  0.00000000E+00  0.00000000E+00  0.00000000E+00
  0.00000000E+00  0.00000000E+00  0.00000000E+00
  0.00000000E+00  0.00000000E+00  0.00000000E+00
  0.00000000E+00  0.00000000E+00  0.00000000E+00
  0.00000000E+00  0.00000000E+00  0.00000000E+00
  0.00000000E+00  0.00000000E+00  0.00000000E+00
  0.00000000E+00  0.00000000E+00  0.00000000E+00
  0.00000000E+00  0.00000000E+00  0.00000000E+00
  0.00000000E+00  0.00000000E+00  0.00000000E+00
  0.00000000E+00  0.00000000E+00  0.00000000E+00
  0.00000000E+00  0.00000000E+00  0.00000000E+00
  0.00000000E+00  0.00000000E+00  0.00000000E+00
  0.00000000E+00  0.00000000E+00  0.00000000E+00
  0.00000000E+00  0.00000000E+00  0.00000000E+00
  0.00000000E+00  0.00000000E+00  0.00000000E+00
  0.00000000E+00  0.00000000E+00  0.00000000E+00
  0.00000000E+00  0.00000000E+00  0.00000000E+00
  0.00000000E+00  0.00000000E+00  0.00000000E+00
  0.00000000E+00  0.00000000E+00  0.00000000E+00
  0.00000000E+00  0.00000000E+00  0.00000000E+00
  0.00000000E+00  0.00000000E+00  0.00000000E+00
  0.00000000E+00  0.00000000E+00  0.00000000E+00
  0.00000000E+00  0.00000000E+00  0.00000000E+00
  0.00000000E+00  0.00000000E+00  0.00000000E+00
  0.00000000E+00  0.00000000E+00  0.00000000E+00
  0.00000000E+00  0.00000000E+00  0.00000000E+00
  0.00000000E+00  0.00000000E+00  0.00000000E+00
  0.00000000E+00  0.00000000E+00  0.00000000E+00
