Ta  N  W Cu                             
   1.00000000000000     
    18.1096308199999996    0.0000000000000000    0.0000000000000000
     0.0000000000000000   23.3551997799999995    0.0000000000000000
     0.0000000000000000    0.0000000000000000   30.4818171199999988
   Ta   N    W    Cu
   228   240    12     1
Direct
  0.0000031208110087  0.0000698216016701  0.1975213572959831
  0.3341744513013793  0.0625662615975813  0.2026561378199077
  0.1657639756367431  0.0626128797379408  0.2027496551728589
  0.2498840558781765  0.1251108259139144  0.2778916560888689
  0.0827721597731426  0.0626292310235357  0.2840926323233646
  0.4170736961921833  0.0625996911935474  0.2839705855359043
  0.0000022642618092  0.1251557514227528  0.3698924710683897
  0.3324581892843099  0.0626445420295383  0.3684052822929615
  0.1673060245829703  0.0626649289355967  0.3684046638217211
  0.2502787811757372  0.1254969477043417  0.4550401183003459
  0.0839664204867816  0.0626551774346993  0.4546717702388605
  0.4160721569128043  0.0626721478156398  0.4543030361679286
  0.0000214765989881  0.1252664966863151  0.5410920739105194
  0.3352717287595226  0.0630425197467233  0.5418596897784766
  0.0000016240571981  0.1250945161867207  0.1975068782680367
  0.3341487565898476  0.1875530693269809  0.2026618563055678
  0.1657538346974974  0.1875541140291048  0.2027372153357305
  0.2499520073538264  0.2501013623626207  0.2778976886370330
  0.0827221143454437  0.1876270910629358  0.2840763989009147
  0.4171284973374654  0.1875896202921297  0.2839885379859197
  0.9999997247869175  0.2501573602780880  0.3698688124403802
  0.3324348315955206  0.1876311122975380  0.3684266654961306
  0.1673537633009019  0.1876472999585559  0.3684841107455910
  0.2505151080066526  0.2497775206716284  0.4550311607586863
  0.0836371002964995  0.1876762829100400  0.4547321246007314
  0.4162137997917910  0.1875903826286631  0.4542977189423425
  0.0000387142006275  0.2500680272127838  0.5410970481824222
  0.3357331371036310  0.1873233320962839  0.5416522471140723
  0.1656936912912386  0.1876660227844553  0.5419215816586131
  0.0000058489033847  0.2500530813525188  0.1975209034221734
  0.3341746101306100  0.3125633983794529  0.2026625174935930
  0.1657602639836924  0.3126066051178995  0.2027588835325602
  0.2498802791464101  0.3750977468011172  0.2778925706133393
  0.0827682170214246  0.3126246747105483  0.2840934255630216
  0.4170737302581315  0.3125974291878109  0.2839709085888060
  0.0000036298539925  0.3751517638671586  0.3699005312230099
  0.3324567991338441  0.3126388983236197  0.3684029184409781
  0.1673093926388418  0.3126632964323122  0.3684030817538684
  0.2502778387322948  0.3755118220786215  0.4550384361409527
  0.0839700666340164  0.3126448614064046  0.4546661498189124
  0.4160782581443101  0.3126356101853673  0.4543094105576913
  0.0000649732943643  0.3752686300257437  0.5410667991417526
  0.3352054401800046  0.3129633355779120  0.5418400721732297
  0.0000027230769177  0.3750815947381554  0.1975183065834685
  0.3341445216513321  0.4375632259465334  0.2026752597652575
  0.1657829130742030  0.4375683124179162  0.2027608371123293
  0.2499540515849574  0.0001053756250116  0.2778988875435715
  0.0826938236348909  0.4376263986969491  0.2840865041351037
  0.4171448268943081  0.4376003418150631  0.2839861437801403
  0.9999995476047872  0.0001585112426383  0.3698678551051984
  0.3324451026285615  0.4376398746156980  0.3684230750438857
  0.1673456838961869  0.4376528968030726  0.3684767145471923
  0.2505126978163688  0.9997959286373472  0.4550279898518710
  0.0835707048624315  0.4376733805439912  0.4547666536741062
  0.4161958180079708  0.4375545944044035  0.4542381658135071
  0.0000354927837591  0.0000818912747960  0.5410891073789728
  0.3358567657724976  0.4372593225833157  0.5416061677398929
  0.1656980275225663  0.4376007840069960  0.5418945930111292
  0.9999861433396902  0.5000684468542076  0.1975184504423808
  0.3341883963836239  0.5625696779610507  0.2026609552587573
  0.1657483847439636  0.5625902047936862  0.2027549850824428
  0.2499005855492555  0.6251054450987965  0.2778771559089961
  0.0827354810035956  0.5626337033906239  0.2840776770015481
  0.4171060600044143  0.5625997694868374  0.2839965977156353
  0.9999775587944910  0.6251467397873327  0.3699382022973836
  0.3325546733858999  0.5626399502413548  0.3684132830904687
  0.1673308822438742  0.5626595974574826  0.3683607731553167
  0.2501370499380258  0.6254906288540951  0.4549606177721941
  0.0838616283089948  0.5626550031491604  0.4546430764434177
  0.4160167841453628  0.5626085130717158  0.4543492245011436
  0.0003945645327761  0.6252284491014919  0.5409645411239339
  0.3346301769855202  0.5627494809743254  0.5415737312492439
  0.9999870157231072  0.6250890757904557  0.1975209095494392
  0.3341615110831668  0.6875576017533831  0.2026684485877794
  0.1657577561151911  0.6875663617365078  0.2027491545249163
  0.2499552594918271  0.7500942174159491  0.2778843945868985
  0.0826842822962206  0.6876275891873433  0.2840589665862936
  0.4171633541985287  0.6875874343970949  0.2840120576314078
  0.9999875816921175  0.7501461313000490  0.3698847910938667
  0.3325388159030211  0.6876377976193027  0.3684287181723676
  0.1673827070414546  0.6876552016600570  0.3684378558850554
  0.2504135327844637  0.7498364917680078  0.4549999741015824
  0.0835327619674899  0.6876855604125609  0.4547014921869348
  0.4160893586785832  0.6876622104950201  0.4543337996136216
  0.0001500278805722  0.7501079834944804  0.5410803654004113
  0.3350885045373815  0.6875962413752745  0.5413936521259330
  0.1655991544419777  0.6877168706268648  0.5418788706668067
  0.9999911672679644  0.7500679208271066  0.1975243554398247
  0.3341632154043879  0.8125555171416465  0.2026650629475171
  0.1657748215350310  0.8126062922383568  0.2027729508943281
  0.2498824277321390  0.8751264176280742  0.2778904183339677
  0.0827458434029822  0.8126298573916984  0.2841086897948841
  0.4170915490087452  0.8125929073922364  0.2839775740862223
  0.9999984954173016  0.8751546237071253  0.3699054600057323
  0.3324584662363321  0.8126394049257399  0.3684019250538029
  0.1672851805462088  0.8126598045277547  0.3684035407359261
  0.2502722042300007  0.8754861099390752  0.4550386513046334
  0.0839005816821725  0.8126600846417134  0.4546982132312465
  0.4160296311016296  0.8127268442939055  0.4542510466133933
  0.0000860949487489  0.8752445899800776  0.5410656274576979
  0.3354107771449506  0.8130963615385696  0.5418310460867062
  0.9999985364146085  0.8751014819112370  0.1975172314479607
  0.3341535257722938  0.9375581607201866  0.2026686320494946
  0.1657526785690706  0.9375615866616158  0.2027465902071626
  0.2499539564162774  0.5001078902700797  0.2778870568934622
  0.0827181227147236  0.9376322727482744  0.2840764282365029
  0.4171287533914878  0.9375937239207914  0.2839882664930116
  0.9999933664047447  0.5001830766988675  0.3698832530698937
  0.3324360796306394  0.9376391453099728  0.3684256033063562
  0.1673536466754157  0.9376481678953112  0.3684813266908478
  0.2504424670522738  0.4997700814782746  0.4549993303154807
  0.0836346471892924  0.9376840416463637  0.4547306158757181
  0.4162411957146759  0.9376255139272018  0.4543051598771086
  0.0001917941598890  0.5000224738078813  0.5410946680768447
  0.3356193288133937  0.9374226735319837  0.5416302513749898
  0.1656895349016736  0.9377292360244383  0.5419058044911367
  0.4999947880228461  0.0000601070572444  0.1974897792692545
  0.8342430377589736  0.0626074111791226  0.2027459726338563
  0.6658263969157758  0.0625642072066199  0.2026547615103240
  0.7501308563518663  0.1251075736315173  0.2778861662677983
  0.5829186772588599  0.0625989864796637  0.2839659081347605
  0.9172368201069787  0.0626296555393679  0.2840941396153269
  0.4999870630690353  0.1251296189440723  0.3696281841528801
  0.8326936080743792  0.0626677562477838  0.3684004030679233
  0.6675388475279362  0.0626445183206243  0.3683938570860334
  0.7497172885483323  0.1254929093240733  0.4550312235472873
  0.5839020988594825  0.0626880853092047  0.4542949479873073
  0.9160235841072932  0.0626607049940304  0.4546739146595158
  0.4999816216268940  0.1250805639423334  0.5409900163395278
  0.6646991310157304  0.0631013903142374  0.5418691727809204
  0.5000069200142221  0.1250851688664056  0.1974676096191956
  0.8342456371048925  0.1875591701102124  0.2027360091412689
  0.6658528539256494  0.1875567420482156  0.2026611525290107
  0.7500526621113437  0.2501026504659976  0.2778921132655228
  0.5828674328992207  0.1875918062247663  0.2839813789276064
  0.9172861371101177  0.1876259205971706  0.2840773343272147
  0.4999794425161710  0.2500892744091274  0.3695948120030934
  0.8326488021115850  0.1876472971200798  0.3684808978155303
  0.6675588453663153  0.1876299807807129  0.3684123639251595
  0.7494738070164289  0.2497662476177993  0.4550227557073185
  0.5837509054956485  0.1875718054996085  0.4542838897912844
  0.9163548104933597  0.1876724160936831  0.4547346924037612
  0.8343426194863781  0.1876339104533926  0.5419323486218630
  0.6642159435172061  0.1872519015843110  0.5416639257248619
  0.4999975883871244  0.2500401109539752  0.1974916056724254
  0.8342454820512657  0.3126087548597383  0.2027587195388989
  0.6658258215420574  0.3125678143435451  0.2026581922330735
  0.7501159481879114  0.3751142779873575  0.2778960721830686
  0.5829138206880913  0.3126032235255209  0.2839696582338007
  0.9172409513073276  0.3126254119722205  0.2840961765428744
  0.4999976650002012  0.3751432339874867  0.3696355648546543
  0.8326765324854293  0.3126618015571339  0.3683952740739187
  0.6675304519914391  0.3126424084559005  0.3683864161854942
  0.7496805375795219  0.3754525779296785  0.4550267340131668
  0.5838485324387079  0.3126028375719940  0.4542855549729978
  0.9160304079028663  0.3126321428340049  0.4546583027676192
  0.4999825960461379  0.3749252745448999  0.5409596645960946
  0.6647947117965529  0.3126929637961311  0.5418288689633286
  0.4999964103145800  0.3750656528244605  0.1974835120048155
  0.8342150865586788  0.4375736458856281  0.2027736401693829
  0.6658563065638390  0.4375666849098536  0.2026856506581467
  0.7500522953510611  0.0001008374589020  0.2778930230067829
  0.5828600680948384  0.4376169340278580  0.2839882136786400
  0.9172816682767717  0.4376360205582657  0.2840910534417773
  0.4999816031077557  0.0001225871476933  0.3695980833743349
  0.8326063591787616  0.4376534614168861  0.3684738660051536
  0.6675164115307197  0.4376519748091496  0.3684362552599723
  0.7494777863487343  0.9998182543857226  0.4550151798702871
  0.5837143220647221  0.4374992077636364  0.4542888646909446
  0.9163333623392944  0.4376499894203150  0.4547153668395296
  0.8346115672882846  0.4374282602062323  0.5417836217661574
  0.6641238123775466  0.4366972507100542  0.5416757522297928
  0.5000053737158368  0.5000743684105089  0.1974969891543523
  0.8342308475019351  0.5626057654048466  0.2027700936633536
  0.6658223908309608  0.5625721855509056  0.2026814018936918
  0.7500170383206850  0.6251116777859238  0.2779477234818515
  0.5829237484454524  0.5626068530115091  0.2840429886396407
  0.9171893792934469  0.5626398850994718  0.2841179662468818
  0.5000418683023753  0.6251392273121468  0.3697298661642279
  0.8326066635962022  0.5626811724067906  0.3684648572075062
  0.6674018869579896  0.5626369014893982  0.3686100198293190
  0.7492669131655134  0.6254769577451782  0.4553910868323996
  0.5835991050391343  0.5626385463788210  0.4545701822244794
  0.9159393081327210  0.5626424889876276  0.4546793683550732
  0.4979242174669167  0.6251022898888579  0.5407771659915142
  0.6672218879587035  0.5614382897729939  0.5414010920718511
  0.5000077188886110  0.6250807965264116  0.1974912392918213
  0.8342357527642363  0.6875576040329037  0.2027606254119405
  0.6658374560889797  0.6875475433336860  0.2026865536617635
  0.7500061910502680  0.7500753376829721  0.2779152520940968
  0.5828716203154656  0.6875834268171133  0.2840604702955503
  0.9172329027240380  0.6876176730584689  0.2841014523617389
  0.5000415772893803  0.7501215031141655  0.3696601694662149
  0.8325475588640430  0.6876255077432774  0.3685435806157216
  0.6674212776627044  0.6876120183478491  0.3686273779269413
  0.7495190041809607  0.7498479924456376  0.4550205039200179
  0.5834288337814257  0.6876581340938657  0.4545356699564351
  0.9162711689537559  0.6876794348226269  0.4547248504639327
  0.8352590042673569  0.6876143617499508  0.5418822773719185
  0.6667036921743730  0.6890772135962422  0.5412258707306776
  0.5000096865918451  0.7500352511968060  0.1975029044424446
  0.8342189234329211  0.8125977430083893  0.2027876391321257
  0.6658315131628001  0.8125525766393551  0.2026757100064103
  0.7501135041077802  0.8751066235834060  0.2778939689528457
  0.5829173691996345  0.8125735470249467  0.2839825946300181
  0.9172326123134695  0.8126191061960313  0.2841140844368724
  0.4999933417395326  0.8751272581921299  0.3696397441835373
  0.8326583122054672  0.8126569825242029  0.3683981204741116
  0.6675024893529127  0.8126183677653458  0.3684167315773763
  0.7496707362837256  0.8755155858179435  0.4550214784289963
  0.5838333605678443  0.8127847731263458  0.4542821128214101
  0.9159849560340092  0.8126746276056522  0.4546591955645312
  0.4999918321023529  0.8752581521565901  0.5409954522694775
  0.6645023419153304  0.8136017496120473  0.5418714857128464
  0.4999973734047458  0.8750926648520050  0.1974806987050712
  0.8342455067239243  0.9375615046637478  0.2027459526346291
  0.6658477515756971  0.9375569339458991  0.2026650138420720
  0.7500104130581136  0.5001258435867726  0.2779171631055917
  0.5828634377498432  0.9375910037792110  0.2839854930149031
  0.9172913555953812  0.9376321254510884  0.2840748853340358
  0.5000577269538127  0.5001172923843669  0.3696632166202747
  0.8326358139616232  0.9376463485810334  0.3684710402113751
  0.6675423909257461  0.9376361688140236  0.3684119252755877
  0.7495208145486387  0.4997486314371287  0.4550183086255331
  0.5837139613302398  0.9376563252246157  0.4542951005757700
  0.9163660749962261  0.9377049892583855  0.4547109860853240
  0.8343023376448926  0.9378179905516291  0.5419061527647528
  0.6642827242171379  0.9376531364618117  0.5416328171117399
  0.4055585671493844  0.0000679075744756  0.2322670427487594
  0.2499418010556411  0.0000800593860504  0.1994091576139709
  0.0943350197762101  0.0001057871243262  0.2323646947060496
  0.1549879883998386  0.1251753577061763  0.3158283408985909
  0.0000038453988154  0.1251134889078642  0.3032042527737389
  0.3449680758433544  0.1251308389701080  0.3157553913860696
  0.4008762919218327  0.1251789815534963  0.4021898559244121
  0.2497787707782066  0.1251183677839194  0.3872340520760105
  0.0990058720704212  0.1251635115312766  0.4024524789500106
  0.1524059265839810  0.1250619216008459  0.4876885022801218
  0.0000007756063383  0.1249974634292741  0.4731787076484082
  0.3483915338636123  0.1251948130235050  0.4878595788199860
  0.4026358111137256  0.1252904446422178  0.5702754834513826
  0.2492814168741191  0.1238720975392908  0.5575815304134011
  0.0988019689890862  0.1230956672072452  0.5695463480087142
  0.4055851282428335  0.1250926051792973  0.2322388331037786
  0.2499670770455467  0.1250685645704621  0.1992809382924037
  0.0943104642106150  0.1251018449700538  0.2323742806353977
  0.1549651817237034  0.2501043117715369  0.3157982727128541
  0.0000043013737070  0.2501462418170703  0.3032044816484785
  0.3449318145698115  0.2500998110724808  0.3157824519286336
  0.4009160576804689  0.2500808884512935  0.4021050516562923
  0.2499130758360693  0.2501714962290222  0.3872159686329653
  0.0990512460933246  0.2501551886061009  0.4024492256071071
  0.1526372276228258  0.2502513373006749  0.4877146385593107
  0.9999938940405642  0.2503523590188621  0.4732511758010034
  0.3484215254203278  0.2501211577927620  0.4878526359047299
  0.4073923840605786  0.2499933359448576  0.5696022123462612
  0.2499217324933198  0.2512988142828618  0.5581068229038024
  0.0988323011374916  0.2521883578896507  0.5696068493153277
  0.4055586587245230  0.2500580053228987  0.2322674442094694
  0.2499342525634063  0.2500784167575461  0.1994105219665698
  0.0943410933089481  0.2501015280500525  0.2323626778852272
  0.1549890636692197  0.3751765645540388  0.3158290002184927
  0.9999963083314114  0.3751199130646725  0.3032162080742040
  0.3449640162847842  0.3751444437552180  0.3157590097760661
  0.4008833096157645  0.3751574818781691  0.4021818351697490
  0.2497849428200638  0.3751250491216283  0.3872303659182705
  0.0990020394254145  0.3751834883554181  0.4024625483547766
  0.1524006979430368  0.3750601734201595  0.4876718554668003
  0.9999671184825303  0.3749730602798849  0.4731583402602411
  0.3483985498564479  0.3751971454705370  0.4878384527060931
  0.4027195973895417  0.3753959383470189  0.5702581292490336
  0.2493395008833872  0.3739759523625352  0.5575584336161512
  0.0988227819180310  0.3730869993547472  0.5695501809112926
  0.4055709124020765  0.3750878275586729  0.2322448059714901
  0.2499784669061640  0.3750673696720952  0.1992884618127917
  0.0943095971776344  0.3751031713738371  0.2323828531069054
  0.1549660759891935  0.0000997382601113  0.3157975074931088
  0.0000047710872195  0.0001453513094916  0.3032041563000973
  0.3449351382968260  0.0001000901556907  0.3157811015661594
  0.4009139938814172  0.0000917558214866  0.4021048448314630
  0.2499114501564677  0.0001652784157358  0.3872152088234415
  0.0990522306100559  0.0001603892658082  0.4024476621557369
  0.1526349090205059  0.0002567677772518  0.4877126412567065
  0.9999933911916798  0.0003596638159280  0.4732477571634774
  0.3484230321627280  0.0001192569966619  0.4878499173076420
  0.4073741015784975  0.9998537948949249  0.5695991124645943
  0.2499214666750333  0.0012134480979853  0.5580981914585337
  0.0988202623137013  0.0021722379373088  0.5696029571497547
  0.4055720684419484  0.5000833974194379  0.2322722047372991
  0.2499510917990904  0.5000885112004028  0.1993556654826492
  0.0943063036032186  0.5000968086346873  0.2323665057378079
  0.1549848023527360  0.6251711779457736  0.3158120765816363
  0.9999700156344318  0.6251183860062852  0.3032403853434431
  0.3449780811965084  0.6251294965848544  0.3157558243731344
  0.4008643021404765  0.6251684955318950  0.4022018901993860
  0.2498262919341698  0.6251193579937393  0.3872004730076313
  0.0990436743510941  0.6251661325846385  0.4024188677220977
  0.1522902572869640  0.6250605018377371  0.4876541643431551
  0.9999224514114857  0.6249962090115844  0.4730554607104409
  0.3481535162877307  0.6251920519860121  0.4877990897712152
  0.4022486413392556  0.6252527112772270  0.5702889211273003
  0.2491221154947638  0.6238633442160832  0.5575751834694458
  0.0989338470099170  0.6230674153103024  0.5696144381752575
  0.4055943336624637  0.6250854968830808  0.2322640138272263
  0.2499612946258551  0.6250625285051683  0.1993320972102310
  0.0943062533156791  0.6250983497134115  0.2323722659869532
  0.1549621643869372  0.7501081407296937  0.3157870825095017
  0.9999778818230141  0.7501191647702967  0.3032226345493925
  0.3449372030845836  0.7501031998275423  0.3157821839124821
  0.4009385166686172  0.7500907466206428  0.4021146088665120
  0.2499186077006428  0.7501482739455412  0.3871975128655762
  0.0990432282107250  0.7501535144563007  0.4024495929221672
  0.1525564993671082  0.7502304789585992  0.4877067551554788
  0.9999182460437055  0.7503284643430064  0.4732263149069027
  0.3483397096474548  0.7501884486612553  0.4877892018133778
  0.4074172932821938  0.7495497354518648  0.5694965219749903
  0.2499262475265525  0.7512093961451285  0.5580286628898889
  0.0988581725392805  0.7521956292056586  0.5696335052820203
  0.4055756202412795  0.7500490402847646  0.2322733826212868
  0.2499415960592231  0.7500683404650559  0.1993590468333437
  0.0943124236595807  0.7501031466681880  0.2323690803808418
  0.1549891916879247  0.8751694372775702  0.3158289916555503
  0.9999943883406033  0.8751092182553464  0.3032202028279940
  0.3449597665209367  0.8751176662225078  0.3157589080226018
  0.4008740759818465  0.8751970486566449  0.4021827474069397
  0.2497788334338011  0.8751134848634621  0.3872308070092956
  0.0990019113197675  0.8751464744526558  0.4024651242139825
  0.1523893604186597  0.8750501455911319  0.4876836611776199
  0.9999650925533672  0.8750039973345380  0.4731581421460120
  0.3483892669568505  0.8752018657920928  0.4878445517883776
  0.4026862195223373  0.8752040958968337  0.5702770804885375
  0.2493206955671354  0.8737622514745240  0.5575597212047185
  0.0988426558102802  0.8730896451168064  0.5695651260498451
  0.4055725936050720  0.8750851206662631  0.2322442800025115
  0.2499725341229109  0.8750705897173745  0.1992922264014325
  0.0943037718251816  0.8751028277305224  0.2323826272032434
  0.1549569529584716  0.5001017034131152  0.3157872528276968
  0.9999793757780111  0.5001685742784119  0.3032215123732627
  0.3449400887508318  0.5000957539634570  0.3157824299168013
  0.4009576502565082  0.5000929642594087  0.4021189387817472
  0.2499210226640685  0.5001885640323138  0.3871983137893054
  0.0990520232850756  0.5001537444219792  0.4024480563022550
  0.1525643150691280  0.5002805080800528  0.4877119795252085
  0.9999350139786571  0.5003700717671222  0.4732275885854875
  0.3483540561284499  0.5000514687118667  0.4877884773405512
  0.4074917518188101  0.5003098065891649  0.5694764269693167
  0.2499133268119564  0.5012646371115750  0.5580726528500293
  0.0988874277207401  0.5021864833727108  0.5696435834302562
  0.9056694871343041  0.0001066138296579  0.2323625926849857
  0.7500607753789552  0.0000756878628891  0.1993918313522727
  0.5944335384028321  0.0000678847902620  0.2322642866541500
  0.6550373162682561  0.1251298128863780  0.3157466375232758
  0.4999975774281040  0.1250807624283681  0.3029768760260367
  0.8450190968411633  0.1251753198730228  0.3158260975016347
  0.9009919327036968  0.1251671730060977  0.4024519819238819
  0.7502205465691816  0.1251214348946021  0.3872289205400676
  0.5991107656409653  0.1251765929179953  0.4021788384607774
  0.6516038808080822  0.1251925485209142  0.4878605800286238
  0.4999896939045172  0.1250511292515384  0.4730078137559630
  0.8475849334688377  0.1250618990639580  0.4876996463527306
  0.9011896317543986  0.1230927097640659  0.5695586658203879
  0.7507227408882500  0.1238697532761179  0.5575921991352217
  0.5973500102378395  0.1252816527085017  0.5702922359647999
  0.9056874862291480  0.1251027201362334  0.2323746679579557
  0.7500304913880527  0.1250631353047922  0.1992892192487474
  0.5944325503724812  0.1250911933207774  0.2322377113523686
  0.6550694576449843  0.2501019979290930  0.3157727998232787
  0.4999974323922913  0.2501095178464752  0.3029577356316011
  0.8450424469880318  0.2501071597287492  0.3157964481726125
  0.9009456316994005  0.2501558407227336  0.4024494567580135
  0.7500789179623624  0.2501735750069898  0.3872106974676512
  0.5990551025804578  0.2500751376382411  0.4020849796805877
  0.6515506872773926  0.2500725195675884  0.4878317026458703
  0.4999881285248264  0.2501754679149286  0.4725378472275281
  0.8473505071320915  0.2502397569991786  0.4877245039836566
  0.9012073444405146  0.2521877637736480  0.5696098518977877
  0.7501021554152487  0.2513003891778141  0.5581223876865238
  0.5926536380242666  0.2499073034218284  0.5696234750502356
  0.9056680961524677  0.2500963594552914  0.2323582596370670
  0.7500668473148764  0.2500811372338632  0.1993970358680457
  0.5944393255807228  0.2500650356778351  0.2322643991525908
  0.6550204309483902  0.3751589075370276  0.3157575338594185
  0.5000021566679749  0.3750932748226390  0.3029830483488425
  0.8450095849342105  0.3751726825692074  0.3158275624330571
  0.9009788854319112  0.3751789732701809  0.4024436255425528
  0.7501852725834439  0.3751271746026887  0.3872331689890558
  0.5990894102012163  0.3751502457532396  0.4021908270840271
  0.6515088934958797  0.3750739879627574  0.4878285848299839
  0.4999626975306839  0.3751190181316488  0.4729764593787564
  0.8475586234088581  0.3749991410718465  0.4876495576608733
  0.9012322447795285  0.3730304297443041  0.5695389070893526
  0.7506671045885795  0.3740396648113062  0.5575578331554141
  0.5973484361465822  0.3751936587422904  0.5703567130106677
  0.9056951622778513  0.3751023557394220  0.2323795057186260
  0.7500280348670572  0.3750706508954877  0.1992929844857514
  0.5944250285920631  0.3750901073064767  0.2322380767015702
  0.6550671232347156  0.0000978907004310  0.3157749322051373
  0.4999982000641339  0.0001090276693816  0.3029610979291988
  0.8450398909088150  0.0001000464011582  0.3157953328458518
  0.9009474717600980  0.0001644467079345  0.4024456455535770
  0.7500803823012561  0.0001646960717494  0.3872094343487831
  0.5990583603651913  0.0000962870413730  0.4020907061461330
  0.6515521276314402  0.0001667537644749  0.4878317668476484
  0.4999925662941180  0.0002074219598356  0.4725353022803489
  0.8473491284153951  0.0002630265835251  0.4877127603238094
  0.9011855809510791  0.0021570427113602  0.5695944916673241
  0.7500589045366226  0.0011793584079456  0.5581060272937677
  0.5926376847146670  0.9999335012430777  0.5696213648202075
  0.9056733786717217  0.5001149387854866  0.2323757155598400
  0.7500548440224648  0.5000969253007383  0.1993854853954815
  0.5944363452937793  0.5001008008328043  0.2322879256319936
  0.6550161565302588  0.6251243755259210  0.3159369969642185
  0.5000241956680824  0.6250795162823266  0.3030804131726299
  0.8448719139992420  0.6251689773753455  0.3159063477001780
  0.9009189684322010  0.6251554466169225  0.4024489043821546
  0.7500359867825281  0.6251086369286867  0.3875244893711240
  0.5990488014117901  0.6251726240588269  0.4024482126980402
  0.6509568848316363  0.6252480075131572  0.4887690680838475
  0.4995791427803198  0.6250678213954757  0.4730637761449543
  0.8475553649846006  0.6250641912052544  0.4877341316457660
  0.9018745092088452  0.6230676887647277  0.5696622822253019
  0.7514472036255455  0.6237756473498379  0.5582227224962963
  0.5978213915294930  0.6253395383947264  0.5715476451447259
  0.9056706287107232  0.6250984816822509  0.2324024369788447
  0.7500306182405296  0.6250680540233731  0.1993116084967355
  0.5944170508307707  0.6250850993174453  0.2322992091912042
  0.6550568082329207  0.7500268368332996  0.3158673498585216
  0.5000099790782073  0.7500869373312469  0.3030109853984229
  0.8449671288541083  0.7500597881467783  0.3158235857478786
  0.9009089431112116  0.7501583496147362  0.4024326979826611
  0.7500046265433937  0.7501260441294164  0.3872790537940816
  0.5990241807532755  0.7500680368176234  0.4022287305759420
  0.6515597656731060  0.7503651901012915  0.4878556267068888
  0.4999402601197644  0.7503221068158297  0.4726427528931794
  0.8473869302688897  0.7502792856447584  0.4877039050650041
  0.9012973632772088  0.7523940000050828  0.5696444535799472
  0.7501563036290335  0.7508744892304691  0.5579811818463440
  0.5934557707732679  0.7492692084748924  0.5697706639760298
  0.9056771937093799  0.7500881831268842  0.2323791946358611
  0.7500567146454884  0.7500618148838072  0.1993901479909468
  0.5944365410402810  0.7500316796703004  0.2322961093318128
  0.6550267569712247  0.8751021908265528  0.3157591949397442
  0.5000025848776204  0.8750715833914455  0.3029873800261385
  0.8450037083121842  0.8751671738928835  0.3158287159126729
  0.9009673140689429  0.8751410357281415  0.4024470588268301
  0.7501838144881958  0.8751146455763248  0.3872306759996320
  0.5990950237683492  0.8752017645660430  0.4021945081007559
  0.6515286341385007  0.8752884283775231  0.4878525546091979
  0.4999584519607936  0.8749840657969514  0.4729943784081811
  0.8475437083318127  0.8751401024882597  0.4876529003039423
  0.9012450027615131  0.8731583349277230  0.5694950910034464
  0.7507532028331880  0.8736534163405452  0.5575995287183915
  0.5973886321478332  0.8753510007029632  0.5703638949443643
  0.9056983789413451  0.8750986627865771  0.2323837144004628
  0.7500276262059700  0.8750663045027807  0.1993022823353670
  0.5944224066370722  0.8750821850366748  0.2322424829336711
  0.6550510630536763  0.5001680222498166  0.3158654339607736
  0.5000138666790264  0.5001335661140658  0.3030124770174538
  0.8449819799996945  0.5001438375069753  0.3158207156160060
  0.9009076351225076  0.5001517472862815  0.4024356397446951
  0.7500103683993373  0.5001906341332685  0.3872742137589000
  0.5990399103886261  0.5001199842994382  0.4022400928899401
  0.6516397529374984  0.4998562427225934  0.4878922297026875
  0.4999903029593753  0.5000604977260465  0.4726749040565110
  0.8473999282990263  0.5002011374599462  0.4877263381367882
  0.9013476083939835  0.5020273310657473  0.5696864302738476
  0.7504146803412155  0.5013381398481940  0.5581251661540207
  0.5936004967551440  0.5007137238910886  0.5698839563770477
  0.1646539401836122  0.0626465204784665  0.5403743926550177
  0.1646671732218934  0.3125910957195330  0.5403625315918390
  0.1645718186848413  0.5625855970426841  0.5403435802872707
  0.1646567540580364  0.8126885298506750  0.5403532161617122
  0.8353775207294660  0.0626670337460240  0.5403837066666171
  0.5000059045261480  0.2501425843705860  0.5398247970254602
  0.8353713358371735  0.3125028536482404  0.5403780103386211
  0.4999837586745244  0.9998216986687751  0.5398249165520923
  0.8363148607617177  0.5626307361690266  0.5403808679300894
  0.5002186971094105  0.7492716042054539  0.5398540483001426
  0.8356472465275857  0.8128438135933749  0.5402299914155932
  0.5003304818486285  0.5007184488516643  0.5398971346753925
  0.5993742708829046  0.6211957278340989  0.6305794133115867
 
  0.00000000E+00  0.00000000E+00  0.00000000E+00
  0.00000000E+00  0.00000000E+00  0.00000000E+00
  0.00000000E+00  0.00000000E+00  0.00000000E+00
  0.00000000E+00  0.00000000E+00  0.00000000E+00
  0.00000000E+00  0.00000000E+00  0.00000000E+00
  0.00000000E+00  0.00000000E+00  0.00000000E+00