Mo  S Co                                
   1.00000000000000     
    15.9215000000000000    0.0000000000000000    0.0000000000000000
    -7.9622500000000000   13.7910219999999999    0.0000000000000000
     0.0000000000000000    0.0000000000000000   13.5822000000000003
   Mo   S    Co
    25    50     3
Direct
  0.1315918803672247  0.0655211039366179  0.6796305300004803
  0.1315760434388906  0.2650528850378606  0.6796398062147233
  0.1327154315199905  0.4658398595397273  0.6797052949320914
  0.1329455916172009  0.6659646015080156  0.6793069357827193
  0.1327221433596932  0.8658644969420521  0.6796584736384403
  0.3323522149233895  0.0655411533178452  0.6806969986907774
  0.3301719143146116  0.2645799235396709  0.6747933948192255
  0.3323648217562294  0.4658185323061659  0.6807109026543401
  0.3327895524899418  0.6659538658643527  0.6797778265197749
  0.3327904040503711  0.8658308362741423  0.6797627812794858
  0.5333348445035213  0.0659643720911518  0.6801600301623481
  0.5343371484413879  0.2647226798482336  0.6754624933922315
  0.5343541431392467  0.4686154134253471  0.6754668098996390
  0.5333464607478788  0.6663760223304394  0.6801544337828105
  0.5328208337616474  0.8659086094965076  0.6795690234605800
  0.7328076039467177  0.0658533744884338  0.6794783736222101
  0.7332432186434374  0.2655319789859760  0.6795022670321629
  0.7342175074896460  0.4666102929745009  0.6800681466229506
  0.7332598226897318  0.6667117008441110  0.6794766758229045
  0.7328166325503460  0.8659533450993990  0.6794584401173154
  0.9324066742311601  0.0656961998748713  0.6794087008178522
  0.9328220643907557  0.2659339125331144  0.6792405084074815
  0.9332643269413481  0.4660521611403894  0.6793648634182290
  0.9332742655264425  0.6662035655811351  0.6793308754003888
  0.9328377384601154  0.8658834384819798  0.6791930215115940
  0.0656841523720075  0.1323387026675320  0.5643565234765262
  0.0652585947055400  0.1321169827366475  0.7949486896312550
  0.0660720147714855  0.3326403699141807  0.5642498477848292
  0.0655943399942700  0.3323878105560070  0.7947188527409068
  0.0664706569573852  0.5325938767584617  0.5642428856103194
  0.0663464999153405  0.5327649540249126  0.7945802349271744
  0.0664817562477538  0.7328508120519999  0.5642081440463897
  0.0663496704272504  0.7325874165716968  0.7945499672167955
  0.0660985859702663  0.9324531731665076  0.5642109539978648
  0.0656024146691010  0.9321939842522795  0.7946792830878664
  0.2648064483548467  0.1306275443736098  0.5639036691349517
  0.2644024046767512  0.1303677521189925  0.7994854787656749
  0.2648020736107242  0.3331839177106417  0.5639200129721260
  0.2644046010250847  0.3330207506080569  0.7994519239930540
  0.2660822839218753  0.5325191345851152  0.5648186168623894
  0.2656728439262181  0.5329452821051746  0.7950512459457855
  0.2664110643311162  0.7326967497807217  0.5644162443435832
  0.2659996182979043  0.7325039852705544  0.7947205291095898
  0.2661018771849726  0.9325739210530628  0.5647867634874544
  0.2656592357801060  0.9317233105356451  0.7950216648512907
  0.4649183331279474  0.1304894896319624  0.5640333203395755
  0.4663577181168250  0.1331734055109735  0.7974823866781477
  0.4662536910954387  0.3326227220904485  0.5625665519326901
  0.4637867197993799  0.3314132602124005  0.7901505120956571
  0.4649225699232389  0.5334403371678036  0.5640334811942012
  0.4663905398946895  0.5321891154105813  0.7974726118650679
  0.4661917308728647  0.7324988273835089  0.5647706514466861
  0.4662312525501946  0.7328768345255980  0.7948334981564571
  0.4662007543022000  0.9327014023152458  0.5647650036829219
  0.4662245340218263  0.9323501416341387  0.7948283088622929
  0.6660413123731175  0.1324532226595352  0.5644550645117690
  0.6666060061301735  0.1325359161558666  0.7950020481315860
  0.6686621198659566  0.3338222645606024  0.5636334523734305
  0.6667608968324004  0.3331171637725632  0.7964665716302903
  0.6686829088205215  0.5338465918064585  0.5636114772463401
  0.6667798637884772  0.5326621122152986  0.7964697222987738
  0.6660481928356248  0.7325912364308920  0.5644377916718781
  0.6666285740796880  0.7330741699361809  0.7949821701183737
  0.6660401659782949  0.9325279310692451  0.5643091880657920
  0.6662392233091552  0.9326150854244446  0.7944909296145894
  0.8660030191537658  0.1325224044700732  0.5641667284476597
  0.8660877201802819  0.1325468636050786  0.7943835941663053
  0.8664596417428641  0.3326693267236251  0.5641905192028531
  0.8666515033400515  0.3326347424278637  0.7944782535487676
  0.8671355281103885  0.5330536131870360  0.5641678667287877
  0.8677234495385591  0.5333741948043027  0.7946535097566425
  0.8664691217641050  0.7327820671052621  0.5641502105343434
  0.8666734715277045  0.7330233219989992  0.7944372841946006
  0.8660123566213400  0.9324916072800349  0.5641408123422238
  0.8661044251071459  0.9325213583569791  0.7943580479139882
  0.3397595695338040  0.2693721559938282  0.8683192061471701
  0.5293051520559402  0.4542389160154272  0.8748705061634325
  0.5292600889195924  0.2740436207616952  0.8748509147017032
 
  0.00000000E+00  0.00000000E+00  0.00000000E+00
  0.00000000E+00  0.00000000E+00  0.00000000E+00
  0.00000000E+00  0.00000000E+00  0.00000000E+00
  0.00000000E+00  0.00000000E+00  0.00000000E+00
  0.00000000E+00  0.00000000E+00  0.00000000E+00
  0.00000000E+00  0.00000000E+00  0.00000000E+00
  0.00000000E+00  0.00000000E+00  0.00000000E+00
  0.00000000E+00  0.00000000E+00  0.00000000E+00
  0.00000000E+00  0.00000000E+00  0.00000000E+00
  0.00000000E+00  0.00000000E+00  0.00000000E+00
  0.00000000E+00  0.00000000E+00  0.00000000E+00
  0.00000000E+00  0.00000000E+00  0.00000000E+00
  0.00000000E+00  0.00000000E+00  0.00000000E+00
  0.00000000E+00  0.00000000E+00  0.00000000E+00
  0.00000000E+00  0.00000000E+00  0.00000000E+00
  0.00000000E+00  0.00000000E+00  0.00000000E+00
  0.00000000E+00  0.00000000E+00  0.00000000E+00
  0.00000000E+00  0.00000000E+00  0.00000000E+00
  0.00000000E+00  0.00000000E+00  0.00000000E+00
  0.00000000E+00  0.00000000E+00  0.00000000E+00
  0.00000000E+00  0.00000000E+00  0.00000000E+00
  0.00000000E+00  0.00000000E+00  0.00000000E+00
  0.00000000E+00  0.00000000E+00  0.00000000E+00
  0.00000000E+00  0.00000000E+00  0.00000000E+00
  0.00000000E+00  0.00000000E+00  0.00000000E+00
  0.00000000E+00  0.00000000E+00  0.00000000E+00
  0.00000000E+00  0.00000000E+00  0.00000000E+00
  0.00000000E+00  0.00000000E+00  0.00000000E+00
  0.00000000E+00  0.00000000E+00  0.00000000E+00
  0.00000000E+00  0.00000000E+00  0.00000000E+00
  0.00000000E+00  0.00000000E+00  0.00000000E+00
  0.00000000E+00  0.00000000E+00  0.00000000E+00
  0.00000000E+00  0.00000000E+00  0.00000000E+00
  0.00000000E+00  0.00000000E+00  0.00000000E+00
  0.00000000E+00  0.00000000E+00  0.00000000E+00
  0.00000000E+00  0.00000000E+00  0.00000000E+00
  0.00000000E+00  0.00000000E+00  0.00000000E+00
  0.00000000E+00  0.00000000E+00  0.00000000E+00
  0.00000000E+00  0.00000000E+00  0.00000000E+00
  0.00000000E+00  0.00000000E+00  0.00000000E+00
  0.00000000E+00  0.00000000E+00  0.00000000E+00
  0.00000000E+00  0.00000000E+00  0.00000000E+00
  0.00000000E+00  0.00000000E+00  0.00000000E+00
  0.00000000E+00  0.00000000E+00  0.00000000E+00
  0.00000000E+00  0.00000000E+00  0.00000000E+00
  0.00000000E+00  0.00000000E+00  0.00000000E+00
  0.00000000E+00  0.00000000E+00  0.00000000E+00
  0.00000000E+00  0.00000000E+00  0.00000000E+00
  0.00000000E+00  0.00000000E+00  0.00000000E+00
  0.00000000E+00  0.00000000E+00  0.00000000E+00
  0.00000000E+00  0.00000000E+00  0.00000000E+00
  0.00000000E+00  0.00000000E+00  0.00000000E+00
  0.00000000E+00  0.00000000E+00  0.00000000E+00
  0.00000000E+00  0.00000000E+00  0.00000000E+00
  0.00000000E+00  0.00000000E+00  0.00000000E+00
  0.00000000E+00  0.00000000E+00  0.00000000E+00
  0.00000000E+00  0.00000000E+00  0.00000000E+00
  0.00000000E+00  0.00000000E+00  0.00000000E+00
  0.00000000E+00  0.00000000E+00  0.00000000E+00
  0.00000000E+00  0.00000000E+00  0.00000000E+00
  0.00000000E+00  0.00000000E+00  0.00000000E+00
  0.00000000E+00  0.00000000E+00  0.00000000E+00
  0.00000000E+00  0.00000000E+00  0.00000000E+00
  0.00000000E+00  0.00000000E+00  0.00000000E+00
  0.00000000E+00  0.00000000E+00  0.00000000E+00
  0.00000000E+00  0.00000000E+00  0.00000000E+00
  0.00000000E+00  0.00000000E+00  0.00000000E+00
  0.00000000E+00  0.00000000E+00  0.00000000E+00
  0.00000000E+00  0.00000000E+00  0.00000000E+00
  0.00000000E+00  0.00000000E+00  0.00000000E+00
  0.00000000E+00  0.00000000E+00  0.00000000E+00
  0.00000000E+00  0.00000000E+00  0.00000000E+00
  0.00000000E+00  0.00000000E+00  0.00000000E+00
  0.00000000E+00  0.00000000E+00  0.00000000E+00
  0.00000000E+00  0.00000000E+00  0.00000000E+00
  0.00000000E+00  0.00000000E+00  0.00000000E+00
  0.00000000E+00  0.00000000E+00  0.00000000E+00
  0.00000000E+00  0.00000000E+00  0.00000000E+00
