Mo  S Cu                                
   1.00000000000000     
    15.9215000000000000    0.0000000000000000    0.0000000000000000
    -7.9622500000000000   13.7910219999999999    0.0000000000000000
     0.0000000000000000    0.0000000000000000   13.5822000000000003
   Mo   S    Cu
    25    50     2
Direct
  0.1327017359835665  0.0659012479831134  0.6783787817569333
  0.1324097384240304  0.2656979938642365  0.6783891622842120
  0.1327096490261255  0.4658043381586907  0.6782907601244759
  0.1329378933047707  0.6659747973119394  0.6780168671749394
  0.1329376649039276  0.8659601977293292  0.6780617210727655
  0.3331414109493096  0.0657890288120555  0.6783948473022718
  0.3320502658800635  0.2660875115951242  0.6796228958338588
  0.3320556647486725  0.4649613299052788  0.6795680073910972
  0.3331467217700990  0.6663651785071423  0.6783428874987294
  0.3329129245068287  0.8659555197153495  0.6779082524044924
  0.5331051512826335  0.0657730975377362  0.6779629442245252
  0.5336960665010366  0.2655270740098743  0.6792559933381099
  0.5323399285920871  0.4656712044146971  0.6811265231860730
  0.5337138351271022  0.6671774213028243  0.6792535854534236
  0.5331089688435426  0.8663293637835636  0.6779616322467490
  0.7330041474871720  0.0660000612021960  0.6778061315975776
  0.7331701511744697  0.2657742402827807  0.6782525432963240
  0.7327374154815018  0.4652307247554219  0.6797861939214229
  0.7327383956496405  0.6665013260120674  0.6798145168173804
  0.7331774083379372  0.8663947431256460  0.6782954233907930
  0.9326982194670137  0.0659350895365733  0.6779402019628051
  0.9326999122668127  0.2657543568382792  0.6779007917406048
  0.9329981507136864  0.4658560181909053  0.6782075998347636
  0.9327660407060847  0.6658808138397561  0.6786152070104450
  0.9330000446886828  0.8661395130213450  0.6782771849197147
  0.0662986745969718  0.1327670675617014  0.5630529383077132
  0.0656247754804795  0.1321371792561337  0.7937160774145866
  0.0663005591696404  0.3325066425468322  0.5630057545193097
  0.0656167699752004  0.3325221149708284  0.7936545963371771
  0.0662801334327554  0.5325309162424361  0.5629907175772360
  0.0662862928488153  0.5327424176977615  0.7932170363793176
  0.0659140701402947  0.7324745936745174  0.5631256770445532
  0.0664352738255047  0.7327005388251777  0.7932577410372446
  0.0662785397802850  0.9327649326335177  0.5630678256711050
  0.0662870654521157  0.9325290037720109  0.7932948917412546
  0.2667157774426201  0.1333965169121925  0.5638131140051357
  0.2655020584567751  0.1314021988330865  0.7939955734504167
  0.2661743137992758  0.3325714120155681  0.5636659044185706
  0.2643830363960049  0.3316784415613228  0.7949985171371310
  0.2667432691427223  0.5323355973153312  0.5637460782640034
  0.2654972206701558  0.5331272555080204  0.7939027974088546
  0.2663461605720769  0.7325554180427645  0.5629080132612287
  0.2661926175566975  0.7328513286216705  0.7932369860838904
  0.2663398713276521  0.9328166515231970  0.5629476645402107
  0.2662040990269148  0.9323328805935631  0.7932731807834656
  0.4666059597199350  0.1330302742425076  0.5633920880564673
  0.4662558589008370  0.1314111113115572  0.7936661832723360
  0.4663525751352751  0.3331206619358511  0.5656782283844777
  0.4647826052237818  0.3286370934736453  0.7984738703818621
  0.4663682724787677  0.5322460934063500  0.5656662668449641
  0.4647763682949773  0.5351546523425270  0.7984590398449427
  0.4666352854413915  0.7325941853498392  0.5633709286042006
  0.4662380579457164  0.7338346988189457  0.7936412852224777
  0.4662968942325847  0.9326508539993483  0.5627105092264415
  0.4662772189439934  0.9326374534470432  0.7930663653332601
  0.6664110222616060  0.1327685214875842  0.5627732222005051
  0.6664295752700298  0.1323298500363421  0.7931472423694572
  0.6663131142782390  0.3328424959056449  0.5639343831898103
  0.6669486881334237  0.3317358945545621  0.7946247292251911
  0.6650061425002178  0.5320123573489326  0.5659874879639517
  0.6686545125089509  0.5338185304463892  0.7985204069457410
  0.6663444540106553  0.7324938009423576  0.5639610062486611
  0.6669377925938136  0.7342033870183542  0.7946571287821769
  0.6664260238456308  0.9326368888147059  0.5627893045195549
  0.6664210683372360  0.9331110339801967  0.7931656742113091
  0.8662649890301140  0.1326171504427904  0.5626605374352138
  0.8660599969748262  0.1325431620219391  0.7930391878864995
  0.8662344368233903  0.3326336787795796  0.5628877798504277
  0.8664629646588793  0.3324827953664169  0.7932666978360956
  0.8654340153844231  0.5322287853433068  0.5637864081118309
  0.8671076780354028  0.5327372206406906  0.7938739335022404
  0.8654382708682249  0.7322321519678354  0.5638257432191409
  0.8671040988608496  0.7333443451921084  0.7939110817798323
  0.8662445056475789  0.9325951234546395  0.5629444512038830
  0.8664562632353565  0.9329847398753657  0.7933330654131510
  0.2539510252712631  0.3251064060457907  0.9542350433515310
  0.5292939039405908  0.4641523136492012  0.8914522926414250
 
  0.00000000E+00  0.00000000E+00  0.00000000E+00
  0.00000000E+00  0.00000000E+00  0.00000000E+00
  0.00000000E+00  0.00000000E+00  0.00000000E+00
  0.00000000E+00  0.00000000E+00  0.00000000E+00
  0.00000000E+00  0.00000000E+00  0.00000000E+00
  0.00000000E+00  0.00000000E+00  0.00000000E+00
  0.00000000E+00  0.00000000E+00  0.00000000E+00
  0.00000000E+00  0.00000000E+00  0.00000000E+00
  0.00000000E+00  0.00000000E+00  0.00000000E+00
  0.00000000E+00  0.00000000E+00  0.00000000E+00
  0.00000000E+00  0.00000000E+00  0.00000000E+00
  0.00000000E+00  0.00000000E+00  0.00000000E+00
  0.00000000E+00  0.00000000E+00  0.00000000E+00
  0.00000000E+00  0.00000000E+00  0.00000000E+00
  0.00000000E+00  0.00000000E+00  0.00000000E+00
  0.00000000E+00  0.00000000E+00  0.00000000E+00
  0.00000000E+00  0.00000000E+00  0.00000000E+00
  0.00000000E+00  0.00000000E+00  0.00000000E+00
  0.00000000E+00  0.00000000E+00  0.00000000E+00
  0.00000000E+00  0.00000000E+00  0.00000000E+00
  0.00000000E+00  0.00000000E+00  0.00000000E+00
  0.00000000E+00  0.00000000E+00  0.00000000E+00
  0.00000000E+00  0.00000000E+00  0.00000000E+00
  0.00000000E+00  0.00000000E+00  0.00000000E+00
  0.00000000E+00  0.00000000E+00  0.00000000E+00
  0.00000000E+00  0.00000000E+00  0.00000000E+00
  0.00000000E+00  0.00000000E+00  0.00000000E+00
  0.00000000E+00  0.00000000E+00  0.00000000E+00
  0.00000000E+00  0.00000000E+00  0.00000000E+00
  0.00000000E+00  0.00000000E+00  0.00000000E+00
  0.00000000E+00  0.00000000E+00  0.00000000E+00
  0.00000000E+00  0.00000000E+00  0.00000000E+00
  0.00000000E+00  0.00000000E+00  0.00000000E+00
  0.00000000E+00  0.00000000E+00  0.00000000E+00
  0.00000000E+00  0.00000000E+00  0.00000000E+00
  0.00000000E+00  0.00000000E+00  0.00000000E+00
  0.00000000E+00  0.00000000E+00  0.00000000E+00
  0.00000000E+00  0.00000000E+00  0.00000000E+00
  0.00000000E+00  0.00000000E+00  0.00000000E+00
  0.00000000E+00  0.00000000E+00  0.00000000E+00
  0.00000000E+00  0.00000000E+00  0.00000000E+00
  0.00000000E+00  0.00000000E+00  0.00000000E+00
  0.00000000E+00  0.00000000E+00  0.00000000E+00
  0.00000000E+00  0.00000000E+00  0.00000000E+00
  0.00000000E+00  0.00000000E+00  0.00000000E+00
  0.00000000E+00  0.00000000E+00  0.00000000E+00
  0.00000000E+00  0.00000000E+00  0.00000000E+00
  0.00000000E+00  0.00000000E+00  0.00000000E+00
  0.00000000E+00  0.00000000E+00  0.00000000E+00
  0.00000000E+00  0.00000000E+00  0.00000000E+00
  0.00000000E+00  0.00000000E+00  0.00000000E+00
  0.00000000E+00  0.00000000E+00  0.00000000E+00
  0.00000000E+00  0.00000000E+00  0.00000000E+00
  0.00000000E+00  0.00000000E+00  0.00000000E+00
  0.00000000E+00  0.00000000E+00  0.00000000E+00
  0.00000000E+00  0.00000000E+00  0.00000000E+00
  0.00000000E+00  0.00000000E+00  0.00000000E+00
  0.00000000E+00  0.00000000E+00  0.00000000E+00
  0.00000000E+00  0.00000000E+00  0.00000000E+00
  0.00000000E+00  0.00000000E+00  0.00000000E+00
  0.00000000E+00  0.00000000E+00  0.00000000E+00
  0.00000000E+00  0.00000000E+00  0.00000000E+00
  0.00000000E+00  0.00000000E+00  0.00000000E+00
  0.00000000E+00  0.00000000E+00  0.00000000E+00
  0.00000000E+00  0.00000000E+00  0.00000000E+00
  0.00000000E+00  0.00000000E+00  0.00000000E+00
  0.00000000E+00  0.00000000E+00  0.00000000E+00
  0.00000000E+00  0.00000000E+00  0.00000000E+00
  0.00000000E+00  0.00000000E+00  0.00000000E+00
  0.00000000E+00  0.00000000E+00  0.00000000E+00
  0.00000000E+00  0.00000000E+00  0.00000000E+00
  0.00000000E+00  0.00000000E+00  0.00000000E+00
  0.00000000E+00  0.00000000E+00  0.00000000E+00
  0.00000000E+00  0.00000000E+00  0.00000000E+00
  0.00000000E+00  0.00000000E+00  0.00000000E+00
  0.00000000E+00  0.00000000E+00  0.00000000E+00
  0.00000000E+00  0.00000000E+00  0.00000000E+00
